
units lj                  # Use reduced LJ style units
atom_style atomic         # Uncharged point particles
atom_modify map hash      # Needed for indexing of clusters etc
                          # Used to be able to find where atoms are in relation to each other.

lattice fcc 1.0 spacing 1 1 1
Lattice spacing in x,y,z = 1.5874011 1.5874011 1.5874011
region box block 0 10 0 10 0 10 units lattice
create_box 2 box
Created orthogonal box = (0.0000000 0.0000000 0.0000000) to (15.874011 15.874011 15.874011)
  3 by 4 by 4 MPI processor grid
create_atoms 1 box
Created 4000 atoms
  using lattice units in orthogonal box = (0.0000000 0.0000000 0.0000000) to (15.874011 15.874011 15.874011)
  create_atoms CPU = 0.017 seconds
set type 1 type/fraction 2 0.06 78393
Setting atom values ...
  252 settings made for type/fraction
mass 1 1.0
mass 2 1.0
pair_style lj/cut  3.5
pair_modify tail  yes
pair_coeff 1  1  1.0  1.0   # Intearaction between 1 and 1 set with epsilon = 1 and sigma = 1
pair_coeff 1  2  1.5  0.8
pair_coeff 2  2  0.5  0.88

write_data data.0
System init for write_data ...
Neighbor list info ...
  update every 1 steps, delay 10 steps, check yes
  max neighbors/atom: 2000, page size: 100000
  master list distance cutoff = 3.8
  ghost atom cutoff = 3.8
  binsize = 1.9, bins = 9 9 9
  1 neighbor lists, perpetual/occasional/extra = 1 0 0
  (1) pair lj/cut, perpetual
      attributes: half, newton on
      pair build: half/bin/atomonly/newton
      stencil: half/bin/3d
      bin: standard
WARNING: Not all mixed pair coeffs generated from mixing. Use write_data with 'pair ij' option to store all pair coeffs. (../write_data.cpp:312)


#############################
#   M E L T   S Y S T E M   #
#############################

velocity all create 2.4 5300450 mom yes dist gaussian # Assign velocities
                                                    # Temperature 2.4, random number seed, zero linear momentum
                                                                                # Gaussian distribution

timestep 0.002   # simulation timestep
thermo 1000       # output thermodynamic data every 1000 steps bf 100

# Define a fix  in this case with index 1 applied to all
# particles in the simulation. This fix is for simulations
# in the anisotropic NPT ensemble. Note that we use the MTK
# correction.
fix 1 all npt temp 2.4 2.4 0.1 iso 5.68 5.68 0.5 mtk yes tchain 5 pchain 5 # Use NPT ensemble
                                                                         # Set temperature and pressure and damping
                                                                         # Numbers of thermostats in chain and in barostat
run 10000          # run for 10000 steps
Per MPI rank memory allocation (min/avg/max) = 3.642 | 3.644 | 3.648 Mbytes
Step Temp E_pair E_mol TotEng Press Volume 
       0          2.4   -7.9704536            0   -4.3713536   -2.7323792         4000 
    1000    2.3849385   -4.5185942            0  -0.94208081    5.7151524    4983.5403 
    2000    2.4167781   -4.6287415            0   -1.0044807    5.6024298     4932.023 
    3000    2.4271829   -4.5697657            0  -0.92990162    5.5731585    4981.3567 
    4000    2.4059641   -4.5350321            0  -0.92698816    5.4959324    5011.1915 
    5000    2.3636894   -4.4822175            0  -0.93756983    5.6979057    5005.1868 
    6000    2.3800014   -4.5105589            0  -0.94144928    6.1199425    4928.0834 
    7000    2.3586326   -4.5116213            0  -0.97455691    5.7756018    4973.8993 
    8000    2.3920479   -4.5373101            0  -0.95013534    5.3260945     5023.322 
    9000    2.3884312   -4.5666771            0  -0.98492596    5.5743321    4978.1819 
   10000    2.4074296   -4.4894404            0  -0.87919876    5.7166786    5001.4396 
Loop time of 2.10864 on 48 procs for 10000 steps with 4000 atoms

Performance: 819485.707 tau/day, 4742.394 timesteps/s
99.6% CPU use with 48 MPI tasks x no OpenMP threads

MPI task timing breakdown:
Section |  min time  |  avg time  |  max time  |%varavg| %total
---------------------------------------------------------------
Pair    | 0.87368    | 0.93241    | 1.0018     |   2.7 | 44.22
Neigh   | 0.18078    | 0.18611    | 0.20328    |   0.9 |  8.83
Comm    | 0.64764    | 0.7366     | 0.80557    |   4.2 | 34.93
Output  | 0.00024526 | 0.00025031 | 0.0003165  |   0.0 |  0.01
Modify  | 0.19714    | 0.23843    | 0.27128    |   4.5 | 11.31
Other   |            | 0.01485    |            |       |  0.70

Nlocal:        83.3333 ave          93 max          73 min
Histogram: 1 1 3 6 7 11 9 7 2 1
Nghost:        1423.29 ave        1446 max        1395 min
Histogram: 3 1 2 6 8 5 7 9 4 3
Neighs:        7619.96 ave        8606 max        6597 min
Histogram: 1 5 4 6 10 4 5 6 5 2

Total # of neighbors = 365758
Ave neighs/atom = 91.439500
Neighbor list builds = 895
Dangerous builds = 156

# Equilibrate just above the melting temperature to avoid step fn in T

fix 1 all npt temp 1.25 1.25 0.1 iso 5.68 5.68 0.5 mtk yes tchain 5 pchain 5
run 2000
Per MPI rank memory allocation (min/avg/max) = 3.643 | 3.646 | 3.650 Mbytes
Step Temp E_pair E_mol TotEng Press Volume 
   10000    2.4074296   -4.4894404            0  -0.87919876    5.7166786    5001.4396 
   11000    1.2321942   -6.0543493            0   -4.2065201     5.546981    4139.4605 
   12000    1.2057087   -6.0943317            0   -4.2862208    5.3227892    4135.5621 
Loop time of 0.469207 on 48 procs for 2000 steps with 4000 atoms

Performance: 736561.182 tau/day, 4262.507 timesteps/s
99.6% CPU use with 48 MPI tasks x no OpenMP threads

MPI task timing breakdown:
Section |  min time  |  avg time  |  max time  |%varavg| %total
---------------------------------------------------------------
Pair    | 0.19716    | 0.21846    | 0.23396    |   1.7 | 46.56
Neigh   | 0.030962   | 0.032972   | 0.035193   |   0.5 |  7.03
Comm    | 0.14631    | 0.16175    | 0.18483    |   2.0 | 34.47
Output  | 5.3633e-05 | 5.4618e-05 | 7.0063e-05 |   0.0 |  0.01
Modify  | 0.044541   | 0.05145    | 0.058542   |   1.6 | 10.97
Other   |            | 0.004521   |            |       |  0.96

Nlocal:        83.3333 ave          91 max          76 min
Histogram: 4 0 6 3 12 5 10 2 4 2
Nghost:        1607.35 ave        1636 max        1573 min
Histogram: 4 1 1 5 10 7 9 4 4 3
Neighs:        9228.42 ave       10147 max        8096 min
Histogram: 3 2 3 4 5 7 12 4 7 1

Total # of neighbors = 442964
Ave neighs/atom = 110.74100
Neighbor list builds = 142
Dangerous builds = 10

#############################
# L I N E A R  Q U E N C H  #
#############################

# Define solid atoms. This closely follows ten Wolde  Ruiz-Montero and Frenkel  Faraday Discuss  1996  104  93-110
# Compute components of the per-atom q6 vector
compute q6 all orientorder/atom degrees 1 6 components 6 nnn NULL cutoff 1.3 # compute the Q6 parameter.
                                                                             # Use all neighbours within 1.3 unit cell.

# get number of connections
compute coord_number all coord/atom orientorder q6 0.5

# An atom is solid if it has 8 or more connections (of a possible 14)
variable is_solid atom c_coord_number>=8
group solid dynamic all var is_solid    # Must be dynamic to update
dynamic group solid defined

# do clustering
compute cluster solid cluster/atom 1.3 # Create a cluster where all atoms within are solid and max 1.3 units from another member

# define chunks one chunk per cluster
compute clus_chunks solid chunk/atom c_cluster nchunk every compress yes  # Says which atoms are in which chunk

# count the size of each chunk
compute size_chunks solid property/chunk clus_chunks count


# Find the maximum entry in the vector of chunk sizes
variable max_n equal max(c_size_chunks)


# Thermo style which includes this variable
# thermo_style custom step temp pe vol v_max_n

thermo ${N}  # Print the thermo information every 100 steps
thermo 1000  

# Reset the npt fix at a lower temperature (below freezing)
fix 1  all npt temp  ${temp} ${temp}  0.1  iso  5.68  5.68  0.5  mtk yes tchain  5  pchain  5
fix 1  all npt temp  0.45 ${temp}  0.1  iso  5.68  5.68  0.5  mtk yes tchain  5  pchain  5
fix 1  all npt temp  0.45 0.45  0.1  iso  5.68  5.68  0.5  mtk yes tchain  5  pchain  5

dump dmp2 all dcd ${N} traj.dcd
dump dmp2 all dcd 1000 traj.dcd


compute msd all msd com yes
variable twopoint equal c_msd[4]/6/(step*dt+1.0e-6)
fix 9 all vector 10 c_msd[4]
variable fit equal slope(f_9)/6/(10*dt)
thermo_style custom step temp pe c_msd[4] v_twopoint v_fit v_max_n

fix 1 all npt temp 1.25 ${temp} 0.1 iso 5.68 5.68 0.5 mtk yes tchain 5 pchain 5
fix 1 all npt temp 1.25 0.45 0.1 iso 5.68 5.68 0.5 mtk yes tchain 5 pchain 5
run 500000 # 5000000  # Run for this many steps
Neighbor list info ...
  update every 1 steps, delay 10 steps, check yes
  max neighbors/atom: 2000, page size: 100000
  master list distance cutoff = 3.8
  ghost atom cutoff = 3.8
  binsize = 1.9, bins = 9 9 9
  4 neighbor lists, perpetual/occasional/extra = 1 3 0
  (1) pair lj/cut, perpetual
      attributes: half, newton on
      pair build: half/bin/atomonly/newton
      stencil: half/bin/3d
      bin: standard
  (2) compute orientorder/atom, occasional
      attributes: full, newton on
      pair build: full/bin/atomonly
      stencil: full/bin/3d
      bin: standard
  (3) compute coord/atom, occasional
      attributes: full, newton on
      pair build: full/bin/atomonly
      stencil: full/bin/3d
      bin: standard
  (4) compute cluster/atom, occasional
      attributes: full, newton on
      pair build: full/bin/atomonly
      stencil: full/bin/3d
      bin: standard
Per MPI rank memory allocation (min/avg/max) = 9.740 | 9.746 | 9.752 Mbytes
Step Temp PotEng c_msd[4] v_twopoint v_fit v_max_n 
   12000    1.2057087   -6.0943317 2.9316043e-30 2.0358363e-32 8.3333333e+20            2 
   13000    1.2659611   -6.0487837   0.52300478 0.0033525946  0.043463815            4 
   14000    1.2299615   -6.0891104    1.0809609 0.0064342908  0.043709389            3 
   15000    1.2572119   -6.1138128    1.5792068 0.0087733708  0.043818754            4 
   16000    1.2234289   -6.0865795     2.108902  0.010983864  0.043660831            3 
   17000    1.2525617   -6.0861356    2.6312428  0.012898249  0.043656323            3 
   18000    1.2343111   -6.0595767    3.1725332  0.014687653  0.044024265            3 
   19000    1.2287977     -6.10608    3.6169995  0.015864032  0.043558251            3 
   20000    1.2453877   -6.0911519    4.1520557  0.017300232  0.043234165            2 
   21000    1.2694101   -6.0821385    4.6669871   0.01851979  0.043068304            1 
   22000    1.2270237   -6.0546726    5.1501725  0.019508229  0.042975382            3 
   23000    1.2604304   -6.0275738    5.7303048  0.020761974  0.042835307            5 
   24000    1.2312541   -6.0808818    6.2360955  0.021653109  0.042985132            2 
   25000    1.2465432   -6.0628167    6.7808968  0.022602989  0.043048794            3 
   26000    1.2224384   -6.0844189    7.2460398  0.023224486  0.043117552            4 
   27000    1.2170824   -6.1099814    7.7125506  0.023804168  0.043021055            2 
   28000      1.19302    -6.073875    8.3260115  0.024779796  0.043013895            5 
   29000    1.2256779    -6.101699    8.9838429   0.02581564  0.043177664            3 
   30000    1.2208864   -6.1076968     9.428187  0.026189408  0.043354708            2 
   31000    1.2245356   -6.1387474     9.882994  0.026567188  0.043401593            3 
   32000    1.2096294   -6.1163014    10.442748  0.027194655  0.043427671            3 
   33000    1.1926856    -6.081957    10.940135  0.027626604  0.043392292            2 
   34000    1.2124349   -6.1373465    11.458108  0.028083598  0.043394209            5 
   35000    1.1809764   -6.1061579    12.028318  0.028638852  0.043397123            3 
   36000    1.2237097   -6.1418815    12.479771  0.028888358  0.043384844            4 
   37000    1.2339837   -6.1389244    13.108404  0.029523433  0.043425622            2 
   38000    1.1773462   -6.1370865    13.680419  0.030000918  0.043524748            3 
   39000    1.2088742   -6.1041811    14.322431  0.030603486  0.043625273            3 
   40000    1.1904877    -6.126276    14.916559  0.031076164  0.043756275            2 
   41000    1.2060365   -6.1823998    15.264813  0.031026042   0.04383694            4 
   42000    1.1774292   -6.1700317    15.680676  0.031112452  0.043830735            4 
   43000    1.1990653   -6.1068553    16.222072  0.031438124  0.043812765            2 
   44000    1.2047334   -6.1687721    16.591252  0.031422826   0.04376855            5 
   45000    1.2243614   -6.1744375    17.084035  0.031637101  0.043690076            5 
   46000    1.1990107   -6.1723756    17.651981  0.031978226   0.04361112            4 
   47000     1.192891   -6.1710049    18.259377  0.032374782  0.043584469            4 
   48000    1.2091403   -6.1637218     18.83253  0.032695363   0.04357212            3 
   49000     1.196478   -6.1683765    19.364017  0.032932001   0.04357114            2 
   50000     1.183546   -6.1546769    19.778912  0.032964853   0.04354798            3 
   51000    1.1701967   -6.1433095     20.23378  0.033061732  0.043508181            5 
   52000    1.1805389   -6.1615826    20.872613    0.0334497  0.043479148            3 
   53000    1.1906431   -6.1795476    21.093449    0.0331658  0.043426664            5 
   54000    1.2025984   -6.1681764    21.690671  0.033473258  0.043347108            2 
   55000    1.1793118   -6.1630562     22.14696     0.033556  0.043292903            3 
   56000    1.2179986   -6.2212678     22.84458   0.03399491  0.043249642            1 
   57000    1.1879088   -6.1850778    23.235328  0.033969778  0.043217866            3 
   58000    1.2045323   -6.1693861    23.855223  0.034274745  0.043182296            3 
   59000    1.1745944   -6.1958513    24.206747   0.03419032  0.043134785            4 
   60000    1.1687622   -6.1624975    24.605095  0.034173742  0.043084848            2 
   61000    1.1709422   -6.1742181    25.019672   0.03417988  0.043022074            4 
   62000    1.1921651   -6.1915058     25.44153  0.034195605  0.042937795            4 
   63000     1.167587   -6.2182063    25.963305  0.034342995  0.042861095            6 
   64000    1.1539715   -6.1970675    26.403184  0.034379146  0.042792399            1 
   65000    1.1574186    -6.201743    26.711833  0.034245939  0.042713415            2 
   66000     1.167394   -6.2216466    27.228957  0.034379996  0.042619233            4 
   67000    1.1869454   -6.2352993    27.730497  0.034490668  0.042527019            4 
   68000    1.1704115   -6.2158094    28.318126  0.034703585  0.042460193            4 
   69000    1.1437436   -6.2509139    28.815556  0.034801395  0.042404238            3 
   70000    1.1437778   -6.2460566    29.102626  0.034645983  0.042325593            1 
   71000    1.1584023   -6.2004893    29.753824  0.034922329  0.042245181            2 
   72000    1.1693462   -6.2144937    30.140619  0.034884976  0.042172141            3 
   73000    1.1656216   -6.1897749     30.58132  0.034910183  0.042101634            3 
   74000    1.1383858   -6.2294172    31.025156  0.034938238  0.042035777            5 
   75000    1.1586551   -6.2474142    31.449552  0.034943947  0.041969536            2 
   76000    1.1423859   -6.2017764    32.030056  0.035120675  0.041903943            3 
   77000    1.1395095   -6.2350266    32.421474  0.035088175  0.041835308            4 
   78000      1.11678   -6.2385708    32.878616  0.035126727  0.041769807            1 
   79000    1.1464926   -6.2065301    33.206612  0.035028072   0.04169587            2 
   80000    1.1446687   -6.2615466    33.741354  0.035147244  0.041616251            2 
   81000    1.1310782   -6.2414601    34.127221   0.03511031  0.041543066            5 
   82000    1.1197801   -6.2190602    34.600167  0.035162771  0.041466602            4 
   83000    1.1374709   -6.2516587    35.012744  0.035153357  0.041395492            3 
   84000    1.1229403   -6.2351057    35.534558  0.035252537  0.041317038            3 
   85000    1.1316732   -6.2717249    35.713333  0.035013071  0.041238944            4 
   86000    1.1713248   -6.2450933    35.999344  0.034883085  0.041154306            3 
   87000    1.1393779   -6.2708782    36.475481    0.0349382  0.041057878            3 
   88000    1.1159777   -6.3028942    36.525534  0.034588574  0.040950112            2 
   89000    1.1463504   -6.2588029     37.09792   0.03473588  0.040835548            3 
   90000    1.1094822   -6.3035673    37.442313  0.034668809   0.04072721            2 
   91000    1.0860751   -6.2638381    37.800668  0.034615996  0.040615565            4 
   92000    1.1123762   -6.2878031    38.106847  0.034517071  0.040501973            5 
   93000    1.1012115   -6.3160106    38.366483  0.034378569  0.040381809            7 
   94000    1.1375713   -6.2847468    38.798589  0.034395912  0.040262878            7 
   95000    1.1139181   -6.2896731    39.204889  0.034390253  0.040148718            3 
   96000    1.0999271   -6.3216661    39.598955  0.034374092  0.040028866            6 
   97000    1.0964107    -6.295958    40.101594  0.034451541  0.039921305            3 
   98000    1.1370292   -6.2840488    40.482303  0.034423727  0.039816796            4 
   99000    1.1048383   -6.3159113    40.738352  0.034291542  0.039708012            6 
  100000     1.103933   -6.2913983    41.367488  0.034472907  0.039598814            3 
  101000    1.1008837   -6.3385505    41.506263  0.034246092  0.039490724            4 
  102000     1.092582   -6.3015114    41.718773  0.034083965   0.03938108            8 
  103000    1.1470564   -6.3009117     42.12352  0.034080518  0.039263927            4 
  104000    1.0974197   -6.3162762    42.528598  0.034077402  0.039149976            3 
  105000     1.092586   -6.3260226    42.900207  0.034047783  0.039037052            6 
  106000    1.1048735   -6.3059466    43.247992  0.033999993  0.038924576            3 
  107000    1.0864893   -6.3400818    43.465029  0.033851268  0.038808945            4 
  108000    1.0984122   -6.3176181    44.016802  0.033963581  0.038693791            3 
  109000    1.0719301   -6.3373997    44.336419  0.033896345  0.038584937            2 
  110000    1.0823103   -6.3348922    44.928982  0.034037107  0.038479893            2 
  111000    1.0986674   -6.3453122    45.044258   0.03381701  0.038377098            6 
  112000    1.1055942    -6.361649    45.413963  0.033790151  0.038272638            6 
  113000    1.0945187   -6.3638076    45.624386  0.033646302  0.038162847            3 
  114000    1.0721491   -6.3610721    45.669467  0.033384114  0.038047923            5 
  115000    1.0855763    -6.349232    45.981196  0.033319707  0.037933034            4 
  116000    1.0706115   -6.3320658    46.462506  0.033378237  0.037818036            6 
  117000    1.0893345   -6.3302522    46.902428  0.033406288  0.037705158           12 
  118000    1.0793443   -6.3626055    47.241766  0.033362829  0.037597862            4 
  119000    1.0633979   -6.3411391    47.532073  0.033285765  0.037490302            6 
  120000    1.0806885   -6.3808754     47.99805  0.033331979  0.037385912            9 
  121000    1.0628167   -6.3479468    48.404293   0.03333629  0.037285443            4 
  122000    1.0800503    -6.332066    49.073422  0.033520097  0.037194508            2 
  123000    1.0724663   -6.3549675    49.307553  0.033406201  0.037107042            5 
  124000    1.0640294   -6.3994884    49.639609  0.033359952   0.03702244            2 
  125000    1.0480134   -6.3790264    50.142499  0.033428333  0.036934017            8 
  126000    1.0739076   -6.3921945    50.253353  0.033236344  0.036847251            4 
  127000    1.0590659   -6.3468108    50.547101  0.033167389  0.036758587            3 
  128000    1.0739877   -6.3978476    50.616077  0.032953175  0.036660146            9 
  129000    1.0723781    -6.406815    50.926659  0.032898359  0.036562686           10 
  130000    1.0544925   -6.3692035    51.196491  0.032818264  0.036463371           16 
  131000    1.0720241   -6.3644553     51.65292  0.032858091  0.036365737            7 
  132000    1.0461289   -6.4024018    52.065024  0.032869333  0.036271689            3 
  133000    1.0596267   -6.3848409     52.37119  0.032814029  0.036178892           16 
  134000     1.057514   -6.3728398    52.835858  0.032858121  0.036088413            7 
  135000    1.0465694   -6.4430437    53.018983  0.032727767  0.035998475            2 
  136000    1.0420842   -6.3703542    53.450942  0.032751803  0.035914116            3 
  137000    1.0672249   -6.4311161    53.902908  0.032787657   0.03583106            6 
  138000    1.0419507   -6.4474752    54.201983  0.032730666  0.035747561            4 
  139000    1.0629055   -6.4233967    54.379284  0.032601489  0.035664504            6 
  140000    1.0257506   -6.4331199     54.63197   0.03251903  0.035582138            7 
  141000    1.0262289   -6.4277408    54.988944  0.032499376  0.035499306            6 
  142000    1.0489317   -6.4195983    55.594611  0.032625945  0.035418025            3 
  143000    1.0461497   -6.4685955    55.808786  0.032522602  0.035341515            2 
  144000    1.0537747   -6.4599619    55.918631  0.032360319  0.035262736            2 
  145000     1.038207   -6.4591804    56.166006  0.032279314   0.03518217            4 
  146000    1.0316578   -6.4448903     56.77043  0.032403214  0.035106836            4 
  147000    1.0439679   -6.4493091    57.171889  0.032410368  0.035032545            2 
  148000     1.014146   -6.4181427    57.571158  0.032416193  0.034958658            2 
  149000    1.0367849   -6.4570604    57.498753  0.032158139  0.034884972            8 
  150000    1.0444996   -6.4634649    57.795042  0.032108357  0.034808304            6 
  151000    1.0098672   -6.5023112    57.875395  0.031940064  0.034727568            3 
  152000    1.0330316   -6.4386798    58.685135  0.032173868  0.034649786            4 
  153000    1.0433323   -6.4484851    58.811716  0.032032525  0.034576177            2 
  154000    1.0097245    -6.471023    59.159002  0.032012447  0.034505949            3 
  155000    1.0053034   -6.4956571    59.429894  0.031951556  0.034431405            7 
  156000    1.0416528   -6.4744803     59.64992  0.031864273  0.034354633            4 
  157000    1.0209623   -6.4600388    59.875069  0.031780822  0.034277746            6 
  158000    1.0094109   -6.4589032    60.144702  0.031721889   0.03419928            6 
  159000    1.0195757   -6.4957765    60.415426  0.031664269  0.034119704            3 
  160000    1.0051575   -6.4799388    60.619603   0.03157271   0.03403984            6 
  161000   0.98562926   -6.4812155    60.694315  0.031415277   0.03395955            4 
  162000    1.0118187   -6.4689535    61.278214  0.031521715  0.033882129            8 
  163000    1.0015873   -6.4864052    61.743528  0.031566221  0.033806351            3 
  164000    1.0048051   -6.5192312    61.677884  0.031340388  0.033731023            2 
  165000    0.9987624     -6.52067    61.877657  0.031251342  0.033652247            8 
  166000   0.99492247   -6.5017009    62.172649  0.031211169  0.033572192            5 
  167000    1.0020609   -6.5012584    62.536592  0.031205884  0.033492773            6 
  168000    1.0060924   -6.5025441     62.67585  0.031089211  0.033415097            3 
  169000    1.0216571   -6.4916235    63.221558  0.031174338  0.033338772            5 
  170000   0.98177995   -6.5235542    63.296693   0.03102779  0.033263012            5 
  171000   0.98375295   -6.5278293    63.616563  0.031002224  0.033186954            1 
  172000   0.98735825   -6.5499663      63.8895  0.030954215  0.033111064            4 
  173000    1.0068008   -6.4921639    64.026992  0.030841518  0.033032699            7 
  174000   0.98785899   -6.5119942    64.247924  0.030770078  0.032952229            3 
  175000    0.9845999   -6.4871167    64.069107  0.030509099  0.032871022            3 
  176000   0.99739254   -6.5348818    64.450649  0.030516406  0.032789475            4 
  177000    1.0105556   -6.5275451    64.743143  0.030481706  0.032707088            5 
  178000   0.97380903   -6.5387718    64.879983  0.030374524  0.032624526            7 
  179000   0.98929565    -6.512943    65.269991  0.030386402  0.032540243            5 
  180000   0.97816813   -6.5068945    65.086548  0.030132661  0.032455926            5 
  181000   0.95071119   -6.5464538    65.432307  0.030125371  0.032368918            6 
  182000   0.97432963   -6.5735929    65.434138  0.029960686  0.032280848            6 
  183000   0.99266984   -6.5548855    65.527733  0.029839587  0.032191641            3 
  184000   0.97903929   -6.5524318    65.727538  0.029767907   0.03210091            8 
  185000   0.97217998   -6.5639675    65.952925  0.029708525  0.032009671            5 
  186000   0.98845292   -6.5134616     66.14817  0.029636277  0.031919023            3 
  187000   0.95680113   -6.5566643    66.286999  0.029539661  0.031828794            8 
  188000   0.97919883   -6.5400333    66.777211  0.029599827   0.03173765            8 
  189000   0.98619768   -6.5672463    66.901508  0.029498019  0.031648192            5 
  190000   0.97822807   -6.6031159    67.158362  0.029455422  0.031560264            5 
  191000    0.9749576   -6.5693132    67.323556  0.029373279  0.031474082            7 
  192000   0.96045319    -6.548032    67.444151  0.029272635   0.03138747            7 
  193000   0.96028396   -6.5295327    67.672054  0.029219367  0.031299791           12 
  194000   0.98139807   -6.5933083    67.686445  0.029074933  0.031211596            7 
  195000   0.92908566   -6.5791392    67.874284  0.029006104  0.031122226            6 
  196000   0.96545287     -6.59477    68.329484  0.029051651  0.031035589            4 
  197000   0.95028644    -6.621298      68.5801  0.029010195  0.030950178            5 
  198000   0.93513615    -6.577312    68.747932  0.028934315  0.030865028            4 
  199000   0.94668776   -6.5541872    69.139007  0.028952683  0.030781765            7 
  200000   0.93850939   -6.6454731    69.347693  0.028894872  0.030700322            7 
  201000   0.94658376   -6.6346996    69.770871  0.028926563  0.030621631            5 
  202000   0.95396372   -6.6231666    69.929111  0.028848643  0.030543269            7 
  203000   0.93909874   -6.6002667    69.981306  0.028727958   0.03046383           12 
  204000    0.9368927   -6.6257496    70.250284  0.028697011  0.030384259           13 
  205000   0.93971697   -6.6253256    70.536868  0.028673523   0.03030482            5 
  206000   0.92462455   -6.6128929    70.575463  0.028549945  0.030225652            6 
  207000   0.95212814   -6.6411619      70.6919  0.028458897  0.030146426            8 
  208000   0.95168924   -6.5901657    71.191942  0.028522413  0.030068268            8 
  209000   0.95742161   -6.6622822    71.307217  0.028431904  0.029991193            7 
  210000   0.92127382    -6.654692    71.373141  0.028322675  0.029913817            5 
  211000   0.92424821   -6.6210324    71.768388  0.028344545  0.029836903            6 
  212000   0.93066367   -6.6327168     71.98331  0.028295326  0.029761251            4 
  213000   0.94319785   -6.6432157    72.078305   0.02819965   0.02968494            4 
  214000   0.94795371   -6.6568179    72.392318  0.028190155  0.029609289            9 
  215000    0.9215835   -6.6617958    72.615855   0.02814568  0.029534484            3 
  216000   0.93922664   -6.6673611    72.938526  0.028139863  0.029459479            9 
  217000   0.93136901   -6.6542706    72.731888  0.027930833  0.029383064            5 
  218000   0.91969842   -6.7075057    72.982081  0.027898349  0.029307169           10 
  219000   0.90171745   -6.6567145    73.201479  0.027854444  0.029232545            8 
  220000   0.90862707   -6.6485383    73.451764  0.027822638  0.029156887            9 
  221000   0.91891183   -6.6833158     73.57079  0.027741625    0.0290822            4 
  222000   0.91409971   -6.6750207    73.957841  0.027761952  0.029008047            4 
  223000   0.90473374   -6.6769394    73.841326  0.027593919  0.028933238            7 
  224000   0.89868196   -6.6650614    73.944328  0.027509051  0.028857473           18 
  225000   0.91732074   -6.7083539    74.251438  0.027500533  0.028781875            7 
  226000   0.91249201   -6.6871935    74.077175  0.027314592  0.028706232            9 
  227000   0.88242996   -6.6885577    74.203996  0.027240821   0.02862917            7 
  228000    0.9134783   -6.6785084    74.718567  0.027309418  0.028553351            3 
  229000     0.901506   -6.6799793    75.028504  0.027302949  0.028479273            7 
  230000   0.90844361   -6.7079065     75.02486   0.02718292  0.028405268           25 
  231000   0.88675928   -6.7148867    75.380048   0.02719338  0.028333002           10 
  232000   0.88988583   -6.6746435    75.459203  0.027104599  0.028260194            7 
  233000   0.91964794   -6.7090832    75.632499   0.02705025  0.028187408            3 
  234000   0.88775984   -6.6986291    75.824992  0.027003202  0.028115883            9 
  235000   0.89676657   -6.6958543    76.044283  0.026966058  0.028043859            6 
  236000   0.90047894   -6.7361621    76.098052  0.026870781  0.027971932            7 
  237000   0.87234438   -6.7053087    76.121955  0.026765807  0.027899199            7 
  238000   0.89343657   -6.7372264    76.314427  0.026720738  0.027826394           14 
  239000   0.88035389   -6.7234045    76.321013  0.026611232  0.027754161            6 
  240000   0.89493708   -6.6997899    76.484799  0.026557222  0.027681086            5 
  241000   0.87320434   -6.7719965    76.491776  0.026449438   0.02760767            6 
  242000   0.88173658   -6.7406371    76.435021  0.026320599  0.027532582           22 
  243000   0.88419458   -6.7357284    76.691715  0.026300314  0.027457559            4 
  244000   0.88053336   -6.7371341    76.681839  0.026189152  0.027382616           10 
  245000   0.86884865   -6.7542823    76.893703  0.026154321   0.02730745            5 
  246000   0.87098735   -6.7429211     76.74512  0.025997669  0.027231123           12 
  247000   0.88472827   -6.7322531    77.136821  0.026024568  0.027155922            6 
  248000   0.86571683   -6.7691057    77.395072  0.026006409  0.027080773           13 
  249000   0.88027745   -6.7709526    77.230549  0.025846904  0.027005452           11 
  250000   0.87759796   -6.7560135    77.660415  0.025886805  0.026930823            5 
  251000    0.8583424   -6.7545556    77.811712  0.025833902  0.026856579            9 
  252000   0.87938515   -6.7398798    77.825653  0.025735996   0.02678262            7 
  253000   0.86369919   -6.7425293    77.925284   0.02566709  0.026708821           11 
  254000   0.86672965   -6.7527714    78.133901  0.025634482  0.026635608            6 
  255000   0.86568391    -6.783483    78.324854  0.025596357    0.0265624            8 
  256000   0.83905989   -6.7802728    78.541034  0.025566743  0.026490352            5 
  257000   0.86144432   -6.7865205    78.447902  0.025437063  0.026417478           12 
  258000   0.86670291   -6.7638955    78.630239  0.025397364  0.026344861            8 
  259000   0.85652872   -6.7827204    78.716363  0.025327015   0.02627189            8 
  260000    0.8580389   -6.7813033    79.005629  0.025322317  0.026199611           11 
  261000   0.85329744   -6.8199038    78.960608  0.025210922  0.026128137           11 
  262000   0.86047955   -6.7988513    79.025712  0.025135405  0.026055734            8 
  263000   0.84826239   -6.7731577    79.064842  0.025052231  0.025983198            6 
  264000   0.85201802   -6.7716488    79.318581  0.025037431  0.025911053            6 
  265000   0.85282593   -6.7958884     79.51931  0.025006072  0.025839574            8 
  266000    0.8454087   -6.8198501    79.782449  0.024994501  0.025768057            6 
  267000   0.84046922   -6.8125119    79.917165  0.024942935  0.025696921            5 
  268000   0.83891701   -6.8173766    79.866186  0.024834013  0.025626524            6 
  269000   0.84002432   -6.8106261    80.043621  0.024796661  0.025556262            5 
  270000   0.84271939   -6.8323235    79.972166  0.024682767  0.025485867           14 
  271000   0.82633887    -6.806852    80.046498  0.024614544  0.025416198           18 
  272000    0.8430438    -6.792362     80.36074  0.024620325  0.025346462           14 
  273000   0.83567437   -6.8502293    80.561782  0.024591509  0.025277239           19 
  274000   0.82885304   -6.8279714     80.41382  0.024456758  0.025208032            7 
  275000   0.82853252    -6.854191    80.693961  0.024452716  0.025139051           19 
  276000   0.82715659   -6.8504509    80.956321  0.024443334  0.025070689            8 
  277000   0.83121299   -6.8411915    81.025068  0.024375773  0.025003203            8 
  278000   0.81649428   -6.8281475    81.230267    0.0243496  0.024936124           18 
  279000    0.8207789   -6.8670344    81.285516  0.024278828  0.024869021           12 
  280000   0.83400332   -6.8477424    81.178336  0.024160219  0.024801442           11 
  281000   0.83795882   -6.8385468    81.477617  0.024162994  0.024734246            9 
  282000   0.82764209    -6.843931    81.556204  0.024100533   0.02466739            9 
  283000   0.81565797   -6.8488726    81.687732  0.024054102  0.024601002            8 
  284000   0.81891659   -6.8495732    81.885499  0.024027435  0.024535068            7 
  285000   0.81187072   -6.8934734    81.943094  0.023959969   0.02446945            5 
  286000   0.79215335   -6.8758362    82.056299  0.023909178  0.024403873            9 
  287000   0.80947265   -6.8960912    82.063335  0.023827914  0.024338522           12 
  288000   0.78562903    -6.865152    82.117234  0.023760774  0.024272982           10 
  289000   0.79294701   -6.8619607    82.414778  0.023764354  0.024207946           10 
  290000   0.80891575   -6.9014962    82.472475  0.023698987  0.024143031           10 
  291000    0.8166925   -6.9033127    82.381914  0.023591613  0.024078517           12 
  292000   0.80620579   -6.8919692    82.661898  0.023590724  0.024013657           14 
  293000   0.78815021   -6.8616891    82.764023  0.023539256  0.023949552            9 
  294000   0.79339289   -6.9030591    82.987672  0.023522583   0.02388601           17 
  295000   0.78484371   -6.8913839    83.183012  0.023498026  0.023822188           13 
  296000   0.80941737   -6.8911524    83.044368  0.023379608   0.02375829            7 
  297000   0.80476998   -6.8760371    82.994465  0.023286887  0.023694823            8 
  298000   0.80556022   -6.8954149    83.301597   0.02329463  0.023631823           21 
  299000    0.7963393   -6.9160178    83.388107  0.023240833  0.023568563           38 
  300000   0.78191213   -6.9168859    83.188569  0.023107936  0.023504909           25 
  301000   0.79267965   -6.9396227    83.385468  0.023085678  0.023441177           25 
  302000   0.78983261   -6.9550666    83.255782   0.02297345  0.023377223           37 
  303000   0.80347011    -6.935502    83.438335  0.022947837  0.023313814           17 
  304000   0.77587714   -6.9021779     83.40149  0.022862251  0.023250099           20 
  305000   0.77233733   -6.9186315    83.912547  0.022926925  0.023187092           11 
  306000   0.79010323   -6.9285215     84.03828  0.022886242  0.023125197           19 
  307000   0.76378281   -6.9677304    84.013625  0.022805001  0.023063565           35 
  308000   0.76824929   -6.9554227    84.400274  0.022835572  0.023002316           26 
  309000   0.75530875   -6.9502498    84.586737  0.022811957  0.022941618           13 
  310000   0.76340459   -6.9268702    84.265178   0.02265193  0.022880533           18 
  311000   0.76662233   -6.9568636    84.275044  0.022581737   0.02281871           26 
  312000   0.77633038   -6.9717378    84.038056  0.022446062  0.022757005           11 
  313000   0.76816699   -6.9816022    84.224612  0.022424018  0.022694547           23 
  314000   0.76073062   -6.9725958    84.318616  0.022377552  0.022632318           19 
  315000   0.75508253   -6.9589976    84.346728  0.022313949  0.022570042           12 
  316000   0.76040762   -6.9541338    84.546208  0.022295941  0.022508184           12 
  317000   0.75455466   -6.9423456    84.707466  0.022267998  0.022446246           20 
  318000   0.75148461   -6.9705707     84.54771  0.022156108  0.022385054           34 
  319000   0.76248197   -6.9849866    84.725093  0.022132992  0.022323756           24 
  320000   0.77549776   -6.9880155    84.722479  0.022063146  0.022262647           14 
  321000   0.74684291   -7.0069291    84.855489  0.022028943  0.022201464           23 
  322000   0.75243882   -7.0147267    84.955625  0.021986445  0.022140258           14 
  323000   0.75148688   -6.9964566    85.033811  0.021938548  0.022079155            7 
  324000   0.75785573   -6.9647831    85.156789  0.021902466  0.022018085           19 
  325000    0.7591596   -7.0047094     84.85828  0.021758533  0.021956941           11 
  326000   0.74395362   -7.0126756    85.180433  0.021774139  0.021895798           19 
  327000   0.73801082   -6.9961354    85.006399  0.021663201  0.021834748           17 
  328000    0.7337153   -7.0224117    85.005018  0.021596803  0.021774124           10 
  329000   0.74731268    -6.990731    85.310207  0.021608462  0.021713448           20 
  330000   0.73744464   -6.9856411    85.301087  0.021540679   0.02165287           11 
  331000   0.72893763   -6.9752228    85.315069  0.021479121  0.021592369           18 
  332000   0.74774686   -7.0149176    85.408477  0.021437871  0.021531953           13 
  333000   0.73799894   -7.0301975    85.299962  0.021346337  0.021471695           18 
  334000   0.73931688   -7.0356363    85.404677  0.021308552  0.021411595           25 
  335000   0.74079485   -7.0383691    85.755126  0.021332121  0.021351629           18 
  336000   0.72771275   -7.0247536    85.779182  0.021274599  0.021292285            9 
  337000   0.72667824    -7.049202    85.768676  0.021208871  0.021233002           12 
  338000   0.73109918    -7.024951    85.811608  0.021156708  0.021173502           14 
  339000   0.71116137   -7.0453231    85.689152  0.021064197   0.02111398           15 
  340000   0.72525911   -7.0468023    85.648545  0.020992291  0.021054209           18 
  341000   0.72072667   -7.0596917    85.470315  0.020887174  0.020994385           10 
  342000   0.72403423   -7.0410686    85.853501  0.020919469  0.020934679           22 
  343000   0.72878232   -7.0551184    85.649137  0.020808828  0.020875632           26 
  344000   0.69120754   -7.0420313    85.935434  0.020817692  0.020816288           19 
  345000   0.71709381   -7.0387484     85.88436  0.020745015  0.020756857           16 
  346000   0.72572141   -7.0616446     85.95306  0.020701604  0.020697641            9 
  347000   0.70924349   -7.0834451    85.891546  0.020627172  0.020638027           10 
  348000   0.72477172   -7.1050204    86.026892  0.020600309  0.020578759           21 
  349000   0.71952471   -7.1027825    85.943699  0.020521418  0.020519889           14 
  350000   0.70163621   -7.0867371    86.053274  0.020488875  0.020461127           19 
  351000   0.70029739   -7.0649103    86.136726  0.020450315  0.020402391           17 
  352000   0.68844616   -7.0877572    86.080193  0.020378834   0.02034375            8 
  353000   0.68312851    -7.098142     86.02539  0.020308166  0.020285098           19 
  354000    0.6987525   -7.0832868    86.203265  0.020292671  0.020226317           20 
  355000   0.71230948   -7.0848553    86.128264  0.020217902  0.020167722           30 
  356000   0.70625748    -7.092326    86.163176  0.020169283  0.020109187           21 
  357000   0.68970294   -7.1097759    85.990678  0.020072521  0.020050498           45 
  358000   0.71010073   -7.0866054    86.231227  0.020072446  0.019992093           34 
  359000   0.71211258   -7.1038603    86.184116  0.020005598  0.019934067           46 
  360000    0.7005146   -7.1141241    86.319692   0.01998141  0.019875915           58 
  361000   0.68123197   -7.1255826    86.166944    0.0198908  0.019817738           29 
  362000   0.68962302   -7.0895241    86.260411  0.019857369  0.019760086           19 
  363000   0.69600479   -7.1195458      86.4232  0.019840037  0.019702377           19 
  364000   0.68942557   -7.1633927    86.138518  0.019720357   0.01964461           26 
  365000   0.69082316   -7.1349911    86.184073  0.019676729  0.019586928           58 
  366000   0.69132951   -7.1085819    86.450029  0.019683522  0.019529423           64 
  367000   0.69886814    -7.141241    86.387687  0.019615733  0.019472132           72 
  368000   0.66992021   -7.1271454    86.396111  0.019564337  0.019414756           35 
  369000   0.67217985     -7.15632    86.378862  0.019507421  0.019357269           58 
  370000   0.67068404   -7.1500284    86.283264  0.019433167  0.019299923           69 
  371000   0.67227515   -7.1694685    86.216853   0.01936587  0.019242421           46 
  372000   0.67082923   -7.1642442     86.27412   0.01932664  0.019184816           40 
  373000   0.67395026   -7.1901096     86.25322  0.019270156   0.01912748           42 
  374000   0.68153821   -7.1661744    86.272986  0.019223036  0.019070283           90 
  375000   0.66167486   -7.1725704    86.204688  0.019156597   0.01901331           33 
  376000   0.67543964   -7.1775635    86.335718  0.019134689  0.018956462           47 
  377000   0.65876329   -7.1792499    86.338144   0.01908447  0.018899609           46 
  378000    0.6621211   -7.1950533    86.323025  0.019030649    0.0188428           23 
  379000   0.66528394   -7.1744375    86.457051  0.019009906  0.018786497           30 
  380000    0.6597746   -7.1921487    86.514421  0.018972461  0.018730652           54 
  381000   0.65637756   -7.1694854    86.755168  0.018975321  0.018675015           40 
  382000   0.66959211    -7.175277     86.40726  0.018849751  0.018619364           53 
  383000   0.65708423   -7.2066166    86.325343  0.018782712  0.018563717           43 
  384000   0.66524045    -7.190357       86.653  0.018804904  0.018508295           79 
  385000   0.65916068   -7.1838458    86.459311  0.018714136  0.018452903           39 
  386000   0.65345029   -7.1702418    86.595331   0.01869502  0.018397569           61 
  387000   0.63322574   -7.1913577    86.579684  0.018643343  0.018342614           41 
  388000    0.6576442   -7.2300022    86.491868  0.018576432  0.018287723           71 
  389000   0.65808787   -7.2207209    86.777427  0.018589852  0.018233095           29 
  390000   0.64912741   -7.2170048    86.796345  0.018546228  0.018178886           29 
  391000   0.64367199   -7.2150289    86.848983  0.018510013  0.018125034           69 
  392000   0.63883763   -7.2197799    86.901071  0.018473867  0.018071602           95 
  393000   0.64034323   -7.2545986    86.842724  0.018414488  0.018018185           74 
  394000   0.63684641   -7.2198412    86.809427  0.018360708  0.017964712           45 
  395000   0.64272062   -7.2433384     86.75663  0.018303086  0.017911245           52 
  396000   0.64043584    -7.223835    86.906562  0.018288418  0.017858001           65 
  397000   0.63719376    -7.217142    86.869233  0.018234516  0.017804896           87 
  398000   0.63689109   -7.2466357    86.984887  0.018212916  0.017751952           70 
  399000   0.61514232   -7.2569547    86.886741  0.018146771  0.017699211           78 
  400000   0.63386616   -7.2638376    86.882496   0.01810052  0.017646602           84 
  401000   0.62395065   -7.2390946    86.946387  0.018068659  0.017594159           68 
  402000   0.61755233   -7.2351405    86.819547  0.017997419  0.017541762           36 
  403000   0.61616317   -7.2551144    87.020557  0.017994325  0.017489453           29 
  404000   0.61993454   -7.2451251    86.866546  0.017918017  0.017437637           33 
  405000   0.62101877   -7.2605214    87.113305  0.017924548  0.017385918           44 
  406000    0.6323233   -7.2744768    86.949059  0.017846687  0.017334337           56 
  407000   0.62153185   -7.2704839    87.060637  0.017825683  0.017282993           30 
  408000   0.62030542   -7.2434023    87.278488  0.017826489  0.017231781           46 
  409000   0.62089025   -7.2645544     87.05482  0.017737331  0.017180749           32 
  410000   0.60892441    -7.277576    86.981244  0.017679115  0.017129759           46 
  411000    0.6199025   -7.2798862    86.898293  0.017619281  0.017078811           55 
  412000   0.61047755   -7.2948928      87.0417  0.017605522  0.017027827           44 
  413000   0.61826744   -7.2921878    86.932779  0.017540916  0.016976895           43 
  414000   0.60855321   -7.2814779    87.085068    0.0175292  0.016926276           35 
  415000   0.60703324   -7.3032523    87.013596   0.01747261   0.01687569           62 
  416000   0.59817074   -7.3215677    86.944112  0.017416689  0.016825192           66 
  417000   0.59472248   -7.3147558    86.945604  0.017375221  0.016774835           63 
  418000    0.6001247   -7.3241716    86.990028   0.01734251   0.01672457           62 
  419000   0.60046113   -7.2925008    87.075493  0.017318117  0.016674302           54 
  420000   0.59850872   -7.3233358    86.818523  0.017225897  0.016624206           77 
  421000   0.59180424   -7.3163949    86.838305  0.017188896  0.016574091           38 
  422000   0.60248367   -7.3312397    86.882155  0.017156824  0.016524207           75 
  423000   0.57543471   -7.3329154    86.767415  0.017093659  0.016474304           64 
  424000   0.59476267   -7.3238849    86.884492  0.017076355  0.016424455           62 
  425000    0.6017955   -7.3418643    86.822542  0.017024028  0.016374803           83 
  426000   0.59809686   -7.3267088    86.823918  0.016984334   0.01632516           50 
  427000   0.57831722   -7.3410119    86.906929  0.016960759  0.016275785           99 
  428000   0.59606871   -7.3339041    86.813387  0.016902918  0.016226539           57 
  429000   0.58184495   -7.3354349    86.883624  0.016877161  0.016177348           98 
  430000   0.57584341   -7.3457897    86.761937  0.016814329  0.016128231           72 
  431000   0.58566684   -7.3531873    86.788489   0.01678045  0.016079308           54 
  432000   0.56854705   -7.3623204    86.797049  0.016743258  0.016030637          101 
  433000   0.57700778   -7.3377955    86.825328  0.016710032  0.015982052          122 
  434000   0.57816352   -7.3443414    86.921084  0.016689916  0.015933604           78 
  435000   0.56963362   -7.3658253    86.702532  0.016609681  0.015885406          141 
  436000   0.57168011   -7.3535199    86.760431  0.016582651  0.015837283          121 
  437000    0.5716525   -7.3736313    86.907287  0.016572709  0.015789381          123 
  438000   0.56923414   -7.3674444    86.779514  0.016510562  0.015741819           85 
  439000   0.58576021   -7.3646787    86.719406  0.016461543  0.015694322          127 
  440000   0.57335648   -7.3431075     86.90144  0.016458606  0.015646845          191 
  441000   0.56808923   -7.3648963    86.891862  0.016419475  0.015599558          121 
  442000   0.55566724    -7.381353    86.775078  0.016360309  0.015552475          138 
  443000   0.55929007   -7.3762504    86.811903  0.016330305  0.015505389          191 
  444000    0.5528662    -7.394744    86.959632  0.016321252  0.015458422          255 
  445000   0.54451975   -7.3596882    86.808926  0.016256353  0.015411525          167 
  446000   0.55480428   -7.4015759    86.892843  0.016235584  0.015364873           99 
  447000   0.56182489   -7.3887294    86.719393  0.016166926  0.015318255          102 
  448000   0.55372607   -7.3925302    86.846466  0.016154476  0.015271821          123 
  449000   0.54833134   -7.3822709    86.708534  0.016092898  0.015225532          103 
  450000   0.54000743   -7.3877273    86.850298  0.016083389  0.015179336          143 
  451000   0.54138297   -7.4101771      86.6861  0.016017387  0.015133363          140 
  452000   0.55036259   -7.4082266    86.703078  0.015985081  0.015087508          169 
  453000   0.54253445   -7.4073436    86.771586  0.015962396  0.015041873          139 
  454000   0.53935726   -7.3984119    86.732725  0.015920104  0.014996325          133 
  455000   0.53477455   -7.4120294    86.753197  0.015888864  0.014950982          234 
  456000   0.52501469   -7.4055679    86.656872  0.015836417  0.014905742          162 
  457000   0.53859456   -7.4109971     86.70973  0.015811402  0.014860728          204 
  458000   0.53409791   -7.4302863    86.740555  0.015782488  0.014815796          226 
  459000   0.54414136   -7.4017563    86.699738  0.015740693  0.014771069          184 
  460000   0.54433181   -7.4282389     86.64706  0.015696931  0.014726522          199 
  461000   0.52976469   -7.4203366    86.848023  0.015699209  0.014681994          161 
  462000   0.53294619   -7.4163851    86.474239  0.015597807  0.014637611          228 
  463000   0.53109584   -7.4299987    86.568152  0.015581021  0.014593076          205 
  464000   0.53836842   -7.4446692    86.668666  0.015565493  0.014548813          286 
  465000   0.52819051   -7.4382495     86.62413  0.015524038   0.01450458          132 
  466000   0.52917181   -7.4455809    86.532708  0.015474375  0.014460482          273 
  467000   0.51853626   -7.4692672    86.395731  0.015416797  0.014416479          232 
  468000   0.53395288   -7.4413581    86.333754  0.015372819  0.014372537          266 
  469000   0.52581253    -7.448795    86.521115  0.015373332  0.014328794          139 
  470000   0.51618839   -7.4542226    86.408321  0.015320624  0.014285172          254 
  471000   0.51421524    -7.461219     86.50949  0.015305996  0.014241693          253 
  472000   0.52072932   -7.4411329    86.446988  0.015262533  0.014198412          402 
  473000   0.51519568   -7.4714417     86.35321  0.015213744   0.01415521          423 
  474000   0.51546855   -7.4582805    86.436802  0.015196344  0.014112153          301 
  475000    0.5151352   -7.4639182    86.336646   0.01514678  0.014069201          158 
  476000   0.49801557   -7.4657792    86.236044  0.015097347  0.014026346          286 
  477000   0.51200401   -7.4718616    86.253654  0.015068772   0.01398365          277 
  478000   0.51137553   -7.4810835    86.281619  0.015042123  0.013941068          147 
  479000   0.49781749   -7.4837474    86.322027   0.01501775  0.013898724          216 
  480000    0.5004261   -7.4664336    86.309452   0.01498428   0.01385656          341 
  481000   0.50663497   -7.4888092    86.325583  0.014955922  0.013814443          301 
  482000   0.49469895   -7.4761487    86.466168  0.014949199  0.013772497          343 
  483000   0.50305968   -7.4982654    86.461371  0.014917421   0.01373073          339 
  484000   0.49105972   -7.4853041    86.479939  0.014889797  0.013689219          257 
  485000    0.4937728   -7.4794295    86.393435  0.014844233    0.0136478          197 
  486000   0.49259651   -7.4742241    86.392962  0.014813608  0.013606543          391 
  487000   0.49710815    -7.491169    86.205892  0.014751179   0.01356542          451 
  488000   0.49175369   -7.4863709    86.169964  0.014714816  0.013524243          406 
  489000   0.49337184   -7.5145095    86.309858  0.014708565  0.013483137          478 
  490000   0.49144667   -7.5090346    86.281391  0.014673706  0.013442165          470 
  491000   0.48040568   -7.5210608    86.049121  0.014604399  0.013401324          378 
  492000   0.49138755   -7.4952331    86.280184  0.014613852  0.013360691          497 
  493000   0.48908109   -7.5076715    86.188002  0.014568628  0.013320146          490 
  494000   0.47187453   -7.5287401    86.197095  0.014540671  0.013279718          532 
  495000    0.4772402   -7.5150541    86.173544  0.014507331  0.013239432          424 
  496000   0.48268062   -7.4958477    86.089258  0.014463921  0.013199292          468 
  497000   0.47801559   -7.5306557    86.360863  0.014480359  0.013159364          505 
  498000    0.4725717    -7.529288    86.106475  0.014408714  0.013119525          487 
  499000   0.46950016   -7.5252695    86.096204  0.014378124  0.013079812          506 
  500000   0.46793326   -7.5351777    86.199645  0.014366608  0.013040291          515 
  501000   0.46322124    -7.532457    86.236191   0.01434401  0.013000889          550 
  502000   0.47099731   -7.5452268    86.133472  0.014298385  0.012961731          528 
  503000   0.46850826   -7.5438283     86.14418  0.014271733  0.012922623          544 
  504000   0.46103224   -7.5371281    86.008928  0.014221053  0.012883685          572 
  505000   0.45885573   -7.5522756     86.19197  0.014223097  0.012844957          530 
  506000   0.45526978   -7.5477979    86.269262  0.014207718   0.01280637          575 
  507000   0.46035714   -7.5564678    86.187585   0.01416627  0.012767811          571 
  508000    0.4539319   -7.5455617    86.083077   0.01412124  0.012729393          508 
  509000   0.45220489   -7.5242473    86.006079   0.01408089  0.012691152          560 
  510000   0.45334722    -7.553756    86.163436  0.014078993  0.012653051          660 
  511000   0.44852293   -7.5514451    86.064283  0.014035271  0.012615118          644 
  512000    0.4450696   -7.5466489    86.135659  0.014019476  0.012577309          574 
Loop time of 1074.08 on 48 procs for 500000 steps with 4000 atoms

Performance: 80440.619 tau/day, 465.513 timesteps/s
99.4% CPU use with 48 MPI tasks x no OpenMP threads

MPI task timing breakdown:
Section |  min time  |  avg time  |  max time  |%varavg| %total
---------------------------------------------------------------
Pair    | 65.585     | 68.742     | 71.542     |  15.2 |  6.40
Neigh   | 6.6518     | 6.7934     | 6.9758     |   2.6 |  0.63
Comm    | 58.309     | 62.795     | 68.219     |  28.7 |  5.85
Output  | 0.82377    | 0.82426    | 0.83376    |   0.2 |  0.08
Modify  | 913.83     | 921.86     | 927.29     |  11.4 | 85.83
Other   |            | 13.07      |            |       |  1.22

Nlocal:        83.3333 ave          89 max          77 min
Histogram: 3 2 1 7 8 8 9 3 3 4
Nghost:        1766.48 ave        1786 max        1743 min
Histogram: 1 0 3 9 8 8 9 3 3 4
Neighs:        10739.9 ave       11607 max       10051 min
Histogram: 3 5 6 9 7 6 6 2 1 3
FullNghs:      21478.3 ave       23000 max       19776 min
Histogram: 3 1 3 11 5 4 9 4 4 4

Total # of neighbors = 1030958
Ave neighs/atom = 257.73950
Neighbor list builds = 26981
Dangerous builds = 0

#clear
#
#next RN
#
#jump SELF
Total wall time: 0:17:57
