
units lj                  # Use reduced LJ style units
atom_style atomic         # Uncharged point particles
atom_modify map hash      # Needed for indexing of clusters etc
                          # Used to be able to find where atoms are in relation to each other.

lattice fcc 1.0 spacing 1 1 1
Lattice spacing in x,y,z = 1.5874011 1.5874011 1.5874011
region box block 0 10 0 10 0 10 units lattice
create_box 2 box
Created orthogonal box = (0.0000000 0.0000000 0.0000000) to (15.874011 15.874011 15.874011)
  3 by 4 by 4 MPI processor grid
create_atoms 1 box
Created 4000 atoms
  using lattice units in orthogonal box = (0.0000000 0.0000000 0.0000000) to (15.874011 15.874011 15.874011)
  create_atoms CPU = 0.002 seconds
set type 1 type/fraction 2 0.59 78393
Setting atom values ...
  2375 settings made for type/fraction
mass 1 1.0
mass 2 1.0
pair_style lj/cut  3.5
pair_modify tail  yes
pair_coeff 1  1  1.0  1.0   # Intearaction between 1 and 1 set with epsilon = 1 and sigma = 1
pair_coeff 1  2  1.5  0.8
pair_coeff 2  2  0.5  0.88

write_data data.0
System init for write_data ...
Neighbor list info ...
  update every 1 steps, delay 10 steps, check yes
  max neighbors/atom: 2000, page size: 100000
  master list distance cutoff = 3.8
  ghost atom cutoff = 3.8
  binsize = 1.9, bins = 9 9 9
  1 neighbor lists, perpetual/occasional/extra = 1 0 0
  (1) pair lj/cut, perpetual
      attributes: half, newton on
      pair build: half/bin/atomonly/newton
      stencil: half/bin/3d
      bin: standard
WARNING: Not all mixed pair coeffs generated from mixing. Use write_data with 'pair ij' option to store all pair coeffs. (../write_data.cpp:312)


#############################
#   M E L T   S Y S T E M   #
#############################

velocity all create 2.4 9622624 mom yes dist gaussian # Assign velocities
                                                    # Temperature 2.4, random number seed, zero linear momentum
                                                                                # Gaussian distribution

timestep 0.002   # simulation timestep
thermo 1000       # output thermodynamic data every 1000 steps bf 100

# Define a fix  in this case with index 1 applied to all
# particles in the simulation. This fix is for simulations
# in the anisotropic NPT ensemble. Note that we use the MTK
# correction.
fix 1 all npt temp 2.4 2.4 0.1 iso 5.68 5.68 0.5 mtk yes tchain 5 pchain 5 # Use NPT ensemble
                                                                         # Set temperature and pressure and damping
                                                                         # Numbers of thermostats in chain and in barostat
run 10000          # run for 10000 steps
Per MPI rank memory allocation (min/avg/max) = 3.642 | 3.644 | 3.648 Mbytes
Step Temp E_pair E_mol TotEng Press Volume 
       0          2.4   -4.7762807            0   -1.1771807   -4.0862689         4000 
    1000    2.3352007   -4.4482391            0  -0.94631376     5.349774    3666.1815 
    2000    2.3482497   -4.4689092            0  -0.94741525    5.8097285    3632.8413 
    3000    2.4480314   -4.5114733            0  -0.84034423    5.7015032    3613.6637 
    4000      2.37072   -4.5129236            0  -0.95773265    5.6119878    3616.0446 
    5000    2.3790262   -4.5273111            0  -0.95966404    5.8515945    3601.1636 
    6000    2.4266552    -4.571353            0  -0.93228016     5.674583    3591.0201 
    7000     2.438968    -4.477471            0  -0.81993368    5.9699596    3617.3755 
    8000    2.4305832   -4.5273274            0    -0.882364    5.8073975    3606.3926 
    9000    2.4181815   -4.5922375            0  -0.96587208    5.8223333    3570.7375 
   10000    2.4457885    -4.507143            0  -0.83937743    5.7598506    3616.5418 
Loop time of 2.66413 on 48 procs for 10000 steps with 4000 atoms

Performance: 648615.783 tau/day, 3753.564 timesteps/s
99.6% CPU use with 48 MPI tasks x no OpenMP threads

MPI task timing breakdown:
Section |  min time  |  avg time  |  max time  |%varavg| %total
---------------------------------------------------------------
Pair    | 1.2218     | 1.2794     | 1.3736     |   2.5 | 48.02
Neigh   | 0.21625    | 0.22525    | 0.23521    |   0.8 |  8.45
Comm    | 0.796      | 0.89571    | 0.95925    |   3.2 | 33.62
Output  | 0.00025261 | 0.0002565  | 0.00031866 |   0.0 |  0.01
Modify  | 0.22829    | 0.24761    | 0.27546    |   2.3 |  9.29
Other   |            | 0.01593    |            |       |  0.60

Nlocal:        83.3333 ave          93 max          76 min
Histogram: 5 6 4 4 11 6 3 5 2 2
Nghost:        1755.83 ave        1788 max        1727 min
Histogram: 3 3 3 10 9 7 7 2 1 3
Neighs:        10563.6 ave       11897 max        9254 min
Histogram: 3 3 6 2 12 9 4 3 1 5

Total # of neighbors = 507053
Ave neighs/atom = 126.76325
Neighbor list builds = 902
Dangerous builds = 185

# Equilibrate just above the melting temperature to avoid step fn in T

fix 1 all npt temp 1.25 1.25 0.1 iso 5.68 5.68 0.5 mtk yes tchain 5 pchain 5
run 2000
Per MPI rank memory allocation (min/avg/max) = 3.644 | 3.646 | 3.650 Mbytes
Step Temp E_pair E_mol TotEng Press Volume 
   10000    2.4457885    -4.507143            0  -0.83937743    5.7598506    3616.5418 
   11000    1.2441502   -6.5688053            0   -4.7030466    5.9560198    2775.1731 
   12000     1.255354    -6.699585            0   -4.8170247    5.8612454    2740.5806 
Loop time of 0.662323 on 48 procs for 2000 steps with 4000 atoms

Performance: 521799.650 tau/day, 3019.674 timesteps/s
99.6% CPU use with 48 MPI tasks x no OpenMP threads

MPI task timing breakdown:
Section |  min time  |  avg time  |  max time  |%varavg| %total
---------------------------------------------------------------
Pair    | 0.3081     | 0.32781    | 0.35259    |   1.7 | 49.49
Neigh   | 0.043101   | 0.044778   | 0.046695   |   0.5 |  6.76
Comm    | 0.21216    | 0.23911    | 0.26357    |   2.3 | 36.10
Output  | 5.2782e-05 | 5.4194e-05 | 6.9378e-05 |   0.0 |  0.01
Modify  | 0.042239   | 0.045548   | 0.048321   |   0.9 |  6.88
Other   |            | 0.005021   |            |       |  0.76

Nlocal:        83.3333 ave          91 max          73 min
Histogram: 1 2 2 2 4 13 10 10 3 1
Nghost:        2118.92 ave        2146 max        2092 min
Histogram: 4 1 5 6 3 13 7 5 3 1
Neighs:        13929.0 ave       15512 max       12172 min
Histogram: 2 2 1 7 9 9 9 4 4 1

Total # of neighbors = 668593
Ave neighs/atom = 167.14825
Neighbor list builds = 144
Dangerous builds = 13

#############################
# L I N E A R  Q U E N C H  #
#############################

# Define solid atoms. This closely follows ten Wolde  Ruiz-Montero and Frenkel  Faraday Discuss  1996  104  93-110
# Compute components of the per-atom q6 vector
compute q6 all orientorder/atom degrees 1 6 components 6 nnn NULL cutoff 1.3 # compute the Q6 parameter.
                                                                             # Use all neighbours within 1.3 unit cell.

# get number of connections
compute coord_number all coord/atom orientorder q6 0.5

# An atom is solid if it has 8 or more connections (of a possible 14)
variable is_solid atom c_coord_number>=8
group solid dynamic all var is_solid    # Must be dynamic to update
dynamic group solid defined

# do clustering
compute cluster solid cluster/atom 1.3 # Create a cluster where all atoms within are solid and max 1.3 units from another member

# define chunks one chunk per cluster
compute clus_chunks solid chunk/atom c_cluster nchunk every compress yes  # Says which atoms are in which chunk

# count the size of each chunk
compute size_chunks solid property/chunk clus_chunks count


# Find the maximum entry in the vector of chunk sizes
variable max_n equal max(c_size_chunks)


# Thermo style which includes this variable
# thermo_style custom step temp pe vol v_max_n

thermo ${N}  # Print the thermo information every 100 steps
thermo 1000  

# Reset the npt fix at a lower temperature (below freezing)
fix 1  all npt temp  ${temp} ${temp}  0.1  iso  5.68  5.68  0.5  mtk yes tchain  5  pchain  5
fix 1  all npt temp  0.45 ${temp}  0.1  iso  5.68  5.68  0.5  mtk yes tchain  5  pchain  5
fix 1  all npt temp  0.45 0.45  0.1  iso  5.68  5.68  0.5  mtk yes tchain  5  pchain  5

dump dmp2 all dcd ${N} traj.dcd
dump dmp2 all dcd 1000 traj.dcd


compute msd all msd com yes
variable twopoint equal c_msd[4]/6/(step*dt+1.0e-6)
fix 9 all vector 10 c_msd[4]
variable fit equal slope(f_9)/6/(10*dt)
thermo_style custom step temp pe c_msd[4] v_twopoint v_fit v_max_n

fix 1 all npt temp 1.25 ${temp} 0.1 iso 5.68 5.68 0.5 mtk yes tchain 5 pchain 5
fix 1 all npt temp 1.25 0.45 0.1 iso 5.68 5.68 0.5 mtk yes tchain 5 pchain 5
run 2000000 # 5000000  # Run for this many steps
Neighbor list info ...
  update every 1 steps, delay 10 steps, check yes
  max neighbors/atom: 2000, page size: 100000
  master list distance cutoff = 3.8
  ghost atom cutoff = 3.8
  binsize = 1.9, bins = 8 8 8
  4 neighbor lists, perpetual/occasional/extra = 1 3 0
  (1) pair lj/cut, perpetual
      attributes: half, newton on
      pair build: half/bin/atomonly/newton
      stencil: half/bin/3d
      bin: standard
  (2) compute orientorder/atom, occasional
      attributes: full, newton on
      pair build: full/bin/atomonly
      stencil: full/bin/3d
      bin: standard
  (3) compute coord/atom, occasional
      attributes: full, newton on
      pair build: full/bin/atomonly
      stencil: full/bin/3d
      bin: standard
  (4) compute cluster/atom, occasional
      attributes: full, newton on
      pair build: full/bin/atomonly
      stencil: full/bin/3d
      bin: standard
Per MPI rank memory allocation (min/avg/max) = 9.847 | 9.854 | 9.859 Mbytes
Step Temp PotEng c_msd[4] v_twopoint v_fit v_max_n 
   12000     1.255354    -6.699585 1.9721523e-34 1.3695501e-36 8.3333333e+20            2 
   13000    1.2655554   -6.6801306   0.46999662 0.0030127987  0.039192203            2 
   14000    1.2324937   -6.6634781   0.91836646 0.0054664668  0.036496225            3 
   15000    1.2447149   -6.6871426    1.3734115 0.0076300634   0.03706864            3 
   16000     1.262596   -6.7120352    1.7905913  0.009325996  0.037147556            5 
   17000    1.2512052   -6.6862346    2.2382888  0.010972004  0.036672465            3 
   18000    1.2505954   -6.7154539    2.6063518  0.012066443  0.036361681            1 
   19000     1.266605   -6.6255843    3.0612031  0.013426329  0.035835623            2 
   20000    1.2750282   -6.7051566    3.5079966  0.014616652  0.035778038            2 
   21000    1.2354275   -6.6914879    3.8831465  0.015409311  0.035798025            3 
   22000    1.2783985    -6.701238    4.3109154  0.016329225  0.035644795            3 
   23000    1.2096058   -6.7424303    4.6346856  0.016792339  0.035289953            3 
   24000    1.2430253   -6.6674036    5.1227684   0.01778739  0.035039474            1 
   25000    1.2427707   -6.7033363    5.6344998  0.018781666  0.035214227            1 
   26000    1.2324902   -6.6660327    6.1007433  0.019553664  0.035387595            2 
   27000    1.2317869   -6.7357335    6.5573216  0.020238647   0.03556602            3 
   28000    1.2192771   -6.6828628    6.9932982  0.020813387   0.03573066            1 
   29000    1.2381228   -6.7226085    7.2721885  0.020897093  0.035770639            1 
   30000    1.2505638   -6.7670232    7.7204129  0.021445591  0.035663283            3 
   31000    1.2547021   -6.6519273     8.226295  0.022113696  0.035693379            3 
   32000    1.2340746   -6.6799334    8.7595974  0.022811451  0.035802217            3 
   33000     1.220878   -6.6879437    9.1603118    0.0231321  0.035895166            3 
   34000    1.2822617   -6.7428713    9.4928819  0.023266867  0.035932029            1 
   35000    1.2544466   -6.7459131    9.9559642  0.023704676  0.035930133            2 
   36000    1.2424301   -6.7199991    10.538206  0.024393996  0.035978087            2 
   37000    1.2153821   -6.7037377    10.909062   0.02456996  0.036035547            1 
   38000    1.2590944   -6.6839988    11.199072  0.024559367  0.036019924            1 
   39000    1.2173835   -6.7041495    11.660852  0.024916351  0.035971348            2 
   40000    1.2473028   -6.7040769    12.090011  0.025187522  0.035959732            3 
   41000    1.2557581   -6.7146277    12.554537  0.025517351  0.035948632            1 
   42000    1.2299567   -6.7686657    12.971604  0.025737309  0.035953881            1 
   43000    1.2001985   -6.7657152      13.3388  0.025850388  0.035943924            2 
   44000    1.2470541   -6.7598904    13.775494   0.02608995  0.035898758            1 
   45000    1.2427488    -6.726271    14.162469  0.026226793  0.035868663            2 
   46000    1.2174398   -6.7408479    14.533312  0.026328463  0.035826654            4 
   47000    1.2468061    -6.773022    14.948081  0.026503689    0.0357863            1 
   48000     1.234257   -6.7428669    15.471715  0.026860617  0.035748865            2 
   49000    1.2404225   -6.7515868    16.069793  0.027329579  0.035753671            3 
   50000    1.2156237   -6.7324021       16.324  0.027206667  0.035768893            2 
   51000    1.2600739   -6.7868611    16.855448  0.027541582  0.035784571            4 
   52000    1.2201753   -6.7736223    17.336804   0.02778334  0.035807046            2 
   53000    1.2254231   -6.7382862    17.669723  0.027782584  0.035817525            3 
   54000    1.2417892   -6.7036245    18.168836  0.028038326  0.035820521            3 
   55000    1.2143035   -6.6970995    18.584672  0.028158593  0.035837013            2 
   56000    1.2330975    -6.758468    18.947965  0.028196376  0.035843049            4 
   57000    1.2043114   -6.6386675    19.428591  0.028404373  0.035836778            1 
   58000    1.2386682   -6.7245715    19.757239  0.028386837  0.035837633            2 
   59000     1.261602   -6.7208402    20.039631  0.028304563  0.035827986            3 
   60000    1.2436884   -6.7515228    20.464225  0.028422534  0.035788523            4 
   61000    1.2394415   -6.7774408    20.926178  0.028587674  0.035766749            4 
   62000    1.2227923   -6.6973622    21.356938  0.028705562  0.035750925            3 
   63000    1.2373629    -6.742183    21.801534  0.028838008  0.035718359            5 
   64000    1.2421266   -6.7959905    22.155426   0.02884821  0.035683287            1 
   65000    1.2125637   -6.7400607    22.635166  0.029019444  0.035635919            1 
   66000    1.2389934   -6.7389105    22.960303  0.028990281  0.035600678            3 
   67000    1.2247595   -6.7110018    23.217488  0.028877473  0.035555438            1 
   68000    1.2465634   -6.7143474    23.648546  0.028981061  0.035505185            5 
   69000    1.2397333   -6.7653433    23.989784  0.028973169  0.035445354            4 
   70000    1.2344409   -6.7629255    24.391693  0.029037729  0.035382844            2 
   71000    1.2085853   -6.7442793     24.72872  0.029024319  0.035320543            3 
   72000    1.2387302   -6.7085069    25.210403  0.029178707  0.035257774            5 
   73000    1.2354486   -6.7847725    25.613911  0.029239624  0.035206268            4 
   74000    1.2457023   -6.7415049    26.413805  0.029745275  0.035184587            3 
   75000    1.2439754   -6.7584138    26.807159  0.029785732   0.03518653            2 
   76000    1.2247115   -6.7356338      27.3301  0.029967214  0.035190028            4 
   77000    1.2385959   -6.7677226    27.776633  0.030061291  0.035198156            2 
   78000    1.2293397   -6.7806613    28.075917  0.029995637  0.035204159            2 
   79000    1.2184345     -6.77936    28.593624  0.030162051  0.035210718            2 
   80000     1.242046   -6.7881739     28.87975  0.030083072  0.035207847            3 
   81000    1.2275776   -6.7773122    29.321665  0.030166322  0.035211132            5 
   82000    1.2101351   -6.7571415    29.825871  0.030310844  0.035216936            1 
   83000    1.2366083    -6.809704    30.044148  0.030164807  0.035215082            2 
   84000    1.2404034   -6.7399177    30.547109  0.030304671  0.035206016            4 
   85000    1.2249457   -6.7840747     30.93914   0.03033249  0.035183994            2 
   86000    1.1873588   -6.7916455    31.349593  0.030377512  0.035178499            2 
   87000     1.218486    -6.827617    31.640666  0.030307151  0.035173274            2 
   88000    1.2111848   -6.7899324    32.168028  0.030462148  0.035166095            5 
   89000    1.2202033   -6.7707312    32.601482  0.030525732  0.035165076            1 
   90000    1.2430965   -6.7408622    33.003759  0.030559036  0.035157508            2 
   91000    1.2036454   -6.7527803    33.499926  0.030677588  0.035148496            5 
   92000    1.2110439   -6.7370665    33.826584  0.030640021  0.035138397            3 
   93000    1.2154061   -6.7751365    34.390738  0.030816073  0.035128782            1 
   94000     1.220523   -6.7237022    35.043613  0.031067033   0.03512868            2 
   95000    1.2464997   -6.7486854    35.377658  0.031033033  0.035135005            1 
   96000    1.2305099   -6.7954053    35.718146  0.031005335  0.035142851            3 
   97000    1.2372376   -6.8371833    35.996724   0.03092502  0.035147281            5 
   98000    1.2032582   -6.7196549    36.563122   0.03109109  0.035147313            2 
   99000    1.2028812   -6.8235941    36.829167  0.031000982  0.035150607            2 
  100000    1.2145488   -6.7868242    37.541243  0.031284369   0.03516468            2 
  101000     1.205335   -6.7988711    38.093351  0.031430157  0.035184153            3 
  102000     1.191882   -6.8097979    38.595816   0.03153253  0.035208406            1 
  103000    1.2226972   -6.8366557    38.924343  0.031492187  0.035233189            2 
  104000    1.2135749   -6.8105738    39.323629  0.031509318  0.035250609            2 
  105000    1.2303945   -6.7734004    39.578322  0.031411366  0.035255295            2 
  106000    1.2209944   -6.7379588    39.997187  0.031444329    0.0352561            1 
  107000    1.2051346     -6.77283    40.244746   0.03134326  0.035249632            2 
  108000    1.2128068   -6.7379977    40.541152  0.031281753  0.035239101            4 
  109000    1.2309263   -6.7613565    40.908032  0.031275254  0.035224362            2 
  110000    1.2338139   -6.7592536    41.421743  0.031380108  0.035208867            3 
  111000    1.2160964   -6.8176435      41.7251   0.03132515    0.0351968            2 
  112000    1.2066124    -6.818547    42.065113  0.031298447  0.035184562            2 
  113000    1.1937912   -6.8109314     42.64387  0.031448282  0.035171624            2 
  114000     1.212596   -6.7900746    42.902264  0.031361304  0.035159181            1 
  115000    1.2366953   -6.7754525    43.399988  0.031449267   0.03514581            3 
  116000    1.2030436   -6.7952737    43.720406  0.031408337  0.035130418            1 
  117000    1.1954288   -6.8348613    43.903165   0.03127006  0.035112047            2 
  118000    1.2114221   -6.7827437    44.887921  0.031700509  0.035102195            2 
  119000    1.1727261   -6.8048074    45.408022  0.031798334  0.035096371            4 
  120000     1.214573   -6.8238164    45.489082   0.03158964    0.0350963            2 
  121000    1.1994238   -6.8186132    45.929553  0.031631923  0.035088045            1 
  122000    1.2201516   -6.7941003    46.393518  0.031689561  0.035082673            2 
  123000    1.2042477   -6.7975795    46.686702  0.031630557  0.035073805            4 
  124000    1.2326752   -6.8289329    47.177418  0.031705254  0.035064302            5 
  125000    1.2168859    -6.800452    47.800246  0.031866831  0.035059123            2 
  126000    1.2025496   -6.7582768    48.024907  0.031762505  0.035053037            4 
  127000    1.1973288   -6.8016347    48.179477   0.03161383  0.035036956            2 
  128000    1.2063574   -6.8055556    48.662287  0.031681176  0.035025599            1 
  129000     1.198781     -6.86525    48.981003  0.031641475  0.035013188            2 
  130000    1.1788104   -6.8251719    49.293474  0.031598381  0.034994235            2 
  131000    1.1947282   -6.8030692    49.914562  0.031752266  0.034977631            3 
  132000    1.1952504    -6.800552    49.998192  0.031564515  0.034959271            6 
  133000    1.2043765   -6.8499707    50.258222  0.031490114  0.034937123            1 
  134000    1.2015837   -6.8391847    50.600737   0.03146812  0.034910364            5 
  135000    1.2003546   -6.8531031    50.691936  0.031291318  0.034881168            4 
  136000    1.2090571   -6.8165107    51.080027  0.031299036  0.034846471            1 
  137000    1.2237385   -6.7771299    51.635454  0.031408427  0.034814769            1 
  138000    1.1742637   -6.8354621    51.819525  0.031291984  0.034781903            1 
  139000    1.1856987    -6.827261     52.36946  0.031396558   0.03475083            2 
  140000    1.2062671   -6.8085147      52.6027  0.031311131  0.034719107            3 
  141000    1.1932119    -6.883321    52.977158  0.031310377  0.034685907            3 
  142000    1.2132913    -6.839566    53.257917  0.031254646  0.034651085            2 
  143000     1.180989   -6.8031424    53.684039  0.031284405  0.034612703            2 
  144000     1.220816   -6.8504804    54.287844  0.031416576  0.034580813            3 
  145000    1.1683511   -6.8438206     54.45489  0.031295914  0.034548858            3 
  146000    1.1917787   -6.8351185    54.941216  0.031359141  0.034516091            2 
  147000    1.1792205   -6.8194299    55.434392  0.031425392  0.034485532            5 
  148000    1.2079518   -6.8222476     55.75048  0.031391036  0.034457796            1 
  149000    1.2109575   -6.8283971    56.101203  0.031376512  0.034429415            2 
  150000    1.2101022   -6.8694536    56.266664  0.031259258  0.034404172            4 
  151000    1.1920648   -6.8441361    56.866723  0.031383401  0.034377655            1 
  152000    1.1792406   -6.8136474    57.453894  0.031498845  0.034350113            3 
  153000     1.171845     -6.80568    57.728993  0.031442807  0.034323862            2 
  154000    1.2034758   -6.8430152    57.934611  0.031349898  0.034295034            2 
  155000    1.1991564    -6.799663    58.015345  0.031191046  0.034264304            2 
  156000    1.2107597   -6.8489958    58.406382   0.03119999  0.034229755            2 
  157000    1.1925028   -6.8598651    58.747544  0.031182348  0.034196131            2 
  158000    1.1964135   -6.8258977    59.077595  0.031159069  0.034161788            2 
  159000    1.1899497   -6.8508601     59.53219  0.031201357  0.034130256            2 
  160000    1.2104859    -6.841683    59.911887  0.031204108  0.034099335            2 
  161000    1.1853291   -6.8467259    60.272096  0.031196737  0.034068787            2 
  162000    1.2023384   -6.8701199     60.47151  0.031106744  0.034040433            4 
  163000    1.2036035   -6.8862654     61.09798  0.031236186  0.034012029            2 
  164000     1.174157   -6.8805673    61.467622  0.031233548  0.033983286            1 
  165000    1.1723818   -6.8908991    61.948556  0.031287149  0.033957494            4 
  166000    1.1853053   -6.8632081    62.227913  0.031238912   0.03392998            3 
  167000    1.1678888   -6.8627329    62.627217  0.031251106  0.033899549            2 
  168000    1.1881354   -6.8587295    62.915388   0.03120803  0.033872392            2 
  169000    1.1844507   -6.8603651    63.373579  0.031249299  0.033842927            2 
  170000     1.199638    -6.812147    63.940575  0.031343419  0.033815576            2 
  171000    1.1890845    -6.880934    63.953941  0.031166638  0.033788713            1 
  172000    1.2023982   -6.9032657    64.127717   0.03106963  0.033760222            3 
  173000    1.1878396   -6.8637067    65.054791  0.031336604  0.033734818            2 
  174000    1.1812092   -6.9156782     65.16838   0.03121091  0.033711799            2 
  175000     1.207862   -6.8563735    66.136885  0.031493755  0.033693249            4 
  176000    1.1933797   -6.8325067    66.350521  0.031415966  0.033677464            3 
  177000    1.2048413   -6.8746454    66.944619  0.031518182  0.033661172            3 
  178000    1.1769133   -6.8756404    67.154216   0.03143924  0.033646351            2 
  179000    1.1679262   -6.9055765    67.402096  0.031379002  0.033631124            3 
  180000    1.1817209   -6.8492787    68.067817  0.031512878  0.033614483            3 
  181000    1.1610254   -6.8567362    68.318081  0.031453997  0.033596796            6 
  182000    1.2003692   -6.8373133    68.714372  0.031462625  0.033581115            5 
  183000    1.1913938   -6.8452407    68.776981  0.031319208  0.033565605            3 
  184000    1.1665747   -6.8463202    69.548954   0.03149862  0.033546235            2 
  185000    1.1471691   -6.8577784     69.37721  0.031250995  0.033527402            2 
  186000    1.1791203   -6.8277416    69.902259  0.031318216  0.033506228            5 
  187000    1.1820138   -6.8594408    70.048349  0.031215842  0.033486248            2 
  188000    1.1694957   -6.8734094    70.365596  0.031190424  0.033462635            2 
  189000    1.1737601   -6.8391388    70.883012  0.031253533  0.033439402            3 
  190000    1.1573347   -6.8897657    71.125975  0.031195603  0.033414132            1 
  191000    1.1800965   -6.8969318    71.459154  0.031177641  0.033391591            1 
  192000    1.1875244   -6.9076581    71.410443  0.030994116  0.033366934            5 
  193000    1.1872773   -6.9140651     71.86798  0.031031079  0.033342204            2 
  194000    1.1981441   -6.8731589    72.632485  0.031199521  0.033317631            3 
  195000    1.1862324   -6.8758538    72.838648  0.031127627    0.0332946            3 
  196000    1.1639564   -6.8775089    73.177919  0.031113061  0.033269484            3 
  197000    1.1730018   -6.8754639    73.385739  0.031043037  0.033244129            4 
  198000    1.1689554   -6.9005628     73.57724  0.030966852  0.033217695            1 
  199000     1.192403   -6.8837873    73.925764  0.030957187  0.033188402           10 
  200000     1.179528   -6.8729393    74.143224   0.03089301  0.033159048            4 
  201000    1.1593206   -6.9111611    74.326709  0.030815385  0.033128805            2 
  202000    1.1755389   -6.8701409    74.621422  0.030784415  0.033096831            4 
  203000    1.1921871   -6.9056929    74.998063  0.030787382  0.033066402            3 
  204000    1.1707671   -6.9186394    74.938655  0.030612196  0.033033625            2 
  205000    1.1968239   -6.8758191    75.656316    0.0307546  0.033000498            3 
  206000      1.16138   -6.8868745    75.872824   0.03069289  0.032966452            2 
  207000    1.1713359   -6.8326142    76.370875  0.030745119  0.032933904            1 
  208000    1.1636322   -6.8884624     76.42661  0.030619635  0.032901905            4 
  209000    1.1714194   -6.8996883    76.615954  0.030548626  0.032870079            3 
  210000    1.1344857   -6.8859918    77.135789   0.03060944  0.032836991            2 
  211000    1.1702936   -6.9598657    77.239688  0.030505406  0.032805025            3 
  212000    1.1627824   -6.9141983    77.786477  0.030576445  0.032772866            2 
  213000    1.1786975   -6.8799857    78.470043   0.03070033   0.03274387            5 
  214000    1.1666831   -6.8757641    78.679406  0.030638398  0.032714036            6 
  215000    1.1886793   -6.9020574    79.057481  0.030642434  0.032683974            1 
  216000    1.1651063   -6.9192426    79.223221  0.030564514  0.032655098            1 
  217000    1.2030022   -6.9033626    80.004769  0.030723798  0.032629593            4 
  218000    1.1613575   -6.8883034    80.216635  0.030663851  0.032602958            5 
  219000    1.1606967   -6.8971691    80.422871   0.03060231  0.032575122            2 
  220000    1.1659302   -6.9576961    80.713252  0.030573201  0.032547695            5 
  221000    1.1762111   -6.8921409    81.388351  0.030689423  0.032522234            2 
  222000     1.172843   -6.9505823    81.385685  0.030550182  0.032497946            5 
  223000    1.1513718    -6.951113     81.70525  0.030532605  0.032470703            3 
  224000    1.1645072   -6.9458848    81.969344  0.030494547  0.032443512            2 
  225000    1.1575752   -6.8723688    82.748441  0.030647571  0.032416961            2 
  226000    1.1578025   -6.8669286    83.422561  0.030760531  0.032392892            2 
  227000    1.1609717   -6.8877681    83.551881  0.030672497  0.032369414            3 
  228000    1.1514353   -6.8964249    83.754429  0.030611999  0.032347645            3 
  229000    1.1497388   -6.9825558    83.925069  0.030540418  0.032322341            2 
  230000    1.1564534   -6.9343895    84.205054  0.030509077  0.032297929            3 
  231000    1.1452567   -6.9210949    84.505346  0.030485334  0.032274468            2 
  232000    1.1690544   -6.9159589    84.824493  0.030468568  0.032250806            4 
  233000    1.1566032   -6.9114956    85.162636  0.030458739  0.032228743            3 
  234000    1.1490538     -6.91156    85.638996  0.030498218  0.032203868            2 
  235000    1.1551417   -6.9104127    85.852124  0.030444016  0.032179887            4 
  236000    1.1462989   -6.8806805    86.566805  0.030567374   0.03215733            6 
  237000    1.1250201   -6.8965865    87.046313  0.030607002  0.032133695            3 
  238000    1.1538512   -6.9408463    86.967547  0.030450822  0.032111031            4 
  239000    1.1574807   -6.9190516    87.268013  0.030428178  0.032085866            3 
  240000    1.1675641   -6.9307812    87.475415  0.030373408  0.032061156            2 
  241000    1.1410954   -6.9203453    88.019094  0.030435371  0.032038683            6 
  242000    1.1605423   -6.9537035    87.853948  0.030252737  0.032016541            5 
  243000     1.148443   -6.8955705    88.806057  0.030454752  0.031994645            4 
  244000    1.1647668   -6.9445723    88.869087  0.030351464  0.031970418            5 
  245000    1.1415904   -6.9641789    89.160272  0.030326623  0.031947263            2 
  246000     1.152584   -6.9163473     89.64755  0.030368411  0.031923631            3 
  247000    1.1276906   -6.9209256    89.951247  0.030347924  0.031901959            4 
  248000    1.1635052    -6.952753    90.065112  0.030263814  0.031880518            2 
  249000    1.1430576   -6.9299446     90.79581  0.030386817  0.031859317            3 
  250000    1.1429977   -6.9334644    91.496089  0.030498696  0.031838551            3 
  251000    1.1382453   -6.9613121    91.261876  0.030299427  0.031817586            3 
  252000    1.1695844   -6.9505807    91.754008  0.030341934  0.031796294            3 
  253000    1.1357519   -6.9493135    92.297832   0.03040113  0.031776402            2 
  254000    1.1441097   -6.9614203    92.538689  0.030360462  0.031757391            4 
  255000    1.1607673    -6.936228    93.088578  0.030421104  0.031737953            2 
  256000    1.1636218   -6.9171379    93.484526  0.030431161  0.031718664            7 
  257000    1.1335001   -6.9705738    93.835937  0.030426698  0.031700314            2 
  258000    1.1360963   -6.9745354    93.989581  0.030358392  0.031681736            3 
  259000    1.1667404   -6.9773032     94.40047  0.030373382  0.031664727            2 
  260000    1.1566804   -6.9456287    95.062289  0.030468682   0.03164783            3 
  261000    1.1498328   -6.9110188    95.403923  0.030461023  0.031631811            2 
  262000    1.1456989   -7.0127144    95.477109  0.030368037  0.031615852            3 
  263000    1.1309953   -6.9408004    95.837228  0.030366675  0.031601775            5 
  264000    1.1536726   -6.9732731    96.458962  0.030447905   0.03158734            4 
  265000    1.1393844   -6.9842043    96.753619  0.030425666  0.031573595            3 
  266000    1.1392828   -6.9790147     97.22765   0.03045979  0.031560378            3 
  267000    1.1490065   -6.9534051     97.37466  0.030391592  0.031547071            2 
  268000    1.1777845    -6.959529    97.571802  0.030339491  0.031533259            3 
  269000    1.1589765   -6.9636319    98.163857  0.030410117  0.031518686            4 
  270000    1.1632196   -6.9418629    98.518448  0.030406928  0.031505112            2 
  271000     1.150648   -6.9557128    99.021731  0.030449487    0.0314919            2 
  272000    1.1413479   -6.9652026    99.285238  0.030418271  0.031478415            3 
  273000    1.1240718   -6.9468103    99.576861  0.030395867  0.031464484            4 
  274000     1.139776   -7.0200164    99.491257  0.030258898  0.031449666            3 
  275000    1.1517766   -6.9472263    99.991912  0.030300579  0.031434726            2 
  276000    1.1499284   -6.9557868     100.0945  0.030221769  0.031418497            1 
  277000    1.1273196   -6.9971448    100.41018  0.030207635  0.031401814            5 
  278000    1.1644019   -6.9999407    100.61444  0.030160205   0.03138341            1 
  279000    1.1578903   -7.0135412    100.71231  0.030081334  0.031365495            5 
  280000    1.1536039   -6.9927214    101.28467  0.030144247  0.031347617            2 
  281000     1.142279   -6.9737201    102.07214  0.030270503  0.031331597            5 
  282000    1.1357846   -6.9865232    102.24374   0.03021387  0.031316238            2 
  283000    1.1163734     -7.02982    102.23248  0.030103794  0.031301022            5 
  284000    1.1661307   -6.9806416    103.11652  0.030257195  0.031285894            2 
  285000    1.1647804   -6.9970066    103.00953  0.030119747   0.03127142            3 
  286000    1.1397403   -6.9610682    103.92306  0.030280613  0.031256346            4 
  287000      1.13987   -6.9927586    103.74343  0.030122947  0.031241113            4 
  288000    1.1411586   -6.9927053    104.15546  0.030137574  0.031225885            4 
  289000    1.1356844   -6.9380542     104.9987  0.030276442  0.031211758            5 
  290000    1.1200704   -7.0123138    104.57084  0.030049092  0.031195678            2 
  291000    1.1285048   -7.0083291    104.96618  0.030059043   0.03117908            5 
  292000    1.1256332   -6.9480924    105.34965  0.030065538  0.031163743            3 
  293000    1.1078308   -6.9669493    106.08332  0.030171594  0.031148103            3 
  294000    1.1436489   -6.9525236    106.47006  0.030178588  0.031133018            5 
  295000    1.1471309   -7.0198898    106.14308  0.029983921  0.031118715            1 
  296000    1.1309427   -6.9872586    107.00282  0.030124666  0.031103443            3 
  297000    1.1077271   -6.9990662    107.07681  0.030043997  0.031087723            3 
  298000    1.1438078   -7.0239403    107.06839  0.029940826  0.031071595            7 
  299000    1.1262165   -7.0134838    107.26911   0.02989663  0.031054729            3 
  300000    1.1274655   -6.9841901    107.51355  0.029864874  0.031037242            4 
  301000    1.1615986   -6.9777389    107.83679  0.029855146  0.031018954            2 
  302000    1.1263063   -7.0136779     107.9341   0.02978314  0.031000762            4 
  303000    1.1275189   -7.0074061    108.02519  0.029709898  0.030981472            4 
  304000    1.1599528   -7.0211755    108.37891  0.029709132  0.030962064            2 
  305000    1.1542969   -7.0114064    108.79397  0.029725128  0.030943167            4 
  306000    1.1500356   -7.0018905    109.42948  0.029801057  0.030923877            2 
  307000    1.1185754   -7.0109849    109.38481  0.029691858  0.030905173            2 
  308000    1.1579298   -6.9736588     109.8793  0.029729247  0.030886058            2 
  309000    1.1415193    -7.028143    110.00005  0.029665601  0.030866912            4 
  310000    1.1483118   -7.0088045     110.4323  0.029686102  0.030847659            2 
  311000    1.1500441   -7.0080246     111.0902  0.029766935   0.03082982            3 
  312000    1.1293595   -6.9901472    111.59617   0.02980667  0.030812547            2 
  313000      1.14413   -7.0517944    111.52692  0.029693004  0.030796386            5 
  314000     1.118991   -7.0381844    111.93022  0.029705472  0.030779015           10 
  315000    1.1305951   -7.0174862    112.10942  0.029658575    0.0307619            6 
  316000    1.1161027   -7.0755859    112.67139   0.02971292  0.030744163            1 
  317000    1.1102792      -7.0074    113.15411  0.029746086  0.030726531            4 
  318000    1.1439599   -7.0216071    113.12865  0.029645873   0.03070877            2 
  319000    1.1550058   -7.0401482     113.3469  0.029609954  0.030691591            5 
  320000    1.1344964   -7.0103454     113.8168  0.029639792  0.030674142            3 
  321000    1.1402845   -6.9802596      114.499  0.029724558  0.030658021            2 
  322000    1.1211132   -7.0103545    114.47084  0.029624959  0.030641842            3 
  323000    1.1168605   -7.0135466    114.94246  0.029654918  0.030624633            2 
  324000    1.1392366   -6.9647636    115.63715  0.029742065   0.03060817            3 
  325000    1.1329507   -7.0379375     115.1425  0.029523719  0.030591629            2 
  326000    1.1092241   -7.0085047    116.37802  0.029748981  0.030574875            3 
  327000    1.1195622   -7.0128365    116.42906  0.029671014  0.030559311            5 
  328000    1.1237318   -7.0267229    116.41819  0.029577792  0.030543169            2 
  329000    1.1103646   -7.0706834    116.43264   0.02949155  0.030525873            3 
  330000    1.1103698   -7.0450989    116.88179  0.029515603  0.030508875            3 
  331000    1.1176636   -7.0340102     117.4824  0.029577644  0.030491591            3 
  332000    1.1401319   -6.9820699    117.61737  0.029522431  0.030475165            5 
  333000     1.105401   -7.0378914    118.01384  0.029532992  0.030457851            4 
  334000    1.1244713   -7.0123394    117.88422   0.02941223  0.030440797            3 
  335000    1.1465658   -7.0743325    118.24129  0.029413257  0.030422075            2 
  336000    1.1128063   -7.0577303     118.6998  0.029439433  0.030404566            3 
  337000    1.1196514   -7.0075589    118.73148  0.029359912  0.030386543            5 
  338000    1.1212282    -7.053441    119.28811  0.029410284  0.030369023            4 
  339000    1.1151038   -7.0466615    119.71618  0.029428757  0.030350525            2 
  340000    1.1244774   -7.0772094    119.34834  0.029252045  0.030332394            3 
  341000    1.1184288   -7.0033297    119.95457  0.029314412  0.030313577            2 
  342000     1.137737   -6.9902491     120.4335  0.029345395  0.030296591            3 
  343000    1.1485708   -7.0525213    120.56019  0.029290619  0.030278542            3 
  344000    1.1314993   -7.0600411    120.79951  0.029263447  0.030260176            4 
  345000    1.1022784   -7.0200904      120.992  0.029225121  0.030242006            4 
  346000    1.1189606   -7.0404237    121.20984   0.02919312  0.030224458            3 
  347000     1.086361   -7.0655151    121.27139  0.029123774  0.030206322            8 
  348000    1.1232666    -7.072133    121.92009  0.029195423  0.030188333            1 
  349000    1.0903228   -7.0784149    122.33098   0.02920988  0.030170161            3 
  350000    1.1244743   -7.0664725    122.58593  0.029187127   0.03015204            5 
  351000    1.1417924   -7.0048899    122.97259  0.029195771  0.030133849            5 
  352000    1.1021135   -7.0339778    123.50122  0.029237977  0.030116141            1 
  353000    1.1190701   -7.0821639    123.43592  0.029139735  0.030097858            2 
  354000     1.106432   -7.0435131    123.94155  0.029176449  0.030080969            3 
  355000    1.1006422   -7.0788859    124.29854   0.02917806  0.030063842            3 
  356000     1.143855   -7.0461468    124.76676  0.029205702  0.030047282            3 
  357000    1.1220143   -7.0578624    125.09246  0.029199921  0.030030403            1 
  358000     1.125567    -7.055151    125.18953  0.029140952   0.03001349            3 
  359000    1.1070337   -7.0600995    125.22194  0.029067303   0.02999612            2 
  360000    1.1250614    -7.032764    125.96912  0.029159518  0.029978754            2 
  361000    1.1010631   -7.0627686    126.24332   0.02914204   0.02996209            2 
  362000    1.1127671    -7.074821    126.49056  0.029118453  0.029945704            3 
  363000    1.1170207   -7.0658662    126.56618  0.029055597  0.029930059            2 
  364000    1.1080358   -7.0992403    126.86271  0.029043661  0.029912837            3 
  365000    1.1161518   -7.0650172    126.86407    0.0289644  0.029895262            4 
  366000    1.1075189   -7.0867393    126.97495  0.028910508  0.029877129            2 
  367000    1.1114109   -7.0540983    127.71792  0.029000436  0.029859375            2 
  368000    1.1076592   -7.0859514     127.7642   0.02893211  0.029841554            2 
  369000    1.1017845   -7.0427904    128.14033  0.028938648  0.029823225            4 
  370000    1.0991672   -7.0671316    128.44797  0.028929723  0.029805821            3 
  371000    1.1015715   -7.0623249    128.63337   0.02889339   0.02978764            2 
  372000    1.1173429   -7.1133362    127.83072  0.028635915  0.029768297            5 
  373000    1.1092628   -7.0674696     129.1605  0.028856232  0.029748625            5 
  374000    1.1055388   -7.0961135    129.37982  0.028827945  0.029729782            4 
  375000    1.0836409   -7.1029945    129.31382  0.028736404  0.029710369            4 
  376000    1.1000247   -7.0905707    129.19101   0.02863276  0.029690928            5 
  377000    1.0842097   -7.1031658    129.69639  0.028668522  0.029671959            3 
  378000    1.0841146   -7.0895462    129.95542  0.028649784  0.029652305            3 
  379000    1.1084404    -7.066045    130.43575  0.028679804  0.029632136            5 
  380000     1.109837   -7.1095959    130.66525   0.02865466  0.029612801            6 
  381000    1.0734909   -7.1206973    130.76062  0.028600311  0.029593175            3 
  382000    1.1070916   -7.0575134    130.86771  0.028548803  0.029573531            2 
  383000    1.1049188   -7.0999398    131.45277   0.02860156  0.029553707            2 
  384000    1.1045291   -7.0870551    131.86526  0.028616592  0.029534858            4 
  385000    1.1094454    -7.063131    132.35497  0.028648261  0.029516505            3 
  386000    1.0867792   -7.0948726    132.49971  0.028605291  0.029497848            3 
  387000    1.0917936   -7.1337912    132.74752  0.028584737  0.029479049            4 
  388000     1.090118   -7.0899047    132.79213  0.028520646   0.02945954            9 
  389000    1.0869574    -7.116609    132.92094  0.028474923  0.029439131            6 
  390000    1.0835448   -7.1148977    133.39339   0.02850286  0.029418877            4 
  391000    1.1027111   -7.0442531    133.95968  0.028550657  0.029399575            3 
  392000    1.0929255   -7.1460245    133.55865   0.02839257  0.029380112            2 
  393000    1.0866694   -7.1145036    133.84287  0.028380592   0.02935967            4 
  394000    1.0886888   -7.1118291    134.20753  0.028385686  0.029339425            4 
  395000    1.0958995   -7.1286327    133.80186  0.028228239  0.029318539            2 
  396000    1.1117938   -7.1422579    134.06022  0.028211327  0.029295724            2 
  397000    1.0998243   -7.0867303    134.74592  0.028284198  0.029274025            3 
  398000    1.0934301   -7.1001568    135.10994  0.028289351  0.029252535            3 
  399000    1.1038115   -7.1406527    134.70473  0.028133821  0.029230392            6 
  400000    1.0877814   -7.1279542    135.03146  0.028131554  0.029207804            2 
  401000    1.0892658   -7.1173646    134.95304  0.028045103  0.029184856            3 
  402000    1.0861592   -7.1223266    135.08967  0.028003664  0.029161644            4 
  403000    1.1001335   -7.0937861    135.43892  0.028006393  0.029138668            2 
  404000    1.0922803   -7.1552627    135.46062  0.027941547  0.029116236            3 
  405000    1.0964331   -7.1240157    135.84957  0.027952587  0.029093294            6 
  406000     1.092559   -7.0989459    136.14179  0.027943718  0.029071089            3 
  407000    1.1177201   -7.1149911    136.40928  0.027929827    0.0290485            3 
  408000    1.0864528   -7.1418722    136.43831  0.027867302   0.02902591            3 
  409000    1.0987652     -7.12651    137.04467  0.027922712  0.029003315            4 
  410000    1.1162737   -7.1193226    137.07234  0.027860231  0.028980026            3 
  411000    1.1053207   -7.1456146    137.42903  0.027864766  0.028956311            4 
  412000    1.0742202    -7.068334    138.27892  0.027969037  0.028933051            1 
  413000    1.0763624   -7.1114822    138.30346  0.027906268  0.028910847            3 
  414000    1.0791315   -7.1280345    138.39951  0.027858194  0.028888837            4 
  415000    1.0914529   -7.1249301    138.90215  0.027891998  0.028867091            2 
  416000    1.0930302   -7.1057779    138.86206  0.027816919   0.02884522            3 
  417000    1.0734045   -7.1185249    139.49302  0.027876304  0.028822897            2 
  418000    1.0973081   -7.1061508    139.43333  0.027797714  0.028801838            4 
  419000    1.1222358   -7.1394282    139.53167  0.027750928  0.028780157            2 
  420000    1.0863713   -7.1659429    139.35837   0.02765047  0.028757589            7 
  421000    1.0540324   -7.1614508    139.96258   0.02770439  0.028734383            4 
  422000    1.0784881   -7.1778216    139.69087  0.027585086  0.028711384            2 
  423000    1.0904194   -7.1087128    140.26716  0.027633405  0.028688118            4 
  424000    1.0748407    -7.139121    140.73643  0.027660462  0.028665338            4 
  425000      1.07916   -7.1348801    140.81115  0.027610029  0.028642789            2 
  426000    1.0812372   -7.1406961    141.11977  0.027605589  0.028619633            6 
  427000    1.0949765   -7.1201879    141.37116      0.02759  0.028597044            3 
  428000    1.0883105   -7.1681191    141.80708  0.027610412  0.028575042            3 
  429000    1.0881241    -7.125738    141.89727  0.027563572  0.028554169            4 
  430000    1.0748464   -7.1309051    142.33102   0.02758353  0.028532381            2 
  431000    1.0715823   -7.1706694    142.52431  0.027556904  0.028510391            2 
  432000     1.067703   -7.1500557    142.61829  0.027511244  0.028488279            3 
  433000    1.0794218   -7.1393575    143.06601  0.027533874  0.028466227            6 
  434000    1.0890864   -7.1575196    143.46106  0.027546286  0.028444643            4 
  435000    1.0773001   -7.1128941    143.89732  0.027566536  0.028423157            5 
  436000    1.0742802   -7.1562591    143.56936  0.027440628  0.028400936            3 
  437000    1.0829306   -7.1803434    143.73224  0.027408894  0.028378178            3 
  438000     1.086843   -7.1318889    144.45595  0.027484009  0.028356264            3 
  439000    1.0805216   -7.1022873    144.44659  0.027419625  0.028334521            4 
  440000     1.056602   -7.1046306    145.05471  0.027472483  0.028312256            2 
  441000    1.0755037   -7.1436485    144.47274  0.027300216  0.028290167            2 
  442000    1.0866088   -7.1152347    145.49484  0.027431153  0.028268047            3 
  443000    1.1052624   -7.1315604    145.72279  0.027412113  0.028246605            5 
  444000     1.078185   -7.1579321    145.05674  0.027225365  0.028224322            7 
  445000    1.0704684   -7.1502389    145.69707  0.027284095  0.028202256            4 
  446000    1.0676437   -7.2003299    145.71252  0.027225807  0.028180072            2 
  447000     1.069769   -7.1473049    146.23754  0.027262778  0.028157758            4 
  448000    1.0809852   -7.1921245     145.7726  0.027115439  0.028135219            6 
  449000    1.0704676   -7.1658741     146.3849   0.02716869  0.028112879            4 
  450000    1.0613135    -7.146083    146.90275  0.027204213  0.028090101            9 
  451000    1.0731348   -7.1741837    147.08087  0.027176805  0.028068145            3 
  452000    1.0801503    -7.140608    147.86833  0.027261861  0.028046829            3 
  453000    1.0577517   -7.1626258    147.60438  0.027153124  0.028025403            4 
  454000    1.0420481   -7.1932194    147.51243  0.027076437  0.028003355            3 
  455000    1.0933573   -7.2096737    147.99988  0.027106206  0.027981437            8 
  456000    1.0830954   -7.2255992    148.35223  0.027111154   0.02795981            4 
  457000    1.0606109   -7.1404282    148.93565  0.027158214  0.027938594            6 
  458000    1.0749922   -7.1948052    148.83597   0.02708078  0.027917709            4 
  459000    1.0576221   -7.1618765    149.17908  0.027084074  0.027896349            2 
  460000     1.082901   -7.1479577    149.09189  0.027009401  0.027874998            9 
  461000    1.0679027     -7.15392    149.79509  0.027077927  0.027853518            3 
  462000     1.070367   -7.1365045    150.23279  0.027098267  0.027832546            4 
  463000    1.0651917   -7.1715901    150.15277  0.027025336  0.027811504            4 
  464000    1.0814355   -7.1330806    150.94601  0.027109556  0.027791087            2 
  465000    1.0770441   -7.1787975    150.53017  0.026976733  0.027770019            8 
  466000     1.082096     -7.18697    150.76098  0.026960117  0.027748992            6 
  467000    1.0704998   -7.2150888    150.78987  0.026907543  0.027727646            3 
  468000    1.0554426   -7.1707077    151.54305  0.026984162  0.027706702            2 
  469000    1.0684031   -7.1974502    151.48864  0.026916959  0.027685934            3 
  470000    1.0655926   -7.1826993    151.95942  0.026943159  0.027664977            3 
  471000    1.0441558   -7.1809616    152.04204  0.026900573  0.027643892            6 
  472000    1.0974121   -7.2178653    151.24354  0.026702602  0.027622033            5 
  473000    1.0837411   -7.1541628    152.00526  0.026780349  0.027600304            4 
  474000    1.0375277   -7.2070792    152.19665  0.026757499  0.027578913            3 
  475000    1.0726269   -7.2214091    151.47329  0.026574262  0.027556643            3 
  476000    1.0801963   -7.1696678    152.70862  0.026734702  0.027534462            3 
  477000     1.059999   -7.1695217    152.65673  0.026669589  0.027513168            4 
  478000    1.0543399   -7.1562406    152.94909  0.026664765   0.02749204            6 
  479000    1.0747864   -7.1754301    153.53059  0.026710263  0.027470548            3 
  480000    1.0868559   -7.2147388    153.33079  0.026619929  0.027448855            3 
  481000    1.0655096   -7.1787656    153.44461  0.026584306  0.027426949            3 
  482000     1.043855   -7.1716349    153.65264  0.026565117   0.02740469            4 
  483000    1.0850144   -7.1785331    154.18651  0.026602227  0.027382657            4 
  484000    1.0472078   -7.1927589    153.52316  0.026433051   0.02736084            3 
  485000    1.0676139   -7.2418138    154.24665  0.026502861  0.027338787            4 
  486000    1.0592973    -7.220191    154.46618  0.026485971  0.027316865            3 
  487000    1.0664336   -7.1722793    154.74409  0.026479138  0.027294942            1 
  488000    1.0702564   -7.2552873    154.73964  0.026424119  0.027273288            3 
  489000    1.0533122   -7.2171455    155.53798  0.026506132  0.027251251            5 
  490000    1.0657093   -7.2058598    155.64112  0.026469578  0.027229688            4 
  491000    1.0757417   -7.2012136    156.01427     0.026479  0.027207867            3 
  492000    1.0494207   -7.2427835    155.78955  0.026387119   0.02718611            6 
  493000    1.0656892   -7.2513991    156.22241  0.026406763  0.027164417            8 
  494000    1.0700373   -7.2608523    156.27082  0.026361475  0.027142733            1 
  495000    1.0715249   -7.2311972    156.67266  0.026375869  0.027121123            5 
  496000    1.0645346   -7.2048137    157.00962  0.026379305  0.027100057            5 
  497000    1.0698547   -7.2462529     156.9366  0.026313984  0.027079246            7 
  498000     1.064971   -7.1964523    157.80998  0.026407293  0.027058419            3 
  499000    1.0282478   -7.2491893    157.37858  0.026282328  0.027037428            8 
  500000     1.072571   -7.2347359    157.49289  0.026248815  0.027016053            4 
  501000    1.0612053   -7.1857543    158.53078  0.026369059  0.026994851            4 
  502000     1.075282   -7.1849215    158.13689  0.026251144   0.02697413            5 
  503000    1.0556963   -7.1637052    159.24565  0.026382645  0.026953941            2 
  504000    1.0743754   -7.2374589    158.43647  0.026196505  0.026933037            4 
  505000    1.0571198   -7.2379791    158.63074   0.02617669    0.0269125            5 
  506000    1.0591502   -7.2516049    159.09439  0.026201316   0.02689238            4 
  507000    1.0428765   -7.2123399    160.04636  0.026306108  0.026872401            2 
  508000    1.0531242   -7.2250518    160.65942  0.026354892  0.026852761            2 
  509000    1.0554824   -7.2046133    160.41655  0.026263351  0.026832998            6 
  510000    1.0523927   -7.2260176    161.03117  0.026312283  0.026813376            2 
  511000    1.0558892   -7.2696113    160.79468  0.026222224   0.02679393           10 
  512000    1.0594456   -7.2217604    161.27835  0.026249732  0.026774376            5 
  513000    1.0370533   -7.2288097    161.76479  0.026277581  0.026755019            2 
  514000    1.0343108   -7.2128061    161.59665  0.026199197  0.026735493            4 
  515000    1.0426404   -7.2610572    161.47589  0.026128785  0.026716059            4 
  516000    1.0366677   -7.2567497    161.45321  0.026074485  0.026696857            4 
  517000    1.0428906   -7.2370854    162.17424   0.02614027   0.02667702            2 
  518000    1.0695282   -7.2552387    162.21502  0.026096367  0.026657662            2 
  519000    1.0260524   -7.2261327     162.7034  0.026124502  0.026638494            7 
  520000    1.0527321   -7.2304786    163.47356  0.026197685  0.026619873            9 
  521000    1.0460729   -7.2307203    163.45754  0.026144841  0.026601518            3 
  522000    1.0547924   -7.2155141    163.74944  0.026141354  0.026582988            5 
  523000    1.0675378   -7.2195475     164.0279  0.026135739  0.026564884            7 
  524000    1.0348952   -7.1978927    164.47351  0.026156728  0.026546694            3 
  525000    1.0565224   -7.2218956    164.42139  0.026098634  0.026528679            2 
  526000    1.0417001   -7.2639118    163.83853  0.025956674  0.026510268            4 
  527000      1.04654   -7.2223671    164.07196  0.025944332  0.026491178            7 
  528000    1.0408769   -7.2434581    164.84132  0.026016622  0.026472036            7 
  529000    1.0496739   -7.2645625    164.30209  0.025882496  0.026452855            2 
  530000    1.0476053   -7.2523104    165.17304  0.025970604  0.026433537            3 
  531000    1.0531139   -7.2562139    165.39001  0.025955745  0.026414094            3 
  532000    1.0436052   -7.2340827    165.26454  0.025887303  0.026394589            2 
  533000    1.0555656   -7.2637093    165.80925  0.025923897  0.026375471            6 
  534000    1.0403611    -7.235204    165.64136  0.025849151  0.026356437            5 
  535000    1.0543119   -7.2644563    165.51005  0.025780382  0.026337148            2 
  536000    1.0496786   -7.2513852    165.60047  0.025746342  0.026317943            2 
  537000    1.0148178   -7.2981274    165.71759  0.025716573  0.026298472            3 
  538000    1.0643681   -7.2666043       166.36  0.025768278  0.026279092            5 
  539000    1.0539057   -7.2292786    166.73089  0.025777812  0.026260268            4 
  540000     1.045659   -7.2592988    167.50348  0.025849302  0.026241582            5 
  541000    1.0538146   -7.2647399    167.68334  0.025829227  0.026223367            3 
  542000    1.0504243   -7.2332399    167.77638  0.025795876  0.026205235            3 
  543000    1.0420083   -7.2776537    167.74717  0.025743888  0.026186634            4 
  544000    1.0632117   -7.2874123    167.93065   0.02572467  0.026167841            4 
  545000    1.0847852   -7.2383326     168.7106  0.025796728  0.026149585            4 
  546000    1.0150679   -7.2850925    167.99479  0.025640231  0.026131372            5 
  547000    1.0329197   -7.2784008    168.79825   0.02571576  0.026112919            6 
  548000    1.0426678   -7.2452674    169.25118  0.025737711  0.026095237            5 
  549000     1.040142   -7.2731789    169.48313  0.025726037  0.026077516            5 
  550000     1.020492   -7.2807451    169.00699  0.025607119  0.026059361            7 
  551000      1.03076   -7.2919812    169.00482  0.025560317  0.026041246            7 
  552000    1.0111963   -7.3048283    169.39715  0.025573241  0.026022579            9 
  553000    1.0397251   -7.3029115    169.95482  0.025611033  0.026004047            5 
  554000    1.0431146    -7.276654      170.116  0.025589049  0.025985995           12 
  555000    1.0490456   -7.2810826     170.9319  0.025665451  0.025968547            3 
  556000    1.0535112   -7.2185661    170.92392  0.025618094  0.025951377            4 
  557000    1.0312393   -7.2834787     171.3971  0.025642893  0.025934084            2 
  558000     1.004367   -7.2870661    171.26135  0.025576665   0.02591656            4 
  559000    1.0351212    -7.262919    171.59245  0.025580269  0.025899402            3 
  560000    1.0347558   -7.2717692    172.12519  0.025613867  0.025882487            3 
  561000    1.0625524   -7.2947887    171.55931  0.025484152  0.025865742            5 
  562000    1.0165106   -7.2908947    172.42931   0.02556781   0.02584863            5 
  563000   0.99540671   -7.3118233    172.44258   0.02552436  0.025831301            2 
  564000    1.0521006   -7.3078996    172.51233  0.025489411  0.025813983            7 
  565000      1.04997   -7.2940348    172.64897   0.02546445  0.025796728            5 
  566000    1.0271433   -7.3092938    172.77006  0.025437289  0.025779232            7 
  567000    1.0217911   -7.3079023    172.99531   0.02542553  0.025761158            3 
  568000    1.0333602   -7.3125181    172.91211   0.02536856  0.025743027            5 
  569000    1.0169482   -7.3078892    173.42178  0.025398621  0.025725429            4 
  570000    1.0519782   -7.3013289    173.71544  0.025396995  0.025707754            5 
  571000     1.023002   -7.2959354    174.15047  0.025416006  0.025690652            7 
  572000    1.0337617   -7.3046957    174.49961  0.025422438  0.025673579            4 
  573000    1.0094526   -7.3318891    174.53736   0.02538356  0.025656799            4 
  574000    1.0357286   -7.3139798    174.87731  0.025388693  0.025640079            3 
  575000    1.0330933   -7.3296701     174.9395  0.025353551  0.025623416            6 
  576000    1.0201195   -7.2835161    175.53037  0.025395019   0.02560666            4 
  577000    1.0275452   -7.2694694    175.69766  0.025375168  0.025590425            4 
  578000    1.0208527   -7.3071259    176.36274  0.025427154  0.025574334            4 
  579000    1.0190823   -7.2672566    176.03879  0.025336613  0.025557767            9 
  580000    1.0280857   -7.3202731    175.40378  0.025201693  0.025541423            5 
  581000    1.0131758   -7.3224312     176.1214  0.025261244  0.025524793            9 
  582000    1.0276871   -7.2941903    176.83579   0.02532013  0.025508473            6 
  583000    1.0227155   -7.2995826    177.36179  0.025351886  0.025492253            4 
  584000    1.0021981   -7.3173754    177.48539  0.025326112  0.025476096            4 
  585000    1.0072877   -7.3481759       177.73  0.025317664  0.025460121            5 
  586000    1.0395577   -7.3190446    177.57957  0.025253068   0.02544433            1 
  587000    1.0262276   -7.3380006    177.84497  0.025247724  0.025428418            4 
  588000    1.0293714   -7.3391228    177.85929  0.025206816  0.025412437            4 
  589000    1.0035644   -7.2766294    178.33319  0.025231068  0.025396432            2 
  590000    1.0122153    -7.301629     179.0477  0.025289224  0.025380543            5 
  591000    1.0047392   -7.2916891     178.5876  0.025181557  0.025364461            2 
  592000     1.031444   -7.2787509    178.86973  0.025178735  0.025348208            3 
  593000    1.0042434   -7.2981264    178.49717   0.02508392  0.025331453            4 
  594000     1.000335   -7.3585779    178.64841  0.025062908   0.02531461            4 
  595000    1.0126609   -7.3479122    178.27383  0.024968323  0.025297556            3 
  596000    1.0296365    -7.305159    179.00678  0.025028913  0.025280222            4 
  597000    1.0244888    -7.350205    178.49039  0.024914906  0.025262788            6 
  598000    0.9992154    -7.366362    178.69445   0.02490168  0.025245217            6 
  599000    1.0133241   -7.3887151    178.67833  0.024857864  0.025227145            9 
  600000   0.98306324   -7.3660035    179.00735  0.024862132  0.025209058            3 
  601000    1.0031156   -7.3946819    179.26942  0.024857102  0.025191353            4 
  602000   0.99627387   -7.3632706    179.51295  0.024849523  0.025173788            3 
  603000     1.005885   -7.3161801    180.36362  0.024925874  0.025156294            4 
  604000    1.0053892   -7.3269418    179.78745  0.024805111  0.025138892            2 
  605000    1.0146915    -7.319261    180.41966  0.024851193  0.025121193            3 
  606000    1.0059266   -7.3370154    180.42329  0.024810684  0.025103469            4 
  607000    1.0011782   -7.3155344    180.32749  0.024756657  0.025085545            5 
  608000    1.0039301   -7.3651213    180.18678  0.024696653  0.025067446            3 
  609000    1.0172036   -7.3714294    180.10764  0.024645271  0.025049497            5 
  610000    1.0230687    -7.378794      179.788  0.024561203  0.025031498           18 
  611000   0.99752862   -7.3722942     180.5751  0.024628356   0.02501316            2 
  612000    1.0123923   -7.3480812    180.62433  0.024594817  0.024995082            2 
  613000    1.0133161     -7.38877    181.25483  0.024640407  0.024977139            3 
  614000    1.0116277   -7.3758144    181.52469  0.024636902  0.024958961            2 
  615000   0.99174223   -7.3658508    181.64386  0.024612989  0.024940961            9 
  616000    1.0166474   -7.3456459    181.07379  0.024495914  0.024922654            3 
  617000   0.99064864    -7.324743    181.23794  0.024478382  0.024904027            4 
  618000    0.9921209   -7.3247109    181.64929  0.024494241  0.024885398            3 
  619000    1.0094651   -7.3676417     182.1103  0.024516734  0.024867014            4 
  620000    1.0314976   -7.3436556    182.02979  0.024466369  0.024848916            4 
  621000   0.98954566   -7.3384692    182.60766  0.024504517  0.024830893            3 
  622000    1.0212301   -7.3457123    182.39742  0.024436953  0.024812998            4 
  623000    1.0023462   -7.3506655    182.35879  0.024392561   0.02479503            5 
  624000    1.0032919   -7.3505236    182.88084  0.024423189  0.024777075            4 
  625000   0.99931937   -7.3184639    183.35772  0.024447695   0.02475881            7 
  626000   0.97622393   -7.3645911    183.05967  0.024368966  0.024740604            2 
  627000   0.98717414   -7.3333276    183.68044  0.024412605  0.024722895            5 
  628000    1.0126733   -7.3582455    183.85568  0.024396985   0.02470536            3 
  629000    1.0047246   -7.3835609    183.95072   0.02437079  0.024688052            4 
  630000   0.99436981   -7.3547572    184.44034  0.024396871  0.024670717            4 
  631000    0.9828281    -7.391478    184.23116  0.024330581  0.024653161            3 
  632000    1.0104773    -7.379711    184.61325  0.024342465  0.024635628            3 
  633000   0.99969492   -7.3841558    184.29688  0.024262359  0.024618037            5 
  634000    1.0018006   -7.3980737    184.74704   0.02428326  0.024600268            5 
  635000   0.98910762   -7.3695876    185.49695  0.024343432  0.024582755            4 
  636000   0.97135314   -7.3860283    185.64395  0.024324417  0.024565368            3 
  637000   0.97376832   -7.3464494    186.11424  0.024347756  0.024547986            5 
  638000    1.0107049   -7.3751449    185.79734    0.0242682  0.024530854            8 
  639000    0.9798837   -7.3513567    186.84448  0.024366781  0.024513731           17 
  640000    1.0051835   -7.3457095    186.40782  0.024271851  0.024496783            3 
  641000    1.0054387   -7.3779814     186.2387     0.024212  0.024480133            3 
  642000    1.0118399   -7.3756651    186.24443   0.02417503    0.0244629            6 
  643000   0.98078843   -7.3692656    187.06593  0.024243899  0.024445594            5 
  644000    1.0032446   -7.3618877    187.02197  0.024200566  0.024428287            5 
  645000   0.98872298   -7.3690011    186.98626  0.024158432  0.024411084            4 
  646000    1.0096988    -7.362884    187.08615  0.024133921  0.024393795            7 
  647000   0.99174349   -7.3437073    187.57983  0.024160205  0.024376574            3 
  648000   0.99878504   -7.4005384    186.73753    0.0240146  0.024359174            7 
  649000   0.98010485   -7.3867924    187.75174  0.024107824  0.024341852            5 
  650000   0.97978354   -7.4001313    188.11298  0.024117049  0.024325023            3 
  651000   0.99295587   -7.4465834    188.01314  0.024067223  0.024307846            4 
  652000   0.97780082   -7.4179889     187.6494  0.023983819   0.02429076           10 
  653000   0.97654705   -7.3660554    188.61608  0.024070455  0.024273531            2 
  654000    0.9868531   -7.3939839    188.62475  0.024034754  0.024256459            4 
  655000   0.99602846   -7.3988548    188.52562  0.023985447   0.02423921            7 
  656000     1.008496    -7.436695    188.48337  0.023943518  0.024221622            7 
  657000   0.98717625   -7.3480474    188.66703  0.023930369  0.024203983            4 
  658000   0.97437251   -7.3497471    189.07635   0.02394584  0.024186695            6 
  659000    1.0035254   -7.3777399    189.49901  0.023962951  0.024169831            5 
  660000   0.99138424   -7.3482477      189.995  0.023989268  0.024152929            3 
  661000   0.98506909   -7.4080458    189.49697  0.023890188  0.024136175            4 
  662000   0.99965379   -7.3657365    189.85966  0.023899756  0.024118947            9 
  663000   0.97014567   -7.4169483    189.68884  0.023842237   0.02410168            6 
  664000    1.0028752   -7.4113565     190.2978  0.023882756  0.024084164            2 
  665000   0.97099609   -7.4325243    190.14371  0.023827533  0.024066451            3 
  666000     1.003302   -7.4139791    190.01176  0.023775246   0.02404873            4 
  667000   0.99579959   -7.4374209    189.20038  0.023638229  0.024030823            7 
  668000   0.97781541   -7.4044445    189.52559  0.023643412  0.024012812            5 
  669000   0.98512703   -7.4021317    190.78732  0.023765236    0.0239948            3 
  670000   0.97145707   -7.4013827    190.58494  0.023704594  0.023976837            5 
  671000   0.97723068   -7.4126663    190.29443  0.023633188  0.023959138            5 
  672000   0.96548625   -7.4402516    190.91083  0.023674459  0.023941759            3 
  673000    1.0008311   -7.3940019    191.60888  0.023725716  0.023924219            3 
  674000   0.98485004   -7.4256667     190.9765  0.023612327  0.023906655            4 
  675000   0.99195964    -7.413422    191.07965   0.02359008  0.023888871            3 
  676000   0.98038158   -7.4157116    191.53874  0.023611778  0.023871244            3 
  677000   0.99252421    -7.404151    191.71512  0.023598611  0.023853394            3 
  678000   0.99484553   -7.4756418    191.25563  0.023507329  0.023835323            3 
  679000   0.97819355   -7.4065294    191.70413  0.023527753  0.023817402            5 
  680000   0.99273496   -7.3956969    192.04137  0.023534481  0.023799679            6 
  681000   0.96374139   -7.4615277    191.70172   0.02345836  0.023781834            4 
  682000   0.98491773   -7.4693996    192.01067  0.023461714  0.023763571            6 
  683000    1.0117587   -7.4214113    192.45558  0.023481647  0.023745359            4 
  684000   0.97053805   -7.4592816    191.88404  0.023377685  0.023727243            7 
  685000   0.98233282   -7.4340208      192.319  0.023396473  0.023708937            5 
  686000    0.9731897   -7.4351474    192.93126  0.023436742  0.023690972            5 
  687000   0.98765057    -7.430987     192.5495   0.02335632  0.023672843            4 
  688000    0.9877291   -7.4362595    192.91179  0.023366253  0.023654499            5 
  689000   0.97751547   -7.4388796    193.06572  0.023350958    0.0236363            3 
  690000     0.992624   -7.4311136    193.35613  0.023352189  0.023618233            3 
  691000    0.9779066    -7.459636    192.93496  0.023267603  0.023600324            4 
  692000   0.99067963   -7.4168386    193.23723   0.02327038  0.023582011            5 
  693000   0.97251536    -7.424624    193.45483  0.023262966  0.023563965            3 
  694000   0.96453527   -7.4492932    193.52983  0.023238453  0.023545579            4 
  695000    1.0094742   -7.4550742    194.31452  0.023299103  0.023527411            7 
  696000   0.96070363   -7.3991114    194.38786  0.023274409   0.02350934            4 
  697000   0.97947465   -7.4611859    193.21565  0.023100867  0.023491063            5 
  698000   0.96834261   -7.4357293    194.03474  0.023165562  0.023472667            3 
  699000   0.97561436    -7.460312    193.31598  0.023046731  0.023454033            5 
  700000   0.97524236   -7.4790344    193.71358   0.02306114  0.023435442            4 
  701000   0.96047954   -7.4758607    193.82736  0.023041769  0.023417106            3 
  702000   0.97757213   -7.4092363    195.13333  0.023163976   0.02339873            9 
  703000   0.98759239   -7.4674187     194.8763  0.023100558  0.023380563            8 
  704000   0.99488395   -7.4751968    194.21971  0.022990022  0.023362063            4 
  705000   0.95853148   -7.4802945    194.78385  0.023024096  0.023343545            3 
  706000   0.98382534    -7.480179    194.50017  0.022957999     0.023325           10 
  707000   0.97346836   -7.4319097    194.90058  0.022972723  0.023306496            8 
  708000   0.99010996   -7.4687119    194.69132  0.022915644  0.023287915            6 
  709000   0.99785634   -7.4992671    194.73323  0.022888249  0.023269152            5 
  710000   0.97266487    -7.471297    194.43071  0.022820506  0.023250019            4 
  711000   0.96882772   -7.4986992    194.70105  0.022820095  0.023230887            3 
  712000    0.9618653   -7.4892168    195.44459  0.022875069  0.023211906            4 
  713000   0.98426678    -7.427393    196.01478  0.022909628  0.023193247            6 
  714000   0.96721597   -7.4530873    195.68645  0.022839221   0.02317478            5 
  715000    0.9760681   -7.4335777    195.99346  0.022843061  0.023156343            7 
  716000   0.95732285   -7.4519211    195.97253  0.022808721  0.023138073            3 
  717000   0.96435469    -7.464565    195.90457  0.022769011  0.023119575            5 
  718000   0.96756854   -7.4890689    196.02972  0.022751825  0.023101105            6 
  719000   0.97095268    -7.487085    195.52081  0.022661197  0.023082516            3 
  720000   0.98059506    -7.459148    196.46504   0.02273901  0.023063674            3 
  721000   0.95534222   -7.4723439    196.10874   0.02266629  0.023044759           11 
  722000   0.94985642   -7.4493423    196.15377  0.022640093  0.023025863            6 
  723000    0.9558666   -7.4850827    196.35242  0.022631676  0.023007009            6 
  724000   0.95021004   -7.4616672    196.56289  0.022624642  0.022988379            5 
  725000   0.95587402   -7.4736177     197.2121  0.022668057  0.022969499            5 
  726000   0.95044632   -7.5025291    196.13182  0.022512836  0.022950556            3 
  727000   0.97546639   -7.4899491    197.32341  0.022618456  0.022931507            5 
  728000   0.94749428   -7.4682782    197.54441  0.022612685  0.022912641            3 
  729000   0.97549027   -7.5038454    197.16687  0.022538508  0.022893563            6 
  730000   0.95199571   -7.4667779    197.50743   0.02254651  0.022874638            3 
  731000   0.97882835   -7.4765165    196.98565  0.022456184  0.022855807           10 
  732000    0.9585874   -7.4803798    198.11963  0.022554603  0.022836976            4 
  733000   0.96500991   -7.4970427    197.16745  0.022415581  0.022818038            7 
  734000   0.97501762    -7.492333    198.06758  0.022487237  0.022799243            5 
  735000   0.96808274   -7.5261408     197.1084  0.022347891  0.022780274            4 
  736000   0.94171483   -7.5038568     197.4663   0.02235805  0.022761378            7 
  737000   0.96872784    -7.488312    197.93714  0.022380952  0.022742264            9 
  738000   0.93574606   -7.4924611    197.96749  0.022354052   0.02272302            4 
  739000   0.97937163   -7.5180797    198.14633  0.022343971  0.022703931           10 
  740000   0.95984438   -7.4998487    198.13637  0.022312654  0.022684822            8 
  741000   0.94412354   -7.5362143    198.05168  0.022273018  0.022665487            6 
  742000   0.95357156   -7.4879915    197.88109  0.022223842  0.022646235            5 
  743000   0.96432942   -7.5190556     197.8571   0.02219124  0.022627264            3 
  744000   0.97092045   -7.5116396     198.3825  0.022220262  0.022608063            6 
  745000   0.95242192   -7.5326519    198.74843  0.022231368  0.022588679            5 
  746000    0.9719959   -7.5192612    198.03313  0.022121663  0.022569335            5 
  747000   0.95357156   -7.5358853    198.28255  0.022119874  0.022549916            7 
  748000   0.96668975   -7.4918224    199.30795   0.02220454  0.022530585            2 
  749000   0.94917353   -7.5438692    198.48805  0.022083672  0.022511274            4 
  750000   0.94938254   -7.5366672    198.42705   0.02204745  0.022491904            6 
  751000    0.9604172   -7.5192598    199.20835  0.022104788  0.022472601            4 
  752000   0.96010998    -7.514874    199.38762  0.022095259  0.022453526            5 
  753000   0.94701901   -7.5310534    199.44208  0.022071944  0.022434368            3 
  754000    0.9486118   -7.4975754    199.54423   0.02205396   0.02241534            6 
  755000   0.93980725   -7.4939903    199.91226  0.022065371  0.022396692            4 
  756000   0.96444616   -7.4883231    200.50218   0.02210121  0.022377861            3 
  757000   0.96075165    -7.538147     199.1496  0.021923117  0.022358809            4 
  758000   0.94735207   -7.4892207    200.14147   0.02200324  0.022339689            6 
  759000   0.96050162   -7.5106978    199.68115  0.021923709  0.022320607           13 
  760000   0.94956559   -7.4729936    200.58314  0.021993765  0.022301489            8 
  761000   0.95614051   -7.4741856    200.45568  0.021950907  0.022282628           13 
  762000   0.94058154   -7.5029902    200.41778  0.021917955  0.022263546           21 
  763000   0.95704741   -7.4682042    200.74874  0.021925376  0.022244537           14 
  764000   0.95430887   -7.4825824     200.7248  0.021894066  0.022225651            9 
  765000   0.93909753   -7.5222646    200.47304  0.021838022  0.022206482            5 
  766000   0.94663991   -7.4986214    200.62806  0.021826377  0.022187489            4 
  767000    0.9587616   -7.4936801     201.0902  0.021848132  0.022168573            4 
  768000   0.95202607   -7.5102672    201.23506  0.021835402   0.02214963            5 
  769000   0.92263071   -7.4975086    201.03693  0.021785536  0.022130768            6 
  770000   0.94547876    -7.537551    201.07677  0.021761555  0.022111784            4 
  771000   0.94000066   -7.5151381    201.27073  0.021754295  0.022092809            5 
  772000   0.93657461   -7.5385991    201.66559  0.021768738  0.022073676            4 
  773000   0.95772968   -7.5188943    201.30524  0.021701729  0.022054877           12 
  774000   0.93684296   -7.5373746    201.52455  0.021697303  0.022035784            3 
  775000   0.94590147   -7.5510643    201.72726  0.021691104   0.02201684            3 
  776000   0.96072851   -7.5622808    201.47682  0.021636257  0.021997609            3 
  777000   0.96792237   -7.5272714    202.01825  0.021666479  0.021978499            7 
  778000   0.95339035   -7.5085583    202.05959  0.021643058  0.021959384            3 
  779000   0.95290346   -7.5134601    202.32316   0.02164347  0.021940371            3 
  780000   0.93577864   -7.5330059     202.3002  0.021613269  0.021921238            5 
  781000   0.94047776   -7.5593863    201.48396  0.021498502  0.021901899            8 
  782000    0.9390575   -7.6010744     201.6912  0.021493094  0.021882442            3 
  783000   0.95073613   -7.5227505    202.41403  0.021542575   0.02186306            5 
  784000   0.92782054   -7.5640951    201.39026  0.021406278  0.021843795            4 
  785000   0.95507731   -7.5634349    201.95756  0.021439232  0.021824505           10 
  786000   0.94428937    -7.576915    201.95736  0.021411933  0.021805282            8 
  787000   0.94403143   -7.5820351    202.37814  0.021429282  0.021786041            2 
  788000    0.9104557   -7.5763551    202.23923  0.021387398  0.021766921            6 
  789000   0.93535471   -7.5931272    202.73027  0.021412153  0.021747801            4 
  790000   0.94928079   -7.5623982    203.24452  0.021439296  0.021728717           13 
  791000   0.94384778    -7.538366    202.86308  0.021372006  0.021709807            7 
  792000   0.92196904   -7.5726445    203.10361  0.021370329   0.02169084            8 
  793000   0.92518029   -7.5706611    202.84677  0.021316391  0.021671716            5 
  794000   0.93424313   -7.5470327    203.41528   0.02134921  0.021652949            9 
  795000   0.91388408   -7.5557203    204.06422   0.02139038  0.021634208            8 
  796000   0.93901407   -7.5654623    203.48687  0.021303064  0.021615443            7 
  797000   0.93492878   -7.6136021    203.51967  0.021279765  0.021596379            4 
  798000   0.92750625   -7.5593087    203.50536  0.021251604  0.021577408            6 
  799000   0.94528803   -7.5918153    203.56327  0.021231046  0.021558483           12 
  800000   0.93332803   -7.5932206    203.04192    0.0211502  0.021539498            8 
  801000   0.93789257    -7.551734    204.25029   0.02124951  0.021520782            5 
  802000   0.95376203   -7.5705299     204.2649  0.021224533  0.021502192           13 
  803000    0.9395167   -7.5630252    204.05091  0.021175893  0.021483637           12 
  804000   0.92891125   -7.5791801    204.35667  0.021181246  0.021464953            8 
  805000    0.9427027   -7.5522358    205.29143  0.021251701  0.021446499            6 
  806000   0.91714406    -7.577612    204.53641  0.021147271  0.021427955            9 
  807000   0.92387558   -7.5450305    205.97346  0.021269461  0.021409425            3 
  808000   0.94890038   -7.5825976     204.4618  0.021087232  0.021390934            5 
  809000   0.93415166   -7.5753348    205.36977  0.021154695  0.021372282            7 
  810000   0.95625574   -7.5755182    205.49618  0.021141582  0.021353817            7 
  811000   0.93178088   -7.5586407    205.19376  0.021084439  0.021335391            6 
  812000   0.93980813   -7.5915744    204.80657  0.021018737  0.021316798            7 
  813000    0.9426101   -7.5837242    205.18848   0.02103203  0.021298151            5 
  814000   0.92453115   -7.5935634    205.44129  0.021032073  0.021279492            4 
  815000   0.91889345   -7.5950431    205.99026  0.021062399   0.02126088           22 
  816000   0.93180104   -7.6085994    205.04418  0.020939969  0.021242057            7 
  817000   0.91374915   -7.6115556    204.87647  0.020897233  0.021223255            7 
  818000   0.93228096   -7.5995725    205.60954  0.020946367  0.021204593            6 
  819000   0.93694142   -7.5884686    206.08174  0.020968838  0.021185957           13 
  820000   0.92837187    -7.574596    205.80649  0.020915294  0.021167156            6 
  821000    0.9125232    -7.657631    204.70984  0.020778506  0.021148254            6 
  822000   0.93491257   -7.6231156    205.81443   0.02086521  0.021129519            5 
  823000   0.92091552   -7.6031698    206.68568  0.020928076  0.021110901            6 
  824000   0.92002047   -7.6271555    206.03823  0.020837199    0.0210923            9 
  825000   0.95184021   -7.6079865    205.88491  0.020796455  0.021073699            6 
  826000   0.93123315   -7.6357516    205.81507  0.020764232  0.021055142            5 
  827000   0.93079545   -7.6156352    206.17345  0.020775237  0.021036447            5 
  828000   0.92768328   -7.6259901    206.30136   0.02076302  0.021017731            8 
  829000   0.92483657   -7.6166491    206.26725  0.020734545  0.020998908           13 
  830000   0.92889988   -7.6125842    206.30357   0.02071321  0.020980341            8 
  831000   0.91095948   -7.6154134    206.84825  0.020742905  0.020961582            4 
  832000   0.91782248   -7.6017979    206.82068  0.020715212  0.020943056            5 
  833000   0.91635546   -7.6150356    206.15974  0.020624224  0.020924463            7 
  834000   0.91582716   -7.5992881    206.74311  0.020657785  0.020905824            9 
  835000   0.92232804   -7.6047716    207.65232  0.020723784  0.020887277            5 
  836000   0.93065929   -7.5879486    207.49563  0.020683376  0.020868916            4 
  837000   0.92924769    -7.642382    207.23009  0.020632228  0.020850751            6 
  838000    0.9038429   -7.6000146    207.50252  0.020634697  0.020832531            5 
  839000   0.91559978    -7.605922    207.46882  0.020606756   0.02081412           11 
  840000   0.92050021   -7.5953464    207.90617  0.020625612    0.0207957            4 
  841000   0.90636201   -7.6416972    207.05029  0.020516279  0.020777303           11 
  842000   0.92372199   -7.5884855    207.62086  0.020548383  0.020759003            9 
  843000   0.93970022   -7.6215947    208.14869  0.020576185  0.020740735            4 
  844000   0.92044972   -7.6272479    208.35786  0.020572459  0.020722552            7 
  845000   0.93152221   -7.6114639    208.19692  0.020532241  0.020704445            8 
  846000   0.88620674   -7.6299789    208.26661  0.020514835  0.020686396            5 
  847000   0.91176764   -7.6397535    208.64815  0.020528153  0.020668202            9 
  848000   0.92940894   -7.6240152    208.50658  0.020490034   0.02065018            7 
  849000   0.91927771   -7.6476689    208.02617  0.020418744  0.020632107           10 
  850000   0.92287125    -7.684644    208.10535  0.020402485  0.020614056            7 
  851000   0.94180536   -7.6081201    208.89456  0.020455793  0.020596163           14 
  852000   0.93113415   -7.6319126    209.19005  0.020460685   0.02057824           18 
  853000   0.92064493   -7.6386826    209.37859  0.020455119  0.020560319            8 
  854000   0.90610109   -7.6227804    208.87868  0.020382385  0.020542308           19 
  855000   0.93120614   -7.6694482    208.38909  0.020310828  0.020524222            8 
  856000   0.88196517    -7.656754    209.05937  0.020352353  0.020506154            4 
  857000   0.91529554   -7.6600677    209.33777  0.020355676   0.02048815            8 
  858000     0.908252   -7.6583921    208.97247  0.020296471  0.020470175            3 
  859000   0.91267875   -7.6382216    209.36975  0.020311384  0.020452145            5 
  860000   0.90631049   -7.6333405    209.81406   0.02033082  0.020434329           17 
  861000   0.93363933    -7.645663    209.62148  0.020288567   0.02041642            5 
  862000   0.92962679   -7.6571788    209.35967   0.02023972  0.020398534            9 
  863000   0.91053072   -7.6619726    209.15695  0.020196693  0.020380464            7 
  864000   0.90983537   -7.6276755    209.54155  0.020210412  0.020362682            6 
  865000   0.90005792   -7.6404011    209.90147  0.020221722  0.020344999           12 
  866000   0.90495533   -7.6406185     210.0555  0.020213193  0.020327169            4 
  867000   0.88897843   -7.6584807    210.63557  0.020245633  0.020309233            6 
  868000   0.90725221   -7.6655768     209.6968  0.020132181  0.020291528            5 
  869000   0.92150471   -7.6322444    210.03221  0.020141179  0.020273664            7 
  870000   0.90891888   -7.6473218    210.68829  0.020180871  0.020255924           10 
  871000   0.90950464   -7.6608782    210.42449  0.020132462  0.020238393            4 
  872000   0.87867115   -7.6595917    210.77087  0.020142476  0.020220877            8 
  873000   0.91181003   -7.6493105    210.88362  0.020130166   0.02020338            9 
  874000   0.91585013    -7.669284    210.82201   0.02010126  0.020185915            7 
  875000   0.93499548    -7.645464    211.46595  0.020139614  0.020168374           12 
  876000   0.93331178   -7.6821984    210.71956   0.02004562  0.020150774            4 
  877000   0.90225611   -7.6301032    211.20765  0.020069142  0.020133124           13 
  878000   0.90713859   -7.6545681    211.32562  0.020057481  0.020115606            8 
  879000   0.90960064   -7.7009894    210.71082  0.019976377  0.020098094            6 
  880000   0.92134825    -7.647496    211.44179  0.020022897  0.020080584           20 
  881000   0.89870532   -7.6509791    211.57397  0.020012672  0.020063083           23 
  882000   0.90893823   -7.6596433    210.94988  0.019931016  0.020045561            5 
  883000   0.90567142    -7.690348    211.35302  0.019946491  0.020028119            7 
  884000   0.90820807   -7.7008026    211.12121  0.019902075  0.020010516            8 
  885000   0.88959341   -7.6990131    212.04456  0.019966531  0.019992889            9 
  886000    0.9064073   -7.6844314    212.06813  0.019946213  0.019975356           11 
  887000   0.89887458   -7.7300773    211.26535  0.019848304  0.019957818           10 
  888000   0.90534301   -7.6899735     211.6696  0.019863889  0.019940218            7 
  889000   0.92870827   -7.6907327    211.84766  0.019858236  0.019922655            5 
  890000   0.90643736   -7.6844453    211.60791  0.019813475  0.019905193            5 
  891000   0.91269648   -7.7029728    211.82337  0.019811389  0.019887737            6 
  892000    0.8827314   -7.6986454    212.58713  0.019860531  0.019870422           12 
  893000   0.91431213   -7.7225838     211.9172  0.019775774  0.019853048           10 
  894000   0.89230707   -7.7269715    212.17017  0.019777235  0.019835499            8 
  895000   0.88942532   -7.6859599    212.68653  0.019803215  0.019818106            9 
  896000   0.90656313   -7.7363306    211.70997  0.019690288  0.019800631            6 
  897000   0.89413483   -7.7022868    212.47495  0.019739404  0.019782992            5 
  898000   0.89698316   -7.6953206    212.45822  0.019715871  0.019765575           13 
  899000   0.90339265   -7.6640516    212.49833  0.019697658  0.019748232            4 
  900000    0.9042217   -7.6820663    212.14135  0.019642718  0.019730913            4 
  901000    0.9062107   -7.6758873    212.82578   0.01968422  0.019713487            8 
  902000   0.89755591   -7.6805755    212.32877  0.019616479  0.019696182            6 
  903000   0.86111549   -7.6790848    212.76289  0.019634818  0.019678852            9 
  904000   0.90983598   -7.6966634    213.18267  0.019651795   0.01966161            5 
  905000   0.89796865   -7.6812211    212.84843  0.019599303  0.019644319           12 
  906000   0.89807221   -7.6788895     213.1141  0.019602106  0.019626956            8 
  907000   0.89186525   -7.7355714    212.85354  0.019556554  0.019609558            4 
  908000   0.88942482   -7.7100434    213.01053  0.019549425  0.019592113            7 
  909000    0.8994538   -7.7492652    211.85289   0.01942179  0.019574589            4 
  910000   0.90486253   -7.7462419    212.53863  0.019463244  0.019557056            7 
  911000   0.88201013   -7.7271528    212.28403  0.019418591  0.019539459           12 
  912000   0.88364454   -7.7408391    212.37093  0.019405238  0.019521975            9 
  913000   0.90940394   -7.7392505    213.14926  0.019455026  0.019504442            9 
  914000   0.87655989   -7.7252755    212.71745   0.01939437  0.019486829            5 
  915000   0.89160958   -7.7011408    212.87908  0.019387894  0.019469315            7 
  916000   0.90274482   -7.6772487    213.73684  0.019444764   0.01945187            3 
  917000   0.88469321   -7.7275233    212.63245  0.019323196  0.019434399           18 
  918000   0.90518435   -7.6746159    213.47145  0.019378309  0.019416963            8 
  919000   0.89682076   -7.7529749    212.62403   0.01928038  0.019399397           15 
  920000   0.86126701    -7.728372    213.24896  0.019316029  0.019381924            5 
  921000    0.8833069   -7.7107823    213.45525  0.019313722  0.019364412           10 
  922000   0.89570123   -7.6982303    213.06183  0.019257215  0.019346869            7 
  923000   0.88188286   -7.7244789    213.35118  0.019262476  0.019329377           13 
  924000   0.89051828   -7.7546539    213.15721  0.019224135  0.019311917           22 
  925000   0.87335523   -7.7367964    213.06872  0.019195381  0.019294373           29 
  926000   0.88538101   -7.7289263    213.16563  0.019183372  0.019276858           21 
  927000   0.88436725   -7.7386738     213.2473  0.019170019  0.019259194            5 
  928000   0.88857461   -7.7226923    213.81261  0.019200126   0.01924169           11 
  929000   0.87375625   -7.7260645    214.73401  0.019262111  0.019224437            6 
  930000   0.88226134   -7.7583809     213.2691  0.019110134  0.019207048            7 
  931000   0.88145842   -7.7343082    214.10842  0.019164735  0.019189607            8 
  932000    0.8921122   -7.7697555    214.03193  0.019137333  0.019172114           17 
  933000   0.88872602   -7.7454628    213.79741  0.019095874  0.019154646            8 
  934000   0.88385044   -7.7175501    214.13938   0.01910594  0.019137276            5 
  935000   0.86869384   -7.7388204    214.21772  0.019092489  0.019119938            9 
  936000   0.89180507   -7.7348039       214.21  0.019071403  0.019102486           10 
  937000   0.89062736   -7.7539699    214.44453  0.019071908  0.019085098           11 
  938000   0.88418088   -7.7441414    213.85001  0.018998757  0.019067778            8 
  939000   0.88820862   -7.7334036    214.36066  0.019023843  0.019050485           11 
  940000   0.88530399   -7.7562847    214.28044  0.018996493  0.019033108           15 
  941000   0.86839471    -7.730893    214.06771  0.018957466   0.01901574           12 
  942000   0.85685471   -7.7571613    214.11495  0.018941521  0.018998298            5 
  943000    0.8794175   -7.7186989    214.37783  0.018944665  0.018980823            9 
  944000   0.85193553    -7.759672    214.22107  0.018910758  0.018963422            6 
  945000   0.88056163   -7.7390161    214.77579  0.018939664  0.018945964            8 
  946000   0.87959808   -7.7617182     214.9063   0.01893114  0.018928595           15 
  947000   0.87508285   -7.7416176    214.65886  0.018889375  0.018911332            9 
  948000   0.88452446   -7.7372604    214.53768  0.018858797  0.018894022            6 
  949000   0.86401213   -7.7732867    214.78908  0.018861001  0.018876722            9 
  950000   0.87671824   -7.7551713    214.94543  0.018854863  0.018859409            8 
  951000   0.88397237   -7.7919139    214.15442  0.018765722  0.018841961           12 
  952000   0.87439242   -7.7731119    214.32508  0.018760949  0.018824486            4 
  953000   0.87768898   -7.8238012    214.35906  0.018744234  0.018806981            4 
  954000   0.86857269   -7.7996638    214.55759  0.018741928  0.018789496            5 
  955000   0.89282985    -7.771699    214.73563  0.018737838  0.018772096            9 
  956000   0.87458546   -7.7652097    214.69878  0.018715026  0.018754722           11 
  957000   0.87085541   -7.7708184     215.3456  0.018751794  0.018737473            5 
  958000   0.86764035   -7.7596166    215.42271  0.018738928  0.018720167           10 
  959000   0.86618816   -7.7443399    215.23985  0.018703498  0.018702974            5 
  960000   0.85887444   -7.7535426    215.61587  0.018716655  0.018685679           13 
  961000   0.86533601   -7.8016786    214.95319  0.018639714  0.018668447           13 
  962000   0.88056044   -7.7640231    215.45763  0.018664036  0.018651254           11 
  963000    0.8656843   -7.7935445     215.1875  0.018621279  0.018634107           14 
  964000   0.87969783    -7.779643    215.81941  0.018656588  0.018617086            5 
  965000   0.86454166   -7.7902269    216.01287  0.018653961  0.018600028            7 
  966000    0.8641987   -7.7339826    215.48327  0.018588964  0.018582988            7 
  967000   0.87462983   -7.7511924    215.61673  0.018581242   0.01856607           13 
  968000   0.86521728   -7.7363897    216.06352   0.01860051  0.018549206           14 
  969000   0.85878937   -7.7980007    215.63422  0.018544395  0.018532322           21 
  970000   0.86818859   -7.7674455    215.68515  0.018529652   0.01851535           10 
  971000   0.87330159   -7.7406544    216.60577  0.018589578  0.018498579            6 
  972000   0.84765906   -7.7397971    216.62299   0.01857193  0.018481829            5 
  973000   0.89327319   -7.7050113    216.38661  0.018532598  0.018465159            9 
  974000   0.86844481   -7.7394783    216.51509  0.018524563  0.018448347           11 
  975000   0.86062428   -7.7528435    216.78152  0.018528335  0.018431578            9 
  976000    0.8510491   -7.8028468    215.92356  0.018436097   0.01841481           25 
  977000   0.84419522   -7.7676917    216.25199   0.01844524  0.018398002           39 
  978000   0.87852901   -7.7744814    216.00089  0.018404984  0.018381092           13 
  979000   0.84056447   -7.7709307    216.60848  0.018437902  0.018364259           23 
  980000   0.86551783   -7.8042781    216.04208  0.018370925   0.01834737           19 
  981000   0.87079694   -7.8035099    216.20402  0.018365955  0.018330581           27 
  982000   0.86584545   -7.8087969    216.22117  0.018348707  0.018313769           18 
  983000    0.8520564   -7.7865702    216.81667  0.018380524  0.018296836            9 
  984000   0.84932358    -7.777131    216.96687  0.018374566  0.018280022            6 
  985000   0.86294244   -7.8152418    216.57934  0.018323125  0.018263085            9 
  986000   0.86558145   -7.7931488    216.82833  0.018325585  0.018246254            9 
  987000   0.86813031   -7.7864051    216.83734  0.018307779  0.018229462           10 
  988000   0.86654229   -7.8186417    216.94786  0.018298571  0.018212758           20 
  989000   0.85546162   -7.8093736    216.44982  0.018238104  0.018196047           14 
  990000    0.8662978   -7.7870723    217.57957  0.018314778  0.018179388           23 
  991000   0.87666946   -7.7751545    217.18407   0.01826304  0.018162725            6 
  992000   0.84923019   -7.8021467    216.91714  0.018222206  0.018146042           17 
  993000   0.85187242   -7.8098549    216.82596  0.018196204  0.018129325           12 
  994000    0.8520933   -7.7870802    216.89641  0.018183804  0.018112579           18 
  995000   0.84860092     -7.79376    216.53793  0.018135505  0.018095858           13 
  996000   0.85809917   -7.8007528    216.97957  0.018154248  0.018079234            9 
  997000   0.86405804   -7.8069424    216.72274  0.018114572  0.018062524            3 
  998000   0.86062508   -7.8470968    216.87022  0.018108736  0.018045734            6 
  999000   0.85630357    -7.841387    216.86831  0.018090449  0.018028947            5 
 1000000   0.84426071   -7.8568844    216.50576  0.018042147  0.018012192            5 
 1001000   0.85973715   -7.8244715    217.20605  0.018082422  0.017995493           30 
 1002000   0.84665947   -7.8539948    217.12379  0.018057534  0.017978817           25 
 1003000   0.83015433   -7.8626476    217.01612  0.018030585  0.017962159           17 
 1004000   0.84944155   -7.8877384    217.22777  0.018030193  0.017945467           36 
 1005000   0.86501044   -7.8727873    217.81332  0.018060806  0.017928824           27 
 1006000   0.84505663   -7.8079954    217.96275  0.018055231  0.017912281           35 
 1007000   0.85415259   -7.8329666    217.51803  0.018000499  0.017895905           28 
 1008000   0.85144772   -7.8178534    217.70443  0.017998051  0.017879579           14 
 1009000   0.84727227   -7.8192176    218.11274  0.018013936  0.017863309           18 
 1010000   0.84513405   -7.8362287    218.63348  0.018039066   0.01784698           19 
 1011000   0.84083226   -7.8450411    218.22507  0.017987559  0.017830757           16 
 1012000   0.84737779   -7.8486901    217.63702  0.017921362  0.017814571           13 
 1013000   0.86369909   -7.8787528    218.04214  0.017936997   0.01779832           22 
 1014000   0.84909969   -7.8741256    218.26685  0.017937775  0.017781981            7 
 1015000   0.85355871   -7.8481821     218.1167  0.017907775  0.017765663            9 
 1016000   0.85027603   -7.8271937    218.86365  0.017951415  0.017749464           17 
 1017000   0.85902348   -7.8669744    218.32212  0.017889391  0.017733314           10 
 1018000   0.85331692   -7.8285229     219.0442  0.017930927  0.017717101            6 
 1019000   0.87097662   -7.8628961    218.18144  0.017842774  0.017700956           12 
 1020000   0.83759258   -7.8516376     218.4501   0.01784723  0.017684656            6 
 1021000   0.85153093   -7.8862188     218.0394  0.017796229  0.017668367            5 
 1022000   0.83176157   -7.8781251    218.40444  0.017808581  0.017652132           11 
 1023000   0.84986645   -7.8301812    219.05852  0.017844454  0.017636009            9 
 1024000   0.85739911   -7.8901433    218.89979   0.01781411  0.017619915            8 
 1025000   0.83981593   -7.8658793    218.93725  0.017799776  0.017603702            5 
 1026000   0.84894116   -7.8881548    218.65383  0.017759407  0.017587507           10 
 1027000    0.8447972   -7.8559106    219.47669  0.017808884  0.017571397           15 
 1028000   0.83972334   -7.8774215    218.54618   0.01771613  0.017555247           15 
 1029000   0.86092351   -7.8697213    217.62215  0.017624081  0.017539037           11 
 1030000     0.858228   -7.8914656    218.85245  0.017706509  0.017522793            9 
 1031000   0.85579354   -7.8844394    218.90757   0.01769379  0.017506637           10 
 1032000   0.83351829   -7.9143542    218.51914  0.017645279  0.017490418           12 
 1033000   0.84815165   -7.8878502    218.94251  0.017662351  0.017474214           17 
 1034000    0.8431588    -7.920757    218.20151  0.017585551   0.01745799           24 
 1035000   0.85030333   -7.8744044    218.96787  0.017630263  0.017441824            8 
 1036000   0.85324456   -7.9001766    218.75105  0.017595805  0.017425634           20 
 1037000   0.82973169   -7.9053641     218.6257  0.017568764  0.017409397           14 
 1038000   0.83553263   -7.8915599    218.88324  0.017572514  0.017393283           10 
 1039000   0.84953385   -7.9247022    218.31497  0.017510023   0.01737708           15 
 1040000   0.83038032   -7.9208256    218.47667  0.017506143  0.017360872           11 
 1041000   0.83560269   -7.9059354    218.99445  0.017530776  0.017344709           21 
 1042000   0.84349954   -7.9127455    219.10066  0.017522446  0.017328628            8 
 1043000   0.82949923   -7.8763798    219.09611  0.017505282  0.017312669            7 
 1044000   0.82731113   -7.9217218     219.1299  0.017491211  0.017296667           20 
 1045000   0.85194955   -7.9092913    218.69373  0.017439692  0.017280644           10 
 1046000   0.83313911   -7.8908932     219.4924  0.017486648  0.017264624           18 
 1047000   0.86519003   -7.9023861    219.17028  0.017444307  0.017248633            8 
 1048000   0.83279567   -7.8685903    219.47829  0.017452154  0.017232596           21 
 1049000   0.83025216   -7.9162182     219.1557   0.01740989  0.017216584            9 
 1050000   0.83650395   -7.9158233    219.17939   0.01739519   0.01720049           22 
 1051000   0.82523544   -7.9303321    219.07147  0.017370081  0.017184463           23 
 1052000   0.83130928   -7.9614973    218.72115   0.01732582  0.017168462           13 
 1053000   0.83443834   -7.9032508    219.24011  0.017350436  0.017152415           11 
 1054000   0.83179527   -7.9284579    219.68051  0.017368794  0.017136437           12 
 1055000   0.83080638   -7.9239589     219.2513  0.017318428  0.017120508           12 
 1056000   0.84646984   -7.9059939    219.78505  0.017344148  0.017104592           10 
 1057000     0.814752   -7.9262067    219.01838  0.017267295  0.017088738            8 
 1058000   0.83729255   -7.8942448    219.77593  0.017310643  0.017072881           12 
 1059000   0.82344396    -7.946831    219.54264   0.01727594  0.017056987           29 
 1060000   0.82752688   -7.9273989     219.2625  0.017237618  0.017040986            6 
 1061000   0.83019347   -7.9069943    219.17535  0.017214527  0.017025092           18 
 1062000   0.83267235   -7.9337949    219.34051  0.017211277  0.017009197           11 
 1063000   0.82665167     -7.91726      219.854   0.01723534  0.016993327            6 
 1064000   0.82400041   -7.9219029    219.97478  0.017228601  0.016977587            5 
 1065000   0.82276461   -7.9278233    219.85684  0.017203195   0.01696175            6 
 1066000   0.81462892   -7.9204235    219.80024  0.017182633  0.016945909           14 
 1067000   0.83559948   -7.9194469    219.81035  0.017167319  0.016930136            8 
 1068000   0.81856929   -7.9232307     220.0898  0.017173049  0.016914379           12 
 1069000   0.82748628   -7.9071718    220.56574  0.017194087  0.016898679            6 
 1070000   0.81314442   -7.9188979     220.6256  0.017182679  0.016883014           11 
 1071000   0.81270951   -7.9197479    220.19337  0.017133004  0.016867289            4 
 1072000   0.83651785     -7.94019    219.64708  0.017074556  0.016851502           13 
 1073000     0.830874   -7.9443102    219.68081  0.017061262   0.01683563            6 
 1074000   0.80509831   -7.9177344    219.69858  0.017046755  0.016819808           20 
 1075000   0.81480001   -7.9435569    219.85363  0.017042917  0.016804028           12 
 1076000   0.83712406   -7.9450762    219.53757    0.0170026  0.016788266            9 
 1077000   0.83167461   -7.9506557    219.78281  0.017005788  0.016772549           14 
 1078000   0.85162862   -7.9499529    219.99327  0.017006282  0.016756881            7 
 1079000   0.81242357   -7.9402608    219.77785  0.016973884  0.016741147            6 
 1080000   0.81836468   -7.9547678       219.66  0.016949074  0.016725378            7 
 1081000   0.83371919   -7.9421958    219.70787  0.016937085  0.016709562           10 
 1082000   0.81932591   -7.9293093    219.88821  0.016935321  0.016693921           13 
 1083000    0.8194031   -7.9776557    219.12583  0.016861021  0.016678184            7 
 1084000   0.82348935   -7.9242353    219.88042  0.016903476  0.016662361            6 
 1085000   0.81624323   -7.9496568    219.75323  0.016878128  0.016646581           10 
 1086000   0.82237667   -7.9652323    219.72538   0.01686045  0.016630732           10 
 1087000   0.82281534   -7.9675314    219.83655  0.016853461  0.016614844            7 
 1088000   0.83796757   -7.9831379    219.83949  0.016838196  0.016599008           10 
 1089000   0.81201251   -7.9821739    219.75561  0.016816315  0.016583123            9 
 1090000   0.82228949   -7.9916944    219.04792  0.016746783  0.016567314           10 
 1091000   0.80441716    -7.965432    219.49309  0.016765436  0.016551475           17 
 1092000   0.80621144   -7.9872566    219.43902  0.016745957  0.016535654            8 
 1093000   0.81210411   -7.9702354    219.06072  0.016701793  0.016519835           25 
 1094000   0.81355507    -7.955329    220.17409  0.016771335  0.016504061           14 
 1095000    0.8110933   -7.9553414    219.59194  0.016711715  0.016488363           30 
 1096000   0.81582667   -7.9848069    219.93128  0.016722269  0.016472623           31 
 1097000   0.81592581   -7.9495655    220.21444  0.016728536  0.016456949           14 
 1098000   0.82955896   -7.9620495    219.45152  0.016655398  0.016441303            6 
 1099000   0.81957129   -7.9470721    219.73572  0.016661792  0.016425689           21 
 1100000   0.79745292   -7.9859683    220.06527  0.016671612  0.016410068           14 
 1101000   0.79958317   -8.0068927    220.04877   0.01665522    0.0163944           29 
 1102000    0.8321707   -7.9916837    219.97687   0.01663467  0.016378725           32 
 1103000   0.80630184   -7.9892056    220.03609  0.016624063  0.016363059           25 
 1104000   0.81299551   -7.9911297    219.96685  0.016603778  0.016347439           19 
 1105000   0.81054889   -7.9554139    219.87932  0.016582151  0.016331803           26 
 1106000   0.81271888   -8.0054885    219.83097  0.016563515  0.016316103           23 
 1107000   0.80269071   -7.9917646    220.18443   0.01657516  0.016300435           17 
 1108000   0.80987173   -8.0015296    219.62871  0.016518405  0.016284677           18 
 1109000   0.80644615   -8.0081972    219.57911  0.016499783  0.016268938           10 
 1110000   0.80052751    -8.023351     219.6796  0.016492463  0.016253128           24 
 1111000   0.82213919   -8.0054108    219.45206  0.016460551  0.016237391           11 
 1112000   0.81145291   -7.9839312    219.80821  0.016472438  0.016221626           22 
 1113000   0.80274346   -8.0336828    219.17915  0.016410538  0.016205871           45 
 1114000   0.81229625   -8.0264344    219.53374  0.016422332  0.016190104           15 
 1115000    0.8083448    -8.034859    219.42961  0.016399821  0.016174354           14 
 1116000    0.7778231   -8.0313546    218.91941  0.016347029  0.016158588           33 
 1117000   0.79867631   -8.0433109    219.48158  0.016374334  0.016142805           59 
 1118000    0.8010596   -8.0257655    219.43542  0.016356248  0.016127032           22 
 1119000   0.81617676   -8.0608801    219.74007  0.016364319  0.016111274           23 
 1120000   0.79543265   -8.0343834    219.29748  0.016316776  0.016095475           15 
 1121000   0.80205429   -8.0360959    219.32723  0.016304433  0.016079732           20 
 1122000   0.78518949   -8.0311239    219.89304  0.016331925  0.016064062           29 
 1123000   0.80910243   -8.0139858    220.31364  0.016348593  0.016048293           18 
 1124000   0.80618825   -8.0281409    219.35754  0.016263163  0.016032563           22 
 1125000   0.81834218   -8.0433593    219.60853  0.016267298   0.01601688           47 
 1126000   0.83562501   -8.0510639    219.79483  0.016266639  0.016001195           34 
 1127000   0.81810607   -8.0409993    219.73877  0.016248061  0.015985443           32 
 1128000   0.81459405   -8.0677674    219.29824  0.016201111  0.015969731           35 
 1129000   0.79339467   -8.0310347    220.13397  0.016248448  0.015954063           36 
 1130000   0.79922853   -8.0529576     219.6347  0.016197249  0.015938362           50 
 1131000     0.807844   -8.0587315    219.80493  0.016195471  0.015922729           30 
 1132000   0.82353452   -8.0480384    219.41585  0.016152521  0.015907141           33 
 1133000   0.78773384   -8.0604673    219.78538  0.016165444   0.01589159           41 
 1134000   0.79564022    -8.068467    220.08106  0.016172917  0.015876082           39 
 1135000   0.79180542    -8.030871    219.99136  0.016152082  0.015860646           59 
 1136000   0.80186544   -8.0362058    220.34021  0.016163454  0.015845209           44 
 1137000   0.78456523   -8.0602427    220.25383  0.016142907   0.01582976           14 
 1138000   0.79249336   -8.0238589    219.62067  0.016082357  0.015814262           26 
 1139000   0.80207467   -8.0507499    219.56378  0.016064075  0.015798812           31 
 1140000   0.80556944    -8.044125    220.09037  0.016088477  0.015783443           23 
 1141000   0.79504795   -8.0208135      220.224  0.016084137  0.015768025           10 
 1142000    0.7884973    -8.049722    219.60656  0.016024997  0.015752561           34 
 1143000   0.82892465    -8.035626    219.59881  0.016010412  0.015737134            7 
 1144000   0.79500406   -8.0754529    219.72477  0.016005593  0.015721708           33 
 1145000   0.80260177   -8.0483799    219.94616  0.016007726  0.015706261           38 
 1146000   0.78066024   -8.0885583    219.98633  0.015996679  0.015690746           17 
 1147000   0.78652564   -8.0500553    219.61003  0.015955393  0.015675266           20 
 1148000   0.79961435   -8.0549167    220.25787  0.015988521  0.015659884           34 
 1149000   0.79327467   -8.0690333    219.88156  0.015947313  0.015644591           37 
 1150000   0.80225439   -8.0685315    220.38472  0.015969907  0.015629314           54 
 1151000   0.79906966   -8.0898882    219.80315  0.015913926  0.015613955           49 
 1152000   0.77856837   -8.0588319    219.64003  0.015888313  0.015598595           22 
 1153000   0.80403141   -8.0708663    219.97458  0.015898712  0.015583215           42 
 1154000    0.7930155   -8.0641077    220.66611  0.015934872  0.015567915           22 
 1155000   0.78797512   -8.0843335    219.60264  0.015844347  0.015552535           27 
 1156000   0.78977281   -8.0764773    219.49493  0.015822875  0.015537157           15 
 1157000   0.80516876   -8.0583124    220.16968  0.015857799  0.015521852           21 
 1158000   0.79355341   -8.0685077    219.98067  0.015830503  0.015506595           32 
 1159000   0.80686903   -8.0433643    220.89682  0.015882716   0.01549138           47 
 1160000   0.78198881   -8.0591215    220.37717  0.015831693  0.015476194           33 
 1161000   0.78895921   -8.0916052    220.16235  0.015802637  0.015460998           44 
 1162000   0.79549689   -8.0809644    219.99287  0.015776884  0.015445785           69 
 1163000   0.79241294   -8.0574167    220.09445  0.015770597  0.015430614           61 
 1164000   0.79598773   -8.0786168     219.6877  0.015727928  0.015415478           81 
 1165000   0.78802894   -8.0585394    220.05914  0.015740997  0.015400243           68 
 1166000   0.78362855   -8.0657179    220.03694   0.01572591  0.015385118           77 
 1167000   0.78013696   -8.0975043      219.521  0.015675592  0.015370017           57 
 1168000    0.7794687   -8.0777389    220.11483   0.01570454   0.01535483           80 
 1169000   0.79236665   -8.0415918    220.49958  0.015718533  0.015339761           54 
 1170000   0.79775068   -8.0460984    220.36678   0.01569564  0.015324744           29 
 1171000   0.78504287   -8.0581531    220.78844  0.015712243  0.015309754           87 
 1172000   0.77586102   -8.0860318    220.59989   0.01568543  0.015294827           91 
 1173000   0.78452933   -8.0478699    220.61701  0.015673275   0.01527986           72 
 1174000   0.79474854   -8.0844568     219.9421  0.015612018  0.015264888           62 
 1175000   0.78415654   -8.0945146    220.27316   0.01562221  0.015249853           95 
 1176000   0.79154331   -8.0872315    220.01277  0.015590474  0.015234842           77 
 1177000   0.78281355   -8.1005807    220.19193  0.015589913   0.01521979          124 
 1178000   0.78630399   -8.0630092    220.46832  0.015596231  0.015204854          121 
 1179000   0.78510239   -8.0782663    220.41124  0.015578968  0.015189992           97 
 1180000   0.78561091   -8.0540034    220.24825  0.015554255  0.015175094          150 
 1181000   0.78940616   -8.0767034    220.75264  0.015576675  0.015160208          104 
 1182000   0.78500773   -8.0772036    220.50808  0.015546255  0.015145429           92 
 1183000   0.77324885   -8.0495077    221.23355  0.015584217  0.015130642          101 
 1184000    0.7717334   -8.0645962     220.3517  0.015508988  0.015115909           78 
 1185000   0.77943216   -8.0681947    220.77356  0.015525567  0.015101197           87 
 1186000   0.78138439    -8.090439    220.51775  0.015494502  0.015086426          128 
 1187000   0.76614871    -8.109642    220.36916  0.015471016  0.015071667          109 
 1188000     0.777794    -8.062468    220.95989  0.015499431  0.015056923          170 
 1189000   0.76707806    -8.095598    220.82122  0.015476677  0.015042243          136 
 1190000   0.79989457   -8.0850269    221.13363  0.015485548  0.015027578          156 
 1191000   0.77754966   -8.0839698      220.954  0.015459978  0.015012936          145 
 1192000   0.77829475    -8.079536    220.56176  0.015419586  0.014998229          188 
 1193000   0.77184018   -8.0691245    221.47629  0.015470543  0.014983572          181 
 1194000   0.77141737   -8.1126593    220.40222  0.015382623  0.014968879          158 
 1195000    0.7848018   -8.0769719    220.63912  0.015386271  0.014954209          257 
 1196000   0.76116353   -8.1235683    220.01893  0.015330193  0.014939522          217 
 1197000   0.77882267   -8.1042198    221.00055  0.015385724  0.014924866          180 
 1198000   0.75844107   -8.0951315    220.21127  0.015317979   0.01491019          201 
 1199000   0.77890907   -8.1102316    220.44054  0.015321139  0.014895526          202 
 1200000   0.78226327   -8.1328599    220.64043  0.015322252  0.014880812          190 
 1201000   0.78090303   -8.0918984    220.59352  0.015306239  0.014866173          229 
 1202000   0.77507641   -8.1161323    220.65234  0.015297583  0.014851494          197 
 1203000   0.77132674   -8.0795281    220.56974  0.015279145  0.014836855          199 
 1204000   0.77381425   -8.0753792    220.52495  0.015263355  0.014822236          248 
 1205000   0.76811509   -8.0857752    220.78754  0.015268848  0.014807655          208 
 1206000   0.76266003   -8.0951654    220.50585  0.015236723  0.014793051          246 
 1207000    0.7654563   -8.1230357    220.41328  0.015217708  0.014778374          237 
 1208000   0.75733088   -8.1167959    220.49169   0.01521052  0.014763838          269 
 1209000   0.77177715   -8.1189394      220.748  0.015215605  0.014749286          259 
 1210000   0.77578863   -8.1300467    220.17641  0.015163665  0.014734681          300 
 1211000   0.78788536    -8.124159    220.22227  0.015154299  0.014720049          422 
 1212000     0.756622    -8.114004    220.58504  0.015166738  0.014705426          323 
 1213000   0.79135661   -8.1319106     220.3571  0.015138575   0.01469083          302 
 1214000    0.7716491   -8.1480199    220.01118   0.01510236  0.014676222          422 
 1215000   0.76216144   -8.1364586    220.31463  0.015110743  0.014661645          287 
 1216000   0.77033367   -8.1159647      220.885  0.015137404  0.014647111          323 
 1217000   0.76071704   -8.1786896    219.99773  0.015064211  0.014632623          475 
 1218000   0.76316691   -8.1822604    219.99377  0.015051571  0.014618087          380 
 1219000   0.76721966   -8.1694975    220.00113  0.015039727  0.014603542          563 
 1220000   0.73945802   -8.1828963     220.2282   0.01504291  0.014589029          433 
 1221000   0.76185386   -8.1702329    220.50552  0.015049517  0.014574509          409 
 1222000   0.77213711   -8.1296239    220.88943  0.015063382  0.014560042          397 
 1223000   0.77458171   -8.1478542    220.37223  0.015015824  0.014545566          465 
 1224000   0.78652911    -8.165284    220.24288  0.014994749   0.01453111          360 
 1225000   0.78226606   -8.1483189    220.22717   0.01498144  0.014516639          484 
 1226000   0.78280318   -8.1839177    220.36015  0.014978259  0.014502176          384 
 1227000   0.75915421   -8.1828358    220.21581  0.014956249  0.014487719          395 
 1228000   0.78381749   -8.1684993    220.08581  0.014935248  0.014473319          361 
 1229000   0.77719216   -8.2069346    219.73978  0.014899633  0.014458877          413 
 1230000   0.76384757    -8.220558    219.69184  0.014884271  0.014444381          424 
 1231000   0.77786533   -8.2053392    220.36537  0.014917775  0.014429905          430 
 1232000   0.74940829   -8.2146412    219.63629  0.014856351  0.014415413          407 
 1233000   0.77608378   -8.2191762    220.01234  0.014869718  0.014400941          437 
 1234000   0.75791726   -8.2148975    219.55159  0.014826552  0.014386487          515 
 1235000   0.77398245   -8.2218944    219.47526  0.014809397  0.014372062          424 
 1236000   0.77201676   -8.2034829    220.00616  0.014833209  0.014357696          483 
 1237000   0.76166615   -8.1896446     220.5478  0.014857707  0.014343295          493 
 1238000   0.77316949   -8.2105904    219.95293  0.014805663  0.014328958          478 
 1239000   0.75664424   -8.2199837    220.02995  0.014798894  0.014314596          496 
 1240000   0.74638741      -8.1925    220.14352  0.014794592  0.014300247          507 
 1241000   0.74645074   -8.1944534    220.26802   0.01479103  0.014285892          508 
 1242000   0.74727042   -8.2122804     219.8178  0.014748913  0.014271523          483 
 1243000   0.75782729   -8.1949497    219.84706  0.014739009  0.014257115          468 
 1244000   0.75258889   -8.2246624    219.20992   0.01468448   0.01424273          734 
 1245000   0.78017355   -8.2227828    219.40651  0.014685844  0.014228307          517 
 1246000   0.75312318   -8.2067163     219.4554  0.014677327   0.01421397          534 
 1247000    0.7687923   -8.1956037    219.68388  0.014680826  0.014199616          579 
 1248000   0.73349518   -8.2123827    219.15728    0.0146339  0.014185221          519 
 1249000   0.76646926    -8.213711     220.0897  0.014684394  0.014170853          538 
 1250000   0.75892766   -8.2512791    219.74694  0.014649796  0.014156531          507 
 1251000   0.74226274   -8.2471389    219.19864  0.014601562  0.014142216          600 
 1252000   0.74432863   -8.2527829     219.6756  0.014621645  0.014127931          561 
 1253000   0.76890798   -8.2372794    219.80277  0.014618434   0.01411365          551 
 1254000   0.74470022   -8.2649079    219.43283  0.014582192  0.014099357          627 
 1255000   0.75823594   -8.2541389    219.40284  0.014568582  0.014085027          587 
 1256000   0.75669229   -8.2434183    219.24616  0.014546587  0.014070744          732 
 1257000   0.75989691   -8.2554439     219.4608  0.014549244  0.014056471          608 
 1258000   0.75377875    -8.243199    219.41821  0.014534858   0.01404219          595 
 1259000    0.7666546   -8.2846696    219.81905  0.014549845  0.014027923          617 
 1260000    0.7432286    -8.248147    219.61126  0.014524554  0.014013696          597 
 1261000   0.75307773   -8.2520045     219.7862  0.014524597  0.013999458          542 
 1262000   0.75543392    -8.260754    219.43144  0.014489662  0.013985234          562 
 1263000   0.74278982   -8.2824357    218.69059  0.014429308  0.013971016          595 
 1264000    0.7505668   -8.2587103    219.27424  0.014456371  0.013956775          595 
 1265000   0.74383365   -8.2786982    219.05473  0.014430483  0.013942555          836 
 1266000   0.74857585   -8.2993043    219.27786  0.014433772  0.013928356          677 
 1267000   0.75618844   -8.2689041    219.21794  0.014418439  0.013914146          787 
 1268000   0.75492504   -8.2658045    219.25632   0.01440959  0.013899942          769 
 1269000   0.73641112   -8.2529299    220.02802  0.014448911  0.013885737          663 
 1270000   0.76096252     -8.27771    219.11975  0.014377936  0.013871551          856 
 1271000   0.73192589   -8.3172854    218.70893  0.014339689  0.013857349          852 
 1272000   0.75843465   -8.2611039    219.28843   0.01436638  0.013843161          647 
 1273000   0.74785633   -8.2963023    218.84836  0.014326287   0.01382899          698 
 1274000   0.74741663   -8.2912334    218.89006   0.01431777  0.013814815          622 
 1275000   0.73896293   -8.2898106    219.03459  0.014315986  0.013800685          667 
 1276000   0.73790914   -8.2791959    219.54306  0.014337974  0.013786545          824 
 1277000   0.74167014   -8.3060134     219.0648  0.014295537  0.013772438          923 
 1278000   0.74382961   -8.3031979    218.90699  0.014274061  0.013758289          966 
 1279000   0.75224693   -8.3257721    218.52534  0.014238033  0.013744122          997 
 1280000   0.75551153   -8.3087082    218.76338  0.014242407  0.013729975          746 
 1281000   0.74236412   -8.3238572    219.18917  0.014258988  0.013715865          708 
 1282000   0.73511341   -8.3233205    218.75231  0.014219469  0.013701739          951 
 1283000   0.73583991   -8.3541558    218.60239  0.014198648  0.013687633          932 
 1284000   0.75424462   -8.3306845    218.54678  0.014183981  0.013673599         1012 
 1285000   0.74044744   -8.3422568    218.92229  0.014197295  0.013659527          950 
 1286000   0.73536298   -8.3226352    218.90871  0.014185375  0.013645499          795 
 1287000   0.73202286   -8.3425638    218.94812  0.014176905  0.013631457         1007 
 1288000   0.71854232    -8.332002    218.82892  0.014158186  0.013617428         1060 
 1289000   0.72994692    -8.354862    219.06263  0.014162311  0.013603388         1133 
 1290000   0.72843775   -8.3496535    218.35673  0.014105732  0.013589373          879 
 1291000   0.75037078   -8.3462503    218.64469  0.014113393  0.013575374         1143 
 1292000   0.75502562    -8.340226    218.87722  0.014117467  0.013561389          854 
 1293000   0.73157893   -8.3159695     218.9474  0.014111072  0.013547439          940 
 1294000   0.73329175   -8.3237373    219.01621  0.014104599  0.013533461         1186 
 1295000   0.75284524   -8.3617401     218.0186  0.014029511  0.013519488         1195 
 1296000   0.75307039    -8.365583    218.29514  0.014036468  0.013505524          904 
 1297000   0.73491114   -8.3492929    218.93147   0.01406653  0.013491545          837 
 1298000   0.73111434   -8.3628624    218.63071  0.014036383  0.013477595          966 
 1299000   0.72058537   -8.3972806    217.86854  0.013976684  0.013463629          996 
 1300000   0.74363805   -8.3876954    218.68745  0.014018427  0.013449621         1239 
 1301000   0.73004323   -8.3476176    218.51241  0.013996439  0.013435634         1160 
 1302000   0.71495233    -8.367306    218.38075  0.013977263  0.013421693         1041 
 1303000    0.7278112    -8.392189    218.41217  0.013968545   0.01340771         1288 
 1304000   0.72636926   -8.3719668    218.04015  0.013934058  0.013393774         1294 
 1305000   0.73173617   -8.3815831    217.80394  0.013908297   0.01337987         1082 
 1306000   0.74130474    -8.381587    218.08834  0.013915795  0.013365923         1356 
 1307000   0.72145916   -8.4017477    217.69973   0.01388037  0.013351977         1350 
 1308000   0.72984416    -8.394788    218.11179  0.013896011  0.013338047         1112 
 1309000   0.74368755   -8.3839736    217.67412  0.013857533  0.013324142         1099 
 1310000   0.73194668   -8.4033314    217.83191  0.013856992  0.013310221         1406 
 1311000    0.7406232   -8.4308922    217.68118  0.013836841  0.013296289         1369 
 1312000   0.73173141   -8.4266153    217.59372   0.01382074  0.013282389         1458 
 1313000   0.72138489     -8.41929    218.12192  0.013843737  0.013268465         1485 
 1314000   0.72696445   -8.4320733    217.90542  0.013819471  0.013254567         1481 
 1315000    0.7250086   -8.4336791    217.76667  0.013800169  0.013240665         1482 
 1316000   0.72221044   -8.4310991     217.6806  0.013784233  0.013226779         1480 
 1317000   0.73655808   -8.4301662    217.75123  0.013778235  0.013212894         1502 
 1318000   0.74478766   -8.3972939    218.24773  0.013799174  0.013199021         1567 
 1319000   0.73018274   -8.4380335    217.36664  0.013733045  0.013185178         1308 
 1320000   0.72550774   -8.4086593    217.83493  0.013752205  0.013171322         1527 
 1321000    0.7282074   -8.4329847    217.62893  0.013728799  0.013157485         1241 
 1322000   0.72905086   -8.4278277    217.64415  0.013719374  0.013143674         1612 
 1323000   0.72677678   -8.4458378    217.56265  0.013703871  0.013129844         1404 
 1324000   0.73771005   -8.4583406    216.93822  0.013654218  0.013116028         1613 
 1325000   0.72483389   -8.4561372    217.52447  0.013680784  0.013102229         1626 
 1326000      0.72878   -8.4467199    217.67582  0.013679979  0.013088441         1652 
 1327000   0.71360485     -8.44453    217.25903  0.013643496  0.013074664         1606 
 1328000   0.71962149   -8.4427083    217.90943  0.013674036   0.01306091         1610 
 1329000   0.72501424   -8.4832488    217.10979  0.013613606  0.013047124         1727 
 1330000   0.72859247   -8.4641137    217.26643  0.013613185   0.01303337         1645 
 1331000   0.73084582   -8.4391757     217.5187  0.013618752  0.013019633         1670 
 1332000   0.72862169   -8.4693991    216.99041  0.013575476  0.013005897         1698 
 1333000   0.72278371   -8.4292254    217.59476  0.013603073   0.01299218         1384 
 1334000   0.72336969   -8.4661088    216.95343  0.013552813  0.012978464         1692 
 1335000   0.71211069   -8.4772184    216.97732  0.013544152  0.012964777         1677 
 1336000   0.72163208   -8.4563885    217.34569  0.013556991  0.012951108         1343 
 1337000   0.72066236    -8.472864    217.29394  0.013543626  0.012937469         1719 
 1338000   0.72842219   -8.4752309    217.39457  0.013539772   0.01292383         1722 
 1339000   0.71758059   -8.5157778    216.38129  0.013466597  0.012910196         1740 
 1340000   0.71872355   -8.4569518    217.72101  0.013539864  0.012896597         1698 
 1341000   0.71057655   -8.4737347    217.23947  0.013499843  0.012883056         1710 
 1342000    0.7310914   -8.4579114    217.66504  0.013516209  0.012869524         1709 
 1343000   0.71942524    -8.430607     217.3239  0.013484978  0.012856024         1766 
 1344000   0.72374251   -8.4719652    216.99272   0.01345441  0.012842494         1795 
 1345000   0.70137406   -8.4643832    217.04978  0.013447942  0.012828978         1784 
 1346000   0.72124673   -8.4894298    217.54397  0.013468547  0.012815475         1851 
 1347000    0.7128417    -8.471333    217.27405  0.013441849  0.012801975         1805 
 1348000   0.72297398   -8.4714773    217.14054  0.013423624  0.012788526         1897 
 1349000   0.69279492   -8.4723341    217.05229  0.013408221  0.012775059         1859 
 1350000    0.7114635   -8.4588925    217.36186  0.013417399  0.012761608         1805 
 1351000   0.71927398   -8.5026356    216.87965  0.013377723  0.012748192         1887 
 1352000   0.72391285    -8.466713    217.05486  0.013378628  0.012734757         1835 
 1353000    0.7019599   -8.4822689    217.55805  0.013399732  0.012721336         1841 
 1354000   0.71802212   -8.4894822    217.37713  0.013378701  0.012707929         1927 
 1355000   0.70209549   -8.5043379    216.94589  0.013342306  0.012694515         1866 
 1356000   0.71302305   -8.4538529    217.28428  0.013353262  0.012681117         1963 
 1357000   0.71368181   -8.4822863    216.94114  0.013322349  0.012667697         1941 
 1358000   0.71305103   -8.5171763    216.75221  0.013300946  0.012654297         1952 
 1359000   0.71156972   -8.4863097    216.77046  0.013292278  0.012640937         2019 
 1360000    0.7066984   -8.5004425    217.11262  0.013303469  0.012627574         1977 
 1361000    0.7065738   -8.4993848    217.09875  0.013292845  0.012614228         2020 
 1362000   0.69686919   -8.5081558    216.60119  0.013252643  0.012600893         1661 
 1363000   0.71278692   -8.5029405    216.74181  0.013251517  0.012587541         2018 
 1364000   0.70215367   -8.5220055    216.52608  0.013228622  0.012574218         1958 
 1365000   0.69822194   -8.5194992    216.55617  0.013220768  0.012560906         2023 
 1366000   0.67906271    -8.516835    216.80683  0.013226381  0.012547631         2005 
 1367000   0.69880169   -8.5279373    216.79686  0.013216097  0.012534346         2001 
 1368000   0.70084124   -8.5240808    216.21004  0.013170689  0.012521087         2081 
 1369000   0.70519386   -8.5049517    217.01084  0.013209815  0.012507833         2032 
 1370000    0.7060468   -8.5258247    216.91833  0.013194546  0.012494606         2108 
 1371000   0.71306285   -8.4784837    217.41349  0.013215019  0.012481381         2023 
 1372000    0.6978178   -8.5489958     216.4054  0.013144157  0.012468184         2162 
 1373000   0.70487023   -8.5464957    216.55684  0.013143775  0.012454976         2095 
 1374000   0.69805816   -8.5311253    216.28796  0.013117901  0.012441766         2173 
 1375000   0.71941262   -8.5044699    216.57886  0.013125991  0.012428585         2100 
 1376000   0.70024088   -8.5539092    216.69057  0.013123218  0.012415406         2122 
 1377000   0.69060911   -8.5066227    216.43675  0.013098327  0.012402233         2096 
 1378000   0.69800623   -8.5722783    216.20594  0.013074863  0.012389075         2035 
 1379000   0.70426838   -8.5270447    216.86293  0.013105084  0.012375934         2111 
 1380000   0.70433609   -8.5416625    216.22244   0.01305691  0.012362807         2042 
 1381000   0.70291989   -8.5382234    215.82136  0.013023254  0.012349695         2152 
 1382000   0.69552831   -8.5375227    216.03283  0.013026582  0.012336574         2099 
 1383000   0.68400892   -8.5542366    216.57605  0.013049894  0.012323488         2083 
 1384000   0.69289031   -8.5408806    217.02008  0.013067201  0.012310412         2084 
 1385000   0.71051298   -8.5406078     217.0099  0.013057154  0.012297371         2080 
 1386000   0.69469972   -8.5355212    217.05293   0.01305032  0.012284342         2108 
 1387000   0.68039998   -8.5236257    216.70442  0.013019972  0.012271318         2150 
 1388000   0.71272057   -8.5561567    216.34116  0.012988783  0.012258329         2112 
 1389000   0.69778169    -8.534718    215.90957  0.012953538  0.012245379         2088 
 1390000   0.68856353   -8.5385466    216.54962  0.012982591  0.012232441         2107 
 1391000    0.7044873   -8.5584986    216.40642  0.012964679  0.012219493         2190 
 1392000   0.70291769   -8.5415008    216.58779  0.012966223   0.01220657         2146 
 1393000   0.69990889   -8.5328097    216.89265  0.012975153  0.012193653         2070 
 1394000   0.69615981   -8.5684665    216.58699  0.012947572  0.012180762         2061 
 1395000   0.70076932   -8.5526156     216.3323  0.012923076  0.012167887         2067 
 1396000   0.69699359   -8.5518081    216.19121  0.012905397  0.012155007         2127 
 1397000   0.69311955   -8.5752253    215.98454  0.012883831   0.01214217         2176 
 1398000   0.69406163   -8.5629533    216.47623  0.012903924  0.012129313         2223 
 1399000   0.70626244   -8.5845409    216.10451  0.012872558  0.012116492         2199 
 1400000    0.7057359   -8.5389534    216.54706  0.012889706    0.0121037         2174 
 1401000   0.68219233    -8.535978      215.833  0.012838033  0.012090903         2171 
 1402000   0.70691015   -8.5747618    216.23533   0.01285279  0.012078131         2135 
 1403000   0.68216851   -8.5600214    216.05371  0.012832841  0.012065361         2053 
 1404000   0.69041866   -8.5821796    216.07714  0.012825092  0.012052601         2214 
 1405000   0.70208675   -8.5576748    216.40366   0.01283533  0.012039873         2155 
 1406000   0.69529856   -8.5923234    215.92459  0.012797806  0.012027142         2141 
 1407000   0.67528766   -8.5693738    216.33851  0.012813226  0.012014421         2245 
 1408000   0.69509585   -8.5524224    216.22489  0.012797401  0.012001735         2224 
 1409000   0.69209126   -8.5726494    216.54256  0.012807107   0.01198905         2272 
 1410000   0.69860155   -8.5716183    216.03803  0.012768205  0.011976366         2221 
 1411000   0.69091761   -8.5833342    216.16104  0.012766421  0.011963697         2280 
 1412000   0.67995698   -8.5579048    216.39129  0.012770968  0.011951071         2183 
 1413000   0.68685989   -8.5787669    216.34842  0.012759402   0.01193844         2245 
 1414000   0.69765817   -8.5868481    216.27561  0.012746087  0.011925824         2242 
 1415000   0.69379816   -8.5760401    216.01293   0.01272161  0.011913217         2238 
 1416000   0.68824548   -8.5871131    216.43779  0.012737629  0.011900625         2200 
 1417000   0.67856769   -8.5798297     216.0258  0.012704411  0.011888045         2205 
 1418000    0.6823821   -8.6006138    215.97802  0.012692643   0.01187548         2268 
 1419000    0.6935541   -8.5490232    216.26385  0.012700485  0.011862923         2219 
 1420000   0.68868816   -8.5705174    216.44809  0.012702353  0.011850428         2238 
 1421000   0.69286815   -8.5728667    215.81256  0.012656144   0.01183795         2148 
 1422000   0.67429208   -8.5905425     215.8852    0.0126515  0.011825463         2258 
 1423000   0.69255355   -8.5603202    216.27424  0.012665392  0.011813006         2194 
 1424000   0.69600778   -8.5917533    216.01156  0.012641126  0.011800553         2176 
 1425000   0.70269572    -8.593269    216.37159  0.012653309    0.0117881         2171 
 1426000   0.67165598   -8.5807321    216.81056  0.012670089  0.011775697         2238 
 1427000   0.69108274   -8.5741314    216.43988  0.012639563  0.011763294         2221 
 1428000   0.67836137   -8.5820499    215.89866  0.012599128  0.011750916         2263 
 1429000   0.66893473   -8.5894091    215.70899  0.012579251  0.011738518         2199 
 1430000   0.67303805   -8.5912398    215.77626  0.012574374  0.011726142         2277 
 1431000   0.67493291   -8.5930757    216.22204  0.012591547  0.011713786         2239 
 1432000   0.68266747   -8.5786926    216.20487  0.012581754  0.011701464         2256 
 1433000   0.68622367   -8.5866716    215.72554    0.0125451  0.011689155         2358 
 1434000   0.68313174   -8.5842715    215.80018  0.012540689  0.011676843         2275 
 1435000   0.69303331   -8.5908919    215.72156  0.012527384  0.011664522         2303 
 1436000    0.6787335   -8.5967422    215.87095   0.01252733  0.011652226         2282 
 1437000   0.66830542   -8.6046558    215.82303  0.012515834  0.011639934         2337 
 1438000   0.67315928   -8.6257374    215.94948  0.012514457  0.011627662         2288 
 1439000   0.67984922    -8.604134    215.90466  0.012503166  0.011615414         2224 
 1440000   0.67246058   -8.5953566    215.75952  0.012486083  0.011603183         2257 
 1441000   0.67652583   -8.5892117    215.56743   0.01246631  0.011590967         2295 
 1442000   0.67633188   -8.6011861    215.46253  0.012451603  0.011578763         2352 
 1443000   0.66663756   -8.6168718    215.70839  0.012457172  0.011566564         2264 
 1444000   0.69559564   -8.6096879    215.61303  0.012443042  0.011554391         2306 
 1445000   0.67082734    -8.612625    215.69912  0.012439396  0.011542232         2351 
 1446000   0.67831237   -8.6147723    216.28455  0.012464532  0.011530087         2403 
 1447000   0.68877402   -8.5850169    216.07828  0.012444039  0.011517971         2404 
 1448000   0.66509323   -8.6314071    215.56276  0.012405776  0.011505832         2401 
 1449000   0.67294765   -8.6152061    216.30904  0.012440133  0.011493732         2367 
 1450000   0.66317608   -8.6284054    215.74764   0.01239929  0.011481649         2484 
 1451000   0.67671437   -8.6107739    215.71467  0.012388851  0.011469573         2529 
 1452000   0.68101206   -8.6024765      215.757  0.012382748  0.011457509         2472 
 1453000    0.6795671   -8.6131107    215.71259  0.012371679  0.011445473         2518 
 1454000    0.6704635   -8.6331227    215.87477  0.012372465  0.011433462         2444 
 1455000   0.69110562   -8.6388637    215.20579  0.012325646  0.011421444         2553 
 1456000   0.66750115   -8.6433254    215.28105  0.012321489  0.011409433         2474 
 1457000   0.67570646    -8.624674    215.50507  0.012325845  0.011397437         2477 
 1458000   0.67511619   -8.6272921    215.46072  0.012314856  0.011385461         2531 
 1459000    0.6672483   -8.6204032    215.49445  0.012308342  0.011373476         2448 
 1460000    0.6676327   -8.6186915    215.84224  0.012319763   0.01136152         2454 
 1461000   0.66996136   -8.6064369    215.61952  0.012298626  0.011349583         2517 
 1462000   0.64740592   -8.6467392    215.21851  0.012267357  0.011337654         2570 
 1463000   0.65719724   -8.6327445    214.98636  0.012245748  0.011325737         2510 
 1464000   0.65710483   -8.6293674    215.37066  0.012259259  0.011313829         2527 
 1465000   0.65333189    -8.645945    215.54571  0.012260848   0.01130193         2500 
 1466000   0.65574556   -8.6492547    215.45414  0.012247279  0.011290039         2537 
 1467000   0.68963407   -8.6589838    215.50432  0.012241782  0.011278166         2557 
 1468000    0.6618266   -8.6738605    215.20105  0.012216227  0.011266289         2541 
 1469000    0.6787275   -8.6678118    215.28331  0.012212577  0.011254428         2567 
 1470000   0.67461468   -8.6606279     215.2489  0.012202318  0.011242593         2589 
 1471000   0.64211303   -8.6644324    215.25088  0.012194135   0.01123075         2644 
 1472000    0.6649402   -8.6428406     215.4934  0.012199581  0.011218919         2667 
 1473000    0.6713839    -8.684981    215.32044  0.012181514  0.011207106         2638 
 1474000     0.676743   -8.6879211    215.04923  0.012157917  0.011195299         2660 
 1475000   0.66604846   -8.6527583    214.93409  0.012143169  0.011183513         2634 
 1476000   0.66028798   -8.6732801    215.11694  0.012145265  0.011171754         2661 
 1477000    0.6718312   -8.6682219    214.90467  0.012125066   0.01115999         2692 
 1478000   0.67027666   -8.6802493    214.50109  0.012094108   0.01114822         2693 
 1479000   0.66661625   -8.6595041     215.3309  0.012132685  0.011136483         2712 
 1480000   0.65345318   -8.6738708    214.96523  0.012103898  0.011124746         2720 
 1481000   0.65426263   -8.6792855    214.98513  0.012096845  0.011113018         2754 
 1482000   0.65483503   -8.7168061     214.8066  0.012078644  0.011101291         2764 
 1483000   0.67120536   -8.7026606     214.8163  0.012071044  0.011089575         2757 
 1484000   0.67051115   -8.6889844    214.43428  0.012041458  0.011077869         2808 
 1485000   0.66700867   -8.6936364    215.04308  0.012067513  0.011066165         2843 
 1486000   0.64819847   -8.6944154     214.6887  0.012039519  0.011054461         2844 
 1487000   0.65428801   -8.7066057    214.40255  0.012015386  0.011042782         2836 
 1488000   0.65374059   -8.7095889    214.50861  0.012013251   0.01103112         2795 
 1489000   0.66321938   -8.7259011    214.61985  0.012011409  0.011019452         2850 
 1490000   0.65377302   -8.6945998    214.41413  0.011991842  0.011007816         2903 
 1491000   0.64925691   -8.7125148    214.67392  0.011998319  0.010996185         2780 
 1492000   0.65884012   -8.7005426    214.85183  0.012000214  0.010984569         2843 
 1493000   0.67781154   -8.7397846    214.81744  0.011990257  0.010972973         2831 
 1494000   0.65669722   -8.7205053    214.58949  0.011969517  0.010961378         2855 
 1495000   0.65853402   -8.7194635    214.80864  0.011973726  0.010949769         2862 
 1496000   0.64222675    -8.731848    214.30903  0.011937892  0.010938164         2862 
 1497000   0.65208941    -8.716348    214.52338  0.011941849  0.010926595         2938 
 1498000   0.64982529   -8.7109845    214.50507  0.011932859  0.010915038         2965 
 1499000   0.65026719   -8.7086512    214.47952  0.011923478  0.010903485         2886 
 1500000   0.64600098   -8.7320599    214.67972  0.011926651  0.010891965         2926 
 1501000   0.65852971   -8.7480779    214.87774  0.011929699  0.010880464         2917 
 1502000   0.65244114   -8.7053752    214.21417  0.011884941  0.010868963         2975 
 1503000    0.6663201    -8.713684    214.77078  0.011907894  0.010857485         2924 
 1504000   0.65392002   -8.7453135    214.51178  0.011885626  0.010846013         3005 
 1505000   0.66391303   -8.7308244    214.28645  0.011865252   0.01083455         2966 
 1506000   0.65487604   -8.7401507    214.69406  0.011879928  0.010823111         3047 
 1507000   0.65425997   -8.7595145    214.13645  0.011841211   0.01081169         3059 
 1508000   0.64222165   -8.7553523    214.34683  0.011844984   0.01080027         3007 
 1509000   0.64438754   -8.7596071     214.2283  0.011830589  0.010788864         2951 
 1510000   0.66148048     -8.74442    214.51985  0.011838844  0.010777478         3077 
 1511000   0.63454667    -8.750547    214.30415  0.011819112  0.010766086         3049 
 1512000   0.63671084   -8.7650636    214.20208   0.01180567   0.01075471         3086 
 1513000    0.6578226   -8.7790535    214.11845  0.011793261  0.010743352         3028 
 1514000   0.66698924   -8.7502392    214.14172  0.011786752  0.010732005         3148 
 1515000   0.64055515   -8.7700018     214.1633   0.01178016  0.010720662         3201 
 1516000   0.63874161   -8.7672543    214.15546  0.011771958  0.010709333         3123 
 1517000    0.6515774   -8.7694905    214.13699  0.011763183  0.010697999         3147 
 1518000   0.65762163    -8.767488    214.15624  0.011756491  0.010686677         3219 
 1519000    0.6437622   -8.7970524    213.90613   0.01173503  0.010675381         3169 
 1520000   0.64077433   -8.7844855     214.2506  0.011746195  0.010664095         3169 
 1521000   0.66169781   -8.7637074    214.00731  0.011725143  0.010652829         3120 
 1522000   0.66287423   -8.7719421    213.87928  0.011710429   0.01064158         3205 
 1523000   0.64715452   -8.7832591    214.02618  0.011710778  0.010630353         3187 
 1524000   0.65227881   -8.7818975    213.99625  0.011701457  0.010619134         3143 
 1525000   0.65245253   -8.7863847    213.76957  0.011681397  0.010607942         3161 
 1526000   0.65830503   -8.7720761    214.11424  0.011692564  0.010596754         3212 
 1527000   0.65901263   -8.7896259    213.63449  0.011658726  0.010585576         3261 
 1528000   0.64543065   -8.7815189    214.05489  0.011674023  0.010574391         3182 
 1529000   0.65036053   -8.7828097    213.75006  0.011649774  0.010563221         3222 
 1530000   0.65425643   -8.7986276    213.76544  0.011642998  0.010552065         3246 
 1531000   0.64446568   -8.7908615    213.96421  0.011646212  0.010540918         3167 
 1532000   0.64929366   -8.7871581    213.58978  0.011618243  0.010529807         3296 
 1533000   0.63516124   -8.7957136    214.13881  0.011640509  0.010518693         3227 
 1534000   0.64204165   -8.7816831    214.32205  0.011642875  0.010507596         3284 
 1535000   0.62200402   -8.8056619    213.77573  0.011605631  0.010496516         3194 
 1536000   0.64745936   -8.8012009     213.3556  0.011575282  0.010485446         3210 
 1537000   0.64407926   -8.7998297    213.94193  0.011599541  0.010474391         3200 
 1538000   0.63881083   -8.8005828     213.7271  0.011580358  0.010463356         3273 
 1539000   0.62943432   -8.8204399    213.97704  0.011586368  0.010452335         3234 
 1540000   0.62260166   -8.7872238     213.8429  0.011571586  0.010441319         3302 
 1541000   0.64165476   -8.8128548      213.927  0.011568624  0.010430315         3350 
 1542000   0.63616586   -8.7935374    213.86411  0.011557723  0.010419302         3319 
 1543000   0.64886131   -8.8166731    213.89115  0.011551693  0.010408306         3377 
 1544000   0.64564219   -8.8060098    213.66054  0.011531765  0.010397325         3364 
 1545000   0.63906774   -8.8133794    213.73717  0.011528434  0.010386358         3325 
 1546000   0.64157136   -8.8116628    213.62728  0.011515054    0.0103754         3364 
 1547000    0.6485229   -8.8397831    213.30753  0.011490386  0.010364459         3371 
 1548000   0.64599932   -8.7999514    213.30907  0.011483046  0.010353536         3409 
 1549000   0.64015591   -8.8050608    213.27707  0.011473912   0.01034263         3357 
 1550000   0.63508979   -8.8309676    213.18872  0.011461759  0.010331736         3346 
 1551000   0.63709234    -8.827943    213.29382  0.011460016  0.010320853         3378 
 1552000   0.63603939   -8.8248707    213.40801  0.011458763  0.010309981         3390 
 1553000   0.63805301   -8.8253805     213.5547  0.011459256  0.010299118         3398 
 1554000   0.63618528     -8.80735    213.38474  0.011442768  0.010288273         3389 
 1555000   0.62497891   -8.8214729    213.64792  0.011449513  0.010277441         3428 
 1556000   0.63421432   -8.8317993    213.62271  0.011440805  0.010266622         3468 
 1557000   0.62505717   -8.8195626    213.71436  0.011438362   0.01025582         3352 
 1558000   0.62495641   -8.8271049    213.35709  0.011411911  0.010245038         3490 
 1559000   0.63588625   -8.8302168    213.73548  0.011424817  0.010234258         3423 
 1560000   0.60833938   -8.8403267    213.39008  0.011399043  0.010223485         3409 
 1561000   0.62241595   -8.8288346    213.32679  0.011388362  0.010212736         3360 
 1562000   0.63271329   -8.8181668    213.61524   0.01139646  0.010202004         3469 
 1563000   0.64147279   -8.8325156    213.52864  0.011384551   0.01019128         3440 
 1564000   0.64833948    -8.848137    213.24731  0.011362282   0.01018058         3502 
 1565000   0.62967303   -8.8329542    213.73833  0.011381168  0.010169876         3475 
 1566000   0.62555492   -8.8289944    213.46841  0.011359537  0.010159187         3481 
 1567000   0.62052909   -8.8712947    213.31311  0.011344028  0.010148513         3523 
 1568000   0.61588364   -8.8450725    213.51774  0.011347669  0.010137847         3470 
 1569000   0.63156194   -8.8492071    213.98675  0.011365347  0.010127199         3419 
 1570000   0.62557088   -8.8463115    213.44288   0.01132924  0.010116565         3421 
 1571000   0.62839449   -8.8590214    213.05588    0.0113015  0.010105959         3443 
 1572000   0.62248613   -8.8428028    213.28523  0.011306469  0.010095367         3453 
 1573000   0.62236139    -8.859299    213.23166  0.011296443  0.010084773         3432 
 1574000   0.62375122   -8.8311729    213.71056  0.011314621   0.01007421         3428 
 1575000   0.60745478   -8.8483929    213.15688  0.011278142  0.010063641         3393 
 1576000   0.62761313   -8.8579075    212.88059  0.011256377  0.010053083         3436 
 1577000    0.6196156   -8.8614162    213.43653  0.011278616  0.010042547         3429 
 1578000   0.61970436   -8.8620411    213.01844   0.01124939  0.010032026         3481 
 1579000   0.62097983   -8.8445735    213.25849  0.011254934   0.01002151         3480 
 1580000   0.61153778   -8.8335442    213.25873  0.011247823  0.010011011         3480 
 1581000   0.61771781   -8.8527969    213.42929  0.011249699  0.010000532         3416 
 1582000   0.61358019   -8.8750463    212.80406  0.011209654 0.0099900517         3462 
 1583000   0.63401818    -8.868497    213.22311  0.011224632   0.00997959         3408 
 1584000   0.61301997   -8.8704933    212.85681  0.011198275  0.009969136         3536 
 1585000   0.62575617   -8.8691577    212.93448  0.011195293 0.0099586865         3456 
 1586000   0.61162398   -8.8910197     212.9768  0.011190458 0.0099482576         3407 
 1587000   0.60885447   -8.8622782    212.79295  0.011173753 0.0099378531         3438 
 1588000   0.63194777    -8.877512    212.77647  0.011165852 0.0099274565         3497 
 1589000   0.63122316   -8.8788235    212.76749  0.011158354  0.009917078         3493 
 1590000    0.6059571   -8.8804817    213.09051  0.011168266 0.0099067083         3504 
 1591000   0.62047085   -8.8770909    213.22876  0.011168488 0.0098963634         3468 
 1592000    0.6166227   -8.9000354    213.12207  0.011155887 0.0098860163         3520 
 1593000   0.62648227   -8.8936293    212.80141   0.01113211 0.0098756917         3476 
 1594000   0.62505922   -8.8802407     212.9818  0.011134557 0.0098653631         3544 
 1595000   0.63062141   -8.8663813    213.04891  0.011131082  0.009855055         3479 
 1596000   0.62113355   -8.8755698    212.67433  0.011104549 0.0098447571         3481 
 1597000   0.62010743   -8.8737735    213.02525  0.011115908 0.0098344769         3573 
 1598000   0.61216563   -8.9010581    213.03646  0.011109536 0.0098242121         3502 
 1599000   0.62113852   -8.8885171    212.83579   0.01109213 0.0098139596         3532 
 1600000   0.61417129    -8.882553    212.94202   0.01109073 0.0098037138         3531 
 1601000   0.61012171   -8.8942144    212.43818  0.011057578 0.0097934763         3553 
 1602000   0.61150755   -8.8828348    212.91127  0.011075285 0.0097832557         3527 
 1603000   0.61048688     -8.87324    213.16117  0.011081367 0.0097730605         3503 
 1604000   0.60951778   -8.8911662    212.71099   0.01105107 0.0097628664         3474 
 1605000   0.60258312   -8.9012221    212.96643  0.011057447 0.0097527069         3554 
 1606000   0.61312389   -8.8863786    212.70045   0.01103676 0.0097425436         3509 
 1607000   0.61852366   -8.9047227    212.97528  0.011044144 0.0097323965         3534 
 1608000   0.60646445   -8.8821648    212.60126  0.011017893 0.0097222649         3530 
 1609000   0.61010781   -8.9009056    212.66541  0.011014368 0.0097121383         3498 
 1610000   0.61384115    -8.903194    212.54872  0.011001486 0.0097020436         3470 
 1611000   0.61217656   -8.8808231    212.95911  0.011015886 0.0096919628         3461 
 1612000   0.60902946   -8.8793864    212.72605  0.010997004 0.0096818953         3471 
 1613000   0.61619881   -8.8810101    212.97531  0.011003064 0.0096718324         3553 
 1614000   0.60452507   -8.8886019    212.76008  0.010985134 0.0096617803         3488 
 1615000    0.6112324   -8.9006566    212.32363  0.010955812 0.0096517528         3488 
 1616000   0.59157403   -8.9067311    212.70425   0.01096866 0.0096417317         3560 
 1617000   0.59916302   -8.8990632     212.6044   0.01095673 0.0096317167         3527 
 1618000   0.61231768   -8.8816837    212.80037  0.010960052 0.0096217197         3545 
 1619000    0.6037504    -8.902092    212.90786  0.010958815 0.0096117373         3495 
 1620000   0.60572937   -8.9038991    212.82838  0.010947962 0.0096017798         3493 
 1621000   0.60825344   -8.8948599    212.74134  0.010936733 0.0095918359         3511 
 1622000   0.60692387   -8.8844974     212.9259  0.010939473 0.0095818889         3463 
 1623000   0.60638998    -8.885012    212.32838  0.010902053 0.0095719583         3539 
 1624000   0.60405441    -8.885876    212.54378  0.010906393 0.0095620481         3504 
 1625000   0.60904526   -8.8968314    212.86117  0.010915958 0.0095521473         3469 
 1626000   0.61154448   -8.9178996    212.58415  0.010895047 0.0095422646         3562 
 1627000   0.61103005   -8.9039748    212.74567  0.010896623 0.0095323814         3533 
 1628000   0.59566145   -8.9227776     212.5946  0.010882197 0.0095225167         3521 
 1629000   0.60860193   -8.9103349    212.45722  0.010868489  0.009512673         3536 
 1630000   0.61376098   -8.9237799     212.7363  0.010876089 0.0095028387         3539 
 1631000   0.60109371   -8.9221044    212.69963  0.010867547 0.0094930117         3564 
 1632000   0.58826079   -8.9142332    212.55654  0.010853581  0.009483197         3550 
 1633000   0.59079862   -8.8830587    212.99112  0.010869112 0.0094734047         3566 
 1634000   0.60649706   -8.9037701    212.30223  0.010827327 0.0094636254         3509 
 1635000   0.60240943    -8.907327    212.59396  0.010835574 0.0094538563         3523 
 1636000   0.60441586    -8.921729    212.57395  0.010827932    0.0094441         3478 
 1637000   0.59458247   -8.9115978    212.50133   0.01081762 0.0094343424         3464 
 1638000    0.5998895   -8.9170626     212.6019  0.010816132 0.0094246077         3506 
 1639000   0.58578684    -8.912853    212.68449  0.010813732 0.0094148859         3549 
 1640000   0.60189244   -8.9055185    212.70964  0.010808417 0.0094051765         3498 
 1641000   0.59482648   -8.9298545    212.59129   0.01079582  0.009395482         3460 
 1642000   0.60847603   -8.9186901     212.8991  0.010804867 0.0093858106         3489 
 1643000   0.60819083    -8.911686    212.91534  0.010799114 0.0093761458         3493 
 1644000   0.60557465   -8.9310363    212.62681   0.01077792  0.009366504         3480 
 1645000    0.5985225   -8.9255382    212.79768  0.010780025 0.0093568626         3484 
 1646000   0.59958917   -8.9128245    212.73752  0.010770429 0.0093472401         3512 
 1647000   0.58667009   -8.9103278    212.67967  0.010760963 0.0093376254         3467 
 1648000   0.59330773   -8.9430705    212.37878  0.010739218 0.0093280184         3545 
 1649000   0.58783067    -8.926357    212.79869  0.010753926 0.0093184246         3515 
 1650000   0.59806952   -8.8857347    212.65809  0.010740307 0.0093088569         3462 
 1651000   0.60005181   -8.9089847     212.5156   0.01072661 0.0092992913         3465 
 1652000   0.60253294   -8.9072137    212.61607  0.010725185 0.0092897473         3509 
 1653000   0.59935284   -8.9326603    212.24522  0.010700001 0.0092802092         3501 
 1654000   0.58242045   -8.9203118    212.55881  0.010709332 0.0092706835         3535 
 1655000   0.59627812   -8.9232025    212.34939  0.010692316 0.0092611663         3541 
 1656000   0.58150805   -8.9192595    212.63102  0.010700031  0.009251661         3561 
 1657000   0.57963717   -8.9239231    212.46029  0.010684987 0.0092421662         3549 
 1658000   0.60489964   -8.9063694    212.42552  0.010676795 0.0092326949         3561 
 1659000    0.5918587   -8.9352306     212.3282  0.010665471 0.0092232417         3535 
 1660000    0.5890536   -8.9240313    212.48093  0.010666713 0.0092137945         3489 
 1661000   0.58967103   -8.9296851    212.28458   0.01065044 0.0092043592         3567 
 1662000   0.59374383   -8.9237047    212.35802  0.010647715 0.0091949365         3597 
 1663000   0.59943653   -8.9362532    212.37204  0.010642014 0.0091855158         3563 
 1664000   0.57175081   -8.9218907    212.04719  0.010619351 0.0091761147         3568 
 1665000   0.60717409   -8.9348773    212.43029  0.010632147 0.0091667257         3558 
 1666000   0.57837136   -8.9151372    212.56991  0.010632748  0.009157347         3557 
 1667000   0.59083021   -8.9237412    212.00397  0.010598079 0.0091479741         3567 
 1668000   0.59784402   -8.9212374    212.61357  0.010622181 0.0091386269         3591 
 1669000   0.58912349   -8.9295006    212.54607  0.010612446 0.0091292891         3566 
 1670000   0.57726849   -8.9447556    212.20116   0.01058888 0.0091199631         3605 
 1671000   0.58527762   -8.9275036    212.39273  0.010592097  0.009110657         3614 
 1672000   0.57891885   -8.9224929    212.44516  0.010588375 0.0091013553         3586 
 1673000   0.59494231   -8.9279157    212.55226  0.010587381 0.0090920715         3606 
 1674000   0.57816412   -8.9516473     212.2127  0.010564153 0.0090827919         3563 
 1675000   0.57621845   -8.9500745     212.5345  0.010573856 0.0090735255         3503 
 1676000   0.58519187   -8.9460793    212.05911   0.01054391 0.0090642686         3596 
 1677000   0.57234751   -8.9351053    212.44655  0.010556875 0.0090550263         3572 
 1678000   0.58410512   -8.9238822      212.198   0.01053824 0.0090457946         3604 
 1679000   0.58540629   -8.9349718    212.60969  0.010552397 0.0090365755         3581 
 1680000   0.58063815   -8.9544985     212.6117  0.010546215 0.0090273803         3606 
 1681000   0.59425881   -8.9422825    212.27753  0.010523375 0.0090181872         3541 
 1682000   0.60018064   -8.9368355    212.09006  0.010507831 0.0090090103         3582 
 1683000   0.59335785   -8.9411053    212.36054   0.01051498 0.0089998431         3589 
 1684000   0.58891661   -8.9369085    211.97674  0.010489743 0.0089906863         3547 
 1685000   0.58008747   -8.9466253    212.10369  0.010489797 0.0089815477         3515 
 1686000   0.56794919   -8.9386976    212.11966  0.010484364 0.0089724162         3566 
 1687000   0.58502165   -8.9501969    212.41407  0.010492692 0.0089632937         3561 
 1688000   0.59791005   -8.9444556    212.10183  0.010471062 0.0089541835         3617 
 1689000   0.57039233   -8.9500737    212.24776  0.010472062 0.0089450954         3581 
 1690000   0.57573686    -8.953663    212.30703  0.010468788 0.0089360117         3582 
 1691000   0.58155755   -8.9544612    212.10984   0.01045288 0.0089269459         3579 
 1692000    0.5628368   -8.9640563    212.08184  0.010445323 0.0089178807         3567 
 1693000   0.57053735    -8.955173    212.42439  0.010456014 0.0089088375         3598 
 1694000   0.56785513   -8.9676146    212.19336  0.010438477  0.008899805         3566 
 1695000   0.57933767    -8.962712    212.23896   0.01043456 0.0088907763         3609 
 1696000    0.5697153   -8.9637806    212.05995  0.010419613 0.0088817727         3632 
 1697000   0.58381544   -8.9666373    212.00213  0.010410633 0.0088727712         3581 
 1698000   0.57662136   -8.9666309    212.02766  0.010405755 0.0088637802         3570 
 1699000   0.57418172   -8.9609091    212.16007  0.010406125 0.0088548084         3557 
 1700000   0.57303533   -8.9797339    211.94427  0.010389425  0.008845847         3571 
 1701000   0.57422486   -8.9254315    212.21611  0.010396635 0.0088369017         3536 
 1702000   0.56620573   -8.9443896    212.16691  0.010388118 0.0088279694         3554 
 1703000   0.56668634   -8.9696796    212.35121  0.010391036 0.0088190494         3561 
 1704000   0.57589675   -8.9668608     211.9651  0.010366055 0.0088101328         3560 
 1705000   0.58080546   -8.9688865    211.76804  0.010350344  0.008801236         3588 
 1706000   0.57410164   -8.9695695    211.82971   0.01034729  0.008792349         3552 
 1707000   0.57658986   -8.9640882    211.95181  0.010347188 0.0087834641         3524 
 1708000    0.5625713   -8.9700557    211.76042  0.010331793 0.0087745953         3542 
 1709000   0.57108047   -8.9614152    212.21117  0.010347726 0.0087657351         3601 
 1710000   0.57005643   -8.9685642    211.90148  0.010326583 0.0087568868         3561 
 1711000   0.56237952   -8.9676824    211.66887  0.010309218 0.0087480507         3570 
 1712000   0.56934667    -8.956534     212.3085  0.010334331 0.0087392324         3561 
 1713000    0.5579225   -8.9519173    211.93242  0.010310003 0.0087304228         3625 
 1714000   0.55755606    -8.955798    212.03985  0.010309211 0.0087216244         3548 
 1715000   0.56703361   -8.9847141    211.95357  0.010299007 0.0087128447         3594 
 1716000    0.5726816   -8.9744065    211.66922  0.010279197 0.0087040771         3534 
 1717000   0.56623139   -8.9819008    212.00088  0.010289307 0.0086953202         3564 
 1718000   0.56748443   -8.9802864     211.7054  0.010268985 0.0086865684         3558 
 1719000   0.57739027   -8.9608808    212.18086   0.01028606  0.008677834         3576 
 1720000   0.58740136   -8.9790853    211.93491  0.010268164 0.0086691122         3573 
 1721000   0.56743509   -8.9567141    212.16824  0.010273496 0.0086604004         3561 
 1722000   0.55171676   -8.9604369    211.66386  0.010243121 0.0086516975         3558 
 1723000   0.56291015   -8.9569006     211.4773  0.010228153 0.0086430119         3550 
 1724000   0.56531564   -8.9622515    211.84977  0.010240225  0.008634337         3576 
 1725000   0.55782058   -8.9590401     212.2784  0.010254995 0.0086256691         3540 
 1726000   0.56720618   -8.9730839    211.66658  0.010219514 0.0086170089         3551 
 1727000   0.57552251   -8.9563852    211.69236  0.010214841 0.0086083676         3591 
 1728000   0.56744399   -8.9759961    212.02321  0.010224885 0.0085997361         3557 
 1729000   0.57373888   -8.9830802    211.67026   0.01020196 0.0085911188         3582 
 1730000   0.56311819   -8.9646044    211.65155  0.010195162 0.0085825139         3574 
 1731000   0.55788232   -8.9723376     211.9075  0.010201594 0.0085739246         3571 
 1732000   0.55311964   -8.9605342    211.73386  0.010187349 0.0085653441         3617 
 1733000   0.55691063   -8.9628782    211.82224   0.01018572 0.0085567761         3588 
 1734000   0.55436372   -8.9744818    211.63304  0.010170754 0.0085482158         3615 
 1735000   0.56359347   -8.9753788    212.00864  0.010182932 0.0085396756         3590 
 1736000   0.56025464   -8.9754953     211.6968  0.010162097 0.0085311348         3604 
 1737000   0.55977979   -8.9821789    211.63103  0.010153091 0.0085226068         3585 
 1738000   0.55293191   -8.9683981    211.78568  0.010154664 0.0085140851         3603 
 1739000   0.53411013   -8.9878621    211.89418  0.010154025 0.0085055741         3537 
 1740000   0.55600847   -8.9780718    211.86027  0.010146564 0.0084970736         3607 
 1741000   0.56048993   -8.9827349    212.14483  0.010154357 0.0084885912         3574 
 1742000   0.55496918   -8.9711663     211.9621  0.010139787 0.0084801118         3592 
 1743000   0.56250186   -8.9766777    212.18551   0.01014465 0.0084716566         3602 
 1744000   0.54691399   -8.9955798    211.41395  0.010101966 0.0084632044         3543 
 1745000   0.56233595   -8.9863825    211.71111  0.010110368  0.008454764         3622 
 1746000   0.56913355   -8.9722978    211.87227   0.01011227  0.008446334         3567 
 1747000   0.56190057   -8.9783815    211.61809  0.010094357 0.0084379196         3593 
 1748000   0.54803634   -8.9837717    211.88743  0.010101422 0.0084295131         3559 
 1749000   0.55418137   -8.9752986    211.64938  0.010084304 0.0084211165         3581 
 1750000   0.56265092   -8.9818561    211.73028  0.010082394 0.0084127305         3613 
 1751000   0.54951727   -8.9999282    211.50352  0.010065844 0.0084043505         3614 
 1752000   0.55306163   -8.9854043    211.46985  0.010058497 0.0083959869         3592 
 1753000   0.53797569   -8.9883854     211.7215  0.010064722 0.0083876347         3603 
 1754000   0.55023002   -8.9940089    211.74727  0.010060209 0.0083792985         3583 
 1755000   0.55853318   -8.9786237    211.69384  0.010051939 0.0083709683         3556 
 1756000   0.54809077   -8.9968563    211.17909  0.010021787 0.0083626478         3657 
 1757000   0.55753579   -9.0067835    211.83091  0.010046998 0.0083543412         3579 
 1758000   0.55113273   -9.0004039    211.69438  0.010034811 0.0083460456         3596 
 1759000   0.55312766   -8.9960192       211.95  0.010041216 0.0083377583         3560 
 1760000   0.54210178   -8.9847138    211.58352  0.010018159 0.0083294811         3570 
 1761000   0.55560101   -9.0043447    211.70352  0.010018149 0.0083212178         3598 
 1762000   0.54967161   -9.0285485    212.00056  0.010026511  0.008312958         3553 
 1763000   0.54742679   -8.9989477    211.68696  0.010006001 0.0083047238         3621 
 1764000    0.5469331   -8.9846604    211.73013  0.010002368 0.0082964961         3572 
 1765000       0.5446   -9.0044288    211.79092 0.0099995714 0.0082882713         3589 
 1766000   0.54719481   -8.9972654    211.78826 0.0099937834 0.0082800621         3551 
 1767000   0.54660014   -8.9960509    211.41957 0.0099707398 0.0082718621         3624 
 1768000   0.53818006   -8.9948877    211.50408 0.0099690838 0.0082636774         3597 
 1769000   0.54432722    -8.989865    211.39553 0.0099583346 0.0082554936         3608 
 1770000   0.54491129   -9.0190806    211.36667 0.0099513499 0.0082473217         3543 
 1771000   0.54970667   -9.0008865     211.6312  0.009958178 0.0082391661         3570 
 1772000   0.54031247    -9.013788    211.51376 0.0099470353 0.0082310155         3568 
 1773000   0.55148681   -9.0129313    211.83112 0.0099563412  0.008222875         3583 
 1774000   0.55167658   -8.9996048    211.72246 0.0099456246 0.0082147507         3563 
 1775000   0.55196519   -9.0115734    211.51678 0.0099303652 0.0082066387         3604 
 1776000   0.54392434   -9.0197502    211.75071 0.0099357502 0.0081985386         3568 
 1777000   0.54191856   -9.0004101    211.75308 0.0099302703  0.008190437         3588 
 1778000   0.54450988   -9.0141871    211.97318  0.009935001 0.0081823515         3603 
 1779000   0.53477205   -9.0053916    211.79633  0.009921132 0.0081742729         3654 
 1780000   0.52918238   -9.0108955    211.50007 0.0099016886 0.0081662036         3576 
 1781000   0.54833341   -9.0183192    211.22959 0.0098834732 0.0081581479         3566 
 1782000   0.53692213   -9.0264809    211.52436 0.0098917113 0.0081501094         3594 
 1783000   0.54169677   -9.0198929    211.54255 0.0098870137 0.0081420812         3616 
 1784000   0.54056749   -8.9924637    212.21807 0.0099130263 0.0081340668         3618 
 1785000   0.54679443   -8.9993099     211.6421 0.0098805837 0.0081260591         3612 
 1786000    0.5441323    -9.032463    211.87639 0.0098859831 0.0081180602         3589 
 1787000   0.53562363   -8.9954732    211.66969  0.009870812 0.0081100751         3591 
 1788000   0.54619545   -9.0384348    211.25913 0.0098461565 0.0081020983         3570 
 1789000   0.53583048   -9.0139349    211.43265 0.0098487353 0.0080941352         3578 
 1790000   0.54672918   -9.0043156    211.74265 0.0098576652 0.0080861807         3586 
 1791000    0.5383597   -9.0166596    210.90506 0.0098131889  0.008078234         3598 
 1792000   0.54471887   -9.0137815    211.59735 0.0098399067 0.0080703024         3597 
 1793000   0.52877459    -9.016847     212.0008 0.0098531698 0.0080623804         3578 
 1794000   0.54107225   -9.0144964    211.52003  0.009825345 0.0080544641         3592 
 1795000   0.54398553   -9.0187464     211.6313 0.0098250373 0.0080465591         3554 
 1796000   0.53789827    -9.021713    211.62606 0.0098193233 0.0080386651         3599 
 1797000   0.53147753   -9.0357431    211.25432 0.0097966205 0.0080307833         3616 
 1798000   0.53301984    -9.032477    211.40233 0.0097980315 0.0080229047         3630 
 1799000   0.53580613   -9.0272258    211.50855 0.0097975054 0.0080150344         3609 
 1800000   0.54051089   -9.0268815    211.48333 0.0097908948 0.0080071867         3613 
 1801000    0.5372045   -9.0110702    211.73003 0.0097968736 0.0079993491         3545 
 1802000   0.52918559   -8.9987217    211.72672 0.0097912838 0.0079915203         3598 
 1803000   0.53475973   -9.0150728    211.63522 0.0097816241   0.00798369         3577 
 1804000     0.528593   -9.0264058    211.37594 0.0097642247 0.0079758775         3580 
 1805000   0.53410974   -9.0220552    211.36386 0.0097582574 0.0079680755         3592 
 1806000   0.54125225   -9.0194304    210.85111  0.009729195  0.007960289         3609 
 1807000   0.52424944   -9.0164986    211.31919  0.009745397 0.0079525143         3582 
 1808000   0.53292309   -9.0393977    211.15794 0.0097325747 0.0079447441         3597 
 1809000   0.52586933   -9.0228045    211.54148 0.0097448629 0.0079369861         3566 
 1810000    0.5247687   -9.0237595    211.07499 0.0097180014 0.0079292324         3577 
 1811000   0.53752745   -9.0332855    211.40725 0.0097279244 0.0079214959         3608 
 1812000     0.540163   -9.0367541    211.37589 0.0097211136 0.0079137679         3562 
 1813000   0.52750335    -9.018573    211.49801 0.0097213647 0.0079060485         3543 
 1814000   0.53535257   -9.0335938    211.34342  0.009708904 0.0078983387         3616 
 1815000   0.52934902    -9.020933    211.26813 0.0097000976 0.0078906402         3587 
 1816000   0.53505063   -9.0187543    211.47225 0.0097041232 0.0078829524         3593 
 1817000   0.53984476   -9.0164713    211.25776 0.0096889452 0.0078752729         3598 
 1818000   0.52875552     -9.02268    211.27164  0.009684252 0.0078676051         3556 
 1819000   0.52089573   -9.0247351    211.01659 0.0096672432 0.0078599494         3543 
 1820000    0.5279645   -9.0263395    211.35372 0.0096773684 0.0078522999         3603 
 1821000    0.5153095   -9.0261427    211.61469 0.0096839964 0.0078446581         3610 
 1822000   0.51912433   -9.0277895    211.06149 0.0096533795 0.0078370319         3582 
 1823000   0.52133808   -9.0482392    211.25334 0.0096568539 0.0078294177         3578 
 1824000   0.51933995   -9.0454392    211.20264 0.0096492433 0.0078218114         3584 
 1825000   0.52797453   -9.0388708    211.37293 0.0096517318 0.0078142113         3598 
 1826000   0.53758893   -9.0415404    211.24548 0.0096406298 0.0078066175         3576 
 1827000   0.52711778   -9.0275438    210.97679 0.0096230977 0.0077990418         3568 
 1828000   0.51414386   -9.0434057    211.10586 0.0096237173   0.00779147         3649 
 1829000   0.51838445    -9.025551    211.49372 0.0096361272 0.0077839118         3619 
 1830000   0.51779077   -9.0375669     211.0695 0.0096115438 0.0077763687         3569 
 1831000   0.52559781   -9.0362594    211.72547 0.0096361493 0.0077688296         3617 
 1832000   0.52322338   -9.0304163    211.11147 0.0096029597 0.0077612984         3642 
 1833000   0.51904598   -9.0306444    211.40117 0.0096108913 0.0077537756         3590 
 1834000   0.52395173   -9.0411731    211.29054 0.0096006242 0.0077462647         3632 
 1835000   0.51253169   -9.0404866     211.1433 0.0095887057 0.0077387645         3588 
 1836000   0.52741649   -9.0435664    211.15303 0.0095839246 0.0077312749         3583 
 1837000   0.51005226   -9.0472355    211.30242 0.0095854844 0.0077237954         3614 
 1838000   0.52378375   -9.0598073    211.16471 0.0095740254  0.007716323         3572 
 1839000   0.51801313   -9.0418079    211.31578 0.0095756654 0.0077088605         3589 
 1840000   0.50403661   -9.0296842    211.37138 0.0095729794 0.0077014081         3602 
 1841000    0.5292908    -9.043487    211.08021 0.0095545992 0.0076939658         3605 
 1842000     0.519668   -9.0438674    211.18416 0.0095541152 0.0076865322         3621 
 1843000   0.52661792   -9.0375419    210.89848 0.0095360137 0.0076791147         3586 
 1844000   0.50849267    -9.048898    211.07948 0.0095390222  0.007671698         3564 
 1845000    0.5033733   -9.0545377    210.78746  0.009520662 0.0076642981         3604 
 1846000   0.52201056   -9.0441087    211.33232 0.0095401009 0.0076569063         3576 
 1847000   0.51184273   -9.0506414    211.34132 0.0095353419 0.0076495241         3591 
 1848000   0.50211508   -9.0559544    210.76893 0.0095043708 0.0076421439         3633 
 1849000    0.5247501   -9.0429123    210.71558 0.0094968261 0.0076347802         3530 
 1850000   0.52953932    -9.043684    211.07358  0.009507819 0.0076274291         3599 
 1851000   0.51810373   -9.0464069    211.21818 0.0095091922  0.007620091         3575 
 1852000   0.50999798   -9.0622559    211.20976 0.0095036791 0.0076127578         3622 
 1853000   0.51746317   -9.0534084    211.09353 0.0094933232  0.007605428         3591 
 1854000   0.50571142   -9.0547275    211.17254 0.0094917537 0.0075981113         3609 
 1855000   0.51223969   -9.0297462    211.25377  0.009490286 0.0075908061         3625 
 1856000   0.50402578    -9.048698    211.23156 0.0094841756  0.007583512         3657 
 1857000     0.512687   -9.0718736    211.31686 0.0094828962 0.0075762224         3576 
 1858000   0.51202521   -9.0679117    210.96969 0.0094622214 0.0075689435         3556 
 1859000    0.5154454   -9.0554319    211.22714 0.0094686724 0.0075616699         3630 
 1860000   0.50897414   -9.0572883    211.11877 0.0094587261 0.0075544011         3556 
 1861000   0.50601338   -9.0494545    211.32984 0.0094630953 0.0075471494         3572 
 1862000   0.51301282   -9.0551981    210.98085 0.0094423939 0.0075399045         3586 
 1863000   0.50110577   -9.0604182    211.08518 0.0094419924 0.0075326737         3585 
 1864000   0.50347463   -9.0537958    211.05562 0.0094356054 0.0075254507         3638 
 1865000   0.50045041   -9.0427425    211.10291 0.0094326589 0.0075182415         3606 
 1866000   0.50273164   -9.0572792     210.9646 0.0094214274 0.0075110355         3592 
 1867000   0.50953517   -9.0664691    210.76474 0.0094074604 0.0075038329         3621 
 1868000   0.50716979   -9.0406415     211.2536 0.0094242326 0.0074966461         3614 
 1869000   0.52356837   -9.0637285    210.95768  0.009405996 0.0074894677         3598 
 1870000   0.50961105   -9.0437733     211.0922 0.0094069609 0.0074823026         3542 
 1871000   0.50275989   -9.0506508    211.40785  0.009415992 0.0074751473         3591 
 1872000   0.49706385   -9.0438886    211.29925 0.0094061277 0.0074679985         3608 
 1873000   0.49488318   -9.0563775    211.17214 0.0093954502 0.0074608514         3619 
 1874000   0.50491718   -9.0496602    211.44274 0.0094024698 0.0074537191         3621 
 1875000   0.50862012   -9.0708288    210.98932 0.0093773033 0.0074466055         3631 
 1876000   0.50762791   -9.0557071    211.16919 0.0093802943 0.0074394929         3604 
 1877000   0.50986621   -9.0883963    210.91573 0.0093640442 0.0074323884         3598 
 1878000    0.4987261   -9.0620288    210.97511 0.0093616927  0.007425293         3616 
 1879000   0.50590924   -9.0801443    211.18987  0.009366235 0.0074182023         3609 
 1880000   0.49478131   -9.0639596    211.21703 0.0093624571 0.0074111264         3622 
 1881000   0.50676819   -9.0686634     211.1692 0.0093553608 0.0074040624         3563 
 1882000   0.50354923   -9.0793816    210.99845 0.0093428291 0.0073970066         3664 
 1883000   0.51412833   -9.0644731     211.0619 0.0093406754 0.0073899623         3628 
 1884000   0.50182887   -9.0764369    210.91801 0.0093293529 0.0073829299         3590 
 1885000   0.51079758   -9.0853058    210.98154 0.0093272124 0.0073758989         3601 
 1886000   0.50062379   -9.0789746    210.96721 0.0093216335 0.0073688831         3630 
 1887000   0.49079448    -9.062356    210.81802 0.0093101049 0.0073618766         3593 
 1888000    0.5044494   -9.0781053     211.1612 0.0093203213 0.0073548727         3579 
 1889000   0.49518755   -9.0758557    210.85054 0.0093016824 0.0073478806         3643 
 1890000    0.5005377   -9.0879039    210.77837  0.009293579 0.0073408956         3591 
 1891000   0.49746042   -9.0683088    210.82285 0.0092906246 0.0073339249         3588 
 1892000   0.49667074   -9.0440333     210.7708 0.0092834215 0.0073269691         3563 
 1893000   0.48568833   -9.0668875    211.03553 0.0092901714 0.0073200127         3582 
 1894000   0.51135414   -9.0858332    210.76827 0.0092735072 0.0073130626         3637 
 1895000   0.49498981   -9.0642488    211.14073 0.0092849927 0.0073061243         3586 
 1896000   0.49937393   -9.0793892    210.93483 0.0092710457 0.0072991915         3612 
 1897000   0.48797721   -9.0764419    211.14468 0.0092753768 0.0072922705         3537 
 1898000   0.49350062    -9.055955    210.95141 0.0092620044 0.0072853579         3596 
 1899000   0.50080373   -9.0849646    210.74434 0.0092480404  0.007278452         3630 
 1900000   0.49809829   -9.0709931    210.62714 0.0092380325 0.0072715565         3609 
 1901000   0.49093822    -9.076011    210.75148 0.0092386237 0.0072646754         3635 
 1902000   0.49323671   -9.0945426     210.7439 0.0092334342 0.0072577963         3620 
 1903000   0.49580599   -9.0781931     210.9264 0.0092365738 0.0072509283         3594 
 1904000    0.4916895   -9.0682651    211.07564 0.0092382546 0.0072440695         3586 
 1905000   0.49467875   -9.0689764    210.79185  0.009220991 0.0072372143         3589 
 1906000   0.48940139   -9.0798671    210.91097 0.0092213612 0.0072303666         3614 
 1907000   0.49145435   -9.0844649    210.95985 0.0092186617 0.0072235317         3614 
 1908000   0.48760727    -9.082088    211.03949 0.0092173082 0.0072167073         3603 
 1909000   0.49762736    -9.081966    210.73655 0.0091992557   0.00720989         3633 
 1910000   0.48984653    -9.083519     210.7833 0.0091964789 0.0072030757         3641 
 1911000   0.48602535   -9.0731541    210.61233 0.0091842113 0.0071962768         3593 
 1912000   0.48331242   -9.0718402    210.91777 0.0091927201 0.0071894833         3528 
 1913000   0.48462183   -9.0703606    210.61563 0.0091747531 0.0071826986         3602 
 1914000   0.49352825   -9.0792277    210.81584 0.0091786766 0.0071759235         3569 
 1915000   0.49432586   -9.0811409    211.07172 0.0091850183 0.0071691567         3543 
 1916000   0.48948378    -9.085288    210.88588 0.0091721416 0.0071623905         3629 
 1917000   0.48937737    -9.088534    210.69179 0.0091589197 0.0071556452         3626 
 1918000   0.47650454   -9.0869324    210.93338  0.009164641 0.0071489024         3604 
 1919000   0.48657486    -9.082527    210.99437 0.0091625139 0.0071421731         3554 
 1920000    0.4947824    -9.087569    210.66404 0.0091434047 0.0071354505         3587 
 1921000   0.48727583   -9.0994415    210.61434 0.0091364886 0.0071287372         3590 
 1922000   0.48545762   -9.0976421    210.37797 0.0091214866 0.0071220298         3565 
 1923000   0.48403277   -9.0969127    210.57784 0.0091254049 0.0071153284         3599 
 1924000   0.47738236   -9.0941764    210.60274 0.0091217403 0.0071086386         3576 
 1925000   0.47560421   -9.1040775    210.35277 0.0091061804 0.0071019556         3615 
 1926000   0.48634237   -9.0855888    210.87119 0.0091238833 0.0070952836         3601 
 1927000   0.48813934   -9.0938719    210.61239 0.0091079567 0.0070886178         3632 
 1928000   0.48327363   -9.0810333    210.70386  0.009107186 0.0070819582         3612 
 1929000   0.49096326   -9.0784647    210.46117 0.0090919807 0.0070753082         3625 
 1930000   0.47334302    -9.082202    210.41808 0.0090854094 0.0070686661         3545 
 1931000   0.48391855   -9.0862192    210.85415 0.0090995231 0.0070620357         3596 
 1932000   0.47753405   -9.0748786    210.77037 0.0090911997 0.0070554143         3607 
 1933000   0.48069096   -9.0951057    210.53351 0.0090762851 0.0070488041         3601 
 1934000    0.4778773   -9.0911254    210.58693 0.0090738941 0.0070421916         3609 
 1935000     0.480682   -9.0936915    210.71832 0.0090748631 0.0070355948         3611 
 1936000   0.47865529   -9.0978394     210.5188 0.0090615875 0.0070290046         3603 
 1937000   0.47375141   -9.0971172     210.5897 0.0090599594 0.0070224287         3610 
 1938000   0.47576607   -9.0908828    210.58966 0.0090552829 0.0070158593         3599 
 1939000   0.48923552   -9.0877823    210.54177 0.0090485546 0.0070092964         3620 
 1940000     0.483069   -9.1041119    210.75777 0.0090531689 0.0070027402         3655 
 1941000   0.47885978   -9.1164014    210.32916 0.0090301029  0.006996191         3642 
 1942000   0.47336109   -9.0951003    210.34293  0.009026044 0.0069896557         3622 
 1943000   0.48623832   -9.0858877    210.67102 0.0090354701 0.0069831257         3618 
 1944000   0.48207133   -9.1057033    210.15343 0.0090086348 0.0069766055         3667 
 1945000   0.47289308   -9.1071263    210.42217 0.0090155173 0.0069700959         3616 
 1946000   0.47240376   -9.0956438    210.51676 0.0090149351  0.006963584         3626 
 1947000   0.47823893   -9.1034722    210.48523  0.009008955 0.0069570834         3614 
 1948000   0.46460195   -9.1038865    210.46784 0.0090035867 0.0069505931         3638 
 1949000   0.47595282   -9.1082169    210.51377 0.0090009308 0.0069441107         3603 
 1950000   0.47575342   -9.1133012    210.26391 0.0089856371 0.0069376341         3617 
 1951000   0.47458996   -9.1085174    210.38964  0.008986402 0.0069311728         3617 
 1952000   0.47018491   -9.1066831    210.47034 0.0089852431 0.0069247134         3632 
 1953000   0.47237919   -9.1177193    210.66481 0.0089889406 0.0069182635         3597 
 1954000   0.47136826   -9.0984145    210.56766 0.0089801972 0.0069118239         3610 
 1955000   0.46143636   -9.1057826    210.89676 0.0089896317 0.0069053851         3572 
 1956000   0.47047622   -9.1199913    210.55565 0.0089705032 0.0068989587         3615 
 1957000   0.47809868   -9.1115784    210.53105  0.008964872 0.0068925409         3596 
 1958000   0.47160668   -9.1205251    210.75406 0.0089697846   0.00688613         3607 
 1959000   0.47769402   -9.1283898    210.64656  0.008960633 0.0068797299         3619 
 1960000    0.4747748   -9.1006439    210.60116 0.0089541311  0.006873338         3638 
 1961000   0.46963192   -9.1199665    210.53669  0.008946825 0.0068669551         3600 
 1962000   0.47125879    -9.115194    210.57764 0.0089440043 0.0068605781         3634 
 1963000   0.47526681   -9.1115849    210.54209 0.0089379388  0.006854213         3603 
 1964000   0.46303805   -9.1252161    210.25275 0.0089211114 0.0068478542         3605 
 1965000   0.46759923   -9.1122923    210.66894 0.0089342215 0.0068414952         3625 
 1966000   0.47320949   -9.0948823    210.26937 0.0089127401  0.006835153         3594 
 1967000   0.47587524   -9.1182387    210.32344 0.0089104998 0.0068288183         3636 
 1968000   0.47767112   -9.1092073    210.30039 0.0089049961 0.0068224896         3603 
 1969000   0.46206112   -9.1111002    210.52105 0.0089098124 0.0068161666         3628 
 1970000   0.47337618   -9.1239734    210.42955 0.0089014191 0.0068098551         3619 
 1971000   0.46365702    -9.121605    210.43298 0.0088970479 0.0068035524         3597 
 1972000   0.46734793   -9.1310465    210.24496 0.0088845908 0.0067972509         3655 
 1973000   0.46395312   -9.1143801    210.61201 0.0088955907 0.0067909653         3609 
 1974000    0.4608981   -9.1144866     210.6711 0.0088935792 0.0067846862         3619 
 1975000   0.47337244   -9.1186362    210.37649 0.0088766452  0.006778414         3599 
 1976000   0.46139684   -9.1155064    210.43531 0.0088746334 0.0067721498         3611 
 1977000   0.46984504    -9.127526    210.42339  0.008869642 0.0067658919         3671 
 1978000   0.46025314   -9.1173028    210.74028 0.0088785087 0.0067596424         3655 
 1979000   0.46958508   -9.1178728    210.28238 0.0088547404 0.0067533955         3610 
 1980000   0.45613588   -9.1107239    210.11525 0.0088432343 0.0067471571         3648 
 1981000   0.46995885   -9.1146793    210.34889  0.008848599   0.00674093         3585 
 1982000   0.46951315   -9.1298232    210.27824  0.008841164 0.0067347122         3615 
 1983000   0.46485902   -9.1224166    210.33064 0.0088389076  0.006728503         3629 
 1984000   0.45777687   -9.1202209    210.33118  0.008834475 0.0067222969         3653 
 1985000   0.45225203    -9.120396    210.11074 0.0088207698 0.0067161015         3615 
 1986000   0.45674464   -9.1259966    210.30843 0.0088246238 0.0067099172         3625 
 1987000   0.46241964    -9.133961    210.15566 0.0088137755 0.0067037358         3611 
 1988000   0.46005433   -9.1258199    209.97494 0.0088017665  0.006697564         3580 
 1989000    0.4629488   -9.1320955    210.24574 0.0088086869 0.0066913953         3610 
 1990000   0.46821857   -9.1331864    210.44043 0.0088124134 0.0066852401         3606 
 1991000    0.4570728    -9.127268    210.38679 0.0088057422  0.006679091         3613 
 1992000   0.45100891   -9.1183735    210.31187 0.0087981872 0.0066729494         3641 
 1993000   0.45441942   -9.1254783    210.45219   0.00879964  0.006666819         3556 
 1994000   0.45756975   -9.1350036    210.04433 0.0087781814 0.0066606919         3606 
 1995000   0.45754801   -9.1256016    210.22397 0.0087812851 0.0066545698         3569 
 1996000   0.44479078   -9.1313729     210.1328 0.0087730795  0.006648456         3630 
 1997000    0.4510691   -9.1245518    210.23854 0.0087730989 0.0066423506         3610 
 1998000    0.4496786   -9.1363196    210.14064 0.0087646245 0.0066362519         3616 
 1999000   0.45183513   -9.1349708    210.12228 0.0087594747 0.0066301625         3615 
 2000000   0.45682261   -9.1462841     210.0443 0.0087518456 0.0066240769         3623 
 2001000   0.44904815   -9.1344776     210.1135 0.0087503539 0.0066180007         3611 
 2002000   0.46300691   -9.1390213    210.17223 0.0087484278 0.0066119313         3620 
 2003000   0.45662874   -9.1247359    210.29494 0.0087491655 0.0066058715         3556 
 2004000   0.46705874   -9.1393972    210.35695  0.008747378 0.0065998215         3612 
 2005000   0.45955666   -9.1415959    210.26622 0.0087392443   0.00659378         3631 
 2006000   0.44726942   -9.1490483    209.70816 0.0087117049 0.0065877372         3645 
 2007000   0.45498759   -9.1370763    210.08941  0.008723194 0.0065817022         3607 
 2008000   0.45029995   -9.1330963    210.10309 0.0087194178 0.0065756793         3589 
 2009000   0.45410243   -9.1483487    210.13159 0.0087162597 0.0065696589         3612 
 2010000   0.45554405   -9.1580163    210.26006 0.0087172494 0.0065636548         3598 
 2011000   0.45105605   -9.1432519    210.55828 0.0087252728 0.0065576571         3593 
 2012000   0.45023655   -9.1447748     210.2741 0.0087091658 0.0065516662         3657 
Loop time of 5279.7 on 48 procs for 2000000 steps with 4000 atoms

Performance: 65458.226 tau/day, 378.809 timesteps/s
99.4% CPU use with 48 MPI tasks x no OpenMP threads

MPI task timing breakdown:
Section |  min time  |  avg time  |  max time  |%varavg| %total
---------------------------------------------------------------
Pair    | 399.09     | 431.02     | 473.97     |  84.2 |  8.16
Neigh   | 37.414     | 38.579     | 40.251     |  10.5 |  0.73
Comm    | 323.73     | 373.53     | 405.41     |  91.1 |  7.07
Output  | 5.934      | 5.9364     | 5.9866     |   0.3 |  0.11
Modify  | 4369.3     | 4381.5     | 4393.7     |   9.7 | 82.99
Other   |            | 49.1       |            |       |  0.93

Nlocal:        83.3333 ave          88 max          79 min
Histogram: 5 3 6 4 5 9 8 1 2 5
Nghost:        2449.04 ave        2470 max        2437 min
Histogram: 7 9 3 9 7 7 2 1 1 2
Neighs:        17003.4 ave       19972 max       14642 min
Histogram: 4 4 7 5 7 8 7 2 2 2
FullNghs:      34006.3 ave       36593 max       31760 min
Histogram: 5 6 2 6 5 10 5 4 2 3

Total # of neighbors = 1632304
Ave neighs/atom = 408.07600
Neighbor list builds = 106430
Dangerous builds = 0

#clear
#
#next RN
#
#jump SELF
Total wall time: 1:28:03
