
units lj                  # Use reduced LJ style units
atom_style atomic         # Uncharged point particles
atom_modify map hash      # Needed for indexing of clusters etc
                          # Used to be able to find where atoms are in relation to each other.

lattice fcc 1.0 spacing 1 1 1
Lattice spacing in x,y,z = 1.5874011 1.5874011 1.5874011
region box block 0 10 0 10 0 10 units lattice
create_box 2 box
Created orthogonal box = (0.0000000 0.0000000 0.0000000) to (15.874011 15.874011 15.874011)
  3 by 4 by 4 MPI processor grid
create_atoms 1 box
Created 4000 atoms
  using lattice units in orthogonal box = (0.0000000 0.0000000 0.0000000) to (15.874011 15.874011 15.874011)
  create_atoms CPU = 0.003 seconds
set type 1 type/fraction 2 0.92 78393
Setting atom values ...
  3673 settings made for type/fraction
mass 1 1.0
mass 2 1.0
pair_style lj/cut  3.5
pair_modify tail  yes
pair_coeff 1  1  1.0  1.0   # Intearaction between 1 and 1 set with epsilon = 1 and sigma = 1
pair_coeff 1  2  1.5  0.8
pair_coeff 2  2  0.5  0.88

write_data data.0
System init for write_data ...
Neighbor list info ...
  update every 1 steps, delay 10 steps, check yes
  max neighbors/atom: 2000, page size: 100000
  master list distance cutoff = 3.8
  ghost atom cutoff = 3.8
  binsize = 1.9, bins = 9 9 9
  1 neighbor lists, perpetual/occasional/extra = 1 0 0
  (1) pair lj/cut, perpetual
      attributes: half, newton on
      pair build: half/bin/atomonly/newton
      stencil: half/bin/3d
      bin: standard
WARNING: Not all mixed pair coeffs generated from mixing. Use write_data with 'pair ij' option to store all pair coeffs. (../write_data.cpp:312)


#############################
#   M E L T   S Y S T E M   #
#############################

velocity all create 2.4 9622624 mom yes dist gaussian # Assign velocities
                                                    # Temperature 2.4, random number seed, zero linear momentum
                                                                                # Gaussian distribution

timestep 0.002   # simulation timestep
thermo 1000       # output thermodynamic data every 1000 steps bf 100

# Define a fix  in this case with index 1 applied to all
# particles in the simulation. This fix is for simulations
# in the anisotropic NPT ensemble. Note that we use the MTK
# correction.
fix 1 all npt temp 2.4 2.4 0.1 iso 5.68 5.68 0.5 mtk yes tchain 5 pchain 5 # Use NPT ensemble
                                                                         # Set temperature and pressure and damping
                                                                         # Numbers of thermostats in chain and in barostat
run 10000          # run for 10000 steps
Per MPI rank memory allocation (min/avg/max) = 3.642 | 3.644 | 3.648 Mbytes
Step Temp E_pair E_mol TotEng Press Volume 
       0          2.4   -3.0929104            0   0.50618957   -2.4174795         4000 
    1000    2.3881671   -2.0960997            0    1.4852553    5.7839025    4010.5493 
    2000    2.4585936   -2.0551079            0    1.6318606    5.8077191     4045.646 
    3000    2.4255545    -2.072761            0    1.5646612    5.7318596    4044.4628 
    4000    2.4338841   -2.0984966            0    1.5514169    5.5200946    4061.9906 
    5000    2.3785961   -2.0617049            0    1.5052973    5.6525842     4072.135 
    6000    2.3752192   -2.0548876            0    1.5070504    5.9498169    4011.6984 
    7000     2.387306    -2.064835            0    1.5152287    5.7117379    4054.8967 
    8000     2.403934   -2.0861936            0     1.518806    5.6731726    4052.9767 
    9000    2.3825252   -2.0697021            0    1.5031922    5.8431583    4036.0882 
   10000    2.3838782   -2.0686234            0       1.5063    5.5971539    4060.4436 
Loop time of 2.51837 on 48 procs for 10000 steps with 4000 atoms

Performance: 686158.607 tau/day, 3970.825 timesteps/s
99.6% CPU use with 48 MPI tasks x no OpenMP threads

MPI task timing breakdown:
Section |  min time  |  avg time  |  max time  |%varavg| %total
---------------------------------------------------------------
Pair    | 1.0671     | 1.1398     | 1.3267     |   3.6 | 45.26
Neigh   | 0.20473    | 0.21573    | 0.24669    |   1.2 |  8.57
Comm    | 0.71857    | 0.87135    | 0.9857     |   5.7 | 34.60
Output  | 0.00024257 | 0.00024792 | 0.00031291 |   0.0 |  0.01
Modify  | 0.21003    | 0.27606    | 0.34051    |   8.2 | 10.96
Other   |            | 0.01518    |            |       |  0.60

Nlocal:        83.3333 ave          92 max          75 min
Histogram: 4 5 6 4 6 5 5 6 4 3
Nghost:        1616.88 ave        1649 max        1593 min
Histogram: 2 3 5 13 11 8 2 1 2 1
Neighs:        9400.21 ave       10825 max        8299 min
Histogram: 3 8 7 4 8 4 4 5 4 1

Total # of neighbors = 451210
Ave neighs/atom = 112.80250
Neighbor list builds = 912
Dangerous builds = 227

# Equilibrate just above the melting temperature to avoid step fn in T

fix 1 all npt temp 1.25 1.25 0.1 iso 5.68 5.68 0.5 mtk yes tchain 5 pchain 5
run 2000
Per MPI rank memory allocation (min/avg/max) = 3.643 | 3.645 | 3.649 Mbytes
Step Temp E_pair E_mol TotEng Press Volume 
   10000    2.3838782   -2.0686234            0       1.5063    5.5971539    4060.4436 
   11000    1.2525005   -3.1008612            0   -1.2225802    5.4487284    3178.1882 
   12000     1.262807   -3.1009179            0   -1.2071809    5.8710615    3136.8753 
Loop time of 0.620497 on 48 procs for 2000 steps with 4000 atoms

Performance: 556973.170 tau/day, 3223.224 timesteps/s
99.6% CPU use with 48 MPI tasks x no OpenMP threads

MPI task timing breakdown:
Section |  min time  |  avg time  |  max time  |%varavg| %total
---------------------------------------------------------------
Pair    | 0.26036    | 0.29009    | 0.35251    |   2.4 | 46.75
Neigh   | 0.039262   | 0.041879   | 0.049916   |   0.7 |  6.75
Comm    | 0.17216    | 0.23621    | 0.26557    |   2.8 | 38.07
Output  | 5.1695e-05 | 5.383e-05  | 6.964e-05  |   0.0 |  0.01
Modify  | 0.039699   | 0.047463   | 0.053532   |   1.9 |  7.65
Other   |            | 0.004798   |            |       |  0.77

Nlocal:        83.3333 ave          94 max          71 min
Histogram: 1 0 0 11 11 9 9 3 2 2
Nghost:        1936.12 ave        1959 max        1909 min
Histogram: 2 1 2 5 6 14 7 5 3 3
Neighs:        12161.5 ave       14239 max       10862 min
Histogram: 4 7 6 12 6 6 3 1 1 2

Total # of neighbors = 583750
Ave neighs/atom = 145.93750
Neighbor list builds = 144
Dangerous builds = 15

#############################
# L I N E A R  Q U E N C H  #
#############################

# Define solid atoms. This closely follows ten Wolde  Ruiz-Montero and Frenkel  Faraday Discuss  1996  104  93-110
# Compute components of the per-atom q6 vector
compute q6 all orientorder/atom degrees 1 6 components 6 nnn NULL cutoff 1.3 # compute the Q6 parameter.
                                                                             # Use all neighbours within 1.3 unit cell.

# get number of connections
compute coord_number all coord/atom orientorder q6 0.5

# An atom is solid if it has 8 or more connections (of a possible 14)
variable is_solid atom c_coord_number>=8
group solid dynamic all var is_solid    # Must be dynamic to update
dynamic group solid defined

# do clustering
compute cluster solid cluster/atom 1.3 # Create a cluster where all atoms within are solid and max 1.3 units from another member

# define chunks one chunk per cluster
compute clus_chunks solid chunk/atom c_cluster nchunk every compress yes  # Says which atoms are in which chunk

# count the size of each chunk
compute size_chunks solid property/chunk clus_chunks count


# Find the maximum entry in the vector of chunk sizes
variable max_n equal max(c_size_chunks)


# Thermo style which includes this variable
# thermo_style custom step temp pe vol v_max_n

thermo ${N}  # Print the thermo information every 100 steps
thermo 1000  

# Reset the npt fix at a lower temperature (below freezing)
fix 1  all npt temp  ${temp} ${temp}  0.1  iso  5.68  5.68  0.5  mtk yes tchain  5  pchain  5
fix 1  all npt temp  0.45 ${temp}  0.1  iso  5.68  5.68  0.5  mtk yes tchain  5  pchain  5
fix 1  all npt temp  0.45 0.45  0.1  iso  5.68  5.68  0.5  mtk yes tchain  5  pchain  5

dump dmp2 all dcd ${N} traj.dcd
dump dmp2 all dcd 1000 traj.dcd


compute msd all msd com yes
variable twopoint equal c_msd[4]/6/(step*dt+1.0e-6)
fix 9 all vector 10 c_msd[4]
variable fit equal slope(f_9)/6/(10*dt)
thermo_style custom step temp pe c_msd[4] v_twopoint v_fit v_max_n

fix 1 all npt temp 1.25 ${temp} 0.1 iso 5.68 5.68 0.5 mtk yes tchain 5 pchain 5
fix 1 all npt temp 1.25 0.45 0.1 iso 5.68 5.68 0.5 mtk yes tchain 5 pchain 5
run 5000000 # 5000000  # Run for this many steps
Neighbor list info ...
  update every 1 steps, delay 10 steps, check yes
  max neighbors/atom: 2000, page size: 100000
  master list distance cutoff = 3.8
  ghost atom cutoff = 3.8
  binsize = 1.9, bins = 8 8 8
  4 neighbor lists, perpetual/occasional/extra = 1 3 0
  (1) pair lj/cut, perpetual
      attributes: half, newton on
      pair build: half/bin/atomonly/newton
      stencil: half/bin/3d
      bin: standard
  (2) compute orientorder/atom, occasional
      attributes: full, newton on
      pair build: full/bin/atomonly
      stencil: full/bin/3d
      bin: standard
  (3) compute coord/atom, occasional
      attributes: full, newton on
      pair build: full/bin/atomonly
      stencil: full/bin/3d
      bin: standard
  (4) compute cluster/atom, occasional
      attributes: full, newton on
      pair build: full/bin/atomonly
      stencil: full/bin/3d
      bin: standard
Per MPI rank memory allocation (min/avg/max) = 9.821 | 9.828 | 9.835 Mbytes
Step Temp PotEng c_msd[4] v_twopoint v_fit v_max_n 
   12000     1.262807   -3.1009179 8.4802547e-31 5.8890655e-33 8.3333333e+20            1 
   13000    1.2580039   -3.1052515    1.0475685 0.0067151821  0.089699972            2 
   14000    1.2563954   -3.1049373    2.1958614  0.013070603  0.092730275            1 
   15000    1.2561748   -3.1413035    3.3663825  0.018702124  0.094331823            1 
   16000    1.2521068   -3.0778004    4.5836656  0.023873257  0.096178691            1 
   17000    1.2505128    -3.110697    5.6869337  0.027877125   0.09704299            1 
   18000    1.2582795   -3.0991625     6.717711  0.031100513  0.095896503            1 
   19000    1.2573093   -3.1343263    7.8549283  0.034451439  0.094754255            2 
   20000    1.2302205   -3.1134156    9.0090279  0.037537615   0.09466919            2 
   21000    1.2426433   -3.1200166    10.231415  0.040600852  0.094936025            2 
   22000    1.2835709   -3.1095603    11.209532  0.042460348  0.094875145            2 
   23000    1.2318408    -3.117314    12.185748  0.044151261  0.094161257            1 
   24000    1.2374659   -3.1391855    13.183043  0.045774456  0.093106344            1 
   25000    1.2337082   -3.1512724    14.262999   0.04754333  0.092370051            2 
   26000    1.2534888   -3.1230331    15.423764   0.04943514  0.092022122            1 
   27000    1.2777684   -3.1061705    16.624468  0.051310085  0.091996993            1 
   28000    1.2512414   -3.1166022    17.975356  0.053498083  0.092245924            1 
   29000    1.2338691   -3.1054287    19.108875   0.05491056  0.092529932            2 
   30000    1.2540837   -3.1142061    20.363297  0.056564713  0.092956043            2 
   31000    1.2626097    -3.143731    21.400974    0.0575295  0.093307308            4 
   32000    1.2445985   -3.1335801    22.651435  0.058988111  0.093691001            2 
   33000    1.2576539    -3.112807    23.821139   0.06015439  0.094017248            1 
   34000    1.2482092   -3.0994858    25.021069  0.061326149  0.094233867            2 
   35000    1.2404954    -3.085313    26.053342  0.062031765   0.09442151            2 
   36000    1.3108111   -3.1294316    27.092905  0.062715057  0.094525967            3 
   37000    1.2304389   -3.1372031     28.24508  0.063615044  0.094538402            3 
   38000    1.2344349   -3.0995429     29.33213  0.064324845   0.09452516            2 
   39000    1.2513362   -3.1137722    30.295311   0.06473357  0.094396974            2 
   40000    1.2279545   -3.1219714    31.508173  0.065642025  0.094317773            2 
   41000    1.2416225   -3.1323547    32.551005  0.066160579  0.094215704            1 
   42000    1.2407676   -3.1185289    33.647953  0.066761812  0.094191182            1 
   43000    1.2647383   -3.1018028    34.965118  0.067761856  0.094151764            2 
   44000     1.255589   -3.1224583    35.874737  0.067944578  0.094108443            1 
   45000    1.2630764   -3.1150794    37.227975  0.068940693  0.094087753            1 
   46000    1.2540201   -3.0947675    38.060897    0.0689509  0.093985626            2 
   47000    1.2364941   -3.0944148     38.86244  0.068905034   0.09378026            5 
   48000     1.241089   -3.1643752    39.616714  0.068779017  0.093525388            2 
   49000    1.2501812    -3.098843    40.680265  0.069184123  0.093209772            2 
   50000     1.283923   -3.1382736    41.787165  0.069645274  0.092948115            1 
   51000      1.26379   -3.1379781    42.798882  0.069932813  0.092737213            2 
   52000    1.2554293   -3.1220023    44.047587  0.070589081  0.092549158            2 
   53000    1.2642508   -3.1186828      45.3559  0.071314307  0.092402998            1 
   54000    1.2237514   -3.0984808    46.801125  0.072223957   0.09233884            1 
   55000    1.2707024   -3.0927991    47.657537  0.072208389   0.09228465            1 
   56000    1.2284764   -3.0901582     48.69909  0.072468883  0.092198959            2 
   57000    1.2590177   -3.0957494     49.59219  0.072503201  0.092115487            1 
   58000    1.2676014   -3.0962106    50.821146  0.073018887  0.092022367            3 
   59000    1.2244661   -3.1046069      52.0377  0.073499576  0.091973386            2 
   60000    1.2492648   -3.1110511    53.220132   0.07391685  0.091952514            2 
   61000    1.2527381   -3.1138828    54.023976  0.073803246   0.09190748            1 
   62000     1.267295    -3.114381    54.869505  0.073749334  0.091820361            1 
   63000    1.2592021   -3.1423422    56.318219  0.074494998  0.091773457            1 
   64000    1.2308191   -3.1342134    57.232314  0.074521241  0.091710028            1 
   65000    1.2533621   -3.1248302    58.343362  0.074799182   0.09163986            2 
   66000    1.2469761   -3.1031765    59.470673  0.075089233  0.091574668            1 
   67000    1.2696446   -3.1344125    60.336406  0.075045281   0.09152115            2 
   68000    1.2279807   -3.1575035     61.39777  0.075242365  0.091442771            1 
   69000    1.2333729   -3.1368533    62.410123  0.075374544   0.09136858            1 
   70000     1.244161    -3.147818    63.270433  0.075321944  0.091302538            1 
   71000     1.242421   -3.1209763    64.485863  0.075687632  0.091239596            2 
   72000    1.2452862   -3.0981024    66.002093  0.076391311  0.091180609            3 
   73000    1.2468335   -3.1433061    67.054977  0.076546776  0.091157086            2 
   74000    1.2681694   -3.1446754    67.895174  0.076458529  0.091123643            2 
   75000    1.2485909   -3.1329966    69.305544  0.077006159  0.091074312            2 
   76000    1.2366182   -3.1105035    70.741557  0.077567497  0.091080396            2 
   77000    1.2243407   -3.1344324    72.189398  0.078127053  0.091114782            1 
   78000    1.2588828   -3.1063421    73.277599  0.078288033  0.091146217            3 
   79000    1.2385748   -3.1143197    74.871931  0.078978829  0.091225402            2 
   80000     1.235317   -3.1513618    75.704687  0.078859048  0.091313448            1 
   81000    1.2599006   -3.1529077    77.179309  0.079402581  0.091407202            2 
   82000    1.1943368    -3.143395    78.616099  0.079894409  0.091537471            2 
   83000    1.2568924   -3.1367453    79.867967  0.080188722  0.091677566            1 
   84000    1.2193964   -3.1370403    81.105316  0.080461622  0.091841391            3 
   85000    1.2235901   -3.1262225    82.755002  0.081132354  0.092010582            2 
   86000    1.2605931   -3.1452894    82.875648   0.08030586  0.092135759            1 
   87000    1.2482322   -3.1253074      84.0553  0.080512739  0.092231599            2 
   88000    1.2427588   -3.1119227    85.600516  0.081061095  0.092344917            2 
   89000    1.2321932   -3.1282651    86.355927  0.080857609   0.09243523            2 
   90000    1.2608385   -3.1668277    87.249413  0.080786493  0.092519111            1 
   91000    1.2594792   -3.1228601    88.711423  0.081237566  0.092576554            4 
   92000    1.2416739   -3.1146183     89.60333  0.081162436  0.092630507            2 
   93000    1.2602756    -3.126799      90.3259  0.080937186  0.092675085            1 
   94000    1.2245038   -3.1403197    92.008037  0.081567408  0.092737466            4 
   95000    1.2347195   -3.1009859     93.36009  0.081894815  0.092792417            3 
   96000    1.2307731   -3.1067971    94.131142  0.081711061  0.092842925            2 
   97000     1.247838   -3.1268294    95.012941  0.081626238  0.092864862            1 
   98000    1.2156986    -3.131723    95.481125  0.081191432  0.092852503            3 
   99000    1.2591517   -3.1373781    96.608214  0.081320045  0.092833893            2 
  100000     1.225939   -3.0951273    97.678573   0.08139881  0.092822843            1 
  101000    1.2097366   -3.1133139    98.612072  0.081363095  0.092796956            2 
  102000    1.2513222   -3.1270896    98.986418  0.080871256  0.092750227            1 
  103000    1.1966861   -3.1380812    99.864479  0.080796504  0.092685824            1 
  104000    1.2248208   -3.1624596    100.91369  0.080860325  0.092620102            2 
  105000    1.2195736   -3.1231393    101.89149  0.080866259  0.092559703            1 
  106000    1.2278633   -3.1336331    103.40824  0.081295788  0.092516241            2 
  107000    1.2235831   -3.0976119    105.07633  0.081835146  0.092470372            3 
  108000    1.2357825   -3.1138128    106.56691  0.082227552  0.092445509            2 
  109000    1.2154708   -3.1336914    107.71254  0.082349037  0.092424993            2 
  110000    1.2380063   -3.1191804    108.72459   0.08236711   0.09241764            1 
  111000    1.2578949   -3.1562145    109.96213  0.082554154  0.092407906            2 
  112000    1.2473667   -3.1438028    110.82002  0.082455368   0.09240992            2 
  113000    1.2421168   -3.1502616    111.85329  0.082487676  0.092416315            2 
  114000    1.2057233     -3.10548    113.65117  0.083078341  0.092415358            1 
  115000    1.2299474      -3.1173    114.85889  0.083231078  0.092424957            2 
  116000     1.214858   -3.1417338    115.92447  0.083279072  0.092448858            2 
  117000      1.23321   -3.1423119    117.49547  0.083686232  0.092473329            2 
  118000    1.2470785    -3.118068    118.38375  0.083604344  0.092488633            2 
  119000    1.2300077   -3.1343117    119.13072  0.083424871  0.092514179            1 
  120000    1.2420368   -3.1509008    121.04673  0.084060232  0.092550388            1 
  121000    1.2482355   -3.1069696     121.5175  0.083689739  0.092579101            1 
  122000    1.2237207   -3.1229514    122.97838  0.084001625  0.092602657            5 
  123000    1.2189793   -3.1306369    124.34291  0.084243165  0.092636292            2 
  124000    1.2504443   -3.1290346    125.66309  0.084451003  0.092671788            1 
  125000    1.2553149   -3.1166642    126.60624  0.084404158  0.092717594            1 
  126000    1.2414569   -3.1307075     127.2436  0.084155818   0.09274914            2 
  127000    1.2304025   -3.1398442    128.52078  0.084331219  0.092787689            1 
  128000     1.222252   -3.1398931    130.25749  0.084803051  0.092820295            2 
  129000    1.2120684   -3.1209285    131.83396  0.085164059  0.092863815            2 
  130000    1.2092804   -3.1533134    131.80965  0.084493364  0.092897074            2 
  131000     1.232502   -3.1556937    133.59284   0.08498272  0.092926598            1 
  132000     1.231386   -3.1450733    134.83704  0.085124396  0.092968708            3 
  133000    1.2425305   -3.1426795    135.97844  0.085199524  0.093005733            4 
  134000     1.229892   -3.1081308    137.24268  0.085349927  0.093050148            2 
  135000    1.2299768   -3.1342136    138.72719  0.085634067  0.093103853            1 
  136000    1.2586788   -3.1296008    139.72157  0.085613709  0.093152071            2 
  137000    1.2457276   -3.0855031    141.69684  0.086190294  0.093199777            2 
  138000    1.2142016   -3.1236408    141.93186  0.085707647  0.093247202            2 
  139000    1.2365837   -3.1411027    142.72484  0.085566453  0.093301623            1 
  140000    1.2482562    -3.118547    143.88853  0.085647933  0.093341118            1 
  141000    1.2468103   -3.1369063    145.40304  0.085935602  0.093382523            1 
  142000     1.231249   -3.1144278    146.25622  0.085831118  0.093413396            1 
  143000    1.2514557   -3.0913198    147.64117  0.086037976  0.093447175            1 
  144000    1.2534725   -3.1277388    148.25084  0.085793312   0.09346699            1 
  145000    1.2492768   -3.1497336    148.48417  0.085335729  0.093473781            2 
  146000    1.2178248   -3.1085818    150.03797  0.085638112  0.093481641            3 
  147000    1.2061158   -3.1344312    151.56492  0.085921157    0.0934827            1 
  148000    1.2157004   -3.1305027    152.70008  0.085979776  0.093491894            1 
  149000    1.2269446   -3.1629325    154.20189  0.086242669  0.093505936            5 
  150000    1.2324243   -3.1554937    155.16254  0.086201408  0.093524553            2 
  151000    1.2494669   -3.1348579    157.14791  0.086726217  0.093558066            1 
  152000     1.233077   -3.1326096    158.39602  0.086839923  0.093591405            3 
  153000    1.2123456   -3.1573011    159.11728  0.086665182  0.093625213            1 
  154000    1.2384131   -3.1391721    160.39941   0.08679622  0.093660417            2 
  155000    1.2463122   -3.1319567    162.18281   0.08719506  0.093697012            3 
  156000    1.2380387   -3.1410672    163.05621  0.087102676  0.093736031            2 
  157000    1.2406052   -3.1460434     164.6706  0.087404776  0.093773399            3 
  158000    1.2265401   -3.1160353    165.63442  0.087359926  0.093804222            1 
  159000     1.224065   -3.1509968    166.30022  0.087159443  0.093835577            2 
  160000    1.1934219   -3.1217582    166.97756  0.086967479  0.093858075            4 
  161000    1.2076059   -3.1553746    167.74959  0.086826911  0.093873136            2 
  162000    1.2190137   -3.1155872    168.78222   0.08682213  0.093881908            2 
  163000    1.2164397   -3.1537394    169.75413  0.086786365  0.093905124            2 
  164000    1.2221548   -3.1190413    171.72904  0.087260691  0.093915252            1 
  165000    1.2211394    -3.132772    171.77472  0.086754908  0.093914405            1 
  166000    1.2164459   -3.1414555     174.0656   0.08738233  0.093930492            1 
  167000    1.2054356   -3.1127393    175.20164  0.087425966  0.093940316            1 
  168000    1.2078452   -3.1349158     174.9977  0.086804413  0.093943964            3 
  169000    1.2328162   -3.1380098    174.97126  0.086277742  0.093938325            1 
  170000    1.2148603   -3.1704969    176.95267  0.086741503  0.093935253            5 
  171000    1.1969429    -3.160996    177.68336  0.086590329  0.093933101            1 
  172000    1.2279171   -3.1465177    179.96278  0.087191268   0.09393391            2 
  173000    1.2542021   -3.1403786    181.41788  0.087388189  0.093940856            3 
  174000    1.2267646   -3.1623949    181.20057  0.086781883  0.093941936            1 
  175000     1.217755   -3.1250413     183.0374  0.087160668  0.093933222            1 
  176000    1.2194347   -3.1263559    184.05523  0.087147363  0.093922531            1 
  177000    1.2424661   -3.1204155     183.9106   0.08658691  0.093908226            2 
  178000    1.2573666   -3.1154208     185.8472  0.087007117   0.09388391            1 
  179000    1.2261443   -3.1658965    185.92828   0.08655879  0.093861986            2 
  180000    1.2482298   -3.1388263    187.08705  0.086614375  0.093839277            2 
  181000    1.2267278   -3.1613451    187.86202  0.086492644  0.093817046            1 
  182000    1.2224165   -3.1564344    189.06838  0.086569773  0.093796032            1 
  183000    1.1949113   -3.1498175    190.62639   0.08680619  0.093782056            3 
  184000    1.2174485   -3.1494127    191.89124  0.086907262  0.093773198            2 
  185000    1.2098741    -3.165217    193.34327  0.087091565  0.093761459            3 
  186000     1.227651   -3.1309872    193.92285  0.086882997  0.093745508            3 
  187000    1.2477474   -3.1762237    195.49669  0.087119738  0.093729219            3 
  188000    1.2307467   -3.1674972    195.84389  0.086810233  0.093713966            1 
  189000    1.2207191   -3.1289884    198.39255  0.087474669  0.093710135            2 
  190000    1.2185547   -3.1195727    200.09848   0.08776249  0.093710144            2 
  191000    1.2185223   -3.1570628    201.32624  0.087838674  0.093713141            1 
  192000    1.2180598   -3.1229012    202.19206  0.087756972  0.093724471            1 
  193000    1.2116709   -3.1049187    204.38007  0.088247009  0.093735613            2 
  194000    1.2406476   -3.1407532    205.72324  0.088369089  0.093747526            1 
  195000    1.2360339   -3.1265054    206.60347  0.088292082  0.093757415            4 
  196000    1.2073418   -3.1676372     206.9505   0.08798916  0.093762254            5 
  197000    1.2445952   -3.1328169    208.75005  0.088303743  0.093769129            2 
  198000    1.2191686   -3.0968597    209.33666  0.088104656  0.093776293            1 
  199000    1.2264243   -3.1312914    211.85653  0.088717139  0.093792667            1 
  200000    1.2160062   -3.1493314    213.34829  0.088895121  0.093811353            2 
  201000    1.2177278   -3.1327588    214.31443  0.088853413   0.09383421            3 
  202000    1.2075984    -3.142805    216.04293  0.089126622  0.093858214            1 
  203000    1.2519293   -3.1111527    215.82307  0.088597318  0.093881626            1 
  204000    1.1990135   -3.1660537    217.25149  0.088746523  0.093905991            1 
  205000    1.2122614   -3.1748667     217.8879  0.088572315  0.093924192            1 
  206000    1.2184918   -3.1614447    217.84954  0.088126837  0.093933649            1 
  207000    1.2176494   -3.1478939    220.56929  0.088796011  0.093945615            2 
  208000    1.2085664   -3.1188789     222.1505  0.089002605  0.093962106            2 
  209000     1.204085   -3.1506546    222.81794   0.08884288  0.093976403            4 
  210000    1.2008789   -3.1629926    223.51188  0.088695189  0.093995585            2 
  211000    1.2422033   -3.1583379    223.03201   0.08808531  0.094005624            1 
  212000     1.225705    -3.166435    223.97982  0.088042381   0.09401749            1 
  213000    1.2319466   -3.1701931     225.6366  0.088277231  0.094021904            1 
  214000     1.235814   -3.1444788    227.60582  0.088631549  0.094030931            2 
  215000    1.1802394    -3.133141     227.9857  0.088366548  0.094035673            2 
  216000    1.2244653   -3.1623414       228.17  0.088028549   0.09403305            4 
  217000    1.2242036    -3.141551    230.13734  0.088378395  0.094026223            2 
  218000    1.2161764   -3.1670452    230.57343  0.088139691  0.094018579            6 
  219000    1.2272469   -3.1422097    232.02094  0.088288029  0.094005615            2 
  220000    1.2283447   -3.1248018     232.5424  0.088084241  0.093994595            1 
  221000    1.2399338   -3.1554499    234.16337  0.088296896  0.093980665            3 
  222000     1.247261   -3.1460482    235.17954   0.08828061   0.09396948            1 
  223000    1.2193873   -3.1868625    234.29202  0.087553072  0.093955341            1 
  224000    1.2033016   -3.1804913    236.20733  0.087874752  0.093935645            1 
  225000    1.2027556    -3.139707    239.14996  0.088574058  0.093921786            1 
  226000    1.2126052   -3.1374793    239.94637  0.088475799  0.093910816            1 
  227000    1.2053436   -3.1499891    240.10281   0.08814347  0.093903191            3 
  228000    1.2209091   -3.1487368    241.44825  0.088248629  0.093897965            3 
  229000    1.2005082   -3.1656923    243.50279  0.088610912  0.093889896            3 
  230000    1.2189909   -3.1665537    243.79988   0.08833329  0.093881918            3 
  231000    1.2402246   -3.1734587    246.07487  0.088771598  0.093877986            2 
  232000    1.2385732   -3.1864086    245.51402  0.088187505  0.093873794            2 
  233000    1.2063717    -3.142484    250.14305  0.089464609  0.093868989            2 
  234000    1.1941232   -3.1349665    249.39099  0.088814453  0.093867234            1 
  235000    1.2038372   -3.1482364    250.10282  0.088688945  0.093862619            2 
  236000    1.2164142   -3.1708241    250.84239  0.088574291  0.093863311            2 
  237000    1.1965321   -3.1472598    252.96241  0.088945993  0.093864978            2 
  238000    1.2142124   -3.2019175    252.91218  0.088554686  0.093862629            2 
  239000    1.2133578   -3.1529749    254.72311  0.088815588  0.093859299            1 
  240000    1.2039338   -3.1823447    255.07869  0.088568988  0.093853862            5 
  241000    1.2014774   -3.1616675    256.30981  0.088627182  0.093843184            1 
  242000    1.1966391   -3.1412812    256.81009  0.088433227  0.093833376            2 
  243000    1.2176551   -3.1611843    257.96862  0.088466603   0.09382523            1 
  244000    1.1925651   -3.1663599    260.12503  0.088840517  0.093817316            1 
  245000    1.2062983   -3.1803461    260.36749  0.088560369  0.093808373            1 
  246000    1.2122457   -3.1574621    261.65784   0.08863748   0.09379688            1 
  247000     1.205762   -3.1813069    262.67656   0.08862232  0.093790637            2 
  248000     1.207463   -3.1399448    264.85832   0.08899809  0.093782047            2 
  249000    1.1979951   -3.1490903    265.33931  0.088801642  0.093778959            1 
  250000    1.2038972   -3.1793072    265.48941  0.088496468  0.093772902            1 
  251000    1.1811005   -3.1606732    266.90823   0.08861495  0.093763228            3 
  252000    1.2055753   -3.1540745    268.78887  0.088885207  0.093759693            1 
  253000    1.1943232   -3.1665615     269.5609  0.088788176  0.093750673            1 
  254000     1.203288   -3.1856028    269.05476  0.088272559  0.093734252            2 
  255000    1.2019665   -3.1618451    271.33704  0.088672236  0.093718093            1 
  256000    1.2091922   -3.1958313    271.69761  0.088443231  0.093703001            3 
  257000    1.2353348   -3.1260256    273.70246  0.088749176  0.093687261            2 
  258000    1.2062016   -3.1759124    273.30866  0.088277992  0.093665853            1 
  259000    1.2399299   -3.1386916    275.68712   0.08870242  0.093645181            2 
  260000    1.2011816   -3.1474263    276.06512  0.088482409  0.093625263            2 
  261000    1.2040724   -3.1289182    276.59133  0.088311407  0.093601183            1 
  262000    1.2013093   -3.1752417    277.06092  0.088123701  0.093578504            4 
  263000    1.2302805   -3.1359549    277.89229  0.088052057   0.09355804            1 
  264000    1.2076985   -3.1602658    280.18433  0.088442023  0.093536756            1 
  265000    1.2373472   -3.1454652    280.35432  0.088161735  0.093517665            1 
  266000     1.206417   -3.1606043    282.22008  0.088414812  0.093499119            1 
  267000    1.2067601   -3.1302364    284.32883  0.088741831  0.093476591            3 
  268000     1.208171   -3.1509632    285.51473  0.088779454  0.093459369            4 
  269000    1.1762177   -3.1637953     286.3165  0.088697801   0.09344173            2 
  270000    1.2265063   -3.1530947    286.15486    0.0883194  0.093419024            1 
  271000    1.2007722   -3.1786306    287.49821  0.088406585  0.093396817            5 
  272000    1.2306037   -3.1469121    287.18248  0.087984829  0.093378016            3 
  273000    1.1876313    -3.155188    288.87884  0.088180354  0.093356392            2 
  274000    1.2008923   -3.1537461    290.88673  0.088469199  0.093334182            2 
  275000    1.2247784    -3.191607    291.51498  0.088337871  0.093310874            4 
  276000    1.1950144   -3.1921056    292.00193  0.088164834  0.093290746            2 
  277000    1.2310335   -3.1691127    295.23537  0.088819304  0.093273139            2 
  278000      1.22212   -3.1237912    295.89186    0.0886966   0.09325556            2 
  279000    1.2165656   -3.1560347    296.97237  0.088701423  0.093241659            2 
  280000    1.2280659   -3.1779698    298.35485  0.088796087  0.093232948            2 
  281000    1.2007909   -3.1414747    299.79747  0.088907908  0.093223529            2 
  282000    1.1719194   -3.1620819    299.88482  0.088618446  0.093211265            2 
  283000    1.2186379   -3.1714411    302.08334   0.08895269  0.093203117            1 
  284000    1.2263521   -3.1566697    302.96743  0.088898894  0.093194395            1 
  285000    1.1968316   -3.1647025    303.36208  0.088702363  0.093182574            3 
  286000    1.2200986   -3.1556168    305.10047  0.088898738  0.093175737            1 
  287000    1.2306659   -3.1535106    306.06691  0.088869603  0.093167233            1 
  288000    1.2044664   -3.1694085    306.85688  0.088789607  0.093154967            2 
  289000    1.1967648   -3.1524524    308.95757  0.089088112  0.093144806            2 
  290000    1.2060844   -3.1573742    310.00299  0.089081319   0.09313217            2 
  291000    1.2013991   -3.1605718    309.86056  0.088734411  0.093119569            1 
  292000    1.2084943   -3.1662281    309.85311    0.0884284  0.093105667            2 
  293000    1.2189649   -3.1692792    311.39941  0.088566384    0.0930909       -1e+20 
  294000     1.188988   -3.1627683    312.24826  0.088505742  0.093072885            2 
  295000    1.2033425   -3.1474244    312.75877  0.088349934  0.093053662            2 
  296000    1.2159691   -3.1751655    314.35531  0.088500933  0.093032236            2 
  297000    1.2047717   -3.1314424    316.36009  0.088765458  0.093012388            1 
  298000    1.1949992    -3.155631    317.69292  0.088840303  0.092996899            2 
  299000    1.2036265   -3.1621715    318.50033  0.088768207  0.092980415            2 
  300000    1.2051482   -3.1331091    320.42333  0.089006481  0.092965023            2 
  301000    1.1981565   -3.1353446    319.09288  0.088342437  0.092952463            1 
  302000    1.1949168   -3.1654904    321.53536  0.088723885   0.09293777            1 
  303000    1.1987142   -3.1715074    322.67651  0.088744915  0.092925984            1 
  304000    1.1941635    -3.184151    324.57667  0.088973867  0.092910895            3 
  305000    1.1963712   -3.1660391    326.81304   0.08929318   0.09290048            5 
  306000    1.2065728   -3.1173497    327.01491  0.089056349  0.092889426            3 
  307000    1.2049065   -3.1326305    328.99175  0.089302864  0.092883081            1 
  308000    1.2038978   -3.1481634     328.4435  0.088864583  0.092877442            1 
  309000    1.2239945    -3.187328    328.51238  0.088595571  0.092870617            6 
  310000    1.2075846   -3.1690214    330.85106  0.088938457  0.092859944            1 
  311000    1.2140386   -3.1714385    332.24137  0.089025018  0.092847497            1 
  312000    1.1892375   -3.1765513    333.33122  0.089030773  0.092835115            3 
  313000    1.2029906   -3.1652145     333.6703  0.088836608  0.092824855            3 
  314000    1.1835702   -3.1472456    333.77005  0.088580161  0.092810805            1 
  315000    1.2027935   -3.1877349    334.77801   0.08856561  0.092797829            2 
  316000    1.2285428   -3.1711062    336.87911  0.088839428  0.092784949            2 
  317000    1.1936348   -3.1733746    336.62263  0.088491753  0.092772691            2 
  318000    1.2086705   -3.1812356    338.79702  0.088783287  0.092755307            2 
  319000    1.2138623   -3.1630066     339.6963   0.08873989  0.092742189            2 
  320000    1.1816568   -3.1636929    340.16965  0.088585845  0.092726608            1 
  321000    1.1645835   -3.1776907    340.91318  0.088502901  0.092711717            3 
  322000    1.1983811   -3.1978447    343.19995  0.088819864  0.092695709            1 
  323000    1.2026242   -3.1428837    343.84726  0.088711884  0.092681731            1 
  324000    1.2155523    -3.171859    346.23206  0.089051456  0.092664602            2 
  325000    1.1958293   -3.1552642    345.18604  0.088509241  0.092648885            1 
  326000    1.1897502   -3.1559282    346.08356  0.088467166  0.092633384            2 
  327000    1.1897669   -3.1453259    349.64091  0.089103188  0.092621697            2 
  328000    1.2103779   -3.1656983    346.73988  0.088094483  0.092607168            3 
  329000     1.199011   -3.1666385    349.53084  0.088533648  0.092590708            1 
  330000    1.1971427   -3.1766163    348.72671  0.088062302  0.092572161            2 
  331000    1.2203492   -3.1343277    351.25118  0.088431818  0.092550731            4 
  332000    1.1485391   -3.1631152    352.26722  0.088420486  0.092528657            1 
  333000    1.2106928   -3.1525909    352.24672  0.088149831  0.092504522            1 
  334000    1.2170688   -3.1571569    351.15115  0.087612563   0.09248098            2 
  335000    1.2139328   -3.1931829    353.80822  0.088011995  0.092453755            1 
  336000    1.1966136   -3.1592564    356.14425  0.088329427  0.092431043            1 
  337000    1.2056269   -3.1503231    356.68135  0.088200135  0.092408363            1 
  338000     1.204232   -3.1509606    356.13426  0.087804305  0.092387715            1 
  339000    1.1851739   -3.1777058    360.63413  0.088651457  0.092366995            1 
  340000    1.1848298   -3.1656604    359.22196  0.088044599  0.092346395            2 
  341000    1.1695956   -3.1835745    360.27748  0.088044351  0.092326703            2 
  342000    1.1854098   -3.1713905     362.7869  0.088398367  0.092309295            2 
  343000    1.1839542    -3.167072    364.04981  0.088447476  0.092292349            2 
  344000    1.1884903   -3.1729838     364.8306  0.088379505   0.09227463            1 
  345000    1.1798151   -3.1835033    365.69243  0.088331505  0.092257557            1 
  346000    1.2018321   -3.1588565      367.069  0.088407756   0.09224143            1 
  347000    1.1775882   -3.1490809     366.9408   0.08812219  0.092222525            2 
  348000    1.1979618   -3.1644121    369.01904  0.088366628  0.092201889            2 
  349000    1.1895334   -3.1899792    368.00367  0.087870982  0.092179717            2 
  350000     1.184138    -3.159743    370.18444  0.088139153  0.092159018            4 
  351000    1.2036184   -3.1933853    372.15361  0.088355559  0.092141121            3 
  352000    1.1669527   -3.2070726    370.76228  0.087775161   0.09212271            3 
  353000    1.1919985   -3.1648924    375.83201  0.088723327  0.092104723            2 
  354000    1.2162177   -3.1696793    373.98916   0.08803888  0.092087825            2 
  355000    1.2082038   -3.1914742    374.59403   0.08793287  0.092068828            2 
  356000    1.1884647   -3.1991771    376.76805  0.088194768   0.09204766            1 
  357000    1.2107005      -3.2204    376.68474  0.087928277  0.092026705            2 
  358000    1.1933576   -3.1983695    378.56874  0.088121214  0.092004205            2 
  359000     1.212774    -3.193565    379.44339  0.088078782  0.091981089            6 
  360000    1.1905092   -3.1685807    380.72585  0.088130984  0.091960162            2 
  361000    1.1970016   -3.1788814     382.1268  0.088210248  0.091942847            2 
  362000    1.1824541   -3.1664724    382.09414  0.087959055  0.091923057            2 
  363000    1.1724804   -3.1841698    381.41602  0.087561069  0.091903492            1 
  364000     1.186681   -3.1535154    384.38648  0.088000568  0.091882493            2 
  365000    1.1887883    -3.168428    386.35848  0.088209698  0.091861574            1 
  366000    1.1864244   -3.1871997    386.45343  0.087990307  0.091842772            2 
  367000     1.179479    -3.171133    389.64471  0.088475183  0.091823327            3 
  368000    1.1794316   -3.1547999    390.22495  0.088366156  0.091804334            1 
  369000    1.2009113   -3.1780806     390.1036  0.088099278  0.091785698            3 
  370000    1.2087836   -3.1648482    391.66322  0.088212436    0.0917677            1 
  371000    1.2077224   -3.2075192    391.51233  0.087940774   0.09174855            2 
  372000     1.187189   -3.1885274    390.58713  0.087497117  0.091726336            3 
  373000    1.2106996   -3.1721483    394.07812  0.088042475  0.091703738            2 
  374000    1.1914316   -3.1892046    394.57531   0.08791785  0.091682491            2 
  375000    1.1799762   -3.1702258     395.2846  0.087841022  0.091662581            1 
  376000    1.1984834   -3.2079947    396.46095  0.087868118   0.09164071            2 
  377000    1.2028632    -3.170752    398.54327   0.08809533  0.091620264            5 
  378000    1.1749229   -3.1854577    398.95482  0.087953004   0.09160103            1 
  379000    1.2070186   -3.1852944    400.95599  0.088160947  0.091580109            2 
  380000     1.198416   -3.1887367    402.38761  0.088242897  0.091557659            1 
  381000    1.1884875   -3.1976156    399.75939  0.087436438  0.091536888            1 
  382000     1.212734   -3.1948273    401.44303  0.087574832  0.091514619            3 
  383000    1.1823506   -3.1710128    403.83001  0.087865537  0.091493707            3 
  384000     1.204329   -3.1830045     406.1385  0.088137695  0.091474127            1 
  385000    1.1725095   -3.1706145    406.70026   0.08803036  0.091456907            1 
  386000    1.1999282   -3.2039007    406.88627  0.087842459  0.091440197            1 
  387000    1.1902282    -3.173101    408.98438  0.088067265  0.091424186            1 
  388000    1.2001704   -3.1719787    410.29369  0.088121496  0.091409753            4 
  389000    1.1919169    -3.163405    412.81312  0.088434687  0.091397546            2 
  390000    1.1850431   -3.1970403    412.83656  0.088212941  0.091384078            2 
  391000    1.1784763   -3.1772196    413.13053  0.088049985  0.091367882            2 
  392000    1.1990209   -3.1415291    416.22013   0.08848217  0.091354318            2 
  393000    1.1845057   -3.1805148      417.834  0.088599237  0.091340789            3 
  394000    1.1951807   -3.1794381    415.44615   0.08786932  0.091327277            1 
  395000    1.1829856    -3.184384    418.02103   0.08819009   0.09131185            2 
  396000     1.179359   -3.1570786    420.79884  0.088551945  0.091300575            1 
  397000    1.2004926   -3.2052401    420.48426  0.088262859  0.091288643            3 
  398000     1.187307    -3.210081    421.78136  0.088312679  0.091276471            2 
  399000     1.195745   -3.2334345    422.39791  0.088220114  0.091264235            1 
  400000    1.1774363   -3.2420581    423.47082  0.088223086  0.091253996            2 
  401000    1.1848741   -3.1872585    427.19275  0.088776548  0.091246275            6 
  402000    1.1635554   -3.1582773    428.99665  0.088929653  0.091241128            2 
  403000     1.169011   -3.1779211    431.81929  0.089292656  0.091237637            1 
  404000    1.1830325   -3.1884391     428.3979  0.088365904  0.091231871            4 
  405000    1.2040075   -3.1895348    428.75209  0.088220595  0.091222842            3 
  406000    1.1491608   -3.1790902    430.87939  0.088439941  0.091216999            1 
  407000    1.2052538   -3.2072657     433.6711  0.088794247  0.091213818            2 
  408000    1.1673956    -3.219187    434.26731  0.088698388   0.09121142            3 
  409000    1.1709425   -3.1790863    437.42835   0.08912558  0.091208208            2 
  410000    1.1819669   -3.1959893    438.62292     0.089151   0.09120605            1 
  411000    1.1877309   -3.1684148    438.91453  0.088993214  0.091203777            2 
  412000     1.222916   -3.1893417    439.57337   0.08891047  0.091202941            4 
  413000    1.1949296    -3.205705    439.09251  0.088598165  0.091196954            2 
  414000    1.1826854   -3.1747325    441.87258  0.088943757  0.091194474            1 
  415000    1.1759367   -3.1449205     442.5476   0.08886498  0.091190896            2 
  416000     1.203228   -3.1840043    442.87119  0.088716183  0.091188301            1 
  417000    1.1819598   -3.2016998    443.68972   0.08866701  0.091183694            1 
  418000    1.1986184   -3.1984596    444.18819  0.088554263  0.091176378            2 
  419000    1.2178063   -3.1980427     444.5353  0.088411954  0.091168842            2 
  420000    1.1804986   -3.2008376    445.13093   0.08831963  0.091160261            2 
  421000    1.1589361   -3.1966885    447.30693  0.088540563  0.091152056            1 
  422000    1.1698794   -3.2033128    447.79413  0.088426961  0.091144097            1 
  423000    1.1622274    -3.189786    449.58691    0.0885711  0.091135611            1 
  424000    1.2129836   -3.2137983    450.55906  0.088553274  0.091124867            2 
  425000    1.1778664   -3.1898103    448.71915  0.087984148  0.091114069            1 
  426000    1.1664984   -3.1845818    451.13998  0.088251169  0.091102262            1 
  427000    1.1678168   -3.1639947    453.99424  0.088601531  0.091089776            2 
  428000    1.1926754   -3.2026596    451.46004  0.087901098  0.091073837            1 
  429000    1.2083524   -3.1749641    454.11474  0.088211876  0.091056509            1 
  430000    1.1700877   -3.2098488    453.24261  0.087837716  0.091039263            2 
  431000    1.1819091   -3.2059184    453.72262  0.087726725  0.091021116            2 
  432000    1.1947738   -3.1842379    458.35222  0.088416709  0.091004249            3 
  433000    1.1658723   -3.2147952    455.26876  0.087619084  0.090986197            2 
  434000    1.1781191   -3.1739033    458.67035  0.088070344  0.090968809            2 
  435000    1.1970899    -3.199361     457.4032  0.087625134  0.090950156            2 
  436000    1.1658157   -3.2366372    458.19775  0.087576023  0.090932719            1 
  437000    1.1896146   -3.1805592    459.73049  0.087667904  0.090915752            2 
  438000    1.1741033   -3.2150027     461.6014  0.087823706  0.090897477            5 
  439000    1.2018964   -3.1910263    462.69238  0.087830747  0.090882774            1 
  440000    1.1760264   -3.2194653    461.22479  0.087353179  0.090866334            1 
  441000    1.2039691   -3.1847935     464.5899  0.087790985   0.09085079            2 
  442000    1.1794131   -3.1978923    467.18896  0.088082384  0.090836223            2 
  443000    1.1768738     -3.20515    465.96078  0.087652517  0.090822237            1 
  444000    1.1799246   -3.2244224    468.27641  0.087889716  0.090805423            4 
  445000    1.1896669   -3.1668338    470.07832  0.088029648   0.09078877            2 
  446000    1.1962126    -3.196367    469.50377  0.087724919  0.090774626            2 
  447000     1.178336   -3.1828014    471.63645  0.087926259   0.09076039            5 
  448000     1.180256   -3.2137148    472.29935  0.087853302  0.090748065            1 
  449000    1.1754691   -3.1894853    476.95052  0.088520884  0.090737101            2 
  450000    1.1764464   -3.1579199    476.93218  0.088320774  0.090725216            2 
  451000    1.1843796   -3.2222556    476.40058  0.088026715  0.090712271            2 
  452000    1.1841507   -3.1830578     478.7107  0.088257873  0.090699032            4 
  453000     1.176363   -3.2106041    478.77941  0.088075683  0.090686392            3 
  454000    1.1556762    -3.209047    478.94852  0.087912724  0.090675157            2 
  455000    1.1798085   -3.1812912    482.02482  0.088282934   0.09066286            2 
  456000    1.1741942    -3.178484    480.96347  0.087895371  0.090650121            1 
  457000    1.1662485   -3.1753449    485.41186  0.088514197  0.090639971            2 
  458000    1.1959851   -3.2241051    485.45609  0.088328983  0.090628743            1 
  459000     1.171787   -3.1842711    485.58013  0.088159064  0.090617974            1 
  460000    1.2026232   -3.2029404    484.65206  0.087799287  0.090607579            2 
  461000    1.1682088   -3.1982465    486.43279  0.087930729   0.09059495            2 
  462000    1.1817723   -3.2060618    487.18995  0.087876976  0.090584158            1 
  463000    1.1974054   -3.1871581    489.41811  0.088088213  0.090571849            1 
  464000    1.1648327   -3.2144541    489.63077  0.087936561  0.090558832            3 
  465000    1.2093221    -3.222516     491.6194  0.088103835   0.09054562            3 
  466000    1.1551758   -3.1911296    492.67547  0.088103624  0.090531198            2 
  467000    1.1883568   -3.2144779    491.44612  0.087695596  0.090515712            2 
  468000    1.1801064   -3.1917274    495.33926  0.088201436  0.090503878            1 
  469000    1.1483121   -3.1896398     494.3965   0.08784586  0.090491273            1 
  470000    1.1366827   -3.2277782    497.20488  0.088156894  0.090479789            1 
  471000    1.1397784   -3.2113145    497.26541  0.087980434  0.090468398            2 
  472000     1.182748   -3.2272345    497.76065  0.087881471  0.090457602            3 
  473000    1.1407551   -3.1940328    499.47182   0.08799715  0.090444445            4 
  474000    1.1930516   -3.1737342    500.27234   0.08795224  0.090432192            3 
  475000    1.1714018   -3.1720639    502.69857  0.088192732  0.090420193            2 
  476000    1.1780477   -3.2103412    500.73959  0.087664494  0.090406453            2 
  477000    1.1766598    -3.225471      502.303  0.087753844  0.090393063            3 
  478000    1.1724822    -3.247234    502.36188  0.087580522  0.090377633            5 
  479000    1.1799344   -3.1809692    506.58939  0.088133157  0.090364255            2 
  480000    1.1615235   -3.2233861    505.83608  0.087818764  0.090350451            3 
  481000    1.1762847    -3.213381    505.45821  0.087570723  0.090336521            2 
  482000    1.1674749   -3.1923036    509.63903  0.088111866  0.090325159            2 
  483000    1.2083182   -3.2051243     509.3368  0.087877295  0.090313669            3 
  484000    1.1612386   -3.2137111    512.26964  0.088200696  0.090302398            3 
  485000    1.1761524   -3.1928195    511.91182  0.087957358  0.090290903            1 
  486000    1.1626246   -3.2085091    512.33554   0.08784903  0.090277167            1 
  487000    1.1616173   -3.1778531    512.20161  0.087645724  0.090262831            2 
  488000    1.1672161   -3.2104251    511.55506  0.087355714  0.090249084            2 
  489000     1.151394   -3.1909581    513.96154  0.087587174   0.09023494            2 
  490000    1.1613956   -3.2092557    513.78028  0.087377598  0.090217941            4 
  491000    1.1693029   -3.2227851    515.59009  0.087506805   0.09020351            1 
  492000    1.1823794   -3.2329413    516.83339   0.08753953  0.090187832            2 
  493000    1.1815842   -3.2475329    517.53506  0.087480571  0.090172434            2 
  494000    1.1574019   -3.2251034    518.26037  0.087425838  0.090156274            1 
  495000    1.1965227   -3.2048813    519.52627  0.087462336  0.090141003            2 
  496000    1.1554758   -3.2066091    522.51145  0.087787542  0.090124584            1 
  497000    1.1827203   -3.1830383    522.53754  0.087615282  0.090108527            2 
  498000    1.1746596   -3.2042237    521.50434  0.087266456  0.090092632            4 
  499000    1.1791081   -3.2203746     523.7495  0.087466515  0.090077685            2 
  500000    1.1735571   -3.2012099    525.60801  0.087601335  0.090063086            2 
  501000    1.1692666   -3.1863374      525.992  0.087490353  0.090048166            3 
  502000    1.1804894   -3.2253535     522.3015  0.086703436  0.090030855            2 
  503000    1.1707594   -3.1883023    527.15782  0.087335623  0.090013188            5 
  504000    1.1816887   -3.2016598    528.88074  0.087447212  0.089996171            3 
  505000    1.1750234   -3.1740508    528.65374  0.087236591  0.089978197            1 
  506000    1.1667514   -3.2255788    527.78391  0.086920934  0.089958865            2 
  507000     1.193082   -3.2101267    531.47314  0.087355874  0.089940672            1 
  508000    1.1660304   -3.2192561    531.78245  0.087234654  0.089922855            1 
  509000      1.16778   -3.2284372    532.00876   0.08710032  0.089906539            1 
  510000     1.175212   -3.1948142    532.56091  0.087019756  0.089890019            7 
  511000    1.1706575   -3.1994328    534.23051  0.087121741  0.089873513            1 
  512000    1.1492996   -3.1958938    537.33308  0.087456557  0.089858021            2 
  513000    1.1604331   -3.2389898    536.64493  0.087174289  0.089843765            1 
  514000     1.150874   -3.2348991    540.67229  0.087657634  0.089830036            2 
  515000    1.1625929   -3.1973966    540.32151  0.087430665  0.089817505            3 
  516000      1.16018   -3.1934655    541.47338  0.087447251  0.089806953            1 
  517000    1.1781765   -3.2248035    542.67797   0.08747227  0.089796655            1 
  518000    1.1642026   -3.2194746    544.83755  0.087650828  0.089786288            2 
  519000    1.1886626   -3.2268217    544.49141  0.087426366   0.08977364            2 
  520000    1.1581701   -3.2061224    547.06899  0.087671312  0.089761696            4 
  521000    1.1780948   -3.2101346    547.00901  0.087493443  0.089750592            3 
  522000    1.1776628   -3.2069602    548.51498  0.087566249  0.089737802            1 
  523000    1.1933993   -3.2180675    547.18925   0.08718758  0.089725251            2 
  524000    1.1730785   -3.2085269    548.99249  0.087307966  0.089711901            3 
  525000    1.1569079   -3.2145047    549.52406  0.087226042  0.089695797            2 
  526000     1.164972   -3.2070848    550.46606  0.087209452  0.089681594            3 
  527000    1.1676009   -3.2094348    554.02542  0.087606803   0.08966741            3 
  528000    1.1510243   -3.1998642     555.1703  0.087621575  0.089654207            4 
  529000    1.2125748   -3.2006065    553.05168  0.087122194  0.089640949            2 
  530000    1.1695705   -3.1965027    553.95037  0.087099114  0.089629027            1 
  531000    1.1610815   -3.2167618     557.9694   0.08756582  0.089614301            3 
  532000    1.1642638    -3.221888    554.47253  0.086853467  0.089598687            2 
  533000    1.1700549   -3.1634733    560.67666  0.087660516  0.089582617            4 
  534000    1.1781131    -3.181884    557.86232  0.087057165  0.089566673            3 
  535000    1.1641942   -3.2277437    558.68173  0.087022077  0.089549793            2 
  536000    1.1770717   -3.1881493    558.70132  0.086862767  0.089531631            2 
  537000    1.1813386   -3.2100741    562.38751  0.087273046  0.089513912            2 
  538000    1.1699003   -3.2249146    561.18523  0.086924601  0.089496582            1 
  539000    1.1356586   -3.2244797    561.48809  0.086810156  0.089479297            7 
  540000    1.1720691   -3.1998413    562.95694  0.086876071   0.08946162            1 
  541000    1.1704791   -3.2279898    561.86869  0.086547857  0.089444126            1 
  542000    1.1267958   -3.2043658     564.3116  0.086763776  0.089426617            2 
  543000    1.1842202   -3.2274271    565.20771  0.086741514  0.089408929            2 
  544000    1.1560877   -3.2153038    566.65238  0.086803368  0.089390876            1 
  545000    1.1649206   -3.1860167    569.88598  0.087138529  0.089372906            3 
  546000    1.1870854   -3.2115738    570.95093  0.087141473  0.089356339            1 
  547000    1.1650038    -3.240652    568.19059  0.086561637  0.089338871            3 
  548000    1.1272737   -3.2010344    573.28535   0.08717843  0.089320177            5 
  549000    1.1495592   -3.1978426    573.87231  0.087108729  0.089304472            2 
  550000    1.1482837   -3.2158223    572.01201  0.086668486  0.089287527            2 
  551000    1.1534034   -3.1864629    573.97597  0.086808223   0.08927178            2 
  552000    1.1730362   -3.2132446     576.5312  0.087036716  0.089255217            1 
  553000    1.1824147   -3.2053194    578.19387  0.087129878  0.089240307            3 
  554000    1.1313518   -3.1844585      578.446   0.08701053  0.089223788            1 
  555000    1.1685355   -3.2252858    578.61723  0.086879464  0.089207563            1 
  556000    1.1652306   -3.2025135    578.98045  0.086777646  0.089190397            3 
  557000    1.1475523   -3.2370219    579.24319   0.08666116  0.089174279            7 
  558000    1.1657173   -3.2352948    579.15797  0.086493126  0.089156983            2 
  559000    1.1668142   -3.2234135    582.75965   0.08687532   0.08914131            2 
  560000    1.1637263   -3.2085442    583.74311  0.086866535  0.089125632            3 
  561000    1.1787295   -3.1869436    581.66418  0.086402878  0.089109487            2 
  562000    1.1510891   -3.2115612    587.15708  0.087063624  0.089092293            1 
  563000    1.1597785   -3.2402798    583.22158  0.086326462  0.089074986            2 
  564000    1.1749761   -3.2261782    585.01858  0.086438916    0.0890569            3 
  565000    1.1747835   -3.2160478    587.82038  0.086699171  0.089038792            2 
  566000    1.1793895   -3.1956666     587.7208   0.08653133  0.089023214            1 
  567000    1.1589679   -3.2251767    588.95168  0.086559624  0.089006933            1 
  568000    1.1676871   -3.2092474    591.37255  0.086762404  0.088990464            2 
  569000    1.1565193   -3.2344133    592.02691  0.086705757  0.088974188            2 
  570000    1.1266474   -3.2111173    594.45369  0.086908433  0.088958915            3 
  571000     1.156611   -3.2201586    594.76866  0.086802198  0.088943415            2 
  572000    1.1691363   -3.2257185    593.89439  0.086523076  0.088924632            1 
  573000    1.1557821   -3.2143187    594.38161  0.086442933  0.088906063            1 
  574000    1.1435283     -3.22372    595.29427  0.086424835  0.088889106            1 
  575000    1.1610365   -3.2384487    594.40802   0.08614609  0.088869118            1 
  576000    1.1638296   -3.1972312    596.91965  0.086359903   0.08885016            1 
  577000    1.1853374   -3.1765027    598.86454  0.086491124   0.08883285            1 
  578000    1.1581306   -3.2115686    600.96729  0.086644649  0.088815427            4 
  579000    1.1379679   -3.2317615    600.56495  0.086437098  0.088796228            1 
  580000    1.1586674   -3.2037151    602.83701  0.086614513  0.088779521            4 
  581000    1.1563893   -3.2098484     604.0215  0.086635326  0.088762032            2 
  582000     1.144888   -3.2217774    603.07372  0.086350762  0.088743518            2 
  583000    1.1795945   -3.2386784    601.85546   0.08602851  0.088725605            1 
  584000     1.141612   -3.2164121    602.12554   0.08591974  0.088705752            4 
  585000    1.1700889   -3.2188077    604.36597  0.086092019  0.088685126            1 
  586000    1.1309847   -3.1922163    604.79708   0.08600641  0.088665073            1 
  587000    1.1512301   -3.2351601    604.44394  0.085809758  0.088643314            3 
  588000     1.142487   -3.2299938    604.74212  0.085706082  0.088621434            3 
  589000     1.137219   -3.2247824    610.05002  0.086311548   0.08859904            2 
  590000    1.1657185    -3.245296     604.3703  0.085363036  0.088577118            1 
  591000    1.1835822   -3.2070329    606.78159    0.0855586  0.088554044            1 
  592000      1.16747   -3.2208031     609.8362   0.08584406  0.088532149            2 
  593000    1.1293288   -3.2095015    612.16767  0.086026935  0.088508673            2 
  594000     1.129692   -3.2397198    611.54836  0.085795224  0.088486225            1 
  595000    1.1756685   -3.2500759    608.40072  0.085210185  0.088462554            2 
  596000    1.1306326   -3.2207026     617.9042  0.086396001  0.088440863            1 
  597000    1.1538365   -3.2626716    613.71993  0.085667216   0.08841973            1 
  598000    1.1240136   -3.1932484    617.41957  0.086039517   0.08839828            2 
  599000    1.1545614   -3.2355229    615.73621  0.085661688  0.088377353            4 
  600000    1.1660572   -3.2209169    615.02533  0.085420185  0.088355721            2 
  601000    1.1378615   -3.1844597     621.0135  0.086108361  0.088333603            3 
  602000    1.1634347   -3.2341013    620.12056  0.085841716  0.088312007            2 
  603000    1.1553136   -3.2418154    617.95998  0.085400771  0.088290246            7 
  604000      1.15489   -3.2266158      619.433  0.085462611  0.088269688            2 
  605000     1.155137   -3.2453059    621.72386  0.085636895  0.088247298            2 
  606000    1.1381522   -3.2224723    621.96575  0.085528844  0.088224291            1 
  607000    1.1534655   -3.2256729    620.03267  0.085122552   0.08820113            1 
  608000    1.1464113   -3.2161858    625.55438  0.085739361  0.088178843            1 
  609000    1.1447436    -3.195147    623.80241  0.085358841  0.088157915            3 
  610000    1.1694731   -3.2234904    628.19467  0.085818943  0.088137065            2 
  611000    1.1569204   -3.2495658    625.62689  0.085328272  0.088116153            1 
  612000    1.1751509   -3.2331124    629.16843  0.085671082  0.088094515            2 
  613000     1.131633   -3.2026399    628.99108  0.085507216  0.088073805            5 
  614000    1.1497818   -3.2438473    628.15133  0.085253981  0.088052997            2 
  615000    1.1561041   -3.2416716    632.37308   0.08568741   0.08803117            1 
  616000    1.1652532   -3.2348642    631.73944  0.085462586   0.08800858            3 
  617000    1.1597345   -3.2541348    629.28714  0.084992861  0.087987066            2 
  618000     1.152196    -3.203116    633.21718  0.085385273  0.087964098            2 
  619000    1.1423427   -3.2146778    632.97649  0.085214929  0.087942806            1 
  620000     1.152829   -3.2169592    637.29281  0.085657636  0.087921996            2 
  621000    1.1537834   -3.2195741    632.96799  0.084939343  0.087901144            1 
  622000    1.1642903   -3.2302255    638.49179  0.085542844    0.0878792            2 
  623000    1.1528366   -3.2266323    639.40272  0.085527384  0.087857776            2 
  624000     1.138235   -3.2218827    639.31062  0.085378021  0.087836606            1 
  625000    1.1250494    -3.216802    637.66672  0.085022229  0.087813812            3 
  626000    1.1753059   -3.2480711    641.18794  0.085355157  0.087791638            1 
  627000    1.1593857   -3.2527452    639.11067  0.084942938  0.087769779            2 
  628000    1.1359281   -3.2068413    643.66518  0.085412046   0.08774754            1 
  629000    1.1731716   -3.1978341    643.26599  0.085223369  0.087725754            1 
  630000    1.1540196   -3.2287927    644.91753  0.085306552  0.087703704            2 
  631000    1.1502465   -3.2433576     642.9457  0.084910948  0.087681529            3 
  632000    1.1588068   -3.2440385    642.54578  0.084723864  0.087660211            2 
  633000    1.1531881   -3.2440137    644.95257  0.084906868  0.087637532            2 
  634000    1.1688844   -3.2273447    646.17031  0.084933006  0.087615342            3 
  635000    1.1448863   -3.2131873    649.23378  0.085201284  0.087592684            3 
  636000    1.1263701   -3.1844487    649.61009  0.085116626  0.087571067            1 
  637000    1.1457215   -3.2460558    651.69746  0.085256078  0.087549829            2 
  638000    1.1573144   -3.2325157    650.24675  0.084932961  0.087528732            3 
  639000    1.1402462   -3.2041661     651.9314  0.085019745  0.087506095            2 
  640000    1.1639093   -3.2558232    651.63789  0.084848683  0.087484699            2 
  641000    1.1448695   -3.2091279    652.96775  0.084889203  0.087462782            1 
  642000    1.1564103   -3.2232033    649.47369  0.084303438   0.08744063            3 
  643000    1.1576242   -3.2380749    654.75508  0.084856802  0.087417858            2 
  644000    1.1278505   -3.2313299    656.36919  0.084933901  0.087396318            1 
  645000    1.1440591   -3.2513273    657.58259  0.084958991   0.08737521            5 
  646000    1.1566718   -3.2534493    657.96405  0.084876683  0.087353871            3 
  647000    1.1538693   -3.2641383    660.00011  0.085007741   0.08733352            2 
  648000    1.1688496   -3.2716299    660.50266  0.084941186  0.087313116            1 
  649000    1.1645337   -3.2082606    661.86586  0.084985344  0.087292823            2 
  650000    1.1566795   -3.2259182    662.16718  0.084893228  0.087272702            3 
  651000    1.1768153   -3.2350319    664.12031  0.085012841  0.087254266            2 
  652000    1.1607183   -3.2249371    664.97039  0.084991103  0.087234988            3 
  653000    1.1568754   -3.2511746    665.72068  0.084956697  0.087215849            1 
  654000     1.151095    -3.234885    669.30933  0.085284063  0.087197742            2 
  655000    1.1720266   -3.2298701    665.55694  0.084676456  0.087179479            1 
  656000    1.1666965   -3.2337355     672.5605  0.085437055  0.087160861            3 
  657000     1.147992   -3.2586675    668.01646  0.084730652  0.087142635            3 
  658000    1.1472623   -3.2431551    671.05594  0.084986821  0.087123628            4 
  659000    1.1631023   -3.2561892     669.8144  0.084700859    0.0871052            2 
  660000    1.1573419   -3.2335639    672.88731  0.084960519   0.08708644            2 
  661000    1.1458504   -3.2297476    671.01233  0.084595603  0.087067752            2 
  662000     1.133394   -3.2703438     672.5899  0.084666402  0.087050162            1 
  663000    1.1630616   -3.2486147    672.86003  0.084572653   0.08702987            2 
  664000    1.1557565   -3.2288684    677.25074  0.084996328  0.087009577            1 
  665000    1.1166731   -3.2456367    677.03537  0.084841525  0.086989475            1 
  666000    1.1348895   -3.2623548    677.82107  0.084812446  0.086970231            1 
  667000    1.1374377   -3.2160672    680.45311  0.085014132  0.086951224            3 
  668000    1.1167543   -3.2564683    677.44192  0.084511217  0.086931426            3 
  669000    1.1570177   -3.2314596    679.68993  0.084664914  0.086910758            1 
  670000    1.1483266   -3.2273585    681.55922  0.084771047  0.086890419            2 
  671000    1.1217615   -3.2215115    683.32739  0.084864305  0.086869669            2 
  672000     1.164705    -3.262177    680.41628  0.084377019  0.086849751            2 
  673000     1.135201    -3.227541    682.39322  0.084496436  0.086830062            1 
  674000    1.1773043   -3.2275521    683.82151  0.084547664  0.086809668            4 
  675000    1.1203842   -3.2459426     682.5236  0.084262172  0.086788931            2 
  676000    1.1478724   -3.2459585    687.46476  0.084746642  0.086767874            2 
  677000    1.1448427   -3.2434743    686.13068  0.084457248  0.086747989            1 
  678000    1.1261684   -3.2449128    688.53055  0.084627649  0.086727049            2 
  679000    1.1428222   -3.2404117    690.38167  0.084730199  0.086707027            1 
  680000    1.1510117   -3.2535037    687.29642  0.084227502  0.086686296            2 
  681000    1.1167267   -3.2511366    691.40872  0.084607039  0.086666293            1 
  682000    1.1266985   -3.2600673    690.00337  0.084311262  0.086646952            3 
  683000    1.1465753   -3.2262059    695.35283  0.084840511  0.086627608            3 
  684000    1.1490912   -3.2635232    694.14723  0.084569594  0.086609714            1 
  685000    1.1582176   -3.2467272    693.99734    0.0844279  0.086591262            1 
  686000    1.1444069   -3.2349373    696.51832  0.084611069  0.086573474            3 
  687000     1.132415   -3.2348018    697.08254  0.084556349  0.086553975            2 
  688000    1.1128005   -3.2802128    696.20975  0.084327731  0.086534093            2 
  689000    1.1012083   -3.2271961    696.56375  0.084248156  0.086513592            3 
  690000    1.1622841   -3.2608489    700.78734  0.084636152  0.086493435            2 
  691000    1.1324387    -3.229333     698.0311  0.084181271  0.086472248            2 
  692000    1.1099799   -3.2107888    699.61912  0.084250857  0.086450813            2 
  693000    1.1473599   -3.2269459    697.32454   0.08385336  0.086428597            1 
  694000    1.1363563   -3.2220659    702.65532  0.084372636  0.086407492            3 
  695000    1.1284816    -3.237361    702.43612  0.084224954  0.086385303            5 
  696000    1.1466899   -3.2635273    701.01369  0.083933632  0.086363433            2 
  697000    1.1661243   -3.2577658    702.31062  0.083968271  0.086341666            3 
  698000    1.1513907   -3.2455679    705.38596  0.084215134   0.08631911            2 
  699000    1.1583836   -3.2717887    702.82644  0.083789514  0.086296766            7 
  700000    1.1384207   -3.2468189    705.78186   0.08402165  0.086275587            2 
  701000    1.1372099   -3.2629178     707.9251  0.084156574  0.086255689            4 
  702000    1.1361736   -3.2649178    706.38504  0.083853874  0.086235308            3 
  703000    1.1491573    -3.241277    710.24369  0.084191998  0.086213968            3 
  704000    1.1479221   -3.2534608     713.0903  0.084409363  0.086192752            2 
  705000    1.1419358   -3.2348882     712.1926  0.084183523  0.086171731            2 
  706000     1.163269   -3.2414308    713.43998  0.084211517  0.086150907            3 
  707000    1.1641659   -3.2814839    712.59182  0.083992435  0.086129198            3 
  708000    1.1308588   -3.2729742    714.12377  0.084054116  0.086107537            1 
  709000    1.1306282    -3.242062    712.62192   0.08375904  0.086086214            3 
  710000    1.1288443   -3.2154038    713.03707  0.083689796  0.086065403            2 
  711000    1.1513578   -3.2419266     713.1715  0.083587846  0.086043008            2 
  712000    1.1252807   -3.2805562    713.27555  0.083482625  0.086020736            2 
  713000    1.1065772   -3.2157205     715.0426  0.083572066  0.085997941            3 
  714000    1.1241031   -3.2631676    717.51836  0.083743973  0.085975598            1 
  715000    1.1500079   -3.2370586    717.87695  0.083668642  0.085953391            2 
  716000    1.1478715   -3.2171285    721.06997  0.083923413  0.085930508            2 
  717000    1.1177907   -3.2248829    722.62352  0.083986927  0.085908543            3 
  718000    1.1432347   -3.2610878    716.08855  0.083111485  0.085886649            3 
  719000    1.1506611   -3.2668226    720.86111  0.083549039  0.085864601            2 
  720000    1.1532841   -3.2900332    722.07483  0.083573476  0.085842212            1 
  721000    1.1391329   -3.2337408    721.52872  0.083394443  0.085819745            2 
  722000    1.1559937   -3.2655575    721.33317  0.083256368   0.08579697            2 
  723000    1.1280693    -3.244999    726.26528  0.083709691  0.085774413            1 
  724000    1.1508731    -3.247414     726.5504  0.083626888  0.085752282            4 
  725000    1.1384978   -3.2714674    724.46027  0.083271296  0.085730703            2 
  726000    1.1495805   -3.2432768    729.13758  0.083693478  0.085708892            2 
  727000    1.1324619    -3.270988    730.06875  0.083685092  0.085685839            2 
  728000    1.1309086   -3.2505984    728.13716  0.083349033   0.08566361            2 
  729000    1.1292745   -3.2590967    732.96264   0.08378631  0.085641188            2 
  730000    1.1400397   -3.2502918    730.09997  0.083344745  0.085620151            1 
  731000    1.1149511   -3.2206677    732.12217  0.083461259  0.085599788            3 
  732000    1.1289932   -3.2901061    733.18206  0.083467903  0.085578109            1 
  733000    1.1315131   -3.2283136    734.63081  0.083518737  0.085556114            4 
  734000    1.1500809   -3.2484157    734.60549  0.083402077  0.085534495            3 
  735000    1.1080333   -3.2488593    735.40175  0.083378883  0.085511876            3 
  736000    1.1378404   -3.2505472    734.89206  0.083207887  0.085489707            5 
  737000      1.14884   -3.2560483    735.60777  0.083175912  0.085467322            2 
  738000    1.1491159   -3.2406608    737.00922  0.083221456  0.085444548            2 
  739000    1.1325536    -3.219172    739.54697  0.083395013  0.085422226            1 
  740000    1.1252214   -3.2483764    741.78997  0.083534907  0.085399513            1 
  741000    1.1599983   -3.2548369    740.10995  0.083233238  0.085377064            3 
  742000    1.1391694   -3.2429664    740.28925  0.083141201  0.085354124            4 
  743000    1.1231701   -3.2825803    740.17181  0.083016129  0.085331428            1 
  744000    1.1339337   -3.2636955    738.30537  0.082695494  0.085309201            3 
  745000    1.1226135   -3.2741814    744.51201  0.083278748  0.085286473            1 
  746000    1.1447744   -3.2456953    745.36162  0.083262022   0.08526392            2 
  747000    1.1255393   -3.2826663    744.00624  0.082999358  0.085241263            4 
  748000    1.1328643   -3.2675972    744.51074  0.082944601  0.085219554            1 
  749000     1.094461   -3.2633089    744.08478  0.082786469  0.085197331            1 
  750000    1.1257113   -3.2735212    743.96054  0.082662282  0.085175009            3 
  751000    1.1339389   -3.2438401    746.09701  0.082789282  0.085151943            6 
  752000    1.1550002   -3.2530518     746.4151   0.08271444  0.085129734            2 
  753000    1.1389865   -3.2463745    751.44121  0.083160824  0.085107341            2 
  754000    1.1290337   -3.2782644     750.0919  0.082901404  0.085085103            2 
  755000    1.1401661   -3.2788771    748.15704  0.082578039  0.085061797            1 
  756000    1.1137912   -3.2823577    750.02368  0.082674568  0.085039278            1 
  757000    1.1340996    -3.297001    751.97533  0.082780199  0.085016712            2 
  758000    1.1350306   -3.2449357      755.347  0.083041666  0.084993748            3 
  759000    1.1171674   -3.2851151    750.65345  0.082416935  0.084971337            2 
  760000     1.100989    -3.243182    754.14273  0.082691089  0.084948391            2 
  761000    1.1455979   -3.2486106    754.85433  0.082660352  0.084926244            3 
  762000    1.1220611   -3.2601117    754.48482  0.082511464  0.084903416            2 
  763000    1.1417796   -3.2581615    758.06409  0.082794243   0.08488034            2 
  764000    1.1600371   -3.2570564    757.25726  0.082597869  0.084857426            2 
  765000    1.1327882   -3.2600198    757.10333   0.08247313  0.084834182            1 
  766000    1.1212145   -3.2766716    754.79895  0.082114768   0.08481163            2 
  767000    1.1331571   -3.2581075    760.61695  0.082639825  0.084787864            3 
  768000    1.1120111   -3.2709466    761.12456    0.0825873  0.084764825            3 
  769000    1.1245472   -3.2627005    762.52146   0.08263128  0.084740946            8 
  770000    1.1436109   -3.2512377    762.17451  0.082486419  0.084718596            1 
  771000    1.1469225   -3.2568539    763.02701  0.082471575  0.084695625            1 
  772000    1.1209215   -3.2455908    764.41752  0.082514845  0.084672159            3 
  773000    1.1110088   -3.2545356     762.0776  0.082155843  0.084648681            1 
  774000    1.1712397     -3.26692    764.51674  0.082312311  0.084625003            2 
  775000    1.1469586   -3.2617169    767.82719  0.082562064  0.084602421            1 
  776000    1.1147531   -3.2752181    767.78943  0.082451614  0.084579368            2 
  777000    1.1340038   -3.2298855    770.67088  0.082654534  0.084557482            2 
  778000    1.1212382   -3.2555284    772.18811  0.082710809  0.084535515            1 
  779000    1.1420074   -3.2437696     770.5181  0.082425984  0.084512384            1 
  780000    1.1278806    -3.226695    771.02303  0.082374255  0.084490169            1 
  781000    1.1165176   -3.2752319    768.91325  0.082043667  0.084466582            1 
  782000    1.1370952   -3.2526054    773.99064  0.082479821  0.084443704            3 
  783000     1.138694   -3.2585425    770.04263  0.081954303  0.084420775            4 
  784000    1.1148651   -3.2316932    768.35349  0.081670227  0.084396148            4 
  785000    1.1374991    -3.267532    777.29614  0.082515513  0.084373259            3 
  786000    1.1325774    -3.279185    775.15797  0.082183839  0.084348504            1 
  787000    1.1339802   -3.2265196    777.98154  0.082378392  0.084324739            1 
  788000    1.1111641   -3.2719818    772.92537  0.081739147  0.084300281            2 
  789000    1.1337379   -3.2682182    775.86585  0.081946118  0.084275405            2 
  790000    1.1421553   -3.2868556     773.3388  0.081575823  0.084251254            3 
  791000    1.1385893   -3.2857002    775.75731  0.081727488  0.084226676            2 
  792000    1.1296403   -3.2559618    777.01857  0.081757004  0.084202493            5 
  793000     1.100941   -3.2884068    777.16311  0.081669095  0.084178328            2 
  794000    1.1250671    -3.276163    778.44378  0.081700648  0.084153389            2 
  795000     1.120788   -3.2657431    780.12192  0.081773786  0.084129166            3 
  796000      1.12376   -3.3152491    780.99522  0.081762481  0.084103661            3 
  797000    1.1448043   -3.2736468    781.00174  0.081660575  0.084078812            2 
  798000    1.1325044   -3.2887327    780.70832  0.081527602  0.084054714            1 
  799000    1.1059051   -3.2718424    785.43648  0.081918698  0.084030352            1 
  800000    1.1157355   -3.2630648    784.33285  0.081701338  0.084006671            1 
  801000    1.1296507   -3.2637344    787.74853  0.081954696  0.083982593            2 
  802000    1.1448647   -3.2337282    787.74067   0.08185169  0.083959434            1 
  803000    1.1235193   -3.2586328    787.20507  0.081694175  0.083935064            2 
  804000    1.1363613   -3.2492725    790.50532  0.081934631  0.083911304            1 
  805000    1.1138918   -3.2613262    792.63586  0.082053401  0.083888205            2 
  806000    1.1193961   -3.2606269    792.37795  0.081924932  0.083865164            3 
  807000    1.1288989   -3.2674873    792.38566  0.081824211  0.083842525            2 
  808000    1.1129672   -3.2695345    796.64876   0.08216262  0.083821468            2 
  809000    1.1178958   -3.2819006    794.63906  0.081854044  0.083801352            1 
  810000     1.132374   -3.2852317    795.34505  0.081825622  0.083780247            2 
  811000    1.1137248   -3.2787586    800.65849  0.082270703  0.083758503            2 
  812000    1.1452705   -3.2805005    795.45214  0.081635072    0.0837373            2 
  813000    1.1268971   -3.2943836    797.35945  0.081730161   0.08371569            3 
  814000    1.1238838   -3.2832788    801.79626  0.082083974  0.083694668            3 
  815000    1.1536599   -3.2592694    801.46595  0.081949484  0.083673794            1 
  816000    1.1237055   -3.2813074    804.78546  0.082188058  0.083652902            1 
  817000    1.1391405   -3.2835899    802.39666  0.081843804  0.083632731            1 
  818000    1.1153144   -3.2703627    806.70262  0.082182419  0.083612931            3 
  819000    1.1285873   -3.2766021    803.23595   0.08172934   0.08359143            5 
  820000    1.1069877   -3.2851291    805.23355  0.081832678  0.083571753            4 
  821000    1.1103388   -3.3100794    802.51183  0.081456743  0.083550149            2 
  822000    1.1084636   -3.2601422    805.41385   0.08165185   0.08352911            5 
  823000    1.1443669   -3.2785978    807.51608    0.0817655   0.08350837            2 
  824000    1.1234125   -3.2871781    808.01356  0.081716581  0.083487228            2 
  825000    1.1087753   -3.2640572    807.78791  0.081594739  0.083466487            3 
  826000    1.1222412   -3.2964037    807.36966  0.081453759  0.083446238            3 
  827000    1.1445392   -3.2795424    811.57511  0.081779032  0.083425312            3 
  828000    1.1171833   -3.2561124    813.60892  0.081884956  0.083405236            5 
  829000    1.1373506   -3.2626375    817.19643  0.082146806  0.083385421            3 
  830000    1.1194136    -3.291041    814.13069  0.081740029  0.083365354            3 
  831000    1.1401453   -3.2600769    811.77613  0.081405549  0.083344523            1 
  832000    1.1158244   -3.2953067     812.6535  0.081395583  0.083323591       -1e+20 
  833000    1.1190483   -3.2597504    810.39561   0.08107199  0.083301557            3 
  834000    1.1252263    -3.279966    815.56637  0.081491444  0.083280095            1 
  835000    1.1345206   -3.2797707    813.46105  0.081183737  0.083258087            1 
  836000    1.0948235   -3.2387822    814.18714  0.081159005  0.083235465            1 
  837000    1.0962081   -3.2724892    819.85907   0.08162675  0.083213685            6 
  838000    1.1198624   -3.2929721    819.25072  0.081468846  0.083191961            1 
  839000    1.1287905   -3.2762872    818.91999  0.081338894  0.083169575            2 
  840000    1.1114675   -3.2761053    820.09666  0.081358795  0.083148404            1 
  841000    1.0988146    -3.304497    817.79341   0.08103383  0.083127058            2 
  842000    1.1315001    -3.277727    820.81127  0.081236269  0.083104795            3 
  843000    1.1220566   -3.2706025    821.61916  0.081219767  0.083083485            2 
  844000    1.1220647   -3.2972315      825.219   0.08147897  0.083061703            1 
  845000      1.10342   -3.2861143    820.26119  0.080893609  0.083040039            4 
  846000    1.1301447   -3.2765001    823.22363  0.081089798  0.083019154            2 
  847000    1.1024077   -3.2743503    821.86781  0.080860666  0.082997385            3 
  848000    1.1170395    -3.312225    822.91489  0.080868208  0.082975164            5 
  849000    1.1075558   -3.2795581    825.31207  0.081008252  0.082952852            3 
  850000    1.1052538   -3.2417486    826.61849  0.081041029  0.082931551            2 
  851000    1.1221694   -3.3073371    826.60914  0.080944883  0.082910336            2 
  852000    1.1155988    -3.296878     827.6271  0.080949443  0.082888482            2 
  853000     1.105944   -3.2886134    832.31767  0.081312785  0.082866592            1 
  854000    1.1109541    -3.251571    833.30647  0.081314059  0.082846324            1 
  855000    1.1484588   -3.2333847     835.3027  0.081413518  0.082826242            1 
  856000    1.1213424    -3.281933    832.80082  0.081074846  0.082805689            3 
  857000    1.1241874   -3.2965572    828.90427  0.080601349  0.082784676            1 
  858000    1.1052888   -3.2698345    837.15012  0.081308287  0.082763979            2 
  859000    1.0977487   -3.2913264    838.13316  0.081308999  0.082743154            2 
  860000    1.1241053    -3.271416    838.16507  0.081217546  0.082721665            1 
  861000    1.1181118   -3.2607628    838.71368  0.081176315  0.082701571            1 
  862000    1.1328247     -3.27381    839.65762  0.081173397  0.082682134            1 
  863000    1.1244381   -3.2823441     844.0897   0.08150731   0.08266228            1 
  864000    1.1328582   -3.2807546    839.63154   0.08098298  0.082642787            3 
  865000    1.1098453   -3.2827097    839.63065  0.080889273  0.082622324            3 
  866000    1.1262869   -3.3295687    837.95267  0.080634399  0.082602042            5 
  867000    1.1532697   -3.2406559    844.49262  0.081169994  0.082581951            2 
  868000    1.1237037   -3.2890582    840.85049  0.080726814  0.082561341            3 
  869000    1.1279771   -3.2863509    842.28464  0.080771446  0.082540168            1 
  870000    1.1122879   -3.2845882    844.66163  0.080906287  0.082519094            1 
  871000    1.1161585   -3.2676607    849.22005  0.081249527  0.082498492            3 
  872000    1.1042199   -3.3119914    844.85787  0.080739475  0.082477453            2 
  873000    1.1102904   -3.2648152    847.39739  0.080889404   0.08245654            1 
  874000    1.1143532   -3.2988936    845.17615  0.080585063  0.082435355            1 
  875000    1.1152952   -3.2639618    847.87954  0.080750433  0.082413908            1 
  876000     1.108465   -3.2926767    848.13061  0.080682135  0.082392669            1 
  877000    1.1226224   -3.2644918    847.88711     0.080567   0.08237116            2 
  878000     1.127938   -3.2723258    849.86239  0.080662717  0.082349302            2 
  879000    1.1147587    -3.267754    849.05602  0.080494503  0.082328196            3 
  880000    1.1130658   -3.2909946    848.92364  0.080390496  0.082306158            2 
  881000    1.1308649   -3.2919424    852.22645  0.080611658  0.082284825            2 
  882000    1.1094789   -3.2940119    854.61493  0.080745931  0.082264123            2 
  883000    1.1242929   -3.2667008    852.58288   0.08046271  0.082242361            1 
  884000    1.1063029   -3.3260724    848.53497  0.079990099  0.082221699            5 
  885000    1.0986996   -3.2927255     859.3537  0.080918428  0.082200879            2 
  886000    1.1107824   -3.2918495    856.72661  0.080580004  0.082180878            1 
  887000    1.1257693   -3.3080376    857.93793  0.080602962  0.082160297            2 
  888000     1.097295   -3.3267932    857.13332  0.080436685  0.082139638            2 
  889000    1.1226101   -3.2932372     857.0348  0.080336971   0.08211907            2 
  890000    1.1116995    -3.288585    859.65564  0.080492101  0.082100115            5 
  891000    1.0938494   -3.3212965    862.81393   0.08069715  0.082080753            3 
  892000    1.0986648   -3.2485513    869.49183  0.081230552  0.082061323            4 
  893000    1.1173645   -3.3068569    866.23973  0.080836108   0.08204239            1 
  894000      1.10444   -3.2649931    864.71496  0.080603557  0.082022932            2 
  895000    1.1202177   -3.2909431    863.18623  0.080371158  0.082003759            4 
  896000    1.1262914   -3.2673322    870.81619  0.080991089  0.081984641            2 
  897000    1.1127998   -3.2951482    866.95362  0.080541957  0.081967289            1 
  898000    1.0983238   -3.3155865    870.13723  0.080747701  0.081949185            1 
  899000    1.1216527   -3.2949663    870.77831  0.080717307  0.081930574            1 
  900000    1.1180283   -3.2867672    871.26004  0.080672226  0.081912764            2 
  901000    1.0940315   -3.2990725    871.86912  0.080639023  0.081894212            3 
  902000    1.1328656   -3.2965005    869.64462  0.080344108  0.081876286            2 
  903000    1.1006184   -3.2580426    878.49092  0.081071513  0.081858573            1 
  904000    1.0950196   -3.2879517    872.29212  0.080410409  0.081840673            1 
  905000    1.1300638   -3.2854644    873.82161  0.080462395  0.081822093            3 
  906000    1.0880338   -3.2816373    878.51174  0.080804979  0.081804415            4 
  907000    1.1228932   -3.2856466    879.57972  0.080814013  0.081786346            2 
  908000    1.0909399   -3.3061844    876.53228  0.080445327  0.081768504            3 
  909000    1.1093133   -3.2920051    879.25727  0.080606643  0.081750657            2 
  910000    1.0879843   -3.2667279    879.81706  0.080569328  0.081733301            2 
  911000    1.0886761   -3.3068767     881.3389  0.080620097  0.081716536            5 
  912000    1.0963905   -3.3120755     880.8813  0.080489884  0.081700156            4 
  913000    1.1082916   -3.2962195    883.15175  0.080608958  0.081682464            2 
  914000    1.1173685   -3.3059154    881.96082  0.080412183  0.081666068            1 
  915000    1.1059598   -3.2698394    888.39884  0.080910641  0.081649454            4 
  916000    1.1280131   -3.2619498    883.71368  0.080396077  0.081633101            3 
  917000    1.1077134   -3.3199423    887.14295  0.080620043  0.081616444            3 
  918000    1.0895645   -3.3004773    888.02339  0.080612145  0.081599318            1 
  919000     1.108864   -3.2996107    889.83521   0.08068872  0.081582921            3 
  920000    1.1209041    -3.320033    888.54206  0.080483882  0.081566722            3 
  921000    1.0701634   -3.3138286    889.92816  0.080521911   0.08155001            2 
  922000    1.0797332   -3.2827215    890.61586  0.080496734  0.081532623            6 
  923000     1.105718   -3.2872657    894.41994  0.080752974  0.081515867            2 
  924000    1.1422572   -3.3013723    891.14494  0.080370214  0.081497857            3 
  925000    1.1078123   -3.3176717    891.77748  0.080340314  0.081480132            6 
  926000    1.0808347   -3.2908838    897.77995  0.080793732  0.081462788            2 
  927000    1.1013704    -3.288005    896.23846  0.080568002  0.081445946            1 
  928000    1.1105414   -3.3118505    894.00603  0.080280714  0.081428622            1 
  929000    1.0824197   -3.3133425    895.20992  0.080302289  0.081411671            2 
  930000    1.1118072   -3.3011466    897.51885  0.080422836   0.08139364            1 
  931000    1.1073153   -3.2752772    899.57467  0.080520468  0.081376505            2 
  932000    1.1020743   -3.2960937    898.64515  0.080350961  0.081359477            1 
  933000    1.0993584   -3.3201157    899.43252  0.080335166  0.081342636            2 
  934000    1.1050833   -3.2974854    902.20004  0.080496078  0.081325969            6 
  935000    1.1258553   -3.3134211    901.46364  0.080344353  0.081309417            2 
  936000    1.1226949   -3.3127159    899.31444  0.080067169  0.081292419            5 
  937000     1.110923   -3.2848908    905.13718  0.080499572  0.081275684            2 
  938000    1.1113596   -3.2939366    905.14078  0.080414071  0.081258225            2 
  939000     1.104917    -3.280542    904.06135  0.080232637  0.081241991            1 
  940000    1.1167157   -3.3100651    905.68022  0.080290799  0.081225583            2 
  941000    1.1172848   -3.3150577     909.4436  0.080538753  0.081208969            2 
  942000    1.0925847   -3.2897638     905.7354  0.080125212  0.081192489            3 
  943000    1.0912766   -3.3041007    909.77614  0.080397326  0.081175884            2 
  944000    1.1055764   -3.2723625    910.84548  0.080406557  0.081160597            2 
  945000    1.0971005   -3.3056895    909.05355  0.080163453  0.081143703            2 
  946000    1.0873776   -3.2954399    914.38972  0.080548777  0.081127582            2 
  947000    1.1045299   -3.3094289    912.48387  0.080296011  0.081111645            2 
  948000     1.081723   -3.2833186    913.42465  0.080294009  0.081096271            2 
  949000    1.0885001    -3.320023    916.20056  0.080453158  0.081080701            3 
  950000    1.1209635   -3.2804271    915.19611  0.080280361  0.081064757            1 
  951000    1.0938845   -3.3167373    914.53087  0.080137651  0.081048581            2 
  952000    1.1058421   -3.3265725    913.19947  0.079936928  0.081032638            2 
  953000    1.0970949   -3.3255719    917.82329   0.08025737  0.081016353            7 
  954000     1.087806   -3.2868619    917.84842  0.080175438  0.081000161            3 
  955000    1.1145548   -3.3197939    920.23648  0.080299867   0.08098381            2 
  956000    1.1233204   -3.3373387    918.10611   0.08003017   0.08096718            5 
  957000    1.0840823   -3.2777946    920.55287  0.080159602  0.080951268            1 
  958000    1.0909502   -3.3002047    921.78614  0.080183206  0.080935256            3 
  959000    1.0871434   -3.3006498    922.77577   0.08018559  0.080918468            4 
  960000    1.1021796   -3.2967849    923.38236  0.080154718  0.080901821            3 
  961000    1.0737617   -3.2912787    926.15102  0.080311396  0.080885508            2 
  962000    1.1007015   -3.3135485    920.15942  0.079708889  0.080868851            3 
  963000    1.0828418   -3.2684242    924.69333   0.08001846  0.080853079            1 
  964000    1.1075823    -3.296504    922.57112  0.079751999  0.080837191            2 
  965000    1.0812763   -3.3238104    920.32774  0.079475626   0.08082049            2 
  966000    1.0924848    -3.301431    926.02381  0.079884732  0.080803563            2 
  967000    1.1228384   -3.2922824     929.0788  0.080065391  0.080787321            1 
  968000    1.1087454   -3.2882278    930.56752   0.08011084  0.080771098            2 
  969000    1.0947068   -3.3136062    924.07179  0.079469538  0.080754337            2 
  970000    1.1073242   -3.3041861    930.86545  0.079971259  0.080737859            2 
  971000    1.1154574   -3.2924204    928.13362  0.079654447  0.080721249            2 
  972000    1.0819481   -3.3030511    932.21709   0.07992259  0.080704205            3 
  973000    1.0927942   -3.3314676    932.41833  0.079857685  0.080688456            2 
  974000    1.1087927    -3.290627    937.15377   0.08018085  0.080672716            2 
  975000    1.0824923   -3.2936713    939.73356  0.080319108  0.080657806            4 
  976000    1.1224782   -3.2920256    938.74073  0.080152043  0.080641709            1 
  977000     1.077293   -3.3005937      940.389  0.080210594  0.080626228            2 
  978000     1.098944   -3.2973124     938.8495  0.079997401   0.08061024            3 
  979000    1.0824082   -3.3118819    938.12754  0.079854234  0.080594317            2 
  980000    1.1150322   -3.2892113    938.76892  0.079827289   0.08057875            2 
  981000    1.0968049   -3.3274721    939.49469  0.079807568  0.080563022            2 
  982000    1.1062241    -3.310184     941.0683  0.079859836  0.080546608            2 
  983000    1.0935987   -3.3135808    941.89697  0.079848844  0.080530523            1 
  984000    1.0773615   -3.2908722    944.95032  0.080026281  0.080514116            2 
  985000    1.0960636   -3.2960221    942.83327  0.079765928  0.080498691            2 
  986000    1.0996477   -3.3354852    944.84953  0.079855437  0.080483181            3 
  987000    1.0883707   -3.3188139    947.48067  0.079996679  0.080467686            2 
  988000    1.0953021   -3.2969555    948.41186  0.079994253  0.080452856            2 
  989000    1.1135393   -3.3129688    951.02992  0.080133967  0.080437851            3 
  990000    1.0885856   -3.3484006    946.65669  0.079684907   0.08042274            2 
  991000    1.0811146   -3.2934414    952.26181  0.080075833  0.080408403            2 
  992000    1.0970913   -3.3063065    951.19073  0.079905136  0.080394655            5 
  993000    1.0913798   -3.3037784    951.30722  0.079834443  0.080380849            2 
  994000    1.0817005   -3.2884421    952.81045  0.079880151  0.080366278            1 
  995000    1.1137166   -3.3220924    955.03251  0.079985973  0.080351138            2 
  996000    1.0713614    -3.348345    950.04817  0.079488635  0.080336501            1 
  997000    1.0970859   -3.3070952    957.28578  0.080013856   0.08032211            1 
  998000    1.1157709    -3.299195     954.5635  0.079706371  0.080306781            2 
  999000    1.0740217   -3.3246911    954.64606  0.079633472  0.080291608            2 
 1000000    1.0574833   -3.3304022    955.98945  0.079665787  0.080276536            3 
 1001000    1.0863603   -3.2711182    958.54081  0.079798602  0.080260793            1 
 1002000    1.0885798   -3.3300082    957.29234  0.079615131  0.080245342            1 
 1003000    1.0931891   -3.2860642    960.79154  0.079826482  0.080229765            3 
 1004000    1.0747217   -3.3132367    960.39356  0.079713941  0.080215056            3 
 1005000    1.0758138   -3.3026953    961.62884  0.079737052  0.080199872            1 
 1006000    1.0758062   -3.3123852    957.33913  0.079302446  0.080184528            2 
 1007000    1.1022481   -3.3080451    958.61095  0.079328943  0.080169711            2 
 1008000    1.0893901   -3.3108267     962.3069  0.079555795  0.080154334            6 
 1009000    1.0907048   -3.2912088     961.1179  0.079378749  0.080138211            2 
 1010000    1.1258863   -3.2924663    968.10308  0.079876492  0.080122951            5 
 1011000     1.107351   -3.3108678     965.8781  0.079614087  0.080108192            1 
 1012000    1.1079612   -3.3102316    961.72248  0.079193221  0.080092897            3 
 1013000    1.0739184    -3.307141    961.19532  0.079071678  0.080077962            3 
 1014000    1.0943713   -3.3120903    970.97787  0.079797656  0.080063415            1 
 1015000    1.0731414   -3.3067587    972.80243  0.079868836  0.080050128            2 
 1016000    1.0909205   -3.2981586    972.56524  0.079770771  0.080036274            1 
 1017000     1.058401    -3.312927    973.60166  0.079777259  0.080022904            2 
 1018000    1.0935571    -3.290425    975.72061  0.079872348  0.080009281            1 
 1019000    1.0931866   -3.3446471    968.96333  0.079241358  0.079995533            2 
 1020000    1.1049083   -3.3145311    973.60043  0.079542519  0.079980912            3 
 1021000    1.1024014   -3.3481668    969.64209  0.079141536  0.079966265            1 
 1022000    1.0805703   -3.3256702    975.52093  0.079543455  0.079951597            3 
 1023000    1.0821341   -3.3271417    973.32827  0.079287086  0.079936925            3 
 1024000    1.0910986   -3.3083167    975.47996  0.079384762  0.079921734            2 
 1025000    1.0746701   -3.3277146    975.69798  0.079325039  0.079908097            2 
 1026000    1.1026265   -3.3327866    975.50644  0.079232167  0.079894018            3 
 1027000    1.0990597   -3.2945498    978.92855  0.079432697  0.079880239            2 
 1028000    1.0674367   -3.3548623    976.16806  0.079131652  0.079866583            2 
 1029000    1.0799174   -3.3004206    980.15377  0.079377533  0.079852787            1 
 1030000    1.1107158   -3.2893795    982.46431  0.079487404  0.079839329            2 
 1031000    1.1100021   -3.2876321    984.78666  0.079598016  0.079825462            2 
 1032000    1.0650892   -3.3256189    985.54228  0.079581903  0.079812121            2 
 1033000    1.1051363   -3.3024023    987.98519  0.079701935  0.079798448            2 
 1034000    1.1205094   -3.3581423    986.73226  0.079523876  0.079785032            4 
 1035000    1.0891399   -3.3318153    987.33867  0.079495867     0.079772            1 
 1036000    1.0851638   -3.3066322    992.38061  0.079824695  0.079759278            2 
 1037000    1.0975443    -3.317651    989.59782  0.079524093  0.079746745            2 
 1038000    1.0762473    -3.308139    991.44006  0.079595381  0.079734454            5 
 1039000    1.0997731   -3.2961146    996.06235  0.079889505  0.079721809            3 
 1040000    1.0650622   -3.3294389    989.37834  0.079277111  0.079709018            1 
 1041000     1.073717   -3.3201317    994.99097  0.079650254    0.0796966            2 
 1042000    1.0932646   -3.3522047    991.06004   0.07925944   0.07968354            2 
 1043000    1.0902934   -3.3363055     997.2617  0.079678947  0.079670895            1 
 1044000    1.0819716   -3.3116761    997.98314  0.079660212  0.079658734            4 
 1045000    1.0874749   -3.3091419    996.73874  0.079484748  0.079645914            2 
 1046000    1.0944708    -3.321574    1003.4888  0.079946528   0.07963383            2 
 1047000    1.0765495   -3.3299971    997.28358  0.079376279  0.079622166            2 
 1048000    1.1018418    -3.315076    1002.4074  0.079707967  0.079610327            5 
 1049000    1.0505745    -3.316762    1001.3614  0.079548887  0.079598771            3 
 1050000    1.0996961   -3.3182398    1002.9014   0.07959535   0.07958693            2 
 1051000    1.0921036   -3.3341387    1004.4448  0.079641989  0.079575201            3 
 1052000    1.0753781   -3.3089876    1006.2206  0.079706954  0.079563919            1 
 1053000    1.0700143   -3.3324335    1003.4523  0.079412178  0.079552874            6 
 1054000    1.0815119   -3.3130245    1006.3576   0.07956654  0.079541824            2 
 1055000    1.0651192   -3.3226548    1011.8187  0.079922488  0.079530873            3 
 1056000    1.0895916    -3.320915    1008.3348  0.079571872  0.079518924            2 
 1057000    1.0661755   -3.3120703    1003.9663  0.079152181   0.07950695            1 
 1058000    1.0505957   -3.3314487    1009.2817  0.079496038  0.079495801            3 
 1059000    1.0538155   -3.3290631    1010.2455  0.079496809  0.079484805            2 
 1060000    1.0948555   -3.3282966    1012.6369  0.079609822  0.079473994            2 
 1061000    1.0883217   -3.3482268    1007.0943  0.079099459  0.079462093            1 
 1062000    1.0924211   -3.2829326    1015.5038  0.079684859   0.07945061            2 
 1063000    1.0965274   -3.3268645    1010.1832  0.079192791  0.079439461            4 
 1064000    1.0764072   -3.3212919    1014.3762  0.079446761  0.079428254            3 
 1065000    1.0917889   -3.3303525    1016.7209  0.079555623   0.07941786            2 
 1066000    1.0708805   -3.2994881    1020.6608  0.079788996   0.07940698            2 
 1067000    1.0833832   -3.3359982    1019.3136     0.079609  0.079396055            1 
 1068000     1.080856   -3.3087024    1017.5857  0.079399632  0.079384369            1 
 1069000    1.0760859   -3.3370969    1017.2172  0.079296633  0.079373228            1 
 1070000    1.0618367   -3.3315908    1021.1836  0.079531436  0.079361696            3 
 1071000     1.093473   -3.3313086     1017.191  0.079146517  0.079350142            2 
 1072000    1.0620246   -3.3531873    1016.7803  0.079040757   0.07933841            3 
 1073000    1.0911961   -3.3154141    1023.9593  0.079524639  0.079327158            2 
 1074000    1.0901402   -3.3422377    1021.1318  0.079231204  0.079315969            5 
 1075000    1.1040483   -3.3427868    1025.0573  0.079461807  0.079304497            3 
 1076000    1.0761007   -3.3306229    1027.0614  0.079543167  0.079293166            3 
 1077000    1.0945455   -3.3108585    1024.2171  0.079249234  0.079281339            2 
 1078000    1.0460416   -3.3335937    1028.0443  0.079471575  0.079269733            3 
 1079000    1.0868235   -3.3308763    1027.6313  0.079366026  0.079258133            1 
 1080000    1.1008006   -3.3371294    1027.9439  0.079316655  0.079246215            1 
 1081000    1.0648454   -3.3384326    1026.1121  0.079102075  0.079234525            2 
 1082000    1.0865938   -3.3252489    1026.8249  0.079083864  0.079222296            3 
 1083000    1.0733498   -3.3147612    1026.1899  0.078961981  0.079209532            4 
 1084000    1.0965531   -3.3320446    1022.7162  0.078622096  0.079196571            8 
 1085000    1.0840695   -3.3476337    1026.8562  0.078867601  0.079183898            3 
 1086000    1.0595572   -3.3335144    1034.8151    0.0794057  0.079171281            3 
 1087000    1.0908845     -3.33088    1027.1492  0.078744952  0.079158744            3 
 1088000    1.1103905   -3.3388604    1031.5691  0.079011111  0.079145611            2 
 1089000    1.0703333   -3.3606813    1030.6199  0.078865923  0.079132964            2 
 1090000    1.0666768   -3.3195857    1030.9532  0.078819055    0.0791194            2 
 1091000    1.0709745   -3.3457548    1032.1514  0.078838326   0.07910581            3 
 1092000    1.0429252   -3.3158687    1032.3301   0.07877977  0.079092344            2 
 1093000     1.098526   -3.3183251    1032.1129  0.078691136  0.079079055            4 
 1094000    1.0797915   -3.3684005    1036.1157  0.078924112  0.079065302            1 
 1095000    1.0808773   -3.3243082      1034.56  0.078733636  0.079051682            4 
 1096000    1.0939687   -3.3137663    1035.3582  0.078722489  0.079038109            2 
 1097000    1.0710713   -3.3340601    1039.2782  0.078948513  0.079025308            2 
 1098000    1.0701187   -3.3320782    1037.7648  0.078761746  0.079012151            1 
 1099000    1.0552772   -3.3288821     1033.542  0.078369883  0.078999025            3 
 1100000    1.0919521   -3.3413542    1040.1896  0.078802242  0.078985303            5 
 1101000    1.0500876   -3.3214188    1043.8978  0.079011336  0.078971724            6 
 1102000    1.1087525   -3.3543762    1040.1035  0.078652717   0.07895888            1 
 1103000    1.0685889   -3.3479834    1041.0704  0.078654459  0.078946247            1 
 1104000     1.075446   -3.3302052    1045.6628  0.078929859  0.078933569            2 
 1105000    1.0625181   -3.3405584    1043.1145  0.078666249  0.078920956            2 
 1106000    1.0757411   -3.3394426    1044.8219  0.078723771  0.078907903            3 
 1107000    1.0672748   -3.3199076    1045.6601  0.078715752  0.078894689            2 
 1108000    1.0943328   -3.3409928    1046.7574  0.078727244   0.07888189            5 
 1109000    1.0464682    -3.312838    1049.9501  0.078896157  0.078869133            2 
 1110000    1.0718201   -3.3062514    1051.6033  0.078949196  0.078856658            2 
 1111000    1.0700843   -3.3445344    1051.8137  0.078893916  0.078844621            2 
 1112000    1.0837251   -3.3257277    1047.2297  0.078479447  0.078832135            2 
 1113000     1.065124   -3.3608854    1051.5798  0.078734638  0.078819307            3 
 1114000    1.0826959   -3.3317683    1056.6877  0.079046054  0.078806958            5 
 1115000     1.060618   -3.3222104    1057.2304  0.079015723  0.078794717            4 
 1116000    1.0724503   -3.2904911    1059.1088  0.079085187  0.078783241            2 
 1117000    1.0964146   -3.3258661    1061.7688  0.079212829  0.078771965            3 
 1118000    1.0767204     -3.32656    1058.4698  0.078896076  0.078760797            3 
 1119000    1.0574841   -3.3507908     1057.319   0.07873987  0.078749182            2 
 1120000    1.0823264    -3.327922    1054.4438  0.078455637  0.078737313            3 
 1121000    1.0838394   -3.3376001    1058.2192  0.078666313   0.07872586            3 
 1122000    1.0857443   -3.3093473    1062.1429  0.078887616  0.078714068            2 
 1123000    1.0632868   -3.3259944    1060.0579  0.078662649  0.078702683            3 
 1124000    1.0440553   -3.3405787    1062.5771   0.07877944  0.078690924            1 
 1125000    1.0981762   -3.3206404     1064.824  0.078875853  0.078679153            3 
 1126000    1.0776944   -3.3263648     1064.793  0.078803505  0.078667513            4 
 1127000    1.0620881   -3.3541398    1065.0586  0.078753227   0.07865576            4 
 1128000    1.0684929   -3.3605314    1066.0621  0.078757546  0.078644532            3 
 1129000    1.0694419    -3.378202    1065.2266  0.078626114   0.07863283            2 
 1130000     1.080373    -3.318219    1067.3972  0.078716606   0.07862136            2 
 1131000    1.0987191   -3.3292258    1067.8932  0.078683553  0.078610501            2 
 1132000    1.0619834   -3.3339073    1070.9872  0.078841813  0.078599381            2 
 1133000    1.0843874   -3.3392992    1067.9583  0.078549452   0.07858795            2 
 1134000    1.0719354   -3.3363339    1070.3752   0.07865779  0.078576981            2 
 1135000    1.0496246   -3.3512126    1067.2173  0.078356632  0.078565022            2 
 1136000    1.0598607   -3.3216398    1071.4112  0.078595305  0.078553191            2 
 1137000    1.0535129   -3.3338798    1070.6637  0.078471391  0.078541579            2 
 1138000    1.0868698   -3.3296502    1072.7782  0.078557276  0.078529749            6 
 1139000    1.0366205   -3.3635879    1071.8135  0.078417725   0.07851787            2 
 1140000    1.0851241   -3.3422021    1072.9487  0.078431926  0.078506655            1 
 1141000    1.0753358   -3.3547836     1074.323  0.078463554  0.078494708            4 
 1142000    1.0598428   -3.3480604    1074.0872  0.078377641  0.078483013            2 
 1143000    1.0685897   -3.3383519    1082.6586   0.07893399  0.078471016            2 
 1144000    1.0675132   -3.3281681    1080.8065  0.078730074  0.078459588            1 
 1145000    1.0780667   -3.3317494    1077.5606  0.078425082  0.078447995            2 
 1146000    1.0687067   -3.3450326    1079.7391  0.078515059  0.078436807            3 
 1147000    1.0482487   -3.3329805    1079.4022  0.078422132  0.078425419            4 
 1148000     1.060914   -3.3276405    1082.9361  0.078610343  0.078413919            1 
 1149000    1.0444611   -3.3347861    1080.2381  0.078346254  0.078402594            2 
 1150000    1.0658029   -3.3520033    1074.8158  0.077885203  0.078390631            3 
 1151000    1.0512801   -3.3526557    1078.0845  0.078054196  0.078378103            2 
 1152000    1.0896343   -3.3613404    1080.8354  0.078185431  0.078365495            1 
 1153000    1.0545856   -3.3293272    1085.8271  0.078478395  0.078353525            2 
 1154000    1.0549311   -3.3239348    1089.0649    0.0786442  0.078341497            3 
 1155000    1.0612985   -3.3555225    1083.6617  0.078186267  0.078329506            1 
 1156000      1.04641   -3.3561459    1082.6601  0.078046431  0.078316525            3 
 1157000    1.0723641   -3.3530642    1080.0415  0.077790371  0.078303687            2 
 1158000    1.0567397   -3.3380866    1083.0989  0.077943216  0.078290943            1 
 1159000    1.0738925     -3.34906    1087.9076  0.078221717  0.078278271            4 
 1160000    1.0949665   -3.3483567    1087.6835  0.078138183  0.078265962            4 
 1161000    1.0785915   -3.3636667    1086.3195  0.077972975  0.078253286            2 
 1162000    1.0560866   -3.3818356     1086.696  0.077932875    0.0782404            4 
 1163000    1.0902824   -3.3743738       1090.6  0.078145601  0.078227085            3 
 1164000    1.0734732     -3.34272    1091.9904  0.078178007  0.078214334            6 
 1165000    1.0622807   -3.3253269     1089.483  0.077931544  0.078201148            2 
 1166000    1.0659274   -3.3349473    1091.9132  0.078038394  0.078188715            4 
 1167000    1.0526316   -3.3685927    1092.6862  0.078026723  0.078176394            3 
 1168000    1.0645164   -3.3230407    1096.5333  0.078234398  0.078163616            2 
 1169000    1.0520089   -3.3620905    1092.1216  0.077852981  0.078151337            1 
 1170000    1.0754968   -3.3312162    1096.1697  0.078074765   0.07813879            3 
 1171000    1.0840269   -3.3384151    1095.6103  0.077968283  0.078126762            7 
 1172000    1.0480565   -3.3442827    1096.7336  0.077981625  0.078114055            3 
 1173000    1.0682596    -3.371938    1095.9192   0.07785729  0.078101613            2 
 1174000    1.0879584   -3.3392926    1100.8006  0.078137468  0.078089103            4 
 1175000    1.0799644   -3.3510165    1099.6367  0.077988418  0.078077057            3 
 1176000    1.0593374   -3.3576107    1100.6058  0.077990772  0.078064216            3 
 1177000    1.0690181   -3.3252443    1099.1584   0.07782203  0.078051361            2 
 1178000    1.0661869   -3.3414233    1102.4929  0.077991855  0.078038061            2 
 1179000    1.0804738   -3.3692092    1095.6801  0.077444167  0.078025234            2 
 1180000    1.0551739   -3.3459932    1100.8854  0.077746142   0.07801195            1 
 1181000     1.068197   -3.3359607    1103.0256  0.077831328  0.077998854            3 
 1182000    1.0749015   -3.3718597    1102.6072  0.077735984  0.077985909            2 
 1183000    1.0677639   -3.3031086    1102.5751  0.077668016  0.077972718            2 
 1184000    1.0848795   -3.3505415    1104.6538  0.077748716  0.077960084            3 
 1185000     1.074614   -3.3659282    1104.0849  0.077643103  0.077946669            2 
 1186000    1.0738154   -3.3492571    1104.5682  0.077611596  0.077933327            3 
 1187000    1.0598746   -3.3465741    1109.7418  0.077909425  0.077919841            2 
 1188000    1.0488735   -3.3772688    1107.9623  0.077719013  0.077906854            1 
 1189000    1.0635609   -3.3680936    1104.0268  0.077377824  0.077893628            3 
 1190000    1.0568199   -3.3220785    1112.7836  0.077926024  0.077880689            1 
 1191000     1.051775   -3.3354151    1114.5458  0.077983892  0.077867563            2 
 1192000     1.058561   -3.3598337    1111.3857  0.077697545  0.077854308            3 
 1193000    1.0718317   -3.3201207    1107.5176  0.077362226  0.077841296            4 
 1194000     1.069225   -3.3460646    1115.9802  0.077888069  0.077828398            2 
 1195000    1.0549064   -3.3500574     1109.076  0.077341423  0.077815274            2 
 1196000    1.0602481   -3.3475223    1111.2339  0.077427114  0.077802258            2 
 1197000    1.0515402   -3.3499317    1116.7104  0.077743694  0.077789141            3 
 1198000    1.0559358   -3.3462329    1114.8215  0.077547408  0.077776193            4 
 1199000    1.0590484   -3.3614122    1117.0607  0.077638357  0.077763324            3 
 1200000    1.0629101   -3.3580313    1115.2536  0.077448166  0.077750659            2 
 1201000    1.0655767   -3.3396542    1119.6057   0.07768566  0.077738086            1 
 1202000    1.0532901   -3.3897995    1110.8442  0.077013599  0.077724993            2 
 1203000    1.0732631   -3.3584923    1122.3467   0.07774638  0.077711804            3 
 1204000    1.0588481   -3.3538312    1118.1795  0.077393374  0.077699279            6 
 1205000    1.0439446   -3.3709387    1119.2806  0.077405294  0.077686249            6 
 1206000    1.0457588   -3.3782681    1122.4045   0.07755697  0.077673291            3 
 1207000    1.0616619    -3.370328    1121.7469  0.077447315  0.077660738            4 
 1208000    1.0898563   -3.3490563    1123.0217  0.077471143  0.077648001            1 
 1209000    1.0638618   -3.3640665     1126.079  0.077617799  0.077635754            1 
 1210000    1.0640045   -3.3472679    1119.9396  0.077130823  0.077623213            3 
 1211000    1.0375181   -3.3375765    1128.6022  0.077663242  0.077610782            3 
 1212000    1.0469253   -3.3700066    1121.8464  0.077134652  0.077598153            1 
 1213000    1.0684909    -3.356879    1125.7209  0.077337244  0.077585341            2 
 1214000    1.0654858   -3.3538792    1123.3736  0.077112412  0.077572608            2 
 1215000    1.0235928    -3.344001    1125.0342  0.077162837  0.077559767            3 
 1216000    1.0326018    -3.379185    1125.9699   0.07716351  0.077546549            2 
 1217000    1.0399088   -3.3512822    1127.7331  0.077220838   0.07753323            2 
 1218000    1.0689474   -3.3313642     1128.752  0.077227147  0.077520076            3 
 1219000    1.0750249   -3.3763942    1130.2112  0.077263548   0.07750671            2 
 1220000    1.0568622   -3.3378504    1124.7958  0.076830315  0.077493805            2 
 1221000    1.0576857   -3.3344848    1132.5816  0.077298774  0.077480657            2 
 1222000    1.0461474   -3.3639141     1126.922  0.076849563  0.077467063            2 
 1223000     1.051736   -3.3586102    1133.4378  0.077230705  0.077453152            1 
 1224000    1.0466499   -3.3620877    1134.6076   0.07724725  0.077439856            2 
 1225000    1.0440957   -3.3566409    1133.1815  0.077087176  0.077426484            2 
 1226000    1.0647395   -3.3547707    1131.4971  0.076909809  0.077413308            1 
 1227000    1.0377784   -3.3407468     1134.471  0.077049101  0.077400001            2 
 1228000    1.0613877   -3.3399958    1135.7126  0.077070618  0.077386399            3 
 1229000    1.0483622   -3.3540748    1139.2712  0.077249198  0.077372965            4 
 1230000    1.0691798   -3.3422863    1134.8627  0.076887714  0.077359643            2 
 1231000    1.0458406   -3.3432186    1138.4385  0.077067324  0.077346855            2 
 1232000     1.053277   -3.3533241    1141.2828  0.077197162  0.077333805            1 
 1233000    1.0477777   -3.3592041    1141.9439  0.077179229  0.077321258            3 
 1234000     1.035993   -3.3525535     1145.238  0.077339141  0.077308667            3 
 1235000    1.0772146    -3.394265    1139.6206  0.076897477  0.077295835            2 
 1236000    1.0343731   -3.3434922    1146.8543  0.077322972   0.07728302            2 
 1237000    1.0314532   -3.3481333    1143.7958   0.07705442  0.077270285            1 
 1238000    1.0868424   -3.3680956    1142.5322  0.076907119   0.07725734            2 
 1239000    1.0521777   -3.3865028    1147.8789   0.07720466  0.077244235            2 
 1240000    1.0375054    -3.356855    1145.8357  0.077005085  0.077231295            2 
 1241000    1.0333424   -3.3655988    1142.8714  0.076743983  0.077218543            1 
 1242000    1.0685998   -3.3911259    1147.0887   0.07696516  0.077205124            2 
 1243000    1.0777571   -3.3493983    1150.8675  0.077156576  0.077191815            3 
 1244000    1.0414816   -3.3265108    1151.1342   0.07711242  0.077178828            3 
 1245000    1.0395718   -3.3629172    1147.5479  0.076810433  0.077165336            2 
 1246000    1.0301433   -3.3699691    1153.9514  0.077177062  0.077151773            4 
 1247000    1.0505589   -3.3465762    1148.8566    0.0767747  0.077138653            3 
 1248000    1.0439134   -3.3311331    1156.0318  0.077192294  0.077125753            1 
 1249000    1.0258388   -3.3289345    1154.6529  0.077038493  0.077112704            3 
 1250000    1.0418998   -3.3407129    1153.8012  0.076920078  0.077100127            2 
 1251000    1.0410851   -3.3630817    1148.8702  0.076530123   0.07708702            1 
 1252000    1.0296228   -3.3676169    1150.4642   0.07657509   0.07707333            3 
 1253000    1.0392947   -3.3514168    1155.8333  0.076871063  0.077060025            2 
 1254000    1.0366448   -3.3931231    1158.8283  0.077008789  0.077046528            1 
 1255000    1.0453743   -3.3446535    1156.3253  0.076781227  0.077033367            2 
 1256000    1.0491239   -3.3617862    1154.6404  0.076608308  0.077019937       -1e+20 
 1257000    1.0568543   -3.3562427    1160.7215  0.076950513   0.07700621            2 
 1258000    1.0717745   -3.3678172    1161.9463  0.076970477  0.076992915            2 
 1259000    1.0491246   -3.3767353     1166.038  0.077180167   0.07698034            2 
 1260000    1.0489647   -3.3978019    1154.4781   0.07635437  0.076967727            2 
 1261000    1.0385021   -3.3869677    1160.6934   0.07670456  0.076955192            4 
 1262000    1.0486589   -3.3649445    1162.6564  0.076773405  0.076942843            4 
 1263000    1.0627268   -3.3685796    1163.3879   0.07676088  0.076930858            2 
 1264000    1.0335715   -3.3478529    1160.5298  0.076511721  0.076918416            7 
 1265000     1.047305   -3.3838877     1165.094  0.076751908  0.076905568            2 
 1266000    1.0602201   -3.3583203    1166.8813  0.076808932  0.076893168            1 
 1267000    1.0440316   -3.3706411    1166.3174   0.07671122  0.076880579            6 
 1268000    1.0628202   -3.3596901    1170.3049  0.076912784  0.076868237            2 
 1269000    1.0403593   -3.3626201    1170.4157  0.076859452   0.07685563            7 
 1270000    1.0243664   -3.3697098    1167.2561  0.076591608  0.076842409            8 
 1271000    1.0728431   -3.3690758     1167.625  0.076555532  0.076828921            2 
 1272000    1.0538741   -3.3788703    1165.2683  0.076340951  0.076815743            3 
 1273000    1.0507979   -3.3503494    1167.6848  0.076439171  0.076801907            3 
 1274000     1.043237    -3.356702    1169.1782  0.076476858   0.07678833            2 
 1275000    1.0540849   -3.3701477    1168.0138  0.076340772  0.076774482            3 
 1276000    1.0335612    -3.358508      1170.63  0.076451803  0.076760701            4 
 1277000    1.0708851   -3.3730282    1170.7988  0.076402948  0.076747356            3 
 1278000     1.070534   -3.3725424    1168.5773  0.076198311  0.076733407            2 
 1279000    1.0517524   -3.3884869    1173.3069  0.076446891  0.076720046            2 
 1280000    1.0582419   -3.3431958    1180.8071  0.076875462   0.07670642            3 
 1281000    1.0469991   -3.3890205    1173.6429  0.076349397  0.076693128            3 
 1282000    1.0530118   -3.3756067    1174.9366  0.076373935  0.076679101            4 
 1283000    1.0543471   -3.3778571    1175.5595  0.076354865  0.076665355            3 
 1284000    1.0477472   -3.3717892    1176.2911  0.076342879  0.076650932            2 
 1285000    1.0598773   -3.3691189    1174.6513   0.07617713  0.076637021            2 
 1286000    1.0796984   -3.3650577    1177.3184  0.076290718   0.07662266            3 
 1287000    1.0238941   -3.3477063    1174.8001   0.07606838  0.076608925            3 
 1288000    1.0524524   -3.3779373    1176.8092  0.076139309  0.076594794            3 
 1289000    1.0407497   -3.3816499    1171.7276   0.07575172  0.076579973            2 
 1290000    1.0465218   -3.3913171    1179.1507  0.076172524  0.076565708            5 
 1291000    1.0336668   -3.3900886     1173.254  0.075732897  0.076550948            1 
 1292000    1.0691948    -3.379087    1177.8551  0.075971044  0.076536313            3 
 1293000    1.0353999   -3.3489778     1181.241  0.076130508  0.076521555            2 
 1294000    1.0579936    -3.355677    1178.8615  0.075918438  0.076507075            2 
 1295000    1.0433376   -3.3974653    1180.2225  0.075947396  0.076492244            2 
 1296000    1.0422702   -3.3507896    1181.8172  0.075991332  0.076476958            3 
 1297000    1.0310282   -3.3648079    1181.3471  0.075902536  0.076462114            1 
 1298000    1.0466089   -3.3725204    1181.0334  0.075823923  0.076447284            2 
 1299000    1.0257362   -3.3774432    1179.3652   0.07565853   0.07643163            2 
 1300000    1.0384615   -3.3853116    1180.1474  0.075650477  0.076416616            3 
 1301000    1.0383564   -3.4000411    1183.0963  0.075781211  0.076401722            2 
 1302000    1.0398586   -3.3948729    1182.1944  0.075665283   0.07638646            1 
 1303000    1.0252597   -3.3843041    1181.1701  0.075541704  0.076371144            1 
 1304000    1.0507987   -3.3626719    1186.8359  0.075845853  0.076356286            3 
 1305000    1.0572481   -3.3645332    1189.5154   0.07595884  0.076342049            2 
 1306000    1.0368195   -3.3745732    1192.2883  0.076077607  0.076328156            2 
 1307000    1.0448262   -3.4065784    1186.2328  0.075633307  0.076314468            3 
 1308000    1.0309607   -3.3777706     1191.321  0.075899657  0.076300647            9 
 1309000    1.0455788   -3.3744074    1195.6301  0.076116001  0.076286374            3 
 1310000    1.0552085   -3.3764435    1198.7699  0.076257626  0.076272867            3 
 1311000    1.0308353   -3.3847982    1191.7269  0.075751771  0.076259413            3 
 1312000    1.0528638   -3.3663176    1195.4743  0.075932059  0.076245304            1 
 1313000    1.0355948   -3.3686996    1190.4538  0.075555582  0.076231373            3 
 1314000    1.0460427   -3.3824195    1194.8891  0.075779368  0.076216793            2 
 1315000    1.0345943   -3.3783551    1200.7065  0.076090397  0.076203496            3 
 1316000    1.0325401   -3.3886094    1194.4718  0.075637776  0.076189901            6 
 1317000    1.0319891   -3.3872517    1196.4764  0.075707186  0.076176002            2 
 1318000    1.0539061   -3.3902858    1195.6518  0.075597609  0.076162221            2 
 1319000    1.0458501   -3.3907327    1200.4126  0.075841081  0.076148149            2 
 1320000     1.032323   -3.3925041    1198.7297  0.075677381  0.076134561            2 
 1321000     1.040344   -3.3599916    1195.9678  0.075445864  0.076120368            1 
 1322000    1.0335119   -3.3713034    1200.0029  0.075643147  0.076105929            4 
 1323000    1.0456851   -3.3905522    1202.3463  0.075733579  0.076091751            5 
 1324000    1.0196906   -3.3855763    1198.6436  0.075443329  0.076077714            3 
 1325000     1.052085    -3.396486    1204.9129  0.075780686  0.076063264            2 
 1326000    1.0472369   -3.3664693    1199.7718  0.075400441  0.076048779            3 
 1327000    1.0475897   -3.3849719     1200.675  0.075400341  0.076034197            3 
 1328000    1.0633555   -3.3598674    1205.2344   0.07562967  0.076019941            2 
 1329000    1.0720172   -3.4105189    1205.3784  0.075581788  0.076005585            3 
 1330000    1.0091257   -3.3864493    1212.1423  0.075948767  0.075991263            3 
 1331000    1.0407127   -3.3753535    1201.5821  0.075230534  0.075977271            2 
 1332000    1.0357765   -3.3663497    1212.9675  0.075886356  0.075962753            2 
 1333000    1.0108095   -3.3804484    1208.9804  0.075580173  0.075948379            2 
 1334000    1.0454462   -3.3808471    1209.4531  0.075553044  0.075933772            4 
 1335000    1.0301496   -3.3906061    1208.7166  0.075450476  0.075919516            5 
 1336000    1.0651671   -3.3704435     1209.968  0.075472056  0.075905171            3 
 1337000      1.02877   -3.4067942    1211.8225  0.075531193    0.0758904            2 
 1338000    1.0315556   -3.4154528    1210.0567  0.075364764  0.075875788            2 
 1339000    1.0506741   -3.3880937    1209.5705  0.075278223   0.07586128            2 
 1340000    1.0545357   -3.3616112    1217.3165  0.075703762  0.075847063            1 
 1341000    1.0539522   -3.3793828    1211.1997  0.075267194  0.075833009            2 
 1342000     1.048693    -3.370984    1216.5434  0.075542935  0.075819082            3 
 1343000    1.0259171   -3.3547357    1217.3384  0.075536016  0.075805217            3 
 1344000    1.0333098   -3.3711151     1219.695  0.075625933  0.075791185            2 
 1345000    1.0321857   -3.4036755    1219.3842  0.075550448   0.07577761            4 
 1346000    1.0150437   -3.3855462    1219.5948  0.075507358  0.075764051            2 
 1347000    1.0121625   -3.3977994    1223.5119  0.075693633  0.075750783            3 
 1348000    1.0431163    -3.382668    1224.3936  0.075691988  0.075737974            4 
 1349000    1.0403744    -3.350089    1226.0947  0.075740965  0.075724567            2 
 1350000    1.0311016   -3.3768782    1222.4641  0.075460749  0.075711535            2 
 1351000    1.0422874   -3.4058855    1217.7307  0.075112921  0.075698099            2 
 1352000    1.0470297   -3.4072024    1221.4959   0.07528944  0.075685163            3 
 1353000    1.0257456   -3.4149779    1220.8503   0.07519403  0.075671907            3 
 1354000    1.0328726   -3.3690076    1226.7914  0.075504145   0.07565868            2 
 1355000    1.0355603    -3.393336    1224.8235  0.075327399  0.075645375            2 
 1356000    1.0412837   -3.4001042    1224.4236  0.075247272  0.075631884            2 
 1357000    1.0507023    -3.381697    1226.7915  0.075337233  0.075617575            2 
 1358000    1.0478621   -3.4032429     1226.811  0.075282955  0.075604094            1 
 1359000    1.0327599   -3.4012141    1226.5557    0.0752119  0.075590237            2 
 1360000    1.0380427   -3.3954853    1227.2189  0.075197236   0.07557677            2 
 1361000    1.0177898   -3.3742232    1224.1418  0.074953579  0.075562805            3 
 1362000    1.0396135   -3.4004433    1225.0897  0.074956538  0.075549066            3 
 1363000    1.0358125   -3.3783955    1231.0309  0.075264792  0.075534815            4 
 1364000     1.022381   -3.3715391    1229.6558  0.075125597  0.075520714            5 
 1365000    1.0344902   -3.3871188    1226.6334  0.074886041  0.075506615            3 
 1366000    1.0255573   -3.3896771    1233.0104  0.075220255  0.075492428            1 
 1367000    1.0308818   -3.3870024    1233.2475  0.075179683  0.075478687            1 
 1368000    1.0366468   -3.3900102    1231.0003  0.074987835  0.075464663            2 
 1369000     1.040574   -3.3834621    1229.3729  0.074833997  0.075450419            2 
 1370000    1.0421136   -3.3889592    1236.4536  0.075210075   0.07543711            3 
 1371000    1.0322428   -3.4093343    1234.9172  0.075061826  0.075423062            3 
 1372000    1.0451627   -3.3818089      1230.63   0.07474672  0.075408937            1 
 1373000    1.0178289   -3.3687049    1241.5965  0.075357883  0.075395333            3 
 1374000    1.0441323   -3.4029369    1231.6521  0.074699912  0.075381538            2 
 1375000    1.0350931   -3.4006153    1235.7099  0.074891507  0.075367832            1 
 1376000    1.0366162   -3.3985616    1245.6544  0.075439343  0.075354191            5 
 1377000    1.0067959   -3.3669708     1239.154  0.074991166  0.075341215            3 
 1378000     1.041755   -3.4004176    1241.8501  0.075099786  0.075328088            2 
 1379000    1.0342629   -3.3917015    1239.8555  0.074924797  0.075314967            1 
 1380000    1.0382895   -3.3977467    1245.3087  0.075199802  0.075301596            2 
 1381000    1.0382359   -3.3796337    1248.6929  0.075349557  0.075287874            1 
 1382000    1.0315916   -3.3749066    1244.5986  0.075048156  0.075274213            1 
 1383000    1.0439962   -3.3995617     1245.055  0.075021392   0.07526063            2 
 1384000    1.0347975   -3.4209513    1243.4638  0.074871374  0.075246628            3 
 1385000    1.0230803   -3.3946457    1248.5193  0.075121501  0.075232991            3 
 1386000    1.0171433   -3.3897574    1248.8468  0.075086989  0.075218897            1 
 1387000    1.0157601   -3.3864432    1244.7693  0.074787868  0.075205051            2 
 1388000    1.0604532   -3.4101376    1247.0112  0.074868589  0.075191499            2 
 1389000    1.0544279   -3.3804784    1246.4366  0.074780213   0.07517788            2 
 1390000    1.0230282    -3.404718    1249.1142  0.074886944  0.075164186            3 
 1391000    1.0309153    -3.389887    1250.5435  0.074918734  0.075150648            3 
 1392000    1.0334358    -3.409544    1248.3949  0.074736282   0.07513661            4 
 1393000    1.0367731   -3.3868189    1250.2568  0.074794016  0.075122916            2 
 1394000    1.0200395   -3.4001804    1252.5309  0.074876308  0.075109268            5 
 1395000    1.0404998   -3.3789258    1253.8704  0.074902655  0.075095842            2 
 1396000    1.0577784   -3.3972595    1252.6516  0.074776241  0.075082504            3 
 1397000    1.0282596   -3.3824796    1256.5533  0.074955457  0.075069286            3 
 1398000    1.0336099   -3.3997653    1255.4979  0.074838929  0.075055461            2 
 1399000    1.0287162   -3.4222863    1254.1534   0.07470535  0.075041671            2 
 1400000    1.0072637   -3.3795421    1258.9257  0.074936052  0.075027547            4 
 1401000    1.0379868   -3.3926054    1258.9006  0.074881075   0.07501357            2 
 1402000    1.0384372   -3.4127875    1252.3271  0.074436939   0.07499959            4 
 1403000    1.0057785   -3.4178753     1260.666  0.074879188  0.074986095            3 
 1404000    1.0148321   -3.3807524    1260.6621  0.074825622  0.074972758            1 
 1405000     1.033336   -3.3745801    1257.0021  0.074555283  0.074959273            3 
 1406000    1.0460379   -3.3865166    1258.4769   0.07458967  0.074945475            3 
 1407000    1.0409923   -3.3681965    1262.9089  0.074799155  0.074932265            3 
 1408000    1.0323944   -3.3916699    1267.3892  0.075011195   0.07491943            5 
 1409000    1.0280633    -3.399658    1262.4679  0.074666899    0.0749063            2 
 1410000    1.0148171   -3.3953666    1263.2794  0.074661905  0.074892767            6 
 1411000    1.0129318   -3.3671931    1267.6985   0.07486998  0.074879678            1 
 1412000    1.0256614   -3.3842578    1268.5125  0.074864998  0.074866053            2 
 1413000    1.0128374   -3.4237315    1268.1716  0.074791906  0.074852837            6 
 1414000    1.0343416   -3.4007536    1271.3504  0.074926356  0.074839737            2 
 1415000    1.0350846   -3.4023022     1272.838  0.074961013  0.074826753            2 
 1416000    1.0115889   -3.3932085    1270.7969  0.074787954  0.074813424            5 
 1417000    1.0181245   -3.4314577    1267.8984  0.074564712  0.074800814            1 
 1418000     1.046547   -3.3946994    1272.0871  0.074758294  0.074788462            2 
 1419000    1.0265533   -3.4368652    1272.0676  0.074704464  0.074776078            4 
 1420000    1.0252075   -3.4129081    1269.6454  0.074509705   0.07476329            3 
 1421000    1.0252843   -3.3863549    1270.2073  0.074490227  0.074750546            2 
 1422000    1.0183382   -3.3909279     1278.415  0.074918837   0.07473777            4 
 1423000    1.0203377   -3.4160894    1275.1748  0.074676435  0.074724482            2 
 1424000    1.0378098    -3.377676     1272.648  0.074476125   0.07471189            3 
 1425000    1.0084816   -3.3919243    1277.1956  0.074689802  0.074699186            2 
 1426000    1.0327175   -3.3968799    1277.0885  0.074631164  0.074686577            2 
 1427000    1.0357403   -3.3556773    1283.8442  0.074973383  0.074674517            2 
 1428000    1.0211809   -3.4037114    1281.9344  0.074809429  0.074661982            2 
 1429000    1.0370715   -3.3951872    1278.1228  0.074534801  0.074649105            2 
 1430000    1.0410476    -3.395169    1281.3453   0.07467047  0.074636139            1 
 1431000    1.0259773   -3.3889936    1283.4099   0.07473852  0.074623656            2 
 1432000    1.0399996    -3.410325    1279.9112  0.074482727   0.07461182            1 
 1433000    1.0397853   -3.3855141    1281.0547  0.074497251  0.074599423            1 
 1434000    1.0245627   -3.3953375    1286.9906  0.074790249  0.074586813            3 
 1435000    1.0253403    -3.398449     1279.915  0.074327235  0.074574225            1 
 1436000     1.018512   -3.3989798     1290.062  0.074864323  0.074561799            7 
 1437000    1.0069782   -3.4068405    1286.9427  0.074631335  0.074549527            2 
 1438000    1.0173414   -3.4106674     1287.546  0.074614396  0.074537491            3 
 1439000    1.0351487   -3.3974446     1289.764   0.07469099  0.074525113            5 
 1440000    1.0165415   -3.4104408    1289.8056  0.074641526  0.074513126            3 
 1441000   0.99784997   -3.4060252    1287.6112  0.074462827  0.074500899            8 
 1442000    1.0163127   -3.4026333    1295.0247  0.074839615  0.074488838            5 
 1443000    1.0275199   -3.3892955    1299.2787   0.07503342  0.074477366            5 
 1444000   0.99985705   -3.3907562    1294.0914  0.074682099  0.074465933            1 
 1445000    1.0281953   -3.3974364    1292.6552  0.074547592  0.074454148            1 
 1446000    1.0078752   -3.3654429     1299.437  0.074886872   0.07444247            4 
 1447000    1.0293231   -3.3992494    1297.6673    0.0747332  0.074430573            4 
 1448000    1.0186638   -3.4033063    1294.3896  0.074492955  0.074418596            2 
 1449000   0.99378833    -3.373511     1297.698  0.074631815  0.074406927            2 
 1450000    1.0417636   -3.4312785    1292.5935  0.074286984  0.074395289            4 
 1451000    1.0199132   -3.4055663    1298.8553   0.07459541  0.074383092            3 
 1452000    1.0374414   -3.4111319    1296.7234  0.074421683   0.07437098            4 
 1453000    1.0026165   -3.3946353    1294.4419  0.074239614  0.074358764            5 
 1454000    1.0123827   -3.4076508    1298.2947  0.074409373  0.074346714            3 
 1455000    1.0227376   -3.4120745    1299.5948  0.074432691  0.074334733            6 
 1456000    1.0406209   -3.3909674    1301.8831   0.07451254  0.074322826            3 
 1457000   0.98845245   -3.3899394    1303.5142  0.074554693  0.074310509            3 
 1458000    1.0339616   -3.4221694    1299.9614  0.074300489   0.07429861            2 
 1459000    1.0113583   -3.4180462    1308.7259  0.074750165  0.074287122            1 
 1460000    1.0283465   -3.4158936    1301.7114  0.074298597  0.074275367            3 
 1461000    1.0223469   -3.4108771    1305.7967   0.07448076  0.074263685            2 
 1462000    1.0151404   -3.4301438    1304.5284  0.074357526  0.074252549            2 
 1463000    1.0311946   -3.4269327    1304.5396  0.074307337   0.07424108            4 
 1464000   0.99108337   -3.3978388    1312.3533  0.074701347  0.074229802            4 
 1465000    1.0138268   -3.4075925    1311.9688  0.074628486  0.074218627            1 
 1466000    1.0071794   -3.4000787    1311.2999  0.074539558  0.074206926            3 
 1467000    1.0420685    -3.414094    1314.6312  0.074677983  0.074195269            3 
 1468000    1.0223184    -3.409201     1311.138  0.074428817  0.074183521            2 
 1469000   0.99900905   -3.4288398     1309.592  0.074290447  0.074172173            2 
 1470000    1.0192002   -3.4072079    1316.4826  0.074630534   0.07416096            3 
 1471000    1.0112728   -3.4587358    1316.0316  0.074554249  0.074149203            2 
 1472000   0.99425612   -3.4114925    1311.8259  0.074265508  0.074137037            4 
 1473000    1.0424879   -3.4186505    1310.4258  0.074135876  0.074125348            2 
 1474000    1.0125747   -3.4172842    1317.5243  0.074486901  0.074113465            2 
 1475000    1.0213163   -3.4419189    1310.4201  0.074035034  0.074102182            3 
 1476000    1.0079211   -3.4197965    1315.4971  0.074271514  0.074090506            3 
 1477000    1.0165169   -3.4269458    1317.8773  0.074355522   0.07407902            4 
 1478000     1.024467   -3.4192413    1318.7439  0.074354074  0.074067704            4 
 1479000    1.0185788   -3.3966605    1317.9413   0.07425858  0.074056427            4 
 1480000    1.0112646    -3.426707    1319.7561  0.074310589  0.074044945            4 
 1481000    1.0483517   -3.4181027     1318.733  0.074202848  0.074033678            3 
 1482000   0.99943869   -3.4117918    1322.7749  0.074380053  0.074022251            3 
 1483000    1.0333624    -3.425257    1325.6058  0.074488975  0.074010492            4 
 1484000    1.0020858    -3.411568    1317.6829  0.073993871  0.073998902            4 
 1485000   0.99918793   -3.4082804    1320.1205  0.074080837  0.073987556            4 
 1486000    1.0128221   -3.3889781    1327.5943  0.074450107  0.073975934            1 
 1487000   0.99889852   -3.4052887    1325.9162  0.074305994   0.07396452            3 
 1488000    1.0109286   -3.3871895    1324.7232  0.074189246     0.073953            2 
 1489000    1.0243032   -3.4080019    1323.0953  0.074048317    0.0739411            2 
 1490000    1.0096067   -3.4212754    1318.3357  0.073732422  0.073929573            3 
 1491000    1.0168199   -3.4104059    1326.9229  0.074162918  0.073917932            3 
 1492000    1.0086573   -3.3955095    1326.6147  0.074095994  0.073906095            2 
 1493000       1.0305   -3.4337404    1318.8365   0.07361222  0.073893987            2 
 1494000     1.006523   -3.4247595     1326.769  0.074005412  0.073881838            3 
 1495000    1.0299562   -3.4164318    1329.2256  0.074092845  0.073869873            2 
 1496000     1.013497   -3.4195014     1333.889  0.074303086  0.073858277            1 
 1497000    1.0182101   -3.4087361    1333.0077  0.074204393   0.07384664            4 
 1498000    1.0094488   -3.4501697     1328.207  0.073887796  0.073835023            5 
 1499000    1.0261748   -3.4268903    1336.3794  0.074292826  0.073823331            5 
 1500000     1.016892   -3.4165698    1331.7194  0.073984411   0.07381191            1 
 1501000    1.0136597   -3.3860026    1336.8855  0.074221936  0.073800432            1 
 1502000   0.99971164   -3.4225219    1332.6813  0.073939264  0.073789096            2 
 1503000    1.0015864   -3.4269327    1335.4714  0.074044766  0.073777218            2 
 1504000    1.0276058   -3.4430701     1328.571  0.073613196  0.073765609            3 
 1505000    1.0458134   -3.4041395    1338.3176  0.074103967  0.073754418            1 
 1506000     1.020449   -3.3986365    1336.9702  0.073980201  0.073743007            5 
 1507000    1.0121263   -3.4523932    1334.7015  0.073805654  0.073731563            2 
 1508000    1.0103256    -3.432797    1333.9218  0.073713629    0.0737199            3 
 1509000    1.0115137   -3.4126312    1342.4306  0.074134672   0.07370867            1 
 1510000   0.99132969   -3.4430768    1344.3672  0.074192451   0.07369762            2 
 1511000   0.99784276   -3.4194704    1340.5228  0.073931324  0.073686057            3 
 1512000    1.0199709   -3.4316519    1341.5801  0.073940701  0.073674468            2 
 1513000    1.0320209   -3.4242791    1341.9794  0.073913822  0.073663386            2 
 1514000    1.0034895   -3.4303133    1337.4454  0.073615445  0.073651796            3 
 1515000    1.0238737   -3.4486569    1341.4025  0.073784518  0.073640062            2 
 1516000    1.0168262   -3.4172937    1344.3716  0.073899054   0.07362844            3 
 1517000    1.0052771    -3.412139    1349.4291  0.074128166   0.07361703            4 
 1518000    1.0115425   -3.4114206    1349.3319  0.074073994  0.073605687            2 
 1519000    1.0076661   -3.4083786    1342.9769  0.073676593  0.073594055            2 
 1520000    1.0036663   -3.4346436    1345.9541  0.073791343  0.073582068            5 
 1521000    0.9907334   -3.4278168    1344.5392  0.073665307  0.073570317            4 
 1522000    1.0019802   -3.4112474    1350.5076  0.073943693  0.073558641            3 
 1523000    1.0044756   -3.4095779    1350.8836  0.073915716  0.073546946            2 
 1524000     1.015745   -3.4258807    1347.8201  0.073699702  0.073535181            6 
 1525000   0.99843243   -3.3998554     1352.018  0.073880767   0.07352329            2 
 1526000   0.99661101    -3.427575    1353.3129  0.073903062  0.073511683            2 
 1527000    1.0157031   -3.4095569    1348.8751  0.073612481  0.073499602            2 
 1528000   0.99145651   -3.4657883    1345.9418  0.073404333  0.073487352            2 
 1529000    1.0123083   -3.4393219    1349.7025  0.073561289  0.073475397            1 
 1530000    1.0189931   -3.4287637    1355.2819    0.0738171  0.073463683            3 
 1531000   0.99700285   -3.4022496    1352.3928  0.073611627   0.07345196            2 
 1532000     1.018249   -3.4342094    1354.8716  0.073698411  0.073440176            3 
 1533000    1.0303242   -3.4530691    1353.9064  0.073597869  0.073427945            4 
 1534000    1.0095499   -3.4089962    1357.0949  0.073723107  0.073415863            2 
 1535000    1.0063267   -3.4423289    1355.6161  0.073594796    0.0734037            2 
 1536000    1.0136949   -3.4046638    1354.1299  0.073466248  0.073391807            3 
 1537000   0.99436024   -3.4582672    1353.9677  0.073409657  0.073379769            5 
 1538000    1.0018415   -3.4459824    1354.6421  0.073398469  0.073367715            2 
 1539000    1.0043617    -3.424692    1361.9299  0.073745392  0.073355797            1 
 1540000    1.0041318   -3.4002897    1360.1744  0.073602513  0.073344313            3 
 1541000    1.0048423   -3.4289422    1361.0593  0.073602602  0.073332511            6 
 1542000   0.99099302   -3.4122484    1364.4103  0.073735964  0.073320901            2 
 1543000    1.0132665   -3.4049924    1361.0864  0.073508664  0.073308935            2 
 1544000   0.99824804    -3.435844    1362.9306  0.073560592  0.073297089            3 
 1545000    1.0077001   -3.4012693    1361.9176  0.073458338  0.073285895            2 
 1546000    1.0019267   -3.4268637    1362.2625  0.073429414  0.073273785            2 
 1547000    1.0204389   -3.4077417    1364.7036  0.073513443  0.073261897            2 
 1548000    0.9899283   -3.4327252    1361.1701  0.073275739  0.073250115            2 
 1549000   0.99682812   -3.4671466    1357.7583  0.073044884  0.073237722            4 
 1550000    1.0259549   -3.4407239    1363.9457  0.073330414  0.073225484            3 
 1551000    1.0092886   -3.4101411    1364.6083  0.073318733  0.073213554            5 
 1552000    1.0212821   -3.4460454    1367.3274  0.073417493  0.073201775            3 
 1553000    1.0082194   -3.4086133     1368.093    0.0734113  0.073189679            2 
 1554000    1.0191417    -3.415366    1365.1906  0.073208419   0.07317785            1 
 1555000    1.0025597   -3.4587957    1359.4619  0.072854333  0.073165922            3 
 1556000    1.0009371   -3.4218556    1369.1518   0.07332647  0.073153396            1 
 1557000   0.99905898   -3.4007317    1372.2896  0.073447313  0.073141129            2 
 1558000    1.0017075   -3.4326575    1369.2193   0.07323595  0.073129138            2 
 1559000   0.99521021   -3.4124125    1370.2824  0.073245801  0.073116561            3 
 1560000    1.0049585    -3.439174    1366.1834  0.072979881  0.073104313            1 
 1561000    1.0183324    -3.441266    1364.4798  0.072842185  0.073091887            2 
 1562000   0.99664949   -3.4488354    1366.0806  0.072880954  0.073079853            6 
 1563000    1.0032137   -3.4483869    1368.7307  0.072975618  0.073067232            2 
 1564000    1.0052311   -3.4179266    1368.7714  0.072931125  0.073054912            4 
 1565000    1.0186081   -3.4498708    1367.5029  0.072816983  0.073042403            2 
 1566000   0.96851753   -3.4612855    1371.5177  0.072984126  0.073029576            4 
 1567000    1.0049064   -3.4306039    1370.0459  0.072859279   0.07301677            4 
 1568000    1.0105927   -3.4544236    1371.2054  0.072874438  0.073004001            5 
 1569000     1.012801    -3.441435    1369.8507  0.072756037  0.072991183            5 
 1570000    1.0214186   -3.4450834    1366.6125  0.072537818  0.072978178            3 
 1571000     1.000059   -3.4325439    1375.8823  0.072983362   0.07296548            2 
 1572000   0.99007764    -3.428951    1377.0775  0.073000294  0.072953094            5 
 1573000   0.99004226   -3.4363062    1378.3888  0.073023351   0.07294031            2 
 1574000    1.0195077    -3.473496    1373.2253  0.072703586  0.072927532            5 
 1575000    1.0115443    -3.453741    1377.9163  0.072905622  0.072914699            2 
 1576000    1.0047206   -3.4555049    1380.4214  0.072991825  0.072902327            1 
 1577000   0.98617164   -3.4350734    1376.3179  0.072728698  0.072889623            5 
 1578000    1.0003129   -3.4644806    1373.2782  0.072522084  0.072876936            4 
 1579000    1.0084795   -3.4399043     1382.788  0.072978043  0.072864031            2 
 1580000    1.0089022    -3.403833    1384.3164   0.07301247  0.072851489            3 
 1581000    1.0109357   -3.4476131    1379.6175  0.072718613  0.072838781            9 
 1582000    1.0006317   -3.4315138    1376.2104  0.072493175  0.072825673            6 
 1583000    1.0028987   -3.4260435    1380.1025  0.072652268  0.072812828            3 
 1584000   0.99142493   -3.4586797    1381.5614  0.072683154  0.072799753            3 
 1585000   0.99445597   -3.4576546    1379.3588  0.072521495  0.072786375            2 
 1586000    0.9948797   -3.4562893    1383.2978  0.072682737   0.07277347            2 
 1587000   0.97916221   -3.4408091     1382.215  0.072580079  0.072760211            5 
 1588000   0.99573741   -3.4461661    1389.0793  0.072894588  0.072747266            3 
 1589000   0.98762201   -3.4395837    1391.0922  0.072954282  0.072734442            2 
 1590000    1.0160883   -3.4550824    1382.0094  0.072432358  0.072721674            3 
 1591000    1.0052718   -3.4442263    1384.6528  0.072525286   0.07270877            5 
 1592000   0.98400926   -3.4604008    1387.0861  0.072607101  0.072695537            1 
 1593000   0.97667871   -3.4551689    1386.6866  0.072540628  0.072682416            2 
 1594000   0.99495335   -3.4581398    1389.4933   0.07264185  0.072669529            2 
 1595000   0.98363002    -3.468094    1384.6269  0.072342055  0.072656746            2 
 1596000    1.0065374   -3.4550335    1387.2793  0.072435218  0.072644061            3 
 1597000   0.97011415   -3.4391564     1391.702  0.072620642  0.072631162            2 
 1598000    1.0141841   -3.4882794    1388.1369  0.072389286   0.07261822            2 
 1599000     1.008497   -3.4567339    1389.7386  0.072427485  0.072605702            2 
 1600000    1.0040524   -3.4401958     1395.101  0.072661509  0.072593022            3 
 1601000   0.98835188   -3.4511826    1389.8102  0.072340733  0.072580551            2 
 1602000    1.0125978   -3.4533577     1396.306  0.072633481  0.072567498            2 
 1603000   0.97717585   -3.4672923     1392.328   0.07238137  0.072554118            2 
 1604000    1.0020477   -3.4501974    1388.8418  0.072155121  0.072540688            2 
 1605000   0.98901326   -3.4469235     1391.464  0.072246315  0.072527384            2 
 1606000     1.006361   -3.4267926    1391.4215  0.072199125  0.072514092            5 
 1607000   0.98741218   -3.4569969    1394.2667   0.07230174  0.072500974            5 
 1608000   0.99423288   -3.4340557    1395.8826  0.072340515  0.072487636            3 
 1609000    1.0083552   -3.4022653    1396.3687  0.072320733  0.072474442            3 
 1610000   0.97073678   -3.4363505    1398.3392  0.072377806  0.072461542            5 
 1611000   0.97982061   -3.4558298    1394.0917  0.072113166  0.072448784            2 
 1612000   0.98636392   -3.4528826    1395.6592   0.07214946    0.0724356            1 
 1613000   0.98914746   -3.4771916    1394.1625  0.072027406  0.072422359            2 
 1614000   0.99852199   -3.4297881    1407.5737   0.07267522  0.072409288            2 
 1615000   0.99824155    -3.414446    1396.2503  0.072045938  0.072396579            2 
 1616000   0.96748768   -3.4014647    1396.9606  0.072037985  0.072383288            2 
 1617000   0.99605237   -3.4672862    1400.7179  0.072187068  0.072370261            3 
 1618000   0.99607743   -3.4492052    1405.4132  0.072384283  0.072357058            2 
 1619000   0.99263501   -3.4474243    1402.3151  0.072180108  0.072343863            5 
 1620000   0.98597249    -3.429484    1401.9168  0.072115063   0.07233093            5 
 1621000   0.99226188   -3.4379381    1405.0947  0.072233947  0.072317871            4 
 1622000   0.99183996   -3.4541949    1399.0213   0.07187738  0.072304306            2 
 1623000   0.98316329   -3.4238613    1407.1206  0.072248955  0.072291258            5 
 1624000    1.0114768   -3.4313775     1403.253  0.072006002  0.072278285            3 
 1625000    1.0029581   -3.4606123    1406.9671  0.072152156  0.072265269            3 
 1626000   0.96933363   -3.4512902       1407.7  0.072145345  0.072252386            2 
 1627000    1.0112843   -3.4364879    1405.5978  0.071993331  0.072239374            1 
 1628000   0.98680445   -3.4218433    1406.6034  0.072000581  0.072226566            2 
 1629000   0.97542644   -3.4584884    1409.0976  0.072083979  0.072213964           10 
 1630000    1.0067268   -3.4594045    1406.6052  0.071912334  0.072201072            2 
 1631000   0.96319755   -3.4771036    1406.7551  0.071875898   0.07218822            5 
 1632000   0.97923399   -3.4462387    1412.9765  0.072149535  0.072175274            3 
 1633000   0.99179753   -3.4485273    1413.7041  0.072142486  0.072162362            2 
 1634000   0.97426273   -3.4918538    1408.4206  0.071828876  0.072149495            6 
 1635000    1.0004021   -3.4511359    1414.3885   0.07208912   0.07213675            2 
 1636000    1.0024686   -3.4507537    1409.6494  0.071803655  0.072124079            2 
 1637000    1.0057679    -3.444763    1420.4654  0.072310394   0.07211196            2 
 1638000    1.0092974   -3.4771981    1415.2414  0.072000477   0.07209926            2 
 1639000   0.99299789   -3.4633493    1417.5916  0.072076041  0.072086393            4 
 1640000    0.9715501   -3.4584719    1419.3956   0.07212376  0.072073579            7 
 1641000    1.0146849   -3.4602103    1421.4155  0.072182383  0.072061245            2 
 1642000   0.98748752    -3.471737    1421.1679  0.072125856   0.07204893            2 
 1643000   0.98529184   -3.4523833     1420.321  0.072039005  0.072036512            2 
 1644000   0.98688098   -3.4254613    1426.0629  0.072286235  0.072024238            5 
 1645000   0.95653926   -3.4413754    1418.0324  0.071835479  0.072011707            3 
 1646000   0.99468678   -3.4508432     1424.598  0.072124241   0.07199951            2 
 1647000    1.0042985   -3.4359005    1423.9845  0.072049408  0.071986798            4 
 1648000    0.9868597   -3.4434904    1418.7297  0.071739972  0.071974391            2 
 1649000   0.97934773    -3.463677    1421.1919  0.071820895  0.071961735            2 
 1650000   0.97424259   -3.4572818     1425.822   0.07201121  0.071949171            4 
 1651000   0.98981432   -3.4638201    1430.3996  0.072198649  0.071936846            2 
 1652000   0.98039711    -3.485209    1429.1506  0.072091941  0.071924145            3 
 1653000    1.0036611   -3.4538253    1430.0804  0.072095198  0.071911749            1 
 1654000   0.97658452   -3.4805853    1428.9184   0.07199307  0.071899289            2 
 1655000   0.99480069   -3.4595042     1431.837  0.072096526  0.071886536            2 
 1656000   0.98516483   -3.4232093     1429.903  0.071955668  0.071874083            5 
 1657000   0.99958636   -3.4364364    1430.5772  0.071946148  0.071861965            3 
 1658000   0.99958187   -3.4599186    1430.1034  0.071878939  0.071849727            2 
 1659000   0.99372181   -3.4419968    1437.2522  0.072194707  0.071837604            2 
 1660000   0.97128971   -3.4469836    1437.5554  0.072166438  0.071825543            3 
 1661000   0.98969875   -3.4505659    1428.7999  0.071683719  0.071813656            4 
 1662000   0.97705751   -3.4753707    1434.3825  0.071920503  0.071801738            2 
 1663000   0.96852411   -3.4622494    1435.6676  0.071941653  0.071789189            1 
 1664000   0.97949968   -3.4324509    1432.6845  0.071749024  0.071777249            4 
 1665000   0.99517167   -3.4562798    1441.7429  0.072159304  0.071764825            2 
 1666000   0.98093517   -3.4450214    1434.0683   0.07173211  0.071752244            2 
 1667000   0.97340781   -3.4533626    1436.3344   0.07180236   0.07173994            4 
 1668000   0.97121202   -3.4671374    1432.6283  0.071574157  0.071727498            4 
 1669000   0.98111992   -3.4534393     1436.209  0.071710056  0.071715287            5 
 1670000   0.98142246   -3.4553874    1432.2997  0.071472042  0.071702771            9 
 1671000   0.97779788   -3.4543696    1439.6773   0.07179719   0.07169035            2 
 1672000   0.98541327   -3.4623705    1438.8982  0.071715419  0.071677814            8 
 1673000   0.97952379   -3.4557263    1437.4926  0.071602542  0.071665567            3 
 1674000   0.98558035   -3.4515768    1447.1114    0.0720386  0.071653424            4 
 1675000   0.97693315   -3.4550689     1448.011  0.072040346  0.071641288            3 
 1676000   0.98321106    -3.438184    1446.5112  0.071922793  0.071629035            2 
 1677000   0.99969173   -3.4642723    1445.7802   0.07184358  0.071617147            3 
 1678000   0.98467718   -3.4442703    1442.5949  0.071642576  0.071605005            9 
 1679000   0.98194822   -3.4865285      1438.94  0.071418505  0.071592627            4 
 1680000   0.95794776   -3.4740558    1446.5366  0.071752809  0.071580459            6 
 1681000   0.96871513   -3.4842604    1446.0735  0.071687164  0.071568421            2 
 1682000   0.98394306   -3.4721729    1445.9027  0.071636082  0.071556377            4 
 1683000   0.98036982    -3.487845    1444.2463  0.071511504     0.071544            3 
 1684000   0.98216097   -3.4111993    1448.6123  0.071685092  0.071531889            4 
 1685000   0.96451189   -3.4484309    1452.1056   0.07181531  0.071520103            5 
 1686000     1.011305   -3.4503208    1447.1935   0.07152993  0.071508034            2 
 1687000    1.0058688   -3.4885557    1449.8185  0.071617194  0.071495877            2 
 1688000   0.98259413   -3.4629453    1451.2739   0.07164662  0.071483721            2 
 1689000   0.97497449   -3.4613663    1450.3578  0.071559001  0.071471603            3 
 1690000   0.98240108   -3.4428538    1448.7646  0.071438099  0.071459332            5 
 1691000   0.97482174   -3.4883325     1457.027  0.071803027   0.07144732            3 
 1692000   0.98583872   -3.4811491    1457.2441  0.071771283  0.071435382            3 
 1693000   0.97714432    -3.484699    1449.2295  0.071334391   0.07142309            3 
 1694000   0.99200356   -3.4670818    1449.7645  0.071318602  0.071410971            2 
 1695000   0.98811713   -3.4715676    1457.9428  0.071678605    0.0713994            4 
 1696000    1.0116788   -3.4876085    1461.1783   0.07179532  0.071387878            1 
 1697000   0.98045136   -3.4701849    1455.8879  0.071493219  0.071375885            4 
 1698000   0.98763463   -3.4606451    1456.3057  0.071471616  0.071364034            2 
 1699000   0.99129285   -3.4652078    1457.2464  0.071475692  0.071352294            1 
 1700000    0.9595971   -3.4552054    1459.5629  0.071547202  0.071340543            2 
 1701000   0.98624345   -3.4877587    1455.1082  0.071286901  0.071328278            4 
 1702000   0.97209325   -3.4208926    1462.6932  0.071616394  0.071316712            1 
 1703000   0.99175133   -3.4498537    1458.9157  0.071389492  0.071305197            4 
 1704000   0.96358569   -3.4554884    1464.7291  0.071631899  0.071293358            4 
 1705000   0.98959722   -3.4806416    1457.8453  0.071253435  0.071281719            2 
 1706000   0.99837982   -3.4747482    1466.1607  0.071617854  0.071269749            9 
 1707000   0.97480071   -3.4431032    1464.8415  0.071511499  0.071257975            2 
 1708000   0.98678253   -3.4874604    1464.2214  0.071439374  0.071245619            3 
 1709000   0.96201652   -3.4874432    1459.1385  0.071149721  0.071233493            3 
 1710000   0.99327484   -3.4885336    1463.1644  0.071304308  0.071221197            2 
 1711000   0.96666019   -3.4522018    1464.5788  0.071331521  0.071208974            2 
 1712000   0.97370594   -3.4327171    1465.2742  0.071323706  0.071196913            1 
 1713000    0.9948357   -3.4407752     1465.052  0.071271259  0.071184885            6 
 1714000   0.97976868   -3.4874914     1472.153  0.071574922  0.071173291            3 
 1715000   0.97808497   -3.4896177    1466.1924  0.071243558  0.071161309            2 
 1716000   0.95371574   -3.4413189    1476.3781  0.071696681  0.071149662            3 
 1717000   0.98126287   -3.4556736      1466.81  0.071190544  0.071137893            1 
 1718000    0.9911328   -3.4534893     1475.045  0.071548554  0.071126053            4 
 1719000   0.97818475   -3.4689654    1471.5244  0.071336263  0.071114206            3 
 1720000   0.98221457   -3.4559323    1475.5481  0.071489733  0.071102597            1 
 1721000   0.97988327   -3.4411378    1471.5451  0.071254361  0.071090757            2 
 1722000   0.98538725   -3.4380111    1477.0555  0.071479648  0.071078796            2 
 1723000   0.98325587   -3.4914725     1466.862  0.070945155  0.071066786            4 
 1724000    0.9740902   -3.4584542    1475.6101  0.071326861  0.071055251            3 
 1725000   0.96227549   -3.4791941    1474.3601  0.071225125  0.071043431            4 
 1726000   0.95580913   -3.4636286     1475.909  0.071258641  0.071031531            1 
 1727000   0.98846817   -3.4578268    1474.5358  0.071151118    0.0710199            2 
 1728000   0.97604103   -3.4623872    1480.9473  0.071419141  0.071008109            2 
 1729000   0.98222328   -3.4728402    1477.2989  0.071201993  0.070996333            4 
 1730000   0.98094488   -3.4617735    1476.4712  0.071120964  0.070984287            3 
 1731000   0.96454169   -3.5106889    1477.0257  0.071106569  0.070972504            4 
 1732000   0.97483947   -3.4804998    1474.4956  0.070943786  0.070960529            2 
 1733000    0.9624691   -3.4733067    1480.4987  0.071191511  0.070948619            2 
 1734000   0.95834193   -3.4644585    1482.9726  0.071269349  0.070936887            2 
 1735000   0.97002622   -3.4835499    1481.9752  0.071180364  0.070925147            2 
 1736000   0.97970518   -3.4924242    1478.5253  0.070973758  0.070913636            4 
 1737000   0.98599275   -3.4795483     1483.951  0.071193196  0.070901704            2 
 1738000   0.97618517   -3.4663374    1481.5151  0.071035439  0.070889819            4 
 1739000    1.0027129   -3.4689495    1484.0864  0.071117805  0.070878107            6 
 1740000    0.9578048   -3.4802915    1484.5919  0.071101144  0.070866165            3 
 1741000   0.97603018   -3.5000624    1483.6049  0.071013064  0.070853826            1 
 1742000   0.98127455   -3.4925046    1479.5104  0.070776425  0.070841709            3 
 1743000   0.95592346   -3.4627843    1482.8144  0.070893786  0.070829475            6 
 1744000   0.96064961   -3.4844808    1480.4601   0.07074064  0.070816957            4 
 1745000   0.95872651   -3.4667482    1483.6199  0.070850998  0.070804644            1 
 1746000    0.9906213   -3.4700152    1481.6854   0.07071809  0.070792007            2 
 1747000   0.97553965    -3.491906    1483.0885  0.070744539  0.070779419            2 
 1748000   0.95347755   -3.4893642    1481.5239  0.070629478  0.070767142            3 
 1749000   0.96173049   -3.4617545    1481.3863  0.070582539  0.070754391            2 
 1750000   0.97548176    -3.458174    1483.2563  0.070631253  0.070741463            5 
 1751000   0.95883142   -3.4792501    1490.3263  0.070927389  0.070728582            2 
 1752000    0.9795501   -3.4508966    1487.9166  0.070772289  0.070716053            3 
 1753000   0.96680513   -3.5014296    1487.8092   0.07072681  0.070703373            3 
 1754000   0.95126625   -3.4854124    1485.4195  0.070572953  0.070690526            3 
 1755000   0.94787865   -3.4704638    1485.4836  0.070535784  0.070677942            6 
 1756000    0.9568742   -3.4904239    1488.9577  0.070660483  0.070665579            2 
 1757000   0.96832517   -3.4653897    1490.6503  0.070700546  0.070653278            3 
 1758000   0.98088885    -3.476566    1486.7997    0.0704778  0.070640988           10 
 1759000   0.95670144   -3.4963155     1487.766  0.070483513  0.070628661            3 
 1760000   0.95114687   -3.4783563     1495.511   0.07081018  0.070616437            5 
 1761000   0.99545278   -3.4691675    1488.5581  0.070440946  0.070603914            2 
 1762000   0.95674668    -3.485882    1493.1868  0.070619881  0.070591402            1 
 1763000   0.95180901   -3.5082872    1490.6624  0.070460503  0.070578587            3 
 1764000   0.95692436   -3.4954122    1501.8598  0.070949539  0.070566205            4 
 1765000   0.99261491   -3.5093719    1496.7614  0.070668622  0.070553953            2 
 1766000   0.96037437   -3.5026283    1491.7345  0.070391396  0.070541531            3 
 1767000   0.95539309   -3.4865732    1498.5671  0.070673793  0.070529362            5 
 1768000   0.95306943   -3.4802424    1499.0102  0.070654703  0.070517028            4 
 1769000   0.99574093   -3.5092498    1495.5631   0.07045238  0.070504427            5 
 1770000   0.97760547   -3.5017176    1493.2583  0.070304063  0.070492176            1 
 1771000   0.94892251   -3.4917781    1495.4148  0.070365839  0.070479359            2 
 1772000   0.95042331   -3.5069147    1495.3695  0.070323998  0.070466498            3 
 1773000   0.98955122   -3.4699675    1496.3836     0.070332  0.070453661            2 
 1774000    0.9977607   -3.4698294    1495.1928  0.070236413  0.070440879            2 
 1775000   0.98920523   -3.4840893     1495.795  0.070225116  0.070428025            2 
 1776000   0.98848745   -3.4994952    1496.7523  0.070230496  0.070415302            3 
 1777000   0.95563401   -3.4969503    1501.0402  0.070392055   0.07040278            2 
 1778000    0.9803306    -3.481391    1498.0917  0.070214271  0.070390373            5 
 1779000   0.98323112   -3.4564213    1504.8311  0.070490495  0.070377814            3 
 1780000   0.98144211   -3.5002574    1497.9776  0.070130036  0.070365235            2 
 1781000   0.95942565   -3.4615324    1509.5514  0.070632202  0.070352574            3 
 1782000   0.97956595   -3.4898134    1501.7772  0.070229012  0.070340109            5 
 1783000   0.97633261   -3.4956854    1500.0789   0.07011025  0.070327318            3 
 1784000   0.96048065    -3.495576    1501.8034  0.070151506  0.070314686            5 
 1785000   0.94426382   -3.4447008    1503.2938  0.070181781   0.07030194            3 
 1786000    0.9642145   -3.4883818    1510.3528  0.070471854   0.07028929            2 
 1787000   0.97825339   -3.4949346    1508.8718  0.070363356  0.070276835            2 
 1788000   0.96841444    -3.497904     1506.437  0.070210526  0.070264283            3 
 1789000   0.97263939   -3.4774534     1512.819  0.070468559  0.070251637            2 
 1790000   0.94155109    -3.488699    1507.8303  0.070196939   0.07023928            2 
 1791000   0.97122306   -3.4860978     1504.637  0.070009165  0.070226677            2 
 1792000   0.96817868   -3.5005524    1505.3394  0.070002761  0.070213399            3 
 1793000   0.98413861   -3.4777893    1507.6135  0.070069412  0.070200348            3 
 1794000   0.95581235   -3.5069864    1501.3468  0.069739259  0.070187142            9 
 1795000   0.96359861   -3.4937389    1505.7592  0.069905253  0.070173873            4 
 1796000   0.97556435   -3.4882697    1500.9869  0.069644902  0.070160945            1 
 1797000   0.96769267   -3.4877625    1509.3089  0.069992067  0.070147959            2 
 1798000   0.95478788   -3.4752249    1509.1815  0.069947231  0.070135001            6 
 1799000    0.9505332   -3.4803011    1513.2345  0.070096093  0.070121985            2 
 1800000   0.97340148   -3.4765596    1511.5067  0.069977164  0.070109067            3 
 1801000   0.97341261   -3.5192202    1508.4353  0.069796191  0.070096484            2 
 1802000   0.96046779   -3.4812765    1520.1253  0.070298061  0.070083458            1 
 1803000   0.95227998    -3.499997    1512.3412  0.069899298  0.070070596            2 
 1804000   0.95457292   -3.5093085    1510.2808  0.069765374  0.070057659            2 
 1805000   0.97729702   -3.4778149    1518.5102  0.070106656  0.070044783            1 
 1806000   0.96999415   -3.4630003    1524.7035  0.070353613   0.07003217            3 
 1807000   0.93872678   -3.4910268    1521.8274  0.070182044   0.07001942            3 
 1808000    0.9561958   -3.4885152    1517.0617  0.069923568  0.070006835            2 
 1809000   0.95210015   -3.4630038    1520.9961  0.070066157  0.069994346            2 
 1810000   0.96709706   -3.5082745    1516.1508  0.069804364  0.069981797            6 
 1811000    0.9629276   -3.4768012    1518.6098   0.06987897  0.069969376            3 
 1812000   0.96513623   -3.5067812    1517.4576  0.069787415  0.069956969            3 
 1813000   0.95094308    -3.471549    1523.6781  0.070034846  0.069944236            1 
 1814000   0.96953742   -3.4909082    1523.9288  0.070007755  0.069931236            5 
 1815000   0.95955102   -3.5089864    1520.6784  0.069819947  0.069918334            3 
 1816000   0.96254527   -3.4716579    1519.6479  0.069734209  0.069905645            3 
 1817000   0.98270516   -3.5036052    1515.9369  0.069525634  0.069892783            2 
 1818000   0.95028474    -3.484844    1531.9208  0.070220056  0.069880154            5 
 1819000   0.95765538   -3.5181958     1524.885  0.069859125  0.069867393            3 
 1820000   0.95224508   -3.5114055    1515.2731  0.069380638   0.06985434            3 
 1821000   0.95380478   -3.5104634    1519.3668  0.069529874  0.069841094            3 
 1822000   0.95439544   -3.4873001    1525.3889  0.069767147  0.069828161            3 
 1823000   0.93742794    -3.505302    1522.4004  0.069592266  0.069815177            3 
 1824000   0.97400029   -3.4905186    1519.1269  0.069404555  0.069802024            3 
 1825000   0.95454107   -3.5156763    1529.5244  0.069841298  0.069788867            3 
 1826000   0.96225209   -3.4647881    1531.1603  0.069877706  0.069776157            2 
 1827000   0.95011043    -3.490385    1529.3907  0.069758743  0.069763389            4 
 1828000   0.97692491   -3.4994847    1526.1423  0.069572497  0.069750524            4 
 1829000   0.96964872   -3.4908204    1526.3969  0.069546057  0.069737782            3 
 1830000   0.95388305   -3.5142207     1532.178  0.069771311  0.069725055            5 
 1831000   0.97476358   -3.5060071    1535.1163  0.069866937   0.06971203            4 
 1832000   0.96623921   -3.4677175     1535.468  0.069844797    0.0696995            2 
 1833000   0.96055191   -3.4905775    1529.0639  0.069515541  0.069686805            3 
 1834000   0.96786907   -3.5136668    1531.2792  0.069578298  0.069673857            4 
 1835000   0.96656181   -3.4954657    1529.6404  0.069465957   0.06966105            8 
 1836000   0.93987222   -3.5158026    1535.1074  0.069676262  0.069648475            4 
 1837000   0.95970711    -3.524782    1531.3623  0.069468442  0.069635463            3 
 1838000   0.94747308   -3.5049917    1531.1774   0.06942226  0.069622775            3 
 1839000   0.96842133   -3.5035694    1536.5692  0.069628836  0.069610281            3 
 1840000   0.95085499   -3.4996275    1535.5881  0.069546564  0.069597766            2 
 1841000   0.94758386    -3.476739    1535.5984  0.069509251   0.06958521            1 
 1842000   0.96950758   -3.4975977    1539.2365  0.069636105  0.069572686            3 
 1843000   0.98184503   -3.4865313     1535.922  0.069448453  0.069560027            2 
 1844000   0.96140901   -3.5030477    1540.3181  0.069609457  0.069547575            3 
 1845000   0.94253911   -3.5477968    1536.7594  0.069410995  0.069534894            4 
 1846000    0.9375809   -3.4861628    1543.4732  0.069676471  0.069522256            4 
 1847000   0.96814622   -3.4690928    1542.2831  0.069585052  0.069509652            5 
 1848000    0.9599224   -3.5134065    1536.2499  0.069275338  0.069496959            5 
 1849000   0.96607586   -3.5096296    1540.6182  0.069434748  0.069484195            3 
 1850000   0.98124284    -3.494415    1551.1161  0.069870094   0.06947175            7 
 1851000   0.97421844   -3.4840749    1546.5107  0.069625011  0.069459319            1 
 1852000   0.93701138   -3.5185064    1545.2412  0.069530292  0.069446796            5 
 1853000   0.96527393   -3.5063008    1539.3953  0.069229868  0.069434199            3 
 1854000   0.93540085   -3.4916972    1541.7369  0.069297774  0.069421559            5 
 1855000   0.96955156   -3.4999178    1546.0667  0.069454926  0.069408968            2 
 1856000   0.95250717   -3.5231975    1544.1683  0.069332268  0.069396364            4 
 1857000   0.95844738   -3.4897361    1545.1588  0.069339381  0.069383786            2 
 1858000   0.95683093   -3.4932453    1540.5486  0.069095292  0.069371322            3 
 1859000   0.96871096   -3.5322941     1545.276  0.069270037  0.069358717            4 
 1860000   0.96512728   -3.5228293    1542.0843  0.069089798  0.069345818            1 
 1861000   0.95052432   -3.5293527    1549.0532  0.069364733  0.069332934            4 
 1862000   0.95122293   -3.5174673    1546.1167  0.069196059  0.069320079            2 
 1863000   0.96413547   -3.5125579    1544.4745  0.069085457  0.069307284            2 
 1864000    0.9674944   -3.5129681    1550.7838  0.069330464  0.069294263            2 
 1865000   0.95670827   -3.4787797     1550.251  0.069269483   0.06928133            3 
 1866000   0.94293992   -3.5278305    1545.3275  0.069012482  0.069268625            2 
 1867000   0.93696027    -3.499846    1547.0229  0.069051192   0.06925577            2 
 1868000   0.95370397   -3.5144493    1546.8181  0.069005091  0.069242726            5 
 1869000   0.92874707   -3.4950345    1553.1893  0.069252243  0.069229952            1 
 1870000    0.9608729    -3.506201    1553.8501  0.069244658  0.069217006            2 
 1871000   0.94073869   -3.5134614    1552.7678  0.069159442  0.069204281            2 
 1872000   0.94715176   -3.5013726    1552.5996   0.06911501  0.069191361            4 
 1873000    0.9460498    -3.501522    1550.6282  0.068990397  0.069178243            4 
 1874000   0.95185693   -3.4864708    1557.2783  0.069249303  0.069165585            5 
 1875000    0.9480816   -3.5075476    1550.5805   0.06891469  0.069152678            5 
 1876000   0.95414854   -3.4834263    1554.0052  0.069030083  0.069139934            3 
 1877000   0.93901818    -3.476503    1554.1207  0.068998431  0.069127035            3 
 1878000   0.95353287   -3.4823539    1558.1256  0.069139404   0.06911435            4 
 1879000   0.96389699   -3.5039359    1556.8533  0.069046184  0.069101649            3 
 1880000   0.97093457   -3.5123795    1556.1292  0.068977356   0.06908916            4 
 1881000     0.936746   -3.5248096    1557.3086  0.068992937  0.069076521            3 
 1882000   0.93379202    -3.494019    1556.7609  0.068932026  0.069063661            3 
 1883000    0.9444713   -3.4898794    1560.4877   0.06906035  0.069050968            2 
 1884000   0.95901585   -3.5282967    1561.1238  0.069051832  0.069038299            3 
 1885000   0.93397033   -3.5186916     1557.985  0.068876438  0.069025299            2 
 1886000   0.94134057   -3.5056298    1562.5073  0.069039738  0.069012519            3 
 1887000   0.95994141   -3.4604071    1554.6396  0.068655695  0.068999662            3 
 1888000   0.94962885    -3.490846    1563.0459  0.068990372  0.068986959            2 
 1889000   0.95274006   -3.4881949    1561.9194  0.068904154  0.068974188            3 
 1890000   0.94798158   -3.5011319    1559.3937  0.068756335  0.068961697            3 
 1891000   0.96150344   -3.4977129     1562.094  0.068838973  0.068949257            2 
 1892000   0.96213495   -3.5341681    1559.1704  0.068673822  0.068936857            2 
 1893000   0.96206962   -3.5201762    1574.1184  0.069295581  0.068924353            2 
 1894000   0.95240195    -3.513416     1571.854  0.069159361  0.068911781            5 
 1895000   0.91617892   -3.5498218    1570.7111  0.069072607  0.068899209            3 
 1896000    0.9276338   -3.5195749    1560.2889  0.068578097  0.068886933            2 
 1897000   0.95219199   -3.5219254    1570.2073  0.068977653  0.068874714            3 
 1898000   0.93647472   -3.5541628    1567.8177  0.068836392  0.068862255            2 
 1899000   0.95474582   -3.5424745    1570.6516  0.068924503  0.068849599            3 
 1900000    0.9636858   -3.5199345    1567.7898  0.068762709   0.06883683            2 
 1901000   0.94073225   -3.4992518    1571.8474  0.068904411    0.0688242            2 
 1902000   0.96055726   -3.5256867    1571.6897  0.068861272  0.068811521            3 
 1903000   0.95114273   -3.5383019    1570.5059  0.068773246  0.068798963            3 
 1904000   0.95246924    -3.541729    1573.9724  0.068888847  0.068786546            3 
 1905000    0.9449789   -3.5029129    1573.8585  0.068847704  0.068774065            1 
 1906000   0.94712723    -3.499755    1579.0707  0.069039469  0.068761618            8 
 1907000   0.94397201   -3.5028378    1574.5569  0.068806016  0.068749329            3 
 1908000   0.94751797   -3.4985473    1567.4805  0.068460888  0.068736893            2 
 1909000   0.94585018    -3.566591    1568.8755  0.068485922  0.068724221            2 
 1910000   0.94628312   -3.4893796     1578.719  0.068879537  0.068711769            2 
 1911000   0.95518872   -3.4968925    1574.1866  0.068645846   0.06869922            3 
 1912000   0.92880179   -3.5308476    1579.7407  0.068852016  0.068686693            3 
 1913000   0.92838036   -3.5437555    1565.0821  0.068177474  0.068673778            5 
 1914000   0.96094753   -3.5135421    1576.0604  0.068619835  0.068661037            4 
 1915000   0.92675468   -3.5255585    1572.6129  0.068433981  0.068648067            4 
 1916000   0.96456203   -3.5103596    1569.4733  0.068261714  0.068635063            3 
 1917000   0.94597999   -3.5207868    1573.6946  0.068409606  0.068622117            2 
 1918000   0.91797388   -3.5362829     1578.707  0.068591717  0.068609298            5 
 1919000    0.9635166   -3.5327601    1571.8969  0.068260242   0.06859628            3 
 1920000   0.95150576   -3.5121236    1575.7182  0.068390545  0.068583172            6 
 1921000   0.93515493   -3.5311335    1582.1862  0.068635528  0.068570516            3 
 1922000   0.93502871    -3.524315     1581.267  0.068559964   0.06855799            2 
 1923000    0.9538048   -3.5016757    1584.7584  0.068675612  0.068545062            4 
 1924000   0.94174216   -3.5312002    1578.4234  0.068365531  0.068532107            3 
 1925000   0.93872944   -3.5186943    1580.9455  0.068439199  0.068519219            5 
 1926000   0.93909714   -3.5247237    1574.9249  0.068143169  0.068506306            7 
 1927000   0.93652789   -3.4963295    1585.3218  0.068557422  0.068493671            4 
 1928000   0.93502122   -3.5356462    1584.4761  0.068485308   0.06848084            4 
 1929000   0.96465082   -3.5203287     1583.196  0.068394506  0.068468268            2 
 1930000   0.93877638   -3.5193965    1586.5647   0.06850452   0.06845567            2 
 1931000   0.95498936   -3.5150458    1583.8909  0.068353656  0.068442871            2 
 1932000   0.93830151   -3.4992467     1586.939  0.068449752  0.068430038            3 
 1933000   0.94424755   -3.4993224    1585.9533  0.068371843  0.068417436            4 
 1934000   0.96373857   -3.5233891    1584.1919  0.068260598  0.068404716            1 
 1935000   0.94187333   -3.5202883    1586.2606   0.06831441  0.068391999            6 
 1936000   0.94253204   -3.5107948    1589.7279   0.06842837  0.068379585            3 
 1937000   0.92098183   -3.5230339    1582.3254  0.068074576  0.068366929            2 
 1938000    0.9369811   -3.5167102    1589.9171  0.068365889  0.068354158            8 
 1939000    0.9424122   -3.5286299    1586.3849  0.068178824  0.068341463            5 
 1940000    0.9322279   -3.5485969    1583.9945  0.068041001  0.068328756            5 
 1941000   0.95118395   -3.5378598    1586.9281  0.068131895  0.068315949            2 
 1942000   0.93547565   -3.5243112    1588.4306  0.068161284  0.068303616            4 
 1943000   0.96038422   -3.5397037    1592.2131  0.068288432  0.068290867            2 
 1944000   0.93795412   -3.5476212    1591.4475  0.068220485  0.068277791            3 
 1945000    0.9526474   -3.5300093    1593.0662  0.068254764  0.068265178            4 
 1946000      0.93221   -3.5455921    1588.5162  0.068024847  0.068252555            3 
 1947000   0.95574734   -3.5215476    1592.9932  0.068181529  0.068240184            7 
 1948000   0.92383303   -3.5378352    1602.6279  0.068558687  0.068227773            6 
 1949000   0.93413007   -3.5296962    1595.8404  0.068233298  0.068215344            3 
 1950000   0.91304619   -3.5323412    1593.5819  0.068101789   0.06820295            5 
 1951000   0.93639274   -3.5357225    1596.3907  0.068186857  0.068190616            4 
 1952000   0.91914409   -3.5370812    1596.3831  0.068151599  0.068178393            6 
 1953000   0.94817865   -3.5246716    1596.5888  0.068125482  0.068166291            2 
 1954000   0.93453212   -3.5341286    1596.4958  0.068086653  0.068153771            4 
 1955000   0.93034507    -3.508513    1606.3106  0.068470188  0.068141599            4 
 1956000   0.91211367   -3.5280106    1602.2115  0.068260547  0.068129553            3 
 1957000   0.93981013   -3.5296548    1602.5556  0.068240316  0.068117054            4 
 1958000    0.9313979   -3.5073243    1597.0415  0.067970784  0.068104559            3 
 1959000   0.94495919   -3.5260123    1603.5355   0.06821233  0.068092193            3 
 1960000   0.93619495   -3.5033234    1606.2503  0.068292955  0.068079827            3 
 1961000   0.96270273   -3.5157809     1603.443  0.068138832  0.068067331            4 
 1962000   0.92125979   -3.5344683    1606.5093  0.068234341  0.068055308            2 
 1963000    0.9168627   -3.5176924    1609.1559  0.068311934  0.068043094            4 
 1964000   0.94049419    -3.519086    1606.8882   0.06818093  0.068030838            4 
 1965000   0.93769951   -3.5233472    1612.0574  0.068365452  0.068018602           11 
 1966000   0.93684885   -3.5409076    1608.9437    0.0681987  0.068006504            7 
 1967000   0.92123527   -3.5477011    1609.3421  0.068180904  0.067994194            2 
 1968000    0.9516074   -3.5585759    1608.3956  0.068106182  0.067982062            2 
 1969000   0.94124354   -3.5335024    1613.8682  0.068303209  0.067969983            3 
 1970000   0.92933922   -3.5541171    1609.2798  0.068074443  0.067957646            3 
 1971000   0.95339084   -3.5292504    1606.7567  0.067933226  0.067945316            2 
 1972000   0.91588453   -3.5239141    1607.0069  0.067909351  0.067933112            2 
 1973000   0.94475062    -3.553113    1611.2034  0.068052181  0.067920947            3 
 1974000   0.93526764   -3.5052438    1617.3518  0.068277265  0.067909025            2 
 1975000    0.9010609   -3.5383106    1613.4991  0.068080133   0.06789696            7 
 1976000   0.94463133    -3.545902    1615.5271  0.068131203  0.067885007            3 
 1977000   0.95172763   -3.5059461    1616.9895  0.068158384  0.067872798            3 
 1978000   0.92804411   -3.5363754    1616.0355  0.068083732  0.067860976            3 
 1979000   0.93994034   -3.5692353     1612.875  0.067916246  0.067848627            6 
 1980000   0.92631726      -3.5521    1613.0091  0.067887588  0.067836332            6 
 1981000   0.94229389   -3.5374594    1610.0998  0.067730937  0.067824068            2 
 1982000   0.92013769   -3.5493335    1609.9764  0.067691575  0.067811626            5 
 1983000   0.93161655   -3.5212788    1615.6208  0.067894636  0.067799273            2 
 1984000     0.916517   -3.5508831    1619.2879  0.068014445  0.067787156            3 
 1985000   0.90992038   -3.5522131     1616.122  0.067847273   0.06777507            3 
 1986000   0.93979044   -3.5317511    1623.9717  0.068142486  0.067762792            5 
 1987000   0.93877154   -3.5128463    1619.4095  0.067916855  0.067750552            2 
 1988000   0.91368917   -3.5309518    1616.9274  0.067778646  0.067737969            2 
 1989000    0.9458737   -3.5331808    1618.8065    0.0678233  0.067725411            2 
 1990000   0.92363228   -3.5552566    1609.1089  0.067383119  0.067712897           11 
 1991000   0.94712134   -3.5358208    1615.4247  0.067613624  0.067700089            3 
 1992000   0.93438669   -3.5218804    1620.8908  0.067808351  0.067687265            3 
 1993000   0.93582525   -3.5051885    1620.8853  0.067774096  0.067674799            2 
 1994000   0.94246385    -3.528971    1622.1103  0.067791301  0.067662258            4 
 1995000    0.9193773     -3.54134    1617.1721  0.067551047  0.067649616            2 
 1996000   0.93529304   -3.5343458    1614.1169  0.067389649  0.067637009            3 
 1997000   0.94812582   -3.5537899    1613.0393  0.067310936  0.067624123            2 
 1998000    0.9511984   -3.5585378    1620.1108   0.06757219  0.067611045            3 
 1999000   0.94842191   -3.5358513    1625.4059  0.067759127  0.067598237            7 
 2000000    0.9324246   -3.5487565    1625.5975  0.067733229  0.067585617            3 
 2001000   0.93734174   -3.5396693    1625.3809   0.06769036  0.067572976            9 
 2002000   0.93082898   -3.5248558    1628.8378  0.067800442   0.06756046            4 
 2003000   0.94226966   -3.5216514    1625.1432  0.067612881  0.067547878            6 
 2004000   0.92278533    -3.508159     1624.031  0.067532895  0.067535282            4 
 2005000   0.93047928     -3.53357    1620.4957  0.067352272  0.067522504            3 
 2006000   0.94688291   -3.5209136    1631.6608  0.067782518  0.067509987            2 
 2007000   0.92162848   -3.5374327    1628.1368  0.067602423   0.06749758            3 
 2008000   0.94953337   -3.5290306    1622.4511  0.067332797  0.067484973            4 
 2009000   0.93215376   -3.5416309    1624.6687  0.067391268  0.067472258            3 
 2010000   0.94535272   -3.5179445    1628.2989  0.067508244  0.067459752            4 
 2011000   0.93068583   -3.5669249    1622.5901  0.067238113  0.067446853            3 
 2012000   0.90819022   -3.5576253    1621.7472  0.067169782   0.06743406            7 
 2013000   0.94017773    -3.569639    1627.3478  0.067368263  0.067421355            7 
 2014000   0.94072161   -3.5197205    1623.1985  0.067163129  0.067408634            1 
 2015000   0.91964168   -3.5343217     1629.382  0.067385523  0.067395919            2 
 2016000   0.93737005   -3.5477345    1625.7139  0.067200474  0.067383207            3 
 2017000   0.92261279    -3.560709    1627.3116  0.067233168    0.0673705            7 
 2018000   0.91569665   -3.5550039    1628.4355  0.067246263  0.067357821            5 
 2019000    0.9455033   -3.5133138      1632.76  0.067391448  0.067345311            4 
 2020000   0.94556765     -3.51894    1635.9629  0.067490217   0.06733307            4 
 2021000   0.93843255   -3.5071851    1635.9417   0.06745595   0.06732058            2 
 2022000    0.9221236   -3.5289867    1635.1386  0.067389491  0.067307984            4 
 2023000   0.91884927   -3.5566966    1636.7009  0.067420535  0.067295555            2 
 2024000    0.9356306   -3.5353512    1638.6819  0.067468787  0.067282984            1 
 2025000    0.9038681   -3.5432468    1636.9355    0.0673636  0.067270519            3 
 2026000   0.91485932   -3.5619052    1630.3295  0.067058635  0.067257846            4 
 2027000   0.93145857   -3.5501842    1635.8975  0.067254461  0.067245305            4 
 2028000   0.93161667   -3.5518912    1635.0668  0.067187165  0.067232639            4 
 2029000   0.91530084   -3.5579642    1630.8657  0.066981505  0.067220119            2 
 2030000   0.92397584    -3.523979    1633.1369  0.067041743  0.067207307            4 
 2031000   0.91591339   -3.5416039      1637.24   0.06717709  0.067194638            4 
 2032000   0.92936213   -3.5469407    1633.8862   0.06700649  0.067182127            5 
 2033000   0.92787764   -3.5458923    1639.9995  0.067224113  0.067169578            2 
 2034000   0.96594204   -3.5541803    1636.5105   0.06704812  0.067157068            3 
 2035000   0.90327006   -3.5699588    1634.9776  0.066952399  0.067144561            2 
 2036000   0.93812641    -3.542986    1643.5241  0.067269324  0.067132073            2 
 2037000   0.93816876   -3.5254523    1644.1116  0.067260332  0.067119693            4 
 2038000   0.93270751   -3.5333687    1644.9984   0.06726359  0.067107441            2 
 2039000   0.92487813   -3.5384545    1640.2529  0.067036656  0.067094763            3 
 2040000   0.90821533   -3.5498251    1644.7958   0.06718937  0.067082166            3 
 2041000   0.92425734   -3.5407679    1643.6183  0.067108376  0.067069646            3 
 2042000    0.9080861   -3.5578725    1650.6231  0.067361374  0.067057086            2 
 2043000   0.93822906   -3.5687062    1645.1427  0.067104856  0.067044537            3 
 2044000   0.93075834   -3.5273735    1645.6817  0.067094001  0.067031808            6 
 2045000   0.92250269   -3.5604596    1641.1206   0.06687533  0.067019107            3 
 2046000   0.92086381   -3.5252584    1645.2467  0.067010699  0.067006517            4 
 2047000   0.94473404   -3.5015989    1647.2669  0.067060208  0.066994146            5 
 2048000   0.93350844   -3.5487501    1648.5418  0.067079336  0.066981591            4 
 2049000   0.93173444   -3.5469489    1649.9217  0.067102719    0.0669689            2 
 2050000   0.92196136   -3.5423181     1647.416  0.066968131  0.066956477            3 
 2051000    0.9006667   -3.5569132    1641.3936  0.066690785   0.06694369            3 
 2052000   0.94362628   -3.5424813    1653.5472  0.067151851  0.066930873            6 
 2053000   0.93853447   -3.5508733     1645.923  0.066809669  0.066918235            2 
 2054000   0.94555029   -3.5503906    1645.5818    0.0667633  0.066905544            3 
 2055000   0.92040421   -3.5442261    1646.2387  0.066757449   0.06689291            4 
 2056000   0.92487382   -3.5596062    1650.2871   0.06688907  0.066880159            4 
 2057000    0.9445015   -3.5560494    1650.3708   0.06685994  0.066867575            2 
 2058000    0.9206658   -3.5611928    1651.3918  0.066868796   0.06685515            4 
 2059000   0.92308505   -3.5457087    1657.0279  0.067064428  0.066842768            1 
 2060000   0.91935823   -3.5395931    1646.3637  0.066600472  0.066830335            3 
 2061000   0.90273872   -3.5402219    1652.3723  0.066811108  0.066817751            1 
 2062000   0.93076276   -3.5501638    1648.5764  0.066625301  0.066804987            2 
 2063000   0.90502837   -3.5464459    1656.3004  0.066905008  0.066792387            3 
 2064000   0.91116915   -3.5477797    1651.3711  0.066673576   0.06677969            4 
 2065000   0.93287176    -3.574664    1649.2876  0.066557207  0.066766901            4 
 2066000   0.90920165   -3.5787486    1651.7896   0.06662591  0.066753784            2 
 2067000   0.92613907   -3.5538813    1648.3514  0.066455062  0.066740949            4 
 2068000   0.93895588   -3.5555268    1651.3135  0.066542289  0.066728098            3 
 2069000   0.90803266   -3.5598741    1652.6505  0.066563979  0.066715618            3 
 2070000   0.93024745   -3.5359998    1659.0297  0.066788636  0.066702817            2 
 2071000   0.90836678   -3.5400803    1661.8052  0.066868068  0.066690157            3 
 2072000   0.92758846   -3.5603194     1654.129  0.066527068  0.066677333            2 
 2073000   0.91319756   -3.5586676    1656.5658  0.066592931   0.06666461            3 
 2074000   0.92258806   -3.5572629    1659.9865  0.066698266  0.066651861            3 
 2075000   0.90928763   -3.5645315     1659.541  0.066648234  0.066639352            3 
 2076000   0.90671262   -3.5237697    1665.7355  0.066864783  0.066626826            2 
 2077000   0.93868818   -3.5629311    1653.9177   0.06635844  0.066613884            5 
 2078000   0.89597953   -3.5938811    1662.5605  0.066673105  0.066601099            2 
 2079000   0.90377161   -3.5633855    1656.4508  0.066396136  0.066588413            2 
 2080000   0.91421685   -3.5521541    1661.6457  0.066572344  0.066575778            3 
 2081000   0.92331531   -3.5435849    1658.0204  0.066395179  0.066562813            3 
 2082000   0.89713939    -3.548158    1660.1905  0.066450147  0.066549845            3 
 2083000   0.93444812   -3.5628006    1665.2535    0.0666208  0.066537166            2 
 2084000   0.91864248   -3.5588979    1657.9654  0.066297399  0.066524384            2 
 2085000   0.91670504   -3.5575452    1663.9843  0.066506169  0.066511653            3 
 2086000   0.93687384   -3.5277722    1665.6216  0.066539692   0.06649902            3 
 2087000    0.8976398    -3.567785     1659.691  0.066271005  0.066486483            3 
 2088000   0.91942678   -3.5642726    1673.0815  0.066773687   0.06647382            3 
 2089000   0.93290301   -3.5740472    1669.2023  0.066586974  0.066461175            3 
 2090000   0.91112441   -3.5574126    1663.5529  0.066329861  0.066448547            3 
 2091000   0.91621295    -3.566928    1664.6041  0.066340034   0.06643573            1 
 2092000    0.9098572    -3.550422    1667.3391  0.066417269  0.066422919            4 
 2093000     0.914738   -3.5543394    1665.7085  0.066320614  0.066410556            5 
 2094000   0.92819267   -3.5518938    1669.0732  0.066422843   0.06639812            2 
 2095000   0.92979447   -3.5772697    1661.5656  0.066092506  0.066385843            4 
 2096000   0.93336739   -3.5983234    1666.6072  0.066261417  0.066372961            7 
 2097000   0.92305314    -3.558394    1671.2885  0.066415853  0.066360313            6 
 2098000    0.9227142   -3.5670854    1667.6805  0.066240885  0.066347829            3 
 2099000   0.93521562   -3.5501446      1664.56  0.066085436  0.066335176            4 
 2100000   0.93445324   -3.5559938    1673.1593  0.066395209  0.066322599            2 
 2101000   0.90983631   -3.5418273    1672.0324  0.066318914  0.066309964            3 
 2102000   0.93390445   -3.5539419    1670.6759  0.066233582  0.066297656            4 
 2103000   0.89538018   -3.5618962    1677.3861  0.066467986  0.066285172            5 
 2104000   0.91001584   -3.5673346    1673.0979  0.066266552  0.066272546            3 
 2105000   0.91576105   -3.5655466    1673.0046  0.066231379  0.066260063            2 
 2106000   0.93311126    -3.577692    1671.1796  0.066127715   0.06624756            4 
 2107000   0.91949034   -3.5684771    1673.2022  0.066176323  0.066234889            2 
 2108000     0.928584   -3.5369383    1687.4857  0.066709586  0.066222717            3 
 2109000    0.9124286   -3.5503153    1675.1539  0.066190688  0.066210112            2 
 2110000   0.91425088   -3.5754438    1672.9737  0.066073211  0.066197514           10 
 2111000   0.92995257   -3.5236932    1677.9892  0.066239901  0.066184892            2 
 2112000   0.90850183   -3.5650913    1676.6705  0.066156508  0.066172197            3 
 2113000   0.92826591   -3.5647556    1676.2774  0.066109695   0.06615958            4 
 2114000   0.91718469   -3.5757699     1675.945  0.066065317  0.066146933            5 
 2115000   0.91387384   -3.5813748     1679.504  0.066174311  0.066134485            2 
 2116000   0.91419756   -3.5559335    1683.4653  0.066299042  0.066122173            3 
 2117000   0.90977444   -3.5638559    1687.6282  0.066431594  0.066110019            4 
 2118000   0.91969845    -3.583774    1681.9354  0.066176243  0.066097772            3 
 2119000   0.89315177    -3.586871    1684.6846   0.06625313  0.066085408            2 
 2120000   0.88272876   -3.5702458    1689.2567  0.066401601  0.066072842            2 
 2121000   0.91644999   -3.5766438    1681.7682  0.066076072  0.066060589            4 
 2122000   0.92994288   -3.5666032    1681.9304  0.066051304  0.066048294            9 
 2123000   0.90483777   -3.5709313    1684.3294  0.066114358  0.066036045            3 
 2124000   0.90199965   -3.5622641    1682.4647  0.066010073  0.066023799            7 
 2125000   0.92714456   -3.5715979    1683.4975   0.06601951  0.066011281            2 
 2126000   0.88886295   -3.5548345    1689.4715   0.06622262    0.0659988            3 
 2127000   0.91139785   -3.5703686    1680.6209  0.065844729  0.065986205            6 
 2128000   0.89088907   -3.5688261    1686.2974  0.066036084  0.065973488            2 
 2129000   0.92020537   -3.5755117    1682.1928  0.065844401  0.065960584            8 
 2130000   0.90055096   -3.5786202    1684.3701  0.065898674  0.065947809            3 
 2131000   0.91486003   -3.5453501    1685.6051  0.065916044  0.065935139            1 
 2132000   0.91701225   -3.5851192    1683.4023  0.065799028  0.065922617            4 
 2133000   0.91843253   -3.5772752    1684.9898  0.065830202  0.065909847            2 
 2134000   0.90623518    -3.568973    1685.0721  0.065802565  0.065896982            5 
 2135000   0.89206903   -3.5468079     1689.495  0.065944378  0.065884395            5 
 2136000   0.90901857   -3.5743469    1693.6901  0.066077172  0.065871755            2 
 2137000   0.90669027   -3.5428884    1689.0672  0.065865979     0.065859            4 
 2138000   0.90602331   -3.5561016    1693.5798  0.066011062  0.065846426            2 
 2139000   0.92874375   -3.5817002    1688.9912  0.065801433  0.065833788            4 
 2140000   0.90347787   -3.5707014    1684.9451  0.065613128  0.065821185            2 
 2141000   0.91606501   -3.5740908    1685.0728  0.065587451  0.065808526            4 
 2142000   0.89861886   -3.5851871    1686.0454  0.065594671  0.065795871            3 
 2143000   0.89888822   -3.5404788    1693.8932  0.065869232  0.065783205            2 
 2144000   0.91236012   -3.5990488    1689.8566  0.065681615  0.065770589            3 
 2145000   0.91566261   -3.5649928    1689.4037  0.065633398   0.06575798            4 
 2146000   0.91099242   -3.5612701    1695.8633  0.065853656  0.065745408            5 
 2147000   0.89306705   -3.5735712    1694.2083  0.065758743  0.065733071            4 
 2148000   0.89393239   -3.5605941    1702.1153  0.066034889  0.065720633            4 
 2149000    0.9169836   -3.5633887    1697.8869  0.065840194  0.065708108            3 
 2150000   0.90145144   -3.5688867    1689.8189  0.065496856  0.065695549            5 
 2151000   0.90839896   -3.5586571    1698.5597  0.065805042  0.065682796            8 
 2152000   0.89717182   -3.5479997    1695.9916  0.065675016   0.06567012            6 
 2153000   0.91615376   -3.5520935    1692.7292  0.065518236  0.065657591            5 
 2154000   0.91756265   -3.5559314    1702.6155    0.0658703  0.065644933            4 
 2155000   0.88347555   -3.5865932    1696.7293  0.065612117  0.065632368            4 
 2156000   0.90597457   -3.6097008    1693.4507  0.065454961  0.065619507            4 
 2157000   0.89503156   -3.5384443     1700.665  0.065703331  0.065606969            3 
 2158000   0.90697682   -3.5816734    1695.6686  0.065479943  0.065594437            4 
 2159000   0.88092386   -3.5478767    1699.6709  0.065604097  0.065581977            4 
 2160000   0.91522083   -3.5619671    1705.6422  0.065804099  0.065569612            1 
 2161000   0.91466569   -3.5539968    1705.5656  0.065770694  0.065557246            3 
 2162000   0.89885082   -3.5728103    1705.3504  0.065731976  0.065544861            3 
 2163000   0.89251109   -3.5765223    1712.7119  0.065985203  0.065532532            4 
 2164000    0.9194359   -3.5742196    1703.9535  0.065617435  0.065520495            3 
 2165000   0.91189191   -3.6117568    1705.5405  0.065648212  0.065508187            3 
 2166000   0.90519943   -3.5758489    1701.6735  0.065469126  0.065495848            7 
 2167000   0.89722581   -3.5675639    1706.3296  0.065617968  0.065483728            4 
 2168000   0.90166665   -3.5505509    1706.5467  0.065596045  0.065471452            2 
 2169000   0.88480229   -3.5892148    1700.9015  0.065348913  0.065459282            4 
 2170000   0.91466009   -3.5764146    1710.6956  0.065694917  0.065446919            2 
 2171000   0.90864575   -3.5806057    1709.4897  0.065618368  0.065434539            2 
 2172000   0.89500795   -3.5584944    1710.8404  0.065639978  0.065422515            3 
 2173000   0.91208476   -3.5728396     1710.101  0.065581415  0.065410261            6 
 2174000    0.9042862   -3.5758306    1709.4809  0.065527482  0.065397813            6 
 2175000   0.90053675     -3.58527    1706.3857  0.065378762  0.065385696            3 
 2176000   0.91117454   -3.5618463    1707.2095  0.065380266  0.065373658            3 
 2177000   0.90281409    -3.574634    1708.9537     0.065417  0.065361429            2 
 2178000   0.91568304   -3.5675328    1711.0845  0.065468493  0.065349224            2 
 2179000   0.90440305   -3.5455662    1716.5169  0.065646203  0.065336866            3 
 2180000   0.89238645    -3.576077    1705.0989  0.065179622  0.065324555            3 
 2181000   0.88595865   -3.5718921     1714.216   0.06549809  0.065311976            3 
 2182000   0.90399486   -3.5957152     1712.782  0.065413306  0.065299729            6 
 2183000   0.88798199    -3.587861     1711.969  0.065352307  0.065287273            4 
 2184000   0.92325137   -3.5772309    1716.9136  0.065511049  0.065274825            2 
 2185000   0.88979931   -3.5573858    1714.6853  0.065396084  0.065262438            1 
 2186000   0.89486966   -3.6017818    1713.6535  0.065326835  0.065250021            4 
 2187000   0.92821995   -3.5888465    1713.8521  0.065304531  0.065237511            5 
 2188000   0.91031483   -3.5493505    1718.4259  0.065448885  0.065225072            4 
 2189000   0.88852642   -3.5436683    1710.6713  0.065123773  0.065212623            2 
 2190000   0.89147617   -3.5890743    1721.5809  0.065509166  0.065200371            2 
 2191000   0.90661308   -3.5855158    1718.1015  0.065346932   0.06518807            4 
 2192000   0.90796675   -3.6014239     1714.947  0.065197193  0.065175973            4 
 2193000   0.90569977   -3.5926929    1717.9281  0.065280746  0.065163555            4 
 2194000   0.90232193   -3.5823596    1717.5807  0.065237796  0.065151167            4 
 2195000   0.87535026   -3.5650123    1721.0474   0.06533969  0.065138687            4 
 2196000   0.87694853    -3.592715     1724.121  0.065426569  0.065126591            3 
 2197000   0.90435309   -3.5696265    1724.4321   0.06540859  0.065114293            3 
 2198000   0.88505982   -3.5817133    1715.7234  0.065048657  0.065102052            5 
 2199000   0.92202771   -3.5939505    1719.6936   0.06516953  0.065089945            2 
 2200000   0.88654592   -3.5757161      1723.43  0.065281441  0.065077775            2 
 2201000   0.88817366   -3.5877471    1723.1094  0.065239641  0.065065862            1 
 2202000   0.89184909   -3.5821687    1722.9575  0.065204264  0.065053452            3 
 2203000   0.92027839   -3.5840962    1722.2914   0.06514947  0.065041118            4 
 2204000   0.90520501   -3.6096086    1720.3458  0.065046348  0.065028844            3 
 2205000   0.89653128    -3.604637    1723.5817  0.065139141  0.065016787            2 
 2206000   0.89904378   -3.6037854    1721.0387   0.06501355  0.065004591            2 
 2207000   0.91514722   -3.5727694    1729.6718  0.065310066  0.064992292            3 
 2208000   0.90829335   -3.6301186    1726.5142  0.065161316  0.064980283            3 
 2209000   0.91627346   -3.5863741    1727.3383  0.065162904  0.064968209            6 
 2210000    0.8919519    -3.588578    1736.2337  0.065468843  0.064956283            5 
 2211000   0.88147287   -3.6050078    1725.1608   0.06502189  0.064944356            2 
 2212000   0.90875606   -3.5888806    1727.3628  0.065075453  0.064932199            2 
 2213000   0.90883145   -3.5895524     1727.032  0.065033589  0.064920321            4 
 2214000   0.88727012    -3.599712    1726.9175  0.064999908  0.064908239            3 
 2215000   0.89354714   -3.6039988    1732.8675  0.065194414  0.064896327            8 
 2216000   0.90313838   -3.5792583    1735.0374  0.065246592  0.064884376            2 
 2217000   0.90607179   -3.5742313    1733.5083  0.065159688  0.064872547            4 
 2218000   0.89497805   -3.6044487    1737.0535  0.065263506   0.06486077            1 
 2219000   0.90620357    -3.567498    1736.9059  0.065228553  0.064848943            4 
 2220000    0.9089047   -3.5816143     1731.812  0.065007959  0.064836994            2 
 2221000   0.88699382   -3.6008955    1729.0849  0.064876367  0.064824979            3 
 2222000   0.90629232   -3.6006768    1737.6199  0.065167262  0.064812911            4 
 2223000    0.9134803   -3.5784321    1736.7454  0.065105164  0.064800929            2 
 2224000   0.88283104    -3.591804    1734.2361  0.064981869  0.064788992            5 
 2225000   0.88729983   -3.5854937    1739.4594  0.065148292  0.064777101            4 
 2226000    0.8903193   -3.6074063    1733.4028  0.064892288  0.064765324            3 
 2227000   0.88062112   -3.6215711    1739.4505   0.06508945  0.064753534            4 
 2228000   0.89251059   -3.5861477    1740.6212  0.065104026  0.064741677            4 
 2229000   0.89290317   -3.5809272    1740.6131  0.065074514  0.064729871            3 
 2230000   0.88844946   -3.5950583    1744.8125  0.065202262  0.064718207            3 
 2231000   0.90710186   -3.6129448    1731.0422  0.064658682  0.064706367            3 
 2232000   0.86167606   -3.5919659    1742.0373  0.065040221  0.064694409            3 
 2233000    0.8875309   -3.5668011    1743.8896   0.06508022  0.064682643            4 
 2234000   0.89039259   -3.5910749    1742.3655  0.064994238  0.064670887            3 
 2235000    0.9080248   -3.5865335    1740.5642  0.064897993  0.064658968            3 
 2236000   0.89761931   -3.5928925    1737.7211  0.064763012  0.064647099            4 
 2237000   0.89490766    -3.599058    1746.1051  0.065046384  0.064635218            3 
 2238000   0.89206235   -3.6108586    1740.9696  0.064826093  0.064623313            2 
 2239000   0.88709397   -3.5862323    1753.8126  0.065275145  0.064611326            3 
 2240000   0.88465257   -3.5979865    1743.6721  0.064868754  0.064599476            4 
 2241000   0.90154559   -3.6010467    1746.4997  0.064944952  0.064587562            3 
 2242000    0.8759146   -3.5734633     1747.354  0.064947739  0.064575716            3 
 2243000   0.89343307   -3.5936653    1741.8058  0.064712655  0.064563753            6 
 2244000   0.87086318   -3.5959359    1747.0481  0.064878495  0.064551913            2 
 2245000   0.88450527   -3.5898582     1747.681  0.064873087  0.064540274            6 
 2246000   0.87407102   -3.6057451    1745.5426  0.064764863  0.064528564            2 
 2247000   0.88907994   -3.5862059    1741.5446  0.064587768  0.064516862            5 
 2248000   0.86904279   -3.5795071    1744.7694  0.064678582  0.064504896            4 
 2249000    0.8875572   -3.5798392    1748.3561  0.064782722   0.06449333            2 
 2250000   0.89308879   -3.5910584     1748.058  0.064742888  0.064481414            5 
 2251000   0.89168703   -3.5785521    1746.9034  0.064671384  0.064469466            3 
 2252000   0.88949633   -3.5856119     1745.406  0.064587255  0.064457592            3 
 2253000   0.89106403   -3.5949996    1752.6457  0.064826367  0.064445771            8 
 2254000   0.90730467   -3.6249784    1742.4104  0.064419197  0.064434023            7 
 2255000   0.89818491   -3.5999988     1754.421  0.064834481  0.064422135            6 
 2256000   0.89423185   -3.5811315    1749.7706   0.06463396  0.064410223            2 
 2257000   0.92096597   -3.6219174    1746.9818  0.064502356  0.064398363            2 
 2258000   0.85409567   -3.5829194    1752.6469  0.064682864  0.064386315            4 
 2259000   0.90448216   -3.6004748    1750.3543  0.064569659  0.064374529            2 
 2260000   0.89811142   -3.6198471    1752.0167  0.064602386  0.064362587            4 
 2261000    0.8851135   -3.6124226    1748.4535  0.064442485   0.06435071            6 
 2262000   0.86869348   -3.6045041    1756.2818  0.064702395  0.064338824            2 
 2263000   0.87949465   -3.6006839     1752.047  0.064517862  0.064327245            4 
 2264000   0.88986197   -3.6079905    1747.0888  0.064306861  0.064315276            3 
 2265000   0.88733616   -3.6220969    1751.5774  0.064443613  0.064303329            2 
 2266000     0.901136   -3.5879553    1755.5126  0.064559893  0.064291453            3 
 2267000   0.88406493    -3.624238    1750.9508  0.064363725  0.064279502            6 
 2268000   0.88859494   -3.5975356    1756.0636  0.064523206  0.064267439            4 
 2269000   0.88814078   -3.6057052    1756.9698  0.064528051  0.064255619            2 
 2270000   0.89041103   -3.5847513    1757.4748  0.064518166  0.064243997            4 
 2271000    0.8808948   -3.5951015    1760.8784   0.06461465  0.064232159            3 
 2272000   0.87970139   -3.6045515    1764.6506  0.064724568  0.064220553            2 
 2273000    0.8732656   -3.6119435    1757.9393   0.06445004  0.064208846            3 
 2274000   0.87389536   -3.5968738    1757.8537   0.06441856  0.064196986            3 
 2275000   0.90482095   -3.6037959    1761.9451  0.064540113  0.064185412            6 
 2276000   0.90894476   -3.5841382    1763.7631  0.064578321  0.064173473            3 
 2277000   0.89936467   -3.5894625    1757.8766  0.064334527  0.064161649            3 
 2278000    0.8850027   -3.5935137    1765.5665  0.064587595  0.064149889            7 
 2279000   0.90169199   -3.6026167    1767.4068  0.064626546  0.064138078            5 
 2280000   0.89422228   -3.5981683    1759.1656  0.064296987  0.064126248            5 
 2281000   0.88681364   -3.5943474    1760.0399  0.064300741  0.064114419            4 
 2282000    0.8835154   -3.5767152    1767.2454  0.064535692  0.064102817            2 
 2283000   0.89231961   -3.6088456    1762.9513  0.064350682  0.064091168            4 
 2284000   0.87620955   -3.6114927    1764.8854  0.064393073  0.064079246            3 
 2285000   0.87802978   -3.5890444    1763.4384  0.064312122  0.064067575            2 
 2286000   0.87878064   -3.6046379    1764.7315   0.06433113  0.064055632            6 
 2287000    0.8788334    -3.605761    1763.3639  0.064253167  0.064043802            4 
 2288000    0.8877538   -3.5829474    1768.7153  0.064419994   0.06403211            7 
 2289000   0.89528366   -3.5822049    1768.1849  0.064372539  0.064020522            3 
 2290000   0.88477787   -3.6010228    1763.6326  0.064178771  0.064008986            3 
 2291000   0.87548119   -3.5982596    1778.5996  0.064695169  0.063997237            3 
 2292000   0.89481767   -3.6077128    1766.9899  0.064244833  0.063985376            4 
 2293000   0.88296651   -3.6190376    1772.7403    0.0644258   0.06397363            4 
 2294000   0.87435984   -3.5825011    1769.9475  0.064296262  0.063961954           13 
 2295000   0.88979779   -3.5974467    1767.2893  0.064171726  0.063950091            4 
 2296000   0.87548686   -3.5890768    1769.5569  0.064226078  0.063938327            3 
 2297000   0.85508355   -3.6184027    1772.4857   0.06430437  0.063926621            3 
 2298000   0.86292871   -3.5936889     1776.385   0.06441779  0.063914642            2 
 2299000   0.87676424   -3.5888001    1777.0324  0.064413236  0.063903031            3 
 2300000   0.88680917   -3.5978445    1775.1167  0.064315824  0.063891143            3 
 2301000   0.87532996   -3.5930987    1770.5022  0.064120752  0.063879435            4 
 2302000   0.88093309    -3.594577    1773.4484  0.064199551  0.063867629            5 
 2303000   0.90454508   -3.5864129     1768.336  0.063986683  0.063855915            3 
 2304000   0.87471157   -3.6135467    1776.8636  0.064267348  0.063844083            3 
 2305000   0.86478549   -3.6030045    1769.9071  0.063987964  0.063832179            3 
 2306000    0.8775544   -3.6165993    1771.3298  0.064011627  0.063820381            2 
 2307000   0.88220103   -3.6235192    1772.4595  0.064024689  0.063808355            3 
 2308000    0.8898175   -3.6119294    1775.6333  0.064111545  0.063796431            4 
 2309000   0.89182718   -3.6263953    1769.5386  0.063863816  0.063784551            4 
 2310000   0.87667954   -3.6071181     1779.006  0.064177706  0.063772653            3 
 2311000   0.85707153   -3.6161591    1772.5229  0.063916159  0.063760606            4 
 2312000   0.88354177   -3.5903015    1781.4196  0.064209183  0.063748904            3 
 2313000   0.85602342    -3.613726    1780.9739  0.064165364  0.063736891            2 
 2314000   0.88093532   -3.6213253    1768.7637  0.063697913  0.063724986            7 
 2315000   0.89045201   -3.6064573     1784.089  0.064222066  0.063713039            2 
 2316000   0.89159547   -3.6274013    1774.9451  0.063865323  0.063700984            3 
 2317000   0.87046556   -3.6172689    1773.4621  0.063784424   0.06368904            4 
 2318000   0.88788456   -3.5920303    1777.8684  0.063915314    0.0636771            4 
 2319000   0.88160261   -3.6041094    1780.0864  0.063967459    0.0636653            8 
 2320000   0.88767459   -3.6287845    1775.0426  0.063758716  0.063653272            3 
 2321000   0.88116191    -3.626404    1779.9338  0.063906858  0.063641222            1 
 2322000   0.87418857   -3.6155262    1770.8568  0.063553576  0.063629194            3 
 2323000   0.90141257   -3.6333692    1773.2759  0.063612995  0.063617019            4 
 2324000     0.879984    -3.633804    1773.7491  0.063602594  0.063604732            5 
 2325000   0.88442585   -3.6147874    1777.3744  0.063705174   0.06359247            3 
 2326000    0.8825691   -3.6085451    1777.2677  0.063673963  0.063580508            4 
 2327000   0.88191735   -3.6186435    1776.4216  0.063616302   0.06356832            4 
 2328000   0.90288603   -3.6075216     1773.257  0.063475695  0.063555942            4 
 2329000   0.88099982   -3.6212814     1776.857  0.063577251  0.063543572            3 
 2330000   0.87265058    -3.618555    1777.9493  0.063589029  0.063531262            3 
 2331000   0.88434004   -3.6256563    1775.8892  0.063488103  0.063519142            4 
 2332000   0.87727071    -3.615597    1784.4197  0.063765714  0.063507011            2 
 2333000   0.86612379    -3.616982    1781.5974   0.06363757  0.063494933            2 
 2334000   0.87773603     -3.61309    1780.5723  0.063573704  0.063482829            2 
 2335000   0.86541861   -3.6141444    1787.0095  0.063776214  0.063470631            3 
 2336000   0.89234932   -3.6415421    1788.2535  0.063793291   0.06345844            6 
 2337000   0.87404782   -3.6198818     1781.237  0.063515797  0.063446251            5 
 2338000   0.89421079   -3.6542717     1778.469  0.063389969   0.06343422            3 
 2339000   0.86309194   -3.6100441    1793.2657  0.063890043  0.063422095            4 
 2340000   0.89176788    -3.612558    1786.3513  0.063616501  0.063410033            2 
 2341000   0.88838313   -3.6286999     1784.551  0.063525237  0.063398053            4 
 2342000   0.88496847   -3.5969589    1790.1327  0.063696722   0.06338609            5 
 2343000   0.87619303     -3.61505    1785.3356  0.063498919  0.063374016            2 
 2344000   0.89303479   -3.6277674    1787.5911  0.063552017  0.063361863            3 
 2345000   0.88708699   -3.5947594    1789.6429  0.063597829  0.063349735            5 
 2346000   0.89523695   -3.6335085    1788.1829   0.06351886  0.063337557            5 
 2347000   0.88185019   -3.6313209    1789.8053  0.063549399  0.063325603            2 
 2348000   0.89004516   -3.6204809    1788.8101  0.063487015  0.063313326            3 
 2349000   0.87252067   -3.6114731    1788.6289  0.063453557  0.063301029            6 
 2350000   0.87026833   -3.6404778    1788.9861  0.063439223  0.063288562            4 
 2351000    0.8947554   -3.6439361    1777.5303   0.06300618  0.063276216            4 
 2352000   0.88776868   -3.5846703    1795.0081  0.063598642  0.063263964            4 
 2353000   0.87824378   -3.6521948     1786.736   0.06327865  0.063251814            4 
 2354000   0.89515415   -3.6193042    1787.2023  0.063268279  0.063239545            1 
 2355000   0.87952877    -3.603284    1791.5717  0.063396027  0.063227487            4 
 2356000    0.8701859   -3.6091396    1794.0402  0.063456431  0.063215524            5 
 2357000   0.87302929   -3.6260751    1791.6565   0.06334523  0.063203524            5 
 2358000   0.87805037   -3.6430102     1790.704  0.063284705  0.063191469            3 
 2359000   0.86794418   -3.6190177    1795.8445   0.06343947  0.063179532            4 
 2360000   0.84890538    -3.636601    1800.6919  0.063583752  0.063167694            6 
 2361000   0.85708593   -3.6140449    1797.0123  0.063426947  0.063155708            2 
 2362000    0.8709413   -3.6138682    1796.8354  0.063393854  0.063143902            2 
 2363000   0.86146925   -3.6299344    1803.9221  0.063616947  0.063132181            4 
 2364000   0.87662188   -3.6123197    1799.8307  0.063445809  0.063120337            1 
 2365000    0.8622089   -3.6374903    1797.6607  0.063342518  0.063108464            4 
 2366000   0.86140169   -3.6214839    1804.4881  0.063556215  0.063096565            2 
 2367000   0.87300904   -3.6154952    1792.4408  0.063105225  0.063084643            4 
 2368000   0.86626843   -3.6335474     1795.166  0.063174481  0.063072594            2 
 2369000   0.87058041   -3.6304054    1802.0635  0.063390443  0.063060765            5 
 2370000   0.88311457   -3.6333842    1793.6073   0.06306636  0.063048654            2 
 2371000   0.88738078   -3.6278451    1797.7542  0.063185512   0.06303648            5 
 2372000   0.87005209   -3.6642013     1794.202  0.063034078  0.063024287            9 
 2373000   0.87150853   -3.6193756    1800.4117  0.063225582  0.063012179            5 
 2374000   0.88868425    -3.634833     1808.677  0.063489082  0.063000368            4 
 2375000   0.86653963   -3.6263209    1801.5617   0.06321269  0.062988332            4 
 2376000   0.88089128   -3.6528338    1799.2718  0.063105772  0.062976251            4 
 2377000   0.86877546   -3.6542157    1792.7052   0.06284901  0.062964001            3 
 2378000   0.89514587   -3.6351202     1793.675  0.062856567  0.062951658            2 
 2379000   0.84812761   -3.6286164    1798.7336  0.063007342  0.062939538            6 
 2380000   0.87450772   -3.6316262    1804.2816  0.063175125  0.062927308            1 
 2381000   0.86002913    -3.629515    1796.4187  0.062873398  0.062915194            3 
 2382000   0.88126901   -3.6358246    1803.3086  0.063088041  0.062903218            9 
 2383000    0.8685753   -3.6563185    1805.1438  0.063125744     0.062891            6 
 2384000   0.87681982   -3.6167806    1804.3855  0.063072761  0.062878653            2 
 2385000   0.88616211   -3.6246495    1806.5048  0.063120364  0.062866458            6 
 2386000   0.87979019   -3.6227442     1802.166  0.062942372  0.062854188            4 
 2387000   0.87486051   -3.6195267    1809.0759  0.063157238  0.062842018            3 
 2388000   0.87799721   -3.6300022    1800.6528   0.06283685  0.062829878            2 
 2389000   0.85388983   -3.6343578    1804.7452  0.062953301  0.062817608            4 
 2390000   0.87961268   -3.6176132    1810.6352  0.063132329  0.062805425            3 
 2391000   0.87477831   -3.6432005    1799.5652  0.062720102  0.062793354            5 
 2392000   0.86113293   -3.6265708    1810.4805  0.063074154  0.062781138           15 
 2393000   0.87768518   -3.6805359    1803.5864  0.062807717  0.062768933            2 
 2394000   0.87167424   -3.6162757    1807.2662  0.062909573  0.062756461            4 
 2395000   0.86000929   -3.6201747    1809.0386  0.062944974  0.062744291            3 
 2396000   0.87630948   -3.6327735    1804.3183  0.062754531  0.062732217            4 
 2397000   0.85744494   -3.6477846    1805.6971  0.062776287  0.062720097            3 
 2398000   0.85866034   -3.6567389    1805.2023  0.062732911   0.06270803            5 
 2399000   0.86364406    -3.641497    1810.9656   0.06290696   0.06269594            5 
 2400000   0.86481691   -3.6332414    1812.7602  0.062943061  0.062683782            5 
 2401000   0.85648553   -3.6438769    1810.2063  0.062828209  0.062671655            7 
 2402000   0.85410107   -3.6366944    1813.0434   0.06290048   0.06265948            4 
 2403000   0.86076728   -3.6031814     1810.469  0.062785025  0.062647633            3 
 2404000   0.86330049   -3.6455883    1811.9495  0.062810228  0.062635545            4 
 2405000   0.87758867   -3.6425435    1810.7377  0.062742124  0.062623516            3 
 2406000   0.86326811   -3.6478045     1812.916  0.062791494  0.062611486            2 
 2407000   0.87349679   -3.6511134    1818.8653  0.062971379   0.06259934            4 
 2408000   0.85238662   -3.6593814     1807.487  0.062551461  0.062587277            5 
 2409000   0.85588479   -3.6318723    1816.8779  0.062850349  0.062575128            5 
 2410000   0.85926656    -3.647101    1816.7749  0.062820709  0.062563128            5 
 2411000   0.85606599   -3.6499489    1813.6975  0.062688285  0.062551168            4 
 2412000   0.86782039   -3.6652885    1810.7169  0.062559317  0.062539096            3 
 2413000   0.87324853   -3.6086231    1817.0087  0.062750679  0.062527243            2 
 2414000    0.8942997   -3.6403107    1821.0258   0.06286336  0.062515426            2 
 2415000   0.90053236   -3.6351082    1822.5504  0.062889938  0.062503575            2 
 2416000   0.85631561   -3.6395163    1819.3631  0.062753968  0.062491828            3 
 2417000   0.84074697   -3.6488582    1823.3931  0.062866952  0.062479952            8 
 2418000   0.86155302   -3.6622412    1823.7555  0.062853443  0.062468245            4 
 2419000   0.85491132   -3.6740753    1818.4404  0.062644358  0.062456251            3 
 2420000   0.85208046   -3.6540242     1821.504  0.062723967  0.062444286            3 
 2421000   0.85964745   -3.6544864    1822.2856  0.062724961  0.062432166            3 
 2422000   0.87233302   -3.6257227    1825.9999  0.062826863  0.062420293            4 
 2423000   0.85420164   -3.6516845    1825.7748  0.062793192  0.062408477            6 
 2424000   0.85671696   -3.6214345    1829.0684  0.062880514  0.062396807            1 
 2425000   0.87688482   -3.6136774    1824.8741  0.062710449  0.062385125            2 
 2426000   0.84992808    -3.668935    1824.6166  0.062675756  0.062373249            5 
 2427000   0.86195346   -3.6365865    1829.4234  0.062814976  0.062361506            4 
 2428000   0.86924767   -3.6667381    1824.9582  0.062635853  0.062349681            7 
 2429000   0.84275324   -3.6361858    1829.8199   0.06277686  0.062337968            3 
 2430000   0.87323035   -3.6404849    1829.5667  0.062742341  0.062326302            5 
 2431000   0.87173357   -3.6436127     1825.901  0.062590875  0.062314424            4 
 2432000   0.86452785   -3.6413729    1821.0915  0.062400338  0.062302653            5 
 2433000   0.86571661   -3.6067713    1827.2898  0.062586992  0.062290864            3 
 2434000   0.86611226   -3.6195509    1829.4822   0.06263634  0.062279033            4 
 2435000   0.86399613   -3.6509468    1832.6699  0.062719709  0.062267408            2 
 2436000   0.86645035   -3.6562475    1831.6403   0.06265874  0.062255354            4 
 2437000   0.86417475   -3.6384512    1833.3379   0.06269108  0.062243551            5 
 2438000    0.8694491    -3.642838    1821.2401   0.06225185   0.06223181            3 
 2439000     0.848787   -3.6445517    1828.9232  0.062488833  0.062219923            2 
 2440000   0.85813998   -3.6496656    1831.1032  0.062537678  0.062208053            8 
 2441000   0.85532756   -3.6472633    1829.9855  0.062473901  0.062195995            2 
 2442000   0.86374525   -3.6274897    1828.3618   0.06239291  0.062184043            6 
 2443000   0.86833297   -3.6200152    1838.3349  0.062707564  0.062172189            6 
 2444000   0.85123835   -3.6447232    1828.7862  0.062356322  0.062160179            6 
 2445000   0.84991127   -3.6631377    1827.7525  0.062295586  0.062148268            2 
 2446000   0.85539735   -3.6598766    1836.0168  0.062551676  0.062136334            4 
 2447000   0.87085553   -3.6758219    1827.0882  0.062222047  0.062124372            3 
 2448000   0.88123226   -3.6646907    1829.7529   0.06228734  0.062112323            8 
 2449000   0.87613141    -3.666983    1832.5209  0.062356093  0.062100225            1 
 2450000    0.8530764   -3.6637006    1827.0794  0.062145556  0.062088174            2 
 2451000   0.86718907   -3.6365905    1828.8272  0.062179628  0.062076017            4 
 2452000   0.86488801   -3.6794265    1833.3666  0.062308545  0.062064026            3 
 2453000   0.84720394    -3.623788    1834.8906  0.062334917  0.062052074            3 
 2454000   0.84102643   -3.6645866    1831.3499  0.062189279  0.062040108            7 
 2455000   0.86213992   -3.6641046    1836.8835  0.062351782  0.062028107            2 
 2456000   0.86627948   -3.6169363    1835.9978  0.062296341  0.062015974            3 
 2457000   0.88118733   -3.6403811     1832.193  0.062141941  0.062003916            3 
 2458000   0.86106526   -3.6632914    1838.3778  0.062326341  0.061991997            3 
 2459000   0.85278085   -3.6412293     1835.205  0.062193473  0.061979916            2 
 2460000   0.84052099   -3.6646489    1837.4178  0.062243149  0.061967859            7 
 2461000   0.86337692   -3.6513153     1832.291  0.062044256   0.06195581            4 
 2462000   0.84783573   -3.6655094     1833.503  0.062060078  0.061943641            3 
 2463000   0.86808913   -3.6330261    1837.1895  0.062159612  0.061931511            3 
 2464000   0.84784095   -3.6426217    1833.7836  0.062019195  0.061919298           11 
 2465000   0.86438541   -3.6780717    1829.8735  0.061861848  0.061906996            3 
 2466000   0.85770719   -3.6354993     1834.923  0.062007401   0.06189474            5 
 2467000   0.86733765   -3.6829848     1832.487  0.061899981  0.061882311            3 
 2468000   0.84997886   -3.6593033    1838.6481  0.062082933  0.061870003            4 
 2469000   0.87119189   -3.6507338    1832.7742  0.061859533  0.061857661            3 
 2470000   0.85474988   -3.6477894    1837.4291  0.061991536  0.061845311            2 
 2471000   0.86588933   -3.6419733    1836.3886  0.061931356  0.061832928            5 
 2472000   0.87212656   -3.6287814    1826.2388  0.061564145  0.061820389            4 
 2473000   0.85287335   -3.6344814    1832.8302  0.061761363  0.061808008            5 
 2474000   0.86180395   -3.6819773    1836.3938  0.061856435  0.061795689            4 
 2475000    0.8476349   -3.6544603    1836.4029  0.061831747  0.061783268            5 
 2476000   0.85772478   -3.6543021    1837.6263  0.061847951  0.061770774            4 
 2477000   0.85627666   -3.6336702    1845.7571  0.062096523   0.06175833            6 
 2478000    0.8463101    -3.626269    1841.8493  0.061940049  0.061746075            5 
 2479000   0.87486533   -3.6496369     1838.839  0.061813868  0.061733703            3 
 2480000   0.85421153   -3.6474267    1836.4772  0.061709583  0.061721297            3 
 2481000   0.85292777   -3.6682351    1835.7432  0.061660057  0.061708801            3 
 2482000   0.86288699   -3.6858911    1835.9801  0.061643167  0.061696174            2 
 2483000   0.88208895   -3.6260331    1842.1218  0.061824465  0.061683744            6 
 2484000   0.86164811   -3.6671673    1837.5289  0.061645495  0.061671301            4 
 2485000    0.8465799   -3.6701186    1843.5967  0.061824169  0.061658868            3 
 2486000     0.866326   -3.6478426    1844.9823  0.061845745  0.061646537            6 
 2487000   0.85483311   -3.6718035    1837.5342  0.061571311  0.061634115            6 
 2488000   0.85116254   -3.6742005    1836.8628  0.061524077  0.061621694           21 
 2489000   0.86732704   -3.6383546    1846.0795  0.061807938  0.061609326            9 
 2490000   0.87783208   -3.6679961    1841.0162   0.06161366  0.061597026            5 
 2491000    0.8670325   -3.6584258    1845.5609  0.061740964   0.06158466            6 
 2492000    0.8443408   -3.6610998    1843.9388  0.061661946    0.0615723            4 
 2493000     0.843953   -3.6567916    1844.7452  0.061664167  0.061559872            7 
 2494000     0.863875   -3.6792987    1837.5906  0.061400381  0.061547333            4 
 2495000   0.86560307   -3.6452449    1846.1636  0.061662111  0.061535017            5 
 2496000   0.85207598   -3.6453804    1847.0071  0.061665569  0.061522643            6 
 2497000   0.84300627   -3.6640799    1848.4955  0.061690546  0.061510426            5 
 2498000   0.85174022   -3.6612244    1848.6229    0.0616701  0.061498302            3 
 2499000   0.83306565    -3.660673    1843.4098  0.061471581  0.061486103            3 
 2500000   0.83480429   -3.6601924    1844.1373  0.061471244  0.061473902            6 
 2501000    0.8793344   -3.6538878    1854.1333   0.06177973  0.061461455            4 
 2502000   0.84549507   -3.6625594    1847.1068   0.06152101  0.061449264            5 
 2503000   0.84485897   -3.6566336    1852.1616  0.061664721   0.06143708            2 
 2504000   0.85084904   -3.6349111    1850.3207  0.061578832  0.061424944            3 
 2505000    0.8611806   -3.6690627    1850.9441  0.061574986  0.061412695            4 
 2506000   0.85834615   -3.6802758    1853.0907  0.061621799  0.061400521            4 
 2507000   0.85192099   -3.6696922    1843.0963  0.061265001  0.061388295            5 
 2508000    0.8393206    -3.663277    1850.4821  0.061485982  0.061375991           11 
 2509000   0.85037253   -3.6571934    1849.0376  0.061413498  0.061363754            5 
 2510000   0.85229578   -3.6656138    1848.3176  0.061365125  0.061351614            2 
 2511000     0.842235   -3.6611076    1851.0949   0.06143286  0.061339509            6 
 2512000    0.8278906   -3.6662206    1856.3255  0.061581923  0.061327315            8 
 2513000    0.8521874   -3.6673601    1851.4568  0.061395967  0.061315372            3 
 2514000   0.85314261   -3.6512521     1859.485  0.061637662  0.061303459            3 
 2515000   0.83536986   -3.6435685    1856.7771   0.06152343  0.061291395            3 
 2516000   0.85007082   -3.6669631    1855.6389  0.061461277  0.061279342            6 
 2517000   0.84007295   -3.6795291    1855.4887  0.061431887  0.061267329            5 
 2518000     0.826573   -3.6544004    1856.8245  0.061451699  0.061255318            3 
 2519000   0.82783925   -3.6780419    1857.9111   0.06146325  0.061243199            4 
 2520000   0.83781918   -3.6841516    1856.5301   0.06139319  0.061231182            6 
 2521000   0.84872609    -3.676118    1857.2261  0.061391846  0.061219252            5 
 2522000   0.84256331   -3.6876512    1853.1913  0.061234181  0.061207317            5 
 2523000   0.83346924   -3.6730745    1852.1532  0.061175624  0.061195464            2 
 2524000    0.8536933   -3.6601471    1858.9802  0.061376789  0.061183542            6 
 2525000    0.8383238    -3.641538    1861.7104  0.061442587  0.061171458            9 
 2526000    0.8610387   -3.6591107    1861.4232  0.061408788  0.061159471            4 
 2527000   0.85502546   -3.6840221    1854.8965  0.061169256  0.061147467            6 
 2528000   0.86050565   -3.6554899    1859.6902  0.061303078  0.061135267            2 
 2529000   0.85336554   -3.6698977    1860.9295  0.061319675  0.061123181            4 
 2530000   0.84765014   -3.6716076     1854.387  0.061079941  0.061110988            2 
 2531000    0.8356277   -3.6496837     1861.257  0.061282002  0.061098877            4 
 2532000   0.85086427   -3.6777828    1859.2834  0.061192845  0.061086703            2 
 2533000   0.85960152   -3.6831741    1860.8337  0.061219691  0.061074689            5 
 2534000    0.8510129   -3.6943819    1858.3458  0.061113714   0.06106257            2 
 2535000   0.83856716   -3.6638771     1864.882  0.061304472  0.061050333            6 
 2536000   0.84341764   -3.6501476    1862.9021  0.061215236  0.061038318            3 
 2537000   0.85065408   -3.6760478     1862.412  0.061175008  0.061026283            4 
 2538000   0.85879108   -3.6719996    1861.6306   0.06112525  0.061014272            4 
 2539000   0.83675796   -3.6554161    1863.8424  0.061173771   0.06100212            3 
 2540000   0.82774562   -3.6599652    1862.0074  0.061089482  0.060990024            5 
 2541000   0.83380734    -3.675022    1860.5121    0.0610164  0.060977999            4 
 2542000   0.85086828   -3.6970519    1870.7328  0.061327459  0.060965809            4 
 2543000    0.8581063   -3.6452542    1866.2373  0.061156026  0.060953481            5 
 2544000   0.84168615   -3.6587019    1866.6359  0.061145045  0.060941445            4 
 2545000   0.84759929   -3.6709488    1871.4061  0.061277213   0.06092937            5 
 2546000   0.84405925     -3.69934    1869.1652  0.061179797  0.060917286            3 
 2547000    0.8524597   -3.6538974    1874.2708  0.061322824  0.060905296            5 
 2548000   0.84036406   -3.6771273    1869.9978  0.061159007  0.060893403            1 
 2549000   0.84955251   -3.6748875    1867.7697  0.061062171  0.060881469            3 
 2550000   0.84458171   -3.6963847    1866.4449  0.060994933  0.060869563            3 
 2551000   0.83664739   -3.6705726    1868.4906  0.061037847  0.060857561            2 
 2552000   0.86048292   -3.6950927    1867.7168  0.060988664  0.060845743            3 
 2553000    0.8567234    -3.675957    1870.7754   0.06106461  0.060833869            3 
 2554000   0.83714677   -3.6757366    1872.2964   0.06109033  0.060821889            7 
 2555000   0.84207478   -3.6594643    1872.4876  0.061072655  0.060810015            5 
 2556000   0.83162816   -3.6555571    1876.3493  0.061174666  0.060798373            3 
 2557000    0.8328843   -3.6673469    1870.5971  0.060963273  0.060786515            3 
 2558000   0.85466176   -3.6934397    1868.5937  0.060874176  0.060774471            3 
 2559000   0.85003245   -3.6639014    1876.9055  0.061121058   0.06076255            6 
 2560000   0.84323912   -3.6681057    1876.3317  0.061078505  0.060750696            3 
 2561000   0.85626701   -3.6733362     1877.603  0.061096023  0.060738969            7 
 2562000   0.84254687   -3.6817636    1876.5037   0.06103642  0.060727151            3 
 2563000   0.83200932   -3.6589179    1878.2402  0.061069067  0.060715263            4 
 2564000   0.85105054   -3.6536775    1876.3235  0.060982954  0.060703467            3 
 2565000   0.83439485   -3.6902695    1873.4515   0.06086587  0.060691692            4 
 2566000   0.83841777   -3.7135848    1878.0849  0.060992626  0.060679704            2 
 2567000   0.86044567   -3.6587793    1877.5902  0.060952804  0.060667865            4 
 2568000   0.85076947   -3.6550141    1884.5699  0.061155565  0.060656076            5 
 2569000   0.83153428   -3.6564897    1877.6679  0.060907871  0.060644208            5 
 2570000   0.84307733   -3.6708027    1876.6188  0.060850157   0.06063224            4 
 2571000   0.84331243   -3.6582836    1883.9569  0.061064336  0.060620359            6 
 2572000   0.86408002   -3.6526258    1879.8249  0.060906718  0.060608673            3 
 2573000   0.84827304   -3.6630978    1879.0414  0.060857671  0.060596909            4 
 2574000   0.83286635     -3.66648     1877.518  0.060784706  0.060585001            3 
 2575000   0.85223418   -3.6794135    1885.4032  0.061016285  0.060573027            4 
 2576000   0.85038973   -3.6699664    1885.3823  0.060991921  0.060561396            3 
 2577000    0.8565309   -3.6886283    1885.9643  0.060987076  0.060549458            2 
 2578000   0.84365105   -3.6742853    1876.1946  0.060647613   0.06053737            3 
 2579000   0.82976271   -3.6887131    1876.3197  0.060628141  0.060525304            4 
 2580000   0.83553966   -3.6848897    1878.6413  0.060679628  0.060513368            6 
 2581000   0.82991715   -3.6771389     1882.232  0.060772051  0.060501211            8 
 2582000   0.81854435   -3.6716375    1878.3004  0.060621625  0.060489271            2 
 2583000   0.85073828   -3.6846661    1877.8632  0.060584048  0.060477229            5 
 2584000   0.83451864   -3.6849687     1879.708  0.060620098  0.060465025            3 
 2585000   0.82907254   -3.6634623    1882.7489  0.060694678  0.060452855            3 
 2586000   0.83715251   -3.6761313    1878.9843  0.060549893  0.060440753            6 
 2587000   0.83548592   -3.6954939    1883.7833  0.060681075  0.060428719            3 
 2588000   0.82901179   -3.6789744    1887.3808  0.060773466  0.060416605            7 
 2589000   0.82397437   -3.6755316    1886.2786  0.060714517  0.060404687            2 
 2590000   0.82851262   -3.6768516    1886.4997  0.060698188  0.060392693            2 
 2591000   0.82610101    -3.694008    1885.4648  0.060641476   0.06038075            3 
 2592000   0.83841859   -3.6801581    1884.5747  0.060589463   0.06036877            2 
 2593000   0.82871862   -3.6588097    1887.6498  0.060664924  0.060356824            8 
 2594000   0.82999625   -3.6823892    1890.5009  0.060733129  0.060344841            3 
 2595000    0.8272766    -3.693403    1884.0362  0.060502127  0.060332884            6 
 2596000   0.82928685   -3.6767948    1889.5298  0.060655167  0.060320961            4 
 2597000   0.83945771   -3.7155715    1890.0903  0.060649798  0.060309072            3 
 2598000   0.84205145   -3.6751495    1891.0313  0.060656635  0.060297151            3 
 2599000   0.82962773   -3.6698372    1890.8996  0.060629074  0.060285374            3 
 2600000   0.83924329   -3.7027115    1888.7821  0.060537887   0.06027339            8 
 2601000   0.84810114   -3.6973515    1887.0072  0.060457745  0.060261554            6 
 2602000   0.82982183   -3.6876934     1891.315  0.060572476  0.060249699            6 
 2603000   0.84363291   -3.6877294    1887.7814  0.060436079  0.060237894            8 
 2604000   0.81761717    -3.689515    1897.9368  0.060737864  0.060226065            3 
 2605000   0.84101014   -3.6850311    1903.0704  0.060878771  0.060214456            6 
 2606000    0.8232976   -3.6980006    1881.5016  0.060165694  0.060202837           10 
 2607000   0.83659699   -3.6636947    1893.0355  0.060511299   0.06019106            3 
 2608000   0.83897652   -3.7081127    1890.0832  0.060393764  0.060179439            5 
 2609000   0.83341917   -3.6669564    1896.4055  0.060572555  0.060167781            8 
 2610000   0.81170498   -3.6915723    1894.2266  0.060479776  0.060155981            2 
 2611000   0.83433738   -3.6841526    1897.4595  0.060559795  0.060144281            4 
 2612000   0.83839709   -3.6735685    1899.6394  0.060606159   0.06013247            4 
 2613000   0.84820831   -3.6833072    1899.0879  0.060565376  0.060120751            2 
 2614000   0.83932774   -3.6618015    1896.6772  0.060465352  0.060109163            6 
 2615000   0.82808315   -3.7126606    1896.5883  0.060439397  0.060097475            7 
 2616000   0.83128222   -3.6866442    1898.6435  0.060481762  0.060085831            4 
 2617000   0.82777855   -3.6778022    1902.8247  0.060591793  0.060074216            3 
 2618000   0.83943594   -3.6988811    1900.5516  0.060496295  0.060062457            2 
 2619000   0.85825564   -3.6915034    1908.8273  0.060736518  0.060050907            8 
 2620000   0.82976481   -3.6839075    1899.7432  0.060424401  0.060039371            4 
 2621000   0.82522028    -3.677343    1896.2218  0.060289388  0.060027726            5 
 2622000   0.83070567   -3.6799771    1900.3252  0.060396808  0.060016035            4 
 2623000   0.81747838    -3.690548    1899.1921  0.060337784  0.060004402            3 
 2624000   0.84471111   -3.6778643    1897.7853  0.060270114  0.059992753            2 
 2625000   0.85856079   -3.7152914    1898.7471  0.060277687  0.059980998            3 
 2626000     0.834168   -3.6998517    1898.0717  0.060233298  0.059969226            5 
 2627000   0.82644355   -3.6871204    1902.9696  0.060365742  0.059957692            5 
 2628000    0.8353346    -3.696743    1901.5641  0.060298203  0.059945995            3 
 2629000   0.82621841   -3.6793002    1908.2428  0.060486965  0.059934339            5 
 2630000   0.82816492   -3.7217655    1898.9634  0.060169944  0.059922701            6 
 2631000   0.81275747   -3.7032415    1904.4786   0.06032176  0.059911038            4 
 2632000   0.82499296   -3.6934059    1906.7473  0.060370673  0.059899487            2 
 2633000   0.83685835   -3.6888893    1895.7984  0.060001215  0.059887738            9 
 2634000   0.82310309   -3.6843602     1900.068  0.060113516  0.059875999            4 
 2635000   0.82699722   -3.6931721    1900.3387  0.060099263  0.059864215            3 
 2636000   0.84042707   -3.6674884    1908.2989  0.060328114    0.0598525            4 
 2637000   0.83167382   -3.6995674    1901.4485  0.060088753  0.059840771            4 
 2638000   0.83788435   -3.7215992    1903.5033  0.060130884  0.059828997            4 
 2639000   0.83295587   -3.6929571    1903.8313  0.060118458  0.059817366            7 
 2640000   0.82993757    -3.689385    1906.6464  0.060184545   0.05980577            7 
 2641000   0.81643094   -3.6853644    1910.1199  0.060271359  0.059794249            5 
 2642000   0.82793155   -3.6985648    1908.2962  0.060191022   0.05978268            4 
 2643000   0.84436892   -3.6774671    1904.8021  0.060058083   0.05977106            2 
 2644000   0.83892835   -3.6845417    1906.8751  0.060100701   0.05975933            4 
 2645000   0.81504303   -3.7093156    1904.5003  0.060003159  0.059747587            5 
 2646000   0.82672946   -3.6862742    1905.4353  0.060009931   0.05973572            2 
 2647000   0.82765608   -3.7034516    1909.5364  0.060116372  0.059724074            3 
 2648000    0.8267136   -3.6900794    1908.1143  0.060048916  0.059712399            3 
 2649000   0.82657499   -3.6796322    1909.6005     0.060073  0.059700754            3 
 2650000   0.82618062   -3.6880582     1909.987  0.060062485  0.059689023            4 
 2651000   0.82145292   -3.7157129    1908.8827  0.060005116  0.059677299            3 
 2652000   0.82526476   -3.6949156    1914.5137  0.060159431  0.059665783            4 
 2653000     0.824207    -3.705815    1913.2852  0.060098166  0.059654203            1 
 2654000   0.83300935   -3.7208182    1910.8293  0.059998408  0.059642693            6 
 2655000   0.80026413   -3.6954206    1911.6031  0.060000098  0.059631217            8 
 2656000   0.82634836   -3.7182104    1913.4219  0.060034573  0.059619675            2 
 2657000   0.82984562   -3.6970555    1914.3271  0.060040368  0.059608082            2 
 2658000   0.82391652   -3.6909293    1910.0854  0.059884795  0.059596481            4 
 2659000   0.82778671   -3.7135496    1917.9488  0.060108714  0.059585053            4 
 2660000   0.82982252   -3.7269196    1913.7098  0.059953314  0.059573754            4 
 2661000   0.84009267   -3.7196644    1916.6703  0.060023497  0.059562231            4 
 2662000   0.82748714    -3.728228    1911.1323  0.059827581  0.059550668            6 
 2663000   0.83099889   -3.6909071    1925.1603  0.060244096  0.059539121            4 
 2664000   0.83009947    -3.681638     1921.151  0.060096066  0.059527575            4 
 2665000   0.83224404   -3.6874493    1921.2108  0.060075384  0.059515964            6 
 2666000   0.83007023   -3.6823409    1915.7749  0.059882937  0.059504338            3 
 2667000   0.82919716   -3.7093115    1913.5616  0.059791327  0.059492629            5 
 2668000   0.83106461   -3.7049563    1918.9728   0.05993793  0.059481097            5 
 2669000   0.82549363   -3.7152377     1914.171  0.059765548   0.05946949            5 
 2670000   0.81569228   -3.6850179    1920.2613   0.05993325  0.059457783            3 
 2671000   0.82915066   -3.7065359    1924.3034   0.06003692   0.05944628            5 
 2672000   0.82924425    -3.716005     1910.827  0.059594156  0.059434753            4 
 2673000   0.82366813   -3.6963334     1921.751  0.059912427  0.059423281            4 
 2674000   0.82504052   -3.6700273    1918.4191  0.059786184  0.059411713            5 
 2675000   0.81402753   -3.7066668    1922.7287  0.059898089  0.059400198            4 
 2676000   0.82873548   -3.7236392    1920.9049  0.059818911  0.059388695            6 
 2677000   0.82172645   -3.7113568    1919.1535  0.059742046   0.05937726            5 
 2678000   0.83386276   -3.7179902    1915.0411  0.059591769  0.059365636            7 
 2679000   0.83636951   -3.6979325    1922.3167   0.05979584  0.059354254            3 
 2680000   0.82950511   -3.7243795    1920.1903  0.059707411  0.059342777            5 
 2681000   0.81555908   -3.6780608     1928.352   0.05993883   0.05933121            3 
 2682000   0.81692149   -3.6910015    1921.7631  0.059711754  0.059319667            3 
 2683000   0.81373706   -3.6911922    1926.9425   0.05985037  0.059308174            2 
 2684000   0.81514825   -3.7127105    1926.6792  0.059819896   0.05929663            3 
 2685000   0.80553759   -3.7050151    1922.2037  0.059658713  0.059284971            3 
 2686000   0.79352404   -3.7037636    1925.0107  0.059723588  0.059273368            7 
 2687000   0.82963052   -3.6810554    1917.2198  0.059459739   0.05926176            3 
 2688000   0.81758993   -3.7184274    1925.2722  0.059687258  0.059250233            5 
 2689000   0.82312081   -3.6990882    1931.0839  0.059845169  0.059238812            2 
 2690000   0.82681643   -3.6979983    1928.0456  0.059728798  0.059227394            3 
 2691000    0.8245798   -3.7138064    1924.8967  0.059609089  0.059215975            4 
 2692000   0.81634758   -3.7342375     1925.758  0.059613607  0.059204525            6 
 2693000   0.82877456   -3.7288767    1921.1644  0.059449324  0.059192967            3 
 2694000   0.81810501   -3.6987406     1931.576  0.059749319   0.05918149            2 
 2695000   0.82820629   -3.6944132    1927.9904  0.059616278  0.059170088            9 
 2696000   0.80989596   -3.7371008    1921.9307   0.05940686  0.059158663            4 
 2697000    0.8250599   -3.7437266    1928.5094  0.059588104  0.059147034            3 
 2698000   0.81242997      -3.6972    1932.3574  0.059684871  0.059135668            6 
 2699000   0.83325776   -3.7191391     1932.898   0.05967945  0.059124272            4 
 2700000    0.8094543   -3.7423654    1936.0443  0.059754454   0.05911282            4 
 2701000   0.82371803   -3.6963848    1929.6417  0.059534792  0.059101205            2 
 2702000   0.83369289   -3.7204754    1929.1351  0.059497136  0.059089699            5 
 2703000   0.82956396   -3.6993635    1931.1221  0.059536383   0.05907828            2 
 2704000   0.83711349   -3.7099537    1932.7614  0.059564886  0.059066934            7 
 2705000    0.8234334   -3.7089277    1928.9304  0.059424843  0.059055519            4 
 2706000   0.82744852   -3.6915853     1933.489  0.059543269  0.059044049            4 
 2707000   0.82583818   -3.6968162    1928.1005  0.059355391    0.0590325            3 
 2708000   0.83531158   -3.6926163    1926.7083  0.059290628  0.059021082            6 
 2709000   0.80172276   -3.7071176    1938.9598  0.059645619  0.059009749            4 
 2710000   0.82330452   -3.7037926    1938.6709  0.059614728  0.058998338            3 
 2711000   0.81317999   -3.7534507    1933.2683  0.059426666  0.058986965            9 
 2712000   0.80788288   -3.7293398    1929.8922  0.059301015  0.058975472            7 
 2713000   0.81224369   -3.7255819    1930.4966  0.059297721  0.058964058            2 
 2714000    0.8158549   -3.7271536    1936.2434  0.059452326  0.058952566            3 
 2715000   0.81515714   -3.7138039    1941.5623  0.059593687  0.058941086            5 
 2716000   0.82087639   -3.7149187    1927.7201  0.059147034  0.058929828            5 
 2717000   0.82102432   -3.7199754    1937.2965  0.059418981  0.058918481            3 
 2718000   0.80828022   -3.7267732    1940.8118  0.059504899  0.058907085           11 
 2719000   0.82047674   -3.6961198    1940.0499  0.059459664  0.058895667           10 
 2720000   0.79804535    -3.705913    1936.2798  0.059322297  0.058884322            3 
 2721000   0.82096804   -3.7324446    1940.2979  0.059423556  0.058872919            3 
 2722000   0.82272954   -3.7153756    1938.3223   0.05934124  0.058861651            3 
 2723000   0.80117695   -3.7023362    1941.6167  0.059420268  0.058850364            6 
 2724000    0.8306509   -3.7220597    1940.1942  0.059354938     0.058839            4 
 2725000   0.81461151    -3.723353    1939.1955  0.059302614  0.058827428            4 
 2726000   0.81865291   -3.7219341    1940.6612  0.059325667   0.05881594            4 
 2727000   0.80946378   -3.7066947     1938.042  0.059223871  0.058804382            3 
 2728000   0.79062221    -3.717456    1942.3937  0.059335097    0.0587929            5 
 2729000   0.81594719   -3.7057802    1938.1059   0.05918242  0.058781398            2 
 2730000   0.84187788   -3.7032607    1938.0822  0.059160019  0.058769973            3 
 2731000   0.80756858   -3.7376784    1941.3948  0.059239435  0.058758582            4 
 2732000   0.80621645   -3.7210201    1937.8919  0.059110904  0.058747061            2 
 2733000   0.82528874   -3.7113249    1939.4896  0.059137993  0.058735674            6 
 2734000   0.80154596   -3.7103855    1936.7888  0.059034041   0.05872427            3 
 2735000   0.80954627   -3.7155184    1940.8817  0.059137162  0.058712935            2 
 2736000   0.82805908   -3.7226672    1938.7316   0.05905006  0.058701413            3 
 2737000    0.8163687   -3.7077745    1943.8237  0.059183526  0.058690064            2 
 2738000   0.82852727   -3.7378281     1943.165  0.059141863  0.058678595            3 
 2739000   0.80823005   -3.7260127    1937.5308  0.058948849   0.05866724            3 
 2740000    0.8087326   -3.7149659    1947.3012  0.059224488  0.058655735            4 
 2741000   0.80906872   -3.7416331    1938.5854  0.058937899  0.058644301            3 
 2742000   0.83579895   -3.7027038    1944.1811  0.059086468  0.058632919            6 
 2743000   0.82678097   -3.7138502    1946.4455  0.059133718  0.058621639            7 
 2744000   0.81310165   -3.7258023    1948.0516  0.059160944  0.058610226            3 
 2745000   0.79756891   -3.7561093    1946.1427  0.059081443   0.05859878            3 
 2746000   0.78665266   -3.6959204    1944.4028  0.059007125  0.058587418            4 
 2747000   0.81456744   -3.7133984     1948.289  0.059103538   0.05857613            7 
 2748000   0.81070327   -3.7439744    1938.2118  0.058776439  0.058564724            4 
 2749000   0.80605764   -3.7261379    1944.2709  0.058938733  0.058553279            3 
 2750000   0.81501193   -3.7174415    1950.6245  0.059109834  0.058541939            4 
 2751000   0.80917905   -3.7067568    1943.7468  0.058880007  0.058530627            3 
 2752000   0.81188295   -3.7404792    1951.9293  0.059106385  0.058519169            3 
 2753000    0.8128826    -3.740741    1940.5794  0.058741354  0.058507757            5 
 2754000   0.80012661   -3.7405019    1948.6786  0.058965098  0.058496342            8 
 2755000   0.81142364   -3.7324444    1947.7439  0.058915424  0.058484794            3 
 2756000   0.82229697   -3.7665464    1947.0853  0.058874132  0.058473345            4 
 2757000   0.79144712    -3.718371    1950.9574  0.058969816  0.058461783            3 
 2758000   0.82302987   -3.7406947     1943.729  0.058730028  0.058450298            3 
 2759000   0.81468437   -3.7503467    1940.1347  0.058600178  0.058438571            4 
 2760000   0.83688878   -3.7570908    1947.2116  0.058792619  0.058426936            5 
 2761000   0.81338886   -3.7408858    1946.1585  0.058739543  0.058415436            5 
 2762000    0.8207601   -3.7285066    1953.9325  0.058952828  0.058403965            2 
 2763000   0.83034629   -3.7501375     1943.949  0.058630384  0.058392493            5 
 2764000    0.8075439   -3.7421107    1947.6148  0.058719695  0.058380853           10 
 2765000   0.81093188   -3.7165028    1955.1257  0.058924824  0.058369267            4 
 2766000   0.82555904   -3.6931373    1951.8421  0.058804594  0.058357845            8 
 2767000   0.79933603   -3.7206047    1957.3531  0.058949316  0.058346379            8 
 2768000   0.80958108   -3.7505628     1943.914  0.058523422  0.058334851            4 
 2769000   0.82513011    -3.706549    1954.1309  0.058809765  0.058323364            4 
 2770000   0.80949191   -3.7462921    1946.5081   0.05855921  0.058311811            2 
 2771000   0.81552635   -3.7218875    1943.7505  0.058455146  0.058300027            5 
 2772000   0.80537363   -3.7102965    1953.4446  0.058725487  0.058288389            7 
 2773000   0.79468829   -3.7506545    1949.8911  0.058597522  0.058276675            3 
 2774000   0.77991699   -3.7196949    1948.7524  0.058542189  0.058264965            4 
 2775000   0.81412225   -3.7106519    1951.7638  0.058611524  0.058253378            4 
 2776000   0.80375093   -3.7508075    1950.6382  0.058556623  0.058241728            3 
 2777000   0.81644199   -3.7283382    1946.3883  0.058408005  0.058229955            6 
 2778000   0.81663132   -3.7251827    1951.1158  0.058528792  0.058218257            3 
 2779000   0.81322841   -3.7126606    1953.7219  0.058585878  0.058206568            5 
 2780000   0.83543825   -3.7181636    1951.2104  0.058489521  0.058194908            3 
 2781000   0.80074523   -3.7393821    1953.1963  0.058527997  0.058183092            9 
 2782000   0.80581295   -3.7113017    1957.1665  0.058625885  0.058171372            3 
 2783000   0.80444903   -3.7188298    1951.4311  0.058433079  0.058159746            4 
 2784000   0.78215683   -3.7231597    1950.4658  0.058383196  0.058147895            4 
 2785000   0.79240219    -3.732841    1954.5473  0.058484358   0.05813617            6 
 2786000   0.81564568   -3.7348968    1949.9617  0.058326207  0.058124592            8 
 2787000   0.80322916   -3.7150665    1957.4341  0.058528707  0.058112943            7 
 2788000   0.80332119   -3.7598496    1962.7574  0.058666829  0.058101316            7 
 2789000    0.8182617   -3.7385336    1955.6934  0.058434727   0.05808971            6 
 2790000   0.82004403   -3.7391966    1954.4381  0.058376288  0.058077975            2 
 2791000   0.79819561   -3.7399431    1953.5362  0.058328441  0.058066276            3 
 2792000   0.81426673   -3.7266146    1961.0207  0.058530943  0.058054712           11 
 2793000   0.80693198   -3.7434807    1952.1565  0.058245508  0.058042996            3 
 2794000   0.81075294   -3.7342708    1958.6579  0.058418571  0.058031371            5 
 2795000   0.80415631   -3.7469599    1957.8027  0.058372175  0.058019772            5 
 2796000   0.79086416   -3.7481594    1953.9169  0.058235483  0.058008149            3 
 2797000   0.81407584   -3.7423088    1957.9107  0.058333651  0.057996338            6 
 2798000   0.79187527   -3.7278894    1959.2404  0.058352405  0.057984465            4 
 2799000   0.79037721   -3.7370055    1957.9088  0.058291913  0.057972756            3 
 2800000   0.78801121   -3.7441281      1956.23   0.05822113  0.057960977            6 
 2801000   0.79179672   -3.7316362    1960.0853  0.058315047  0.057949184            3 
 2802000   0.82677991   -3.7333998    1953.7988  0.058107269  0.057937331            3 
 2803000   0.79988787   -3.7424324    1960.4418  0.058284036  0.057925626            4 
 2804000   0.80049349   -3.7513424     1959.366  0.058231277  0.057913766            2 
 2805000    0.8131831   -3.7622302    1953.3178  0.058030831  0.057901966            7 
 2806000   0.80741223   -3.7450539    1956.4346  0.058102716  0.057890072            4 
 2807000   0.80642452   -3.7247429    1956.8153  0.058093319  0.057878324            4 
 2808000   0.79895677   -3.7441726    1962.7556  0.058248919  0.057866551            3 
 2809000   0.78017851   -3.7523105    1965.7655  0.058317475  0.057854771            4 
 2810000   0.79353382   -3.7357226    1961.2815  0.058163745  0.057843186            5 
 2811000   0.80541503    -3.740319    1962.9385  0.058192177  0.057831518            3 
 2812000   0.81029951    -3.732336    1963.8377  0.058198131  0.057819847            3 
 2813000   0.76962397   -3.7465003    1963.4773  0.058166764  0.057808098            4 
 2814000   0.79549054   -3.7509056    1963.2068  0.058138084  0.057796412            5 
 2815000    0.7939279   -3.7333394    1961.4392  0.058065103  0.057784694            4 
 2816000    0.8053066   -3.7534223    1968.6218  0.058257038  0.057772943            3 
 2817000   0.81119869   -3.7474225    1962.3691  0.058051386  0.057761242            3 
 2818000   0.80150392   -3.7278543    1966.6307  0.058156812  0.057749665            4 
 2819000   0.79855709   -3.7074701    1965.3771  0.058099123  0.057738114            7 
 2820000   0.79089516   -3.7382664    1963.3005  0.058017155  0.057726386            9 
 2821000   0.80778709    -3.740316    1967.0376  0.058106983  0.057714711            4 
 2822000   0.80431242   -3.7285142    1965.7163  0.058047374  0.057703052            5 
 2823000   0.80651356   -3.7461832    1965.9017  0.058032285  0.057691359            3 
 2824000   0.81548118   -3.7627392    1964.3087  0.057964728  0.057679768            5 
 2825000   0.80341275     -3.75119    1971.9953  0.058170954  0.057668085            4 
 2826000   0.79334905    -3.759006    1963.3995  0.057896893  0.057656488            2 
 2827000   0.77701626    -3.755251    1962.6482  0.057854269  0.057644873            4 
 2828000    0.8009431   -3.7254019    1971.1377  0.058083974  0.057633227            4 
 2829000   0.78825033    -3.734584    1965.1233  0.057886275  0.057621468            5 
 2830000   0.79342646   -3.7371523    1974.2763  0.058135345  0.057609933           15 
 2831000   0.80208044   -3.7322425    1964.2718  0.057820316  0.057598251            4 
 2832000   0.80871835   -3.7455855    1966.8635  0.057876163  0.057586595            2 
 2833000   0.80798197   -3.7614115    1963.9547   0.05777017  0.057575018            6 
 2834000   0.81184828   -3.7440311    1978.0569  0.058164459  0.057563496            5 
 2835000   0.79379896   -3.7678821    1970.6826  0.057927178  0.057551967            3 
 2836000   0.78470819   -3.7318066    1971.5979  0.057933649   0.05754034            2 
 2837000   0.79747009   -3.7337389    1970.5605  0.057882754  0.057528849            2 
 2838000   0.80931031   -3.7390041     1970.992   0.05787503  0.057517264            3 
 2839000   0.78196312   -3.7281286    1970.7274  0.057846877   0.05750567            6 
 2840000   0.80283529   -3.7318712    1966.2799  0.057696007  0.057493833            4 
 2841000   0.80528034   -3.7703226     1967.927   0.05772401  0.057482083           16 
 2842000   0.80869852   -3.7255545    1968.9842    0.0577347  0.057470397            5 
 2843000   0.79092511   -3.7384689    1966.3475  0.057637106  0.057458575            3 
 2844000   0.78712617   -3.7207343    1970.2881  0.057732305  0.057446684            2 
 2845000   0.81533524    -3.753699    1972.6602  0.057781493   0.05743477            4 
 2846000   0.79259987     -3.76252    1969.0618  0.057655827  0.057422898            5 
 2847000   0.78700517   -3.7548492    1973.9483  0.057778607   0.05741099            3 
 2848000   0.79363506   -3.7615009    1962.8926  0.057434825  0.057398895            5 
 2849000   0.77892618   -3.7455773    1963.5854  0.057434932  0.057386854            9 
 2850000    0.8066254   -3.7639514    1964.4722  0.057440709   0.05737486            3 
 2851000   0.79047961   -3.7811913    1966.7768  0.057487923  0.057362689            3 
 2852000   0.79597767   -3.7379697    1967.4067  0.057486171  0.057350616            2 
 2853000   0.79301536   -3.7460372    1970.2156  0.057548067  0.057338522           12 
 2854000   0.80197559   -3.7299015    1971.2832  0.057559076  0.057326683            3 
 2855000   0.79666966   -3.7446821    1965.1278  0.057359248  0.057314715            9 
 2856000    0.7872859   -3.7286578    1967.4637  0.057407321  0.057302652            4 
 2857000   0.79639017     -3.75832    1975.3134  0.057616188  0.057290629            4 
 2858000   0.79863054   -3.7643087    1970.3584  0.057451552  0.057278686            2 
 2859000   0.78037728   -3.7653641    1962.6325  0.057206264  0.057266501            2 
 2860000   0.79399022   -3.7674315    1962.7625  0.057190051  0.057254314            6 
 2861000   0.77736169   -3.7481997    1972.2413  0.057446152  0.057242332            3 
 2862000   0.79375101   -3.7762457    1970.0885  0.057363398  0.057230297            6 
 2863000   0.80605207   -3.7523437     1968.641  0.057301228  0.057218287            5 
 2864000   0.79212769   -3.7537878    1968.7763  0.057285158  0.057206354            5 
 2865000   0.80408033   -3.7393218     1980.754  0.057613555  0.057194393            9 
 2866000   0.78292082   -3.7527067    1972.9048  0.057365226  0.057182374            4 
 2867000   0.81271479   -3.7628908    1976.8998  0.057461337   0.05717021            2 
 2868000   0.80607116   -3.7423814    1972.2758  0.057306945  0.057158169            3 
 2869000   0.78488791   -3.7709782    1973.2847  0.057316274  0.057146187            5 
 2870000   0.79439896    -3.717854    1983.6801  0.057598145  0.057134192           10 
 2871000   0.77709928   -3.7329691     1982.125  0.057532943  0.057122251            4 
 2872000   0.78056709   -3.7339849    1974.8336  0.057301348  0.057110316            4 
 2873000   0.78553697   -3.7697006    1976.6327  0.057333586  0.057098498            2 
 2874000   0.79983899   -3.7807307    1970.4636  0.057134759  0.057086534            4 
 2875000   0.82330674   -3.7195468    1979.1035  0.057365319  0.057074508            5 
 2876000   0.79328669   -3.7624837    1977.3176  0.057293626  0.057062703            8 
 2877000   0.80321972   -3.7523693     1976.218  0.057241862  0.057050795            5 
 2878000   0.77615958   -3.7546784    1978.7545  0.057295417  0.057038841            5 
 2879000   0.79639801   -3.7325056    1980.1673  0.057316408  0.057026873            6 
 2880000   0.78659861   -3.7588106    1978.0529  0.057235326  0.057015159            6 
 2881000   0.78377128    -3.742501    1983.7475  0.057380178  0.057003285            3 
 2882000   0.76794212   -3.7622075    1978.7113  0.057214644  0.056991462            7 
 2883000   0.77293788   -3.7645197    1977.9665  0.057173271  0.056979574            3 
 2884000    0.7809331     -3.76126     1969.773  0.056916696  0.056967736            3 
 2885000   0.79469079   -3.7283564    1984.0172  0.057308411  0.056955853            3 
 2886000   0.78060017   -3.7649597     1981.499  0.057215841  0.056944024            6 
 2887000   0.79420505   -3.7782207    1968.9171  0.056832846  0.056932261            7 
 2888000   0.79485247   -3.7627791    1980.4818  0.057146866  0.056920359            6 
 2889000   0.79679445   -3.7701567     1979.673  0.057103757   0.05690831            5 
 2890000   0.80376544   -3.7330167    1978.9909  0.057064329   0.05689634            5 
 2891000   0.78583804   -3.7632124    1979.2814  0.057052963  0.056884411            3 
 2892000   0.76680439    -3.752429     1979.688   0.05704495  0.056872397            7 
 2893000   0.78884516   -3.7619288     1980.968  0.057062103   0.05686046            4 
 2894000   0.80650686   -3.7539214    1979.4086  0.056997482  0.056848468            2 
 2895000    0.7745936   -3.7419224     1983.734  0.057102302  0.056836632            3 
 2896000   0.78339781    -3.753529    1981.8778  0.057029171  0.056824737            3 
 2897000   0.78261303   -3.7657141    1978.8039  0.056921064  0.056812835            3 
 2898000   0.79848738   -3.7833196    1980.2468  0.056942914  0.056800846            5 
 2899000   0.77175241   -3.7646943    1982.0609  0.056975419  0.056788931            4 
 2900000   0.79827101   -3.7544722    1986.6306  0.057087086  0.056777121            4 
 2901000   0.80383583   -3.7832075     1986.453  0.057062305  0.056765354            4 
 2902000   0.78709469   -3.7420151    1988.6585  0.057105977  0.056753652            7 
 2903000   0.79126332   -3.7398247    1988.7454  0.057088798  0.056741987            5 
 2904000   0.78203171   -3.7465365    1993.2946  0.057199684   0.05673031            7 
 2905000   0.77604229   -3.7751304    1987.1761  0.057004478  0.056718654            3 
 2906000   0.78392021    -3.763493    1988.3251  0.057017811  0.056706958            5 
 2907000   0.79812977   -3.7613254    1983.8393  0.056869605  0.056695332            5 
 2908000   0.78405804   -3.7659313    1991.6342  0.057073423  0.056683822            6 
 2909000   0.80076232   -3.7891788    1984.5769  0.056851637  0.056672157            5 
 2910000   0.79300134   -3.7857045    1986.7027  0.056892974  0.056660441            4 
 2911000   0.78155053   -3.7811267    1987.1185  0.056885336  0.056648729            6 
 2912000   0.77477814   -3.7684602    1994.9998  0.057091341   0.05663722            4 
 2913000   0.79416487   -3.7690798    1992.7173  0.057006446  0.056625668            2 
 2914000   0.79228336   -3.7801738    1990.4203  0.056921194  0.056614045            5 
 2915000   0.77396929   -3.7662282    1987.2142   0.05681001   0.05660234            5 
 2916000   0.80483521   -3.7544554    1993.5413  0.056971346  0.056590693            3 
 2917000   0.77635825   -3.7688803    1992.2707  0.056915516  0.056579032            8 
 2918000   0.77537499   -3.7655742    1991.5902  0.056876575  0.056567258            6 
 2919000   0.77599636   -3.7794132    1984.9257  0.056666829  0.056555431            2 
 2920000    0.7920581   -3.7727266    1994.0695  0.056908376  0.056543667            3 
 2921000   0.78261955   -3.7523686      1994.82  0.056910304  0.056531851            5 
 2922000   0.77794613   -3.7362006    1999.6497  0.057028567  0.056520167            2 
 2923000   0.78013139   -3.7459729    1990.1831   0.05673917  0.056508506            4 
 2924000   0.77805765   -3.7624599    1989.4104  0.056697742   0.05649652            5 
 2925000   0.77059158   -3.7844498    1986.7873  0.056603626  0.056484741            6 
 2926000   0.77724073   -3.7635083    1997.6674  0.056894149  0.056472871            4 
 2927000   0.77386517   -3.7616558    1990.0809   0.05665872  0.056461033            2 
 2928000   0.79221297   -3.7743365    1992.4681  0.056707311  0.056449234            8 
 2929000   0.77157121   -3.7799489    1994.9768  0.056759327  0.056437399            3 
 2930000   0.78159171   -3.7692261    1981.9375  0.056369099  0.056425504            4 
 2931000   0.77615408   -3.7776863    1993.7158  0.056684742  0.056413776            4 
 2932000   0.79807647   -3.7745262    1989.6232   0.05654909  0.056401967            6 
 2933000   0.75589773   -3.7568672     1993.781  0.056647944  0.056390275            7 
 2934000   0.78380518     -3.75463    1989.4163  0.056504665  0.056378469            4 
 2935000   0.79405527   -3.7697538    1990.8891  0.056527231  0.056366629            5 
 2936000   0.77808335   -3.8116373    1989.0121  0.056454704  0.056354865            5 
 2937000   0.78129519   -3.7708999    1995.4656   0.05661859  0.056342929            4 
 2938000    0.7668307   -3.7943101    1990.6856   0.05646374  0.056330982            9 
 2939000   0.77164172   -3.7609397    1997.0639   0.05662538  0.056319021            4 
 2940000   0.78983462   -3.7645344    1989.8609  0.056401953  0.056307019            5 
 2941000   0.79264693    -3.759031    1997.0062  0.056585238  0.056295205            5 
 2942000   0.78010815   -3.7752551    1995.3581  0.056519321  0.056283375            6 
 2943000   0.77799212   -3.7834775    1990.9012  0.056373916  0.056271282            7 
 2944000   0.77082986   -3.7735188      1998.06  0.056557405  0.056259323            4 
 2945000   0.78604604   -3.7744445    1992.2046  0.056372513  0.056247351            3 
 2946000   0.77133685   -3.7620327    1999.7522  0.056566877  0.056235523            7 
 2947000   0.76985068   -3.7970721    1997.3261  0.056479079  0.056223637            4 
 2948000   0.77730053   -3.7627296    1996.2888  0.056430596   0.05621175            6 
 2949000   0.76742664   -3.7865329    1999.0002  0.056488081  0.056199965            3 
 2950000   0.77901223   -3.8037791    1998.2664  0.056448202  0.056188144            6 
 2951000   0.79149102   -3.7628993    2005.5833  0.056635697  0.056176302            5 
 2952000   0.78869357     -3.76969    1999.3657  0.056440992  0.056164622           12 
 2953000   0.75949057   -3.7841021    1998.9689  0.056410682  0.056152868           11 
 2954000   0.78500383   -3.7437693    1999.5989  0.056409358  0.056141131            4 
 2955000   0.76230703   -3.7918526    1999.0934  0.056376012  0.056129364            8 
 2956000   0.78624955   -3.7803912         2004  0.056495265  0.056117752            3 
 2957000   0.78098133   -3.7767474    2003.3387  0.056457522  0.056105973            3 
 2958000   0.77601786   -3.8047838    1997.8857  0.056284812   0.05609414            3 
 2959000   0.76534691   -3.7750508    2004.8338  0.056461468  0.056082364            4 
 2960000   0.76681949   -3.7699891    2001.8381  0.056358055  0.056070646            6 
 2961000   0.77887566   -3.7900407    2000.1501  0.056291514  0.056058861            5 
 2962000   0.77331996    -3.803547    2002.1196  0.056327921  0.056047122           18 
 2963000   0.77331401    -3.794139    1998.9036  0.056218461  0.056035238            6 
 2964000   0.76940809    -3.779405    1999.7795   0.05622412  0.056023408            8 
 2965000   0.80876561   -3.7702364     2007.082  0.056410399  0.056011645            3 
 2966000   0.78716236   -3.7833788    1993.5747  0.056011878  0.055999816            5 
 2967000   0.78060724   -3.7615299    2001.0381  0.056202621  0.055988056            6 
 2968000   0.79049551   -3.7787605    2005.9994  0.056322983  0.055976265            4 
 2969000   0.78386793   -3.7670426    1997.4941  0.056065288  0.055964532            5 
 2970000   0.77855751   -3.7958779      1993.85  0.055944165  0.055952752            4 
 2971000   0.77870195   -3.8026608    2009.4255  0.056362209  0.055941039            7 
 2972000   0.75903169   -3.7785799    2006.1912  0.056252558  0.055929325            6 
 2973000    0.7819073   -3.7859195    2003.0396  0.056145297   0.05591762            4 
 2974000   0.78395154   -3.8017534    1999.3804  0.056023884  0.055905807            8 
 2975000   0.78014719   -3.7814179    2002.5884  0.056094913  0.055894032            9 
 2976000   0.77563871   -3.7955596    2005.5143  0.056157994  0.055882209            7 
 2977000   0.77336842   -3.8011075    2004.2597   0.05610401  0.055870343            4 
 2978000   0.77040111    -3.771819    2007.9643  0.056188837  0.055858621            4 
 2979000   0.78514248   -3.7860853    2007.1036  0.056145899  0.055846887            3 
 2980000   0.75661537   -3.7737546    2003.9772  0.056039631  0.055835211            3 
 2981000   0.75935096   -3.7728443    2005.0427  0.056050617  0.055823441            5 
 2982000   0.78436152   -3.7869818     2009.249  0.056149367  0.055811698            8 
 2983000   0.77640049    -3.755478    2014.5318  0.056278127  0.055799932            5 
 2984000   0.78190013   -3.8023517    1998.9882  0.055825183  0.055788224            6 
 2985000    0.7821618   -3.7700585     2008.373  0.056068481  0.055776593            3 
 2986000    0.7825516   -3.7780973    2004.9191  0.055953311  0.055764849            8 
 2987000   0.78215509   -3.7935141    2005.6055  0.055953729  0.055752983            3 
 2988000   0.77017241   -3.7413017    2012.9407  0.056139578  0.055741257            9 
 2989000   0.77859566   -3.7764907    2012.9153  0.056120087  0.055729581            4 
 2990000   0.76792062    -3.789822    2009.5423   0.05600731  0.055717817            6 
 2991000   0.77427605   -3.7973206     2004.889  0.055858938  0.055705962            7 
 2992000   0.77423104   -3.7938678    2016.0374  0.056150773  0.055694221           10 
 2993000   0.75814724   -3.8160884    2002.3588  0.055751164  0.055682347            7 
 2994000   0.76205489   -3.7816157    2009.6939  0.055936703  0.055670467            6 
 2995000   0.78789792   -3.7941268     2005.613  0.055804481  0.055658656            4 
 2996000    0.7503213   -3.7831074    2002.5541  0.055700771  0.055646773            3 
 2997000   0.76223084   -3.8011909    2005.8356  0.055773428  0.055634833            2 
 2998000   0.77570568   -3.7905819    2004.7641  0.055725042  0.055622886            3 
 2999000   0.77702624   -3.7902897    2005.7421  0.055733636  0.055610915            5 
 3000000   0.76399244   -3.7817959    2002.5169   0.05562547  0.055598975            3 
 3001000   0.78506484   -3.7841114    2004.8398  0.055671437  0.055587005            6 
 3002000   0.78899099   -3.8171857    2007.6598  0.055731173  0.055575002            7 
 3003000    0.7637914   -3.7655596    2011.8052   0.05582765   0.05556308            5 
 3004000   0.77461587   -3.7750578    2009.6295  0.055748711  0.055551224            5 
 3005000   0.77516853   -3.8012933    2010.3518  0.055750189  0.055539208            4 
 3006000   0.75025951   -3.7637142    2014.3311  0.055841957   0.05552729            9 
 3007000    0.7829468    -3.791961    2007.8905  0.055644898  0.055515354            3 
 3008000   0.78073949   -3.8059518    2014.6039  0.055812385  0.055503465            5 
 3009000   0.76700294   -3.7940343    1999.0502  0.055363082  0.055491525            7 
 3010000   0.75437404    -3.796925    2010.7334  0.055668145  0.055479597            4 
 3011000   0.78730724   -3.8003007    2014.8329  0.055763116  0.055467604            6 
 3012000   0.76220519   -3.8084022    2012.8311  0.055689218  0.055455688            6 
 3013000   0.78394066   -3.7808013    2017.3562  0.055795889  0.055443793            5 
 3014000   0.78457528   -3.8032996    2005.3212  0.055444624  0.055431691            6 
 3015000   0.75703609   -3.7920286     2015.048  0.055695079  0.055419705            5 
 3016000   0.76987939   -3.8031943    2006.5297  0.055441248  0.055407723            5 
 3017000   0.77676112   -3.7822183    2015.6279  0.055674176  0.055395928            2 
 3018000   0.76419978   -3.7887857    2016.7211  0.055685914  0.055384227           13 
 3019000   0.76277731   -3.7947003    2009.8808  0.055478657  0.055372348            4 
 3020000   0.77080018   -3.8004072    2009.6242  0.055453206  0.055360335            4 
 3021000   0.76773004    -3.819151    2014.1317   0.05555919  0.055348374            4 
 3022000   0.77974305   -3.8106176     2012.716  0.055501765  0.055336428            8 
 3023000   0.75916341   -3.8051492    2013.2444  0.055497972  0.055324546            4 
 3024000   0.77303989   -3.7831203     2016.424  0.055567239  0.055312609            8 
 3025000   0.76904924   -3.8177414    2015.0917  0.055512167  0.055300627            4 
 3026000    0.7759808   -3.7948112    2008.9809  0.055325538  0.055288585            4 
 3027000    0.7781045   -3.7996124    2014.4523  0.055457887  0.055276682            6 
 3028000   0.76454214   -3.7929963    2019.6173  0.055581718  0.055264868            4 
 3029000   0.77450679   -3.8263837    2023.6015  0.055672979  0.055252974            5 
 3030000   0.76958537   -3.7994559     2017.521  0.055487376  0.055241063            6 
 3031000   0.75818349   -3.8193399    2013.5309  0.055359368  0.055229103            4 
 3032000   0.78614944   -3.8050508    2013.0836  0.055328814  0.055217101            7 
 3033000   0.77699464   -3.7904704    2012.2308  0.055287142  0.055205139            5 
 3034000   0.77439663   -3.7843146    2014.0001  0.055317514  0.055193064            4 
 3035000   0.77334584   -3.7999324     2017.591  0.055397885  0.055181044            3 
 3036000   0.75994396   -3.7687483     2019.939  0.055444089  0.055169059            8 
 3037000   0.76943724   -3.7595707    2024.5986  0.055553688  0.055157169            5 
 3038000   0.75234063   -3.7842125    2014.7909  0.055266374  0.055145248            4 
 3039000   0.77727856    -3.787923    2014.5229  0.055240838  0.055133175           11 
 3040000   0.77135515   -3.7900838     2014.746  0.055228783  0.055121189            5 
 3041000   0.76645747   -3.8240992    2017.2122  0.055278203  0.055109138            3 
 3042000   0.76414598   -3.8058686    2015.1149  0.055202578  0.055097032            4 
 3043000   0.76621857   -3.8035143    2016.9757  0.055235395  0.055085007            5 
 3044000   0.75047025   -3.7983128    2025.2051  0.055442539  0.055072972            2 
 3045000   0.76056283   -3.7937774    2020.2589  0.055288968  0.055060995            3 
 3046000   0.76456377   -3.8204345    2014.3624  0.055109499  0.055048945            8 
 3047000   0.77684104   -3.7875063    2017.1091  0.055166533   0.05503696            7 
 3048000   0.75851166   -3.8308371    2016.6401  0.055135611  0.055024808            6 
 3049000   0.75490855   -3.8005421    2018.0533  0.055156153  0.055012752            4 
 3050000   0.76296502   -3.7953437    2017.9342  0.055134813  0.055000652            4 
 3051000   0.75815851   -3.8086217    2018.3078  0.055126946  0.054988532            6 
 3052000    0.7560491   -3.8096254    2018.2917  0.055108445  0.054976378            9 
 3053000    0.7606115   -3.8076944    2012.1991  0.054924095  0.054964235            9 
 3054000   0.76252206   -3.7886322    2014.1932  0.054960522  0.054952135            5 
 3055000   0.76409757   -3.7927073    2016.1594  0.054996165  0.054939924            3 
 3056000   0.76258982   -3.8081317    2023.0348  0.055165652  0.054927648            9 
 3057000   0.78385817   -3.8088725     2015.207  0.054934222  0.054915465            6 
 3058000   0.77422288   -3.8138118    2015.7316  0.054930553   0.05490331            7 
 3059000   0.77326411   -3.8028944     2022.016  0.055083798  0.054891219            6 
 3060000   0.75555372   -3.8224929    2011.4959    0.0547793  0.054879005            7 
 3061000   0.77255853   -3.8168419     2016.098  0.054886693  0.054866744           10 
 3062000   0.77094776   -3.8035879    2014.5452  0.054826507  0.054854467            3 
 3063000   0.77118093   -3.7973744    2018.1101  0.054905596   0.05484226            7 
 3064000   0.76797892   -3.8232223    2011.0496  0.054695648  0.054829876            8 
 3065000   0.76990527   -3.8201087    2019.7151  0.054913406  0.054817597            7 
 3066000   0.74800191   -3.7857658     2014.763  0.054760898  0.054805369            4 
 3067000   0.74998911   -3.8215537    2007.9894     0.054559  0.054793184            6 
 3068000   0.78657225   -3.8168268    2016.9364  0.054784235  0.054780855            4 
 3069000   0.75721785   -3.7865784     2018.111  0.054798278  0.054768597            7 
 3070000   0.76509581   -3.8307118    2015.0889  0.054698395  0.054756414            6 
 3071000   0.75928146   -3.8140861    2017.1739  0.054737162  0.054744223            3 
 3072000   0.75783792   -3.7882695    2023.5704  0.054892861   0.05473191            6 
 3073000   0.78263158     -3.80848    2013.2415  0.054594899  0.054719565            4 
 3074000    0.7466164   -3.7982601    2020.9314  0.054785605  0.054707398            7 
 3075000   0.74089562    -3.821218    2018.4708  0.054701105    0.0546952            4 
 3076000   0.75994908   -3.7990616     2020.853   0.05474786  0.054682991            7 
 3077000   0.75768363   -3.8294656    2016.1872  0.054603705  0.054670657            4 
 3078000   0.75653969   -3.8216875    2016.7278  0.054600601  0.054658357            4 
 3079000    0.7744753   -3.8306606    2017.8702  0.054613787   0.05464616            5 
 3080000   0.77445289   -3.8182952    2023.0317  0.054735707  0.054633983            5 
 3081000   0.74328668   -3.7782752    2018.3723  0.054591914  0.054621804            7 
 3082000   0.75435744   -3.8125581    2024.6935  0.054745118  0.054609542            5 
 3083000    0.7239844   -3.8271198    2020.9856  0.054627137  0.054597269            6 
 3084000    0.7573708   -3.8103091    2018.8813  0.054552564  0.054585078            5 
 3085000   0.75785489   -3.8244939    2016.5038  0.054470659  0.054572874            2 
 3086000   0.77863976   -3.7970398    2028.5418  0.054778079   0.05456064            4 
 3087000   0.74924615    -3.803858    2028.7559  0.054766114  0.054548479            5 
 3088000    0.7524131   -3.8269853    2022.2897  0.054573881  0.054536239            4 
 3089000    0.7489471    -3.815522    2028.9545  0.054736012  0.054524072            5 
 3090000   0.76480337    -3.838882    2024.3838  0.054595031  0.054511929            7 
 3091000   0.75102714   -3.7987801    2024.8109  0.054588884  0.054499664            6 
 3092000   0.75961629   -3.8066837    2026.4171  0.054614519  0.054487458            3 
 3093000   0.75863105   -3.8137186     2017.723  0.054362619  0.054475133            6 
 3094000   0.74940106   -3.8132277    2029.1723  0.054653424  0.054462942            5 
 3095000    0.7560858   -3.8252534    2025.2202  0.054529354  0.054450874            2 
 3096000   0.75226107   -3.8164016    2025.8535  0.054528787  0.054438608            4 
 3097000   0.75657366   -3.8016533     2025.583  0.054503901  0.054426363            6 
 3098000   0.75376329   -3.8306012    2022.2456  0.054396535  0.054414075            3 
 3099000   0.74742821   -3.7912233     2024.637  0.054443289   0.05440184            4 
 3100000   0.74322557   -3.7991322    2020.3281  0.054309896    0.0543896            3 
 3101000   0.74231172   -3.8377845    2018.7844  0.054250898  0.054377431           12 
 3102000   0.75167286   -3.8159946    2026.7158   0.05444648  0.054365197            5 
 3103000   0.76332707   -3.8335072    2023.5969  0.054345174  0.054352966            4 
 3104000   0.75305719   -3.8168834    2022.1502  0.054288826  0.054340749            4 
 3105000   0.77207258   -3.8272148    2023.3561  0.054303707  0.054328492            7 
 3106000   0.74934095   -3.8335358    2027.3241  0.054392684  0.054316197           10 
 3107000   0.75586024   -3.7916392    2027.8235  0.054388572  0.054304054            5 
 3108000   0.75126663   -3.8304328    2028.7066  0.054394749  0.054291983            4 
 3109000   0.74490531   -3.8460446    2026.5416  0.054319223  0.054279772            5 
 3110000   0.75099654   -3.8303758    2034.1798  0.054506425  0.054267698            8 
 3111000   0.75490661   -3.8288725    2028.1726  0.054327991  0.054255561            5 
 3112000   0.74082879   -3.8340319    2028.6599  0.054323585  0.054243384            4 
 3113000   0.75540613   -3.8142449    2030.7317  0.054361593   0.05423118            3 
 3114000   0.74789849   -3.8022443     2034.385  0.054441903  0.054218951            6 
 3115000   0.76285575   -3.8427711    2032.5422  0.054375125  0.054206812            6 
 3116000    0.7430733   -3.8338964    2022.9289   0.05410058  0.054194645            4 
 3117000   0.75278835   -3.8054327    2030.9619  0.054297986  0.054182558            4 
 3118000    0.7481603   -3.8172401      2031.15  0.054285599  0.054170435           13 
 3119000   0.75439566   -3.8155118    2034.8789  0.054367823  0.054158223            8 
 3120000    0.7494191   -3.8253765    2032.1219  0.054276761  0.054146127           12 
 3121000   0.75635989    -3.821261    2035.6832  0.054354459  0.054134096            3 
 3122000   0.74361982   -3.7996268    2032.7523  0.054258816  0.054122045           11 
 3123000   0.75149219   -3.8316196    2029.1783  0.054146075  0.054109966            3 
 3124000   0.74334699   -3.8092155    2032.3001  0.054212018  0.054097914            6 
 3125000   0.76195161   -3.8038077    2032.2405  0.054193079  0.054085927            4 
 3126000   0.75439779   -3.8102865    2036.2992  0.054283941  0.054073964            7 
 3127000   0.74901277   -3.8087117    2036.4048  0.054269395  0.054061945            6 
 3128000   0.76062528   -3.8242413    2034.1388  0.054191677  0.054049882           11 
 3129000   0.74469395    -3.818821    2034.1551  0.054174792  0.054037819            6 
 3130000   0.75613327   -3.8287416    2034.4197  0.054164528  0.054025767            4 
 3131000   0.75520299   -3.8004262    2034.3517   0.05414542  0.054013728           13 
 3132000   0.73747533   -3.8152037    2036.5362  0.054186254   0.05400166            9 
 3133000   0.73918005    -3.804122    2041.6023  0.054303709  0.053989632            5 
 3134000   0.73903723   -3.8079187    2031.6232  0.054021037  0.053977584            8 
 3135000   0.75127473   -3.8258254    2037.0216  0.054147304  0.053965587            8 
 3136000    0.7540765   -3.8138634    2039.6862  0.054200845  0.053953491            4 
 3137000   0.75081259   -3.8145925    2036.2475  0.054092219  0.053941397            4 
 3138000   0.75219726   -3.8404611    2040.0499  0.054175959  0.053929285            3 
 3139000   0.75097033   -3.8310481    2036.1263  0.054054536  0.053917156            1 
 3140000   0.75294736   -3.8501426    2033.1622  0.053958656  0.053905033            8 
 3141000   0.75193576   -3.8420237    2037.5325  0.054057425  0.053892884            6 
 3142000   0.76721522   -3.8303486    2032.6638  0.053911093  0.053880827            5 
 3143000   0.74891474   -3.8253086    2034.2624  0.053936324  0.053868748            6 
 3144000   0.73867783   -3.8214474    2029.8134  0.053801245  0.053856674            4 
 3145000   0.74624328   -3.8141971    2038.8243  0.054022902  0.053844773            5 
 3146000   0.75624474   -3.8111957     2036.687  0.053949116  0.053832834            3 
 3147000   0.75349726   -3.8608046    2034.0558  0.053862296  0.053820849            4 
 3148000    0.7490685   -3.8257946    2038.8375  0.053971769  0.053808941            6 
 3149000   0.74912271   -3.8361718    2037.7264  0.053925225  0.053797026           10 
 3150000   0.75296878   -3.8010297    2042.7849  0.054041929  0.053785146           10 
 3151000   0.74574372    -3.817907    2041.1727   0.05398214  0.053773162            5 
 3152000   0.76245925   -3.8305638    2038.7281  0.053900385  0.053761241           18 
 3153000   0.73692918   -3.8302733    2041.5612  0.053958168  0.053749326            5 
 3154000   0.75946349   -3.8342227    2044.4194  0.054016576   0.05373741            5 
 3155000    0.7597895   -3.8182908    2047.0505  0.054068951  0.053725555            3 
 3156000   0.73482607   -3.8381326    2035.2469  0.053740147  0.053713612            3 
 3157000   0.74111052   -3.8276694    2040.5017  0.053861833  0.053701666            5 
 3158000   0.75391881    -3.839321    2043.2022  0.053916039  0.053689821            2 
 3159000   0.74935051    -3.834363    2039.9242    0.0538125  0.053677987            9 
 3160000   0.72716587   -3.8361142    2035.6093  0.053681681  0.053666069            9 
 3161000   0.74671759    -3.815776    2047.3982  0.053975487  0.053654212            5 
 3162000   0.75344081   -3.8230781    2049.5961  0.054016343   0.05364233           11 
 3163000    0.7441386   -3.8271442    2047.0279  0.053931601  0.053630448            5 
 3164000   0.72093353   -3.8466221    2039.1787  0.053707824  0.053618551            5 
 3165000   0.74030376   -3.8110811     2039.623  0.053702554  0.053606612            5 
 3166000   0.75602122    -3.829815    2049.2625  0.053939316  0.053594669            9 
 3167000   0.73737014   -3.8485912    2036.5976  0.053589032  0.053582622            6 
 3168000   0.74858557   -3.8357422    2049.3716  0.053908135  0.053570632            4 
 3169000    0.7467466   -3.8237834    2040.9722  0.053670248  0.053558676            6 
 3170000   0.74866225    -3.857145    2046.5011  0.053798662  0.053546773            4 
 3171000   0.74145871   -3.8565918    2041.8828  0.053660328  0.053534834            5 
 3172000   0.74033775   -3.8423113    2046.6755  0.053769323  0.053522834            5 
 3173000   0.73828251   -3.8158566    2043.6088  0.053671835  0.053510816            6 
 3174000   0.74322389   -3.8150145    2045.5567  0.053706066   0.05349887            5 
 3175000     0.738007   -3.8293123    2041.0823  0.053571713  0.053486971            5 
 3176000   0.74959784   -3.8474291    2048.1501  0.053740294  0.053475141            4 
 3177000   0.75201951   -3.8596377    2050.5861  0.053787276  0.053463353            1 
 3178000   0.72565525   -3.8297453    2050.3256  0.053763519  0.053451557            4 
 3179000   0.73892623   -3.8171644    2056.3825   0.05390538  0.053439858            6 
 3180000   0.73005361   -3.8449499    2049.8132  0.053716278  0.053428172            5 
 3181000   0.74609694   -3.8588734    2047.3233  0.053634164  0.053416317            6 
 3182000   0.74640954    -3.846264    2048.8995  0.053658588  0.053404484            8 
 3183000   0.74318672   -3.8314168    2052.8246  0.053744491  0.053392919            4 
 3184000   0.77046925   -3.8559491    2051.0391   0.05368088  0.053381269            9 
 3185000   0.75080991   -3.8568543    2046.3072   0.05354022  0.053369551           10 
 3186000   0.73547521    -3.839849     2054.426  0.053735772  0.053357755            4 
 3187000   0.74166418    -3.841031    2052.1695  0.053659907  0.053346019            6 
 3188000   0.74309617   -3.8336135    2054.4528  0.053702761  0.053334147            6 
 3189000   0.74938234   -3.8447664    2054.5477    0.0536884  0.053322373            3 
 3190000   0.74111483   -3.8485177    2051.3024  0.053586791  0.053310642            4 
 3191000   0.74236172   -3.8353653     2054.575  0.053655463  0.053298879            3 
 3192000   0.75231889   -3.8585583    2045.9931  0.053414606  0.053287013            6 
 3193000   0.73756592   -3.8434253    2049.8274   0.05349795  0.053275174            9 
 3194000   0.74105417   -3.8494864     2048.299  0.053441323   0.05326321            4 
 3195000   0.75152295   -3.8361061    2051.1243  0.053498285  0.053251355            7 
 3196000   0.74197254   -3.8388626    2053.0705  0.053532294  0.053239511            4 
 3197000   0.74006216   -3.8527709     2053.136  0.053517256  0.053227821            6 
 3198000   0.74024267   -3.8602332    2047.0714  0.053342491  0.053215974            5 
 3199000   0.72882744   -3.8595825    2054.7457  0.053525731  0.053204195            6 
 3200000   0.73752683   -3.8349405    2052.4554  0.053449358  0.053192434            7 
 3201000   0.72891289   -3.8281668    2055.4934  0.053511752  0.053180808           11 
 3202000   0.72915103   -3.8345594    2055.2036  0.053487497  0.053169092            8 
 3203000   0.73122934   -3.8398473    2052.6027  0.053403129  0.053157295            6 
 3204000   0.74688364   -3.8555015    2051.9041  0.053368293  0.053145506            4 
 3205000   0.72486134   -3.8517256    2053.2863  0.053387579  0.053133718            5 
 3206000   0.72842952   -3.8556513    2053.7206  0.053382216   0.05312185            5 
 3207000   0.74487935   -3.8354862    2049.1623  0.053247125  0.053110033           14 
 3208000   0.72505659   -3.8434129    2056.1275  0.053411458  0.053098341            6 
 3209000   0.74006068   -3.8530234    2060.4041   0.05350587  0.053086557            6 
 3210000   0.73084848   -3.8166248    2065.8382  0.053630275  0.053074843            3 
 3211000   0.73802584   -3.8424641    2053.9277  0.053304467  0.053063018            5 
 3212000   0.74036199   -3.8641975    2051.5101  0.053225147  0.053051268            6 
 3213000   0.72058078   -3.8514404    2056.5673  0.053339748  0.053039573            4 
 3214000   0.74382421   -3.8588189    2059.5296  0.053399959  0.053027871            4 
 3215000   0.74984865   -3.8710974    2055.6344  0.053282384  0.053016159            3 
 3216000    0.7347655   -3.8679141     2056.668  0.053292601  0.053004347            8 
 3217000   0.75701622   -3.8479068    2063.4147    0.0534508  0.052992712            5 
 3218000    0.7370037   -3.8444182    2059.0588  0.053321389  0.052981044            3 
 3219000     0.745885   -3.8428475    2058.4496  0.053289055   0.05296935            6 
 3220000   0.73524548   -3.8336273    2065.4001  0.053452385  0.052957667            3 
 3221000   0.72471502   -3.8514262    2064.4837  0.053412079  0.052946132           11 
 3222000   0.74400642   -3.8542078    2062.3708  0.053340856  0.052934555            5 
 3223000   0.73833482   -3.8368265    2063.3731   0.05335022  0.052922919            4 
 3224000   0.73912636   -3.8682585    2054.5798  0.053106384  0.052911287            6 
 3225000   0.73176534   -3.8597188    2059.4698  0.053216275  0.052899672            6 
 3226000   0.73451188   -3.8322466      2060.16  0.053217607  0.052888018            5 
 3227000   0.74834254   -3.8466591    2054.9858  0.053067498  0.052876518            4 
 3228000   0.73463137   -3.8279464    2061.9756  0.053231506  0.052864958            7 
 3229000   0.73091421   -3.8640198    2064.6532  0.053284123   0.05285342            5 
 3230000   0.73014231     -3.86792    2061.7794  0.053193484  0.052841781            5 
 3231000   0.73591328   -3.8590806    2066.5464   0.05329997  0.052830124            4 
 3232000   0.75035981   -3.8398272    2065.7095  0.053261898  0.052818454            6 
 3233000   0.72639524   -3.8276838    2062.2994  0.053157526  0.052806996            3 
 3234000    0.7437411   -3.8417964    2070.0385  0.053340511  0.052795462            4 
 3235000   0.73780111   -3.8528867    2071.9128  0.053372304  0.052783927            6 
 3236000   0.73123225   -3.8482106    2069.4535  0.053292479  0.052772406            5 
 3237000   0.71010145   -3.8548828    2073.9854  0.053392684  0.052760888            3 
 3238000   0.72664755    -3.853286    2061.7364  0.053060953  0.052749273            4 
 3239000   0.75098976   -3.8453234     2058.889  0.052971313  0.052737613            7 
 3240000   0.72961792   -3.8485888    2064.6357  0.053102769  0.052725946            3 
 3241000   0.72869633   -3.8787535    2067.2821   0.05315443  0.052714405            8 
 3242000   0.73417908   -3.8752632    2063.7611  0.053047531  0.052702913            2 
 3243000   0.73743067   -3.8732831    2058.0177  0.052883588  0.052691369            4 
 3244000   0.73552076   -3.8552228    2073.4294  0.053263189  0.052679897            4 
 3245000   0.75295472   -3.8608272      2065.75  0.053049564  0.052668416            3 
 3246000   0.75197194   -3.8624035    2067.3714  0.053074846  0.052656951            7 
 3247000   0.73144439   -3.8588591    2066.6609  0.053040266  0.052645568            5 
 3248000   0.73478113   -3.8596264    2073.0042  0.053186685  0.052634147            3 
 3249000    0.7345462   -3.8360295     2070.033  0.053094107  0.052622697            7 
 3250000   0.73565573    -3.855018    2068.3931  0.053035721    0.0526113            5 
 3251000   0.73030344   -3.8627744    2073.8403  0.053159036  0.052599835            4 
 3252000   0.73257959    -3.861299    2074.8202    0.0531678  0.052588424            8 
 3253000   0.72355193   -3.8475928    2072.4219  0.053090017  0.052576936            5 
 3254000   0.72818598   -3.8417046    2076.9226  0.053188963  0.052565541            5 
 3255000   0.73420103   -3.8511234    2066.6533  0.052909711  0.052554175            7 
 3256000   0.71904091   -3.8735918    2068.6947  0.052945709  0.052542703            4 
 3257000   0.71557568   -3.8414944    2074.2653   0.05307198  0.052531268            5 
 3258000   0.73808495   -3.8335891     2074.205  0.053054149  0.052519759            2 
 3259000    0.7270672   -3.8674849    2072.2916  0.052988944  0.052508356            9 
 3260000   0.72708201   -3.8556418    2076.1367   0.05307098  0.052496877           10 
 3261000   0.71553036    -3.877467    2071.5437  0.052937333  0.052485395            5 
 3262000   0.72536963   -3.8740724    2068.0445   0.05283171  0.052473864            8 
 3263000   0.73368179   -3.8740568     2070.668   0.05288252   0.05246235            8 
 3264000   0.74870446   -3.8486987    2074.6254  0.052967355  0.052450905           12 
 3265000   0.72637948   -3.8604553    2067.2251  0.052762254    0.0524394            4 
 3266000   0.72179735   -3.8686757    2075.4407  0.052955724  0.052427913            7 
 3267000   0.72969026   -3.8632919    2069.0731  0.052777091  0.052416378            4 
 3268000   0.73796421   -3.8678772    2068.0695  0.052735349  0.052404875            9 
 3269000   0.73586559   -3.8747391    2068.4262  0.052728311  0.052393358            6 
 3270000   0.73653889   -3.8672117    2068.5634  0.052715683  0.052381862            6 
 3271000   0.72705383   -3.8569121    2074.4175  0.052848708  0.052370383            4 
 3272000   0.73068443    -3.877838    2073.4843   0.05280879  0.052358856            3 
 3273000   0.73903755   -3.8669249    2075.8638  0.052853238  0.052347354            7 
 3274000   0.73453552   -3.8532938    2078.9998  0.052916917  0.052335833            5 
 3275000   0.70458054   -3.8531458    2071.5659  0.052711602  0.052324351            6 
 3276000   0.70574313   -3.8748197    2069.7157  0.052648446  0.052312763            4 
 3277000   0.72605361   -3.8617079    2073.1923  0.052720789  0.052301298            7 
 3278000   0.72647148   -3.8609173    2073.1107  0.052702632  0.052289807            5 
 3279000    0.7424985   -3.8775221    2067.8849  0.052553749  0.052278177           12 
 3280000   0.72036231   -3.8677646    2072.6419  0.052658585  0.052266518            6 
 3281000   0.73011824   -3.8719759    2068.5061  0.052537492  0.052254898           17 
 3282000   0.73577016   -3.8682202    2069.4049  0.052544305  0.052243285            4 
 3283000   0.71988079   -3.8583593     2068.872  0.052514773  0.052231631            7 
 3284000    0.7149027   -3.8827603    2076.3966  0.052689723  0.052220101            7 
 3285000   0.72210904   -3.8655075     2072.606  0.052577524  0.052208602           17 
 3286000   0.73272838   -3.8874276    2076.5676   0.05266199  0.052197075           10 
 3287000   0.71009626    -3.891369    2072.4129  0.052540636  0.052185581            4 
 3288000    0.7259254   -3.8773372    2072.8884   0.05253671  0.052174118            8 
 3289000    0.7221067   -3.8859697    2069.1347  0.052425628  0.052162621            3 
 3290000   0.71907672   -3.8498032    2082.3515  0.052744466  0.052151138            3 
 3291000     0.742606   -3.8623984    2082.8261  0.052740457  0.052139729            4 
 3292000   0.73739166   -3.8697928    2083.3895  0.052738697  0.052128288            4 
 3293000   0.69883916   -3.8821604    2082.1293  0.052690792  0.052116793            5 
 3294000    0.7244816   -3.8561901    2079.3463   0.05260439  0.052105354            2 
 3295000   0.72003514   -3.8897809    2076.7336  0.052522348  0.052093887            2 
 3296000   0.71685847   -3.8715203    2076.8148  0.052508465  0.052082427            9 
 3297000   0.72021609   -3.8570804    2075.5755  0.052461215  0.052071003            4 
 3298000   0.73932738   -3.8668607    2077.9128  0.052504366  0.052059608            3 
 3299000   0.72280096   -3.8811127    2076.4497  0.052451493   0.05204813            3 
 3300000    0.7059978    -3.885376     2079.561  0.052514167  0.052036694           14 
 3301000   0.71142671   -3.8780449    2079.4642  0.052495813  0.052025204            7 
 3302000   0.72085895   -3.8533983    2081.3407  0.052527273   0.05201368            8 
 3303000   0.72513815   -3.8744685    2078.4884  0.052439408  0.052002202           10 
 3304000   0.71853912   -3.8809406    2078.9328  0.052434745  0.051990754            8 
 3305000   0.71062627   -3.8973635    2079.5505  0.052434456  0.051979254           13 
 3306000   0.74508126   -3.8796612    2075.4316  0.052314772  0.051967745            4 
 3307000   0.71701222   -3.8434445    2078.4444  0.052374872  0.051956367            8 
 3308000   0.72135595    -3.883268    2082.7941  0.052468614  0.051945036            4 
 3309000   0.72072436   -3.8800158    2078.2618  0.052338618  0.051933677            5 
 3310000   0.71864005   -3.8906589    2079.0525  0.052342711  0.051922283            5 
 3311000   0.70502252   -3.8599957    2088.8385  0.052573203  0.051910901            2 
 3312000   0.72306486   -3.8926382    2082.7873  0.052405075  0.051899609            6 
 3313000   0.72277408   -3.8837089    2083.6343  0.052410563  0.051888261            5 
 3314000    0.7196466   -3.8853517    2078.3578  0.052262065   0.05187697            7 
 3315000   0.71353468   -3.8620753    2083.1679  0.052367216  0.051865744            8 
 3316000   0.73120948   -3.8583883    2083.3173   0.05235518   0.05185456            5 
 3317000   0.73044939   -3.8984481    2082.5395  0.052319854  0.051843187            4 
 3318000   0.73889995   -3.8922953    2084.9922  0.052365686  0.051831792            7 
 3319000   0.70246946   -3.8712968    2084.2674  0.052331711  0.051820448           10 
 3320000   0.71505182   -3.8703642    2085.2255  0.052339998   0.05180911            8 
 3321000   0.73229105   -3.8665536    2087.3793  0.052378282  0.051797653            7 
 3322000   0.71348055   -3.8734769    2083.5648  0.052266828  0.051786243            6 
 3323000   0.71264671   -3.8874825    2084.9756  0.052286479  0.051774876            4 
 3324000   0.72140142   -3.8765749    2086.0214  0.052296967  0.051763503            7 
 3325000   0.73511959   -3.8676617    2083.0642  0.052207122  0.051752228            3 
 3326000    0.7197717   -3.8818833    2091.4056  0.052400421  0.051740906            6 
 3327000   0.70723564   -3.8965034    2087.4141  0.052284694  0.051729552            4 
 3328000   0.71221592   -3.8890109    2087.9341  0.052282003  0.051718213            4 
 3329000   0.71969565   -3.8765753    2082.9805  0.052142298  0.051706863            6 
 3330000   0.73560463   -3.8893235    2082.4617  0.052113656  0.051695502            7 
 3331000   0.70885397   -3.8719912    2084.8202  0.052157015  0.051684202            6 
 3332000   0.72088619   -3.8949149    2084.8557   0.05214225  0.051672838            5 
 3333000   0.72594674   -3.8904115    2086.4108  0.052165487  0.051661492            5 
 3334000   0.71927933   -3.8758775    2090.1433  0.052243133   0.05165017            7 
 3335000   0.70846152   -3.8900996    2086.5302  0.052137187  0.051638897            9 
 3336000   0.71996745   -3.8792093    2090.0126  0.052208549  0.051627583            7 
 3337000   0.71400793    -3.873762    2090.5095   0.05220531  0.051616249            6 
 3338000   0.72260252   -3.8742481    2089.4998  0.052164465  0.051604971            3 
 3339000   0.72175994    -3.885723     2091.506  0.052198912  0.051593739            4 
 3340000   0.70595455    -3.873265    2089.2414  0.052126782  0.051582538           11 
 3341000   0.71092716   -3.8783355     2090.202   0.05213514  0.051571247            6 
 3342000   0.71803678   -3.8750025    2086.1193  0.052017737  0.051559992            5 
 3343000   0.71079693   -3.9072091    2085.3385  0.051982712  0.051548656            6 
 3344000   0.71645876    -3.864623    2089.2836  0.052065481   0.05153735            9 
 3345000   0.71088293   -3.8892444    2087.1091  0.051995742  0.051526069            6 
 3346000   0.70531173   -3.8986485     2086.834  0.051973352  0.051514769            5 
 3347000   0.73377789   -3.8848088    2086.5202  0.051950009  0.051503516            5 
 3348000    0.7323754   -3.8558936    2092.2275   0.05207655  0.051492312            6 
 3349000   0.71606173   -3.8754624    2090.8301  0.052026228  0.051481125           12 
 3350000   0.71167569   -3.8972432    2091.5764  0.052029265  0.051469916            6 
 3351000   0.71904703   -3.8770215    2100.2309   0.05222896  0.051458672            6 
 3352000   0.72459906   -3.8916672    2093.7635  0.052052593  0.051447595            9 
 3353000   0.71547139   -3.8903022    2093.7393  0.052036467  0.051436404            4 
 3354000   0.72911304   -3.8830544    2095.1349  0.052055629  0.051425274            3 
 3355000   0.73674966   -3.8968378    2092.4237  0.051972769  0.051414099            6 
 3356000   0.70237565   -3.8598245    2094.5026  0.052008903  0.051402904            5 
 3357000   0.72043046   -3.8801461    2097.2388  0.052061333  0.051391718            8 
 3358000   0.72269686   -3.8909785    2090.1962   0.05187106  0.051380481            8 
 3359000   0.72152377   -3.8701257    2092.3901  0.051910045  0.051369398            7 
 3360000   0.72126993   -3.8825678    2095.0147  0.051959691  0.051358184            4 
 3361000   0.71713248   -3.8654446    2090.8623  0.051841275  0.051346976            7 
 3362000    0.7103094   -3.9016615    2099.2173  0.052032948  0.051335821            7 
 3363000   0.70747816   -3.9181147    2093.8901  0.051885472  0.051324628            6 
 3364000   0.71709968   -3.8939306    2098.9027   0.05199422  0.051313393            4 
 3365000    0.7377261   -3.8859888    2092.4573  0.051819149  0.051302234           10 
 3366000    0.7147932   -3.9013373    2093.0045  0.051817304  0.051291161            9 
 3367000    0.7120957   -3.8955434    2092.1657  0.051781153  0.051279993            4 
 3368000   0.70302442    -3.876217    2097.9997  0.051910128  0.051268827            5 
 3369000   0.71753171   -3.8928734    2099.2823  0.051926443  0.051257625            5 
 3370000   0.71320588   -3.8664446    2099.7058  0.051921508  0.051246502            7 
 3371000   0.71466373     -3.90912    2095.6648  0.051806211  0.051235338            6 
 3372000   0.71155889   -3.9099784    2099.4527  0.051884457  0.051224174            3 
 3373000   0.71679366   -3.8894245     2097.735  0.051826639  0.051213088            4 
 3374000   0.72410972   -3.9009017    2102.8097  0.051936617  0.051201934            7 
 3375000   0.72483006   -3.8920626    2097.6946  0.051794928  0.051190745           10 
 3376000   0.70103288   -3.8903218    2099.9028  0.051834092   0.05117967            3 
 3377000   0.71131445    -3.893281    2097.9211  0.051769842  0.051168575            6 
 3378000   0.71130662   -3.8880445    2094.4568  0.051669055  0.051157442            3 
 3379000   0.71137749   -3.9124781    2093.8175  0.051637997  0.051146379            5 
 3380000   0.71460457   -3.8763033    2103.7644   0.05186796  0.051135324            5 
 3381000   0.72318563   -3.8957071    2101.0288  0.051785193  0.051124241            5 
 3382000   0.72347752   -3.8903767    2100.2684  0.051751143  0.051113065            4 
 3383000   0.69716094   -3.8693232    2104.5838  0.051842147   0.05110209            5 
 3384000   0.70546651   -3.8902372    2101.0827  0.051740609   0.05109099            4 
 3385000    0.6958759   -3.9064748    2101.8201  0.051743478  0.051079924            7 
 3386000   0.71733797   -3.8978652    2098.8297    0.0516546  0.051068796           11 
 3387000   0.71037432   -3.8930763    2096.5334   0.05158285    0.0510577            8 
 3388000   0.71469639   -3.8841999    2096.9262  0.051577288  0.051046598            5 
 3389000   0.70715287   -3.8865881    2101.9813  0.051686371  0.051035543            8 
 3390000   0.70243154   -3.8910775    2096.4274  0.051534596  0.051024494           10 
 3391000   0.70643601   -3.9165469     2097.959  0.051557037  0.051013336            5 
 3392000   0.70295102   -3.8943616    2100.7953  0.051611519  0.051002227            6 
 3393000   0.70024161   -3.8970945    2101.8992  0.051623422   0.05099112            8 
 3394000   0.71370669   -3.9105255    2102.5448  0.051624063  0.050980087           10 
 3395000   0.72634871   -3.8902241     2099.617   0.05153699  0.050968896            4 
 3396000   0.70790263   -3.8626024    2106.5847  0.051692792  0.050957797            6 
 3397000   0.70205825   -3.8863979    2099.8504  0.051512373  0.050946775            4 
 3398000   0.71720134   -3.9248808    2103.9821   0.05159854  0.050935674            9 
 3399000   0.71969346   -3.8848355    2103.5508  0.051572785   0.05092457            8 
 3400000    0.7060241   -3.9058191    2099.6494  0.051461994  0.050913501            5 
 3401000   0.71193268   -3.8941375    2100.1647   0.05145949  0.050902474            6 
 3402000   0.71577348   -3.8945427    2107.0835  0.051613843  0.050891432            3 
 3403000   0.72430217   -3.9158649    2103.4363  0.051509361  0.050880396            6 
 3404000    0.6904238   -3.9080082    2099.5144  0.051398218  0.050869296            4 
 3405000   0.72916901   -3.9067218    2103.7134  0.051485888   0.05085824            4 
 3406000   0.72916438   -3.8667381    2104.1982  0.051482635  0.050847179            8 
 3407000   0.70742703    -3.918379     2100.971  0.051388588  0.050836133            4 
 3408000   0.70948117   -3.9092357    2110.6195  0.051609435  0.050824945            8 
 3409000    0.7065457   -3.8940365    2105.0328  0.051457729  0.050813819            7 
 3410000   0.71810191   -3.8994921    2096.0886  0.051224061  0.050802643            8 
 3411000   0.70467442    -3.882811    2101.2301  0.051334656  0.050791535            6 
 3412000   0.71073144   -3.9107147    2104.0528  0.051388549  0.050780342            4 
 3413000   0.70817717    -3.911115    2105.4115  0.051406668  0.050769168            8 
 3414000   0.70283816   -3.8979156    2106.0299  0.051406706   0.05075807           14 
 3415000   0.70366017   -3.8725304    2109.7701  0.051482921  0.050746927            3 
 3416000   0.70508967   -3.9009485    2107.0001  0.051400275    0.0507359            7 
 3417000   0.69294031    -3.900628    2099.7507  0.051208436  0.050724791            9 
 3418000   0.69864861   -3.8910965    2105.7053  0.051338631  0.050713674           11 
 3419000   0.70654932   -3.9034924    2108.5563  0.051393106  0.050702532            5 
 3420000   0.70600767   -3.9128545    2104.8976  0.051288929   0.05069143            6 
 3421000   0.69907931   -3.9315015    2105.8013   0.05129595  0.050680359            7 
 3422000   0.69768939   -3.8954872     2110.477  0.051394823  0.050669221            8 
 3423000   0.69540798   -3.8892669    2113.4466  0.051452104  0.050658074            7 
 3424000   0.71261178   -3.9507776    2099.0997  0.051087903  0.050646973            5 
 3425000   0.69751098    -3.885836    2106.4518   0.05125187  0.050635794           10 
 3426000   0.70263652   -3.9061525    2104.9384  0.051200098  0.050624636            5 
 3427000   0.71255795    -3.884208    2104.7685  0.051181026  0.050613507            4 
 3428000    0.6946029   -3.9060677    2102.0537  0.051100099  0.050602345            2 
 3429000   0.69132986   -3.9065094    2101.3081  0.051067079  0.050591273            8 
 3430000   0.70649218   -3.9198539    2102.7636  0.051087551  0.050580144           10 
 3431000   0.72060034   -3.9188453    2105.1674  0.051131046  0.050568966           13 
 3432000   0.71174832   -3.8930924    2105.2293  0.051117649  0.050557768           15 
 3433000   0.68224491   -3.8900039    2112.6797  0.051283613  0.050546633            2 
 3434000   0.71097259   -3.9426052    2104.6242  0.051073194  0.050535412            7 
 3435000   0.70781962   -3.9144646    2100.6168  0.050961107  0.050524179            4 
 3436000   0.69687522     -3.92721    2102.0535  0.050981118  0.050512853            7 
 3437000   0.67963307   -3.8945401     2106.504  0.051074192  0.050501602            7 
 3438000   0.70347106   -3.9311126    2098.9147  0.050875382  0.050490397           14 
 3439000   0.69944592   -3.9103811    2110.0037  0.051129295  0.050479114            5 
 3440000   0.69492857   -3.9172966    2110.2546   0.05112051  0.050468012            5 
 3441000   0.69192124    -3.914818    2110.6001  0.051114019  0.050456845            5 
 3442000   0.68067142   -3.9326923    2105.0782  0.050965481  0.050445682            4 
 3443000   0.70996288      -3.9039    2102.7625   0.05089463  0.050434537            4 
 3444000   0.68171345    -3.918813    2112.4232  0.051113609  0.050423323            6 
 3445000   0.70677484   -3.9062825    2110.9733  0.051063698  0.050412158            3 
 3446000   0.70792503   -3.9141745    2109.5443  0.051014324  0.050400987            3 
 3447000   0.69715056   -3.9066262    2108.3967   0.05097178   0.05038984            5 
 3448000   0.70063039   -3.9093838    2106.0081  0.050899267  0.050378662            3 
 3449000   0.70503683   -3.9328649    2107.9584  0.050931632  0.050367503            4 
 3450000   0.70845083   -3.9022175    2114.7125  0.051080012  0.050356237            5 
 3451000   0.69264369   -3.9272278    2107.4293   0.05088934  0.050345012            3 
 3452000   0.71345874   -3.8994748      2109.17  0.050916619   0.05033379            9 
 3453000   0.69633659   -3.9000586    2110.1183  0.050924758  0.050322682            5 
 3454000   0.68762353   -3.9169119    2110.0724  0.050908907  0.050311563            5 
 3455000    0.6980474   -3.9291004    2109.5546  0.050881683  0.050300355            6 
 3456000   0.70091746   -3.9084169    2104.8784  0.050754206  0.050289161            8 
 3457000   0.68616097   -3.9165794    2108.5306  0.050827562  0.050278034            5 
 3458000    0.7065634   -3.9348604    2111.5906  0.050886607  0.050266733           11 
 3459000   0.70333338    -3.909995    2108.6032  0.050799923  0.050255483            3 
 3460000   0.68085302   -3.9167143    2108.0368  0.050771598  0.050244178            6 
 3461000   0.69942928   -3.9154842     2102.286  0.050618462  0.050232936            5 
 3462000   0.69629965   -3.9062856    2104.6615  0.050661021  0.050221668            5 
 3463000   0.68962668   -3.9138792     2110.246  0.050780777  0.050210484            4 
 3464000    0.6963497   -3.9367898    2102.0789  0.050569643  0.050199299            7 
 3465000   0.70615739    -3.913472    2107.3876  0.050682723  0.050188015            8 
 3466000   0.70751466   -3.8989625     2114.602  0.050841555   0.05017677            7 
 3467000   0.69156572    -3.934754    2104.9017  0.050593734  0.050165542            5 
 3468000    0.7024551   -3.9249401    2105.2994  0.050588702  0.050154215            7 
 3469000   0.70576952   -3.9128057     2103.038  0.050519795   0.05014285            5 
 3470000   0.68719133   -3.9223369    2105.4865  0.050564036  0.050131554            4 
 3471000   0.70332592   -3.8811901    2105.4908  0.050549574  0.050120251            3 
 3472000   0.70186655   -3.9121338    2113.6237  0.050730216  0.050108984           14 
 3473000   0.71627438   -3.9171809    2107.7214  0.050573984  0.050097682            3 
 3474000   0.68163545   -3.9317951    2104.0222  0.050470693  0.050086396           16 
 3475000   0.69808734   -3.9265827    2108.4172  0.050561565  0.050075045            6 
 3476000   0.69129363   -3.9184456    2112.0323  0.050633685  0.050063763            4 
 3477000    0.6973124   -3.9208981    2108.6514  0.050538092    0.0500524            2 
 3478000   0.69501988   -3.9244131    2108.7618  0.050526207   0.05004107            5 
 3479000   0.69908961   -3.9188754    2112.6187  0.050604071  0.050029777            7 
 3480000   0.68880305   -3.9285235    2109.3383  0.050510975  0.050018446            7 
 3481000   0.67503896   -3.9330019    2114.1809  0.050612394  0.050006979            5 
 3482000    0.7056893   -3.9202748    2111.4381  0.050532216  0.049995602            6 
 3483000   0.69845967   -3.9223711    2104.4045  0.050349424  0.049984245            6 
 3484000   0.68850926   -3.9099765    2108.5835  0.050434928  0.049972944            5 
 3485000   0.70002957   -3.9240423    2111.1376  0.050481529  0.049961598            5 
 3486000   0.68344983   -3.9281955    2103.9912  0.050296215  0.049950175           13 
 3487000   0.68914015   -3.9416914    2103.2166  0.050263277  0.049938796            5 
 3488000   0.68784998   -3.9382939    2110.0682  0.050412562  0.049927416            8 
 3489000   0.69782139   -3.9286514    2112.2932  0.050451255    0.0499161            3 
 3490000   0.67399678   -3.9147845    2108.6241   0.05034919  0.049904761            9 
 3491000   0.70266965   -3.9087793    2109.7739  0.050362216  0.049893382            5 
 3492000   0.68958671    -3.920271    2110.1819  0.050357528  0.049882086            9 
 3493000   0.68508842   -3.9220936    2112.9544  0.050409256  0.049870764            6 
 3494000   0.68214279   -3.9269055    2103.6324  0.050172496   0.04985944           10 
 3495000   0.70676065   -3.9345563    2111.9439  0.050356315  0.049848063            6 
 3496000    0.6898453   -3.9288802    2107.7926  0.050242959  0.049836633            7 
 3497000    0.7023961   -3.9483877    2114.6661  0.050392386  0.049825254            3 
 3498000   0.69271284   -3.9031445    2111.5296  0.050303258  0.049813904           10 
 3499000   0.70288914   -3.9016248    2113.5656  0.050337374  0.049802577            7 
 3500000   0.69120841   -3.8984938    2116.3103  0.050388341  0.049791311            3 
 3501000    0.6867519   -3.9268552     2106.288  0.050135391  0.049779962            4 
 3502000   0.70499695    -3.935126    2105.6099  0.050104936  0.049768496            8 
 3503000   0.68951772    -3.899802    2115.4423  0.050324539  0.049757179            6 
 3504000   0.69288339   -3.8956414    2114.4689  0.050287026  0.049745885            8 
 3505000   0.68855257   -3.9047353    2115.6297  0.050300277  0.049734586            7 
 3506000   0.69566118   -3.9082217    2116.8368  0.050314623  0.049723282            8 
 3507000   0.69783536   -3.9272948    2116.6772  0.050296484   0.04971201            8 
 3508000   0.67873913   -3.9293701    2113.1483  0.050198316  0.049700698           10 
 3509000   0.67897966   -3.9470545    2114.4966   0.05021603  0.049689339            5 
 3510000   0.68111205   -3.9422516    2112.7516  0.050160295  0.049678066            3 
 3511000   0.69714216   -3.9409164    2119.4311  0.050304544  0.049666778            6 
 3512000   0.70704328   -3.9290846    2115.7544   0.05020298  0.049655462            6 
 3513000   0.68934007   -3.9166579    2110.0404  0.050053146  0.049644183            8 
 3514000   0.69150334   -3.9537517    2110.2209  0.050043181  0.049632857            8 
 3515000   0.68600921   -3.9176903    2114.2062  0.050123427  0.049621548            8 
 3516000   0.69245202   -3.9452691    2114.4236  0.050114326  0.049610301            4 
 3517000   0.67698189   -3.9087618    2118.1115  0.050187458  0.049598993            7 
 3518000   0.68383139   -3.9231086    2119.6627  0.050209937  0.049587751           10 
 3519000    0.6848965   -3.9200823    2116.3672  0.050117628  0.049576461           16 
 3520000    0.6926892   -3.9197801    2117.8309  0.050138042  0.049565221           10 
 3521000    0.6904745   -3.9517852     2116.763  0.050098528  0.049553951            7 
 3522000    0.6875427   -3.9291366    2119.1983  0.050141923  0.049542679            4 
 3523000    0.6903685   -3.9326904     2117.335  0.050083618  0.049531343            6 
 3524000   0.68349058    -3.928528    2116.4052  0.050047418  0.049520052            7 
 3525000   0.69257679   -3.9379494    2116.5978  0.050037774  0.049508786           11 
 3526000   0.68252162   -3.9414596    2114.6224  0.049976894  0.049497506            6 
 3527000    0.6814351   -3.9243369     2119.716  0.050083074  0.049486234            9 
 3528000   0.69344124   -3.9253307    2121.5117  0.050111294  0.049474915            6 
 3529000   0.66992346   -3.9261671     2124.233  0.050161353  0.049463648            9 
 3530000   0.68549555   -3.9337812    2121.7096  0.050087573  0.049452477            5 
 3531000   0.69665197   -3.9340089    2114.5446  0.049904291  0.049441177            3 
 3532000    0.6801512   -3.9365869    2116.2117  0.049929495  0.049429839            9 
 3533000   0.69486318   -3.9447518    2118.0896  0.049959656  0.049418678           22 
 3534000   0.68595802   -3.9118456    2121.5698  0.050027584  0.049407485            7 
 3535000   0.68967459   -3.9553109    2112.7137  0.049804661  0.049396241           10 
 3536000    0.6954778   -3.9304155    2113.7291  0.049814504  0.049384897           14 
 3537000   0.69044171   -3.9313829    2120.5238  0.049960507  0.049373677            6 
 3538000   0.68498419   -3.9319322    2118.1109  0.049889553  0.049362446            4 
 3539000    0.6782971    -3.942773    2115.1869  0.049806605  0.049351136            5 
 3540000   0.68117603   -3.9449483    2112.9389  0.049739615  0.049339835            8 
 3541000   0.69356273    -3.955192    2119.8846  0.049889027  0.049328522            6 
 3542000   0.68288585   -3.9167543    2114.6886  0.049752695    0.0493172            4 
 3543000   0.68214646   -3.9361065    2123.0096  0.049934368   0.04930587           16 
 3544000   0.70027485   -3.9329764    2118.3628  0.049811015  0.049294559           16 
 3545000   0.69873004   -3.9423541     2119.052  0.049813163  0.049283226           11 
 3546000   0.67971722   -3.9566874     2114.965  0.049703069   0.04927193            7 
 3547000   0.68574244    -3.941022    2117.5033  0.049748691  0.049260558            5 
 3548000   0.68236101   -3.9343739    2118.6334  0.049761213  0.049249266            6 
 3549000    0.6790612    -3.951416     2112.773  0.049609585  0.049237889            7 
 3550000   0.67839538   -3.9478128    2112.2449  0.049583214  0.049226643            6 
 3551000   0.68302628   -3.9218715    2127.9868  0.049938675  0.049215332            6 
 3552000   0.67640466    -3.939594    2117.8912  0.049687763  0.049204043            9 
 3553000   0.69435074   -3.9386327    2120.3304  0.049730987  0.049192699            7 
 3554000   0.67832957   -3.9449133    2121.3008  0.049739749  0.049181366            5 
 3555000   0.68274789   -3.9384075    2118.9097  0.049669707   0.04917004            7 
 3556000   0.67438002   -3.9328766    2117.6224  0.049625573  0.049158774            7 
 3557000   0.68546951   -3.9327011      2122.33  0.049721911  0.049147531            4 
 3558000   0.69351284   -3.9190638    2121.2887  0.049683547  0.049136377           10 
 3559000   0.67879127   -3.9455663    2115.3657    0.0495309  0.049125124            6 
 3560000   0.68535807   -3.9320519    2127.6607  0.049804791   0.04911387            6 
 3561000   0.67815148   -3.9373505    2122.0922  0.049660493  0.049102669            5 
 3562000   0.69199178   -3.9458171    2121.2614  0.049627115  0.049091471            7 
 3563000   0.65901939   -3.9465611    2122.4467   0.04964091  0.049080257            5 
 3564000   0.66468313   -3.9484208    2122.2961   0.04962346  0.049069017            9 
 3565000   0.66562369   -3.9530772    2123.1124  0.049628621  0.049057717            5 
 3566000   0.66588137   -3.9405187    2122.7445  0.049606105  0.049046398            6 
 3567000   0.69271666   -3.9443091    2122.1031  0.049577216  0.049035162            6 
 3568000   0.68335983   -3.9464796    2116.5847  0.049434433  0.049023919            5 
 3569000   0.68413495   -3.9572463    2124.0528  0.049594957  0.049012602            7 
 3570000   0.69383242   -3.9588403    2119.7197  0.049479917  0.049001324            6 
 3571000   0.67828528     -3.93682    2120.8076  0.049491449  0.048990085            5 
 3572000   0.68882373   -3.9329212    2126.7074  0.049615235  0.048978862            4 
 3573000   0.66481575   -3.9323571    2124.1489  0.049541675  0.048967704            7 
 3574000   0.67674713   -3.9528385    2121.8209  0.049473535  0.048956512            5 
 3575000   0.67139773   -3.9633504    2122.6619  0.049479298  0.048945305           17 
 3576000   0.67082822     -3.94189    2131.9493  0.049681891  0.048934116            8 
 3577000    0.6708057   -3.9519336    2127.3571  0.049561017  0.048922966           16 
 3578000   0.67771687   -3.9317766    2118.2954  0.049336114  0.048911865            7 
 3579000   0.65388285   -3.9562153    2118.4339  0.049325554   0.04890071            4 
 3580000   0.69772139   -3.9291232      2129.64  0.049572625  0.048889501            6 
 3581000   0.69050806   -3.9391437    2128.4366  0.049530777  0.048878414            6 
 3582000   0.68718244   -3.9445196    2125.9741  0.049459662  0.048867233            5 
 3583000   0.68293399   -3.9580988    2123.1539  0.049380265   0.04885613           11 
 3584000   0.68683922   -3.9549145    2131.4202  0.049558692  0.048845039            5 
 3585000   0.68047834    -3.943629    2123.2791  0.049355627  0.048833992            7 
 3586000   0.67320943    -3.946768    2126.9745   0.04942774  0.048822844            5 
 3587000   0.68649601   -3.9514168    2127.2749  0.049420938  0.048811751            6 
 3588000    0.6629994   -3.9288144    2132.2713  0.049523208  0.048800641            3 
 3589000   0.66713844   -3.9516733    2122.9487  0.049292948  0.048789512           17 
 3590000   0.66821247    -3.924402    2125.2799  0.049333331  0.048778413            6 
 3591000   0.68459598   -3.9360781     2127.348  0.049367586   0.04876726            4 
 3592000   0.68103331   -3.9424685    2124.3876  0.049285161  0.048756065            6 
 3593000   0.67914818   -3.9481102    2124.4417  0.049272698  0.048744958            4 
 3594000   0.69247798   -3.9650794    2121.9977   0.04920232  0.048733821            9 
 3595000   0.68384931   -3.9556348    2132.6108   0.04943465  0.048722665            4 
 3596000   0.67749722   -3.9630999    2134.0394   0.04945401  0.048711502            6 
 3597000   0.68164294   -3.9578599    2127.1224  0.049280011  0.048700388           15 
 3598000   0.68423259   -3.9632348    2126.7695   0.04925814   0.04868915            8 
 3599000   0.69473732   -3.9513492    2125.3456  0.049211485  0.048677994            8 
 3600000   0.68656204   -3.9500707    2128.8184  0.049278205  0.048666884            7 
 3601000   0.67742575   -3.9604302    2125.0688  0.049177746  0.048655803           15 
 3602000   0.67665923   -3.9449294    2131.1287  0.049304293  0.048644658            7 
 3603000   0.68059859   -3.9565761    2139.6017  0.049486579  0.048633608            4 
 3604000   0.66664958   -3.9503607    2130.5634  0.049263859  0.048622517            7 
 3605000   0.66713585   -3.9514039    2131.9019  0.049281135  0.048611442           12 
 3606000   0.69173033    -3.970371    2127.1338   0.04915728  0.048600388            6 
 3607000   0.69085176    -3.951443    2125.5414  0.049106862   0.04858925            6 
 3608000   0.68853057   -3.9569811    2124.3372  0.049065438  0.048578131            4 
 3609000   0.67403764   -3.9569322    2126.0999  0.049092544  0.048567056            6 
 3610000   0.69124456   -3.9320168    2139.6465  0.049391656  0.048555994           10 
 3611000   0.68363527   -3.9803859     2134.656  0.049262807   0.04854499           10 
 3612000   0.65760975   -3.9577381    2129.2506  0.049124459  0.048533923            7 
 3613000   0.66360521   -3.9762379    2130.2023  0.049132814  0.048522847            3 
 3614000   0.67740281   -3.9570304    2137.0896   0.04927803  0.048511786            6 
 3615000   0.68267656   -3.9591902    2138.6592  0.049300581  0.048500771            5 
 3616000   0.66453947   -3.9602447    2131.0998  0.049112736   0.04848985           10 
 3617000   0.66210617   -3.9750276    2128.0373  0.049028599  0.048478831            7 
 3618000   0.67618878   -3.9773414    2135.1539  0.049178965  0.048467747            9 
 3619000   0.66846104   -3.9505119    2133.2829  0.049122293  0.048456743            8 
 3620000   0.67738465   -3.9678875     2132.489  0.049090447  0.048445752            6 
 3621000   0.66798785   -3.9614575    2134.6891  0.049127523  0.048434714            4 
 3622000   0.68028851   -3.9669728    2137.6441  0.049181947   0.04842377            9 
 3623000   0.67602345   -3.9526525    2136.1151  0.049133203  0.048412833            6 
 3624000   0.68198457   -3.9327928    2134.7536  0.049088338  0.048401905            6 
 3625000   0.67768936    -3.985844    2130.2748  0.048971834  0.048390945            3 
 3626000   0.66798601   -3.9759024    2131.4128  0.048984483  0.048379883            6 
 3627000   0.67608704    -3.978327    2130.4215    0.0489482  0.048368785            5 
 3628000   0.68282924   -3.9637093     2131.767  0.048965614  0.048357714            2 
 3629000   0.67228773   -3.9687633    2134.4992  0.049014862  0.048346696            7 
 3630000    0.6778034   -3.9734016    2134.3486  0.048997902   0.04833566            9 
 3631000    0.6654899   -3.9697286    2133.1611  0.048957155  0.048324655            4 
 3632000   0.67133765   -3.9626928    2129.2798  0.048854621  0.048313623            4 
 3633000   0.67126129   -3.9863477    2127.7122  0.048805216  0.048302503            9 
 3634000   0.67992689   -3.9523313    2142.2815  0.049125882  0.048291513            7 
 3635000   0.68078495   -3.9683465    2132.2104  0.048881486  0.048280498            6 
 3636000   0.67167988   -3.9464296    2136.8682  0.048974794  0.048269463            3 
 3637000    0.6760352   -3.9449741    2139.7308  0.049026919  0.048258422            6 
 3638000   0.67433429   -3.9564113     2133.211  0.048864096  0.048247479           10 
 3639000   0.67129992   -3.9639764    2131.4327  0.048809947  0.048236468           15 
 3640000   0.67217807   -3.9699532    2136.9873  0.048923701  0.048225462            7 
 3641000   0.65696941   -3.9884001    2132.7815  0.048814006  0.048214441            7 
 3642000   0.67268978   -3.9589001    2140.6514  0.048980675  0.048203414            3 
 3643000   0.67690861   -3.9753247    2135.1992  0.048842511  0.048192477            6 
 3644000   0.66873535   -3.9737169    2134.0879  0.048803693  0.048181451            5 
 3645000   0.66699281   -3.9870854    2139.4461  0.048912804  0.048170436            7 
 3646000   0.66665774   -3.9737626    2137.0646  0.048844957  0.048159491            5 
 3647000   0.67225751   -3.9867747    2133.6681  0.048753956  0.048148551            9 
 3648000    0.6725096   -3.9496363     2137.558  0.048829449  0.048137691            8 
 3649000   0.67430963    -3.972412    2138.8397  0.048845339  0.048126737            5 
 3650000   0.68161651    -3.959132    2137.0007   0.04878997  0.048115813           10 
 3651000   0.67268055    -3.968013    2130.9887  0.048639384  0.048104938            5 
 3652000   0.65870222   -3.9581897    2139.5853  0.048822227  0.048093971            8 
 3653000   0.66909964   -3.9714476     2141.598  0.048854776  0.048082966            7 
 3654000   0.67391105   -3.9798907    2137.5882  0.048749959  0.048071947            9 
 3655000   0.65173105   -3.9746893    2138.3014  0.048752881   0.04806098           10 
 3656000   0.67469972   -3.9733734    2135.6375  0.048678827  0.048050016           10 
 3657000   0.66216591   -3.9648347    2136.4052   0.04868301  0.048039114            6 
 3658000    0.6771762   -3.9694631    2137.4071  0.048692524  0.048028162           14 
 3659000   0.66567885   -3.9520965    2139.6129  0.048729454  0.048017219            7 
 3660000   0.66200065   -3.9694848    2143.4727  0.048804024  0.048006309           10 
 3661000   0.66623274   -3.9593638    2139.3688  0.048697278  0.047995382           18 
 3662000   0.65927831   -3.9671425    2134.6869  0.048577438  0.047984444            4 
 3663000   0.67048555   -3.9675271    2138.1292  0.048642487  0.047973497            9 
 3664000   0.66074112   -3.9794826    2137.6179  0.048617583    0.0479626            4 
 3665000   0.66185052   -3.9760952    2135.5766  0.048557903   0.04795167            6 
 3666000   0.67037099   -3.9709331    2140.1186  0.048647905  0.047940791            8 
 3667000   0.66416965   -3.9545095    2147.5496  0.048803509  0.047929883           10 
 3668000   0.65966139   -3.9427186    2138.1129  0.048575811  0.047919035            6 
 3669000   0.65983919   -3.9627813    2135.3313  0.048499393  0.047908196            6 
 3670000   0.68223561   -3.9866174    2141.9979  0.048637555  0.047897291            4 
 3671000   0.67130587   -3.9787832    2137.1322  0.048513852  0.047886371            7 
 3672000   0.66985379   -3.9747552    2146.8564  0.048721324  0.047875489           12 
 3673000   0.65944801   -4.0014054    2139.8006  0.048547977  0.047864541            5 
 3674000   0.67550303   -3.9856264    2142.1478  0.048588001  0.047853573           10 
 3675000   0.66021622   -3.9921527    2141.4599  0.048559181  0.047842704            3 
 3676000    0.6532138   -3.9658559    2140.3314  0.048520389  0.047831827            6 
 3677000   0.65990238   -3.9824229    2141.2286  0.048527527  0.047821079            6 
 3678000    0.6594661     -3.98155    2139.8656  0.048483451   0.04781024            8 
 3679000   0.64589096   -3.9822072    2146.2119  0.048614023  0.047799365            5 
 3680000   0.65545435   -3.9858241    2139.3581  0.048445609  0.047788505           29 
 3681000   0.66694788   -3.9721635    2141.8666  0.048489236  0.047777679            8 
 3682000     0.667966   -3.9773158    2139.9436  0.048432545  0.047766812            5 
 3683000   0.66315715   -3.9867091    2144.5577  0.048523796  0.047755974            9 
 3684000   0.65704644   -3.9892548    2142.4896  0.048463843  0.047745091            8 
 3685000   0.67065361   -3.9949884    2138.6844   0.04836464  0.047734226            8 
 3686000   0.67131931   -3.9652612    2143.2379  0.048454466  0.047723415            7 
 3687000   0.67964466   -3.9893956    2147.4996  0.048537645  0.047712562           10 
 3688000   0.65524927   -3.9847138    2144.2524  0.048451111  0.047701711            8 
 3689000   0.65613505   -3.9655556    2143.1897  0.048413971  0.047690919            6 
 3690000   0.65494455   -3.9727719    2145.2092  0.048446458  0.047680127           10 
 3691000   0.66371155   -3.9664377    2143.0719  0.048385078  0.047669302           10 
 3692000    0.6564511   -3.9696896    2149.1783  0.048509802   0.04765843            4 
 3693000   0.68066807   -3.9933289    2149.1284  0.048495541  0.047647599           10 
 3694000     0.654051   -3.9751487    2145.8641  0.048408774  0.047636734            8 
 3695000   0.66522158   -3.9701189     2149.109  0.048468854  0.047625883            4 
 3696000   0.65241281   -3.9760441    2140.5805  0.048263448  0.047615071            7 
 3697000    0.6459354   -3.9619184    2140.1907  0.048241608  0.047604222           14 
 3698000    0.6712316   -3.9780448    2144.7963  0.048332349  0.047593394            6 
 3699000   0.66055538   -3.9671786     2149.276  0.048420205   0.04758263            5 
 3700000   0.64879438   -3.9925534    2145.1369  0.048313894  0.047571796            5 
 3701000   0.65836808   -3.9889063    2144.6494  0.048289864  0.047560997           10 
 3702000   0.65042901   -3.9817365    2145.1279  0.048287591    0.0475502            6 
 3703000   0.65582338   -3.9743443    2146.1236  0.048296956  0.047539328            4 
 3704000   0.65605163   -3.9739583    2149.8985  0.048368848   0.04752857            8 
 3705000   0.65665541   -3.9801983    2145.3221   0.04825286  0.047517738            7 
 3706000   0.64669005   -3.9681815    2151.4492  0.048377613     0.047507            8 
 3707000   0.64802921   -3.9857007    2147.4601  0.048274887  0.047496291            8 
 3708000   0.65013244   -3.9793316    2146.3351  0.048236585  0.047485544            6 
 3709000   0.66217157   -4.0067673    2138.9902  0.048058557  0.047474694            5 
 3710000   0.66921175   -3.9834307    2143.5254   0.04814747  0.047463856            7 
 3711000   0.66224312   -3.9838414    2149.4875   0.04826838  0.047453086            6 
 3712000   0.64336899   -3.9770782    2152.6204   0.04832571  0.047442305            3 
 3713000    0.6591327    -3.977905    2144.6801  0.048134485  0.047431537            4 
 3714000   0.64262813   -4.0085354    2149.6705  0.048233497  0.047420837            6 
 3715000   0.66240543    -3.994172    2153.1178  0.048297842  0.047410091           15 
 3716000     0.650936   -3.9900754    2147.7452  0.048164362  0.047399315           10 
 3717000   0.65848265   -3.9882046    2151.8673  0.048243818  0.047388608            9 
 3718000   0.66160282   -3.9958571    2149.5094  0.048177995  0.047377932            7 
 3719000   0.65258994    -3.993521    2147.9538  0.048130182  0.047367207            8 
 3720000   0.65423231   -3.9982951    2152.8793  0.048227584  0.047356448            7 
 3721000   0.66200527    -3.966379    2154.4831  0.048250539  0.047345741            4 
 3722000   0.65917063   -3.9769514     2155.586   0.04826227  0.047335083            4 
 3723000   0.64964499   -4.0007548    2157.7025   0.04829668  0.047324426            2 
 3724000   0.65981877   -3.9516056     2156.031  0.048246308  0.047313758            5 
 3725000   0.66355058   -3.9939002    2150.7216  0.048114578  0.047303152            6 
 3726000   0.65156378   -3.9820692    2155.9253  0.048218046  0.047292423            7 
 3727000   0.64772399   -3.9833958    2154.4828  0.048172856  0.047281712            8 
 3728000   0.66729525   -3.9900705    2152.1989  0.048108882  0.047270968           10 
 3729000   0.66426694   -3.9876947    2151.9305  0.048089981  0.047260229            9 
 3730000   0.65220799   -3.9930343    2151.5277   0.04806809  0.047249582            8 
 3731000   0.65037206    -3.984394    2161.5921  0.048279998    0.0472389           21 
 3732000   0.65185139   -3.9972912    2153.5454  0.048087385  0.047228287            5 
 3733000   0.66011331   -4.0032776    2152.2916  0.048046513  0.047217599            7 
 3734000   0.64784794   -3.9905017    2149.5448  0.047972344  0.047206854           13 
 3735000   0.66182031   -4.0086461    2154.2144  0.048063687  0.047196129            5 
 3736000   0.64647471   -4.0059018    2147.7621    0.0479069  0.047185389           12 
 3737000   0.66019627   -4.0007669    2148.8715  0.047918818   0.04717464            6 
 3738000   0.66106344   -4.0177903    2146.0379  0.047842828  0.047163863            5 
 3739000   0.65552097   -4.0192627    2150.4671  0.047928749  0.047153141            6 
 3740000   0.66469455   -3.9951639     2147.812  0.047856774  0.047142452            7 
 3741000    0.6524292   -4.0136641    2152.0381  0.047938121  0.047131669           12 
 3742000   0.63868058   -3.9967989    2152.0823  0.047926295   0.04712089            6 
 3743000   0.64791214   -4.0003317    2145.7846  0.047773279  0.047110163           13 
 3744000   0.65355219   -3.9816414    2152.9345   0.04791966  0.047099441            8 
 3745000   0.65629989   -4.0031637    2146.6369  0.047766731  0.047088752           10 
 3746000   0.64342414   -3.9875212    2152.1599  0.047876844  0.047077996            8 
 3747000   0.65230639   -4.0225138    2148.1422  0.047774713  0.047067286            6 
 3748000   0.65271884   -3.9773558    2155.1135  0.047916966    0.0470566            4 
 3749000   0.64757552   -3.9916574    2150.6671  0.047805351  0.047045883            5 
 3750000   0.66971016   -4.0037132    2146.8553  0.047707895  0.047035099            7 
 3751000   0.64218405    -3.989403    2157.8987   0.04794052  0.047024407            7 
 3752000   0.65609668   -3.9950691    2157.8442  0.047926532  0.047013701           13 
 3753000   0.65084843    -3.990292    2152.2444  0.047789422  0.047003009            5 
 3754000   0.64745349   -3.9949475    2157.0717  0.047883851  0.046992375            9 
 3755000   0.64714418   -4.0223498    2154.1242  0.047805687  0.046981696            8 
 3756000   0.65203363   -4.0131172    2157.3439  0.047864392  0.046970948            6 
 3757000   0.63755573   -4.0013612    2154.4368  0.047787171  0.046960258           12 
 3758000   0.63669949   -3.9894658    2153.2254  0.047747591  0.046949614           12 
 3759000   0.64955569   -4.0037898    2157.9245  0.047839065  0.046938904            8 
 3760000   0.65907596   -4.0171656     2158.121  0.047830696  0.046928216           10 
 3761000   0.64670656   -3.9853241    2157.1097   0.04779557  0.046917562            7 
 3762000   0.65441248   -4.0074144    2158.2104  0.047807248  0.046906867           23 
 3763000   0.65136307   -3.9861828    2155.2046  0.047727979  0.046896255            7 
 3764000   0.64476899   -3.9904352    2161.4757  0.047854139  0.046885663            6 
 3765000    0.6488164   -4.0008005    2155.7349  0.047714362  0.046875008            7 
 3766000   0.64447378   -4.0034694    2149.0244  0.047553204  0.046864298            5 
 3767000   0.65008197   -4.0121571    2153.0336  0.047629272  0.046853607            3 
 3768000   0.66180419   -3.9803556    2161.0703  0.047794371   0.04684293            5 
 3769000   0.64229301   -4.0077135     2154.427  0.047634807  0.046832299           10 
 3770000   0.65571692    -3.996525    2162.5026  0.047800675   0.04682162            7 
 3771000   0.66402351   -4.0276372    2156.4873  0.047655072  0.046811031            6 
 3772000    0.6374217   -3.9925542     2155.021  0.047610042   0.04680035            8 
 3773000   0.64311807   -4.0274766     2153.388  0.047561358  0.046789651            9 
 3774000   0.65616106   -4.0092462     2155.063   0.04758574  0.046778973            8 
 3775000   0.64589024   -3.9890339    2155.3164  0.047578729  0.046768274           14 
 3776000   0.63964232   -4.0192344    2155.4664  0.047569439  0.046757575            5 
 3777000   0.65686375   -4.0102854    2153.4004  0.047511262  0.046746822            8 
 3778000   0.64882963   -3.9687969    2158.5675  0.047612659    0.0467361           11 
 3779000    0.6441907   -4.0132945     2159.335  0.047616985  0.046725399            8 
 3780000   0.65179952   -4.0165724    2154.9132  0.047506905  0.046714695            6 
 3781000   0.64556885   -4.0079407    2148.9733  0.047363425  0.046703908            7 
 3782000   0.64746438   -4.0000212    2159.2163  0.047576597  0.046693216            7 
 3783000   0.64511769   -4.0174435    2163.5208  0.047658843  0.046682523           13 
 3784000   0.64945333   -4.0245737    2156.3501   0.04748833  0.046671778           13 
 3785000   0.64639938   -3.9959083    2159.5834  0.047546972  0.046661071            5 
 3786000   0.63390088   -3.9950417    2160.0567   0.04754483  0.046650414            5 
 3787000   0.65000554   -3.9993086    2158.6031  0.047500287  0.046639769            2 
 3788000   0.64593648   -3.9925592    2155.4077  0.047417452  0.046629157           15 
 3789000   0.63778839      -4.0158    2156.7661  0.047434815  0.046618492            2 
 3790000   0.64487963   -4.0214485    2157.5338  0.047439178   0.04660785            7 
 3791000   0.65087089   -4.0119381    2162.4516  0.047534766   0.04659716           11 
 3792000   0.64107898   -4.0101583    2160.6602  0.047482863  0.046586525            4 
 3793000   0.66366218   -4.0165859    2160.0412  0.047456746  0.046575898            6 
 3794000   0.64308712   -3.9979018    2158.5694   0.04741191  0.046565297            6 
 3795000   0.64378996   -4.0030959    2160.7055  0.047446321   0.04655475            3 
 3796000   0.63954893   -4.0131102    2155.7374  0.047324758  0.046544199            6 
 3797000   0.63951934    -4.004249    2161.4916  0.047438582  0.046533678            9 
 3798000   0.63816803   -3.9868473    2168.3869  0.047577384  0.046523178            6 
 3799000   0.63923817    -4.021133    2162.2834  0.047430978  0.046512674            7 
 3800000   0.64979924   -4.0272861    2163.6373  0.047448187  0.046502183            5 
 3801000    0.6407652   -4.0110597    2160.0469  0.047356986  0.046491635           12 
 3802000   0.64802873   -4.0182806    2165.2017  0.047457516  0.046481093           15 
 3803000   0.64895367   -3.9907464      2165.15  0.047443903   0.04647061            7 
 3804000   0.65265619   -3.9999393    2163.5699  0.047396816  0.046460149            7 
 3805000   0.65608897   -4.0348225    2160.0539  0.047307356  0.046449634            6 
 3806000   0.63824599   -4.0326441    2160.0124  0.047294019   0.04643905            7 
 3807000   0.64685653   -4.0260119    2160.7593  0.047297944  0.046428512           13 
 3808000   0.63069327   -4.0490101    2158.6766  0.047239946  0.046417968            7 
 3809000   0.64857373   -4.0359966    2161.1296  0.047281212  0.046407436            8 
 3810000   0.63732802   -3.9999962    2165.8955  0.047373042  0.046396891           15 
 3811000   0.64390766   -4.0387932    2162.2825  0.047281607  0.046386344            7 
 3812000   0.62923329    -4.016597    2160.6892  0.047234374   0.04637584            6 
 3813000   0.64343024   -4.0236143    2167.2159  0.047364627  0.046365297            8 
 3814000   0.64414419   -4.0241502    2165.0824  0.047305593  0.046354778           10 
 3815000   0.63414379   -4.0225572    2163.5386  0.047259472  0.046344199            9 
 3816000   0.63989424   -4.0213611    2163.9702  0.047256513  0.046333663           11 
 3817000   0.65058017   -4.0264545    2167.4632  0.047320392  0.046323153            8 
 3818000    0.6343067   -4.0520642     2160.306   0.04715178  0.046312618            9 
 3819000   0.63507847   -4.0233375    2159.2708  0.047116846  0.046302061           10 
 3820000   0.63171464   -4.0288227    2164.3439  0.047215182  0.046291537            6 
 3821000   0.63582866    -4.020441    2162.2945  0.047158127  0.046281018           10 
 3822000    0.6490401   -4.0367654    2157.6973  0.047045555  0.046270465            6 
 3823000   0.62888393   -4.0186424    2161.1732  0.047109016  0.046259978            8 
 3824000   0.63128791   -4.0226581    2155.5846  0.046974909  0.046249395            5 
 3825000   0.65757179   -4.0244028    2161.4629  0.047090695  0.046238788            9 
 3826000   0.64550612   -4.0399768    2161.2373  0.047073474  0.046228174           10 
 3827000   0.63805502   -4.0255735    2164.4059  0.047130169  0.046217566           11 
 3828000   0.63868991   -4.0287053    2164.7311  0.047124938  0.046206992            6 
 3829000   0.64237511   -4.0116293    2167.1216  0.047164657  0.046196451            5 
 3830000    0.6418603   -4.0197528    2162.2319  0.047045951  0.046185923            3 
 3831000   0.64334766   -4.0196719    2163.7064  0.047065744  0.046175341            6 
 3832000   0.63873094   -4.0220855    2163.5637  0.047050359  0.046164782           11 
 3833000    0.6432388   -4.0490653    2159.6598  0.046953209  0.046154154           29 
 3834000   0.63676352   -4.0029878    2166.9006  0.047098344   0.04614361            9 
 3835000   0.63636618   -4.0319159    2166.5423  0.047078277  0.046133017           10 
 3836000   0.62851402   -4.0120177    2162.1173  0.046969875  0.046122474            8 
 3837000    0.6399179    -4.014378    2174.2831  0.047221855  0.046111963           11 
 3838000   0.63373806   -4.0369208    2165.3164   0.04701486  0.046101463           10 
 3839000   0.64007606   -4.0445046    2159.4002   0.04687419  0.046090908           10 
 3840000   0.62945839   -4.0508662    2160.1422  0.046878085  0.046080264           11 
 3841000   0.62981528   -4.0234356    2161.8424  0.046902768  0.046069677           20 
 3842000   0.64933397   -4.0115866    2165.1395  0.046962076  0.046059169            7 
 3843000   0.62862944   -4.0208476    2178.3767  0.047236895  0.046048632            5 
 3844000   0.62942318   -4.0139842    2170.1119  0.047045437  0.046038153            7 
 3845000    0.6502543   -4.0258336    2171.5931  0.047065304   0.04602767            5 
 3846000   0.62640649   -4.0332661    2162.8466  0.046863551  0.046017153            5 
 3847000   0.62943391   -4.0267032    2164.9489  0.046896909  0.046006619           13 
 3848000   0.63809897   -4.0076417    2168.8845  0.046969952   0.04599615           12 
 3849000   0.63728479   -4.0033417    2166.7181  0.046910845  0.045985587           19 
 3850000   0.64430198   -4.0298181    2165.8641  0.046880176  0.045975046           10 
 3851000   0.64016175   -4.0185019    2160.8049  0.046758524  0.045964437            5 
 3852000   0.62629788   -4.0339925    2164.7753  0.046832279  0.045953857            4 
 3853000   0.63809689   -4.0162385    2169.3996   0.04692014  0.045943248            9 
 3854000   0.64429825    -4.029728    2163.0298  0.046770234  0.045932641            7 
 3855000   0.63212777   -4.0336387    2169.9351  0.046907374  0.045922083            7 
 3856000   0.63494082   -4.0258223    2168.1856  0.046857401  0.045911497           10 
 3857000   0.63975313   -4.0296652    2174.5496   0.04698275  0.045901005            7 
 3858000   0.61657979   -4.0196043    2171.8656  0.046912597  0.045890525            6 
 3859000   0.63933612   -4.0214455    2168.9053  0.046836514  0.045880106            3 
 3860000   0.62948352   -4.0190946    2166.4068  0.046770439  0.045869572           10 
 3861000   0.62900459     -4.04488    2168.4152  0.046801675  0.045859109            6 
 3862000    0.6459636   -4.0282362    2168.4622   0.04679057  0.045848607           15 
 3863000   0.64410833   -4.0313096    2166.5038  0.046736212  0.045838085           10 
 3864000   0.62841303   -4.0216746    2164.1785  0.046673967  0.045827591            6 
 3865000   0.62992525   -4.0510616    2165.6927  0.046694539  0.045817107           20 
 3866000   0.63251836   -4.0525307    2164.9725  0.046666936  0.045806583           12 
 3867000   0.63337944   -4.0189884    2164.9548  0.046654487  0.045796093            6 
 3868000    0.6379689   -4.0438906    2167.0727  0.046688053  0.045785529            6 
 3869000   0.64038186   -4.0399874    2165.5602  0.046643409  0.045774929           17 
 3870000   0.63688439   -4.0315456    2164.9748  0.046618752  0.045764383            5 
 3871000   0.62607697   -4.0295964    2163.1994  0.046568488  0.045753815           13 
 3872000   0.63304598   -4.0349982    2165.6182  0.046608518   0.04574319            6 
 3873000    0.6294768   -4.0561338    2171.3116  0.046718986  0.045732627           16 
 3874000   0.63101719   -4.0022801     2168.533  0.046647156  0.045722054            9 
 3875000   0.63394888   -4.0188862    2169.9034   0.04666459  0.045711577           16 
 3876000   0.63644118   -4.0466973     2160.196  0.046443843  0.045701056           20 
 3877000   0.64173965    -4.039706    2166.7037  0.046571741  0.045690555            8 
 3878000   0.62321575   -4.0500072    2170.3101  0.046637229  0.045680094           19 
 3879000   0.62076871   -4.0328096    2169.4065  0.046605795   0.04566966            7 
 3880000   0.63990609   -4.0373033     2174.055  0.046693622  0.045659189            8 
 3881000   0.61784339   -4.0340087    2168.6368   0.04656525  0.045648725           12 
 3882000   0.61447589   -4.0550207    2170.0451  0.046583486  0.045638277           15 
 3883000   0.63450061   -4.0409404    2176.5401  0.046710879  0.045627797            5 
 3884000   0.62657169   -4.0286973    2168.0573  0.046516849  0.045617304            7 
 3885000   0.62903429   -4.0296141     2172.024  0.046589961  0.045606836           10 
 3886000   0.63001778   -4.0294057    2170.7478  0.046550605  0.045596364            6 
 3887000   0.64264329   -4.0368662    2177.3124  0.046679366  0.045585902            8 
 3888000   0.64570209   -4.0205009     2170.074  0.046512216   0.04557551           10 
 3889000   0.61826668   -4.0252251    2173.8572  0.046581323  0.045565104            8 
 3890000   0.63665672   -4.0449382     2169.747  0.046481299  0.045554687            6 
 3891000   0.61825792   -4.0427431    2175.2785  0.046587821  0.045544227            6 
 3892000   0.62739973   -4.0469501    2172.6093  0.046518699  0.045533776            7 
 3893000   0.63339948   -4.0433517    2170.1812  0.046454773  0.045523282           12 
 3894000   0.62296976   -4.0495398    2171.2912  0.046466598  0.045512776            4 
 3895000   0.64226424   -4.0598722    2172.3368  0.046477039  0.045502274            8 
 3896000   0.62051898    -4.033168    2175.4324  0.046531323  0.045491819           10 
 3897000   0.62273913   -4.0436368    2175.2479  0.046515436  0.045481457            8 
 3898000   0.62773452   -4.0410919    2177.0959  0.046543012  0.045471056            8 
 3899000   0.62962459     -4.03963    2171.4039   0.04640942   0.04546071           10 
 3900000   0.63015222   -4.0297887    2176.2256  0.046500547  0.045450325            9 
 3901000   0.61960059   -4.0428851    2174.1603  0.046444509  0.045439935            5 
 3902000   0.61077151   -4.0358767    2172.2798  0.046392444  0.045429533            6 
 3903000   0.64084251   -4.0463057    2174.6898  0.046432014  0.045419117            9 
 3904000   0.62771406   -4.0575895    2172.4179  0.046371626  0.045408649            5 
 3905000   0.64429523   -4.0335104    2173.6008  0.046384993  0.045398248           10 
 3906000   0.62800789   -4.0214315    2176.7568  0.046440451   0.04538786           12 
 3907000   0.61825125   -4.0339548    2174.2687  0.046375495  0.045377566            8 
 3908000   0.63530881   -4.0563234    2175.6479  0.046393038  0.045367171            8 
 3909000   0.62880405   -4.0519203    2167.2626  0.046202409   0.04535674            9 
 3910000   0.61581829   -4.0604058    2173.6365  0.046326438  0.045346304            7 
 3911000   0.61412131   -4.0491605    2175.4541  0.046353323  0.045335907            7 
 3912000   0.62721238   -4.0460481    2173.0313  0.046289863  0.045325547            5 
 3913000   0.62115252   -4.0575876    2175.3533  0.046327482  0.045315189           13 
 3914000   0.63285982   -4.0461667    2173.6771  0.046279959   0.04530475           13 
 3915000   0.62460378   -4.0416419    2177.9415  0.046358908  0.045294368            6 
 3916000   0.62874802     -4.04397    2175.7254   0.04629991  0.045283955            9 
 3917000   0.63106793   -4.0410093    2173.7805  0.046246714  0.045273521            6 
 3918000    0.6126908    -4.062705     2170.702  0.046169431  0.045263062           16 
 3919000   0.63085655   -4.0585022    2176.2073  0.046274715  0.045252688           12 
 3920000   0.62751722   -4.0585537    2172.7321  0.046189033   0.04524222            7 
 3921000   0.63012284   -4.0464873    2170.7944  0.046136071  0.045231839            8 
 3922000   0.62548853   -4.0352082    2175.2124   0.04621818  0.045221444           11 
 3923000   0.62123367   -4.0302308    2174.2157  0.046185226  0.045211038            9 
 3924000    0.6182262    -4.060204    2169.6305  0.046076082  0.045200613            7 
 3925000   0.62218912   -4.0493717    2175.7649  0.046194584  0.045190253            8 
 3926000   0.62042505   -4.0519274    2180.1743  0.046276412   0.04517986            6 
 3927000   0.62239099   -4.0657821    2171.6655  0.046084066  0.045169409            8 
 3928000   0.62977755   -4.0547856    2174.4001  0.046130349  0.045158956            6 
 3929000   0.63570092   -4.0545769    2179.3545  0.046223689  0.045148559            3 
 3930000   0.63329252   -4.0397507    2176.1343  0.046143644  0.045138204            6 
 3931000   0.62482572   -4.0647572    2176.8019   0.04614606  0.045127863            5 
 3932000   0.61545503   -4.0451277    2170.8701  0.046008606  0.045117552            7 
 3933000   0.61774574   -4.0447793    2173.8184  0.046059378  0.045107207            6 
 3934000   0.62499094    -4.028396    2183.5653  0.046254137  0.045096877            5 
 3935000   0.63682107   -4.0420894    2175.6914  0.046075634   0.04508651            6 
 3936000    0.6232642   -4.0545013     2178.733  0.046128325   0.04507615            7 
 3937000   0.63444987   -4.0482961    2172.6287    0.0459874  0.045065778            8 
 3938000   0.62290488   -4.0547698    2174.2776  0.046010614  0.045055411           12 
 3939000   0.63043592   -4.0401418    2175.1309  0.046016986  0.045044994           17 
 3940000   0.62271849   -4.0524393    2175.6062   0.04601536  0.045034611            5 
 3941000   0.61350732   -4.0529321    2174.0379  0.045970521  0.045024214           15 
 3942000   0.62569999   -4.0588425    2173.9549  0.045957104  0.045013772            9 
 3943000   0.61478732   -4.0724995    2170.1279  0.045864568  0.045003313           11 
 3944000   0.60828558   -4.0683219    2176.9514  0.045997114  0.044992883            4 
 3945000    0.6350772    -4.060908    2181.5228  0.046082019  0.044982501            7 
 3946000   0.62998449   -4.0638155    2178.5266  0.046007066  0.044972152           12 
 3947000   0.62237676   -4.0628604    2179.8224  0.046022768  0.044961782           12 
 3948000   0.61233597   -4.0433941    2177.7756  0.045967908  0.044951457           11 
 3949000   0.61088143   -4.0529287    2187.4838  0.046161133  0.044941176            3 
 3950000   0.61508878   -4.0589975     2183.588  0.046067257  0.044930918            5 
 3951000   0.61976242   -4.0502175    2184.4726  0.046074256  0.044920642            4 
 3952000   0.62717471    -4.059366    2179.8358  0.045964823  0.044910362           17 
 3953000      0.61089   -4.0537661    2186.3493  0.046090506  0.044900117            9 
 3954000   0.63164087   -4.0691597    2184.5312  0.046040534  0.044889898           15 
 3955000   0.62787826   -4.0623151    2175.2544  0.045833427   0.04487969           11 
 3956000   0.63092868   -4.0577155      2182.52   0.04597489  0.044869426           21 
 3957000   0.63506218   -4.0690968    2178.1528    0.0458713  0.044859225           15 
 3958000   0.61446226   -4.0688318      2179.48  0.045887654  0.044848947            7 
 3959000    0.6225147   -4.0564667    2181.3592  0.045915618  0.044838774            5 
 3960000   0.63464849   -4.0738203      2179.64  0.045867846  0.044828577           11 
 3961000   0.62083371   -4.0498456    2178.9762  0.045842301  0.044818311            8 
 3962000   0.61161658   -4.0637955    2182.3648  0.045902002  0.044808094           10 
 3963000   0.61916996    -4.071869    2179.9432  0.045839498  0.044797875           14 
 3964000   0.62409531   -4.0595976    2180.2864  0.045835149  0.044787627           11 
 3965000   0.63068332    -4.075452    2186.1268   0.04594634  0.044777349           10 
 3966000   0.60875228   -4.0650795    2188.1332  0.045976913  0.044767126           12 
 3967000    0.6269768   -4.0796013    2184.2439  0.045883621  0.044756925            9 
 3968000   0.62120075   -4.0432369    2188.8895  0.045969622  0.044746703           21 
 3969000   0.61318759   -4.0837239    2188.6003  0.045951967  0.044736519            5 
 3970000   0.61586287   -4.0417009    2184.6221  0.045856886  0.044726318           13 
 3971000   0.61114936   -4.0748975    2188.4049  0.045924723   0.04471615           31 
 3972000   0.62204383   -4.0644017    2187.4036  0.045892153  0.044705925            9 
 3973000   0.61249995   -4.0614039     2184.689  0.045823663  0.044695762            5 
 3974000   0.61800576    -4.045021    2187.3899  0.045868771  0.044685671            5 
 3975000   0.62544119   -4.0560228    2188.3946  0.045878294  0.044675523            9 
 3976000   0.62082642   -4.0457134     2187.728  0.045852783  0.044665378            6 
 3977000    0.6164593   -4.0457448    2193.3217  0.045958463  0.044655253            5 
 3978000   0.61173392   -4.0524534    2182.8192  0.045726898  0.044645088            4 
 3979000   0.63077169   -4.0980069    2185.8277  0.045778413  0.044634819            6 
 3980000   0.61532305   -4.0773254    2183.5743  0.045719729  0.044624587           19 
 3981000   0.61604467   -4.0533381    2183.7942  0.045712849   0.04461434           12 
 3982000    0.6171968   -4.0585527    2183.9523  0.045704677  0.044604174           16 
 3983000   0.61905378   -4.0721023    2188.6764  0.045792042  0.044594038           15 
 3984000   0.61104696   -4.0542283    2185.7602  0.045719549  0.044583881           16 
 3985000   0.61794727   -4.0763563    2180.2943  0.045593774  0.044573645           13 
 3986000   0.62340061   -4.0709243    2183.4382  0.045648065  0.044563439           16 
 3987000   0.60925792   -4.0464352    2183.6392  0.045640815  0.044553288           17 
 3988000     0.612307   -4.0872534    2187.5431  0.045710948   0.04454317           10 
 3989000   0.61422026   -4.0756817    2184.4564  0.045635004   0.04453302           17 
 3990000   0.62323807   -4.0758415    2183.3726  0.045600931  0.044522837           12 
 3991000   0.61243373   -4.0600371    2191.4083  0.045757294  0.044512782            8 
 3992000   0.61779634   -4.0717462    2187.1037  0.045655973  0.044502683            5 
 3993000   0.61510892   -4.0787564    2181.1785  0.045520879  0.044492624            9 
 3994000   0.61705045   -4.0598127    2186.8327  0.045627456  0.044482547            9 
 3995000    0.6233288   -4.0666156    2186.1995  0.045602826   0.04447248            8 
 3996000   0.61016951    -4.055969    2187.2992  0.045614348  0.044462408            5 
 3997000   0.61083322   -4.0874326    2185.8308  0.045572321  0.044452302            7 
 3998000   0.61103358   -4.0864996    2187.9988  0.045606111  0.044442229            8 
 3999000   0.62093333   -4.0846467    2185.2634  0.045537706   0.04443217            9 
 4000000   0.62091984   -4.0903494    2190.7452  0.045640525   0.04442215           12 
 4001000    0.5948376   -4.0733427    2183.8251  0.045484984  0.044412102           18 
 4002000   0.61134423   -4.0558793    2191.2163  0.045627525  0.044402024            5 
 4003000   0.60888808   -4.0847461    2189.0319  0.045570652  0.044391934            4 
 4004000   0.60776126   -4.0832696    2186.2386  0.045501137  0.044381823           10 
 4005000    0.6032083   -4.0658843    2191.8057  0.045605611   0.04437171           10 
 4006000   0.59249129   -4.1000706    2187.9625   0.04551428  0.044361613            7 
 4007000   0.61251677   -4.0728445    2193.4201  0.045616424  0.044351533           11 
 4008000   0.61024313   -4.0483873    2185.6788  0.045444087  0.044341483            9 
 4009000   0.61116183   -4.0872555    2182.5498  0.045367709  0.044331404           12 
 4010000   0.61217542   -4.0755883    2189.3743  0.045498219  0.044321268            6 
 4011000   0.59986245   -4.0689177    2192.2459  0.045546537  0.044311204           10 
 4012000   0.60350439   -4.0761821    2187.6895  0.045440542  0.044301129            7 
 4013000   0.61632501   -4.0660993    2189.4771   0.04546634  0.044291031           10 
 4014000    0.5971597   -4.0890444    2189.2604  0.045450514  0.044280929           13 
 4015000   0.61590329   -4.0917532    2186.1661  0.045374971  0.044270821            9 
 4016000   0.63147102   -4.0972976    2183.1807  0.045301724  0.044260703            8 
 4017000   0.61333677   -4.0663983    2190.1888  0.045435831  0.044250611           16 
 4018000   0.61881341   -4.0787683      2186.42  0.045346357  0.044240519           13 
 4019000   0.60890149   -4.0894733    2187.4845  0.045357147    0.0442304            9 
 4020000   0.60396522   -4.0975702    2193.1372  0.045463044  0.044220264            8 
 4021000   0.61873397   -4.0705393    2184.0741  0.045263908  0.044210169            6 
 4022000   0.60615461   -4.0763962    2188.4087  0.045342464   0.04420009            8 
 4023000   0.61893091   -4.0883943    2187.4536  0.045311409  0.044189934           13 
 4024000   0.59674926   -4.0838453    2187.2815  0.045296584  0.044179851           21 
 4025000   0.61016418   -4.0730836    2186.1424  0.045261746  0.044169736            9 
 4026000   0.61062995   -4.0640507    2191.9981  0.045371711  0.044159616            3 
 4027000    0.6023698   -4.0889583    2190.5409   0.04533029  0.044149525            6 
 4028000   0.60048209   -4.0680362    2188.5476  0.045277797   0.04413949            6 
 4029000   0.60860502   -4.0840451    2187.6609   0.04524822  0.044129467            7 
 4030000   0.61539804   -4.0772875    2190.2177  0.045289862  0.044119372           10 
 4031000   0.61140966   -4.0852827    2187.1395   0.04521499   0.04410936            8 
 4032000   0.61048328   -4.0964832    2186.2366  0.045185115  0.044099316            5 
 4033000   0.60778139   -4.0695648    2187.9419  0.045209148   0.04408929            9 
 4034000   0.60191443   -4.0853813    2191.0705  0.045262569   0.04407927            6 
 4035000   0.62243407   -4.0898159    2192.5257  0.045281407  0.044069246            6 
 4036000   0.59900273   -4.0838306    2192.3816  0.045267211  0.044059169            6 
 4037000   0.61656789   -4.1226295    2187.7763  0.045160935  0.044049088           15 
 4038000   0.60609429   -4.0644207    2190.0165  0.045195982  0.044038992           10 
 4039000      0.60786   -4.1043858    2190.5421  0.045195635  0.044028947           15 
 4040000   0.60705881   -4.0584842    2194.3082  0.045262132  0.044018965            9 
 4041000   0.60031833    -4.096327    2200.0903  0.045370171  0.044009014            5 
 4042000   0.61285738   -4.0850236    2191.3677  0.045179113  0.043999025           11 
 4043000   0.60251827   -4.0823715    2196.5903  0.045275585  0.043989059            7 
 4044000   0.61058066   -4.0882226    2193.7639  0.045206147  0.043979055           16 
 4045000   0.60304107   -4.0818028    2186.9373  0.045054333   0.04396901           14 
 4046000   0.59850931   -4.0905764    2188.6068  0.045077583  0.043958996           12 
 4047000   0.60152335   -4.1086285    2194.0755  0.045179053   0.04394892            8 
 4048000   0.61134272   -4.0947508    2197.6679  0.045241846  0.043938886           36 
 4049000   0.60859805   -4.1019467    2193.5561  0.045146046  0.043928874           19 
 4050000    0.6048568   -4.0927789    2194.4722  0.045153749  0.043918847            9 
 4051000   0.61688252   -4.0824094    2193.5365  0.045123354   0.04390881           16 
 4052000   0.61050183    -4.089503    2190.7007  0.045053896  0.043898851            8 
 4053000   0.59872835   -4.1038879    2192.9388  0.045088799  0.043888868            8 
 4054000   0.59674754   -4.0851725    2200.1124  0.045225136   0.04387886           12 
 4055000    0.6066361   -4.0923704    2197.3294   0.04515679  0.043868875            9 
 4056000   0.59596079     -4.10815     2197.811  0.045155552  0.043858873            8 
 4057000   0.59638255   -4.0884548    2195.2897  0.045092633  0.043848882            6 
 4058000   0.60126476   -4.0843319    2197.5845  0.045128646   0.04383892           11 
 4059000   0.60562704   -4.0938754    2199.3203  0.045153164  0.043828965           12 
 4060000   0.60395961   -4.0795826    2195.6155  0.045065999  0.043818998           14 
 4061000   0.60838804   -4.0808784    2194.9661  0.045041577  0.043809036            8 
 4062000   0.59800448   -4.0924813    2191.9599  0.044968815  0.043799042            8 
 4063000   0.59656056   -4.1029028    2195.0054   0.04502021  0.043789056           14 
 4064000    0.6034734   -4.0859297    2191.1269  0.044929603  0.043779081           17 
 4065000   0.58809978   -4.0757125    2200.3776  0.045108192  0.043769173           13 
 4066000   0.59951673   -4.0814966    2198.4544  0.045057681  0.043759253            8 
 4067000    0.6073428   -4.0992859    2192.5874  0.044926388   0.04374929            5 
 4068000   0.60925079   -4.0905418    2195.9588  0.044984406  0.043739316            7 
 4069000   0.59446457   -4.0873881    2198.2779  0.045020847  0.043729349           15 
 4070000   0.59868098   -4.0871147    2195.2718  0.044948235  0.043719374           11 
 4071000   0.59201414   -4.0748569     2194.366  0.044918653  0.043709424           10 
 4072000   0.60612169   -4.0942652    2202.8433  0.045081108  0.043699456           16 
 4073000   0.60423478   -4.0769066    2200.7026  0.045026243  0.043689502           12 
 4074000   0.60400182   -4.1109739    2194.2128  0.044882442  0.043679545           11 
 4075000   0.60434161   -4.1180962    2199.0356  0.044970053  0.043669599           14 
 4076000   0.59834656   -4.1017466    2199.0938  0.044960211  0.043659613           12 
 4077000    0.6008752   -4.0838488    2199.3111  0.044953624  0.043649661           12 
 4078000   0.59863901   -4.0675671    2197.5824  0.044907275  0.043639677           12 
 4079000   0.58764535   -4.0927295     2203.106  0.045009111  0.043629733            3 
 4080000   0.58453569   -4.1078747      2194.63   0.04482496  0.043619713           13 
 4081000   0.59599729    -4.092856     2192.957  0.044779813   0.04360968            5 
 4082000   0.60287924   -4.0902358    2199.9089  0.044910765  0.043599708           12 
 4083000   0.59306548   -4.0949059    2193.4351  0.044767637  0.043589696           12 
 4084000    0.6154136    -4.090349    2200.6293  0.044903471  0.043579744            7 
 4085000   0.60619727   -4.0939502    2195.6414  0.044790726  0.043569753            9 
 4086000   0.61320102   -4.0855753    2201.0184  0.044889426  0.043559822           14 
 4087000    0.5876452   -4.0689349    2193.5609  0.044726386  0.043549893            5 
 4088000   0.59306468   -4.1083848    2190.9243  0.044661699  0.043539922            5 
 4089000   0.59149454   -4.1217251    2196.8015  0.044770554  0.043529934           10 
 4090000   0.59161653   -4.1098743    2197.9357  0.044782716  0.043520006            8 
 4091000   0.59266424   -4.1002846    2194.8379  0.044708668  0.043510003            8 
 4092000   0.60802043   -4.1124188    2190.7686   0.04461487  0.043499964           12 
 4093000   0.59685521   -4.0948712    2195.9264  0.044708983   0.04348999            9 
 4094000   0.57464773   -4.1095636    2193.7698  0.044654166  0.043479969            8 
 4095000   0.60226283   -4.1073232    2192.5696  0.044618836  0.043469933           29 
 4096000    0.5945681   -4.1188922    2193.5821  0.044628542  0.043459893           10 
 4097000   0.58843769    -4.104874    2192.4124  0.044593857  0.043449896            7 
 4098000    0.5935829   -4.0913193    2198.8885  0.044714667  0.043439886           13 
 4099000   0.58251546   -4.1117334    2191.5914  0.044555407  0.043429931            6 
 4100000    0.6051957   -4.0824032    2195.1591  0.044617055  0.043419957            7 
 4101000   0.58974508   -4.0854889    2200.4205  0.044713087  0.043410009           21 
 4102000   0.60673509   -4.0920861    2202.0574  0.044735442  0.043400081           14 
 4103000   0.59506587   -4.1013661    2198.2582  0.044647377  0.043390152           10 
 4104000   0.60504009   -4.1253094    2202.7714   0.04472814  0.043380188           12 
 4105000   0.59013524   -4.1072147    2196.9372  0.044598806  0.043370238           10 
 4106000   0.59213881   -4.0905086    2198.8671  0.044627113  0.043360287           18 
 4107000    0.5954129   -4.0810153     2199.501  0.044629109  0.043350359            6 
 4108000   0.61099995    -4.095608    2197.2144   0.04457186  0.043340433            8 
 4109000   0.58345246   -4.1197497    2192.0761  0.044456805  0.043330434            6 
 4110000   0.59521189   -4.1177922    2198.5593  0.044577439  0.043320483            6 
 4111000   0.59010168   -4.1318837    2199.6385  0.044588473  0.043310523           21 
 4112000    0.6047465   -4.1083976    2198.3094  0.044550693  0.043300554            7 
 4113000   0.59447085   -4.0978177    2195.0123   0.04447306  0.043290614           15 
 4114000   0.59817887   -4.1253741    2194.0719  0.044443201  0.043280728            6 
 4115000   0.59282151   -4.1423211    2196.5659  0.044482906  0.043270813           26 
 4116000   0.59149879   -4.1079001    2195.7344  0.044455264  0.043260837           23 
 4117000   0.59792726   -4.1039242    2196.1465  0.044452808  0.043250902           18 
 4118000   0.58614853   -4.0965228     2201.562  0.044551602  0.043240961           10 
 4119000   0.58645068   -4.1075839    2201.5605  0.044540756  0.043231057            6 
 4120000    0.5892679   -4.1073176    2199.4781  0.044487827  0.043221113           15 
 4121000   0.59196707   -4.1098298    2195.8243  0.044403144  0.043211172            9 
 4122000   0.59472426   -4.1129978    2199.7516   0.04447177   0.04320126            5 
 4123000   0.59375322   -4.0850341    2200.5534  0.044477188  0.043191426            6 
 4124000   0.59410948   -4.1048369    2201.3378  0.044482254  0.043181554            7 
 4125000   0.59061463   -4.0972809    2196.3355  0.044370415  0.043171634           12 
 4126000   0.59526963   -4.1030941    2206.4625  0.044564196  0.043161736            6 
 4127000   0.58809924   -4.1068049    2198.9725  0.044402158   0.04315184           12 
 4128000   0.59874272   -4.1185777    2202.1121  0.044454783  0.043141959            9 
 4129000   0.59842257   -4.1145916    2200.2422  0.044406278  0.043132059            6 
 4130000   0.60437975   -4.1111274    2197.0611  0.044331338  0.043122129           12 
 4131000   0.58681245   -4.1108667    2196.5812  0.044310925   0.04311225           11 
 4132000   0.59724689   -4.1119819    2201.8322  0.044406103  0.043102336           11 
 4133000   0.59720859   -4.1140986    2202.4268  0.044407347  0.043092482            3 
 4134000   0.58913489   -4.1207829    2198.2995  0.044313408  0.043082562           10 
 4135000   0.60223758   -4.1152858    2198.5887  0.044308519    0.0430727           23 
 4136000   0.58732006   -4.1115768    2199.7145  0.044320488  0.043062852           12 
 4137000   0.58401369   -4.1164768    2198.2077  0.044279424  0.043052976            9 
 4138000   0.58704432   -4.1094875    2193.8585  0.044181136  0.043043096            8 
 4139000    0.5769971   -4.1390719    2198.3453  0.044260797  0.043033168           13 
 4140000   0.57832331   -4.1276968    2201.3838  0.044311267  0.043023192            9 
 4141000   0.58320222   -4.1185907     2197.645  0.044225327  0.043013255           10 
 4142000   0.59529675   -4.1176145     2205.193  0.044366511  0.043003365            7 
 4143000   0.58708953   -4.1078953    2206.5063  0.044382216  0.042993465           12 
 4144000   0.58670876   -4.1187037      2199.74   0.04423544  0.042983681            7 
 4145000   0.61165998   -4.1120061    2201.5128   0.04426041  0.042973797            5 
 4146000   0.59952003    -4.128859     2195.509   0.04412906  0.042963902            6 
 4147000   0.58646644   -4.1093192    2198.1047   0.04417058  0.042953962           13 
 4148000   0.59246292   -4.1106484    2208.0438  0.044359608  0.042944075            7 
 4149000   0.59560727   -4.1136435    2201.7868  0.044223242  0.042934192           13 
 4150000   0.58146257   -4.1325714    2205.5171  0.044287492  0.042924303            9 
 4151000    0.5936653    -4.112604    2203.8368   0.04424309  0.042914426            6 
 4152000   0.58757234   -4.1317551     2195.612  0.044067357  0.042904548           10 
 4153000   0.59047954   -4.1243806    2195.5316  0.044055134  0.042894643            9 
 4154000   0.59727865    -4.135679    2194.8342  0.044030538  0.042884765           14 
 4155000   0.60339973   -4.1226843    2200.5663  0.044134903  0.042874849            9 
 4156000   0.58275714   -4.1373718    2200.2671  0.044118284  0.042864904           10 
 4157000   0.58090649    -4.119238    2204.2063  0.044186639  0.042855015            6 
 4158000   0.59076082   -4.1240977      2196.79  0.044027377  0.042845148           11 
 4159000   0.58651721   -4.1319219    2199.9916   0.04408094  0.042835234           13 
 4160000   0.58870878   -4.1225022    2202.5944  0.044122485  0.042825365            5 
 4161000   0.58369407    -4.112668    2204.9991   0.04416004   0.04281555            7 
 4162000   0.58460833   -4.1196986    2207.2145  0.044193788  0.042805708            6 
 4163000   0.59297272   -4.1351539    2199.0224  0.044019186  0.042795799           23 
 4164000   0.58086276   -4.1259727    2203.2693  0.044093606   0.04278591            9 
 4165000   0.58661174   -4.1253105    2200.7364  0.044032341  0.042776089           21 
 4166000   0.58765612   -4.1366546     2203.999  0.044087034  0.042766267           30 
 4167000   0.59516051   -4.1335175    2200.6765  0.044010009  0.042756396           18 
 4168000   0.57847926   -4.1451342    2198.5378   0.04395669  0.042746552            8 
 4169000    0.5823823   -4.1164694    2203.8262  0.044051855  0.042736695           11 
 4170000   0.57890499   -4.1252124    2201.4203  0.043993211  0.042726898           18 
 4171000   0.58382777   -4.1299478    2200.7162  0.043968596  0.042717097           15 
 4172000   0.56946903   -4.1039133    2203.4416  0.044012495    0.0427073           11 
 4173000   0.58597089   -4.1227014    2200.3561  0.043940333  0.042697434            6 
 4174000   0.57861646   -4.1213715     2204.035  0.044003254  0.042687606           10 
 4175000    0.5694582   -4.1261421     2207.864  0.044069142  0.042677793           13 
 4176000   0.58066326   -4.1385543    2196.3834   0.04382949   0.04266802           10 
 4177000   0.59370076   -4.1317711    2200.7695  0.043906502  0.042658197            9 
 4178000   0.59197948   -4.1218766    2205.0867  0.043982102  0.042648399            7 
 4179000   0.56488481   -4.1216416    2207.8568  0.044026817  0.042638615           11 
 4180000   0.58770496   -4.1113925    2208.0329  0.044019795  0.042628823           16 
 4181000   0.58176867   -4.1187682    2202.0899  0.043890813  0.042619059            9 
 4182000    0.5933774    -4.143799    2207.9284  0.043996661  0.042609211           12 
 4183000   0.58805653    -4.136764    2202.3763  0.043875534  0.042599353           11 
 4184000   0.58068804   -4.1119644    2204.4631  0.043906611  0.042589519           12 
 4185000   0.58529304   -4.1439028    2199.8184  0.043803632  0.042579688            9 
 4186000   0.58876324     -4.15769    2195.7295  0.043711767  0.042569744           12 
 4187000   0.58168942   -4.1549658    2201.2657  0.043811515   0.04255987            9 
 4188000   0.56965674   -4.1192718    2201.1987  0.043799719  0.042550053            6 
 4189000   0.57193997   -4.1159042    2202.6151   0.04381744  0.042540234           10 
 4190000   0.58123533   -4.1223393    2208.0643   0.04391536  0.042530394           14 
 4191000   0.57919029    -4.138608    2205.6434  0.043856744  0.042520567           16 
 4192000   0.58323326    -4.119152    2202.1422  0.043776681   0.04251071           16 
 4193000   0.59470079   -4.1367448    2204.8619  0.043820294  0.042500883           15 
 4194000   0.59230196   -4.1229262    2204.6994  0.043806617  0.042491036            7 
 4195000   0.57555963   -4.1094373    2203.7471  0.043777257  0.042481227            7 
 4196000   0.58247787   -4.1336007    2207.0297  0.043832018  0.042471405           13 
 4197000   0.58156172   -4.1313163    2204.8315  0.043777926  0.042461617            4 
 4198000   0.58757584   -4.1359582    2204.8943  0.043768744  0.042451865            9 
 4199000    0.5933892   -4.1221792    2208.1005  0.043821951  0.042442087           19 
 4200000   0.57570839   -4.1243187    2206.2496  0.043774793  0.042432292           14 
 4201000   0.58692522   -4.1389473     2203.953  0.043718818   0.04242252            9 
 4202000    0.5901131   -4.1266954    2206.4859  0.043758645   0.04241276            8 
 4203000   0.58607622   -4.1393315    2203.1876  0.043682838  0.042402971           14 
 4204000    0.5724517    -4.134309    2200.6632  0.043622407  0.042393167            7 
 4205000   0.58736233   -4.1294414    2209.3818  0.043784815  0.042383422            6 
 4206000   0.57757618   -4.1439541    2210.2694  0.043791992   0.04237367           14 
 4207000   0.57148149   -4.1300925    2205.8729  0.043694494  0.042363932           12 
 4208000   0.57109113   -4.1362296    2208.7429  0.043740947  0.042354169           12 
 4209000   0.57724256   -4.1176729    2210.4734  0.043764817  0.042344456            9 
 4210000   0.57209069   -4.1373965    2211.7589  0.043779867  0.042334754           10 
 4211000   0.57428224    -4.113351    2204.0651  0.043617216  0.042325005            8 
 4212000   0.57624414     -4.12165    2210.1151  0.043726557  0.042315246           13 
 4213000   0.57434453   -4.1649621    2206.1756  0.043638255  0.042305518           11 
 4214000   0.58675923   -4.1449749    2207.1244  0.043646662  0.042295727            8 
 4215000   0.58269992   -4.1524813    2207.4514  0.043642773   0.04228596           11 
 4216000   0.57893568   -4.1357876    2206.1888  0.043607464  0.042276207            6 
 4217000   0.59053154   -4.1377695      2212.23  0.043716504  0.042266489            9 
 4218000   0.57635533   -4.1485081    2204.5321  0.043554055  0.042256746            8 
 4219000   0.57389173   -4.1281979    2211.6292  0.043683915  0.042247036           15 
 4220000   0.57013094   -4.1163239     2213.141  0.043703416  0.042237391            7 
 4221000   0.58573052   -4.1338936    2205.2076  0.043536436  0.042227725           18 
 4222000   0.57279943   -4.1359007     2202.377  0.043470255   0.04221799           19 
 4223000    0.5877334   -4.1388539    2202.3778  0.043459977  0.042208231            9 
 4224000   0.57620489   -4.1334616    2208.3623  0.043567755  0.042198491            8 
 4225000    0.5811331   -4.1190653    2208.5973  0.043562077  0.042188821            8 
 4226000   0.56911705   -4.1328651    2210.5523   0.04359032  0.042179095           15 
 4227000   0.58159368   -4.1695002     2205.978  0.043489828  0.042169369            6 
 4228000   0.59234904   -4.1383815    2206.4229   0.04348831  0.042159606           11 
 4229000   0.55547621   -4.1525595    2201.3634  0.043378328  0.042149839           12 
 4230000   0.57735423   -4.1297159    2209.0479  0.043519462  0.042140024           15 
 4231000   0.57934966   -4.1521242    2201.4409  0.043359349  0.042130181            9 
 4232000   0.57560799   -4.1228215    2199.6211  0.043313271  0.042120394           15 
 4233000    0.5706188   -4.1470892    2200.6288  0.043322875  0.042110589            7 
 4234000   0.57943241   -4.1388647     2206.011  0.043418575  0.042100775            6 
 4235000   0.57511003   -4.1405052    2208.2664  0.043452703  0.042090996            8 
 4236000   0.57935097   -4.1289266    2211.5379  0.043506804  0.042081173           22 
 4237000    0.5713198   -4.1361701    2202.4338  0.043317477  0.042071347           22 
 4238000   0.57472141   -4.1652355    2203.3645  0.043325557  0.042061494           20 
 4239000   0.58423216    -4.146977    2203.8964  0.043325793  0.042051632           17 
 4240000   0.57542054   -4.1552705    2205.7371   0.04335175   0.04204179           18 
 4241000   0.57607355   -4.1436678     2208.207  0.043390062  0.042031951            9 
 4242000   0.56833463   -4.1357095    2212.2473  0.043459205  0.042022204            8 
 4243000   0.57147369   -4.1594737    2199.3479  0.043195614  0.042012408            9 
 4244000   0.58950342   -4.1500136    2200.4424  0.043206928  0.042002537           39 
 4245000   0.57535147   -4.1433205    2203.8303  0.043263257  0.041992703           47 
 4246000   0.57326616   -4.1546503    2203.3246  0.043243143  0.041982876           20 
 4247000    0.5653021   -4.1329083     2202.144  0.043209796  0.041973025           14 
 4248000   0.57467879   -4.1192471    2201.8343  0.043193548  0.041963213           15 
 4249000   0.56567141   -4.1379723    2204.6874  0.043239338  0.041953451           14 
 4250000   0.57326465   -4.1340325    2204.3793  0.043223124  0.041943662           10 
 4251000   0.57980873   -4.1525177    2201.9228  0.043164801  0.041933865           18 
 4252000   0.57234681   -4.1699713    2197.6604  0.043071112   0.04192403           23 
 4253000   0.57023355   -4.1536853    2205.7743  0.043219968  0.041914232            6 
 4254000   0.57298789   -4.1521404    2203.5553   0.04316634  0.041904417            9 
 4255000    0.5625113   -4.1684789    2204.0525  0.043165932  0.041894654           11 
 4256000   0.57886236   -4.1387406    2206.5188  0.043204081  0.041884875           12 
 4257000   0.56305055   -4.1714032    2207.1713  0.043206705   0.04187509            4 
 4258000   0.56860387   -4.1449861    2209.2378  0.043237001  0.041865323           12 
 4259000   0.57604087   -4.1573957    2203.1244  0.043107232  0.041855519           10 
 4260000   0.57935152   -4.1515952    2206.9747  0.043172432  0.041845717            7 
 4261000   0.58053011   -4.1604436    2203.1683  0.043087857  0.041835935            7 
 4262000   0.56747794   -4.1686501    2207.7235  0.043166814  0.041826211            7 
 4263000   0.58069933   -4.1485916    2211.2013  0.043224671  0.041816473            7 
 4264000   0.56985533   -4.1352957    2209.3588  0.043178526  0.041806771            7 
 4265000    0.5611839   -4.1652999     2207.573   0.04313351  0.041797057            4 
 4266000   0.57962082   -4.1659234    2208.2616   0.04313685   0.04178729           14 
 4267000   0.57332677   -4.1725542    2205.9826  0.043082232  0.041777527            6 
 4268000   0.58114339   -4.1624817    2208.6686  0.043124582  0.041767716           16 
 4269000   0.55830932   -4.1735886    2208.1422  0.043104205  0.041757962           11 
 4270000   0.57807297   -4.1564723      2206.75  0.043066939  0.041748167           15 
 4271000   0.57301082   -4.1509118    2207.9639  0.043080541   0.04173844           18 
 4272000   0.57153244   -4.1533209    2205.1207  0.043014995  0.041728709           12 
 4273000   0.56153831   -4.1522529    2212.2404  0.043143779  0.041718951           15 
 4274000    0.5640477   -4.1569857    2205.9373  0.043010788  0.041709237            6 
 4275000   0.56244444   -4.1629448    2205.9862  0.043001681  0.041699494           11 
 4276000   0.57189748   -4.1466375    2207.1011  0.043013351   0.04168969           18 
 4277000   0.55857896   -4.1655209    2207.9433  0.043019704  0.041679967           12 
 4278000   0.56582124   -4.1606562    2205.0312  0.042952921  0.041670219            8 
 4279000   0.57905287   -4.1712549    2205.2887  0.042947899  0.041660452           15 
 4280000   0.56597802    -4.153934    2205.4369  0.042940749  0.041650701           25 
 4281000   0.58567278     -4.14744    2209.8157  0.043015956   0.04164104           12 
 4282000   0.57173775    -4.154102    2208.7635  0.042985432  0.041631405           11 
 4283000   0.55168413   -4.1566472    2202.8667  0.042860664  0.041621748            7 
 4284000   0.55603062   -4.1627656    2204.6609   0.04288556  0.041612038            7 
 4285000   0.56155574   -4.1474145    2210.2856  0.042984939  0.041602355            6 
 4286000   0.56371541   -4.1549842    2216.5214  0.043096154  0.041592677            5 
 4287000   0.56131687   -4.1291648    2213.5917  0.043029152  0.041583039           11 
 4288000   0.56082276   -4.1587297    2205.5984  0.042863775  0.041573357            9 
 4289000   0.56604882   -4.1516263    2207.2826  0.042886503  0.041563692           20 
 4290000   0.58060984     -4.17174    2207.5867  0.042882415  0.041553982           16 
 4291000    0.5598481   -4.1674727     2207.988  0.042880214   0.04154431            5 
 4292000   0.56809729   -4.1611067    2211.6771  0.042941852  0.041534621           28 
 4293000   0.56193278   -4.1679876    2213.5621  0.042968438  0.041524978           29 
 4294000   0.56838617   -4.1677814    2202.7669  0.042748931  0.041515315           13 
 4295000   0.57016659   -4.1468952    2215.5876   0.04298773   0.04150565           11 
 4296000   0.55890729   -4.1688983     2211.319  0.042894922  0.041495989           10 
 4297000   0.55826454   -4.1738687    2211.6622  0.042891595  0.041486316           10 
 4298000   0.56454315   -4.1831729    2206.2157  0.042776015  0.041476616            8 
 4299000   0.57452434   -4.1730462    2210.0975   0.04284131  0.041466936           12 
 4300000   0.56646868   -4.1665999     2214.347  0.042913701  0.041457308           11 
 4301000   0.56336491   -4.1676208    2213.2454   0.04288238  0.041447667            8 
 4302000   0.57582169   -4.1619639    2207.6795  0.042764596  0.041437986            7 
 4303000   0.56625969   -4.1986073    2205.7512  0.042717313  0.041428267            8 
 4304000   0.55731647   -4.1708997    2212.5329  0.042838695  0.041418559           10 
 4305000   0.55596721   -4.1691021     2208.708  0.042754704   0.04140892           12 
 4306000   0.56236037   -4.1613105     2215.232  0.042871034  0.041399258            7 
 4307000   0.57452955   -4.1660671    2211.5215  0.042789286   0.04138963            9 
 4308000   0.56074409    -4.158231    2212.7931  0.042803951  0.041379965           10 
 4309000   0.55649834   -4.1632753    2204.4897  0.042633437  0.041370292           17 
 4310000   0.56855097   -4.1747936    2211.2259  0.042753789   0.04136063           10 
 4311000   0.56123626   -4.1662747    2207.8558  0.042678724  0.041350958           11 
 4312000    0.5665091   -4.1905447    2211.8747  0.042746496  0.041341297           15 
 4313000   0.54868582   -4.1624342    2205.1994  0.042607609  0.041331625            9 
 4314000   0.56455304   -4.1494474    2211.5203  0.042719833  0.041321948            8 
 4315000   0.56106441   -4.1731312    2218.0924  0.042836855  0.041312325            6 
 4316000   0.56569409   -4.1714002    2209.1211  0.042653714  0.041302653           13 
 4317000   0.56463408   -4.1815081    2208.3709   0.04262935  0.041292923           16 
 4318000   0.57083755   -4.1912733    2204.7263  0.042549142   0.04128323           10 
 4319000   0.55953368   -4.1723013    2209.5426  0.042632218  0.041273503           11 
 4320000   0.55310473   -4.1697106    2212.6821  0.042682911  0.041263791            9 
 4321000   0.56333261    -4.182914    2206.2724  0.042549418  0.041254131            8 
 4322000     0.543898   -4.1858342    2205.7713  0.042529912  0.041244387            7 
 4323000   0.56646237   -4.1710765    2212.1263  0.042642577  0.041234712            9 
 4324000    0.5622557   -4.1898235     2209.891  0.042589635  0.041225069           10 
 4325000   0.55996628   -4.1682918    2210.2419   0.04258655  0.041215415           13 
 4326000   0.56098947   -4.1485852    2219.2224    0.0427497  0.041205787           10 
 4327000   0.55134023   -4.1782789    2210.0959  0.042564053  0.041196191           36 
 4328000   0.55235888   -4.1653886    2207.0979  0.042496494  0.041186511            9 
 4329000   0.55954004   -4.1629424    2202.0762   0.04239001  0.041176811           20 
 4330000   0.55716376   -4.1694227    2209.3296  0.042519816  0.041167134            6 
 4331000    0.5563218   -4.1626931    2214.2258  0.042604207  0.041157498            8 
 4332000   0.56788273   -4.1662772     2216.041   0.04262929  0.041147881            5 
 4333000   0.55486441   -4.1753615    2210.9137  0.042520842  0.041138287            3 
 4334000    0.5630769   -4.1724194    2210.4161  0.042501463  0.041128663            9 
 4335000   0.55238838   -4.1665754    2213.1171  0.042543582  0.041119029           19 
 4336000   0.56183697   -4.1764633     2208.613  0.042447206  0.041109429            6 
 4337000   0.55915687   -4.1891081    2209.6071   0.04245652  0.041099773           15 
 4338000    0.5687609   -4.1838712    2209.5741  0.042446098  0.041090087           10 
 4339000   0.55884393   -4.1747479    2214.8682  0.042537992  0.041080457           17 
 4340000   0.55725104   -4.1896551    2209.7709  0.042430317  0.041070854            5 
 4341000   0.56633714   -4.1536051    2213.4798  0.042491742  0.041061232           10 
 4342000   0.56173017   -4.1779293    2209.5193  0.042405944  0.041051608           12 
 4343000   0.57064617   -4.1822101     2208.161  0.042370117  0.041041915           20 
 4344000   0.55436724   -4.1758921    2212.1077  0.042436075  0.041032203           35 
 4345000   0.55295486   -4.1872472    2213.3525  0.042450182  0.041022539            8 
 4346000   0.55378481    -4.170916    2210.6869  0.042389302  0.041012892           13 
 4347000    0.5617496   -4.1673617    2210.2692  0.042371544  0.041003238           17 
 4348000   0.55707752    -4.191709    2217.8007  0.042506147  0.040993605            9 
 4349000   0.55531859   -4.1867988    2214.8604  0.042440033  0.040983959           21 
 4350000   0.54066073   -4.2062884    2208.6757  0.042311794  0.040974308            9 
 4351000    0.5527385   -4.1967891    2213.0685  0.042386204  0.040964659           10 
 4352000   0.56129844   -4.1842345    2213.4192   0.04238318  0.040955054           11 
 4353000   0.54244181   -4.1917964    2216.2347  0.042427344  0.040945456           12 
 4354000   0.55150149   -4.1901541    2210.1667  0.042301461  0.040935832           23 
 4355000   0.56520251    -4.192108    2209.3655  0.042276416  0.040926174           12 
 4356000   0.55006324    -4.190783    2211.8722  0.042314665  0.040916516           12 
 4357000    0.5475128   -4.1757603    2217.9404  0.042421015   0.04090686           17 
 4358000    0.5451904   -4.1665496    2213.4091  0.042324635  0.040897276           21 
 4359000   0.55248335   -4.1782414    2210.2141  0.042253845  0.040887647           20 
 4360000   0.56376474    -4.168053    2209.4241  0.042229054  0.040878022           20 
 4361000   0.55567935   -4.1970817    2212.8879   0.04228556  0.040868438           18 
 4362000   0.56615357   -4.1757977    2212.7486  0.042273204  0.040858804            9 
 4363000   0.56320376   -4.1937661    2216.2291  0.042329993  0.040849221            7 
 4364000   0.56046915   -4.1805166    2206.7455  0.042139198  0.040839628           15 
 4365000   0.55607204   -4.2037879     2209.738  0.042186675   0.04083003            8 
 4366000   0.54295085   -4.1869673    2216.2491  0.042301288  0.040820417            6 
 4367000   0.55349315   -4.1846712    2214.8602  0.042265098  0.040810879           18 
 4368000   0.56963062   -4.1774683    2213.8709  0.042236547  0.040801326           29 
 4369000   0.55041619   -4.1782257    2218.6615  0.042318256  0.040791807           13 
 4370000   0.55162661   -4.1946427    2215.6575  0.042251287  0.040782198            5 
 4371000   0.54393835   -4.1964355    2206.4769  0.042066592  0.040772623            9 
 4372000   0.56939197   -4.1817565    2212.2886  0.042167745  0.040763027            8 
 4373000   0.54995611   -4.1995385    2214.1765   0.04219408  0.040753464           10 
 4374000   0.54691271   -4.1769509    2216.8788  0.042235916    0.0407439           10 
 4375000    0.5506139   -4.1788496    2212.4971  0.042142802  0.040734398           15 
 4376000   0.55415593   -4.2082287    2215.7777  0.042195644  0.040724833           14 
 4377000   0.54361432   -4.2206942    2208.0685   0.04203923  0.040715216           16 
 4378000   0.55050199   -4.1863869     2208.897  0.042045397  0.040705638            8 
 4379000   0.54364792   -4.1813367    2213.2834   0.04211927  0.040696108           15 
 4380000   0.55962003   -4.1843809    2214.8365  0.042139202  0.040686547            7 
 4381000   0.54930333   -4.1940669    2210.6948  0.042050803  0.040677041           28 
 4382000   0.55525048   -4.1837969    2212.6472  0.042078335  0.040667505           11 
 4383000   0.54399854     -4.19053    2217.7915  0.042166544  0.040658008           11 
 4384000   0.55457993   -4.1879096    2218.1172  0.042163115  0.040648488           16 
 4385000   0.55175407   -4.1838262     2216.119  0.042115527  0.040638953           32 
 4386000   0.55244648   -4.1809765    2219.4723  0.042169636  0.040629448           14 
 4387000    0.5534877   -4.2041958    2213.6524  0.042049472  0.040619937            9 
 4388000   0.55045257   -4.1896903    2209.1057  0.041953541   0.04061037           11 
 4389000   0.54738704   -4.2106414    2211.5365  0.041990137  0.040600814           11 
 4390000   0.55336536   -4.2022716    2211.4181  0.041978324  0.040591284           15 
 4391000    0.5527555   -4.1932954    2215.3707  0.042043776  0.040581736            9 
 4392000   0.55368691   -4.1840332    2215.3589  0.042033981  0.040572229            6 
 4393000   0.56077458   -4.2134674    2211.7233  0.041955446  0.040562723           14 
 4394000   0.55532455   -4.1927236    2213.7962   0.04198521  0.040553253           12 
 4395000   0.54415626   -4.2026605    2220.1016  0.042095215  0.040543774           10 
 4396000   0.53281567   -4.1922352    2221.1858   0.04210619  0.040534336           10 
 4397000   0.54887378   -4.1944872    2218.8969  0.042053235  0.040524866            6 
 4398000   0.54735054   -4.1892547    2218.2192  0.042030832  0.040515404            9 
 4399000   0.54914361   -4.1879748    2212.1142  0.041905625  0.040505912           12 
 4400000   0.55578979   -4.1925103     2221.109  0.042066458   0.04049644           10 
 4401000   0.55445956   -4.1841305     2216.915  0.041977486  0.040486962           27 
 4402000   0.55615534    -4.174969     2215.171  0.041934934  0.040477462           15 
 4403000   0.54840292   -4.2168164    2218.1513  0.041981817  0.040467966           10 
 4404000   0.54485295   -4.1988292    2213.0726  0.041876184  0.040458492           11 
 4405000   0.55207706   -4.1942258    2219.5849  0.041989876  0.040449017           13 
 4406000   0.54952415   -4.1979602    2214.5914  0.041885902  0.040439514           11 
 4407000      0.54305   -4.1883639     2217.262  0.041926897  0.040429999            3 
 4408000   0.53255888   -4.2033114    2216.6629  0.041906059   0.04042054            9 
 4409000    0.5454256   -4.1931146    2215.5323  0.041875185  0.040411061           10 
 4410000   0.54071966   -4.1798521    2214.8681  0.041853138  0.040401625           10 
 4411000   0.55054175   -4.2122761    2216.5954  0.041876282  0.040392192            8 
 4412000   0.54738956   -4.1946454    2212.3506  0.041786616   0.04038274           12 
 4413000   0.53817293   -4.2085606     2217.576  0.041875821  0.040373257           18 
 4414000   0.55365603   -4.1985357    2218.0282  0.041874872  0.040363774           14 
 4415000   0.54482746   -4.2108891    2222.7989  0.041955435    0.0403543           24 
 4416000   0.54817435   -4.2096738    2213.6095  0.041772522  0.040344804           19 
 4417000   0.54390479   -4.2082498    2211.7056  0.041727146  0.040335304           16 
 4418000   0.53797021   -4.1880896    2213.8639  0.041758411  0.040325786            9 
 4419000   0.53765024   -4.1951447    2216.4792   0.04179828  0.040316313           10 
 4420000   0.53575834   -4.1831858    2215.9544  0.041778929  0.040306842            8 
 4421000    0.5576815   -4.2219565    2213.2845  0.041719153  0.040297385           23 
 4422000   0.54578152    -4.217724     2212.217  0.041689602  0.040287929           16 
 4423000    0.5534285    -4.197943    2220.5173  0.041836562  0.040278515            5 
 4424000   0.54723101    -4.205629    2217.4669  0.041769644  0.040269117           19 
 4425000    0.5462272   -4.2109311    2215.5829  0.041724726  0.040259685           12 
 4426000   0.54088801   -4.2033941    2223.4784  0.041863955  0.040250223           13 
 4427000   0.53474996   -4.2333466    2217.1502  0.041735378  0.040240749           24 
 4428000   0.55683143   -4.2001646     2219.657  0.041773129  0.040231304            8 
 4429000   0.54206361   -4.1987456    2217.2699  0.041718783  0.040221843            5 
 4430000   0.54656362   -4.2123236     2223.078  0.041818623  0.040212408           15 
 4431000   0.54240178   -4.1902669    2220.2469  0.041755941  0.040203007           14 
 4432000    0.5497809   -4.2100395    2222.0898  0.041781171  0.040193632           12 
 4433000   0.55490786   -4.2085417     2219.747  0.041727706  0.040184205           12 
 4434000   0.54529713   -4.1928188    2218.3813  0.041692627  0.040174796           13 
 4435000   0.54763235   -4.2100966    2213.7867  0.041596893  0.040165362           17 
 4436000   0.55148253   -4.2238548     2216.281  0.041634373  0.040155931           17 
 4437000   0.54091142   -4.1842755    2216.0881  0.041621368  0.040146469            6 
 4438000   0.54383691   -4.2223402    2210.6331   0.04150956   0.04013704           15 
 4439000   0.53753126   -4.2012602    2214.4234  0.041571363  0.040127585           15 
 4440000   0.53665907   -4.2215983     2213.754  0.041549436  0.040118173           33 
 4441000   0.53915687   -4.2061229    2220.8412  0.041673069  0.040108759           23 
 4442000   0.54302699   -4.2068707    2217.6008  0.041602897  0.040099359           15 
 4443000    0.5516289   -4.1897008    2218.0304   0.04160159  0.040089968           10 
 4444000    0.5406491   -4.1992504    2223.1797  0.041688789   0.04008061           13 
 4445000   0.52733002   -4.1927268    2218.8165   0.04159761  0.040071254           12 
 4446000   0.54298994   -4.2164791    2220.7429   0.04162436  0.040061848           26 
 4447000   0.53155282   -4.2040222    2223.1138   0.04165943  0.040052425           13 
 4448000   0.53561832    -4.210822    2217.4371  0.041543711  0.040043026           15 
 4449000   0.53823162   -4.2277744    2219.5083  0.041573169   0.04003362           13 
 4450000   0.53551777   -4.2252322    2213.7448  0.041455894  0.040024215            9 
 4451000   0.53398431   -4.2161337    2222.8506  0.041617063  0.040014838            7 
 4452000    0.5332942   -4.2111664    2217.4491  0.041506609  0.040005456           38 
 4453000   0.53742692   -4.2054318    2216.9653  0.041488235  0.039996072           20 
 4454000   0.54344068   -4.2262499    2214.5912  0.041434501  0.039986652           26 
 4455000   0.53806489   -4.2066986    2223.5403  0.041592598  0.039977224           11 
 4456000   0.54002378   -4.2181441    2215.8554  0.041439545  0.039967776           15 
 4457000   0.54114259   -4.2254774    2217.5725  0.041462354  0.039958324           13 
 4458000   0.54145454    -4.198883    2215.4117  0.041412662   0.03994888            9 
 4459000   0.53562296    -4.196523    2219.7711  0.041484845  0.039939453           19 
 4460000   0.55029073   -4.2311988    2215.4116  0.041394089  0.039930013           10 
 4461000    0.5557193   -4.1975216    2218.4504  0.041441575  0.039920606           13 
 4462000   0.52877664   -4.2331427    2212.9963  0.041330426  0.039911188            9 
 4463000   0.53865811   -4.2089939     2211.921  0.041301086  0.039901763           12 
 4464000    0.5401415   -4.2244735    2214.4884  0.041339763  0.039892332           21 
 4465000   0.53457311   -4.2055208    2215.6295    0.0413518  0.039882885           16 
 4466000   0.54110352   -4.2169279    2216.8365  0.041365064  0.039873458           23 
 4467000    0.5414717   -4.2062919    2218.3636  0.041384293  0.039864047           22 
 4468000   0.53404112    -4.206489    2223.4062  0.041469081   0.03985465           15 
 4469000   0.53638961   -4.2111472    2216.2263  0.041325917   0.03984521           24 
 4470000   0.54360415   -4.2078717    2219.1145  0.041370516  0.039835754           17 
 4471000   0.53016663   -4.2173471     2218.544   0.04135063  0.039826273           19 
 4472000   0.53571863   -4.2218656    2218.3392  0.041337568  0.039816804           12 
 4473000   0.53463065   -4.2124685    2221.2004   0.04138163  0.039807333            7 
 4474000   0.52363242   -4.2084955    2217.0562   0.04129519  0.039797894           12 
 4475000   0.53295057   -4.2164651     2215.165  0.041250745  0.039788434           14 
 4476000    0.5421221   -4.2146052     2218.221  0.041298425   0.03977903           29 
 4477000   0.52612721   -4.2187909    2216.0854   0.04124945  0.039769644           37 
 4478000   0.54018791   -4.2256718    2214.7672  0.041215706  0.039760187           16 
 4479000   0.54057606   -4.2391017    2216.5529  0.041239728  0.039750683           21 
 4480000   0.54005737   -4.2424162    2216.2661  0.041225187  0.039741191           14 
 4481000   0.53737673   -4.2306862    2213.9157  0.041172278   0.03973168           12 
 4482000   0.54952957    -4.217169    2217.4762  0.041229292  0.039722213            9 
 4483000   0.53197712    -4.223945    2216.7625  0.041206828  0.039712798           31 
 4484000   0.53200709   -4.2212185    2216.7987   0.04119831  0.039703339           16 
 4485000   0.53735414   -4.2278501    2210.7742  0.041077187  0.039693878            9 
 4486000   0.54621652   -4.2363917    2214.4469  0.041136255  0.039684419           17 
 4487000   0.54645264   -4.2131999    2217.2348  0.041178866  0.039675014           16 
 4488000   0.53092046   -4.2374107    2212.6575  0.041084699  0.039665582           12 
 4489000   0.54194747   -4.2162777    2216.3742  0.041144542  0.039656168            9 
 4490000   0.52904697   -4.2114185    2215.0626  0.041111035  0.039646743            5 
 4491000   0.52671354   -4.2246492    2222.3423  0.041236962  0.039637269           11 
 4492000   0.53254574   -4.2146484    2219.0187  0.041166123   0.03962783           11 
 4493000   0.53061223    -4.220034    2214.8297  0.041079265   0.03961843           15 
 4494000   0.54424164    -4.217674    2210.4173  0.040988304  0.039608984           17 
 4495000   0.53871251   -4.2256291    2218.7311  0.041133317  0.039599598           15 
 4496000   0.54281344   -4.2244106    2213.4735  0.041026719  0.039590189           18 
 4497000   0.53132363   -4.2304467    2213.1709  0.041011988  0.039580771           27 
 4498000   0.53177967   -4.2210287    2216.8074  0.041070243   0.03957132            9 
 4499000    0.5261767   -4.2291866     2210.404  0.040942505   0.03956188           24 
 4500000   0.53071879   -4.2312832     2213.576  0.040992148  0.039552419           19 
 4501000   0.54514473   -4.2338256    2213.1303  0.040974789  0.039542993           17 
 4502000    0.5423524   -4.2224863     2217.971   0.04105529  0.039533571           16 
 4503000   0.52109651   -4.2185013    2211.7758  0.040931523   0.03952416           14 
 4504000   0.52349905   -4.2200221    2215.9705  0.041000047  0.039514757           33 
 4505000   0.53762512   -4.2280083    2216.8251  0.041006753  0.039505361           12 
 4506000   0.53363749   -4.2420337    2211.9777  0.040908006  0.039495973           21 
 4507000   0.53524939    -4.218383    2214.8082  0.040951264  0.039486564           14 
 4508000   0.52954136   -4.2278716    2214.3057  0.040932892  0.039477176           14 
 4509000    0.5267104   -4.2252339    2208.6661  0.040819586  0.039467743           15 
 4510000   0.52262494   -4.2395562    2215.0474  0.040928445  0.039458306           13 
 4511000   0.51880139   -4.2187822    2215.9941  0.040936861  0.039448883           35 
 4512000   0.53368046   -4.2436157     2212.704  0.040867021  0.039439482            7 
 4513000   0.52476595    -4.249537    2216.9116  0.040935661  0.039430003           14 
 4514000   0.53911095   -4.2546971    2216.7884  0.040924316  0.039420565           17 
 4515000   0.53135555   -4.2338526    2215.5444  0.040892293  0.039411112           11 
 4516000   0.52181062   -4.2244696    2213.8401  0.040851788  0.039401659           13 
 4517000   0.52925532   -4.2339032    2212.6628  0.040821024  0.039392255           11 
 4518000   0.54035258    -4.239792    2217.0569  0.040893038  0.039382825           13 
 4519000   0.52919909    -4.218194    2217.8463  0.040898545  0.039373388           14 
 4520000   0.52976145   -4.2226637    2221.6768  0.040960117  0.039363946           15 
 4521000   0.51948901   -4.2261364    2217.0147  0.040865124  0.039354549            9 
 4522000   0.52661521   -4.2286874    2216.7382  0.040850991  0.039345136           13 
 4523000   0.53360259    -4.247079    2216.8607  0.040844216  0.039335691           12 
 4524000   0.51786074   -4.2256718    2212.5612   0.04075599  0.039326257           12 
 4525000   0.53869421   -4.2240767    2214.1148  0.040775595  0.039316843           11 
 4526000   0.54101938   -4.2545735    2220.5986  0.040885967  0.039307447           18 
 4527000   0.52618982   -4.2433055     2220.517  0.040875433  0.039298042           13 
 4528000   0.52727161   -4.2330867    2216.0804  0.040784753  0.039288674           12 
 4529000   0.53626569   -4.2209932    2218.1755  0.040814298  0.039279333           11 
 4530000   0.51940873   -4.2247358    2221.8891  0.040873603  0.039269999            8 
 4531000   0.52894464   -4.2283641    2217.3654  0.040781384  0.039260609            9 
 4532000   0.52428158   -4.2326628    2219.4759  0.040811192  0.039251249           21 
 4533000   0.53199698   -4.2309979    2216.2439  0.040742773  0.039241895           61 
 4534000   0.52993975   -4.2461389    2219.4982    0.0407936  0.039232531           23 
 4535000   0.52654574   -4.2379886    2220.2147  0.040797772  0.039223164           36 
 4536000   0.51304268   -4.2364309    2222.4221  0.040829331  0.039213771           30 
 4537000    0.5274383   -4.2343746    2216.1091  0.040704378   0.03920434           35 
 4538000   0.52768711   -4.2285827    2218.4635  0.040738643  0.039194937           13 
 4539000   0.53986259   -4.2308246     2212.944  0.040628333  0.039185511           11 
 4540000   0.51978617   -4.2385633    2210.0139  0.040565599   0.03917609            9 
 4541000   0.53037212   -4.2398009    2218.4849  0.040712122  0.039166713           14 
 4542000   0.52703249   -4.2256208    2216.7285  0.040670932  0.039157318           23 
 4543000   0.52727494   -4.2390885    2218.2864  0.040690557  0.039147903           16 
 4544000   0.52692744    -4.241272    2212.9998  0.040584651  0.039138553           16 
 4545000   0.53152628   -4.2415068    2214.6409   0.04060581  0.039129183           14 
 4546000    0.5234727   -4.2671162    2212.5864  0.040559217  0.039119777            8 
 4547000   0.52704135   -4.2580664    2211.2513  0.040525829  0.039110313           17 
 4548000   0.52970589    -4.252972    2215.5839  0.040596304  0.039100886            9 
 4549000   0.54474676   -4.2362164    2211.6425  0.040515177  0.039091461           31 
 4550000   0.53002641   -4.2495955    2212.8773  0.040528888  0.039082039           34 
 4551000   0.53521459   -4.2278216    2218.4324  0.040621703  0.039072635           24 
 4552000   0.52865151   -4.2440391    2217.4397  0.040594604  0.039063237           11 
 4553000   0.51991065   -4.2479411    2213.8967  0.040520842  0.039053856           12 
 4554000   0.52101608   -4.2345269    2212.5579  0.040487445  0.039044442            8 
 4555000   0.51810846   -4.2533428    2206.7677  0.040372626  0.039035037           19 
 4556000    0.5104017   -4.2434687    2209.1436  0.040407221  0.039025612           16 
 4557000   0.51924843   -4.2397949    2216.5759  0.040534267  0.039016171           12 
 4558000   0.51370428   -4.2414833    2210.2106  0.040408999  0.039006755           17 
 4559000   0.51846137   -4.2506299    2214.3459  0.040475723   0.03899733           16 
 4560000   0.52467202   -4.2556472    2221.5048  0.040597675  0.038987926            8 
 4561000   0.51510282   -4.2462624    2220.2907  0.040566592   0.03897857            9 
 4562000    0.5201207   -4.2517266    2215.4633  0.040469517  0.038969191           12 
 4563000   0.52899552    -4.240443    2214.7735  0.040448052    0.0389598           18 
 4564000   0.52232503   -4.2703988    2216.5605  0.040471817  0.038950432           18 
 4565000   0.53402886     -4.25182    2214.6422  0.040427933  0.038941006           45 
 4566000   0.52451937   -4.2459177    2211.8115  0.040367417  0.038931623           14 
 4567000   0.51590814    -4.254482    2216.7569  0.040448816  0.038922247           10 
 4568000   0.51976502   -4.2465462    2216.8893  0.040442376  0.038912852           16 
 4569000    0.5218522    -4.237216    2217.0243  0.040435988  0.038903513            9 
 4570000   0.52430949   -4.2317632    2212.8996  0.040351926  0.038894169           10 
 4571000   0.51886471   -4.2413438     2216.556  0.040409758  0.038884839            6 
 4572000   0.51866233   -4.2394597    2218.3809  0.040434181  0.038875457            9 
 4573000   0.52333019   -4.2450593    2215.3585  0.040370263  0.038866049           16 
 4574000   0.52364945   -4.2463932    2215.9856   0.04037286  0.038856672           14 
 4575000   0.51350764   -4.2694851    2216.6664  0.040376438  0.038847267            8 
 4576000   0.52329136   -4.2554064     2214.415  0.040326613  0.038837902           16 
 4577000   0.52267677   -4.2574182    2220.4298  0.040427314  0.038828487           12 
 4578000   0.51981519   -4.2573138    2219.4028   0.04039979  0.038819075           15 
 4579000   0.53033301   -4.2450525    2214.2868   0.04029786  0.038809692           21 
 4580000   0.52662059   -4.2503175    2215.0847  0.040303579  0.038800296           30 
 4581000   0.52017092   -4.2570473     2211.404  0.040227826  0.038790898           14 
 4582000   0.51153133   -4.2470802    2218.6718  0.040351226  0.038781504           11 
 4583000   0.52365624   -4.2276572    2213.2344  0.040243553   0.03877212           30 
 4584000   0.52966722   -4.2629182    2212.5629  0.040222566   0.03876275           19 
 4585000   0.52903095     -4.24194    2219.3346   0.04033687  0.038753384           26 
 4586000   0.51090975   -4.2465161    2209.9052  0.040156731  0.038744024           10 
 4587000   0.52185715   -4.2505685    2211.3366  0.040173981  0.038734601            8 
 4588000   0.51365751   -4.2486777    2218.6081    0.0402973  0.038725212           14 
 4589000   0.52700914   -4.2548379    2212.2423  0.040172919  0.038715808           10 
 4590000   0.51545771   -4.2590726    2212.7187  0.040172815  0.038706432           11 
 4591000   0.51722894   -4.2499511    2216.7031  0.040236389  0.038697054           25 
 4592000   0.50766214   -4.2618128    2207.8118  0.040066271  0.038687672           15 
 4593000   0.50825952   -4.2621473    2211.2565  0.040120047  0.038678251           26 
 4594000   0.52632825   -4.2472904    2214.2248  0.040165158  0.038668907           17 
 4595000   0.51660378   -4.2496974    2216.7808  0.040202771  0.038659518           14 
 4596000   0.52225166   -4.2661518    2213.6141  0.040136606  0.038650138           12 
 4597000    0.5117985    -4.261776    2212.2089  0.040102402  0.038640748           34 
 4598000   0.51262116   -4.2561125    2214.7708  0.040140112  0.038631371           13 
 4599000   0.51680931   -4.2613718    2219.6392  0.040219598  0.038622017           24 
 4600000   0.52385362   -4.2775575    2215.7331  0.040140092  0.038612684           18 
 4601000   0.51232714     -4.25044    2211.3175  0.040051393  0.038603301           15 
 4602000   0.51268984   -4.2693836    2215.9642  0.040126832  0.038593928           22 
 4603000   0.51342333    -4.258009    2218.2318  0.040159168  0.038584563            8 
 4604000   0.51419127   -4.2525208    2213.2962   0.04006111  0.038575235           32 
 4605000   0.52373112   -4.2543661    2214.8119  0.040079839  0.038565897            9 
 4606000   0.51986045   -4.2489187    2215.9634  0.040091971  0.038556577           13 
 4607000   0.52210162   -4.2698957    2214.9157  0.040064316  0.038547274           18 
 4608000   0.51370407   -4.2532878     2217.867  0.040108996  0.038537973           15 
 4609000   0.51851344   -4.2485986    2218.6767  0.040114932  0.038528682           19 
 4610000   0.52474109   -4.2460122    2216.1216  0.040060043  0.038519443            5 
 4611000   0.51409097   -4.2477893    2219.8113  0.040118039  0.038510158           11 
 4612000    0.5234618   -4.2489387    2214.8246  0.040019237  0.038500874           13 
 4613000   0.51929043   -4.2546933    2217.4648  0.040058255  0.038491581           11 
 4614000   0.51937505   -4.2571513    2216.8761  0.040038942  0.038482341           17 
 4615000   0.51103835   -4.2683847    2219.7279   0.04008176  0.038473072           13 
 4616000   0.51063705   -4.2481126    2212.7983  0.039947977  0.038463802           31 
 4617000   0.52575731   -4.2720416    2211.6408  0.039918432  0.038454511           25 
 4618000   0.51093106   -4.2496556    2216.9692   0.04000594  0.038445232            6 
 4619000   0.50632989   -4.2585346     2217.943  0.040014847  0.038436007           10 
 4620000   0.52373846   -4.2654014    2212.6575  0.039910849  0.038426739           40 
 4621000   0.51412818    -4.272134    2217.4669  0.039988944  0.038417467           61 
 4622000    0.5115022   -4.2657754    2216.9872  0.039971642  0.038408169           23 
 4623000   0.51359316   -4.2656025    2217.8798  0.039979086  0.038398871           21 
 4624000   0.51521465   -4.2683503     2219.672  0.040002739   0.03838958           25 
 4625000   0.51601321   -4.2746381    2218.9384  0.039980871  0.038380287           16 
 4626000   0.50284408   -4.2823333    2214.7658  0.039897063  0.038371009           18 
 4627000    0.4960786   -4.2735345    2213.2293  0.039860768  0.038361683           12 
 4628000   0.50558046   -4.2644757    2211.0515  0.039812941  0.038352384           26 
 4629000   0.51287329   -4.2511757    2223.1923  0.040022905  0.038343112           25 
 4630000   0.51428634   -4.2836383    2217.1861  0.039906158  0.038333862           39 
 4631000   0.50784869   -4.2616683     2222.439  0.039992065  0.038324645           21 
 4632000   0.50474115   -4.2563529    2217.7129  0.039898404  0.038315442            7 
 4633000    0.5048083   -4.2697994    2219.0816  0.039914412  0.038306246           12 
 4634000   0.50899073    -4.284928    2217.5064  0.039877471  0.038296993           17 
 4635000   0.50602454   -4.2818873    2219.5726  0.039906016  0.038287719           14 
 4636000   0.50747165   -4.2541833    2220.1892  0.039908492  0.038278478            6 
 4637000   0.51243918   -4.2776782    2220.3638  0.039903023   0.03826924           12 
 4638000   0.50444743   -4.2742746    2216.6017  0.039826825  0.038260031           18 
 4639000    0.5185113   -4.2639204    2222.3486  0.039921473  0.038250841           10 
 4640000   0.51022706   -4.2579529    2216.6765     0.039811  0.038241616            7 
 4641000   0.51398352   -4.2678236    2225.9323  0.039968618  0.038232414           16 
 4642000   0.51427656   -4.2734647    2217.5339  0.039809241   0.03822321           24 
 4643000   0.50615451   -4.2654477    2215.9342  0.039771954  0.038213997           25 
 4644000   0.51691891   -4.2726826    2218.0596  0.039801529  0.038204792           11 
 4645000   0.50637832   -4.2582658    2222.1597  0.039866517  0.038195638            9 
 4646000   0.51720527   -4.2829284    2219.1294  0.039803583  0.038186438           23 
 4647000   0.50578069   -4.2692424    2222.2298  0.039850616  0.038177263           31 
 4648000   0.51128006   -4.2665829    2225.3708  0.039898358  0.038168122           12 
 4649000   0.49712262   -4.2668254    2221.2411   0.03981575  0.038158955            6 
 4650000    0.5019683   -4.2689275    2217.4055  0.039738451  0.038149752           12 
 4651000   0.50705315   -4.2802512    2219.2989  0.039763831  0.038140542           13 
 4652000   0.50842394    -4.255146    2216.5928  0.039706807  0.038131349           13 
 4653000   0.50248889   -4.2596506    2222.9232  0.039811649  0.038122166           13 
 4654000    0.5036645   -4.2772354    2220.3149  0.039756391  0.038112997           14 
 4655000   0.49903116   -4.2817362     2218.894  0.039722413  0.038103827           16 
 4656000   0.52173205   -4.2748034    2216.6524  0.039673761  0.038094645           17 
 4657000   0.51278199   -4.2807919    2224.8709  0.039812306  0.038085473           28 
 4658000   0.49705923    -4.283144    2220.2317  0.039720761  0.038076277           13 
 4659000   0.51503675    -4.277746    2220.4761  0.039716608  0.038067079           21 
 4660000   0.51671213   -4.2806369    2215.6228  0.039621295  0.038057897            7 
 4661000   0.51325929   -4.2697888    2218.7603  0.039668889  0.038048705           13 
 4662000   0.49959356   -4.2702301    2217.0824  0.039630387  0.038039529           11 
 4663000   0.51195859    -4.290443    2220.5398  0.039683676  0.038030325            9 
 4664000   0.51014105   -4.2641833    2220.3151  0.039671152  0.038021143           17 
 4665000   0.50450548   -4.2895855    2215.5313  0.039577194  0.038011985           23 
 4666000   0.49656992   -4.2925709    2215.8315  0.039574074  0.038002816           15 
 4667000   0.51364177   -4.2648712    2218.2855  0.039609411  0.037993652           16 
 4668000    0.5041485   -4.2607117     2220.399  0.039638656  0.037984486           17 
 4669000   0.50774137    -4.275321    2218.4937  0.039596162  0.037975306           11 
 4670000   0.50355083   -4.2664054    2220.5599  0.039624552   0.03796614           11 
 4671000   0.50905857   -4.2984889    2225.2565  0.039699859   0.03795702            9 
 4672000   0.50340923   -4.2788036    2219.1882  0.039583122  0.037947851           12 
 4673000   0.50168279    -4.269689    2221.9854  0.039624535  0.037938705           15 
 4674000   0.49522158   -4.2853968    2217.5422  0.039536839  0.037929533           22 
 4675000   0.49181669    -4.279093    2217.0809  0.039520158  0.037920352           33 
 4676000   0.49759531   -4.2797562    2218.4445  0.039536009  0.037911142           10 
 4677000   0.50896294   -4.2731232    2220.0872  0.039556823  0.037901951           11 
 4678000   0.50317305   -4.2802431    2219.9963   0.03954675  0.037892791           24 
 4679000    0.4980195   -4.2769683    2222.0947   0.03957567  0.037883638           11 
 4680000   0.49354484   -4.2802659    2219.7054   0.03952467  0.037874481           12 
 4681000   0.50470139   -4.2915883    2219.5094  0.039512736  0.037865303           25 
 4682000   0.49756074   -4.2721201    2216.5037  0.039450799  0.037856148           22 
 4683000   0.50405302   -4.2953338    2215.7549  0.039429051  0.037846932           13 
 4684000   0.48798746   -4.2909143    2218.1973  0.039464086  0.037837699           21 
 4685000   0.50738572   -4.2931106    2215.9416  0.039415539  0.037828463           38 
 4686000   0.50166328   -4.3098165    2219.3596  0.039467911  0.037819228           22 
 4687000   0.50321463   -4.3059028    2215.0425  0.039382734  0.037810012           27 
 4688000   0.50204707   -4.2859297    2215.5473  0.039383307   0.03780079           22 
 4689000   0.50339271   -4.2936497    2214.7202  0.039360208  0.037791588           11 
 4690000   0.49078143   -4.2818737     2220.723  0.039458476   0.03778241           25 
 4691000   0.48923795   -4.2743156    2216.4153   0.03937354  0.037773259           35 
 4692000   0.50972458   -4.2801685    2222.7551  0.039477748  0.037764101           13 
 4693000   0.50189984   -4.2668014    2218.0563  0.039385899  0.037754954           29 
 4694000   0.49307226   -4.2813447    2215.5823  0.039333586  0.037745791           10 
 4695000   0.50286715   -4.3067264     2214.523  0.039306408  0.037736636           20 
 4696000   0.50811289   -4.2881298    2217.9543  0.039358928  0.037727447           14 
 4697000   0.51042404   -4.2814992    2219.9053  0.039385162  0.037718266           42 
 4698000   0.49790928   -4.2849877    2216.6163  0.039318439  0.037709118           41 
 4699000   0.51290236   -4.2914458    2215.3347  0.039287344  0.037699957           41 
 4700000   0.49527361   -4.2954952    2214.9138  0.039271521  0.037690801           35 
 4701000    0.5008545   -4.2834155    2214.8223  0.039261545  0.037681609           22 
 4702000   0.50252831   -4.2814955    2218.3759  0.039316177  0.037672408           30 
 4703000   0.49101309   -4.2976678    2219.1846  0.039322145  0.037663241           32 
 4704000   0.49437063   -4.2957194    2214.0938  0.039223601  0.037654052           24 
 4705000   0.49308137   -4.3081526    2208.5295  0.039116711  0.037644846           15 
 4706000   0.49266416   -4.2884162    2211.9496  0.039168962  0.037635629           40 
 4707000   0.50337472   -4.3026977    2222.0801  0.039339992  0.037626443           20 
 4708000   0.49689553   -4.3039388    2218.7883  0.039273371  0.037617272           12 
 4709000   0.49327138   -4.2913094    2213.6439  0.039173991  0.037608107           13 
 4710000   0.49203907   -4.2976642    2219.9852  0.039277871  0.037598983           18 
 4711000   0.49845767   -4.2855625    2217.0774  0.039218095   0.03758981            8 
 4712000   0.49297245   -4.2868141    2219.6131  0.039254617  0.037580659           10 
 4713000   0.49456538   -4.3079159    2219.0902  0.039237043  0.037571515            9 
 4714000    0.4887854   -4.2926744    2216.2367  0.039178275  0.037562367           11 
 4715000   0.49617787   -4.2946444       2216.1  0.039167551  0.037553203           11 
 4716000   0.49145236   -4.2820101    2219.0074   0.03921062  0.037544071           13 
 4717000    0.5160681   -4.3052392    2211.2416  0.039065112   0.03753491           16 
 4718000   0.49102891   -4.3021786    2216.5752  0.039151038  0.037525777           35 
 4719000   0.48998579   -4.2904532    2216.6078  0.039143317   0.03751667           22 
 4720000   0.51587108   -4.2962618    2218.6013  0.039170221  0.037507547           18 
 4721000   0.49669281   -4.2853213    2216.2962  0.039121234  0.037498434           12 
 4722000   0.50044276   -4.2997818    2218.8963  0.039158836  0.037489327            8 
 4723000   0.49126613   -4.2781496    2211.4486  0.039019137  0.037480212            8 
 4724000   0.49181564   -4.2960743    2216.1049  0.039093016  0.037471076           15 
 4725000    0.4965397   -4.3106629    2216.4312  0.039090497  0.037461947           33 
 4726000   0.49264432   -4.2945206    2213.0825  0.039023178  0.037452796           12 
 4727000   0.49032763   -4.3163161    2216.1489  0.039068982  0.037443605           12 
 4728000   0.50126268   -4.2957307    2217.4072  0.039082897  0.037434411           28 
 4729000   0.49434989   -4.3004259     2218.018  0.039085395  0.037425257           20 
 4730000   0.49883701   -4.3201751    2211.9555  0.038970323  0.037416091           18 
 4731000   0.48702169   -4.2930583    2215.7178  0.039028355  0.037406894            9 
 4732000   0.50655463   -4.2915141    2218.9445  0.039076931  0.037397712           13 
 4733000   0.49537307   -4.3159566    2218.3468  0.039058151   0.03738854           10 
 4734000    0.4924861   -4.2942797    2213.8856   0.03897137   0.03737942           10 
 4735000   0.49389891   -4.3062198    2217.4746  0.039026304  0.037370259           12 
 4736000   0.49646587   -4.2831457    2216.3292   0.03899791  0.037361125           26 
 4737000   0.48508902   -4.3180223    2215.4793  0.038974726  0.037352001           34 
 4738000   0.49369483   -4.2923171    2221.1746   0.03906667  0.037342863           26 
 4739000   0.50103222    -4.303163    2215.8018  0.038963947  0.037333741           31 
 4740000   0.49252929   -4.3095328    2220.8017   0.03904363  0.037324627           26 
 4741000   0.48720423   -4.3220166    2215.0357  0.038934045  0.037315478           54 
 4742000   0.49455584   -4.3204263    2218.3151  0.038983465  0.037306348            8 
 4743000   0.49096256   -4.3273287    2221.4793   0.03903084  0.037297238           29 
 4744000   0.49629091   -4.3053374    2220.0189   0.03899696   0.03728814           18 
 4745000   0.48878099   -4.2978558    2217.6361  0.038946894  0.037279041           24 
 4746000   0.49745001   -4.2855746    2214.6031  0.038885431  0.037269938           18 
 4747000   0.49819054   -4.2943768    2219.1997  0.038957933  0.037260844            8 
 4748000   0.50000903   -4.2922682    2216.3022  0.038898872  0.037251753           17 
 4749000    0.4766817   -4.3105847    2221.1356  0.038975497  0.037242663           11 
 4750000   0.48160101   -4.3098963     2211.651  0.038800895  0.037233566           29 
 4751000   0.49291331   -4.3065574    2218.4793  0.038912497  0.037224448           13 
 4752000   0.48975818   -4.3165424    2215.1114  0.038845248   0.03721535            8 
 4753000   0.48883136   -4.3191933    2216.0642   0.03885378  0.037206245           41 
 4754000   0.49128573   -4.3188506    2213.8981  0.038807638  0.037197146            9 
 4755000   0.49472907   -4.3033516    2214.3871  0.038808046  0.037188017           34 
 4756000   0.48773469   -4.3111253    2216.7318  0.038840969  0.037178901           18 
 4757000   0.49317047   -4.3111394    2216.2148  0.038823747  0.037169778           19 
 4758000   0.49316603   -4.3187544    2214.1358  0.038779175  0.037160666           16 
 4759000   0.49578831   -4.3085641    2216.5792  0.038813812  0.037151562           14 
 4760000   0.49424176   -4.2919412    2221.3913  0.038889903  0.037142534           17 
 4761000    0.4988403   -4.3054063    2217.2314  0.038808923  0.037133484           29 
 4762000   0.49392839   -4.3121882     2221.826  0.038881178  0.037124419           13 
 4763000   0.49172335   -4.3056987    2219.1149  0.038825581  0.037115377           22 
 4764000   0.49683156   -4.3025101    2220.7355  0.038845779  0.037106354           20 
 4765000   0.48251807   -4.3186008    2218.0918  0.038791393  0.037097303           18 
 4766000   0.49263817   -4.3110196    2215.9082  0.038745073  0.037088217           11 
 4767000   0.48402469   -4.3119585    2218.3721  0.038780017  0.037079145           18 
 4768000   0.47791786   -4.3017615    2215.0106  0.038713133  0.037070069           14 
 4769000   0.47892093    -4.310247    2218.9576  0.038773984  0.037061007           13 
 4770000   0.48347363   -4.3267047    2215.0527  0.038697637  0.037051926           13 
 4771000   0.48392322   -4.3095871    2216.1734  0.038709099  0.037042843           16 
 4772000   0.49145256   -4.3140547    2213.0409  0.038646286  0.037033771           24 
 4773000   0.49663264   -4.3089812    2215.9459  0.038688908   0.03702469           22 
 4774000   0.48468626   -4.3103592    2215.1298  0.038666558  0.037015599           12 
 4775000   0.48926168    -4.329911    2215.3699  0.038662651  0.037006508           11 
 4776000   0.48016155   -4.3174311     2214.909  0.038646514  0.036997378           13 
 4777000   0.48860822    -4.335641    2211.5461  0.038579759  0.036988256           11 
 4778000   0.48349353   -4.3177519    2210.9595  0.038561453  0.036979154           19 
 4779000   0.49322791   -4.3209525    2221.3083  0.038733841  0.036970058           37 
 4780000   0.49243078   -4.3315363    2221.0199  0.038720709  0.036960994           33 
 4781000   0.49063268    -4.314343    2217.6894  0.038654559  0.036951938           39 
 4782000   0.48618344    -4.341805    2215.6625  0.038611154  0.036942853           14 
 4783000   0.49713331   -4.3072235    2219.7965  0.038675108  0.036933795            8 
 4784000   0.48214248   -4.3223085    2220.3955  0.038677457  0.036924755           19 
 4785000   0.49708145   -4.3181294    2215.0564  0.038576392  0.036915725           25 
 4786000   0.48488054   -4.3412841    2218.6007  0.038630044  0.036906675           18 
 4787000    0.4810086   -4.3283333    2211.6892  0.038501658  0.036897612           24 
 4788000   0.47563381   -4.3097533    2215.5177   0.03856025  0.036888535           32 
 4789000   0.49078923   -4.3290788    2217.8462  0.038592716  0.036879482           35 
 4790000   0.47880565   -4.3239679    2217.6625  0.038581463  0.036870457           11 
 4791000   0.48177644   -4.3202248    2214.0272   0.03851018  0.036861473           15 
 4792000   0.49145724   -4.3284328    2215.5765  0.038529085  0.036852455           16 
 4793000   0.48845051    -4.331328    2218.5699  0.038573092  0.036843463           29 
 4794000   0.47935966   -4.3177428    2220.6512  0.038601224  0.036834453           15 
 4795000   0.48073015    -4.310936    2217.8313  0.038544166  0.036825472           22 
 4796000     0.480623   -4.3206924    2220.5765  0.038583828  0.036816469           15 
 4797000   0.49365544   -4.3363929    2217.6818  0.038525498  0.036807456           46 
 4798000   0.47551029   -4.3130974    2215.1125  0.038472844  0.036798459           14 
 4799000   0.48071502   -4.3231729    2212.3834  0.038417438  0.036789448           23 
 4800000   0.48229649   -4.3091267    2212.9683  0.038419588  0.036780406           12 
 4801000   0.47752054   -4.3144321    2221.5479  0.038560506  0.036771397           13 
 4802000   0.48990113   -4.3238282    2219.4222  0.038515587  0.036762421           12 
 4803000   0.48946409    -4.324942    2219.0941  0.038501876  0.036753426           30 
 4804000   0.48065401   -4.3052911    2217.2461  0.038461805  0.036744459           37 
 4805000   0.48102293   -4.3165204    2217.5655   0.03845934  0.036735503           41 
 4806000   0.47745023   -4.3342464    2215.1501  0.038409456  0.036726496           37 
 4807000   0.47758614   -4.3218645    2216.3961  0.038423065  0.036717487           48 
 4808000   0.48340081   -4.3194383    2219.0361  0.038460831  0.036708509           46 
 4809000   0.47862565   -4.3079816     2217.358  0.038423753  0.036699529           36 
 4810000   0.48195673   -4.3165379    2217.8464  0.038424227  0.036690513           30 
 4811000   0.48105696   -4.3093459      2217.07  0.038402791  0.036681502           55 
 4812000   0.49029076   -4.3484531    2217.8061  0.038407559  0.036672444           40 
 4813000    0.4845871   -4.3222946    2215.9634  0.038367674  0.036663441           53 
 4814000   0.48008477   -4.3463309    2212.2106  0.038294741   0.03665441           50 
 4815000   0.47561177   -4.3413142    2212.2685   0.03828779  0.036645351           56 
 4816000   0.48236361   -4.3444857    2211.1934  0.038261237  0.036636273           76 
 4817000   0.48790236   -4.3305899    2216.6255  0.038347268  0.036627224           29 
 4818000   0.47898072   -4.3243358    2218.3069  0.038368392  0.036618184           24 
 4819000   0.46975218   -4.3347567    2212.8083  0.038265344  0.036609146           75 
 4820000   0.47858413   -4.3436496    2215.5996  0.038305664  0.036600107           21 
 4821000    0.4825445   -4.3202985    2213.0959  0.038254441  0.036591085           42 
 4822000   0.48052141   -4.3306582    2212.8806  0.038242787  0.036582012           15 
 4823000   0.47757503   -4.3353317    2213.1906  0.038240213  0.036572974           27 
 4824000   0.47639269   -4.3506756    2208.8697  0.038157645  0.036563892           28 
 4825000   0.47200981   -4.3479907    2215.3561  0.038261764  0.036554817           30 
 4826000   0.49187133   -4.3481594    2215.9996  0.038264948  0.036545724           34 
 4827000   0.48430041   -4.3363072    2215.9712   0.03825653  0.036536649            9 
 4828000    0.4816088   -4.3505913    2217.2083  0.038269958  0.036527604           19 
 4829000   0.47420484   -4.3497638    2216.1075  0.038243037   0.03651854           24 
 4830000   0.47412261   -4.3384951    2213.8512  0.038196191  0.036509483           13 
 4831000   0.47875006   -4.3412047    2213.2127  0.038177269  0.036500427           10 
 4832000   0.48294874   -4.3234085    2216.9846  0.038234419  0.036491406           15 
 4833000   0.47954724   -4.3045209    2212.0532  0.038141478  0.036482417           21 
 4834000   0.46000215   -4.3240342    2212.0926  0.038134267  0.036473411           41 
 4835000    0.4788971   -4.3220566    2212.6172  0.038135423  0.036464426           19 
 4836000   0.47991009   -4.3125863    2217.1978  0.038206469  0.036455438           31 
 4837000   0.48220162   -4.3154249    2215.0298  0.038161218  0.036446438           17 
 4838000   0.47852821   -4.3255632    2220.4242  0.038246248  0.036437436           16 
 4839000   0.47579662   -4.3288774    2213.3128  0.038115877  0.036428431           41 
 4840000   0.48039432   -4.3131442    2213.8373  0.038117033  0.036419406           39 
 4841000   0.47830645    -4.329705    2212.0255  0.038077971  0.036410381           51 
 4842000    0.4718671   -4.3358922    2213.9914  0.038103942  0.036401356           43 
 4843000   0.47966715   -4.3454812    2214.3688  0.038102567  0.036392335           37 
 4844000   0.47871586    -4.340903    2211.5557  0.038046306  0.036383339           76 
 4845000    0.4833043   -4.3179689    2211.3688   0.03803524   0.03637435           15 
 4846000    0.4849537   -4.3338761    2214.8279  0.038086874  0.036365334           19 
 4847000   0.47913817   -4.3493143    2215.0771  0.038083301  0.036356337           20 
 4848000    0.4771447   -4.3286042      2215.75  0.038087012  0.036347357           12 
 4849000   0.47670794   -4.3312615    2214.6524  0.038060294  0.036338392           22 
 4850000    0.4723648   -4.3315105    2215.5529  0.038067919  0.036329424           28 
 4851000    0.4696207   -4.3280724    2214.8448  0.038047908  0.036320433            8 
 4852000   0.46884928   -4.3353839    2216.8431  0.038074387  0.036311435           23 
 4853000    0.4766359   -4.3489649    2215.0794  0.038036256  0.036302467           24 
 4854000   0.46897975   -4.3378348    2213.1621  0.037995504  0.036293471           20 
 4855000   0.46891015   -4.3419196    2213.5117  0.037993678  0.036284493           27 
 4856000   0.46492373   -4.3354033     2211.932  0.037958745  0.036275496           22 
 4857000   0.48402537   -4.3626032    2209.2213  0.037904422  0.036266478           30 
 4858000   0.46859164   -4.3356865    2208.3284  0.037881302  0.036257482           25 
 4859000   0.48971152   -4.3369685    2213.4991  0.037962185   0.03624851           50 
 4860000    0.4678758   -4.3556393    2218.1057  0.038033362  0.036239534           33 
 4861000   0.48191263   -4.3474599    2212.1377  0.037923228  0.036230563           89 
 4862000   0.47464315   -4.3542485    2208.0029  0.037844559  0.036221573          100 
 4863000   0.47275358   -4.3462726    2216.3738  0.037980222  0.036212552          122 
 4864000   0.46510016   -4.3502745    2214.5415  0.037941021  0.036203552           51 
 4865000   0.46774366   -4.3439562    2213.0211   0.03790718  0.036194556           75 
 4866000   0.46917608   -4.3528808    2209.4499  0.037838229  0.036185563           33 
 4867000   0.47008754   -4.3532634    2211.6393  0.037867942  0.036176544           62 
 4868000   0.47701465   -4.3485877     2214.983  0.037917403  0.036167557           54 
 4869000   0.47187084   -4.3233519    2211.1657  0.037844282  0.036158589           72 
 4870000   0.46461146   -4.3439855    2209.2675  0.037804031  0.036149609           64 
 4871000   0.46818098   -4.3488579    2211.9697  0.037842498  0.036140628           86 
 4872000   0.47039435   -4.3603186    2212.1792  0.037838314   0.03613163           97 
 4873000   0.48115673   -4.3395291    2205.2724  0.037712436  0.036122621           31 
 4874000   0.47089687   -4.3638165    2211.1534   0.03780525  0.036113611           33 
 4875000   0.47991068   -4.3570196    2212.2439  0.037816136   0.03610462           31 
 4876000   0.46205536   -4.3367567    2212.0194  0.037804543  0.036095603           20 
 4877000   0.47231411   -4.3535069    2214.2391  0.037834719  0.036086612           43 
 4878000   0.47346871    -4.351957    2210.6374  0.037765433  0.036077641           43 
 4879000   0.46860064    -4.345545    2212.3629  0.037787164  0.036068688           35 
 4880000   0.46094492   -4.3395966    2213.3184  0.037795737  0.036059734           16 
 4881000   0.46753405   -4.3652928    2212.1525  0.037768089  0.036050777           34 
 4882000   0.47377887   -4.3551747    2210.7248  0.037735983  0.036041812           48 
 4883000   0.46783547   -4.3680657    2214.2385   0.03778822   0.03603287           28 
 4884000   0.46369113   -4.3484974    2213.5127  0.037768099  0.036023931           23 
 4885000   0.47554459   -4.3698363    2214.9675  0.037785184  0.036014943           41 
 4886000   0.47842867   -4.3617204    2211.0883  0.037711289     0.036006           28 
 4887000   0.46634501   -4.3606598    2210.4365  0.037692457  0.035997045           30 
 4888000     0.482103   -4.3428165    2217.1463  0.037799139  0.035988125           13 
 4889000   0.48658324    -4.348021    2213.7201  0.037733007  0.035979193           17 
 4890000   0.47316588   -4.3503616    2213.6442  0.037723997  0.035970262           30 
 4891000   0.47285492   -4.3437802    2209.2801   0.03764193  0.035961325           15 
 4892000   0.48075301    -4.353106    2210.9084  0.037661972  0.035952394           26 
 4893000   0.47659602   -4.3438734    2210.6047  0.037649103   0.03594346            7 
 4894000    0.4630643   -4.3654992    2210.4748  0.037639197  0.035934519           13 
 4895000   0.45889399   -4.3488623    2214.3555  0.037697574  0.035925608           22 
 4896000   0.46921629   -4.3254697    2213.6974  0.037678672  0.035916703           23 
 4897000   0.46457193   -4.3471864    2209.3093  0.037596306  0.035907778           14 
 4898000   0.46984551   -4.3469337    2216.1371  0.037704796  0.035898854           17 
 4899000   0.47341298   -4.3320885    2214.6284  0.037671436  0.035889929           36 
 4900000   0.47439338   -4.3605352    2209.6334  0.037578799  0.035881004           32 
 4901000   0.46209265   -4.3511635     2208.352  0.037549344  0.035872085           25 
 4902000   0.46119117    -4.346368    2217.0936  0.037690289  0.035863177           38 
 4903000   0.48228109   -4.3521772    2217.6558  0.037692157  0.035854282           19 
 4904000    0.4702903   -4.3426402    2209.0632  0.037538459  0.035845353           18 
 4905000   0.46429986   -4.3541317    2214.6567  0.037625836  0.035836447           23 
 4906000   0.46331902   -4.3506422    2215.3256  0.037629529  0.035827565           14 
 4907000   0.46853749   -4.3432245    2212.8834  0.037580386  0.035818678           13 
 4908000   0.46095968   -4.3539031    2211.3913  0.037547394   0.03580977           17 
 4909000   0.46961767    -4.342723    2217.2256  0.037638786  0.035800895           24 
 4910000   0.44549542   -4.3507205    2207.8919  0.037472707  0.035792007           35 
 4911000   0.46852557   -4.3566016    2216.6956  0.037614464    0.0357831           21 
 4912000   0.47393647   -4.3352423    2212.2443   0.03753129  0.035774224           11 
 4913000   0.47235874   -4.3288175     2211.681  0.037514095   0.03576535           15 
 4914000   0.46119997   -4.3568284    2216.3045  0.037584868  0.035756445           11 
 4915000   0.46326229   -4.3798353    2210.4331  0.037477672  0.035747492           28 
 4916000   0.46122502   -4.3572227    2210.5917  0.037472736  0.035738538           50 
 4917000   0.45934769   -4.3472307    2213.5114  0.037514599  0.035729587           16 
 4918000   0.46905123   -4.3596361    2210.0594  0.037448479  0.035720651           25 
 4919000   0.46287887   -4.3695406    2210.0508   0.03744072  0.035711702           19 
 4920000   0.46249903   -4.3746949    2213.2665  0.037487576  0.035702775           14 
 4921000   0.45962606   -4.3629442    2213.2225  0.037479213  0.035693866           27 
 4922000    0.4623189    -4.374145    2215.5633   0.03751123  0.035684947           15 
 4923000   0.47786976   -4.3560637    2209.5779  0.037402294  0.035676053           22 
 4924000   0.46669542   -4.3684005    2211.6892   0.03743043  0.035667174           20 
 4925000    0.4491473   -4.3541147     2210.009    0.0373944  0.035658281           15 
 4926000   0.46456233    -4.366319    2208.9205  0.037368394  0.035649379           62 
 4927000   0.45535566   -4.3814815    2215.1374  0.037465959  0.035640495           44 
 4928000   0.46078593   -4.3549752    2208.6019  0.037347841  0.035631614           15 
 4929000   0.46750272   -4.3730711     2208.674  0.037341483  0.035622713           23 
 4930000   0.46252735    -4.364711    2214.3557  0.037429947  0.035613809           18 
 4931000   0.46902865   -4.3752549    2216.4277  0.037457374  0.035604914           17 
 4932000   0.46816098   -4.3547862    2211.0284  0.037358549  0.035596051           20 
 4933000   0.45542089   -4.3722579    2214.9475  0.037417182  0.035587189           45 
 4934000   0.47149357   -4.3533379    2216.8813  0.037442259  0.035578343           31 
 4935000   0.46431045   -4.3637274    2209.8513  0.037315962  0.035569483           13 
 4936000   0.46543699   -4.3554323    2212.0518  0.037345554   0.03556061           22 
 4937000   0.46723362   -4.3605032    2210.0501  0.037304202  0.035551728           84 
 4938000   0.46109349   -4.3653234    2211.5686  0.037322273  0.035542843           77 
 4939000   0.46365232   -4.3517224    2209.2506  0.037275605  0.035533961           50 
 4940000   0.45643621   -4.3681616    2208.9238  0.037262547  0.035525064           59 
 4941000   0.45835964    -4.390109    2209.1187  0.037258293  0.035516169           58 
 4942000   0.45910924   -4.3671599    2207.8193  0.037228842  0.035507285           61 
 4943000   0.45379044   -4.3489362     2211.683   0.03728645  0.035498376           57 
 4944000   0.46215121   -4.3573694    2215.2383  0.037338833  0.035489491           69 
 4945000   0.45901289   -4.3771913    2207.0214  0.037192811  0.035480613           40 
 4946000   0.47920696    -4.372001    2210.2491  0.037239674  0.035471739           54 
 4947000   0.45304329   -4.3466361    2212.6694  0.037272916  0.035462897           30 
 4948000   0.47045394   -4.3736177    2211.3117  0.037242517   0.03545404           49 
 4949000   0.45133087   -4.3590125    2217.3769   0.03733712  0.035445174           27 
 4950000   0.46173653   -4.3694067     2211.068  0.037223366  0.035436331           44 
 4951000   0.45891796   -4.3546273    2215.0666  0.037283151  0.035427471           70 
 4952000   0.46110293   -4.3518133      2209.86  0.037188005   0.03541861           25 
 4953000   0.45586211   -4.3632727    2208.0642  0.037150282  0.035409738           32 
 4954000    0.4621664   -4.3633893    2210.6171  0.037185726  0.035400855           50 
 4955000   0.46159175   -4.3680839    2212.1086  0.037203306  0.035391996           42 
 4956000   0.45697001   -4.3711634    2208.3919  0.037133305  0.035383127           36 
 4957000   0.46937588   -4.3697576    2211.0287  0.037170142  0.035374264           36 
 4958000   0.45760608   -4.3792215    2211.2954  0.037167127  0.035365403           55 
 4959000   0.45617811   -4.3804432    2209.0797  0.037122399  0.035356534           59 
 4960000   0.45822481   -4.3521122    2211.3216  0.037152581  0.035347664           39 
 4961000   0.45121325   -4.3724837    2213.1239  0.037175365  0.035338819          133 
 4962000   0.44818143   -4.3692703    2213.3947  0.037172422  0.035329972           33 
 4963000   0.46139418   -4.3679371      2210.96  0.037124051  0.035321115           22 
 4964000   0.45906337   -4.3938425     2208.776  0.037079909  0.035312241           43 
 4965000   0.44166516   -4.3789817    2212.9836  0.037143062   0.03530338           51 
 4966000   0.45032501   -4.3787905    2210.9382  0.037101259   0.03529453           22 
 4967000   0.46120114   -4.3767796    2210.1451  0.037080482  0.035285686           13 
 4968000   0.45930836   -4.3713224    2208.7869  0.037050236  0.035276844           37 
 4969000    0.4623181     -4.38118    2206.1999  0.036999395  0.035268025           34 
 4970000   0.46587255   -4.3725713    2209.5243  0.037047692  0.035259213           35 
 4971000   0.45726641     -4.37446    2206.8835  0.036995968  0.035250394           18 
 4972000   0.46136358   -4.3876215    2215.6041  0.037134689  0.035241567           30 
 4973000   0.44572848   -4.3816701    2207.7637   0.03699584   0.03523274           28 
 4974000   0.45866649   -4.3700446     2211.428  0.037049792  0.035223923           21 
 4975000   0.46127071   -4.3744042    2207.8133  0.036981798   0.03521509           31 
 4976000   0.44647775   -4.3809556    2208.5836  0.036987265  0.035206273           24 
 4977000   0.46895686   -4.3881058    2208.9984  0.036986778  0.035197434           20 
 4978000    0.4557744   -4.3687973    2212.1437  0.037032002  0.035188586           33 
 4979000   0.44943537   -4.3575087    2212.2518  0.037026374  0.035179769           13 
 4980000   0.45320371   -4.3706355    2206.0695  0.036915487  0.035170939           94 
 4981000    0.4603002   -4.3801865    2210.4456  0.036981288  0.035162146           40 
 4982000   0.45842605   -4.3741196     2207.438  0.036923559  0.035153335           34 
 4983000   0.45825716   -4.3751852    2212.5603  0.037001811  0.035144489           31 
 4984000   0.44824861   -4.3872262    2207.9481  0.036917271  0.035135662           22 
 4985000   0.46167572   -4.3754025    2205.7955   0.03687388  0.035126809           17 
 4986000   0.45386942   -4.3694369    2207.0276  0.036887076  0.035117954           25 
 4987000   0.45617099   -4.3784489    2209.9283  0.036928151  0.035109119           33 
 4988000   0.45877146   -4.3654009    2208.6094  0.036898713  0.035100306           52 
 4989000   0.46151968   -4.3793545      2209.92  0.036913209   0.03509151           42 
 4990000   0.45498249   -4.3832822    2210.5903  0.036917006  0.035082711           28 
 4991000    0.4515332   -4.3770996    2212.2188    0.0369368   0.03507392           32 
 4992000   0.45649129   -4.3676357     2209.751  0.036888204  0.035065132           18 
 4993000   0.44513039    -4.379712    2204.4945  0.036793086  0.035056323           11 
 4994000   0.45373658   -4.3698242    2209.7175  0.036872872  0.035047519           11 
 4995000   0.44847716   -4.3970938    2207.4985   0.03682847  0.035038689           35 
 4996000   0.45667587   -4.3789145    2211.3692  0.036885663  0.035029876           35 
 4997000   0.45511508   -4.3889458    2210.8458  0.036869551  0.035021057           20 
 4998000   0.44714377   -4.3753905     2211.108  0.036866546  0.035012247           29 
 4999000   0.45972587   -4.3806789     2211.858  0.036871675  0.035003446           27 
 5000000   0.45246186   -4.3867694    2210.2436  0.036837394  0.034994664           24 
 5001000   0.46009507   -4.3694059    2207.8028  0.036789355  0.034985876           50 
 5002000   0.45845412   -4.3683886    2205.3613  0.036741326  0.034977083           13 
 5003000   0.45146847   -4.3821417    2209.2082  0.036798058  0.034968286           34 
 5004000   0.45428036   -4.3857421    2209.7057  0.036798989  0.034959517           16 
 5005000   0.44215271   -4.4004417    2204.7359  0.036708889  0.034950696           32 
 5006000   0.44218604   -4.3841958    2205.5586  0.036715252  0.034941895           36 
 5007000   0.45393464   -4.3854235    2206.5933   0.03672514  0.034933084          103 
 5008000   0.44476474   -4.4124798    2203.5116  0.036666527  0.034924281          102 
 5009000   0.44526554   -4.3894074    2206.3481  0.036706396  0.034915462          133 
 5010000   0.44681975   -4.3919679     2207.723   0.03672194  0.034906653          108 
 5011000   0.45211036   -4.3782106    2206.4186  0.036692918  0.034897841           68 
 5012000   0.44068169   -4.4023916    2207.6174   0.03670553  0.034889036           63 
Loop time of 12371.4 on 48 procs for 5000000 steps with 4000 atoms

Performance: 69838.234 tau/day, 404.156 timesteps/s
99.4% CPU use with 48 MPI tasks x no OpenMP threads

MPI task timing breakdown:
Section |  min time  |  avg time  |  max time  |%varavg| %total
---------------------------------------------------------------
Pair    | 837.05     | 886.06     | 934.12     |  84.1 |  7.16
Neigh   | 82.859     | 86.107     | 88.961     |  17.7 |  0.70
Comm    | 793.69     | 852.05     | 909.41     |  92.0 |  6.89
Output  | 14.158     | 14.163     | 14.243     |   0.3 |  0.11
Modify  | 10381      | 10416      | 10448      |  15.6 | 84.19
Other   |            | 117.5      |            |       |  0.95

Nlocal:        83.3333 ave          89 max          77 min
Histogram: 2 5 7 2 3 9 4 8 4 4
Nghost:        2242.92 ave        2265 max        2221 min
Histogram: 4 3 7 3 4 8 7 7 1 4
Neighs:        15000.9 ave       16959 max       13424 min
Histogram: 3 2 8 9 8 6 5 3 2 2
FullNghs:      30002.0 ave       32133 max       27529 min
Histogram: 3 5 5 4 3 4 7 9 4 4

Total # of neighbors = 1440095
Ave neighs/atom = 360.02375
Neighbor list builds = 270538
Dangerous builds = 0

#clear
#
#next RN
#
#jump SELF
Total wall time: 3:26:15
