
units lj                  # Use reduced LJ style units
atom_style atomic         # Uncharged point particles
atom_modify map hash      # Needed for indexing of clusters etc
                          # Used to be able to find where atoms are in relation to each other.

lattice fcc 1.0 spacing 1 1 1
Lattice spacing in x,y,z = 1.5874011 1.5874011 1.5874011
region box block 0 10 0 10 0 10 units lattice
create_box 2 box
Created orthogonal box = (0.0000000 0.0000000 0.0000000) to (15.874011 15.874011 15.874011)
  3 by 4 by 4 MPI processor grid
create_atoms 1 box
Created 4000 atoms
  using lattice units in orthogonal box = (0.0000000 0.0000000 0.0000000) to (15.874011 15.874011 15.874011)
  create_atoms CPU = 0.008 seconds
set type 1 type/fraction 2 0.65 78393
Setting atom values ...
  2613 settings made for type/fraction
mass 1 1.0
mass 2 1.0
pair_style lj/cut  3.5
pair_modify tail  yes
pair_coeff 1  1  1.0  1.0   # Intearaction between 1 and 1 set with epsilon = 1 and sigma = 1
pair_coeff 1  2  1.5  0.8
pair_coeff 2  2  0.5  0.88

write_data data.0
System init for write_data ...
Neighbor list info ...
  update every 1 steps, delay 10 steps, check yes
  max neighbors/atom: 2000, page size: 100000
  master list distance cutoff = 3.8
  ghost atom cutoff = 3.8
  binsize = 1.9, bins = 9 9 9
  1 neighbor lists, perpetual/occasional/extra = 1 0 0
  (1) pair lj/cut, perpetual
      attributes: half, newton on
      pair build: half/bin/atomonly/newton
      stencil: half/bin/3d
      bin: standard
WARNING: Not all mixed pair coeffs generated from mixing. Use write_data with 'pair ij' option to store all pair coeffs. (../write_data.cpp:312)


#############################
#   M E L T   S Y S T E M   #
#############################

velocity all create 2.4 2750902 mom yes dist gaussian # Assign velocities
                                                    # Temperature 2.4, random number seed, zero linear momentum
                                                                                # Gaussian distribution

timestep 0.002   # simulation timestep
thermo 1000       # output thermodynamic data every 1000 steps bf 100

# Define a fix  in this case with index 1 applied to all
# particles in the simulation. This fix is for simulations
# in the anisotropic NPT ensemble. Note that we use the MTK
# correction.
fix 1 all npt temp 2.4 2.4 0.1 iso 5.68 5.68 0.5 mtk yes tchain 5 pchain 5 # Use NPT ensemble
                                                                         # Set temperature and pressure and damping
                                                                         # Numbers of thermostats in chain and in barostat
run 10000          # run for 10000 steps
Per MPI rank memory allocation (min/avg/max) = 3.642 | 3.644 | 3.648 Mbytes
Step Temp E_pair E_mol TotEng Press Volume 
       0          2.4   -4.4517567            0  -0.85265669   -3.9326408         4000 
    1000    2.3955596   -4.1389625            0  -0.54652138    5.8780459    3611.2873 
    2000    2.3777648   -4.1903966            0  -0.62464108    5.5110272    3617.2323 
    3000    2.4182426   -4.1723105            0  -0.54585343     5.671265    3625.2921 
    4000    2.3994883   -4.1251581            0  -0.52682545    5.6433375    3639.3941 
    5000    2.3755914   -4.1171082            0  -0.55461194    5.7417875     3642.972 
    6000    2.5095717   -4.1341318            0  -0.37071528    5.7785685    3629.8587 
    7000    2.3879635   -4.1897767            0  -0.60872686    5.8822508    3594.8146 
    8000    2.3868225   -4.1671698            0  -0.58783107    5.8020751    3612.9981 
    9000    2.4120259   -4.2350882            0  -0.61795385    5.9516004    3569.4027 
   10000    2.4208212   -4.2038975            0  -0.57357352    5.6478235    3598.7446 
Loop time of 2.67867 on 48 procs for 10000 steps with 4000 atoms

Performance: 645096.276 tau/day, 3733.196 timesteps/s
99.6% CPU use with 48 MPI tasks x no OpenMP threads

MPI task timing breakdown:
Section |  min time  |  avg time  |  max time  |%varavg| %total
---------------------------------------------------------------
Pair    | 1.2299     | 1.287      | 1.3427     |   2.4 | 48.04
Neigh   | 0.21937    | 0.22708    | 0.23937    |   0.9 |  8.48
Comm    | 0.82436    | 0.8995     | 0.98098    |   3.5 | 33.58
Output  | 0.00025321 | 0.00025999 | 0.00033322 |   0.0 |  0.01
Modify  | 0.22923    | 0.24886    | 0.28759    |   2.6 |  9.29
Other   |            | 0.016      |            |       |  0.60

Nlocal:        83.3333 ave          94 max          73 min
Histogram: 4 0 7 4 10 6 10 4 1 2
Nghost:        1764.04 ave        1806 max        1726 min
Histogram: 2 5 7 8 3 4 9 5 4 1
Neighs:        10613.7 ave       12353 max        9106 min
Histogram: 3 6 2 5 8 12 5 5 1 1

Total # of neighbors = 509456
Ave neighs/atom = 127.36400
Neighbor list builds = 909
Dangerous builds = 240

# Equilibrate just above the melting temperature to avoid step fn in T

fix 1 all npt temp 1.25 1.25 0.1 iso 5.68 5.68 0.5 mtk yes tchain 5 pchain 5
run 2000
Per MPI rank memory allocation (min/avg/max) = 3.644 | 3.646 | 3.650 Mbytes
Step Temp E_pair E_mol TotEng Press Volume 
   10000    2.4208212   -4.2038975            0  -0.57357352    5.6478235    3598.7446 
   11000    1.2476456    -6.107154            0   -4.2361535    5.5430797     2775.401 
   12000    1.2305569   -6.1962744            0   -4.3509005    5.1826714    2760.1216 
Loop time of 0.67054 on 48 procs for 2000 steps with 4000 atoms

Performance: 515405.536 tau/day, 2982.671 timesteps/s
99.6% CPU use with 48 MPI tasks x no OpenMP threads

MPI task timing breakdown:
Section |  min time  |  avg time  |  max time  |%varavg| %total
---------------------------------------------------------------
Pair    | 0.30212    | 0.33234    | 0.35711    |   1.9 | 49.56
Neigh   | 0.041892   | 0.044711   | 0.048573   |   0.6 |  6.67
Comm    | 0.21867    | 0.24291    | 0.27924    |   2.7 | 36.23
Output  | 5.3358e-05 | 5.4882e-05 | 7.1076e-05 |   0.0 |  0.01
Modify  | 0.040955   | 0.045512   | 0.049666   |   1.2 |  6.79
Other   |            | 0.005015   |            |       |  0.75

Nlocal:        83.3333 ave          92 max          74 min
Histogram: 1 1 4 6 10 11 4 7 3 1
Nghost:        2123.46 ave        2154 max        2097 min
Histogram: 2 2 7 7 8 10 5 5 1 1
Neighs:        13833.2 ave       15889 max       11756 min
Histogram: 1 1 2 11 11 10 6 4 0 2

Total # of neighbors = 663995
Ave neighs/atom = 165.99875
Neighbor list builds = 143
Dangerous builds = 7

#############################
# L I N E A R  Q U E N C H  #
#############################

# Define solid atoms. This closely follows ten Wolde  Ruiz-Montero and Frenkel  Faraday Discuss  1996  104  93-110
# Compute components of the per-atom q6 vector
compute q6 all orientorder/atom degrees 1 6 components 6 nnn NULL cutoff 1.3 # compute the Q6 parameter.
                                                                             # Use all neighbours within 1.3 unit cell.

# get number of connections
compute coord_number all coord/atom orientorder q6 0.5

# An atom is solid if it has 8 or more connections (of a possible 14)
variable is_solid atom c_coord_number>=8
group solid dynamic all var is_solid    # Must be dynamic to update
dynamic group solid defined

# do clustering
compute cluster solid cluster/atom 1.3 # Create a cluster where all atoms within are solid and max 1.3 units from another member

# define chunks one chunk per cluster
compute clus_chunks solid chunk/atom c_cluster nchunk every compress yes  # Says which atoms are in which chunk

# count the size of each chunk
compute size_chunks solid property/chunk clus_chunks count


# Find the maximum entry in the vector of chunk sizes
variable max_n equal max(c_size_chunks)


# Thermo style which includes this variable
# thermo_style custom step temp pe vol v_max_n

thermo ${N}  # Print the thermo information every 100 steps
thermo 1000  

# Reset the npt fix at a lower temperature (below freezing)
fix 1  all npt temp  ${temp} ${temp}  0.1  iso  5.68  5.68  0.5  mtk yes tchain  5  pchain  5
fix 1  all npt temp  0.45 ${temp}  0.1  iso  5.68  5.68  0.5  mtk yes tchain  5  pchain  5
fix 1  all npt temp  0.45 0.45  0.1  iso  5.68  5.68  0.5  mtk yes tchain  5  pchain  5

dump dmp2 all dcd ${N} traj.dcd
dump dmp2 all dcd 1000 traj.dcd


compute msd all msd com yes
variable twopoint equal c_msd[4]/6/(step*dt+1.0e-6)
fix 9 all vector 10 c_msd[4]
variable fit equal slope(f_9)/6/(10*dt)
thermo_style custom step temp pe c_msd[4] v_twopoint v_fit v_max_n

fix 1 all npt temp 1.25 ${temp} 0.1 iso 5.68 5.68 0.5 mtk yes tchain 5 pchain 5
fix 1 all npt temp 1.25 0.45 0.1 iso 5.68 5.68 0.5 mtk yes tchain 5 pchain 5
run 5000000 # 5000000  # Run for this many steps
Neighbor list info ...
  update every 1 steps, delay 10 steps, check yes
  max neighbors/atom: 2000, page size: 100000
  master list distance cutoff = 3.8
  ghost atom cutoff = 3.8
  binsize = 1.9, bins = 8 8 8
  4 neighbor lists, perpetual/occasional/extra = 1 3 0
  (1) pair lj/cut, perpetual
      attributes: half, newton on
      pair build: half/bin/atomonly/newton
      stencil: half/bin/3d
      bin: standard
  (2) compute orientorder/atom, occasional
      attributes: full, newton on
      pair build: full/bin/atomonly
      stencil: full/bin/3d
      bin: standard
  (3) compute coord/atom, occasional
      attributes: full, newton on
      pair build: full/bin/atomonly
      stencil: full/bin/3d
      bin: standard
  (4) compute cluster/atom, occasional
      attributes: full, newton on
      pair build: full/bin/atomonly
      stencil: full/bin/3d
      bin: standard
Per MPI rank memory allocation (min/avg/max) = 9.848 | 9.853 | 9.858 Mbytes
Step Temp PotEng c_msd[4] v_twopoint v_fit v_max_n 
   12000    1.2305569   -6.1962744            0            0 8.3333333e+20            1 
   13000    1.2578796   -6.1963447   0.54785423  0.003511886   0.04531988            6 
   14000    1.2557444   -6.1770959    1.0382805 0.0061802409  0.042521663            3 
   15000    1.2625906   -6.2060619    1.5553526 0.0086408475  0.042441195            3 
   16000    1.2389267   -6.1883885    2.0936121  0.010904229   0.04304467            2 
   17000    1.2536358   -6.2076041    2.5654095  0.012575536  0.042478653            2 
   18000    1.2211962    -6.221377    3.0516355  0.014127942  0.042175118            1 
   19000    1.2509744   -6.1997519    3.4984024   0.01534387  0.041747906            1 
   20000    1.2544635   -6.1703813    3.9818756  0.016591148  0.041307258            2 
   21000    1.2672935   -6.1607538    4.4418285  0.017626303   0.04099121            1 
   22000    1.2772682   -6.1718173    5.0168994  0.019003406  0.040858571            4 
   23000    1.2655659    -6.145685    5.6626031  0.020516678  0.041241585            3 
   24000    1.2651962   -6.2185728     6.131909   0.02129135  0.041746427            2 
   25000    1.2583187   -6.2195159    6.6802074  0.022267358  0.042107813            1 
   26000    1.2474811   -6.2071189    7.2402487  0.023205925  0.042437309            2 
   27000    1.2365204   -6.2051161    7.7159339   0.02381461  0.042641766            3 
   28000     1.260779   -6.2300506    8.1898667  0.024374603  0.042714093            1 
   29000    1.2784987   -6.1995843    8.6423965  0.024834472    0.0426518            1 
   30000    1.2449652   -6.2036949    9.1901865  0.025528295  0.042606179            1 
   31000    1.2668075   -6.1589549    9.5858789  0.025768491  0.042497463            3 
   32000    1.2384317   -6.2133216    10.119394  0.026352588  0.042415298            3 
   33000     1.263189   -6.1795813    10.657647  0.026913249  0.042376671            2 
   34000    1.2192422   -6.1780013    11.043966  0.027068544   0.04226738            6 
   35000    1.2617181   -6.2343653    11.543779  0.027485189  0.042146743            2 
   36000     1.236355   -6.2106791      12.0585  0.027913194  0.042071587            3 
   37000    1.2459845   -6.1551837    12.626144   0.02843726  0.042009057            2 
   38000    1.2407882    -6.183596    13.094289  0.028715546  0.041984662            1 
   39000     1.221425   -6.1675153    13.543226  0.028938516  0.041928343            3 
   40000    1.2291575   -6.2165229    14.023725  0.029216094  0.041834605            4 
   41000    1.2427397   -6.2331751    14.531679  0.029535933   0.04182146            2 
   42000    1.2252194   -6.2323399    15.061285  0.029883501  0.041807528            1 
   43000    1.2347549   -6.2485608    15.547787   0.03013137  0.041763038            2 
   44000    1.2410786   -6.1880524    16.257512  0.030790741  0.041800597            3 
   45000    1.2461412    -6.225684    16.811557  0.031132512  0.041865438            3 
   46000     1.249094    -6.219489    17.347569  0.031426755   0.04194592            5 
   47000    1.2343137   -6.1898039    17.932367  0.031794976  0.042023147            2 
   48000    1.2440649   -6.2075653    18.275789    0.0317288  0.042078358            3 
   49000    1.2319857    -6.245766    18.621568  0.031669334  0.042078051            2 
   50000    1.2573067   -6.1849828    19.364746  0.032274576  0.042078125            1 
   51000    1.2501184   -6.2279623    19.827766   0.03239831  0.042099243            2 
   52000    1.2325439   -6.2327235    20.440736  0.032757589  0.042144596            4 
   53000    1.2235834   -6.2093691    21.148607  0.033252526  0.042222196            4 
   54000    1.2340115   -6.2256022    21.555426  0.033264547  0.042307609            1 
   55000    1.2446735   -6.2080802    21.943593  0.033247868  0.042354285            3 
   56000    1.2475971    -6.208299    22.438649  0.033390846  0.042378302            7 
   57000    1.2546341   -6.2113813    23.098663  0.033769975  0.042402768            2 
   58000    1.2515062   -6.2179977    23.447111  0.033688378  0.042422989            5 
   59000    1.2637224   -6.1860005    24.065013  0.033990131  0.042429363            4 
   60000     1.228646   -6.1817859    24.476769  0.033995513  0.042435992            1 
   61000    1.2268108   -6.2060185    24.871046  0.033976838   0.04244392            5 
   62000    1.2394648   -6.1725696    25.382494  0.034116255  0.042421778            2 
   63000    1.2370797   -6.2293376    25.752776  0.034064518  0.042415609            1 
   64000    1.2265046   -6.2184673    26.202772  0.034118193  0.042379323            1 
   65000    1.2418226   -6.2356507    26.721338  0.034258126  0.042341258            4 
   66000     1.231003   -6.2231795     27.11901  0.034241174  0.042300765            5 
   67000    1.2467543   -6.2259159    27.632944  0.034369333  0.042251382            3 
   68000    1.2277105   -6.1857143    28.192602  0.034549757  0.042220917            3 
   69000    1.2287047    -6.222133    28.814451  0.034800061  0.042203594            5 
   70000    1.2419841   -6.2208536    29.284293  0.034862254   0.04219313            1 
   71000    1.2528132   -6.1710369    29.844149  0.035028344  0.042180792            1 
   72000    1.2385061   -6.1881226    30.098586  0.034836326  0.042156803            2 
   73000    1.2634357   -6.2513387    30.582449  0.034911472   0.04211713            3 
   74000    1.2386838   -6.2327422    31.189701  0.035123537  0.042082882            3 
   75000    1.2282767   -6.2222081    31.769034  0.035298927      0.04207            2 
   76000    1.2364543   -6.2386343     32.13437  0.035235054  0.042052852            1 
   77000    1.2329026   -6.2425942    32.455965  0.035125503  0.042027312            2 
   78000    1.2125436   -6.2163045     32.98225  0.035237446  0.041991973            6 
   79000    1.2182179   -6.2349026    33.484744   0.03532146  0.041960341            3 
   80000    1.2568919   -6.2464141    33.809807  0.035218549  0.041930549            3 
   81000    1.2603187   -6.2281749    34.308253  0.035296556  0.041889858            3 
   82000    1.2319603   -6.2209499    34.765938  0.035331237  0.041848919            3 
   83000    1.2346339    -6.268741    35.198632  0.035339992  0.041809886            2 
   84000    1.2584662    -6.227109    35.926861  0.035641727  0.041769543            1 
   85000    1.2427588   -6.2283755    36.602493  0.035884797  0.041749336            2 
   86000    1.2241678   -6.2218932    37.061454  0.035912261  0.041735531            2 
   87000    1.2403892   -6.2427949    37.403917  0.035827507  0.041714002            4 
   88000    1.2219311   -6.2738418    37.832634  0.035826358  0.041695931            5 
   89000    1.2266951   -6.2005602     38.63975  0.036179541   0.04169079            3 
   90000    1.2186139   -6.1758107    39.102209  0.036205749  0.041688491            1 
   91000    1.2213505   -6.2057385    39.567392  0.036233876  0.041686081            2 
   92000    1.2209533   -6.2090751    40.234609  0.036444392  0.041680044            1 
   93000    1.2323958   -6.2103189    40.686624  0.036457549  0.041679988            3 
   94000    1.2321754   -6.2279626    41.079429  0.036417933  0.041676652            4 
   95000    1.2362694   -6.2227894     41.63962  0.036525982  0.041675126            2 
   96000    1.2317349   -6.2512013    42.131067  0.036572106  0.041681677            2 
   97000    1.2350721   -6.2217788    42.837023  0.036801566  0.041686771            2 
   98000    1.2558218   -6.2256517    43.345947  0.036858798  0.041694823            4 
   99000    1.2280914   -6.2243221    43.555848  0.036663171  0.041692119            1 
  100000    1.2379677   -6.2289228    44.030385  0.036691987  0.041684467            1 
  101000    1.2213194   -6.2380635    44.496773  0.036713509   0.04167297            3 
  102000    1.2302959   -6.2203351    45.293086  0.037004155  0.041669058            2 
  103000    1.2461529   -6.2104648    45.723459   0.03699309  0.041669002            2 
  104000    1.2368484   -6.1946362    46.204388  0.037022747  0.041678107            2 
  105000     1.235404    -6.245223    46.730575  0.037087758  0.041675939            5 
  106000    1.2335623    -6.235679    47.116078  0.037040942  0.041679502            3 
  107000    1.2356399      -6.2331    47.473209  0.036972904  0.041680254            3 
  108000    1.2699759   -6.2219265    48.202507  0.037193292  0.041676723            2 
  109000    1.2035704   -6.2274329    48.616047  0.037168232  0.041676806            6 
  110000    1.2355741   -6.2865488    48.977739  0.037104347  0.041672882            3 
  111000    1.2161864   -6.2582807    49.649475   0.03727438  0.041675144            4 
  112000    1.2205924   -6.2168963     50.40354  0.037502634  0.041680677            1 
  113000    1.2117709   -6.2874711    50.516575  0.037254111  0.041679668            3 
  114000    1.2163923   -6.1824192    51.465123  0.037620704  0.041687312            4 
  115000    1.2612848   -6.2705156    51.767153   0.03751243  0.041694388            2 
  116000     1.206434    -6.239646     52.29396    0.0375675  0.041701621            5 
  117000    1.2045806   -6.2059373     52.77274  0.037587421  0.041705382            2 
  118000    1.2238626   -6.2068886     53.36498  0.037687132  0.041710433            2 
  119000    1.2604603   -6.2129119    53.713753  0.037614672  0.041714801            1 
  120000    1.2451273   -6.2170588    54.229741  0.037659542  0.041711744            4 
  121000    1.2587902   -6.2102945    54.633527  0.037626396  0.041714534            2 
  122000     1.243895   -6.1877956    55.431535   0.03786307   0.04171774            3 
  123000    1.2369844   -6.2547332    55.445437  0.037564659  0.041711751            2 
  124000    1.2021045   -6.2416552    55.990689  0.037628151  0.041708134            4 
  125000    1.2239108    -6.185566    56.776188  0.037850792  0.041703981            1 
  126000    1.2456397   -6.2327095     57.24326  0.037859299  0.041705864            2 
  127000    1.2224352    -6.225432    57.917198  0.038003411  0.041709445            2 
  128000    1.2046908   -6.2550286    58.013491    0.0377692   0.04171284            5 
  129000    1.2233915    -6.201723    58.732789  0.037941078   0.04170807            2 
  130000    1.2325032   -6.1999075    59.073064  0.037867349  0.041702015            1 
  131000    1.2446551   -6.2032278    59.732927  0.037998045  0.041693634            3 
  132000     1.205464   -6.2515615    60.114001  0.037950758  0.041687902            2 
  133000    1.2408043   -6.2344297    60.462585  0.037883825  0.041685993            2 
  134000    1.2148732   -6.2482618    60.786808  0.037802741  0.041677501            2 
  135000    1.1841961   -6.2274934    61.376243   0.03788657  0.041664849            2 
  136000    1.2306571   -6.2252445     61.77185  0.037850398  0.041654316            3 
  137000    1.2357617   -6.2097673    62.220126  0.037846792  0.041640964            1 
  138000    1.2242396   -6.2283909    62.318096    0.0376317  0.041619353            2 
  139000    1.2414392   -6.2366735    62.990926  0.037764344  0.041596802            3 
  140000    1.2230911   -6.2265316    63.691688  0.037911719  0.041572456            3 
  141000    1.2118312   -6.2255944    63.493802  0.037525888  0.041545794            1 
  142000    1.2202507   -6.2076438    64.248098  0.037704283  0.041521046            2 
  143000    1.2392004   -6.2710227    64.614269  0.037654003  0.041498939            2 
  144000    1.2306078     -6.25829    65.184468  0.037722493  0.041477006            2 
  145000     1.218742   -6.2578927    66.041541  0.037954908   0.04146156            2 
  146000    1.2236287   -6.2799224    66.360443  0.037876965  0.041448864            3 
  147000    1.2350399   -6.2015854    66.890487  0.037919777  0.041435737            2 
  148000    1.2343448   -6.2624757    67.107346  0.037785668  0.041418303            2 
  149000    1.2250004   -6.2743442    67.541624  0.037774957  0.041401069            2 
  150000     1.228853   -6.2636625    68.188234  0.037882352  0.041383708            3 
  151000     1.236251   -6.2629079    68.759909   0.03794697  0.041362681            1 
  152000    1.2287344   -6.2384489    69.515263  0.038111438  0.041349322            3 
  153000    1.2484651   -6.2042464    69.712943  0.037970013  0.041335017            2 
  154000    1.2127128   -6.2435571    70.197593  0.037985711  0.041320931            1 
  155000    1.2540481   -6.2649355    70.868388  0.038101284  0.041307542            3 
  156000    1.2233302   -6.2256339     71.51722  0.038203643  0.041302738            2 
  157000    1.2435711   -6.2231714    72.107138  0.038273428  0.041297605            1 
  158000    1.2408792   -6.2244399    72.723633  0.038356347  0.041293307            4 
  159000    1.2114346   -6.2521264    73.130464  0.038328335   0.04129222            4 
  160000    1.2504792   -6.2466534    73.820075  0.038447956  0.041291145            2 
  161000    1.2511398   -6.1991766    74.352744  0.038484857  0.041292747            2 
  162000    1.2443254     -6.27461    74.437007  0.038290642  0.041290834            3 
  163000    1.2408201   -6.2191524    75.297049  0.038495424  0.041285381            2 
  164000    1.2176233   -6.2854636     75.52572   0.03837689  0.041281743            7 
  165000    1.2013408   -6.2522218    75.917193  0.038342017  0.041279866            1 
  166000    1.2687164   -6.2499953    76.609611   0.03845864  0.041276469            4 
  167000    1.2125666   -6.3083908    76.497348  0.038172329  0.041270166            3 
  168000    1.2422346   -6.2817243    77.237606  0.038312305  0.041262444            4 
  169000    1.2220074   -6.2059142      77.6895  0.038308432  0.041256396            3 
  170000    1.2164095    -6.223675    78.107368  0.038287926   0.04124847            2 
  171000    1.1998904   -6.2593966    78.646017  0.038326519  0.041242249            4 
  172000    1.2234894   -6.2382062    79.338308  0.038439103  0.041235335            6 
  173000    1.1998307   -6.2558777    79.810888  0.038444551  0.041225422            2 
  174000    1.2247557   -6.2339937    79.837035  0.038236128   0.04121562            2 
  175000    1.2223385   -6.2551815    80.282413   0.03822972  0.041203273            4 
  176000    1.2086195   -6.2715371    80.899348  0.038304616  0.041192189            2 
  177000     1.187562   -6.2613693    81.626583  0.038430595  0.041185607            4 
  178000    1.2711674   -6.2941012    82.325267  0.038541791  0.041180835            2 
  179000    1.2223944   -6.2441106    82.740097  0.038519598  0.041173703            4 
  180000    1.2283159   -6.2711666    82.828877  0.038346702  0.041165161            4 
  181000    1.2041336   -6.2902223    83.387364  0.038391972  0.041156556            1 
  182000    1.2237527   -6.2662705    84.078215  0.038497351  0.041148025            7 
  183000    1.2254762   -6.3103823    84.154289  0.038321625  0.041137979            5 
  184000    1.2502549   -6.2609755    84.884913  0.038444254  0.041127116            3 
  185000    1.2496692   -6.2692613    85.286463  0.038417326   0.04112109            2 
  186000    1.2053192   -6.3389259    85.543195  0.038325804   0.04111384            2 
  187000    1.2284538   -6.2547102    86.398189  0.038501867  0.041107088            2 
  188000    1.2076314   -6.2837876      86.9846  0.038557003  0.041101403            1 
  189000    1.2302533   -6.2628267    87.681249  0.038660163  0.041097748            2 
  190000    1.2241475   -6.2454599    88.222164  0.038693932  0.041098054            3 
  191000    1.2185637   -6.3003527    88.639998  0.038673647  0.041098912            5 
  192000    1.2007152   -6.2737318    89.686763  0.038926546  0.041099397            4 
  193000    1.2046395   -6.2701739    89.723548  0.038740737  0.041101034            4 
  194000    1.2170085    -6.286534    90.402249  0.038832581  0.041104964            2 
  195000    1.2214857   -6.2993545    90.980243  0.038880446  0.041105171            3 
  196000    1.2341291    -6.279883     91.25341  0.038798218  0.041107054            4 
  197000    1.2401166    -6.276015    91.718678  0.038798087  0.041107857            4 
  198000    1.2130676   -6.2684412    92.020759  0.038729275  0.041108798            2 
  199000    1.2132009   -6.2632166    92.834755  0.038875526  0.041109814            3 
  200000    1.2206273   -6.2577668     93.38213  0.038909221  0.041112449            3 
  201000    1.2054932   -6.2486173    93.786097  0.038883125  0.041114884            3 
  202000    1.2225865   -6.2205491    94.300965  0.038903038  0.041114359            1 
  203000    1.2031872   -6.2675036    94.556618  0.038816346  0.041114453            1 
  204000    1.2489829    -6.283215    95.577759  0.039043202  0.041116666            2 
  205000    1.2335027   -6.3193522    95.730499  0.038914837  0.041118342            2 
  206000    1.2315355   -6.2636474    96.099786  0.038875318  0.041119602            2 
  207000     1.217034   -6.2878722    96.252454  0.038748975  0.041115262            2 
  208000     1.198642   -6.3266853    97.035596  0.038876441  0.041113578            3 
  209000    1.2065486   -6.2622219     97.96574    0.0390613  0.041115294            2 
  210000    1.1927233   -6.2928332    98.556453  0.039109703  0.041121231            2 
  211000    1.2506512   -6.2463963    99.722081  0.039384708  0.041129435            4 
  212000    1.2210174   -6.2459267    100.10875  0.039350923  0.041139478            2 
  213000    1.2139972   -6.2902011    100.69729  0.039396437  0.041150083            5 
  214000     1.215192   -6.3121769    101.03008   0.03934193  0.041161339            2 
  215000    1.2093566   -6.2837607    101.79536  0.039455564  0.041175628            3 
  216000    1.2052745   -6.2835328    102.45143  0.039526016  0.041188692            2 
  217000    1.2192713   -6.2734413    102.76699  0.039465051  0.041200523            4 
  218000    1.2244514   -6.2768766    103.35425  0.039508506  0.041212369            2 
  219000    1.2180611    -6.250866    103.45267   0.03936555  0.041223016            2 
  220000    1.1915364   -6.2886488    103.95213  0.039375806   0.04123395            5 
  221000    1.2293022    -6.321066     104.3353   0.03934212  0.041243419            1 
  222000    1.2244736   -6.2931771    104.72613  0.039311608  0.041250191            2 
  223000    1.2148913   -6.2576467    105.44839   0.03940523  0.041256554            3 
  224000    1.2100033    -6.285333    105.49644  0.039247187  0.041258341            3 
  225000    1.2351015   -6.2835855    105.75431  0.039168264  0.041259131            3 
  226000    1.2247586   -6.2644924     106.5703  0.039295833  0.041261352            2 
  227000    1.2208762   -6.3330647    106.74592  0.039187195  0.041263086            5 
  228000    1.2206843   -6.2603826     107.8655  0.039424527  0.041263879            2 
  229000    1.1956025   -6.2755646    108.08357  0.039331721  0.041269952            3 
  230000    1.2443401   -6.2722353    109.08871  0.039524896  0.041274218            2 
  231000    1.2310474   -6.2912159    109.36052  0.039451847  0.041278058            4 
  232000     1.207453   -6.2828185     109.6113  0.039371875  0.041279791            2 
  233000    1.1962954   -6.3033062    109.57342  0.039189351  0.041280739            2 
  234000    1.2282154   -6.3261234    109.97686   0.03916555  0.041282296            3 
  235000    1.2075976    -6.285015    110.50434  0.039185937   0.04128119            2 
  236000    1.1921014   -6.2602146    111.19211  0.039262751   0.04128132            2 
  237000    1.2226887   -6.2543728    111.84103  0.039325257  0.041281155            6 
  238000    1.2068712   -6.2876815    112.12117  0.039258114  0.041282495            4 
  239000    1.2096665   -6.2371132    113.04599  0.039416314  0.041283438            2 
  240000     1.182944   -6.2625589    113.43114  0.039385811  0.041284383            3 
  241000    1.2317352   -6.3160987    113.21932  0.039149144  0.041284601            2 
  242000    1.2161407   -6.2904423    114.08187  0.039284389  0.041284054            2 
  243000    1.1885136   -6.2454504     114.6281  0.039310049  0.041281037            2 
  244000    1.2279158   -6.2861309    114.64373  0.039154278  0.041276641            2 
  245000    1.2055413   -6.3041038    115.03089  0.039126152  0.041271749            4 
  246000    1.2112253   -6.2875868    115.30107  0.039058629  0.041265839            3 
  247000    1.2220003   -6.2863562    116.21872  0.039210094    0.0412587            2 
  248000    1.2182171   -6.2147133    116.97823  0.039307199  0.041252384            2 
  249000    1.1883372   -6.2566087    117.02093  0.039163632  0.041246162            3 
  250000    1.2318966   -6.2769128    117.16439  0.039054796  0.041237104            1 
  251000    1.2052884   -6.3234435    117.10776  0.038880397  0.041225548            2 
  252000     1.236644   -6.3137907    118.01347  0.039025617  0.041215916       -1e+20 
  253000    1.2114208   -6.2859686    118.93391  0.039174541  0.041209423            2 
  254000    1.2115069   -6.2770119     119.4305  0.039183234  0.041203807            4 
  255000    1.1977377   -6.2364024    119.81183  0.039154191  0.041199175            1 
  256000    1.2100447   -6.2836146    121.07385   0.03941206  0.041195919            1 
  257000    1.2274777   -6.2579912    121.06744  0.039256627  0.041191565            2 
  258000    1.1977209   -6.3189817    120.94135  0.039063743   0.04118607            5 
  259000    1.2054545   -6.3130983    121.80877  0.039192009  0.041181526            5 
  260000    1.2132789   -6.3011629    122.25024   0.03918277  0.041176935            4 
  261000    1.2205025   -6.2741551    122.53902  0.039124845  0.041169748            2 
  262000     1.221869    -6.274317    123.13119  0.039163863  0.041162849            3 
  263000    1.1874655   -6.3174509     123.1775  0.039029627  0.041155532            4 
  264000    1.2009916   -6.2768414     123.7583  0.039065119  0.041145571            4 
  265000    1.2084499   -6.2714304    123.93101  0.038972017  0.041136986            3 
  266000    1.1847156   -6.2344579    124.85164  0.039113921  0.041127365            2 
  267000    1.2076591   -6.2792835    125.14886  0.039060192  0.041118177            3 
  268000    1.2068935   -6.3113136    124.99161  0.038865552  0.041108228            2 
  269000    1.2093049   -6.2833428    125.77413  0.038963486  0.041096708            1 
  270000    1.2027938   -6.2444158     126.5218  0.039049939  0.041086683            2 
  271000    1.1724854   -6.3154728    126.26333  0.038826361  0.041075488            3 
  272000    1.2518501   -6.2869108    127.22935  0.038979579  0.041063309            3 
  273000     1.206305   -6.2820877    127.59683  0.038948971  0.041052336            3 
  274000    1.2397809   -6.2467889     128.8402  0.039184975  0.041042545            3 
  275000    1.2104891   -6.3263464    128.38373  0.038904161  0.041033578            4 
  276000    1.2182645   -6.3287326    128.78673  0.038884884  0.041022185            3 
  277000    1.2188026   -6.2964409    129.77152  0.039040769   0.04101268            3 
  278000    1.1907119   -6.2512178     130.8767  0.039231626   0.04100222            2 
  279000    1.2056277   -6.3045194    130.05863  0.038846664   0.04099153            4 
  280000    1.2013159   -6.3151509    130.51923  0.038845008  0.040979051            4 
  281000    1.2094046   -6.3106505    130.81325  0.038793964  0.040965104            5 
  282000    1.2022453   -6.3073299    131.21428  0.038774906  0.040949964            2 
  283000    1.2290038    -6.305568    131.28756   0.03865947  0.040933015            2 
  284000    1.1732004   -6.3250518    131.32243  0.038533578  0.040914449            4 
  285000    1.2235959   -6.3255165    131.97937  0.038590459  0.040896296            2 
  286000    1.2080255   -6.2971024    132.22518   0.03852715  0.040877866            2 
  287000    1.2174566   -6.2833784    133.10468  0.038648282  0.040858711            3 
  288000    1.2163438   -6.3329351    132.26391  0.038270807  0.040840254            1 
  289000    1.1958373   -6.2803598    133.34738  0.038450803  0.040820522            3 
  290000    1.2339802   -6.3135801    133.93017  0.038485682  0.040800892            2 
  291000    1.2297591     -6.27859    134.33923  0.038470571  0.040782877            1 
  292000    1.1807171   -6.3125714    134.95924  0.038515766  0.040765268            2 
  293000    1.2237563   -6.2802003    135.78727  0.038619815  0.040746858            1 
  294000    1.2112966   -6.3067751    135.32644  0.038357835  0.040727896            2 
  295000     1.214347   -6.3142127    135.82231  0.038367885  0.040707542            1 
  296000    1.1967686   -6.2925289    136.88047  0.038536169  0.040688008            1 
  297000    1.1725593   -6.2760531    136.62699  0.038335294  0.040667743            3 
  298000    1.1926987   -6.2834619    137.82593  0.038541927  0.040648953            2 
  299000    1.2255996   -6.2861338    138.15677  0.038505232  0.040630136            2 
  300000    1.2176571   -6.3313504    138.26877  0.038407992  0.040610697            4 
  301000    1.2004114   -6.3363192    138.07608  0.038227043  0.040590835            4 
  302000    1.1841153   -6.3279978    139.07573  0.038376305  0.040570922            2 
  303000     1.186252   -6.2809455    139.75456  0.038436348  0.040553009            2 
  304000    1.2161566   -6.2927953    140.01515  0.038381346  0.040534505            1 
  305000    1.1896211   -6.3489013    139.82855  0.038204523  0.040514414            2 
  306000    1.1822852   -6.2291535    141.36973  0.038499381  0.040497093            1 
  307000    1.1947085   -6.2447127    141.66626  0.038454467  0.040477624            1 
  308000    1.1904599   -6.3559681     141.2552  0.038218398   0.04045957            2 
  309000    1.1961701   -6.2802716     142.0644  0.038312944  0.040441521            2 
  310000    1.2005296   -6.2660227    142.77941  0.038381562  0.040423831            2 
  311000    1.2214934   -6.3056388    142.85622  0.038278731  0.040406722            2 
  312000    1.2063771   -6.3335583    143.77672  0.038401901  0.040387235            2 
  313000    1.2383856   -6.3267165    143.73493  0.038268085  0.040370414            4 
  314000    1.2240302   -6.2981207    143.89042  0.038187479  0.040350849            2 
  315000    1.1779701   -6.2824934    144.67718  0.038274387    0.0403317            2 
  316000    1.1821019   -6.3112926    145.20613  0.038292755  0.040314656            3 
  317000    1.2169909   -6.3552742    145.11282   0.03814743  0.040297501            1 
  318000    1.2060088   -6.3369917     145.8954  0.038232547  0.040279137            2 
  319000    1.1894246   -6.3025106    147.39623  0.038504762  0.040262604            3 
  320000    1.2329883   -6.3287892    147.26589  0.038350491  0.040247064            2 
  321000     1.190222   -6.3251007    147.70302  0.038344502  0.040231528            5 
  322000    1.1844817   -6.2912143     148.3762  0.038399637  0.040215701            2 
  323000    1.1873628   -6.2764205    149.15988   0.03848294  0.040200962            2 
  324000    1.2063361   -6.2686369    148.80103  0.038271869  0.040186495            3 
  325000    1.1983902   -6.3007619    149.31166   0.03828504  0.040171666            7 
  326000    1.1886172   -6.3203437    149.80816   0.03829452  0.040157706            1 
  327000    1.1961571   -6.2935674    150.77724  0.038424374  0.040142457            2 
  328000    1.1842016   -6.2971228    150.86755   0.03833017  0.040127787            3 
  329000     1.215023   -6.2227767    151.77656  0.038443911   0.04011317            2 
  330000    1.2134893   -6.2817879    151.51352  0.038260989  0.040098208            2 
  331000    1.2201814   -6.2817973    152.29919  0.038343201  0.040084889            2 
  332000    1.1930891   -6.3088157    152.84484  0.038364668  0.040071552            2 
  333000    1.1864697   -6.3362441    153.12381  0.038319272  0.040057335            3 
  334000     1.195966   -6.3278247    152.62927  0.038081155  0.040042496            3 
  335000    1.2103178   -6.2773322    153.58605  0.038205484  0.040026409            3 
  336000    1.2174761   -6.3389342    153.90736  0.038171468  0.040011779            3 
  337000    1.1849091   -6.3211791    154.64714  0.038241131  0.039996642            2 
  338000    1.2063111   -6.3315391    154.74119  0.038151181  0.039981795            4 
  339000    1.2122773   -6.3138499    155.94292  0.038334051  0.039968901            1 
  340000    1.1923632   -6.3221872    156.35155  0.038321457  0.039954401            1 
  341000    1.1978244   -6.2845563    157.25936  0.038430928   0.03994165            3 
  342000    1.2028192   -6.3298907    157.47808  0.038371853   0.03992883            8 
  343000    1.2188075   -6.3282822    157.87211  0.038355713  0.039915866            4 
  344000    1.2083984   -6.3044658    158.25672  0.038337383  0.039904117            4 
  345000     1.158737   -6.3603844    157.92958  0.038147241  0.039891328            2 
  346000     1.184359    -6.325263    159.26402  0.038358386  0.039878663            1 
  347000    1.1890611   -6.3685137    158.99132  0.038182353  0.039866218            2 
  348000    1.2153285   -6.3589359     159.5631  0.038209555  0.039854031            2 
  349000    1.1923018   -6.3171231    160.95121  0.038431522  0.039842494            3 
  350000    1.1985226     -6.31698    160.46761  0.038206574  0.039828985            3 
  351000    1.1916861   -6.3522862    160.48455  0.038101746  0.039814636            2 
  352000    1.2253091   -6.3404043    160.99504  0.038114357  0.039800524            1 
  353000    1.1856731   -6.3043314    161.87844   0.03821493  0.039785738            2 
  354000    1.2079786   -6.3285473    161.99578  0.038134599  0.039770099            3 
  355000    1.1714275   -6.3193727    161.81954  0.037985807   0.03975497            2 
  356000    1.2069096   -6.3593676    162.06676  0.037936976  0.039740317            4 
  357000    1.1815533   -6.3169084    163.02087  0.038053425  0.039724682            3 
  358000     1.206794   -6.2794502    164.16284  0.038212952  0.039711043            2 
  359000    1.1897909   -6.3245781    163.90128  0.038045794  0.039696044            2 
  360000    1.2072147    -6.303931    164.23063  0.038016349  0.039681674            3 
  361000    1.1943018   -6.3232904    164.68747  0.038016499   0.03966722            2 
  362000    1.1914014   -6.2953158    165.53131  0.038105733  0.039651849            5 
  363000    1.1579567   -6.3035836    165.97728  0.038103142  0.039637653            3 
  364000    1.2198012   -6.2951412     166.7102  0.038166254  0.039625003            1 
  365000    1.1845993    -6.344423    166.82159  0.038087121  0.039613019            5 
  366000    1.1967107   -6.2967415     167.9828   0.03824745  0.039602087            4 
  367000    1.1793714   -6.3537159    168.09119  0.038167846  0.039591653            2 
  368000    1.1777458   -6.2990481    169.40185  0.038360927  0.039581014            3 
  369000    1.1874695   -6.3193333    169.08172  0.038184671  0.039571238            2 
  370000    1.2263775   -6.2914267    169.65139  0.038209772  0.039560775            2 
  371000    1.1770695   -6.3177932    170.25375  0.038242081  0.039549944            2 
  372000    1.1954363   -6.3105729    170.59421   0.03821555  0.039538469            2 
  373000    1.1798065   -6.2967287    170.98385  0.038200145  0.039526444            2 
  374000    1.1914174   -6.3104161    171.07264  0.038117789  0.039514091            2 
  375000    1.1894157   -6.3398629    171.35497  0.038078881  0.039502809            4 
  376000    1.2044687   -6.2615404     172.4402   0.03821813  0.039492178            2 
  377000    1.1643336   -6.3505252    172.47552  0.038124562  0.039482168            2 
  378000    1.1801228    -6.319206     173.6685  0.038286706  0.039470789            3 
  379000    1.2010827   -6.3369439     172.9351  0.038024429   0.03945882            3 
  380000    1.1880526   -6.3492358    173.64712   0.03808051  0.039447735            3 
  381000    1.2062249   -6.2978029    174.17547  0.038096123  0.039436032            4 
  382000     1.189592   -6.2961968    174.57878  0.038084377  0.039423968            1 
  383000    1.1728831   -6.3356454    174.93624  0.038062715  0.039412122            2 
  384000    1.1609039   -6.3524474     175.6902  0.038127213  0.039399751            1 
  385000    1.2009283   -6.3524957    175.08646  0.037897501  0.039387562            3 
  386000    1.1910265   -6.3471934    176.21452  0.038042858  0.039375138            2 
  387000    1.1686179   -6.3494438    176.33262  0.037969986  0.039362488            3 
  388000    1.1780687   -6.3626455    176.28292  0.037861451  0.039349388            1 
  389000    1.1842099   -6.3278768    177.05031  0.037928515  0.039336073            4 
  390000    1.1879699   -6.3437918    177.17815  0.037858579  0.039322632            4 
  391000    1.1768456   -6.3113061    178.48231  0.038039708  0.039310451            1 
  392000    1.1928126   -6.3483981    179.09143  0.038072158  0.039297799            3 
  393000    1.1882957   -6.3162167    179.50736  0.038063477  0.039285251            2 
  394000    1.1849884   -6.3063526    179.47108  0.037959197    0.0392734            3 
  395000    1.1997754   -6.3083072    180.42473  0.038064288  0.039262243            2 
  396000    1.1863404   -6.3540131    179.87924  0.037853375   0.03925066            3 
  397000    1.2268139   -6.3518479    180.52997  0.037894621  0.039239135            2 
  398000    1.1870743   -6.3201802    181.95506  0.038097793  0.039227404            4 
  399000    1.1915177   -6.3191669    181.77446  0.037964592  0.039216781            2 
  400000    1.1946834   -6.3644593    181.37474  0.037786404  0.039204835            5 
  401000     1.189787   -6.3481019    182.07382  0.037837453  0.039192482            5 
  402000    1.1736566   -6.3473161    182.01888  0.037731939  0.039180404            3 
  403000    1.2070951   -6.3524079    182.80284  0.037800421  0.039167528            2 
  404000    1.2235254   -6.3521969    183.43844  0.037837962  0.039155367            3 
  405000    1.1823194    -6.309446    184.18124  0.037897375  0.039142988            5 
  406000    1.1885031   -6.3539755    183.34666   0.03763273  0.039131286            1 
  407000    1.1770834   -6.3389796    185.06121   0.03789132  0.039119804            2 
  408000    1.1798363   -6.3211569    185.95663  0.037981339  0.039107776            1 
  409000    1.1967096   -6.3204015    185.60374  0.037816574  0.039097345            1 
  410000     1.175417   -6.3690019    185.72189  0.037748352  0.039086587            2 
  411000    1.1880646   -6.3620568    185.94753  0.037702256   0.03907482            6 
  412000    1.1866464   -6.3767912    186.41456  0.037705209   0.03906242            4 
  413000    1.2039185   -6.3013866     186.9815  0.037728309  0.039048838            2 
  414000    1.1640909   -6.2913558     187.3109  0.037703483  0.039035912            3 
  415000    1.1502159   -6.3525185    187.27859  0.037606143  0.039022094            4 
  416000     1.173449   -6.3225292     187.8805  0.037636318  0.039007733            2 
  417000    1.1935734   -6.3537865    188.49124  0.037668114  0.038993793            5 
  418000    1.1796666   -6.3755824    188.28106  0.037536097  0.038980707            2 
  419000    1.1428875   -6.3663349    188.37658   0.03746551  0.038965232            5 
  420000    1.1914111   -6.2979284     189.1271  0.037525218  0.038950239            2 
  421000    1.1811538   -6.3598346     188.6659  0.037344795  0.038934335            2 
  422000    1.1714304    -6.354047     189.9324  0.037506398  0.038918783            2 
  423000     1.182044    -6.377703    190.02799  0.037436562  0.038902926            3 
  424000    1.1824552   -6.3536365     190.0058  0.037343908  0.038887462            2 
  425000    1.1677603   -6.3352938    190.67653  0.037387556  0.038870836            2 
  426000    1.2011342   -6.3931626     190.2276  0.037211971   0.03885481            2 
  427000    1.1972805   -6.3365346    191.25004  0.037324364  0.038839098            3 
  428000    1.2008395   -6.3746938    191.21824  0.037230966  0.038822681            1 
  429000    1.1688615   -6.3437288    192.05313  0.037306358  0.038805915            2 
  430000    1.1699781   -6.2856901    192.79248  0.037362883  0.038789456            4 
  431000    1.1786364   -6.3392555    193.27951  0.037370362  0.038773929            2 
  432000    1.1899671    -6.379034    192.51014  0.037135443  0.038757476            4 
  433000    1.1439734   -6.3928044    193.63685  0.037266522  0.038740264            4 
  434000    1.1883003   -6.3489657    193.63071  0.037179475  0.038723288            1 
  435000    1.1767551   -6.3576089     194.8194  0.037321724  0.038705519            2 
  436000    1.2011489   -6.3322997    195.44773  0.037356218  0.038688414            2 
  437000     1.170972   -6.3683356    195.05634  0.037196098  0.038673019            2 
  438000     1.198924   -6.4017335    195.00732   0.03710185  0.038656939            2 
  439000    1.1627475   -6.2925108    197.34073  0.037460275  0.038641436            1 
  440000    1.1959112   -6.3005696    197.01664  0.037313758  0.038626886            2 
  441000    1.1732521   -6.3685571     197.1086  0.037246523  0.038612215            3 
  442000    1.1531676   -6.3273129    197.88857  0.037309308  0.038596573            1 
  443000     1.170917   -6.3529957    197.74826  0.037198695  0.038581074            3 
  444000    1.1508337   -6.3947725    198.46537  0.037249507  0.038565824            3 
  445000    1.1609215   -6.3230283    199.63245  0.037384354  0.038551726            5 
  446000    1.1915525   -6.4149251    198.63028   0.03711328  0.038537591            3 
  447000     1.181549   -6.3696067    199.55157  0.037202007  0.038523941            2 
  448000    1.1755636   -6.3407682    200.41334  0.037279266  0.038510338            2 
  449000     1.162989   -6.4143054    200.09217  0.037136631  0.038495666            2 
  450000    1.2047005   -6.3816064    200.67174  0.037161434  0.038480236            5 
  451000    1.1710484   -6.3234996    201.42978  0.037219101  0.038465599            3 
  452000    1.1823745   -6.3186348    201.99595  0.037241142  0.038452013            4 
  453000    1.1848258   -6.3739301    201.97202  0.037154529  0.038438819            2 
  454000    1.1845432   -6.3405412    203.36262   0.03732794  0.038424784            3 
  455000    1.1710011   -6.3723357    203.23292  0.037222147   0.03841059            2 
  456000    1.1693119   -6.3630492    202.59278  0.037023534  0.038396201            4 
  457000    1.1581038   -6.3509517      204.203  0.037236141  0.038381656            8 
  458000    1.1405284   -6.3623465    204.18018  0.037150688  0.038367134            3 
  459000    1.1557674   -6.3751414    203.71944    0.0369861  0.038352418            3 
  460000    1.1893512   -6.3675296    204.92546  0.037124178  0.038336684            3 
  461000    1.1615555   -6.3743489    204.43672    0.0369553   0.03832165            5 
  462000    1.1942693   -6.3620584    205.97356  0.037152519  0.038306781            2 
  463000    1.1929105   -6.3409481    205.59483  0.037004109  0.038292052            2 
  464000    1.1739538   -6.3597459    205.91191  0.036981306  0.038277535            3 
  465000    1.1589687   -6.3717226    206.65642  0.037035201  0.038263043            4 
  466000    1.1801143   -6.3527492    206.93375   0.03700532  0.038248153            3 
  467000    1.1632561   -6.3236133    207.62438  0.037049319  0.038232559            1 
  468000    1.2169278   -6.3702532    207.08424  0.036873974  0.038216875            2 
  469000    1.1766046   -6.3481582    207.57433  0.036882432  0.038200779            5 
  470000    1.1504425   -6.3639949    207.85307  0.036853382  0.038184873            2 
  471000    1.1892704   -6.3852252    208.48289   0.03688657  0.038169026            5 
  472000    1.1688792   -6.3382937    208.76256  0.036857797  0.038153503            2 
  473000    1.1724927    -6.358337    209.48408  0.036906991  0.038138238            2 
  474000     1.183218   -6.3667697    210.02594  0.036924391  0.038122919            2 
  475000    1.1446407   -6.3647446     209.7459  0.036797526  0.038108153            2 
  476000    1.1429008    -6.371835    210.41736  0.036837773  0.038093035            3 
  477000    1.1699103   -6.3714132    211.16154  0.036890556  0.038079165            2 
  478000    1.1766765   -6.3662264    211.51927  0.036875744  0.038064972            3 
  479000     1.197297    -6.401562    211.35156  0.036769582  0.038050426            2 
  480000    1.1721156   -6.3755892    212.90088  0.036961959  0.038035371            3 
  481000    1.1838714   -6.3457269    212.64532  0.036840839  0.038020847            2 
  482000    1.1686717   -6.3734991    212.06046  0.036663288  0.038006042            5 
  483000     1.178686   -6.4570094     212.3852  0.036643409  0.037990921            3 
  484000    1.2060361   -6.3732175    213.81442  0.036813777  0.037976134            2 
  485000    1.1884501   -6.3755858    213.66261  0.036711789  0.037961049            2 
  486000    1.1535719   -6.3861182    214.45775  0.036772592  0.037946939            2 
  487000    1.1879309   -6.4140309    214.16348  0.036646728  0.037933678            2 
  488000    1.1720991   -6.3959395    215.25083  0.036757314  0.037919353            2 
  489000     1.154012   -6.3624923    215.23403  0.036679282  0.037905505            2 
  490000    1.1820789   -6.3757454    215.98027  0.036731339  0.037891946            5 
  491000    1.1969275    -6.346758    217.88188  0.036979273  0.037879183            2 
  492000    1.1630498   -6.3224752    217.92624  0.036911626  0.037866281            4 
  493000    1.1823009   -6.3446836    217.95008  0.036840784  0.037853842            6 
  494000    1.1688599   -6.3899978     217.7869  0.036738681  0.037840895            2 
  495000    1.1517931   -6.2852294    219.53636  0.036958984  0.037827651            2 
  496000    1.1780648   -6.3912776    218.56132  0.036720651  0.037815119            3 
  497000    1.1600007   -6.3640481    218.49558  0.036635744  0.037800697            3 
  498000    1.1994148   -6.3707395    219.63006  0.036752017  0.037787178            7 
  499000    1.1789891   -6.3380875    219.88863  0.036721547  0.037773926            4 
  500000    1.1742166   -6.3521478    221.58372  0.036930619  0.037760573            3 
  501000     1.155754   -6.3230189    221.16701  0.036787593  0.037748083            2 
  502000    1.1756672   -6.3668863      221.519  0.036772743  0.037735738            5 
  503000    1.1706707    -6.375206     222.2076  0.036813718  0.037723052            2 
  504000    1.1720096   -6.3977751    222.22829  0.036744095  0.037710491            2 
  505000    1.1826843   -6.3731016    222.92405  0.036786147  0.037697833            2 
  506000    1.1628745   -6.3863154    222.56088  0.036653636  0.037685185            2 
  507000    1.1559904   -6.3712679    222.87492  0.036632959  0.037671794            2 
  508000    1.1446134   -6.3559708    224.84563  0.036884125  0.037658946            3 
  509000    1.2040189   -6.3940537    223.55793   0.03660084  0.037645932            3 
  510000    1.1797506    -6.349964    224.29623   0.03664971  0.037632799            2 
  511000    1.1786437   -6.3762073    224.55308  0.036619875  0.037619531            3 
  512000    1.1667957    -6.368147    224.76298  0.036582517  0.037605811            2 
  513000    1.1739294    -6.418443     224.9041  0.036534129  0.037592223            2 
  514000    1.1934806    -6.376996     226.1933  0.036672065  0.037578346            3 
  515000    1.1440949   -6.3447354     226.6499  0.036674741  0.037565138            2 
  516000    1.1690809   -6.4019003    226.18449  0.036528502  0.037552528            4 
  517000    1.1704504   -6.3786186    226.81956  0.036560213  0.037540261            2 
  518000    1.1858597   -6.3446361     227.1699  0.036545995  0.037527634            4 
  519000    1.1601309   -6.3633861    227.70503  0.036561502  0.037514584            2 
  520000    1.1556167   -6.4191182    227.21257  0.036412272  0.037501027            3 
  521000    1.1501302   -6.3427408    229.65947   0.03673376  0.037488223            5 
  522000     1.170499   -6.3436219    230.09078  0.036732245  0.037476923            5 
  523000    1.1761252   -6.3584342    229.42889  0.036556547  0.037464543            5 
  524000    1.1629457    -6.405086    230.50766  0.036658343  0.037452709            3 
  525000    1.1652821   -6.3787948    230.59581   0.03660251  0.037441204            2 
  526000    1.1778198   -6.3819995    230.42676  0.036506141  0.037428968            2 
  527000    1.1772965   -6.3957626    230.74078  0.036486525  0.037416937            2 
  528000     1.187131   -6.3992379    231.11019  0.036475724  0.037404592            2 
  529000     1.184778   -6.4113859    231.29701  0.036436202  0.037392544            3 
  530000    1.1514176   -6.3936978     231.7519  0.036438978  0.037380197            5 
  531000     1.163217   -6.4166546    232.64439  0.036510419  0.037368249            3 
  532000    1.1651195   -6.3915258    232.69679  0.036449999  0.037356357            2 
  533000    1.1822268   -6.3906679    232.62158  0.036369854  0.037344324            3 
  534000    1.1552698   -6.3804442    232.60305  0.036298852  0.037332585            3 
  535000    1.1467805   -6.3962011    233.53236  0.036375757  0.037319843            3 
  536000    1.1600887   -6.4080859    234.31914  0.036430214  0.037308058            2 
  537000    1.1339786   -6.4175761     234.8632  0.036446804  0.037295237            2 
  538000    1.1716757   -6.3662424    235.09076  0.036414306  0.037282736            2 
  539000    1.1476623   -6.3575954    235.39446  0.036393701  0.037270701            2 
  540000    1.1431517   -6.3696371    235.66003  0.036367288  0.037258717            3 
  541000    1.1745852   -6.3814122    236.19322  0.036382197  0.037246596            4 
  542000    1.1578657   -6.3882592    237.19894  0.036469702  0.037235281            6 
  543000    1.1673076    -6.407002    236.81138   0.03634306  0.037223964            2 
  544000    1.1565335   -6.3862821    237.80946  0.036429146  0.037212394            5 
  545000    1.1576099   -6.4145854    237.31936  0.036287363  0.037200187            1 
  546000    1.1650412   -6.4468056    237.30537  0.036218769  0.037188375            5 
  547000     1.159778   -6.4221166    237.83289  0.036232921  0.037176333            2 
  548000    1.1666895    -6.394889    239.22029  0.036377781  0.037164443            2 
  549000    1.1552286   -6.4399225    238.77106  0.036243331  0.037152292            3 
  550000    1.1843793   -6.4101534    239.59697  0.036302572  0.037139887            3 
  551000    1.1370034   -6.4195543    239.74652  0.036259305   0.03712812            3 
  552000    1.1303876    -6.404449    240.32217  0.036280521  0.037115627            3 
  553000    1.1541965   -6.3914292    241.58551   0.03640529  0.037104139            2 
  554000    1.1551084   -6.3873655    241.25811   0.03629033  0.037093001            3 
  555000    1.1724616   -6.3975665    241.77183  0.036302077  0.037081875            4 
  556000    1.1805224   -6.3922996     241.8043  0.036241652  0.037070205            3 
  557000     1.141143   -6.4085997    242.26711  0.036245828  0.037058929            6 
  558000    1.1689774    -6.418183    242.05948  0.036149863  0.037047695            2 
  559000    1.1722755   -6.4145184    243.61985  0.036317808  0.037036267            3 
  560000    1.1766285   -6.3761322    244.24905  0.036346585  0.037024949            4 
  561000    1.1495126    -6.422002    244.24585  0.036281321  0.037014172            3 
  562000    1.1539575      -6.3909    244.93044  0.036318274   0.03700317            2 
  563000    1.1809414   -6.4019274    244.77187  0.036230294  0.036992485            2 
  564000    1.1813775   -6.3737498    245.30941   0.03624548  0.036980795            3 
  565000    1.1924099   -6.4083247    245.82136  0.036256837  0.036969654            2 
  566000    1.1617987   -6.4053107    246.00173  0.036219336  0.036958252            2 
  567000    1.1619058   -6.4178386    245.64071  0.036102397   0.03694746            5 
  568000     1.174922   -6.3986204    245.84066  0.036068172  0.036935569            1 
  569000    1.1593173   -6.4050765    247.46663  0.036242915  0.036924267            2 
  570000    1.1290681   -6.4107367      247.165  0.036135234  0.036912601            3 
  571000     1.170339   -6.4439598    247.18547  0.036074937   0.03690046            2 
  572000    1.1634983    -6.393588    247.98336  0.036128112  0.036888782            3 
  573000    1.1434489   -6.4513029    247.73861  0.036029466  0.036876479            3 
  574000     1.161196   -6.4156892    247.75958  0.035969741  0.036863766            4 
  575000    1.2140548   -6.3834447    249.08919  0.036099883  0.036852329            2 
  576000     1.148946   -6.4050835    248.47088  0.035947755  0.036840701            2 
  577000    1.1494915   -6.3914267    250.09475  0.036119981  0.036829175            2 
  578000    1.1629292    -6.386547    250.40148  0.036101713  0.036817798            4 
  579000     1.174238   -6.3945548    250.25239  0.036017903  0.036805924            4 
  580000    1.1438554   -6.4022117    250.34204  0.035968684  0.036794302            4 
  581000    1.1623053   -6.4332799    251.46512   0.03606786  0.036783012            3 
  582000      1.15959   -6.4422674     251.0499  0.035946434   0.03677111            4 
  583000    1.1496095    -6.455445    251.45334  0.035942444   0.03675909            2 
  584000    1.1784729   -6.4036358    251.83855  0.035935867  0.036747324            3 
  585000    1.1697742   -6.3918364    252.77601  0.036007978  0.036735265            5 
  586000    1.1758888     -6.44515    252.01283  0.035838002  0.036722744            2 
  587000    1.1781108   -6.4221321     252.8282  0.035892702  0.036709897            2 
  588000    1.1561795   -6.4383144    252.80671  0.035828615  0.036696903            4 
  589000    1.1586512   -6.4344826    253.03874  0.035800615  0.036683972            7 
  590000    1.1416574   -6.4340841    253.89357  0.035860673   0.03667178            4 
  591000    1.1518997   -6.4111384    253.44639  0.035736941   0.03666005            2 
  592000    1.1586458   -6.4476333     253.9945   0.03575373  0.036647486            3 
  593000    1.1623464   -6.4502263    254.97045  0.035830586  0.036635203            2 
  594000    1.1693761   -6.4051199    255.29183  0.035815352  0.036623165            2 
  595000    1.1562598   -6.4041399    256.40348  0.035910851  0.036610878            3 
  596000    1.1826091    -6.473821    255.11244  0.035670084  0.036598313            2 
  597000    1.1609394   -6.4276152    256.63519  0.035822891  0.036586246            3 
  598000    1.1754767   -6.4338513    256.43855  0.035735583  0.036574286            4 
  599000    1.1481494   -6.4469203    256.59633  0.035697875  0.036561743            2 
  600000    1.1549328   -6.4281055     257.5492  0.035770722  0.036548975            2 
  601000    1.1698953   -6.4463332    256.89793  0.035620899  0.036535717            4 
  602000    1.1837496   -6.3713789    258.48693   0.03578169  0.036522574            4 
  603000    1.1397112   -6.4203229    258.58642  0.035736101  0.036509809            2 
  604000    1.1661769   -6.4071078    259.66201  0.035825332   0.03649733            2 
  605000    1.1623834   -6.3942725    259.35357  0.035723632  0.036484825            4 
  606000    1.1713118   -6.4554252    260.21114   0.03578261   0.03647254            2 
  607000    1.1160989   -6.4245015    259.96724  0.035690175  0.036460011            2 
  608000    1.1275372   -6.3913751    260.22129  0.035666295  0.036447968            2 
  609000    1.1668203   -6.3678394    261.46464  0.035777866  0.036436112            6 
  610000    1.1453842   -6.4727905    261.19334  0.035682151  0.036424503            3 
  611000    1.1364222   -6.3744954    261.44417  0.035657961  0.036412537            1 
  612000    1.1499458   -6.4084849    262.26849   0.03571194  0.036400428            1 
  613000      1.13943   -6.4641723    260.97945  0.035478446   0.03638822            3 
  614000    1.1461624   -6.4125618     263.1909  0.035720805  0.036375981            3 
  615000    1.1647612   -6.3930766    263.21404  0.035665859  0.036364322            1 
  616000    1.1606254   -6.4629735    263.13865  0.035597761  0.036352353            3 
  617000    1.1601224   -6.4309796    263.83169  0.035633669  0.036340293            3 
  618000     1.147183   -6.4167858    263.32641  0.035507876  0.036328407            3 
  619000    1.1465272   -6.4628653    263.59628  0.035486845  0.036316229            5 
  620000    1.1658883   -6.4515575    264.97104  0.035614387  0.036304078            5 
  621000    1.1407653    -6.421651    264.84549   0.03554019   0.03629237            2 
  622000    1.1684633   -6.4777381    265.79255  0.035609934  0.036280383            3 
  623000    1.1564979   -6.4245168    265.55366  0.035520821  0.036268636            3 
  624000    1.1579268   -6.4190221    266.73242  0.035621317  0.036256837            3 
  625000    1.1534527   -6.4407925     266.6085    0.0355478  0.036245365            4 
  626000    1.1469159   -6.4204832    267.38936  0.035594962  0.036233894            3 
  627000    1.1626518   -6.4210975    267.43465  0.035544211   0.03622239            3 
  628000    1.1586858   -6.4691956    267.93118    0.0355535  0.036211218            4 
  629000    1.1397393    -6.460941    268.17245  0.035528941  0.036199198            2 
  630000    1.1410185   -6.4222756    268.35815   0.03549711  0.036187876            3 
  631000    1.1510103   -6.4329223    268.69469    0.0354853   0.03617601            5 
  632000    1.1326081   -6.4516072    270.13179  0.035618643  0.036164862            2 
  633000    1.1236476   -6.4272866    269.53634  0.035483984  0.036154032            3 
  634000    1.1683478   -6.3932955    271.91439  0.035740587   0.03614308            3 
  635000    1.1463306    -6.477435    270.92278   0.03555417  0.036132375            3 
  636000    1.1682125   -6.4312715    271.54949  0.035580384  0.036122163            4 
  637000    1.1492549   -6.4320112    271.84918  0.035563734  0.036112295            3 
  638000     1.154799   -6.4009574    272.82743  0.035635767  0.036102673            4 
  639000    1.1489142   -6.4705241    272.82002  0.035579032  0.036092605            3 
  640000    1.1448745   -6.4053752    273.95089  0.035670688  0.036083227            2 
  641000    1.1473138   -6.4250565    273.53076  0.035560421  0.036073528            1 
  642000    1.1521337   -6.4182641    273.46514  0.035496514   0.03606355            5 
  643000    1.1612382   -6.4026518    275.70759  0.035731933  0.036053801            3 
  644000    1.1258304   -6.4384359    275.21109  0.035612201  0.036044503            2 
  645000    1.1419242   -6.4317536    274.84133  0.035509216  0.036034643            1 
  646000    1.1619819    -6.396164     276.3375  0.035647253  0.036025026            6 
  647000    1.1438007   -6.5021538    274.14862   0.03531023  0.036014503            3 
  648000    1.1330606   -6.4350755    275.96599  0.035489454   0.03600377            3 
  649000    1.1293158   -6.4322048    275.74764  0.035406733  0.035993572            1 
  650000     1.162208   -6.4568241    276.19665  0.035409826    0.0359836            5 
  651000     1.168211   -6.4106698    277.25409  0.035490795  0.035973268            2 
  652000    1.1394367   -6.4473905    277.02354  0.035406894  0.035962584            2 
  653000    1.1157094    -6.440055    276.99189  0.035348633  0.035951144            2 
  654000    1.1546427   -6.4642902    277.57785  0.035369247  0.035940034            2 
  655000    1.1284697   -6.4260995     276.6299  0.035194644   0.03592876            3 
  656000    1.1379008   -6.4841242    277.48152  0.035249177  0.035916801            3 
  657000    1.1307529   -6.4635588    277.46288   0.03519316  0.035904938            3 
  658000    1.1579461   -6.4735727     278.4868  0.035269352  0.035893259            3 
  659000    1.1308194   -6.4364993    278.43459   0.03520923  0.035881544            3 
  660000    1.1398085   -6.4097052    279.86786  0.035336852  0.035870552            5 
  661000    1.1539515   -6.4452683    279.96154  0.035295202  0.035859391            2 
  662000    1.1559634   -6.4219437    279.76198  0.035216765  0.035848503            4 
  663000    1.1451669   -6.4613212    280.03905  0.035198473  0.035837134            5 
  664000    1.1338807   -6.4576733    280.99458  0.035265384   0.03582633            2 
  665000    1.1546354   -6.4786962    280.62856  0.035166486  0.035814761            3 
  666000     1.153226   -6.4573694    281.16884  0.035181286  0.035802864            2 
  667000    1.1518013   -6.4702159     281.1535  0.035126625  0.035791013            5 
  668000    1.1221151   -6.4569754    281.46434  0.035112817  0.035779141            4 
  669000    1.1633914    -6.440782    281.56446  0.035072802  0.035766796            2 
  670000    1.1274007   -6.4518677    281.70045  0.035037369   0.03575447            5 
  671000    1.1531149   -6.4791965    281.87972  0.035007417    0.0357414            2 
  672000    1.1314001   -6.4237074    282.65929  0.035051995  0.035728755            2 
  673000    1.1363807   -6.4520971    282.34055  0.034960445  0.035716122            2 
  674000    1.1598832   -6.4417781     281.5272  0.034808012  0.035703367            2 
  675000    1.1752198   -6.4572707    283.08517  0.034948787  0.035690592            2 
  676000     1.156118   -6.4353577    283.99854  0.035009682  0.035677955            4 
  677000    1.1405661   -6.4427654    283.07128   0.03484383  0.035664986            2 
  678000     1.142274   -6.4341792     284.2461  0.034936836  0.035651947            3 
  679000    1.1406051    -6.488721    283.86327  0.034838398  0.035638692            2 
  680000    1.1481104   -6.4581667    284.58063  0.034875077  0.035626384            3 
  681000    1.1141749   -6.4391759    286.26167  0.035029573  0.035614252            2 
  682000     1.123743   -6.4695384    284.62047  0.034777673  0.035601166            7 
  683000    1.1495473   -6.4571289    284.70788  0.034737419  0.035588698            2 
  684000     1.142434   -6.4639231    287.06156  0.034973387  0.035576063            3 
  685000    1.1250163   -6.4209732    287.22583  0.034942315  0.035564316            2 
  686000       1.1394   -6.4399721    286.72556  0.034830607  0.035552214            2 
  687000    1.1416834   -6.4452573    288.93741  0.035048206  0.035541185            3 
  688000    1.1385467   -6.4299098     288.5857  0.034954663  0.035529968            2 
  689000    1.1409123   -6.4131421    289.67643  0.035035853  0.035518737            2 
  690000    1.1352565    -6.439582    288.17983  0.034804328  0.035507397            6 
  691000    1.1468689   -6.4390393    289.08393  0.034862992  0.035495731            2 
  692000    1.1441871   -6.4320043    289.65979  0.034881959  0.035483712            3 
  693000    1.1583816   -6.4580219    289.70743  0.034837353  0.035471893            3 
  694000    1.1386276   -6.4265598    290.91475  0.034932127  0.035459709            3 
  695000    1.1390746   -6.4733699    289.93842  0.034764798  0.035447942            2 
  696000    1.1700707   -6.4306064    290.98994   0.03484075  0.035435935            3 
  697000    1.1593071   -6.5043873    290.38324  0.034718226  0.035424195            5 
  698000    1.1158903   -6.4446114    292.36435  0.034905009  0.035412915            4 
  699000    1.1291397   -6.4575082    292.54657  0.034876797  0.035401193            2 
  700000    1.1171518   -6.5041567    291.78848  0.034736724  0.035389758            3 
  701000    1.1747973   -6.4759457    292.92253  0.034821984  0.035378073            3 
  702000    1.1128511   -6.4850586    292.35428  0.034704924  0.035366544            4 
  703000     1.129985   -6.4612714    294.31145  0.034887559  0.035355394            3 
  704000    1.1348856   -6.4670255    293.41214  0.034731551   0.03534394            3 
  705000    1.1338974   -6.5046844    292.94481  0.034627046  0.035331683            5 
  706000    1.1264444   -6.5163344     293.6898  0.034665935   0.03531958            3 
  707000      1.13642    -6.434353    294.95414  0.034765929   0.03530816            2 
  708000    1.1226387    -6.510986    294.58747  0.034673667  0.035296283            3 
  709000    1.1364677   -6.5005977    295.42462  0.034723157  0.035284327            3 
  710000    1.1435819   -6.5014896    295.34733   0.03466518  0.035272457            2 
  711000    1.1417382    -6.491871    295.48423   0.03463247  0.035261082            3 
  712000    1.1168735    -6.454302    296.68445  0.034724304  0.035249989            5 
  713000    1.1598263   -6.4948378    296.14758  0.034612854  0.035238634            6 
  714000    1.1291678   -6.4902956     296.7922  0.034639613  0.035226832            4 
  715000     1.144861   -6.4593803    297.85637  0.034715195  0.035215733            2 
  716000    1.1575604   -6.4566501    297.49653  0.034624829   0.03520465            2 
  717000    1.1317888   -6.4591838    298.39048  0.034680437  0.035194141            6 
  718000     1.142462   -6.4636607    298.81893  0.034681862  0.035183028            2 
  719000    1.1290772   -6.5065394    298.25017  0.034567706  0.035172514            3 
  720000    1.1343576   -6.4816408    299.80951  0.034700175  0.035161598            1 
  721000    1.1253328   -6.5143262    299.72711  0.034642523   0.03515034            4 
  722000     1.139456   -6.5073734    299.64688  0.034585282  0.035138699            4 
  723000    1.1276772   -6.4929392    300.62497  0.034650181  0.035127366            2 
  724000    1.1293174    -6.501335     299.7864  0.034505801  0.035116032            8 
  725000    1.1330963   -6.4466881    301.69441  0.034677519  0.035104979            3 
  726000    1.1313784   -6.4894055    300.70418   0.03451609  0.035093781            2 
  727000    1.1175961   -6.4533112    301.27051  0.034533529  0.035082345            2 
  728000    1.1341909   -6.4578962    301.48573  0.034510729    0.0350709            2 
  729000     1.138151   -6.4543639    302.26954  0.034552988  0.035059453            3 
  730000    1.1280835   -6.4527982    300.77799  0.034335387  0.035047894            3 
  731000    1.1189696   -6.4859269    301.25251  0.034342511  0.035035511            3 
  732000    1.1467823   -6.4759696    303.00696  0.034495328   0.03502399            3 
  733000    1.1489429    -6.460834    303.35148  0.034487436  0.035012518            3 
  734000     1.125981   -6.4918235    304.08883  0.034524163  0.035001481            5 
  735000    1.1451724   -6.4981676     304.0249  0.034469943  0.034990581            3 
  736000    1.1110473   -6.4413212    304.45747  0.034472087  0.034978813            3 
  737000    1.1439092   -6.4769459    305.28085  0.034518414  0.034967815            4 
  738000    1.1415371   -6.4527274    305.38611  0.034483527  0.034956688            3 
  739000    1.1377391   -6.4607267    306.38416  0.034549409  0.034945815            4 
  740000    1.1512945   -6.4772054    306.97847  0.034569647  0.034934647            1 
  741000    1.1358925   -6.4723857    305.80582  0.034391117  0.034924034            2 
  742000    1.1014923   -6.4518831    307.37038  0.034520483  0.034913341            4 
  743000    1.1322466   -6.4586962    307.35623  0.034472435  0.034903117            7 
  744000    1.1360617   -6.4986794    307.23889  0.034412958  0.034892606            3 
  745000    1.1353308   -6.4829025     307.2941  0.034372942  0.034882006            5 
  746000     1.136143   -6.4489351    308.47884  0.034459209  0.034871195            3 
  747000    1.1211204   -6.4879412    308.45985  0.034410961  0.034860465            2 
  748000    1.1419523    -6.482494    309.29382  0.034457868  0.034849721            2 
  749000    1.1081334    -6.494074    308.76739  0.034353292  0.034839321            3 
  750000    1.1541364   -6.4769405    309.43643  0.034381825  0.034828716            3 
  751000    1.1291029   -6.4585805    309.54491  0.034348081  0.034817782            2 
  752000    1.1408156   -6.4800683    310.06553  0.034360098  0.034806637            3 
  753000    1.1170672   -6.4796156    310.93715  0.034410929  0.034795708            3 
  754000    1.1158368   -6.4459774    311.41826  0.034418463  0.034784638            2 
  755000    1.1164991   -6.5102473    310.54921  0.034276955  0.034773796            3 
  756000    1.1055082   -6.4694774    311.86072  0.034376181  0.034762855            3 
  757000    1.1508801   -6.4954913    312.02934  0.034349333  0.034751997            2 
  758000    1.1354128   -6.4710659    312.01192  0.034302102  0.034741466            3 
  759000    1.1635062   -6.4532863    313.07314  0.034373424  0.034731333            3 
  760000    1.1484296   -6.4806224    312.74179  0.034291863  0.034721087            2 
  761000    1.1043496   -6.4856766     313.3537  0.034313808  0.034710839            3 
  762000    1.1301653   -6.4659699    313.20081  0.034252057    0.0347007            3 
  763000    1.1339349   -6.5117102    314.09491  0.034304817  0.034690194            3 
  764000    1.1283126   -6.4728271    314.40632  0.034293883  0.034679704            4 
  765000    1.1383887   -6.4668542    315.28164  0.034344406  0.034669465            4 
  766000    1.1244503   -6.4926511    314.44513  0.034208565  0.034659398            3 
  767000     1.119962   -6.4987616    315.86591   0.03431833  0.034648932            6 
  768000    1.1150577   -6.4609876    316.98123  0.034394664  0.034639407            2 
  769000    1.1225023   -6.4521266    317.80821  0.034439555   0.03462952            4 
  770000    1.1318797   -6.4588387    317.01443  0.034308921  0.034619571           12 
  771000    1.1280731   -6.4783497    316.69131  0.034229497  0.034609718            3 
  772000    1.1070381   -6.4762412     317.5414  0.034276921  0.034600119            7 
  773000    1.1246578   -6.4524143    319.13116  0.034403963  0.034589757            4 
  774000    1.1368936   -6.4998481    317.90326  0.034227311  0.034579852            2 
  775000    1.1329628   -6.4733321    318.55065  0.034252758  0.034569859            3 
  776000    1.1258918   -6.4585832    319.25207  0.034283942  0.034560071            2 
  777000    1.1339997   -6.4800945    319.20532  0.034234805  0.034550398           10 
  778000    1.1306552   -6.5255486    318.63048  0.034129229  0.034540376            4 
  779000     1.171214    -6.544224    319.50002  0.034178436  0.034530461            3 
  780000    1.0955105    -6.525269     320.2651  0.034216357  0.034520798            4 
  781000    1.1264564   -6.5395624    320.29694  0.034175943  0.034510931            4 
  782000    1.1104753   -6.4662553    320.97895  0.034204918  0.034501178            5 
  783000    1.1088449   -6.4719874    322.12892  0.034283622  0.034491513            3 
  784000    1.1379926   -6.5129185    321.11102  0.034131698  0.034481354            3 
  785000    1.1204669    -6.489815     321.6273  0.034143026   0.03447113            3 
  786000    1.1069949   -6.4826271    322.13947  0.034153888  0.034461157            7 
  787000    1.1075393   -6.5029369    322.24841  0.034122025  0.034451257            7 
  788000    1.1108713   -6.4923435    322.20958  0.034074617  0.034441041            3 
  789000    1.0978151   -6.5082337    323.18008  0.034133933   0.03443089            4 
  790000    1.1148139   -6.4830022    323.26108   0.03409927  0.034421042            5 
  791000    1.1247546   -6.5151369    323.62315  0.034094305  0.034411045            2 
  792000    1.1289578   -6.5077496    323.95846  0.034086538  0.034400869            4 
  793000    1.1352746   -6.5115634    324.51187   0.03410171  0.034391191            4 
  794000    1.1324687   -6.5042224    324.13657  0.034019371  0.034380791            4 
  795000    1.1170131   -6.5038447    325.11777  0.034079431  0.034370363            3 
  796000    1.1234247    -6.543553    323.72559   0.03389087    0.0343602            2 
  797000    1.1248781    -6.473181    325.82367   0.03406772  0.034349934            1 
  798000    1.1444232   -6.5337046    324.77232  0.033915238  0.034339913            3 
  799000     1.122349    -6.456625    326.22967  0.034024788  0.034330416            2 
  800000     1.149518   -6.5364641     326.6203  0.034022947  0.034321029            2 
  801000    1.1239264   -6.4929112    327.64296  0.034086867  0.034311393            4 
  802000    1.1203439   -6.5119543    326.82666  0.033959544  0.034301846            4 
  803000    1.1515339   -6.4644194    328.79369  0.034121387  0.034292375            4 
  804000    1.1090126   -6.4952136    328.21942  0.034019426  0.034282605            3 
  805000    1.1195213   -6.4984876    327.79852  0.033933594  0.034272778            2 
  806000    1.1235951   -6.5360913    326.39607  0.033746491  0.034262586            2 
  807000    1.0903994   -6.5135474    327.59845  0.033828836    0.0342521            3 
  808000     1.107038    -6.514231    327.88472  0.033816493  0.034241525            5 
  809000    1.1036319   -6.4837896    329.11522  0.033901444  0.034231051            4 
  810000    1.1219131   -6.4662655    328.78923  0.033826052  0.034220617            2 
  811000    1.1136835    -6.501486    329.26738  0.033833475  0.034210336            5 
  812000     1.109397   -6.4834258    329.61237  0.033827214  0.034200009            2 
  813000    1.1014594   -6.4949855    329.25304  0.033748774  0.034189568            1 
  814000    1.1110881   -6.5024938    329.90944  0.033774513  0.034179179            4 
  815000    1.1338073    -6.519504    329.83735  0.033725701  0.034168366            2 
  816000    1.0915887   -6.5270962    331.18283  0.033821776    0.0341581            3 
  817000    1.1177127     -6.46535    330.83778  0.033745184  0.034147574            2 
  818000    1.1105264   -6.4920669    332.05954  0.033828396  0.034137248            4 
  819000    1.1409547   -6.5114968    331.77223  0.033757858   0.03412632            2 
  820000    1.1049769   -6.5212549    333.03801  0.033845326  0.034116012            3 
  821000    1.1213333   -6.5188123    332.20031  0.033719074  0.034105706            3 
  822000    1.1247525   -6.5706819    331.64649  0.033621907    0.0340954            2 
  823000    1.1310947   -6.5799728     332.3776  0.033655083  0.034084936            6 
  824000    1.1181815   -6.5590074    332.37913  0.033614394  0.034074738            2 
  825000     1.120251    -6.529977    333.50889  0.033687767  0.034065004            3 
  826000    1.1110239   -6.5076099    334.68313  0.033765448  0.034055157            4 
  827000    1.1065655   -6.4930324    335.82266  0.033839446  0.034045648            6 
  828000    1.1208918   -6.5148831    335.92606  0.033808984  0.034036396            2 
  829000    1.1069333   -6.5192535    335.31303  0.033706577  0.034027094            2 
  830000    1.0890155   -6.5457852    335.44518  0.033679235  0.034017101            3 
  831000    1.1370621   -6.4894994    336.67538  0.033762072  0.034007363            3 
  832000    1.1134362     -6.47968    337.22201  0.033776243  0.033997986            4 
  833000    1.1150131    -6.540775    337.34147  0.033747646   0.03398855            4 
  834000    1.1348068   -6.5006258     337.6773  0.033740738  0.033979086            2 
  835000    1.1317749   -6.5137954    337.61585  0.033694197  0.033969401            3 
  836000    1.1247488   -6.4810553    338.30325  0.033722413   0.03395973            4 
  837000    1.1384894   -6.5025627     339.0099  0.033752479  0.033950205            2 
  838000    1.1279972   -6.5194641    337.87571  0.033599414  0.033940445            2 
  839000    1.1138858    -6.483251    338.89485  0.033660593  0.033930756            3 
  840000    1.1066695   -6.5515677    339.40128  0.033670762  0.033920956            5 
  841000    1.0918651    -6.513632     340.2887  0.033718659  0.033911666            2 
  842000    1.1319841   -6.5058673    340.26573  0.033676339  0.033902117            3 
  843000    1.1310421   -6.4789429    341.20468  0.033729209   0.03389259            2 
  844000    1.1267879   -6.4926368    339.60402  0.033531203  0.033883174            4 
  845000    1.1290431   -6.4677246     340.9377  0.033623047   0.03387335            2 
  846000    1.1130508   -6.5045631     340.3179  0.033522252  0.033863748            3 
  847000    1.0821667    -6.532135    340.09717  0.033460957  0.033853564            2 
  848000     1.147955   -6.5209513    341.45988  0.033555413  0.033843198            5 
  849000    1.1042299   -6.5008761    341.65816  0.033535351   0.03383305            5 
  850000    1.1358704   -6.5142433    341.50386  0.033480771  0.033822971            6 
  851000    1.1156575      -6.5271    341.72535  0.033463117  0.033812563            2 
  852000    1.1050419   -6.5302328    342.25517  0.033475663  0.033802203            5 
  853000    1.1184015   -6.5201133    342.25132  0.033436041  0.033792376            5 
  854000    1.1353058   -6.5105891    342.68533  0.033439239  0.033782576            2 
  855000    1.1284651   -6.5007825    343.69326  0.033498368  0.033772549            2 
  856000    1.1080178   -6.4991181    343.02066  0.033393756  0.033762421            4 
  857000    1.1276819   -6.5280687    343.51734  0.033403086  0.033752226            2 
  858000    1.1115189   -6.5061783    344.64494  0.033473673   0.03374199            3 
  859000    1.1279391   -6.5239112    344.18284  0.033389876  0.033732151            4 
  860000     1.113437   -6.5429794    344.42696  0.033374706  0.033722137            3 
  861000    1.1302982   -6.5293338     345.5026   0.03344005  0.033712301            3 
  862000    1.1302142   -6.5105192    345.50051  0.033401055  0.033702626            2 
  863000    1.0898689   -6.5146069    345.71701  0.033383257  0.033692875            6 
  864000    1.1106446   -6.4914512    348.63439  0.033626002  0.033683644            3 
  865000    1.1295788   -6.5265315     347.8789  0.033514345  0.033674302            4 
  866000    1.1194894   -6.5114281    347.75728  0.033463942  0.033665153            2 
  867000    1.1313693   -6.5378736    347.78089  0.033427613   0.03365576            3 
  868000    1.1428451    -6.558285    348.38258  0.033446868  0.033646376            3 
  869000    1.0994948    -6.496631    348.66717  0.033435671  0.033637131            5 
  870000    1.1174465   -6.5289067    349.01795  0.033430838  0.033627893            2 
  871000    1.0933925   -6.5049125    349.00442  0.033391162  0.033618595            2 
  872000      1.11574   -6.5173543     349.2892  0.033380084  0.033609305            3 
  873000    1.0947212   -6.5051882    349.69711  0.033380785  0.033599627            4 
  874000    1.1124603   -6.5502821    350.26779  0.033397005  0.033590174            4 
  875000    1.1154054   -6.5049493    351.90478  0.033514741  0.033580772            3 
  876000    1.1167546   -6.5446556    351.07024  0.033397093   0.03357171            3 
  877000    1.1044792   -6.5252966     351.6037  0.033409702  0.033562682            2 
  878000    1.1061025   -6.5240718    351.66106  0.033377094  0.033553723            5 
  879000    1.0951822   -6.4970251    352.08882  0.033379676  0.033544584            2 
  880000    1.1203605    -6.515816    352.91933  0.033420391  0.033535793            3 
  881000    1.1210852   -6.5381463    352.97993  0.033388189   0.03352655            6 
  882000    1.1166696   -6.5095404    352.79275  0.033332649  0.033517368            3 
  883000    1.1086701   -6.5264594    353.32786    0.0333454  0.033508019            2 
  884000    1.0991941   -6.5440352    353.50543  0.033324418  0.033499078            4 
  885000    1.1037933   -6.5292097    353.27013  0.033264607  0.033489734            3 
  886000    1.1151321   -6.4762154    356.74392  0.033553792  0.033480779            2 
  887000     1.118083   -6.5600318    352.19093  0.033088212  0.033471589            3 
  888000    1.1225815   -6.4784523    356.91702  0.033494465  0.033462089            2 
  889000    1.1013676   -6.5559344    354.54647  0.033234577  0.033452972            3 
  890000    1.1160809   -6.5297418    354.76057  0.033217282  0.033443649            3 
  891000    1.1167819   -6.5040953    355.95443   0.03329166  0.033434326            3 
  892000    1.1250436   -6.5495533    355.28176  0.033191495  0.033424772            3 
  893000    1.1147743   -6.5325485     356.4865  0.033266751  0.033415155            2 
  894000    1.0994337   -6.5553533    355.75229  0.033161101  0.033405342            4 
  895000    1.1284127   -6.5418856    356.06175  0.033152863  0.033395511            2 
  896000    1.0892193     -6.51403    356.73765  0.033178725  0.033385901            2 
  897000    1.1025371   -6.5288163      355.698  0.033045151  0.033376096            6 
  898000    1.0871011   -6.5604881    357.15763  0.033143804  0.033366335            2 
  899000    1.0892839   -6.5242269    357.82602  0.033168893  0.033356197            7 
  900000    1.1149064   -6.5440441    357.09694  0.033064532  0.033346454            5 
  901000    1.1093508   -6.5401103    357.56163  0.033070813  0.033336573            2 
  902000    1.1134615   -6.5189672    358.29312  0.033101729  0.033326892            4 
  903000    1.1045755    -6.535928    356.90978   0.03293741  0.033316817            2 
  904000    1.1060803   -6.5441746    357.74665   0.03297812  0.033306299            4 
  905000    1.0960274   -6.5741011     356.9534  0.032868637  0.033296015            5 
  906000     1.099521   -6.5186474     358.1695  0.032944215  0.033285907            2 
  907000    1.1170619   -6.5101048    359.63364  0.033042415   0.03327587            2 
  908000    1.1295131   -6.5449887    357.82459  0.032839995  0.033265928            2 
  909000    1.1165887    -6.550761    358.22508  0.032840583  0.033255706            4 
  910000     1.116423   -6.5349202    360.21523  0.032986743  0.033245603            2 
  911000     1.107015   -6.5907457    360.34635  0.032962528  0.033235264            3 
  912000    1.1110991   -6.5577247    360.22492  0.032915289  0.033225018            3 
  913000    1.1104253    -6.551268    361.75696  0.033019072  0.033214915            6 
  914000    1.1001582   -6.5036584    361.70195  0.032977932  0.033204986            3 
  915000     1.132615   -6.5266363    361.05708  0.032883158  0.033194997            5 
  916000    1.0707359   -6.5308355     362.3927  0.032968768  0.033184821            3 
  917000    1.0965402   -6.5630047    361.70192   0.03287004  0.033174753            3 
  918000    1.1063604   -6.5647031    362.06226  0.032866945  0.033164669            2 
  919000    1.0955081   -6.5729401    362.72254  0.032891054  0.033154562            4 
  920000    1.1038793   -6.5745066    362.72641  0.032855653  0.033144454            3 
  921000    1.1036097    -6.552909    362.63305  0.032811531  0.033134138            2 
  922000    1.1354285   -6.5831803    362.84175  0.032794808  0.033124173            2 
  923000    1.0750579   -6.5913953    362.63822  0.032740901  0.033114175            3 
  924000    1.0875115   -6.5753062     362.9872  0.032736941  0.033103766            4 
  925000    1.1305307   -6.5460818    364.01504  0.032794147  0.033093575            3 
  926000    1.1075372   -6.5576851    364.43816   0.03279681  0.033083476            4 
  927000    1.1312086    -6.551618    364.11914  0.032732752  0.033073143            3 
  928000    1.0998848   -6.5401687    366.02522  0.032868644  0.033063218            3 
  929000    1.1133988    -6.565987    365.42115  0.032779077  0.033053564            5 
  930000    1.0956004   -6.5285048     367.2713  0.032909615  0.033043651            2 
  931000      1.10405   -6.5697526    365.65766   0.03272983  0.033033723            3 
  932000    1.1251446   -6.5717106    365.45378  0.032676482  0.033023824            4 
  933000    1.0986939   -6.4947855    366.69612  0.032752422  0.033013772            2 
  934000    1.1077772   -6.5695496    365.90692  0.032646942  0.033003742            2 
  935000    1.0898331   -6.5370483    366.32319  0.032649126  0.032993442            2 
  936000    1.0925026   -6.5237713    367.65611  0.032732916  0.032983418            2 
  937000    1.0996616   -6.5681005    367.00011  0.032639639  0.032973412            3 
  938000    1.0982997   -6.5453352    367.83282  0.032678822  0.032963263            2 
  939000    1.1078068   -6.5738658    367.84663  0.032645246  0.032952924            3 
  940000    1.0961982   -6.5681655     367.7666  0.032603422  0.032942516            3 
  941000    1.1106335   -6.5721045    368.68152  0.032649798  0.032932168            3 
  942000    1.1022895   -6.6063651    368.07508   0.03256149  0.032922074            5 
  943000    1.1127994   -6.5820482    369.36626  0.032641062  0.032911678            4 
  944000    1.0805142   -6.5867185      369.217  0.032593309    0.0329015            3 
  945000    1.1157239   -6.5319026    370.20347  0.032645808   0.03289148            3 
  946000    1.1308936   -6.5000459    370.82633  0.032666167  0.032881515            2 
  947000    1.1231607   -6.5466702    371.74218  0.032712265  0.032871613            1 
  948000    1.1120056   -6.5682063     372.1735  0.032715674  0.032861799            3 
  949000    1.0915184   -6.5801385    372.10602  0.032675274  0.032851924            3 
  950000    1.0842788   -6.5562425    372.21965  0.032650847  0.032842209            5 
  951000    1.1049483   -6.5569546    371.89413  0.032587989  0.032832784            3 
  952000    1.1004588   -6.5601578     372.5335  0.032609725  0.032823276            1 
  953000    1.1017383   -6.5585193    372.76839  0.032596047  0.032813691            3 
  954000    1.0837779   -6.5362536     374.0939  0.032677664  0.032804261            2 
  955000    1.1138644   -6.5963228    373.44153  0.032586521  0.032794529            3 
  956000    1.0919499   -6.5501104    373.66561  0.032571967  0.032785264            4 
  957000     1.106474   -6.5453687    373.72474   0.03254308  0.032775995            2 
  958000    1.1211552   -6.5542386    373.65535  0.032503075     0.032766            6 
  959000    1.1054125   -6.5952847    374.07492  0.032505641  0.032756299            7 
  960000    1.0949789   -6.5721801    374.69847  0.032525909  0.032746601            6 
  961000    1.1078502   -6.5224573    377.00359  0.032691952  0.032737157            4 
  962000    1.1074921   -6.5444988    375.56646  0.032533477  0.032727638            4 
  963000      1.08385   -6.5552807    376.46931  0.032577822  0.032718105            2 
  964000    1.1063603   -6.5319859    375.89975  0.032494791  0.032708613            3 
  965000     1.102461    -6.537903    376.18594  0.032485832  0.032699325            5 
  966000    1.0824912   -6.5521261    377.29765  0.032548107  0.032690172            2 
  967000    1.0920163   -6.5079512    378.87066  0.032650005  0.032680969            2 
  968000     1.115856   -6.5855938    376.79123  0.032437262   0.03267162            3 
  969000     1.089995   -6.5760733    377.31836  0.032449119  0.032662175            2 
  970000    1.1138853   -6.5863634    379.03732  0.032563344   0.03265269            2 
  971000    1.1045688   -6.5929304    377.72136  0.032416869  0.032643073            5 
  972000    1.1115826   -6.6113655    378.27425   0.03243092  0.032633412            4 
  973000    1.0910003   -6.5550686      379.892  0.032536142  0.032624028            4 
  974000    1.0898815   -6.6025463    378.64358  0.032395926  0.032614586            3 
  975000    1.1043283   -6.5577827    381.13523  0.032575661  0.032605018            4 
  976000    1.0748976   -6.5911968    379.89419  0.032436321   0.03259557            5 
  977000    1.0955381    -6.619396    379.37452  0.032358796  0.032586069            4 
  978000     1.092088   -6.5785464    380.42302  0.032415049  0.032576526            7 
  979000    1.0640865   -6.5654513    381.14218  0.032443154  0.032567374            2 
  980000    1.0796956   -6.5935279    380.13095  0.032324061   0.03255782            5 
  981000    1.1313892   -6.5922402    381.16508  0.032378957   0.03254809            3 
  982000    1.1053197   -6.6220856    380.23197    0.0322668  0.032538195            3 
  983000    1.0670206   -6.6011104    381.53413  0.032344365  0.032528504            6 
  984000    1.1139922    -6.565603    381.78514  0.032332752  0.032518893           12 
  985000    1.0727051   -6.5775301    382.15203  0.032330967  0.032509262            3 
  986000    1.0906043    -6.548528    383.03215  0.032372561  0.032499781            4 
  987000    1.0998984   -6.5683112     383.3392  0.032365687  0.032490538            6 
  988000    1.1174956   -6.5668986    382.46933  0.032259559  0.032481009            2 
  989000     1.092928   -6.5817616    383.40584  0.032305851  0.032471647            4 
  990000    1.1191247   -6.5883051    383.08784  0.032246452  0.032462505            5 
  991000    1.1109396   -6.5373385    387.40659  0.032577076   0.03245373            2 
  992000    1.0952397   -6.5597507    385.54918  0.032388204  0.032445206            3 
  993000    1.0970651   -6.5968371    384.54978  0.032271717  0.032436479            3 
  994000    1.0966801    -6.562932     386.8771  0.032434364  0.032427559            3 
  995000    1.0906617   -6.5872459    385.92256  0.032321823  0.032418798            2 
  996000    1.1045326   -6.5769671    385.34947  0.032241422  0.032409426            3 
  997000    1.1179138   -6.6296119    385.50807   0.03222234  0.032400173            4 
  998000    1.1086891   -6.5927161    385.74814  0.032210099  0.032390729            5 
  999000    1.0951814   -6.6180468    385.87444  0.032188391  0.032381505            6 
 1000000    1.1262558   -6.5616046    387.65597  0.032304664  0.032372203            3 
 1001000    1.0921214    -6.584433    387.38574  0.032249895  0.032363236            2 
 1002000     1.076229   -6.5540805    387.80895  0.032252906  0.032354144            3 
 1003000    1.0918917    -6.597658    386.98266  0.032152099  0.032344844            3 
 1004000    1.1067551   -6.6333226    386.86579  0.032110375  0.032335329            4 
 1005000     1.081137   -6.5797609     387.9572  0.032168922  0.032325658            3 
 1006000    1.0859389   -6.5834514    388.87402  0.032212891  0.032316453            4 
 1007000    1.0743297   -6.5805867    389.42401  0.032226416   0.03230722            3 
 1008000    1.1086969   -6.5844658    388.26001  0.032098215  0.032297695            3 
 1009000    1.0853169   -6.6342862    388.85016  0.032115143  0.032288209            4 
 1010000    1.0871453   -6.5951933    390.30674  0.032203526  0.032278731            3 
 1011000    1.0722121   -6.5815022    389.78341  0.032128537  0.032269573            3 
 1012000    1.0838109   -6.6057136    391.77743  0.032260987  0.032260353            2 
 1013000    1.0872652   -6.5641287    392.25336  0.032268292  0.032251856            1 
 1014000    1.0951486   -6.6096807    391.47253  0.032172299  0.032242798            6 
 1015000    1.1065071   -6.5803287    391.97745  0.032182057  0.032233926            3 
 1016000    1.1085954   -6.5898408    392.40729  0.032185637  0.032225358            3 
 1017000    1.0830662   -6.5839748    393.66746  0.032257248  0.032216717            4 
 1018000    1.1021856   -6.5661481    392.58867  0.032137252  0.032207971            4 
 1019000     1.074634    -6.556076    393.45573  0.032176622  0.032199134            3 
 1020000    1.0811632   -6.5635093    393.58545  0.032155674  0.032190361            4 
 1021000     1.079904   -6.5663174    393.96784   0.03215539  0.032181622            5 
 1022000    1.0847135   -6.6243164    393.66398  0.032099151  0.032172574            4 
 1023000    1.1004349    -6.578299     393.9035  0.032087284  0.032163621            5 
 1024000    1.0978514   -6.6341995    393.67787  0.032037587  0.032154359            3 
 1025000    1.0948164   -6.6169212    395.33128  0.032140755  0.032145306            2 
 1026000    1.0713725   -6.5956021    394.71908  0.032059704  0.032136538            3 
 1027000     1.123333   -6.5636183    394.16233  0.031983311  0.032127708            3 
 1028000    1.0894681   -6.5826589    395.66781  0.032074239  0.032118891            2 
 1029000     1.073953   -6.5785906    396.72649  0.032128806  0.032110112            4 
 1030000     1.071965   -6.6147792    394.10724  0.031885699  0.032101275            4 
 1031000    1.0975567   -6.5833402    395.90827  0.032000345  0.032092293            3 
 1032000    1.0829269   -6.6235535    395.97261  0.031974532  0.032083371            3 
 1033000    1.0617705   -6.5854978    396.64998  0.031998223  0.032074306            1 
 1034000    1.0638144   -6.5987897    395.33444  0.031861254  0.032065149            8 
 1035000    1.1168574   -6.6163426    395.62467  0.031853838  0.032055789            3 
 1036000    1.0812349   -6.5729579    396.12557  0.031863382  0.032046306            4 
 1037000    1.0980947   -6.6377152    396.25808  0.031843304  0.032036929            6 
 1038000    1.0691179   -6.6118693    397.15447  0.031884591  0.032027831            3 
 1039000    1.0770299   -6.6275144     397.1536  0.031853833   0.03201873            2 
 1040000     1.069233   -6.5785311    398.07061  0.031896683  0.032009611            4 
 1041000    1.0817729   -6.5946545    399.07745  0.031946642  0.032000739            3 
 1042000    1.1068267   -6.5947022    398.58037  0.031876229  0.031991886            4 
 1043000    1.0988164   -6.5698349    399.70623  0.031935621  0.031983072            2 
 1044000     1.074178   -6.6514391    399.65618  0.031901036  0.031974023            3 
 1045000    1.0820803    -6.629645    399.20174  0.031834269   0.03196471            4 
 1046000    1.0762951   -6.6104225    398.79476  0.031771412  0.031955361            2 
 1047000    1.0673039   -6.5910182    400.58611  0.031883645  0.031945974            4 
 1048000    1.1063866    -6.595971    399.91684  0.031800003  0.031936969            5 
 1049000    1.0997417   -6.5821449    399.59674   0.03174426  0.031927682            3 
 1050000    1.0903196   -6.6004554    400.15928  0.031758673  0.031918439            3 
 1051000    1.0771881   -6.5681324    400.60618   0.03176389  0.031909137            7 
 1052000    1.1111516   -6.6077082    400.19226  0.031700908  0.031899708            2 
 1053000    1.0697678   -6.6120576    400.92914  0.031729119  0.031890307            4 
 1054000    1.0861044   -6.5988294    402.11653  0.031792895  0.031880974            3 
 1055000    1.0717172   -6.5827618    402.47738  0.031791262  0.031871632            9 
 1056000    1.1044914   -6.6062695    403.26318  0.031823168  0.031862727            2 
 1057000    1.0922871   -6.6152482    401.48043  0.031652509  0.031853293            2 
 1058000    1.0767762   -6.6208767    402.91885  0.031735889  0.031843985            3 
 1059000    1.1157234    -6.604342    403.45572  0.031748168  0.031834693            3 
 1060000    1.0604258   -6.5971695    403.74102  0.031740646  0.031825785            2 
 1061000    1.1018787   -6.5433528     405.2726  0.031831024  0.031817014            8 
 1062000    1.0711382   -6.5412834    405.89847  0.031850162  0.031808261            4 
 1063000      1.07115   -6.6214226    404.43338  0.031705345  0.031799387            4 
 1064000    1.0843387   -6.6041072    404.56688  0.031686003  0.031790033            5 
 1065000      1.08106   -6.6265736    403.88614  0.031602985  0.031780666            3 
 1066000    1.0657774   -6.5997435    404.30174  0.031605827   0.03177104            3 
 1067000    1.0886259   -6.5764142    405.02772  0.031632906  0.031761835            2 
 1068000     1.078618   -6.6040641    404.82738  0.031587654  0.031752692            3 
 1069000    1.0807877   -6.6215974    405.30222  0.031595121  0.031743847            4 
 1070000    1.0830786   -6.6173442      406.694  0.031673988  0.031734455            3 
 1071000    1.0854404   -6.5952461    407.07549  0.031674096  0.031725314            1 
 1072000    1.0675099    -6.610064    406.71594    0.0316166  0.031716159            3 
 1073000    1.0955067   -6.6318071    406.26371  0.031552012  0.031707003            2 
 1074000      1.05931   -6.6248819     406.2659  0.031522804  0.031697481            7 
 1075000    1.0989295   -6.6357002    406.22468  0.031490285  0.031687919            5 
 1076000    1.0517064   -6.6009014    407.89564   0.03159043  0.031678496            4 
 1077000    1.0817913   -6.6708321    405.68608  0.031390133  0.031668823            5 
 1078000     1.087194   -6.5730877    409.04669  0.031620801  0.031659466            5 
 1079000     1.094273   -6.5637702    408.00499  0.031511044    0.0316503            7 
 1080000    1.0805084   -6.6345974    408.53841  0.031523026  0.031641034            3 
 1081000    1.1065224   -6.6056081    408.88342  0.031520461  0.031631757            4 
 1082000    1.0868582   -6.6247534    408.78943  0.031484091  0.031622549            3 
 1083000    1.0480212   -6.5939836    409.91514  0.031541639  0.031613294            4 
 1084000    1.0773948   -6.6182335     410.0351  0.031521763  0.031604326            3 
 1085000    1.0733962   -6.6143818    410.28978  0.031512272  0.031595197            2 
 1086000    1.0847593   -6.6193384    409.34748  0.031410948  0.031585879            2 
 1087000    1.0716881    -6.585424    410.16199  0.031444495  0.031576581            3 
 1088000    1.1049245   -6.6389855    409.54318  0.031368197   0.03156728            7 
 1089000    1.0627296   -6.5923294    411.89006  0.031518982  0.031558104            2 
 1090000    1.0842021   -6.6180802    410.89811  0.031414229  0.031549037            6 
 1091000    1.0890812   -6.5691698    413.77815  0.031605419  0.031540182            3 
 1092000    1.0497792   -6.6687412    411.34717  0.031390962  0.031531264            3 
 1093000    1.0713487   -6.6166107     412.2311  0.031429635  0.031522217            2 
 1094000    1.0918611   -6.6155031    413.38044  0.031488455  0.031513043            2 
 1095000     1.060695   -6.5912654    413.97487  0.031504937  0.031504151            4 
 1096000    1.0699497   -6.6624834    412.36669  0.031353915  0.031495253            4 
 1097000    1.0675294   -6.6148686    414.52943  0.031489625   0.03148613            3 
 1098000    1.0986505   -6.5960084    414.46289  0.031455896  0.031477178            4 
 1099000    1.0746662   -6.6392339    412.02922  0.031242737  0.031468083            3 
 1100000    1.0780889   -6.6133318    414.08316  0.031369936  0.031458807            5 
 1101000    1.0660329   -6.6211822    413.99145  0.031334503  0.031449549            3 
 1102000    1.0711999   -6.6261182    414.89566  0.031374445  0.031440081            3 
 1103000    1.0857605   -6.6177891    414.62053  0.031325214  0.031430464            3 
 1104000    1.0800522   -6.6402943    413.60945   0.03122052  0.031421016            2 
 1105000    1.0748631   -6.6386152    413.71195  0.031199996  0.031411411            4 
 1106000    1.0684458   -6.5736424     415.6966  0.031321323  0.031402039            5 
 1107000    1.0752334   -6.6062498    415.20998  0.031256397  0.031392679            3 
 1108000    1.0587484   -6.5991793    417.03946  0.031365784  0.031383662            4 
 1109000    1.0788836    -6.648634    415.27633  0.031205014  0.031374302            6 
 1110000    1.0855454   -6.6545311    416.70404  0.031284087  0.031364858            7 
 1111000     1.081263   -6.6175152     415.8563  0.031192341  0.031355441            6 
 1112000    1.0934279   -6.6386748    416.78653  0.031234003  0.031346224            4 
 1113000    1.0781306    -6.619699     417.0104  0.031222702  0.031336952            3 
 1114000    1.0785488   -6.5784806    418.29566  0.031290819  0.031327829            3 
 1115000    1.0777834   -6.5853334    418.45473  0.031274644  0.031318953            3 
 1116000    1.0886369   -6.6499574    417.89296  0.031204671  0.031309879            5 
 1117000    1.0764465   -6.6285479    417.75969  0.031166793  0.031300601            4 
 1118000    1.0824281   -6.6359708    418.12313  0.031166006  0.031291472            2 
 1119000    1.0761858   -6.6169643     419.8853  0.031269385  0.031282461            4 
 1120000    1.0843242   -6.6347166    419.15326  0.031186999  0.031273305            4 
 1121000    1.0454904   -6.6304404    419.80784  0.031207838  0.031264101            2 
 1122000    1.0759411   -6.5816123    421.70683  0.031321066  0.031255137            3 
 1123000    1.0838884   -6.5979735    422.20483   0.03133013  0.031246352            3 
 1124000    1.0553177   -6.6189709     420.9582  0.031209831  0.031237733            2 
 1125000    1.0530901   -6.6543409    421.42398  0.031216591  0.031228801            2 
 1126000    1.0962021   -6.6220782    421.31091    0.0311805  0.031219908            3 
 1127000    1.0851198   -6.6199132    420.39084    0.0310848  0.031210892            4 
 1128000    1.0610738   -6.6301812    420.97699  0.031100546  0.031201752            4 
 1129000    1.0494682   -6.6123537     422.0337  0.031150997  0.031192585            3 
 1130000    1.0750983   -6.6047919    420.77903  0.031030902  0.031183735            3 
 1131000    1.0938491   -6.6576936     422.0141  0.031094467  0.031174749            4 
 1132000    1.0544791   -6.6078845    423.77249  0.031196444  0.031165737            3 
 1133000    1.0689677   -6.6665417    421.93891  0.031034047  0.031156999            6 
 1134000    1.0485481   -6.6477994    422.53624  0.031050576  0.031148221            5 
 1135000     1.065547   -6.6731209    422.49021  0.031019839  0.031139092            3 
 1136000    1.0689906    -6.670772    423.07092  0.031035132  0.031129779            6 
 1137000    1.0675012   -6.6554897    423.29871  0.031024531  0.031120809            4 
 1138000    1.0653925    -6.629094    422.20605  0.030917256  0.031111603            2 
 1139000    1.0755001   -6.6752665    422.78282  0.030932311  0.031102297            2 
 1140000    1.0707338   -6.6553991    423.52887  0.030959712  0.031092988            4 
 1141000    1.0797466   -6.6004623    425.26713  0.031059533  0.031084087            3 
 1142000    1.0696597   -6.6366131    424.35917  0.030966081  0.031075213            2 
 1143000    1.0702717   -6.6407108      426.567  0.031099956  0.031066517            6 
 1144000    1.0516337    -6.626385    426.17079  0.031043909  0.031057675            6 
 1145000    1.0511569   -6.6589335    425.57797  0.030973651   0.03104885            8 
 1146000    1.0668047   -6.6454134      426.982   0.03104872  0.031040115            2 
 1147000    1.0758695   -6.6464898    426.32431  0.030973868  0.031031431            1 
 1148000    1.0376702   -6.6597102    426.30307  0.030945345  0.031022351            4 
 1149000    1.0376211   -6.6327976    428.02639  0.031043399  0.031013533            2 
 1150000    1.0782548   -6.6526683    428.21428   0.03103002  0.031004518            3 
 1151000     1.111423   -6.6724383    427.26558  0.030934374  0.030995655            5 
 1152000    1.0563641   -6.6584286    426.88823  0.030880225  0.030986865            4 
 1153000    1.0589095   -6.6527692    427.47286  0.030895697  0.030977673            2 
 1154000    1.0733472   -6.6669555    428.36659  0.030933463  0.030968852            7 
 1155000    1.0698166   -6.6575659    427.84596  0.030869117  0.030959961            5 
 1156000    1.0784152   -6.6231509    429.26076  0.030944403  0.030950832            2 
 1157000    1.0736342     -6.64732    429.69762  0.030949123  0.030942098            2 
 1158000    1.0573305   -6.6127312    430.95697  0.031013023  0.030933361            2 
 1159000    1.0651609   -6.6613646    430.36951  0.030944026  0.030924871            4 
 1160000    1.0454532   -6.6547328    428.53494  0.030785556  0.030916155            4 
 1161000    1.0663197   -6.6201973    429.15407  0.030803479  0.030907246            9 
 1162000    1.0611252   -6.5975836     430.8915  0.030901571   0.03089834            4 
 1163000    1.0497379   -6.6996773    429.51882  0.030776642  0.030889339            2 
 1164000    1.0721777   -6.6747458    429.54662  0.030752192  0.030880188            8 
 1165000    1.0741072    -6.660118    429.18585  0.030699989  0.030870995            3 
 1166000    1.0708001   -6.6517518     430.7517   0.03078557  0.030861854            6 
 1167000    1.0480622    -6.646826     430.1356  0.030715196  0.030852878            3 
 1168000    1.0377503   -6.6617483    430.84586  0.030739573  0.030844047            3 
 1169000    1.0754784   -6.6502084    432.06799  0.030800399  0.030835132            2 
 1170000    1.0579307   -6.6259205    431.52137   0.03073514  0.030826011            1 
 1171000    1.0428828   -6.6339401    432.18744  0.030756294  0.030816938            3 
 1172000    1.0800438   -6.6646716    432.16953  0.030728778  0.030807946            6 
 1173000    1.0475236   -6.5994314    434.26691  0.030851585  0.030799078            5 
 1174000    1.0820712   -6.6427009    433.25881  0.030753749  0.030790619            2 
 1175000    1.0626151   -6.6580165     432.4168  0.030667858  0.030781713            4 
 1176000    1.0722186   -6.6971955     434.4514  0.030785955  0.030772946            2 
 1177000    1.0635689   -6.6699463    433.93261  0.030723068  0.030764311            3 
 1178000    1.0514658   -6.6091925    434.82743  0.030760288  0.030755681            3 
 1179000    1.0594994   -6.6377601    435.39714  0.030774466  0.030747173            3 
 1180000     1.048799    -6.659675    435.39946  0.030748549  0.030738652            2 
 1181000    1.0611449   -6.6486994    436.47975   0.03079874  0.030730101            7 
 1182000    1.0572612   -6.6317477    437.88679  0.030871883  0.030721449            3 
 1183000    1.0678747   -6.6864033    435.71374  0.030692712  0.030713002            2 
 1184000    1.0453143   -6.6696728    436.67201  0.030734235  0.030704361            5 
 1185000     1.083398   -6.6621413    437.12501  0.030740155  0.030695987            7 
 1186000    1.0706167   -6.7076074    435.78419  0.030620024  0.030687284            4 
 1187000    1.0437236   -6.6611224    437.87141  0.030740762  0.030678535            5 
 1188000    1.0323277   -6.6170278    438.50298  0.030759188  0.030669933            3 
 1189000    1.0532095   -6.6726257    437.72061  0.030678484   0.03066139            7 
 1190000    1.0527796    -6.679126    438.96333  0.030739729  0.030653042            5 
 1191000    1.0615122   -6.6604147    438.46923  0.030679347  0.030644563            5 
 1192000    1.0544712   -6.6754915    438.84549  0.030679914  0.030635944            3 
 1193000    1.0541012    -6.690269    438.61479  0.030638082  0.030627158            5 
 1194000    1.0413451   -6.6629821    438.52876  0.030606418  0.030618493            2 
 1195000     1.078483    -6.644836    439.75096  0.030666036  0.030609774            5 
 1196000    1.0372019    -6.671234     439.1163  0.030596174  0.030601262            5 
 1197000    1.0488246   -6.5878988    440.86453  0.030692323  0.030592962            7 
 1198000    1.0633212   -6.6169227    441.46603  0.030708544  0.030584788            3 
 1199000    1.0501588   -6.6870319    440.44342  0.030611859  0.030576471            3 
 1200000     1.077167   -6.6335803    442.04906  0.030697851  0.030568101            4 
 1201000    1.0518202   -6.6715345    441.86199  0.030659311  0.030559719            4 
 1202000    1.0688521   -6.6331174    442.95244  0.030709403   0.03055152            2 
 1203000    1.0815182   -6.6416148    441.88441  0.030609893  0.030543413            3 
 1204000    1.0666104   -6.6834179    442.31244  0.030614095  0.030535344            3 
 1205000    1.0552554    -6.641933    442.53423  0.030604027  0.030527194            4 
 1206000    1.0450671   -6.6514171    443.63507  0.030654718   0.03051914            5 
 1207000    1.0741286   -6.6507886    444.90531   0.03071702  0.030510895            3 
 1208000    1.0358174   -6.6723677    442.49527  0.030525336  0.030502665            2 
 1209000    1.0761985    -6.674518    442.52398  0.030502066  0.030494351            6 
 1210000    1.0989508   -6.6333254    444.12246  0.030586946  0.030486282            2 
 1211000    1.0620833   -6.6271478    445.86925  0.030681891  0.030478172            5 
 1212000    1.0668226   -6.7361323    443.25241  0.030476651  0.030469959            3 
 1213000     1.045991   -6.6582657    444.29728  0.030523308  0.030461596            3 
 1214000    1.0558017   -6.6498901    443.79193  0.030463477  0.030453438            3 
 1215000    1.0791427   -6.6511875     446.0787  0.030595247  0.030445432            9 
 1216000    1.0563102   -6.6911224    445.49329  0.030529967   0.03043748            4 
 1217000    1.0326444   -6.7152533    445.89055  0.030532083  0.030429201            5 
 1218000    1.0533544   -6.6711486    444.40011  0.030405043  0.030420949            4 
 1219000    1.0486706   -6.6836493    445.01289  0.030421992  0.030412373            5 
 1220000    1.0781908   -6.6877123    446.99635  0.030532537   0.03040415            2 
 1221000    1.0592938   -6.6715993    446.96246  0.030505219  0.030396031            3 
 1222000    1.0283708   -6.6499292      448.145  0.030560897  0.030388003            5 
 1223000    1.0515962   -6.6572493    446.98549  0.030456902  0.030380115            2 
 1224000    1.0750707   -6.6771966    447.38556  0.030459257  0.030371962            7 
 1225000    1.0585606    -6.689924    446.65176  0.030384473  0.030363817            3 
 1226000    1.0345115   -6.6623673     449.4756  0.030551631  0.030355693            3 
 1227000    1.0622508   -6.6975811    448.35355  0.030450526  0.030347593            3 
 1228000    1.0353896   -6.6665533    448.70228  0.030449394  0.030339256            3 
 1229000    1.0606362   -6.6767889    448.54306  0.030413823  0.030330957            3 
 1230000    1.0681485    -6.697957     447.2913  0.030304289  0.030322662            4 
 1231000    1.0599546    -6.635114    450.76954  0.030515133  0.030314416            5 
 1232000    1.0698385   -6.7022603    448.94126  0.030366698  0.030306158            1 
 1233000    1.0547729   -6.6863712    449.34182  0.030369142  0.030297923            2 
 1234000    1.0428826   -6.6752005      450.415  0.030417004  0.030289606            6 
 1235000     1.074498   -6.6979656    450.06802  0.030368962  0.030281566            2 
 1236000    1.0649005    -6.727102     449.4234  0.030300931  0.030273534            5 
 1237000    1.0558736   -6.7082667    451.52316   0.03041789  0.030265593            2 
 1238000    1.0789264   -6.6964282    451.01974  0.030359433  0.030257513            2 
 1239000    1.0500899   -6.6654581     452.6569  0.030445043  0.030249573            8 
 1240000    1.0641532    -6.633102    453.48064   0.03047585  0.030241774            4 
 1241000    1.0681352   -6.6441526    452.52861  0.030387363  0.030233909            6 
 1242000    1.0631601   -6.6917447     451.9361  0.030323142  0.030225958            4 
 1243000    1.0809174   -6.6720643    453.41647  0.030397993  0.030218147            6 
 1244000      1.04157   -6.6927554    452.61531   0.03031989  0.030210212            3 
 1245000    1.0411595   -6.6683866    453.47895  0.030353344  0.030202196            4 
 1246000    1.0603484   -6.6954134    454.97562  0.030429081   0.03019415            3 
 1247000    1.0652165   -6.6872172    453.90253  0.030332967   0.03018639            4 
 1248000    1.0429932    -6.683579     456.0365  0.030451155  0.030178589            3 
 1249000    1.0257187   -6.6865903    455.67497  0.030402654  0.030170783            6 
 1250000      1.07012   -6.7008106    454.23277  0.030282184  0.030162889            5 
 1251000    1.0646431   -6.6661912    455.22611  0.030324148  0.030154898            4 
 1252000    1.0416138   -6.6936562    455.88698  0.030343915  0.030147051           12 
 1253000    1.0450073   -6.6933351    454.40093  0.030220865  0.030138944            6 
 1254000    1.0682731   -6.7027718    454.13228  0.030178913  0.030130936            3 
 1255000    1.0743395   -6.7011024    454.23231  0.030161508  0.030122836            7 
 1256000    1.0409911   -6.6679736     456.9636   0.03031871  0.030114733            2 
 1257000    1.0425365   -6.7079456    456.13582  0.030239712  0.030106926            3 
 1258000    1.0395403   -6.6849139    456.81213  0.030260475  0.030098753            3 
 1259000    1.0651218   -6.6321678    458.42129   0.03034295  0.030090854            5 
 1260000    1.0435372   -6.6440727     457.5807  0.030263274  0.030082802            8 
 1261000    1.0535486   -6.6753271     456.4587  0.030165127  0.030074563            3 
 1262000    1.0482748   -6.6621669    458.47054  0.030274071  0.030066392            3 
 1263000    1.0530437   -6.6886319    458.26035  0.030236233  0.030058138            5 
 1264000    1.0288426   -6.7058811    457.70409  0.030175639  0.030049771            5 
 1265000     1.060123    -6.735799    456.60964  0.030079687  0.030041435            2 
 1266000    1.0577933   -6.7145132     458.1432  0.030156872  0.030033276            4 
 1267000    1.0507084   -6.6839491    458.49572  0.030156256  0.030025093            4 
 1268000    1.0451709   -6.6918789    458.16341  0.030110634   0.03001684            3 
 1269000    1.0765136    -6.680411    459.20588  0.030155364  0.030008766            5 
 1270000    1.0448616   -6.6641105    458.29437  0.030071809  0.030000757            5 
 1271000    1.0535781   -6.7142907    457.90245  0.030022453  0.029992533            4 
 1272000    1.0457684   -6.7480577    458.94012  0.030066832   0.02998419            3 
 1273000    1.0609523   -6.6672886    461.91695  0.030238083  0.029976071            3 
 1274000      1.05973    -6.701212    460.46744  0.030119534  0.029968139            5 
 1275000    1.0395801   -6.6837431    461.60695  0.030170389    0.0299601            3 
 1276000    1.0508293   -6.6863625     461.2074  0.030120651  0.029951896            5 
 1277000    1.0451417   -6.7098688    461.49377  0.030115751  0.029943695            3 
 1278000    1.0387885   -6.6759179    462.03115  0.030127227  0.029935824            3 
 1279000    1.0729284    -6.721855    462.16695   0.03011252  0.029928046            7 
 1280000    1.0392719   -6.6980136    462.77296  0.030128448  0.029920243            5 
 1281000    1.0226563   -6.6820425    463.23098  0.030134724  0.029912564            7 
 1282000    1.0424286   -6.7269701    462.38633  0.030056314  0.029904754            3 
 1283000    1.0677253   -6.6934279    461.92957  0.030003219  0.029897098            5 
 1284000    1.0511612   -6.7109149     462.5183  0.030018062  0.029889124            3 
 1285000    1.0528219   -6.6829291    464.71192   0.03013696  0.029881084            2 
 1286000    1.0461404   -6.6557789    463.93753  0.030063345   0.02987318            2 
 1287000    1.0317095   -6.6831397    465.42782  0.030136482   0.02986548            4 
 1288000    1.0498049   -6.6896261    462.82353  0.029944587  0.029857677            3 
 1289000    1.0512561   -6.7034669    464.12045  0.030005201  0.029849788            4 
 1290000    1.0321687    -6.691371    466.06215  0.030107374  0.029841986            3 
 1291000    1.0417925   -6.6785015    464.95253  0.030012428  0.029834268           11 
 1292000    1.0490456   -6.6833162    466.42219  0.030083991  0.029826912            4 
 1293000    1.0437332    -6.746836    464.39934  0.029930352  0.029819234            3 
 1294000    1.0326806   -6.7008466    465.65832    0.0299883  0.029811497            4 
 1295000    1.0538894   -6.6808487    466.50929  0.030019903  0.029803816            2 
 1296000    1.0497279   -6.7263631    465.67879  0.029943338  0.029796028            2 
 1297000    1.0235407   -6.6828616    468.00433  0.030069669  0.029788282            3 
 1298000    1.0555157   -6.7122631    464.73174  0.029836398  0.029780366            4 
 1299000    1.0543294   -6.7008144    465.37356  0.029854604  0.029772664            2 
 1300000     1.045369   -6.7286876    465.61416  0.029847061  0.029764757            2 
 1301000    1.0626545   -6.7379398    467.54123  0.029947555  0.029756828            4 
 1302000    1.0381612    -6.712193    467.79997  0.029941114  0.029749059            2 
 1303000    1.0327819   -6.6681824    470.39358   0.03008401  0.029741378            5 
 1304000    1.0477029    -6.744127    467.24103  0.029859472  0.029733739            7 
 1305000     1.017214   -6.6975248    469.83247  0.030002073   0.02972591            6 
 1306000    1.0452002   -6.7211896    468.64522  0.029903345  0.029718209            3 
 1307000    1.0328898   -6.7163903    469.51693  0.029936045  0.029710604            3 
 1308000    1.0221645   -6.7231531    468.76066  0.029864976  0.029702838            2 
 1309000    1.0469474   -6.7294302    469.00683  0.029857832  0.029695193            6 
 1310000    1.0378253    -6.695859    470.00892  0.029898786  0.029687499            7 
 1311000    1.0349737   -6.7686417    469.10906  0.029818781   0.02967996            4 
 1312000    1.0433947   -6.7306186     470.2397  0.029867867   0.02967233            5 
 1313000    1.0597885   -6.7373165    470.57181  0.029866198   0.02966476            5 
 1314000    1.0407797   -6.7051578    472.44819  0.029962468  0.029657353            5 
 1315000    1.0425854   -6.7279212    471.35042  0.029870115  0.029649669            6 
 1316000    1.0609239   -6.6761955    471.12401  0.029833081   0.02964192            5 
 1317000    1.0402721   -6.7635634    469.01837  0.029677194  0.029634233            2 
 1318000    1.0313871   -6.7108383    471.67986  0.029822955  0.029626363            2 
 1319000    1.0118958   -6.6910253    471.89155  0.029813719  0.029618726            3 
 1320000    1.0381114    -6.685272     471.5911  0.029772165    0.0296112            5 
 1321000     1.048486    -6.707527     471.2142  0.029725852  0.029603312            4 
 1322000    1.0429405   -6.6844508    472.46101   0.02978196  0.029595437            6 
 1323000    1.0074309    -6.736837    470.61689  0.029643291  0.029587484            3 
 1324000    1.0447001   -6.7240966    471.57121  0.029680968  0.029579323            5 
 1325000    1.0554843   -6.7152142    471.69691  0.029666472  0.029571364            5 
 1326000    1.0170083   -6.7089114    473.66403  0.029767724  0.029563359            5 
 1327000    1.0352188   -6.7252669     472.6374  0.029680821   0.02955537            2 
 1328000     1.030293   -6.7121804    472.73987  0.029664902  0.029547389            3 
 1329000    1.0362987   -6.7024679    474.17951  0.029732851  0.029539385            4 
 1330000    1.0286743   -6.7117607    474.87334  0.029753969  0.029531592            5 
 1331000      1.04286    -6.710335    475.64959  0.029780215  0.029523786            6 
 1332000    1.0260773   -6.7389902    474.13627   0.02966318  0.029515803            5 
 1333000    1.0335864   -6.7137487    475.83317   0.02974701  0.029507904            2 
 1334000    1.0072951    -6.732319    476.22398  0.029749124  0.029500024            2 
 1335000    1.0367304   -6.7331721    475.13031  0.029658571  0.029492233            5 
 1336000    1.0283641   -6.7358321    474.27072  0.029582755  0.029484288            3 
 1337000    1.0234712   -6.7903958    474.52078  0.029576214  0.029476158            4 
 1338000    1.0490344    -6.741112    476.11369  0.029653319  0.029468213            5 
 1339000    1.0344881   -6.7521908    477.45332  0.029714546  0.029460347            5 
 1340000    1.0638543   -6.6902627    477.44111  0.029691611  0.029452749            3 
 1341000    1.0187448   -6.7275309    477.24907  0.029657536  0.029445033            3 
 1342000    1.0565684    -6.735328    476.90806  0.029614261  0.029437076            4 
 1343000    1.0466753   -6.6987924    478.31451  0.029679481  0.029429427            2 
 1344000     1.033336   -6.6646197    477.69598  0.029619046  0.029421651            4 
 1345000    1.0200465   -6.7455529    479.11603  0.029685008  0.029413951           11 
 1346000    1.0260361   -6.7131416    478.01431  0.029594744  0.029406027            2 
 1347000    1.0371459   -6.6937734    477.76116  0.029557112  0.029398234            4 
 1348000    1.0563725   -6.7263706    476.79511  0.029475464  0.029390376            3 
 1349000    1.0185419    -6.742176    476.90077  0.029460142  0.029382497            3 
 1350000     1.030706   -6.7726729    477.13651  0.029452871  0.029374639            4 
 1351000    1.0457405   -6.7569912    477.19265  0.029434533  0.029366544            3 
 1352000    1.0393416   -6.7392079    477.80993  0.029450809  0.029358371            6 
 1353000    1.0509215   -6.7227678    479.58741   0.02953852   0.02935033            3 
 1354000    1.0133077   -6.7552868    478.33318  0.029439512  0.029342279            4 
 1355000    1.0549926   -6.7265064    478.59646  0.029433977  0.029334266            2 
 1356000    1.0354584   -6.7332715    478.48168  0.029405216  0.029326212            5 
 1357000    1.0309029   -6.7742029    479.04851  0.029418356  0.029317926            6 
 1358000    1.0476627   -6.7871154    477.66359  0.029311708  0.029309684            5 
 1359000    1.0281877   -6.7035549    480.26074  0.029449395  0.029301429            8 
 1360000    1.0232048   -6.7663219    478.87778  0.029343001  0.029293086            2 
 1361000    1.0499706   -6.7792531    478.40264  0.029292349  0.029284525            3 
 1362000    1.0377185   -6.7508592    479.24758  0.029322539  0.029276083            3 
 1363000    1.0674117   -6.7155949    479.80986  0.029335404  0.029267805            5 
 1364000    1.0292667   -6.7460873    479.67306  0.029305539  0.029259308           10 
 1365000    1.0369594   -6.7275472    480.72785  0.029348465  0.029250995            3 
 1366000    1.0411627   -6.6922499     480.1091  0.029289233  0.029242749            2 
 1367000    1.0430489   -6.7389138    481.09397  0.029327845  0.029234437            4 
 1368000    1.0300903   -6.7611178     480.5216   0.02927154  0.029226014            5 
 1369000    1.0286004   -6.7232388    480.55161  0.029251985  0.029217519            8 
 1370000    1.0773982   -6.7478633    479.39338  0.029160181   0.02920898            4 
 1371000    1.0501095   -6.6890727    482.51345  0.029328559  0.029200602            3 
 1372000    1.0193452   -6.7285013    481.34136  0.029235991  0.029192329            6 
 1373000    1.0345862   -6.7377714     480.7273  0.029177428  0.029183945            3 
 1374000    1.0236744    -6.750723    482.63421  0.029271847  0.029175436            4 
 1375000    1.0400669   -6.7583945    480.81152  0.029140092  0.029167017            3 
 1376000    1.0213324   -6.7567947    480.59037  0.029105521  0.029158439            3 
 1377000    1.0310761   -6.7745826    481.08218  0.029114148  0.029149712            8 
 1378000    1.0363611   -6.7335972    480.73887  0.029072259  0.029141107            5 
 1379000    1.0336114   -6.7798857     480.7266  0.029050435   0.02913224            3 
 1380000    1.0236082   -6.7484646    482.23418  0.029120421  0.029123504            4 
 1381000    1.0336837   -6.7515113    480.89587  0.029018578  0.029114627            8 
 1382000    1.0356311    -6.730887    480.61495  0.028980641  0.029105653           10 
 1383000    1.0347775   -6.7348749    481.76472  0.029028966  0.029096791            3 
 1384000    1.0493589   -6.7248766    482.68482  0.029063392  0.029088061            4 
 1385000    1.0279343   -6.7893961    482.42283  0.029026645  0.029079279            2 
 1386000    1.0213658   -6.7451501    483.20043  0.029052455  0.029070547            4 
 1387000     1.026784   -6.7211118    483.83969  0.029069916  0.029061766            3 
 1388000    1.0329195   -6.7694432    482.34051  0.028958964  0.029053149            5 
 1389000     1.038352   -6.6985139    482.54808  0.028950569  0.029044413            3 
 1390000    1.0141282   -6.7604227    482.29256  0.028914422  0.029035626            7 
 1391000    1.0357434   -6.7864936    480.65748   0.02879568  0.029026531            3 
 1392000    1.0250651   -6.7259409    483.25949  0.028930764  0.029017533            3 
 1393000     1.020806   -6.7354924    483.80437  0.028942592  0.029008382            6 
 1394000    1.0364471   -6.7124392     483.6796  0.028914371  0.028999241            2 
 1395000    1.0204766   -6.7155257    484.44186  0.028939179  0.028990185            3 
 1396000    1.0275529   -6.7680767    482.97766  0.028831045  0.028981363            3 
 1397000    1.0294255   -6.7524964    484.21874  0.028884439  0.028972305            3 
 1398000    1.0161216   -6.7572543    484.60002  0.028886506  0.028963227            3 
 1399000      1.04443   -6.7425269     484.7928  0.028877341  0.028954316            4 
 1400000    1.0045978   -6.6904614     487.2772  0.029004595  0.028945463            4 
 1401000    1.0257843    -6.712717    485.69349  0.028889691  0.028936728            4 
 1402000    1.0392625   -6.7252937    486.26179  0.028902864  0.028927908            4 
 1403000    1.0313785   -6.7570351    485.21131  0.028819869    0.0289192            2 
 1404000     1.053726   -6.7888996    486.31992  0.028865142  0.028910492            5 
 1405000    1.0278873    -6.757322    485.97616  0.028824209  0.028901554            4 
 1406000    1.0401587   -6.7536745    487.91358  0.028918539   0.02889269            4 
 1407000    1.0342426   -6.7008931    488.44184  0.028929273  0.028884123            6 
 1408000    1.0134318   -6.8019017    485.57171  0.028738856  0.028875294            3 
 1409000     1.032439   -6.7553678    487.42184  0.028827882   0.02886643            4 
 1410000    1.0301819   -6.7374182    488.58929  0.028876436  0.028857733            6 
 1411000     1.026539   -6.7121312    488.81098  0.028869064  0.028849086            6 
 1412000    1.0245846   -6.7666675    487.97338  0.028799184  0.028840461            3 
 1413000    1.0040345   -6.7678746    488.06778   0.02878437  0.028831814            3 
 1414000    1.0309674   -6.7718167     489.2497  0.028833669  0.028823176            6 
 1415000    1.0254662    -6.752981    489.80086  0.028845752  0.028814573            5 
 1416000     1.024471   -6.7798981    488.38108  0.028741824   0.02880605            6 
 1417000    1.0403835   -6.7829461    489.50532  0.028787657    0.0287975            4 
 1418000    1.0267995    -6.812847    489.46985  0.028765271  0.028788955            5 
 1419000    1.0157413   -6.7429001    490.25265  0.028790971  0.028780508            3 
 1420000    1.0260825   -6.8075778    489.58478  0.028731501  0.028772017            8 
 1421000    1.0248271   -6.7458722    491.34034  0.028814235  0.028763499            5 
 1422000    1.0503907   -6.7632374     490.9896  0.028773418  0.028755074            7 
 1423000    1.0057522   -6.7478856     490.3889  0.028718019  0.028746647            4 
 1424000    1.0383478   -6.7874618    491.15167   0.02874249  0.028738291            5 
 1425000    1.0046707   -6.7181411    493.02662  0.028831966  0.028729799            2 
 1426000    1.0264054   -6.7259843    492.09137  0.028757092  0.028721459            2 
 1427000    1.0175273   -6.7945642    492.73499  0.028774526  0.028713107            2 
 1428000     1.009444   -6.8070141    493.36812  0.028791323  0.028704672            6 
 1429000    1.0242731   -6.7581888    493.33011  0.028768959   0.02869625            3 
 1430000    1.0461397   -6.7477592    493.81612  0.028777163  0.028687917            3 
 1431000     1.018496   -6.7840113    491.38519   0.02861549  0.028679433            7 
 1432000    1.0467518   -6.8017532    491.72044  0.028615016  0.028670981            6 
 1433000    1.0332007   -6.7959791    493.46394  0.028696437  0.028662556            4 
 1434000    1.0191486   -6.7726119    492.21366  0.028603769  0.028653989            6 
 1435000    1.0295216   -6.8104164    493.33848  0.028649157   0.02864541           10 
 1436000    1.0377648   -6.7389474    493.75309  0.028653267  0.028636923            6 
 1437000     1.027726   -6.7575502    495.27114   0.02872136  0.028628402            6 
 1438000    1.0433662   -6.7445869    495.64183  0.028722869  0.028619934            2 
 1439000    1.0217703   -6.7564731    494.79848   0.02865407  0.028611382            3 
 1440000    1.0158194   -6.7992877     497.2625  0.028776765  0.028602942            4 
 1441000    1.0167179   -6.7675836    495.57798  0.028659379  0.028594625            3 
 1442000     1.018051   -6.7548852    496.32741  0.028682814  0.028586287            5 
 1443000    1.0235429    -6.761653    496.79382  0.028689872  0.028578047            3 
 1444000    1.0077754   -6.7365014    496.55745  0.028656363   0.02856967            8 
 1445000    1.0390178   -6.7730159    496.65689  0.028642266  0.028561363            4 
 1446000    1.0190411   -6.7925936    496.44102  0.028610017  0.028552874            5 
 1447000    1.0023491   -6.7614561    496.24994  0.028579241  0.028544505            4 
 1448000    1.0266203   -6.7943618    495.96404   0.02854305   0.02853616            6 
 1449000   0.98990974   -6.7448883    497.01234   0.02858364  0.028527628            2 
 1450000     1.003986   -6.7393328    495.71185  0.028489187  0.028519199            6 
 1451000    1.0066539   -6.7993555    496.67515  0.028524876  0.028510663            3 
 1452000   0.99846784   -6.7556458    498.06847  0.028585197  0.028502098            4 
 1453000   0.99491395   -6.7889196    496.15159  0.028455585  0.028493577            6 
 1454000    1.0290861   -6.7655687    497.76228  0.028528329  0.028485043            5 
 1455000    1.0129326   -6.7593894    496.78225  0.028452592  0.028476437           10 
 1456000   0.99828693   -6.7764993     496.7102  0.028428926  0.028467648            3 
 1457000    1.0233833   -6.7490264    497.11474  0.028432552  0.028459031            4 
 1458000    1.0063666   -6.8156415    497.63669  0.028442884  0.028450514            8 
 1459000    1.0093871   -6.7946552    496.71679  0.028370847  0.028441883            5 
 1460000    1.0102096   -6.7989079    497.33039  0.028386438  0.028433101            9 
 1461000    0.9897436   -6.8090201    496.76552  0.028334789  0.028424293            5 
 1462000    1.0066718   -6.7780427    499.53548  0.028473295  0.028415411            5 
 1463000    1.0272193   -6.8016391    498.23817  0.028379937  0.028406588            4 
 1464000    1.0072013   -6.7947316    497.33741  0.028309279  0.028397837            6 
 1465000    1.0123373   -6.7703475    499.10441  0.028390467  0.028389121            3 
 1466000    1.0386743    -6.787582    499.00242  0.028365303    0.0283803            1 
 1467000    1.0317844   -6.8236239    498.86124  0.028337948  0.028371469            3 
 1468000    1.0183582   -6.8377763    497.63241  0.028248888  0.028362623            4 
 1469000    1.0259246   -6.7852159    499.95169  0.028361226  0.028353976            5 
 1470000    1.0361644   -6.7777367    500.14456  0.028352866  0.028345411            5 
 1471000    1.0154685   -6.7746463    498.57982  0.028244948  0.028336784            6 
 1472000    1.0121046   -6.7977628    499.42832  0.028273795  0.028328097            5 
 1473000    1.0158592   -6.8052102    499.57575  0.028262941  0.028319173            2 
 1474000    1.0248942   -6.7822824    499.99409  0.028267418  0.028310285            3 
 1475000    1.0220616   -6.7927503    501.21211  0.028317068  0.028301601            5 
 1476000    1.0343634     -6.76529    501.05015  0.028288739  0.028292804            3 
 1477000   0.99403544   -6.7511207    500.81063  0.028256073  0.028284082            7 
 1478000    1.0110615   -6.7871408    500.78316  0.028235406  0.028275321            7 
 1479000    1.0056539   -6.7865031    500.73583  0.028213648  0.028266746            3 
 1480000    1.0080795   -6.7965319    501.30639  0.028226711  0.028258117            2 
 1481000    1.0066681   -6.7780082    502.87832  0.028296102  0.028249512            3 
 1482000     1.013427   -6.8046753    502.18882  0.028238238  0.028240949            5 
 1483000    1.0141206   -6.7942575     503.3023  0.028281766  0.028232446            8 
 1484000    1.0194848   -6.8239143    503.22482  0.028258357  0.028223941            3 
 1485000    1.0115254   -6.7873199    503.04491  0.028229232  0.028215346            3 
 1486000    1.0290082   -6.7760599    502.48352  0.028178753  0.028206763            5 
 1487000     1.005868   -6.7756859    504.08073  0.028249312  0.028198196           10 
 1488000    1.0114594   -6.7841562     504.4649  0.028251843  0.028189774            3 
 1489000    1.0229279   -6.7535708    503.86191  0.028199122  0.028181209            3 
 1490000   0.99462543   -6.8160252    503.69198  0.028170692  0.028172674            4 
 1491000    1.0006069    -6.747282    504.25815  0.028183442  0.028164183            4 
 1492000   0.99516365   -6.7658419     505.1925  0.028216739  0.028155595            3 
 1493000    1.0240175   -6.8072032    503.88672  0.028124957  0.028147205            7 
 1494000    1.0064664   -6.8074506    504.37532  0.028133385  0.028138431            6 
 1495000    1.0226863   -6.7717282    504.55078  0.028124347  0.028129687            4 
 1496000    1.0154668     -6.80659    504.04218  0.028077216  0.028121053            3 
 1497000   0.98286184   -6.8231371    503.85602  0.028048097   0.02811228            4 
 1498000    1.0111289   -6.8184179    503.45626  0.028007135  0.028103453            2 
 1499000    1.0089296   -6.8157205    505.38267  0.028095546  0.028094717            5 
 1500000   0.99370629   -6.7910801    507.03011   0.02816834   0.02808605            2 
 1501000    1.0172484   -6.7936082    506.60212  0.028125812  0.028077565            4 
 1502000   0.99814469   -6.8125105    506.97817   0.02812795  0.028069033            4 
 1503000    1.0354664   -6.8213548     505.4599  0.028025055  0.028060605            5 
 1504000   0.98711337   -6.8254601    505.66851   0.02801798  0.028052104            8 
 1505000    1.0110135   -6.8089388    506.42273  0.028041126  0.028043676            3 
 1506000   0.99658121   -6.8217154    506.50594   0.02802711  0.028035284            4 
 1507000    1.0035018   -6.7898562    507.46725  0.028061671  0.028027025            8 
 1508000   0.98778745    -6.802489    507.64121  0.028052675  0.028018619            4 
 1509000    1.0011451   -6.7785932    508.22947  0.028066571   0.02801021            5 
 1510000    1.0170643   -6.7985829    507.68487  0.028017929  0.028001619            8 
 1511000    1.0037785   -6.8167816    506.47644   0.02793274  0.027993018            5 
 1512000    1.0058921    -6.785802    508.78701  0.028041612  0.027984489            2 
 1513000    1.0226549   -6.8440406    508.14995   0.02798799  0.027975894            5 
 1514000    1.0064648   -6.8028969    508.23454   0.02797416   0.02796742            5 
 1515000    1.0028754   -6.8409602    506.94987  0.027885031  0.027958707            3 
 1516000     1.019166   -6.8194935    508.29569  0.027940616  0.027950015            4 
 1517000    1.0282399   -6.7718569    509.70012  0.027999347  0.027941401            2 
 1518000    1.0071228   -6.8224511    507.63662  0.027867623  0.027932821            5 
 1519000    1.0033042   -6.7985691    508.47476  0.027895258  0.027924118            3 
 1520000   0.98946018   -6.8043155     509.3972  0.027927478  0.027915305            3 
 1521000    1.0045503   -6.8303588    508.94694  0.027884447  0.027906587            8 
 1522000    1.0138715   -6.7761011    510.24096  0.027936977  0.027897955            4 
 1523000    1.0095749   -6.8052901    508.74133   0.02783658  0.027889344            3 
 1524000    1.0340469   -6.7828865    510.42497  0.027910377  0.027880591            4 
 1525000    1.0206437   -6.8173351    508.35605  0.027779019  0.027871782            5 
 1526000    1.0078881   -6.7706621    510.91484  0.027900548  0.027863061            4 
 1527000    1.0020191   -6.7861648    510.33316  0.027850533  0.027854285            5 
 1528000    1.0169785   -6.8367349    508.14761  0.027713112  0.027845357            9 
 1529000    1.0113766   -6.7965368    509.89189  0.027790053  0.027836636            7 
 1530000    1.0018295   -6.7684117    511.41257  0.027854715  0.027827893            4 
 1531000    1.0086187   -6.8276352    510.71866  0.027798751  0.027819229            4 
 1532000    1.0054763   -6.8235989    510.95889  0.027793673   0.02781046            3 
 1533000   0.99653046   -6.8472375    507.11915  0.027566816  0.027801658            7 
 1534000   0.98607395   -6.8297459    509.93998  0.027702085   0.02779284            5 
 1535000    1.0087867   -6.8011569    510.03179  0.027689022  0.027784069            3 
 1536000    1.0282951   -6.8138892    512.21743  0.027789574  0.027775452            6 
 1537000    1.0208674   -6.8045897    511.29438  0.027721447   0.02776672            4 
 1538000     1.019261   -6.8361525    511.70111  0.027725461  0.027758013            3 
 1539000    1.0028664   -6.8530807    511.56846  0.027700263   0.02774923            3 
 1540000    1.0311367   -6.8565523    510.93095  0.027647779  0.027740479            4 
 1541000   0.98804141   -6.8004108    511.54623   0.02766311   0.02773167            4 
 1542000    1.0007766   -6.8094818    511.01461   0.02761644  0.027722929            3 
 1543000    1.0000355   -6.8143521    512.25473  0.027665518  0.027714168            4 
 1544000   0.98777314   -6.8088761    513.56017  0.027718057  0.027705511            6 
 1545000    1.0011697   -6.8014635    515.66694  0.027813751  0.027696832            4 
 1546000    1.0201953   -6.7908424    513.07296  0.027655938  0.027688294            4 
 1547000   0.99930608   -6.8210268    513.12065   0.02764063  0.027679563            5 
 1548000     1.004059   -6.7995669    514.51196  0.027697672  0.027670979            4 
 1549000    0.9809325   -6.7928956    513.99935  0.027652214  0.027662423            3 
 1550000   0.98472964   -6.8236126    514.65529  0.027669639  0.027653809            3 
 1551000    1.0039393   -6.7897169    514.13739  0.027623973  0.027645323            2 
 1552000   0.98767084   -6.8196186    515.96226  0.027704159  0.027636809            4 
 1553000    1.0063646   -6.8068557    513.79748  0.027570159  0.027628166            4 
 1554000    1.0040432   -6.7986803    516.79186  0.027712991  0.027619606            5 
 1555000    0.9979089   -6.8000264       516.23  0.027665059  0.027610981            8 
 1556000    1.0070498   -6.8314826    514.23109  0.027540225  0.027602436            7 
 1557000    1.0085497   -6.7904786    516.32389  0.027634548  0.027593801           10 
 1558000    1.0168122   -6.8428299     514.9877  0.027545341  0.027585151            5 
 1559000       1.0097    -6.833155    515.41714  0.027550628  0.027576469            6 
 1560000   0.99965984   -6.8112633    517.54153  0.027646449  0.027567925            3 
 1561000    1.0119794   -6.8075992    517.69656  0.027637015  0.027559424            4 
 1562000   0.98233747   -6.8124183    515.96092  0.027526724  0.027550898            4 
 1563000    1.0154014   -6.8195173    517.11492   0.02757064  0.027542261            7 
 1564000   0.99464624   -6.8449899    516.61015  0.027526116  0.027533678            5 
 1565000    1.0048419   -6.8026712    518.82506  0.027626467  0.027525227            2 
 1566000    0.9809027   -6.8096338    519.32158  0.027635248  0.027516847            3 
 1567000   0.99276424    -6.853982    516.88763  0.027488174  0.027508389            4 
 1568000   0.99707874   -6.7841918    518.97929  0.027581808  0.027499912            3 
 1569000    1.0053229   -6.8099937    519.06179   0.02756861  0.027491438            5 
 1570000     1.017922     -6.84734    517.48709  0.027467467  0.027482966            6 
 1571000   0.98016517   -6.8663416    517.44477  0.027447738   0.02747438            4 
 1572000   0.99397769   -6.7902297    520.72787  0.027604319  0.027465976            6 
 1573000    1.0128365   -6.8098169    520.00156  0.027548292   0.02745769            5 
 1574000    1.0013622   -6.8456938    518.82499  0.027468498  0.027449315            4 
 1575000   0.97686421   -6.8008162    522.47215  0.027644029  0.027440922            5 
 1576000   0.99769892   -6.7917875     520.1176  0.027501988  0.027432561            5 
 1577000    1.0150096   -6.8014287    520.30508  0.027494456  0.027424115            5 
 1578000    1.0012652    -6.830214    519.43307  0.027430982  0.027415639            3 
 1579000    1.0091801   -6.8389521    519.71907  0.027428703   0.02740696            6 
 1580000    1.0035624   -6.8357328    519.50692  0.027400154  0.027398311            5 
 1581000     1.012095   -6.8014609    519.46923  0.027380837  0.027389642            3 
 1582000    1.0013025   -6.8510225    518.85847  0.027331356   0.02738084            5 
 1583000    1.0199641   -6.8483802    519.72869  0.027359901  0.027372149            2 
 1584000    1.0148053   -6.8289866    519.89389   0.02735132   0.02736371            8 
 1585000   0.99889556   -6.8557636    520.57056   0.02736964  0.027355186            8 
 1586000   0.98813175   -6.8163206    521.60007  0.027406477  0.027346698            5 
 1587000    1.0135001   -6.8225688    522.09828  0.027415369  0.027338076            3 
 1588000   0.99701823   -6.8054456    521.94851  0.027390245  0.027329673            3 
 1589000    1.0002801   -6.8396309    521.80518  0.027365491  0.027321184            7 
 1590000    0.9935351   -6.8060572    521.90371  0.027353444  0.027312633            5 
 1591000   0.99017011   -6.8174437    523.58103  0.027424106  0.027304234            3 
 1592000    1.0076144   -6.8213677     523.1377  0.027383673  0.027295899            3 
 1593000     1.011017   -6.8199459    523.68854  0.027395299  0.027287504            5 
 1594000    0.9904482   -6.8447901    523.74955  0.027381303  0.027279184            4 
 1595000    1.0143072   -6.8139648    523.03568  0.027326838  0.027270857            9 
 1596000    1.0109059   -6.8604927    522.62601  0.027288326  0.027262477            3 
 1597000    1.0062086   -6.8675099    522.74647  0.027277524  0.027254027            5 
 1598000    1.0207818   -6.8106972    524.37364  0.027345309  0.027245682            5 
 1599000   0.98410989   -6.8304927    523.48752  0.027282027  0.027237272            4 
 1600000   0.98504764   -6.8558783     521.8609  0.027180255  0.027228892            5 
 1601000    1.0041167   -6.8345257    524.93462  0.027323268  0.027220498            2 
 1602000    1.0144374   -6.8116441    526.22799  0.027373491  0.027212204            2 
 1603000    1.0064301   -6.8288216    525.61722  0.027324663  0.027204021            3 
 1604000    1.0261585   -6.8279471     525.3585  0.027294186  0.027195707            9 
 1605000     1.021038   -6.8607823    523.99723  0.027206502   0.02718744            5 
 1606000   0.98939428   -6.8388904    524.50234  0.027215771  0.027179056            3 
 1607000    1.0184897   -6.8531288    525.26679  0.027238477  0.027170675            3 
 1608000   0.99643186   -6.8502371    527.28934  0.027326355  0.027162356            4 
 1609000   0.99984801   -6.8499074    524.79736  0.027180306  0.027154106            4 
 1610000    1.0073614   -6.8477384    526.42557    0.0272477  0.027145923            4 
 1611000   0.97705391   -6.8818114    525.06055  0.027160178  0.027137642            4 
 1612000   0.99754785   -6.8165684    527.81847  0.027285901  0.027129284            4 
 1613000    1.0158236   -6.8388135    527.03452  0.027228483  0.027121014            2 
 1614000   0.98841929   -6.8072098    528.06706  0.027264924  0.027112889            5 
 1615000   0.99279358   -6.7952461    528.99392  0.027295868  0.027104683            4 
 1616000    0.9728369   -6.8030362     529.9326  0.027327383  0.027096673            2 
 1617000    1.0011346   -6.8126871    527.87662  0.027204526  0.027088561            3 
 1618000   0.99165118   -6.8433978    528.27762  0.027208365  0.027080329            6 
 1619000   0.99753457   -6.8524577    527.96109  0.027175267  0.027072158            4 
 1620000    0.9760897   -6.8313929    527.70718  0.027145431  0.027063942            2 
 1621000    1.0057231   -6.8209373    528.77197  0.027183424  0.027055595            5 
 1622000   0.99307496   -6.8182128    529.48262  0.027203176  0.027047464            2 
 1623000   0.98008579    -6.864261    528.94422  0.027158771    0.0270392            6 
 1624000    1.0071736   -6.8255224    531.40634  0.027268388  0.027030974            4 
 1625000   0.97295002   -6.8446752     529.9177  0.027175267  0.027022863            5 
 1626000   0.97579098   -6.8377325    528.65704  0.027093944  0.027014663            3 
 1627000   0.99759189   -6.8651148    529.10827  0.027100403  0.027006476            5 
 1628000   0.97490359   -6.8333076    530.05967  0.027132456  0.026998245            9 
 1629000   0.98730116   -6.8180945    530.81196  0.027154285  0.026990186            4 
 1630000   0.98472662   -6.8674782    530.28397  0.027110632  0.026982038            3 
 1631000   0.99918275   -6.8568261    531.58964  0.027160721  0.026973994            7 
 1632000   0.99936049    -6.841905    531.89465  0.027159653  0.026965872            7 
 1633000    1.0047726   -6.8643411    531.52841  0.027124332  0.026957918           19 
 1634000   0.96995325   -6.8372942    533.23751  0.027194896  0.026949974            4 
 1635000   0.99257913   -6.8437238    531.76963  0.027103447  0.026941972            3 
 1636000   0.99769631   -6.8517231    532.73009  0.027135804  0.026934033            3 
 1637000   0.98571767   -6.8391999     532.7239  0.027118912  0.026926128            5 
 1638000   0.99841492    -6.828327    531.68006   0.02704925  0.026918135            3 
 1639000    0.9875003   -6.8384656    534.15145  0.027158402  0.026910159            4 
 1640000   0.98353697   -6.8369496    532.89274  0.027077883  0.026902204            7 
 1641000   0.98935537   -6.8488891    533.92775  0.027113942  0.026894326            3 
 1642000   0.98255637   -6.8551881    532.31985  0.027015827  0.026886422            5 
 1643000    1.0016776   -6.8616847    533.21003  0.027044534  0.026878444            3 
 1644000    1.0030515   -6.8652381    532.96078  0.027015449  0.026870411            4 
 1645000   0.99799547   -6.8796997    532.49628  0.026975496  0.026862373            3 
 1646000   0.99738403   -6.8835967    533.30018  0.026999806  0.026854249            6 
 1647000    0.9846994   -6.8220548    534.79781  0.027059189  0.026846236            6 
 1648000   0.97271146   -6.8610582    533.68704  0.026986602  0.026838255            4 
 1649000   0.99553617   -6.8898214     533.6954  0.026970659    0.0268304            4 
 1650000    1.0142781   -6.8672027    535.27726  0.027034205   0.02682257            4 
 1651000   0.98833315   -6.8531373    534.83407  0.026995461  0.026814712            4 
 1652000   0.99274545   -6.8444838    536.29128  0.027052627  0.026807039            5 
 1653000   0.99433151   -6.8745233    537.13658  0.027078876  0.026799337            5 
 1654000   0.99427081   -6.8461751    538.48453  0.027130418  0.026791624            4 
 1655000   0.98062148   -6.8294054    537.61059   0.02707002   0.02678395            8 
 1656000   0.98548604   -6.8630045    538.17955  0.027082304  0.026776351            3 
 1657000   0.98757435   -6.8848876    536.53487  0.026983246  0.026768592            4 
 1658000   0.98011106   -6.8734328    536.41706   0.02696105   0.02676089            4 
 1659000   0.99510224   -6.8121653    538.94884  0.027071973   0.02675321            2 
 1660000   0.98474174   -6.9030632    536.45429  0.026930436  0.026745483            3 
 1661000   0.98729201   -6.8571701    537.98987  0.026991264  0.026737605            8 
 1662000    1.0021052   -6.8681966    538.57166  0.027004195   0.02672985            8 
 1663000   0.99654931   -6.8627954    537.48169  0.026933338   0.02672205            5 
 1664000   0.97917502   -6.8315676    539.38309  0.027012375  0.026714352            5 
 1665000   0.97232054   -6.8822347    536.80532  0.026867133   0.02670674            3 
 1666000   0.97576256   -6.8653905    538.90139  0.026955852  0.026699039            7 
 1667000   0.97795564   -6.8278385    539.25664   0.02695744  0.026691303            6 
 1668000   0.99981523   -6.8781363    539.89717   0.02697328  0.026683699            6 
 1669000    0.9669431   -6.8915302    537.66607   0.02684572  0.026675963            8 
 1670000   0.99157564    -6.856243    539.70074  0.026931175  0.026668299            6 
 1671000    0.9850929   -6.8742413    539.07215   0.02688371  0.026660484            9 
 1672000   0.98071324   -6.8957917    539.30992  0.026879482  0.026652714            5 
 1673000   0.98176133   -6.8857387     538.8848  0.026842239  0.026644914            8 
 1674000   0.98384728   -6.8815178    540.59255  0.026911218  0.026637081            7 
 1675000   0.99817298   -6.8963991    539.61071  0.026846304  0.026629301            3 
 1676000   0.96752295   -6.8750091    539.69969   0.02683471  0.026621676            8 
 1677000    1.0038739   -6.8729645    540.35881  0.026851461  0.026614049            3 
 1678000   0.97847782   -6.9224303    540.19288  0.026827219  0.026606387            9 
 1679000    0.9915736    -6.899617    541.36997  0.026869663  0.026598561            4 
 1680000   0.99457852   -6.8756582    541.67797  0.026868947  0.026590967            3 
 1681000    0.9714863   -6.8290809    543.29624  0.026933187  0.026583428            3 
 1682000   0.98883421   -6.8408428    541.03058  0.026804924  0.026575889            4 
 1683000   0.98899607   -6.8747958    543.45782  0.026909181  0.026568224            3 
 1684000   0.97549123   -6.8453317    542.44271  0.026842968  0.026560557            2 
 1685000   0.99654702   -6.8660381    541.83348  0.026796908  0.026552932            5 
 1686000   0.96432644   -6.8755879    540.98656  0.026739154  0.026545237            3 
 1687000      0.97414    -6.863295    542.68649  0.026807275  0.026537513            3 
 1688000   0.97832466   -6.8817012    543.38708  0.026825981  0.026529853           12 
 1689000    0.9664643   -6.8908271    543.52518  0.026816912  0.026522264           14 
 1690000   0.97499304   -6.8754306    541.51828  0.026702085  0.026514713            5 
 1691000   0.96465747   -6.8880139    543.04968  0.026761762  0.026507106            8 
 1692000   0.98176519   -6.8069781    543.78324  0.026782075  0.026499517            5 
 1693000   0.96673651   -6.8317245    543.28059  0.026741513  0.026491905            4 
 1694000   0.97257713   -6.8622432     542.8017  0.026702169  0.026484389            3 
 1695000   0.99747989   -6.8573735     544.0894  0.026749725  0.026476797            8 
 1696000    0.9903933   -6.8974897    544.16869  0.026737848   0.02646919            5 
 1697000   0.99471271   -6.8940244    544.96581  0.026761236  0.026461466            4 
 1698000   0.99302839   -6.8757776    543.90068  0.026693202   0.02645383            7 
 1699000   0.97050932   -6.8940262    544.18317  0.026691346  0.026446148            5 
 1700000     0.984975   -6.9214714    543.15444  0.026625218  0.026438275            5 
 1701000   0.95825644   -6.8740543    545.62922  0.026730807  0.026430504            2 
 1702000   0.97323545   -6.8685355    545.09086  0.026688742  0.026422803            7 
 1703000   0.99052659   -6.9198787    544.99802  0.026668527  0.026415119            7 
 1704000   0.97792596   -6.8652622      544.745  0.026640503  0.026407407            4 
 1705000   0.97967205   -6.8412221    546.10046  0.026691127  0.026399713            5 
 1706000   0.98211841   -6.8800349    545.59423  0.026650754  0.026391956            5 
 1707000   0.97504167   -6.8788338      546.039  0.026656854   0.02638442           17 
 1708000   0.96696351   -6.8909157    545.72878  0.026626112  0.026376801            6 
 1709000   0.97339537   -6.8682255    546.39871  0.026643198  0.026369083            4 
 1710000   0.96898963   -6.8876402     544.1876  0.026519863  0.026361308            4 
 1711000   0.96848964   -6.8946768    545.79143  0.026582477  0.026353623            7 
 1712000   0.99564283   -6.8682956    547.15806  0.026633473  0.026345976            3 
 1713000   0.97348183   -6.8577029    548.42588  0.026679601  0.026338345            3 
 1714000   0.99378298   -6.8978283    546.48702  0.026569769  0.026330632            4 
 1715000   0.97068813   -6.8749568    547.74548  0.026615426  0.026322971            5 
 1716000   0.96699113   -6.8695451    547.32026  0.026579267  0.026315252            5 
 1717000   0.97359662   -6.9201385     548.4804  0.026620093  0.026307621            8 
 1718000   0.96829629   -6.8767166    548.35434  0.026598484  0.026300041            8 
 1719000   0.95986535   -6.8727943    549.64742  0.026645696  0.026292487            8 
 1720000   0.99146347   -6.8921712    548.38751  0.026569163  0.026284857            3 
 1721000   0.99198978   -6.9041568    549.78269  0.026621281  0.026277326           10 
 1722000   0.96281209   -6.9074466    548.19472  0.026528974  0.026269822            8 
 1723000   0.96556562   -6.8623814    550.50841  0.026625479  0.026262359            7 
 1724000   0.98486994   -6.8456026    550.32675  0.026601255   0.02625502           12 
 1725000   0.98758768   -6.9032757    548.87873  0.026515881  0.026247686           10 
 1726000   0.98157414   -6.9081644    550.59756  0.026583505  0.026240302            3 
 1727000   0.96491111   -6.9109068    549.27089  0.026504096  0.026232829            6 
 1728000   0.96194124   -6.8823625    550.26508  0.026536704   0.02622533            2 
 1729000    0.9870447   -6.9060558     549.7125  0.026494722  0.026217765            3 
 1730000   0.98342231   -6.9036309    550.06212  0.026496249  0.026210141            2 
 1731000   0.98019077   -6.8563223    550.86216  0.026519457  0.026202566            4 
 1732000   0.99014415    -6.897328    549.02091  0.026415556  0.026195081            9 
 1733000   0.97340896     -6.90427     551.0861   0.02649962  0.026187548            4 
 1734000    0.9851966   -6.9181699    549.56763  0.026411363  0.026180113            4 
 1735000   0.97480567   -6.8770174      552.484  0.026536215  0.026172607            9 
 1736000   0.98231813   -6.8903406    551.43608  0.026470626  0.026165046            5 
 1737000   0.97398002   -6.9459748    551.06114  0.026437399  0.026157488            4 
 1738000   0.96408291   -6.8640072    551.48169  0.026442352  0.026149925            9 
 1739000   0.96600697   -6.8540225    554.20452  0.026557625  0.026142473            4 
 1740000   0.96131783    -6.869633    551.84556  0.026429385  0.026135085            5 
 1741000   0.96124037   -6.8772974    552.77583  0.026458732  0.026127671            5 
 1742000   0.96524351    -6.914533    552.79078  0.026444258  0.026120215            4 
 1743000    0.9729994   -6.8875502     552.4939  0.026414893  0.026112783            4 
 1744000   0.96515486    -6.893147    553.05332  0.026426477  0.026105377            4 
 1745000   0.98499937   -6.8719371    554.52351  0.026481543  0.026097966            4 
 1746000   0.94637088   -6.9232166    553.29007  0.026407506  0.026090573            3 
 1747000   0.97818459    -6.885889    554.07383  0.026429776  0.026083187            4 
 1748000    0.9645546   -6.9026418    554.52621  0.026436223  0.026075755            5 
 1749000   0.95187496   -6.8907875    552.67593  0.026332949  0.026068228            4 
 1750000   0.98025939   -6.8981445    554.10578   0.02638599  0.026060766           12 
 1751000   0.96154613   -6.9150092    553.58182  0.026345984  0.026053314            6 
 1752000   0.95440751   -6.9187712    553.10079  0.026308066  0.026045802           12 
 1753000   0.98179794    -6.896944    554.54666  0.026361792  0.026038212            8 
 1754000   0.98948271   -6.9362499    552.91511  0.026269247  0.026030575            4 
 1755000    0.9778872   -6.9054883     553.5953  0.026286576  0.026023058            6 
 1756000   0.99461914    -6.904718    554.61847  0.026320163  0.026015556            5 
 1757000   0.96745849    -6.897023    554.15364  0.026283136  0.026007999            5 
 1758000   0.97618323   -6.8872187    555.79328  0.026345908  0.026000514            6 
 1759000   0.96417839   -6.8874828     556.7958  0.026378425  0.025992985            7 
 1760000   0.97143221   -6.9094644    555.75695  0.026314249  0.025985598           12 
 1761000   0.97675656   -6.9092761    554.98973  0.026263001  0.025978099            4 
 1762000   0.99581851   -6.9126693     556.1583  0.026303362  0.025970689            6 
 1763000   0.97605063   -6.9211993    555.36439  0.026250917   0.02596331           21 
 1764000   0.96762655   -6.8595904    557.98548  0.026359858  0.025955871            4 
 1765000   0.96745607   -6.9129608    555.96954  0.026249742  0.025948468           10 
 1766000   0.96968984   -6.8983991    556.52138  0.026260918  0.025941049            5 
 1767000   0.96441811    -6.860361    556.67772   0.02625343    0.0259336            3 
 1768000   0.96683315   -6.9300049    556.52961  0.026231599  0.025926141            7 
 1769000   0.97402354   -6.9436474    555.90073  0.026187146  0.025918616            6 
 1770000   0.97952696   -6.9377387     557.6857  0.026256389   0.02591114            3 
 1771000   0.97948934   -6.9331567    556.42953  0.026182455  0.025903644            3 
 1772000   0.96367277   -6.9502762     556.5408  0.026172912  0.025896173            3 
 1773000   0.95764594   -6.9285106    556.41422  0.026152201  0.025888676            9 
 1774000   0.98006993   -6.9113519    557.46482   0.02618681   0.02588126            4 
 1775000   0.97137157   -6.8936939    557.97369  0.026195948  0.025874043            2 
 1776000   0.97399576   -6.8846846    559.18341   0.02623796  0.025866849            4 
 1777000   0.96947936   -6.9459236    558.13148  0.026173864  0.025859443            6 
 1778000   0.94201602   -6.9095434    557.99083  0.026152551  0.025852075            4 
 1779000   0.98335241   -6.8726429    560.10615  0.026236938  0.025844798            5 
 1780000   0.99450272   -6.9210519    558.89467  0.026165481  0.025837498            3 
 1781000   0.95126482   -6.9552692    558.31163  0.026123509  0.025830113            5 
 1782000   0.95055263   -6.8948003    560.25757  0.026199849  0.025822799            3 
 1783000   0.95417051   -6.9326875    557.69165   0.02606523  0.025815457            3 
 1784000   0.96251518    -6.961858    560.17291  0.026166523  0.025808214            7 
 1785000   0.97262242   -6.8714438    560.50056   0.02616716  0.025800922            3 
 1786000   0.95782018   -6.9125691    559.38263  0.026100347  0.025793784            8 
 1787000   0.98842853   -6.9173067    560.25915  0.026126616  0.025786527            6 
 1788000   0.97373823   -6.9392456    562.07283  0.026196534  0.025779203            3 
 1789000   0.96848752   -6.9407235    559.58271  0.026065899  0.025771864            3 
 1790000   0.97273792   -6.9678667    558.32908  0.025992974  0.025764487            4 
 1791000   0.97227597    -6.954634    559.44781  0.026030514  0.025757128           17 
 1792000   0.95897777   -6.9415041    560.52918  0.026066275  0.025749706            4 
 1793000   0.96160615    -6.923263    561.97434  0.026118904  0.025742451            5 
 1794000   0.98121363   -6.9473672    561.74407  0.026093649  0.025735152            6 
 1795000   0.97423877   -6.9124367    561.98448  0.026090273  0.025727842            4 
 1796000   0.96019849   -6.9667879    560.55118  0.026009242  0.025720553            6 
 1797000   0.95687353   -6.9427486    562.14321  0.026068596  0.025713148            9 
 1798000   0.96824189   -6.9294398    562.83736   0.02608627  0.025705797            4 
 1799000    0.9653963   -6.9292982    562.22504  0.026043406  0.025698431            9 
 1800000   0.95739094   -6.9465524    561.18575  0.025980822  0.025691121            6 
 1801000   0.97355317   -6.9215055    563.38325  0.026068075   0.02568381            7 
 1802000   0.96677549   -6.9236837    563.52677  0.026060246  0.025676514            4 
 1803000   0.95662503   -6.9531225    562.99709  0.026021311  0.025669203            8 
 1804000   0.95596181   -6.9482929    563.19701  0.026016122  0.025661876            5 
 1805000   0.96254213   -6.9048405    563.92514  0.026035325  0.025654491            6 
 1806000   0.98230016   -6.8912132    563.90038  0.026019766  0.025647276            4 
 1807000   0.98515551   -6.9605104    562.99474  0.025963602   0.02563991            5 
 1808000    0.9552431   -6.9333024    563.10767  0.025954446   0.02563254            5 
 1809000   0.96003341   -6.9018746    565.13174   0.02603334  0.025625199            6 
 1810000   0.97221507   -6.9421116    563.53331  0.025945364  0.025617839            4 
 1811000   0.96528283   -6.9221166    564.42162  0.025971913  0.025610512            4 
 1812000   0.94621946   -6.9216467    562.99922  0.025892164  0.025603145            5 
 1813000   0.97853707   -6.8953483    565.81782  0.026007438  0.025595908            9 
 1814000   0.95359413     -6.90738    562.86356  0.025857385   0.02558867           10 
 1815000   0.97552096   -6.9039157    565.77612  0.025976865  0.025581312            5 
 1816000   0.95627708     -6.92959    564.08805  0.025885098  0.025574019            6 
 1817000    0.9494656   -6.9491703    564.24159  0.025877893  0.025566681            9 
 1818000   0.95561401   -6.9068491    565.67233  0.025929241  0.025559277            3 
 1819000   0.97115816   -6.9357812    564.84094  0.025876898  0.025552105            4 
 1820000   0.94746279   -6.9230774     565.2268  0.025880348  0.025544862            3 
 1821000    0.9586901   -6.9152143    568.26161  0.026005016  0.025537634            6 
 1822000   0.97004002    -6.948694    566.89085  0.025928048   0.02553051            5 
 1823000   0.94858863   -6.8946783    567.64803  0.025948438  0.025523417            9 
 1824000   0.94024632   -6.9162903    567.79466  0.025940911  0.025516418            4 
 1825000   0.95862723   -6.9108888    568.87753  0.025976143   0.02550944            3 
 1826000   0.94780672   -6.9373177    566.82875  0.025868417  0.025502376            9 
 1827000   0.95550591   -6.9135128    568.30251  0.025921479  0.025495376            4 
 1828000   0.96047275   -6.9366998    568.96153  0.025937342  0.025488331            7 
 1829000   0.95230546   -6.9516488      568.599  0.025906643   0.02548122            4 
 1830000   0.95005576   -6.9507445    567.50784  0.025842798  0.025474214            6 
 1831000   0.97553959    -6.992445    566.53692  0.025784495  0.025466936            4 
 1832000   0.94715803   -6.9293728    569.15694  0.025889599  0.025459731            5 
 1833000   0.96143363   -6.9168251    569.95277  0.025911655  0.025452627            4 
 1834000   0.97806068   -6.9789107    569.36984   0.02587104  0.025445462            3 
 1835000   0.95154829   -6.9002677    569.70074  0.025871968  0.025438429           18 
 1836000     0.940023   -6.9569108    569.95277  0.025869316  0.025431481            4 
 1837000   0.96378691    -6.962846     568.4481  0.025786976   0.02542434            4 
 1838000   0.95473898   -6.9363293    570.33316  0.025858413  0.025417321            3 
 1839000   0.96971217   -6.9862281    568.60874  0.025766211  0.025410263            4 
 1840000   0.96432082   -6.9732645    570.03795  0.025816936  0.025403221            3 
 1841000   0.94116529   -6.9548527    570.30131  0.025814834  0.025396228            6 
 1842000   0.95564559     -6.95498    569.33155  0.025756947  0.025389249            3 
 1843000   0.93875877   -6.9496807    569.34745   0.02574369  0.025382141            6 
 1844000   0.98447258   -6.9389303    570.79087   0.02579496  0.025375075            3 
 1845000   0.97684465    -6.931763    571.17956  0.025798535  0.025367977           11 
 1846000   0.93185571   -6.9758765    571.29089  0.025789585  0.025360926            7 
 1847000   0.96743496   -6.9470088    572.31891  0.025822004  0.025353862            5 
 1848000   0.94234752   -6.9520354    571.59202  0.025775253  0.025346879            3 
 1849000    0.9582964   -6.9562718    572.40913   0.02579814  0.025339826            4 
 1850000   0.97253978   -6.9207213    571.35381  0.025736658   0.02533281            3 
 1851000   0.95380844   -6.9417529    573.02742  0.025798101  0.025325813            4 
 1852000   0.95178549    -6.950688    571.21901  0.025702799  0.025318923            4 
 1853000   0.95633517   -6.9680481    572.37326  0.025740837  0.025311971            9 
 1854000   0.95122724   -6.9763518    570.90855  0.025661118  0.025305005            8 
 1855000   0.95412707   -6.9165588    572.49876  0.025718722  0.025297986            6 
 1856000   0.93407695   -6.9174697    573.05435  0.025729811  0.025291067            4 
 1857000   0.94831506   -6.9660943    572.26113   0.02568036  0.025284119            4 
 1858000   0.95754985   -6.9476215    572.61428  0.025682377   0.02527709            8 
 1859000    0.9639172   -6.9376386    574.30369  0.025744293  0.025270066            8 
 1860000   0.94717988   -6.9342002    574.11797  0.025722131  0.025263217           14 
 1861000   0.95176256   -6.9398337    573.49359   0.02568035   0.02525628            9 
 1862000   0.94683872   -6.9512708    572.13545  0.025605776  0.025249237           12 
 1863000   0.94225934   -6.9459697    574.58873  0.025701768  0.025242164           11 
 1864000   0.94074392   -6.9970714    572.60516  0.025599301  0.025235012            3 
 1865000    0.9567523   -6.9870388     572.3091  0.025572346  0.025227755            5 
 1866000    0.9659845   -6.9282431    573.83793  0.025626917  0.025220588            4 
 1867000   0.93186494    -6.959814    573.88401  0.025615248  0.025213438            4 
 1868000   0.94157946   -6.9138143    574.75293  0.025640298  0.025206283            8 
 1869000   0.96341639    -6.902441    575.91483  0.025678385  0.025199202            3 
 1870000   0.93228377   -6.9340571    574.12294  0.025584801  0.025192171            4 
 1871000   0.96190471    -6.940285    574.70778  0.025597175  0.025185127            5 
 1872000    0.9672317   -6.9647298    574.05546  0.025554463  0.025178045            8 
 1873000   0.96454751   -6.9467363    575.66364  0.025612371  0.025170922            7 
 1874000   0.94214354   -6.9394415     574.3396  0.025539826  0.025163828            5 
 1875000   0.93981376   -6.9473922    574.35853  0.025527046  0.025156679            9 
 1876000   0.94502474   -6.8693284    575.99302  0.025586044  0.025149575            5 
 1877000   0.95060346   -6.9619226    575.33944  0.025543396  0.025142499            2 
 1878000   0.98117221   -6.9435449    576.93287    0.0256005  0.025135343            4 
 1879000   0.96798793   -6.9805096     576.1575  0.025552488  0.025128292           12 
 1880000   0.98068985   -6.9384047     575.4664  0.025508262  0.025121103           21 
 1881000    0.9420988   -6.9587831    575.97292  0.025517141  0.025114005            5 
 1882000   0.93622591   -6.9583718    575.72162  0.025492456  0.025106817            9 
 1883000   0.93460532   -6.9267208    577.37016  0.025551875  0.025099754            5 
 1884000   0.95472387   -6.9815949    575.37654   0.02545013  0.025092675            8 
 1885000   0.95181419   -6.9551716    575.83891  0.025457069  0.025085577            5 
 1886000   0.96581291   -6.9523856    576.62389  0.025478256  0.025078558            9 
 1887000   0.95159408   -6.9565936    575.53817  0.025416806  0.025071402            4 
 1888000   0.95368588   -6.9714132    576.74225   0.02545649   0.02506428            4 
 1889000   0.94894933   -6.9105377    579.03551  0.025544182  0.025057221            4 
 1890000   0.95192613   -6.9823925    576.30237  0.025410157  0.025050225            3 
 1891000   0.96136944    -6.904333    579.35768  0.025531362  0.025043206            4 
 1892000   0.94757087   -6.9518275    578.71183  0.025489422  0.025036213            4 
 1893000   0.94343293   -6.9279512    578.60123  0.025471088  0.025029276            5 
 1894000   0.93393669   -6.9054958    580.20216  0.025528078  0.025022292            5 
 1895000   0.92998139   -6.9772192    578.96984  0.025460415  0.025015301            6 
 1896000   0.93791056   -6.9715647    577.32794  0.025374822  0.025008256            5 
 1897000   0.95672165   -6.9440207    578.43109  0.025409906  0.025001265            4 
 1898000   0.94960665   -6.9689041    579.93277   0.02546245  0.024994235            8 
 1899000   0.95806505    -6.957073    578.08018  0.025367745  0.024987177            5 
 1900000   0.94730755    -6.992778    578.76659    0.0253845  0.024980105            7 
 1901000   0.94243613   -6.9770204    579.09097  0.025385366  0.024973015            6 
 1902000   0.93099353   -6.9734894    579.86843  0.025406083  0.024965849            3 
 1903000   0.94467639   -7.0022261      577.704   0.02529795  0.024958736            3 
 1904000   0.92479518   -6.9789347    578.43857  0.025316814  0.024951609            5 
 1905000   0.95978131   -6.9958489    579.09748  0.025332348  0.024944533            5 
 1906000   0.92768352   -6.9283509     581.7418  0.025434671  0.024937526           13 
 1907000   0.93832357   -6.9637194    577.92332  0.025254471  0.024930383            5 
 1908000    0.9462218   -7.0002866    578.04582  0.025246585  0.024923185            3 
 1909000   0.94466366    -6.968707    580.63506  0.025346388  0.024916017            6 
 1910000   0.94077764   -6.9961625    580.50931  0.025327631  0.024908994            5 
 1911000   0.94227499   -6.9683205    579.91634   0.02528852  0.024901962            6 
 1912000   0.96258373   -7.0107646    578.22495  0.025201576  0.024894888            5 
 1913000   0.93684229   -6.9691548    581.68374  0.025339072  0.024887738            5 
 1914000   0.91732015   -7.0248966    579.54499  0.025232715  0.024880566            4 
 1915000   0.93092447   -7.0187495    579.49314  0.025217282  0.024873401            9 
 1916000   0.94011299    -6.971171    580.76451  0.025259417  0.024866302            9 
 1917000   0.95169938    -6.965286    581.84045  0.025293012  0.024859275            3 
 1918000   0.95204043   -6.9962038    581.05384  0.025245648   0.02485222            9 
 1919000   0.95268271   -6.9572787    581.36351   0.02524594  0.024845204            7 
 1920000   0.92106824   -6.9717711    582.60833   0.02528682  0.024838166            7 
 1921000   0.93951442   -6.9656785    581.54802   0.02522766  0.024831056            6 
 1922000   0.93944897   -6.9616829     582.2766  0.025246124  0.024824008            4 
 1923000   0.92953829    -6.994927    581.62989   0.02520497  0.024816852            3 
 1924000   0.94408707   -6.9990733    582.01726  0.025208648  0.024809718            4 
 1925000    0.9450443   -6.9527477    582.24806  0.025205544  0.024802693            2 
 1926000   0.93279638   -6.9663323    582.09014  0.025185624  0.024795748            7 
 1927000   0.91527826   -6.9899368    582.29176  0.025181273  0.024788678            7 
 1928000   0.95451446   -6.9744757     583.6436  0.025226643  0.024781616            6 
 1929000   0.94885008   -6.9802024    584.08232  0.025232518  0.024774562            9 
 1930000   0.95720148    -6.986586    583.30179  0.025185742  0.024767574            8 
 1931000   0.97040918   -6.9968749     582.6786  0.025145805   0.02476063            3 
 1932000   0.94110878   -6.9893678    581.45982   0.02508022  0.024753555            7 
 1933000   0.93989464     -6.98332    584.09203  0.025180722   0.02474659            5 
 1934000   0.93004462   -6.9130494    585.66189  0.025235345  0.024739589            3 
 1935000   0.94734238   -6.9447129    585.96853   0.02523551   0.02473271            6 
 1936000    0.9341113   -7.0081776    583.85919   0.02513168  0.024725803           10 
 1937000   0.92905831   -6.9846799    584.16345  0.025131795  0.024718831            7 
 1938000   0.94622798   -7.0023288    583.07385  0.025071975  0.024711769            6 
 1939000   0.95228379   -7.0131901    582.68664  0.025042403   0.02470474            3 
 1940000     0.954099   -7.0206163    581.87697  0.024994715  0.024697694            6 
 1941000   0.92136049   -7.0032779    583.97196  0.025071782  0.024690604            9 
 1942000   0.92501437   -6.9829041    584.25781  0.025071138  0.024683646            4 
 1943000   0.95695384    -7.000645    585.48087  0.025110691  0.024676707            5 
 1944000   0.93203634   -6.9666756    586.83283  0.025155728   0.02466972            6 
 1945000   0.95234263   -7.0269797    584.91932  0.025060811  0.024662804            5 
 1946000   0.94398124   -7.0110306    583.51629  0.024987851  0.024655799            4 
 1947000   0.93520317   -7.0320146    584.30326    0.0250087  0.024648825           10 
 1948000   0.93157625   -7.0379846    584.00139  0.024982948  0.024641838            2 
 1949000   0.94107919   -6.9889083    585.33739  0.025027253  0.024634768            3 
 1950000   0.92206617   -6.9935232    586.21577  0.025051956  0.024627778            7 
 1951000   0.92124591   -7.0109569    585.96803  0.025028534  0.024620766            4 
 1952000   0.91854895   -6.9639431    587.22324  0.025069298  0.024613839            5 
 1953000   0.94002871   -6.9987985    588.08509  0.025093237  0.024606871            5 
 1954000   0.93495284    -7.009475    586.99084  0.025033727   0.02459991            4 
 1955000   0.93641306   -7.0167597    585.28003  0.024947998  0.024593018            9 
 1956000   0.96462373   -7.0088389    587.40465   0.02502576  0.024586141            6 
 1957000   0.92379155    -7.034155    586.09124  0.024957045   0.02457916            7 
 1958000   0.91431051   -7.0307247    587.69926  0.025012736  0.024572196            8 
 1959000   0.92998951   -7.0022015    587.47891  0.024990595  0.024565303            5 
 1960000   0.94870122   -6.9731105    589.10041  0.025046786  0.024558481            4 
 1961000   0.93996738   -6.9755546    590.67553  0.025100949   0.02455175            5 
 1962000   0.94071259   -6.9983618      587.939  0.024971925   0.02454493            7 
 1963000   0.92656122   -6.9761787    589.34767  0.025019005  0.024538096            8 
 1964000   0.93884525   -7.0053526    590.00348  0.025034092  0.024531243           10 
 1965000   0.94795334   -7.0021852    589.76212  0.025011116  0.024524417            4 
 1966000   0.92988273   -6.9941157    589.90714  0.025004541  0.024517621            5 
 1967000   0.95127431    -6.997461       588.26  0.024922047  0.024510825            6 
 1968000   0.93793071    -6.950582    590.92238   0.02502212  0.024504016            8 
 1969000   0.93993825   -6.9712961    589.95512  0.024968475  0.024497261            3 
 1970000   0.92614884   -6.9815002    592.10596  0.025046784  0.024490501            5 
 1971000    0.9365031   -7.0365195    589.77953  0.024935715  0.024483609            3 
 1972000   0.90999418    -7.004767    589.10999  0.024894776  0.024476699            4 
 1973000   0.97301363   -6.9970926    591.02823  0.024963179  0.024469806           13 
 1974000   0.94993629   -7.0110929    590.36276   0.02492244  0.024462946            5 
 1975000   0.94407744   -6.9963583    590.22752  0.024904115  0.024456082            6 
 1976000   0.93657116   -7.0305068    590.52438  0.024904031  0.024449266           11 
 1977000   0.91849152   -7.0341864    589.60533  0.024852695  0.024442317            6 
 1978000   0.93155939   -6.9942525    591.33812  0.024913133  0.024435415            6 
 1979000   0.94219714   -7.0441794    589.45856  0.024821398  0.024428548            8 
 1980000   0.92604666   -7.0223262    590.41064  0.024848933  0.024421637           11 
 1981000   0.93622709   -6.9944365    591.19662  0.024869452  0.024414714            9 
 1982000   0.91614745    -7.007641    591.91232  0.024886996  0.024407931            7 
 1983000   0.93372562   -6.9992334    591.76055  0.024868068  0.024401151            5 
 1984000   0.91902668   -7.0338281    593.23951  0.024917654  0.024394418            5 
 1985000   0.93718147   -7.0336249    590.32483  0.024782738  0.024387607            4 
 1986000   0.94304107    -7.005765    592.59551  0.024865538  0.024380824            6 
 1987000   0.95261165   -7.0387415    594.81827  0.024946245  0.024374072            5 
 1988000   0.94645816   -7.0196499    592.58809  0.024840212  0.024367326            5 
 1989000    0.9292211   -6.9829241    594.31052  0.024899888  0.024360605            3 
 1990000   0.93091812   -6.9938672    594.09653  0.024878414  0.024353914            5 
 1991000   0.91441354    -7.011047    592.76994  0.024810394  0.024347157            6 
 1992000   0.94445278   -6.9688067    593.52204  0.024829403  0.024340426            4 
 1993000   0.93866383   -7.0347975    593.10495  0.024799505  0.024333652            3 
 1994000   0.95903642   -7.0262482    592.40506  0.024757818  0.024326851           15 
 1995000   0.91498504   -7.0126939    593.95802  0.024810277  0.024320007            5 
 1996000   0.94747113    -7.052015    591.96859  0.024714787  0.024313098           12 
 1997000   0.92530638   -6.9916956    594.61132  0.024812691  0.024306384            3 
 1998000   0.89312989    -7.027562    593.65826  0.024760521  0.024299549            9 
 1999000   0.93643898   -7.0237875    593.99156  0.024762029  0.024292691            5 
 2000000   0.94755779   -7.0057614    594.26784   0.02476116  0.024285889            4 
 2001000   0.90440529   -7.0531801    593.10525  0.024700369  0.024279074            9 
 2002000   0.92179005   -6.9920153    595.65547  0.024794184  0.024272221            7 
 2003000   0.94262253   -6.9931205    593.93705  0.024710312  0.024265521            5 
 2004000   0.94320927   -7.0301991    593.94579  0.024698344  0.024258773            6 
 2005000   0.93174386   -7.0413345    593.82202  0.024680882  0.024251893            5 
 2006000   0.91441451    -7.049772    593.39663  0.024650907  0.024245047            5 
 2007000   0.92700178   -7.0094086    595.49622  0.024725802  0.024238219            7 
 2008000   0.90722125    -7.006161    597.43141    0.0247938  0.024231548           11 
 2009000   0.90936585   -6.9989993    596.67918  0.024750257    0.0242248            5 
 2010000   0.95837626   -7.0521892    594.45765   0.02464584  0.024217936            8 
 2011000   0.91912594   -7.0453646    595.76685  0.024687836  0.024211015            5 
 2012000   0.93404303   -7.0283433    596.14215  0.024691109  0.024204183            2 
 2013000   0.92872123   -7.0498308    594.67546  0.024618126  0.024197419            9 
 2014000   0.92239075   -7.0265243    596.34735  0.024675081  0.024190689            5 
 2015000   0.94446428   -7.0521892    594.76712  0.024597482  0.024183931           11 
 2016000   0.93343014   -7.0134762    596.07524  0.024639353  0.024177163            4 
 2017000   0.92715518   -7.0315288    597.26932  0.024676472  0.024170408            6 
 2018000    0.9210783   -7.0618015    596.15111  0.024618067  0.024163626            8 
 2019000   0.93147174   -7.0175809    598.31076  0.024695012  0.024156894            3 
 2020000   0.91303084   -7.0744014    597.71141  0.024658062  0.024150167            3 
 2021000   0.94454915    -7.023035     598.4806  0.024677577  0.024143531           11 
 2022000   0.92403489   -7.0523775    598.91245  0.024683171  0.024136839            6 
 2023000    0.9152361   -7.0963601    596.55949  0.024574044  0.024130117            4 
 2024000   0.92442424   -7.0484199    598.87028  0.024657044  0.024123257            8 
 2025000   0.92815399   -7.0062776    598.74556  0.024639735  0.024116461            7 
 2026000   0.93508524   -7.0576305    597.28626  0.024567549  0.024109644            5 
 2027000   0.91729505   -7.0592189    596.01957  0.024503354  0.024102916            3 
 2028000   0.93698822   -7.0457116    598.79069   0.02460514  0.024096217            4 
 2029000   0.91827871   -7.0358189    598.91704  0.024598203  0.024089422            9 
 2030000   0.90730099   -7.0098431    599.21211  0.024598198  0.024082709            4 
 2031000    0.9247183   -7.0326314    600.11531  0.024623146  0.024076046            6 
 2032000    0.9094471   -7.0284506    598.56373  0.024547397  0.024069314            6 
 2033000   0.93567411   -7.0007263    600.05132    0.0245963  0.024062645            4 
 2034000   0.93458629   -7.0554025    597.95708  0.024498405   0.02405589            6 
 2035000   0.92015075   -7.0379195    598.99225  0.024528757  0.024049133           11 
 2036000   0.92078261    -7.080094     599.6553  0.024543848  0.024042411            4 
 2037000    0.9077797   -7.0336336    598.04121  0.024465767  0.024035692           14 
 2038000   0.92509609   -7.0409258    598.51226  0.024473024  0.024028961            4 
 2039000   0.93015222   -7.0150746    599.67189  0.024508415  0.024022241            8 
 2040000   0.92110577   -7.0240087    598.68384  0.024456039  0.024015474            6 
 2041000   0.94201785   -7.0378315    599.24673  0.024467039  0.024008556            6 
 2042000   0.93999238   -7.0186967    600.70324  0.024514497  0.024001821            7 
 2043000    0.9174547   -7.0213347    600.55031   0.02449626  0.023995031            5 
 2044000   0.91744944   -7.0140432    600.87701  0.024497595  0.023988301            3 
 2045000   0.93125608   -7.0380418    600.15756  0.024456298  0.023981582            9 
 2046000    0.9339729   -7.0161019    599.68727   0.02442519  0.023974811            3 
 2047000   0.91234221   -7.0434141    601.17263  0.024473727  0.023968057           11 
 2048000   0.91813604    -7.040727    599.36536  0.024388239  0.023961343            6 
 2049000   0.92185963     -7.03275    600.62108  0.024427407  0.023954557            6 
 2050000   0.92313064   -7.0219387    601.48938  0.024450788  0.023947835            6 
 2051000   0.92990425   -7.0668552    600.51139   0.02439913  0.023941071            9 
 2052000   0.91712513   -7.0466173    601.60074  0.024431479  0.023934286            4 
 2053000   0.92623279   -7.0681109    600.25249  0.024364852  0.023927506            6 
 2054000   0.92294564   -7.0449096    600.44684  0.024360875  0.023920706            7 
 2055000    0.9045792   -7.0436607    602.84894  0.024446429  0.023913967            5 
 2056000    0.9250747   -7.0613436     601.6366    0.0243854  0.023907202            8 
 2057000    0.9226362    -7.062268    601.43462  0.024365363  0.023900414            3 
 2058000   0.92459158   -7.0175431    601.93261  0.024373688  0.023893651            5 
 2059000   0.90561006   -7.0461375    602.47216  0.024383688   0.02388684           10 
 2060000   0.92574647   -6.9905096    603.92992  0.024430822  0.023880207            6 
 2061000    0.9197104   -7.0356291    599.50847  0.024240194  0.023873556            7 
 2062000   0.91935092   -7.0280786    602.57005  0.024352168  0.023866899            5 
 2063000    0.9148229   -6.9984176    604.63941  0.024423954  0.023860247            6 
 2064000   0.95107853   -7.0137898    605.15865  0.024433085  0.023853679            8 
 2065000   0.89901647   -7.0338169    603.19241  0.024341905  0.023847104            5 
 2066000   0.92918615   -7.0123864    604.59415  0.024386663  0.023840509            7 
 2067000   0.95572749   -7.0635587    603.52453  0.024331742  0.023833894            9 
 2068000   0.92745744   -7.0550477    603.29296  0.024310645  0.023827173            8 
 2069000   0.93726002   -7.0719128    603.40624  0.024303457  0.023820457            5 
 2070000    0.9066149   -7.0527556    603.38925  0.024291033  0.023813715            6 
 2071000   0.91696902   -7.0214318    604.97896   0.02434327  0.023806966           15 
 2072000   0.92051101   -7.0461753    606.08534  0.024376019  0.023800288            5 
 2073000   0.89321386   -7.0347348    603.96856  0.024279167  0.023793642            6 
 2074000    0.9140357   -7.0475366    605.77315  0.024339969  0.023786932            7 
 2075000   0.94073882   -7.0359668     604.0904  0.024260659  0.023780252            9 
 2076000   0.92678771   -7.0538326    604.70948  0.024273823  0.023773595            7 
 2077000   0.94050745   -7.0885354    603.85807  0.024227976  0.023766888            8 
 2078000   0.90883348   -7.0632455    604.15569  0.024228252  0.023760134           10 
 2079000   0.90025219   -7.0932523      604.079  0.024213524  0.023753444            5 
 2080000   0.92891464   -7.1020552    604.94287  0.024236493  0.023746695            4 
 2081000   0.90596424   -7.0682629    604.94182  0.024224805  0.023739999           13 
 2082000   0.92522579   -7.0544637    607.06406  0.024298113  0.023733352            4 
 2083000   0.92557136   -7.0363891    606.10774  0.024248189  0.023726722            4 
 2084000   0.91919322   -7.0414496    605.14204  0.024197938  0.023720093            3 
 2085000   0.90271427   -7.0413189    605.17116  0.024187496  0.023713395            8 
 2086000   0.91857636   -7.0526179    605.02765  0.024170168  0.023706722           10 
 2087000   0.91963763   -7.0695334    605.51334   0.02417798  0.023700051            5 
 2088000   0.93949708   -7.0878029    605.62422  0.024170826  0.023693365            5 
 2089000    0.9186391   -7.0314813    605.98376  0.024173598   0.02368669           11 
 2090000   0.90792527   -7.0882956    606.29104  0.024174284  0.023680009            4 
 2091000   0.89807419   -7.0372322    607.81147  0.024223317  0.023673373            7 
 2092000   0.93321658   -7.0670149    605.31741  0.024112389  0.023666788            6 
 2093000   0.92066016   -7.0893588    604.30013  0.024060365  0.023660207            4 
 2094000   0.90442309   -7.0121092    607.80448  0.024188335  0.023653525            4 
 2095000   0.90471177   -7.0483811    607.81915  0.024177373    0.0236469           16 
 2096000   0.92349083    -7.066943    607.89622  0.024168902  0.023640291            6 
 2097000   0.93877308   -7.0722477     605.7512  0.024072135  0.023633605            5 
 2098000   0.92805655   -7.0751297    607.70981  0.024138458  0.023626942            4 
 2099000   0.92581318   -7.0706503    607.22756  0.024107812   0.02362031            3 
 2100000    0.9078833   -7.0273296     610.6011  0.024230202  0.023613802           10 
 2101000   0.91393964   -7.0312887    608.36775  0.024130087  0.023607307           10 
 2102000   0.90366791   -7.0701278    608.46517   0.02412247  0.023600717            5 
 2103000   0.91898055   -7.0653105    609.37084  0.024146887  0.023594192           17 
 2104000   0.91002071   -7.0636166    607.92207  0.024078029   0.02358762            9 
 2105000   0.93704236   -7.0697517    608.97661  0.024108338  0.023581073            7 
 2106000   0.91102643   -7.0575303    609.43905  0.024115189  0.023574519            8 
 2107000    0.9115209    -7.087025    608.99454  0.024086163  0.023567965            4 
 2108000   0.93235172   -7.0789083    608.61098  0.024059574   0.02356134            8 
 2109000   0.91319891   -7.0497757    610.92642  0.024139656  0.023554791            4 
 2110000   0.91449476   -7.0659353    609.74072  0.024081387  0.023548234            3 
 2111000   0.90159098   -7.0626974    611.30454  0.024131712  0.023541681            7 
 2112000   0.91585455   -7.0513407    609.58234  0.024052334  0.023535102            3 
 2113000   0.90723285   -7.0698928    609.69508  0.024045397  0.023528498            6 
 2114000   0.91058135   -7.0996644    608.68999  0.023994402  0.023521914            9 
 2115000   0.89821254   -7.0769513    609.64764   0.02402079  0.023515319            3 
 2116000   0.90018456   -7.0966833      610.477    0.0240421  0.023508758           14 
 2117000   0.91226525   -7.0838137    610.16904  0.024018621  0.023502173            4 
 2118000   0.89550341   -7.0855752    609.70372  0.023988972  0.023495533           10 
 2119000   0.91422528   -7.0853066    609.46087  0.023968101  0.023488853            7 
 2120000   0.90768128   -7.0575816    611.40248  0.024033116  0.023482199            3 
 2121000   0.89765101   -7.0736667    609.35729  0.023941431   0.02347555            3 
 2122000   0.90535047   -7.0890842    609.97177  0.023954279  0.023468919            5 
 2123000    0.9160911   -7.1084286    609.98124  0.023943368  0.023462281            5 
 2124000   0.89774857    -7.098277    609.82868   0.02392611  0.023455587            6 
 2125000   0.89008742   -7.0576763    610.49972  0.023941165  0.023448917            9 
 2126000    0.9182931   -7.0899051    610.66092  0.023936223  0.023442243            7 
 2127000   0.89776009   -7.0693571    608.27854  0.023831631  0.023435524            5 
 2128000   0.94322157   -7.1023482    609.89509  0.023883736  0.023428789            2 
 2129000   0.90865233   -7.1340236    608.46897  0.023816697  0.023422035            5 
 2130000   0.93665298   -7.0895712    610.87731  0.023899738  0.023415218           11 
 2131000   0.88999692   -7.0790454    612.55817  0.023954254  0.023408521            4 
 2132000    0.9206521   -7.1084104    608.71223  0.023792692  0.023401807            9 
 2133000   0.92994299   -7.1055695    609.86864  0.023826717  0.023395102            9 
 2134000   0.90792213   -7.1058504    609.80377  0.023813018  0.023388326            8 
 2135000   0.91316896   -7.1065136    609.70952  0.023798186  0.023381635           11 
 2136000   0.90588233    -7.083018     610.7688  0.023828371  0.023374979            5 
 2137000   0.91112715    -7.085015    611.41262  0.023842326  0.023368252           10 
 2138000   0.90390293   -7.1123578    608.39565  0.023713582  0.023361448            7 
 2139000   0.92532847   -7.1023117    611.19741  0.023811649  0.023354739           16 
 2140000   0.90170684   -7.0880278    610.20577  0.023761907  0.023348054            5 
 2141000   0.90958159   -7.0960264    611.37306  0.023796242  0.023341397            5 
 2142000   0.89333552   -7.1049626    612.15014  0.023815365  0.023334685            8 
 2143000   0.90655484   -7.1055842     611.6114  0.023783302  0.023327919            6 
 2144000   0.91809248   -7.0621237    612.48673  0.023806232  0.023321174            2 
 2145000   0.90218511   -7.0718609    612.60002  0.023799534  0.023314493            6 
 2146000   0.91354854   -7.1277872    611.30452  0.023738138  0.023307737            7 
 2147000   0.90052527   -7.1138822    612.30946  0.023766087  0.023300961           10 
 2148000    0.9067436   -7.0998107    611.99379  0.023742776  0.023294321            7 
 2149000   0.89461203   -7.0659007    613.86095  0.023804132  0.023287671            8 
 2150000   0.91201876   -7.0856937    613.43884  0.023776699  0.023280963            5 
 2151000   0.91541887   -7.0857297    612.66289  0.023735584  0.023274258           11 
 2152000   0.90370984   -7.0990966    613.19587  0.023745193  0.023267578            5 
 2153000   0.91892913   -7.1039706    612.88076  0.023721968  0.023260888            3 
 2154000   0.90949282   -7.1146174     612.2772  0.023687605  0.023254149            8 
 2155000   0.92404795   -7.0922304    613.44702  0.023721849  0.023247445            7 
 2156000    0.9129577   -7.1273085    612.19575  0.023662483  0.023240742            6 
 2157000   0.90997209   -7.1240369    611.21157   0.02361349  0.023233961            3 
 2158000   0.90906851   -7.1062328    613.30674  0.023683455  0.023227218            6 
 2159000   0.90203368   -7.0680273     615.1797  0.023744778  0.023220463            8 
 2160000   0.90808465   -7.0589756    612.87507  0.023644872  0.023213747            7 
 2161000   0.89515789   -7.0773061    615.52602  0.023736157  0.023207033            5 
 2162000   0.88818882   -7.1209662     613.1363  0.023633067   0.02320022            6 
 2163000   0.90016715     -7.08002     613.0351  0.023618242  0.023193343            4 
 2164000   0.90569655   -7.0927696    612.84666  0.023600072  0.023186522            7 
 2165000   0.90873077   -7.1173207    612.17446  0.023563297  0.023179671            7 
 2166000   0.87362406   -7.1117744    613.98905  0.023622232  0.023172874            8 
 2167000   0.88713138   -7.1520239    613.96557  0.023610428  0.023166067            5 
 2168000   0.89721617   -7.0677027      614.811  0.023632034  0.023159258            6 
 2169000   0.91083731   -7.1091335    612.00598   0.02351337  0.023152461           10 
 2170000   0.88921294   -7.1058426    612.68406  0.023528574  0.023145668            5 
 2171000   0.90345586   -7.0963369    612.64165  0.023516108  0.023138809            9 
 2172000   0.91211904   -7.0960802     613.8505  0.023551661  0.023132051            6 
 2173000   0.91049599   -7.1093632    613.72181  0.023535888  0.023125201            6 
 2174000   0.91106268   -7.1078042    612.92403  0.023494481  0.023118362            8 
 2175000   0.92182427   -7.1180972    613.64805  0.023511419  0.023111457           12 
 2176000    0.8983191   -7.0878528    614.00135  0.023514145   0.02310459           13 
 2177000   0.89932124   -7.1117197    613.13761  0.023470281  0.023097833            9 
 2178000   0.91166009   -7.1156967    611.99227  0.023415682  0.023090938            5 
 2179000   0.88492023   -7.1248994      613.101  0.023447338  0.023084023            6 
 2180000   0.90375909   -7.1170166    613.00645  0.023432968  0.023077142            7 
 2181000    0.8872055    -7.114981    614.47251  0.023478241  0.023070283            5 
 2182000   0.89442292   -7.0913018    615.18779  0.023494798  0.023063471            8 
 2183000   0.90451033   -7.0957111    614.10966  0.023442879  0.023056672            9 
 2184000   0.92765322   -7.1120132    615.55087  0.023487136  0.023049857            9 
 2185000   0.89267439   -7.1206099    614.34037   0.02343022     0.023043            6 
 2186000    0.8949325   -7.1198862    615.46433  0.023462349  0.023036184            8 
 2187000   0.92521027   -7.0715784    615.67806  0.023459765  0.023029414            4 
 2188000   0.90586484    -7.105505    616.08461  0.023464526  0.023022564            9 
 2189000    0.9145753   -7.0970896    614.42801  0.023390742  0.023015736           11 
 2190000   0.90503659   -7.0982263    616.83519  0.023471659   0.02300886            7 
 2191000   0.89401375   -7.0959491    616.74984    0.0234577  0.023001981           10 
 2192000   0.89103972    -7.115303     616.1344  0.023423601  0.022995138            6 
 2193000   0.88332651   -7.1141135     616.9098  0.023442385   0.02298832            8 
 2194000   0.89603115   -7.1168939    615.32577  0.023371535  0.022981412            5 
 2195000    0.8982852   -7.1043378    614.93046  0.023345879  0.022974533            9 
 2196000   0.90086487   -7.0597766    615.85742  0.023370424  0.022967691            5 
 2197000   0.89319314     -7.14816    616.63725  0.023389366  0.022960847            5 
 2198000   0.89185617    -7.121392    616.99325  0.023392222   0.02295403            3 
 2199000   0.89760349   -7.1204011    616.03586  0.023345303  0.022947154            6 
 2200000   0.89118134   -7.1350759    617.16741  0.023377553   0.02294039            8 
 2201000   0.89685834   -7.0808062    618.95542  0.023434629   0.02293362           14 
 2202000   0.91241481   -7.0749026    617.95369  0.023386077  0.022926874            8 
 2203000    0.8914794   -7.1123145    617.61444  0.023362628  0.022920117            5 
 2204000    0.9108709   -7.0824374    618.05698  0.023368761   0.02291332            6 
 2205000   0.88879993   -7.1061724    618.03311   0.02335726  0.022906596            5 
 2206000   0.88291364    -7.070278    618.96455  0.023381858  0.022899842           12 
 2207000   0.90501605   -7.1347784    617.34342  0.023310052  0.022893081            5 
 2208000   0.89251227   -7.1424673    616.90317  0.023282879  0.022886287            7 
 2209000    0.8873243   -7.1026181    618.15485  0.023319558  0.022879506            4 
 2210000   0.89818883   -7.0979421    618.20597  0.023310934  0.022872842            5 
 2211000   0.88169886   -7.1149119    617.02911  0.023256035   0.02286613           12 
 2212000   0.91409334   -7.1261011    616.86084  0.023239182  0.022859343            7 
 2213000   0.88978658   -7.0934144    619.61846  0.023332522  0.022852523            3 
 2214000   0.87748081   -7.0797546    621.38736  0.023388564  0.022845816           11 
 2215000   0.88737691   -7.0840787    619.78183  0.023317601  0.022839228           11 
 2216000   0.89054048   -7.1185786    619.97179  0.023314222  0.022832569            3 
 2217000   0.91030481   -7.1139953    620.18877  0.023311862  0.022825865            8 
 2218000   0.90439824   -7.1364374    619.40638  0.023271956  0.022819118           12 
 2219000   0.91630037    -7.094682    619.84879  0.023278083  0.022812386            5 
 2220000   0.88256479    -7.171934    618.70781  0.023224768  0.022805602           11 
 2221000   0.87515712   -7.1744981    618.14155  0.023193064  0.022798746           10 
 2222000   0.88981719   -7.1083646    619.03183  0.023216015  0.022791902            6 
 2223000   0.89554275   -7.1568568    618.19964  0.023174375  0.022785091            8 
 2224000   0.87611242   -7.1178357    620.98109  0.023268176   0.02277826            6 
 2225000   0.90835776   -7.1456866     618.9738  0.023182539  0.022771467            7 
 2226000   0.89008694   -7.1022891    621.85726  0.023280071  0.022764749            3 
 2227000   0.90465538   -7.1406961    618.46424  0.023142652  0.022757984            8 
 2228000   0.90542426   -7.1263208    620.66728  0.023214665  0.022751287           20 
 2229000   0.89306473   -7.1276489    619.86604  0.023174295  0.022744556            7 
 2230000   0.90383852   -7.1224256    619.78021  0.023160696  0.022737878            9 
 2231000   0.90175044   -7.1240118    621.36092  0.023209357  0.022731162            5 
 2232000   0.88561851   -7.1114307    621.90601   0.02321931  0.022724442            6 
 2233000   0.89555077   -7.1107773    621.35403  0.023188313  0.022717766            6 
 2234000   0.91088625   -7.1104293     620.1191  0.023131867  0.022711031            9 
 2235000   0.89346439   -7.1467808    621.56258  0.023175338  0.022704346            9 
 2236000    0.8815711   -7.1313279    621.66038  0.023168619  0.022697623            7 
 2237000   0.91029382   -7.1199559    622.25873  0.023180552  0.022690892            7 
 2238000   0.89199922   -7.1524796    619.65029  0.023073067  0.022684162            3 
 2239000   0.90111531   -7.1514608     620.2109  0.023083627  0.022677456            7 
 2240000   0.89011309   -7.1104011    622.79232  0.023169357  0.022670826            4 
 2241000   0.89250386   -7.1161732    621.97426  0.023128598  0.022664183            4 
 2242000   0.89540864   -7.1097351    623.46264  0.023173604  0.022657536            3 
 2243000   0.89161338   -7.1367338    622.25223  0.023118302  0.022650857           15 
 2244000   0.87450031   -7.1440941    622.62099  0.023121695  0.022644141           11 
 2245000   0.89817732   -7.1253337    622.58884  0.023110202   0.02263747            8 
 2246000   0.89920132   -7.1381165    623.35725  0.023128423  0.022630877            6 
 2247000   0.88663102    -7.140252    622.14684   0.02307324  0.022624291            4 
 2248000   0.88993333   -7.1263179    623.17302  0.023101016   0.02261771           10 
 2249000   0.87474431    -7.091921    623.24105  0.023093266  0.022611039            3 
 2250000   0.88148446   -7.1305823    624.25913  0.023120708  0.022604345            7 
 2251000   0.89831649   -7.1415219     622.9152  0.023060684  0.022597623            7 
 2252000   0.91037235   -7.1247505    622.32217    0.0230285  0.022590932            8 
 2253000   0.90903267   -7.1063696     624.1627  0.023086355  0.022584294            5 
 2254000   0.89084952   -7.1331922    621.93876  0.022993891  0.022577653            4 
 2255000   0.88015002   -7.1677743    622.12823  0.022990696  0.022571006            7 
 2256000    0.8982072   -7.1319512    621.87245  0.022971057  0.022564344            7 
 2257000   0.88084763   -7.1090631    624.45294  0.023056156  0.022557729            5 
 2258000   0.88727387   -7.1092786     624.2221  0.023037426  0.022551121           15 
 2259000    0.9066979   -7.1417852    623.68978  0.023007591  0.022544506            5 
 2260000   0.88328323    -7.173379    623.91947   0.02300588  0.022537822            6 
 2261000   0.87060227   -7.1474834    624.50893  0.023017431  0.022531126           22 
 2262000   0.88323262   -7.1305042    623.87885  0.022984042  0.022524459            6 
 2263000    0.8817563   -7.1181251    624.40786  0.022993367  0.022517863            4 
 2264000   0.88454801   -7.1526097    624.92063  0.023002084  0.022511272            5 
 2265000   0.89962985     -7.12866    626.13818  0.023036725  0.022504601            6 
 2266000    0.8915808   -7.1089676    626.81601  0.023051486  0.022497975            4 
 2267000   0.88425145   -7.1365439    624.48682  0.022955698  0.022491369            8 
 2268000   0.86847538   -7.0857417    626.82908  0.023031639  0.022484748           12 
 2269000   0.87306469   -7.1387015    623.72322   0.02290742  0.022478126            5 
 2270000   0.89457278   -7.1414125    624.12546  0.022912095  0.022471393            5 
 2271000    0.8978141   -7.1207873    625.42416  0.022949661  0.022464776            5 
 2272000   0.86977805   -7.1350967    627.00796  0.022997651  0.022458188            7 
 2273000   0.87839457   -7.1422352    625.48162  0.022931574  0.022451564            8 
 2274000   0.89020074   -7.1123555    626.88711  0.022972996  0.022444943            9 
 2275000   0.90710167   -7.1226253    626.23409  0.022938978  0.022438399            8 
 2276000   0.89837326   -7.1114842    627.31069  0.022968318  0.022431834            6 
 2277000   0.87844326   -7.1625784     625.4303  0.022889412  0.022425211            9 
 2278000   0.87565954   -7.1192336    626.36618    0.0229136  0.022418596           11 
 2279000   0.90306419   -7.1837599    624.76058  0.022844836   0.02241196            6 
 2280000   0.90098264   -7.1430664    626.60958  0.022902397  0.022405304            7 
 2281000   0.88965582   -7.1464505    626.73597  0.022896974  0.022398668            4 
 2282000   0.89172951   -7.1193945    626.13606  0.022865033  0.022392015            8 
 2283000   0.89883644   -7.1580054    627.17098  0.022892794  0.022385472            5 
 2284000   0.88230617   -7.1497242    626.89658  0.022872759  0.022378939           10 
 2285000   0.88307211   -7.1410206    625.80591  0.022822973  0.022372318           14 
 2286000   0.86444805   -7.1392411    628.09027  0.022896262  0.022365742           10 
 2287000   0.88632251   -7.0900368    629.29588  0.022930181  0.022359205            5 
 2288000   0.88227585   -7.1168173    629.86684  0.022940954  0.022352706           23 
 2289000   0.87261416   -7.1933187    625.90004  0.022786517  0.022346146            5 
 2290000   0.88781998    -7.117347    629.36953  0.022902821  0.022339639            4 
 2291000    0.8806632    -7.144304    628.19976  0.022850275  0.022333127            8 
 2292000   0.90594199   -7.1673284    627.67185  0.022821111  0.022326593            5 
 2293000   0.90442357   -7.1605261    629.93445  0.022893387  0.022320095            7 
 2294000    0.8988668   -7.1321159    627.36266  0.022789983  0.022313553            4 
 2295000   0.89764342   -7.1272716    628.90516  0.022836062  0.022307059            5 
 2296000    0.8960504   -7.1541931    630.02387   0.02286672  0.022300473            7 
 2297000    0.9139073   -7.1357953    629.72617  0.022845965  0.022293927            4 
 2298000   0.88608096   -7.1433886     629.4179  0.022824844  0.022287396            6 
 2299000   0.87741325   -7.1488512    629.48305  0.022817277  0.022280908            8 
 2300000   0.88169428   -7.1279878    629.09239  0.022793203  0.022274378            5 
 2301000   0.86845696   -7.1442066    628.89878  0.022776285  0.022267845            6 
 2302000   0.87090043   -7.1958921    628.77155  0.022761785  0.022261298            7 
 2303000   0.88237499   -7.1448037    628.28756  0.022734389  0.022254706            5 
 2304000   0.88865567   -7.1486933    629.65332  0.022773919  0.022248185            7 
 2305000   0.88223634   -7.1900092    628.23705  0.022712836  0.022241692            7 
 2306000   0.88507665   -7.1232613    628.94539  0.022728585  0.022235152            8 
 2307000   0.90448069   -7.1786682    630.37543  0.022770388  0.022228593            9 
 2308000   0.86538122   -7.1708837    631.20747  0.022790564  0.022222046            6 
 2309000    0.8891225   -7.2001388    630.58271  0.022758146  0.022215554            5 
 2310000    0.8581763   -7.1513704    630.96454  0.022762069  0.022209036            8 
 2311000    0.8718492   -7.1596311    630.48844  0.022735051  0.022202614            5 
 2312000   0.89236212   -7.1579468    631.28415  0.022753898  0.022196113           12 
 2313000   0.89091441   -7.1763776    630.08286   0.02270078    0.0221896            5 
 2314000   0.88638671   -7.1904797    628.82737  0.022645757  0.022183012            4 
 2315000   0.86404403   -7.1731032    629.94055  0.022676046  0.022176483           18 
 2316000   0.88795847   -7.1794223    630.51401  0.022686889  0.022169977           13 
 2317000   0.86942974    -7.149106    632.05832   0.02273264  0.022163459           21 
 2318000   0.88455902    -7.208155    630.07418  0.022651502   0.02215691           16 
 2319000   0.89435201   -7.1879631    630.24796  0.022647979  0.022150332           20 
 2320000   0.89383669    -7.192269    630.09909  0.022632869  0.022143774           23 
 2321000    0.8668149   -7.1777883    629.82643  0.022613329  0.022137266            7 
 2322000   0.88407948   -7.2148194    629.89142  0.022605922   0.02213076            9 
 2323000   0.86163597   -7.1715108    631.90848  0.022668549  0.022124232            8 
 2324000   0.87319695   -7.1917991     631.7902  0.022654554  0.022117716            9 
 2325000   0.88386054   -7.1825734    631.41681  0.022631427  0.022111195           22 
 2326000   0.86453293   -7.1745525    630.66322  0.022594698  0.022104625            8 
 2327000    0.8998403   -7.1834416    631.36339  0.022610063  0.022098121            7 
 2328000   0.87619278   -7.1891349    631.38788  0.022601227  0.022091546           10 
 2329000   0.88224489   -7.1742609    631.97841  0.022612652  0.022084987           18 
 2330000   0.88670234   -7.1761371    631.97556  0.022602845  0.022078481            4 
 2331000   0.86319689   -7.1521904    633.88908  0.022661557  0.022071973            5 
 2332000   0.87140975   -7.1964165    631.28308  0.022558715  0.022065501            8 
 2333000   0.88569996   -7.1733215    631.33424  0.022550873  0.022058946            2 
 2334000   0.88677142   -7.1938553    631.02971  0.022530338  0.022052415           11 
 2335000   0.89563467   -7.1585275     634.8626   0.02265748  0.022045881            9 
 2336000   0.89260279   -7.1695309    633.24874  0.022590209  0.022039401            8 
 2337000   0.89216958   -7.1864389    633.15911  0.022577347  0.022032911           10 
 2338000   0.87400605   -7.1778414    632.18142  0.022532842  0.022026408            6 
 2339000   0.86713095   -7.1986974    631.86864  0.022512065  0.022019934            5 
 2340000   0.86592616    -7.151055    633.53131  0.022561656  0.022013433            8 
 2341000   0.88327636   -7.1702153    632.71123  0.022522826  0.022006963            8 
 2342000   0.88744987   -7.1902836    632.96973  0.022522407  0.022000446           13 
 2343000     0.883796   -7.1756226    633.57677  0.022534385  0.021993938            5 
 2344000   0.86760642    -7.146435    633.93276  0.022537427  0.021987433            4 
 2345000   0.86978306    -7.176476    633.15356  0.022500127  0.021980979           10 
 2346000   0.84545434   -7.1916051    632.39608  0.022463629  0.021974527            8 
 2347000     0.872793   -7.1827527    633.02255  0.022476301   0.02196802            3 
 2348000    0.8927216   -7.1680356    633.17111  0.022472001  0.021961509           10 
 2349000   0.86316839    -7.212962    632.29397  0.022431317  0.021954999           11 
 2350000   0.90180405   -7.1894477     632.5071   0.02242933  0.021948458            6 
 2351000   0.87115199   -7.2109991    632.40404  0.022416136  0.021941964           20 
 2352000   0.85715793   -7.2033764    632.57383  0.022412622  0.021935441            9 
 2353000   0.85971482   -7.1781036    635.20569  0.022496306  0.021928934            9 
 2354000   0.86245881   -7.1933424    634.30482  0.022454858  0.021922462            6 
 2355000    0.8648535   -7.1813852    633.93104  0.022432096  0.021916008            8 
 2356000   0.88983719   -7.1822021    634.17771    0.0224313   0.02190955            7 
 2357000   0.87982616   -7.1935299    634.71575  0.022440806  0.021903048            5 
 2358000   0.86895281   -7.1963602    632.82061  0.022364313  0.021896521            6 
 2359000   0.85157195   -7.2183248    633.54239   0.02238033  0.021890059            4 
 2360000   0.89098635   -7.1929098    632.50308  0.022334148  0.021883552            5 
 2361000   0.86641867   -7.2285869    633.77283  0.022369506  0.021877042            5 
 2362000   0.87804004   -7.1795717    636.11578  0.022442696  0.021870595           12 
 2363000   0.88374849   -7.1716795    636.41448  0.022443733  0.021864209            4 
 2364000   0.87902234   -7.1406691    636.69049  0.022443968   0.02185781            6 
 2365000   0.87404543   -7.1963402    636.06285  0.022412363  0.021851442           11 
 2366000   0.86786354   -7.2444068    634.89773  0.022361853  0.021844975            7 
 2367000   0.87702651    -7.196027    635.15715  0.022361539  0.021838504            7 
 2368000   0.89203626   -7.2280818    633.07344  0.022278767  0.021831987           10 
 2369000    0.8829488   -7.2374534    635.19716  0.022344068  0.021825442           16 
 2370000   0.88071674   -7.2035527    636.51531  0.022380988  0.021818977            7 
 2371000   0.85505243   -7.1812794    635.70964  0.022343232  0.021812503           12 
 2372000   0.86974146   -7.1855879    635.89849  0.022340447  0.021806057            7 
 2373000   0.86771145   -7.1874884    635.15489  0.022304919  0.021799691           15 
 2374000   0.87309256   -7.2158469    635.39315  0.022303887  0.021793292           10 
 2375000   0.89538948   -7.2077696    637.32374  0.022362236  0.021786837            7 
 2376000   0.87088139   -7.1787997    636.62151  0.022328195  0.021780441           18 
 2377000   0.87860181   -7.1925407    636.79086  0.022324739  0.021774089            9 
 2378000   0.88806518   -7.2141685    636.06873  0.022290045   0.02176774            5 
 2379000    0.8538674    -7.189991    636.73246  0.022303925  0.021761349            5 
 2380000   0.86162146   -7.2059783    637.66667  0.022327264  0.021754996            9 
 2381000   0.89088087   -7.1674494    638.76531  0.022356339  0.021748651            4 
 2382000   0.86989744    -7.195228    635.94694  0.022248354  0.021742319           10 
 2383000   0.85346091   -7.2153686     637.0533  0.022277707  0.021735952            3 
 2384000   0.84610972   -7.2287696    637.23264  0.022274631  0.021729604            6 
 2385000   0.88582368   -7.1937922    639.81176  0.022355407  0.021723271           16 
 2386000   0.87356944   -7.2168453    637.28063  0.022257636  0.021716983            4 
 2387000   0.86143369   -7.2232038    638.08952  0.022276551   0.02171064           10 
 2388000   0.87863022   -7.2108675     637.1623  0.022234865   0.02170426           10 
 2389000   0.89018882   -7.2161886    636.62357  0.022206766  0.021697893           10 
 2390000   0.86467406   -7.2232965    638.46519  0.022261687  0.021691479            5 
 2391000   0.85924859   -7.1792399    637.47935  0.022218017  0.021685103            8 
 2392000   0.85711227   -7.1995536     637.5989  0.022212894  0.021678759            6 
 2393000   0.86950533   -7.1720447    639.80886   0.02228057  0.021672401            5 
 2394000   0.88221082    -7.178062    636.56938    0.0221585  0.021666038            4 
 2395000   0.86571049   -7.2228664    638.14482  0.022204065  0.021659605            5 
 2396000   0.87500721   -7.1703704     638.7179  0.022214729  0.021653188            5 
 2397000   0.86775642   -7.2153083    636.38997  0.022124529   0.02164673           10 
 2398000   0.87107714   -7.1949928    639.29094  0.022216115  0.021640286            6 
 2399000   0.87152618   -7.2345009    634.48516  0.022039918  0.021633809           12 
 2400000   0.84588372   -7.2112564    637.50642   0.02213564  0.021627268            8 
 2401000   0.85708601   -7.2583549    635.37483  0.022052437  0.021620667            5 
 2402000   0.87593216   -7.2415747    635.15637  0.022035678  0.021614072            5 
 2403000   0.87946235   -7.1944833    636.00689  0.022056003  0.021607537            6 
 2404000   0.86666865   -7.2192587    635.65979  0.022034796  0.021600964            7 
 2405000   0.85013186   -7.2346227    636.19522  0.022044187  0.021594402            7 
 2406000   0.89129447   -7.2439967    637.28903  0.022072909  0.021587813           15 
 2407000   0.86854352   -7.2333561    636.75159  0.022045132  0.021581141            7 
 2408000   0.87486898    -7.211581    637.58284  0.022064744  0.021574498            5 
 2409000   0.85878544   -7.1791281    639.45931  0.022120496  0.021567922            5 
 2410000   0.89310187   -7.2237641    637.42936  0.022041126   0.02156138           10 
 2411000   0.87201914   -7.2026504    637.51859  0.022035068  0.021554857            6 
 2412000   0.86020368   -7.2239717    636.83798  0.022002418  0.021548271            5 
 2413000   0.85559915   -7.1904332     639.2097  0.022075207  0.021541799            6 
 2414000   0.87184398   -7.1820454    639.04588  0.022060407    0.0215353            5 
 2415000   0.84891855     -7.22739    637.67664  0.022004025   0.02152874            5 
 2416000   0.86302606   -7.2046085    638.15195  0.022011312  0.021522216            9 
 2417000   0.88034474   -7.2088471    638.70627  0.022021317  0.021515649           11 
 2418000    0.8650963   -7.1910655     638.9027  0.022018979  0.021509093           10 
 2419000   0.87112458   -7.2206173    636.22362  0.021917584  0.021502539            5 
 2420000   0.87143523   -7.2166943    638.40663    0.0219837   0.02149599            8 
 2421000   0.87325079   -7.1908491    639.19814  0.022001864  0.021489507           14 
 2422000   0.86242206   -7.2185961    638.50417  0.021968902  0.021483032            6 
 2423000    0.8728704   -7.1808429    640.07486  0.022013855  0.021476559           21 
 2424000   0.87146452   -7.2738424    636.56165  0.021883995  0.021469995            6 
 2425000   0.85352914   -7.2121135    640.50231  0.022010389   0.02146342            6 
 2426000   0.86459698   -7.2214933    637.75861   0.02190707  0.021456896            6 
 2427000   0.86505082   -7.2085705    637.61719  0.021893188  0.021450324            6 
 2428000   0.89083974   -7.2214435    636.79094  0.021855812  0.021443757            5 
 2429000   0.85826499    -7.205127    639.60841  0.021943475  0.021437228            5 
 2430000   0.87257294   -7.2432349    636.71551  0.021835237  0.021430711           13 
 2431000   0.87257573   -7.2379345     639.1108  0.021908364  0.021424128            7 
 2432000   0.87375666   -7.2205006    640.42668  0.021944445  0.021417611           15 
 2433000   0.86145215   -7.2039519    638.58669  0.021872404  0.021411055            9 
 2434000   0.86683452    -7.235507     637.8789  0.021839185    0.0214045           10 
 2435000   0.85971604   -7.2257298    639.39502  0.021882102  0.021397917           13 
 2436000   0.85863119   -7.2240965    639.28894   0.02186949  0.021391313            7 
 2437000   0.84537738   -7.2379007    637.67208  0.021805228  0.021384665           17 
 2438000   0.87692735   -7.2494606    639.85892  0.021871032  0.021378001            6 
 2439000   0.85425939   -7.2219161    638.84893  0.021827557  0.021371429            9 
 2440000   0.86181941   -7.2469431    638.85924  0.021818963  0.021364798           11 
 2441000   0.86459756   -7.2229603    639.55929  0.021833924  0.021358223            8 
 2442000   0.86758758   -7.2461153    637.08769  0.021740639  0.021351575            6 
 2443000   0.87129196   -7.2402521    639.33021  0.021808235  0.021344994            5 
 2444000   0.87332361   -7.2180167    639.55648  0.021807027  0.021338401           10 
 2445000    0.8666604   -7.2151576    639.48116  0.021795541  0.021331841            9 
 2446000   0.84424698    -7.241782    638.89812  0.021766766  0.021325244            7 
 2447000   0.85612022   -7.2216501    639.14231  0.021766187   0.02131865            3 
 2448000    0.8425704   -7.2272482    639.12248   0.02175662  0.021312091           10 
 2449000   0.86872215   -7.1900994    641.65517  0.021833918   0.02130553           12 
 2450000   0.85763655   -7.2467697    639.43951  0.021749643  0.021298996            4 
 2451000   0.86035775   -7.2141299      639.326   0.02173691  0.021292483            7 
 2452000   0.87705342   -7.1998797    639.83121  0.021745215  0.021285951           13 
 2453000    0.8604699   -7.2267721    638.63331  0.021695655  0.021279386            7 
 2454000   0.86894448   -7.2197174    641.63578  0.021788773  0.021272788            7 
 2455000   0.85060119   -7.2295495    642.68261  0.021815431  0.021266231           16 
 2456000   0.86807068   -7.2290633    640.57161  0.021734922   0.02125969            8 
 2457000   0.85420549    -7.230483    640.92899  0.021738197  0.021253123           13 
 2458000   0.86206714   -7.2301247    639.63685  0.021685545  0.021246516           14 
 2459000   0.86101127   -7.2550178     640.2518  0.021697567  0.021239906           29 
 2460000   0.85938102   -7.2893915    639.16577  0.021651957  0.021233255           25 
 2461000   0.85830651   -7.2384578    639.60213  0.021657935   0.02122664           10 
 2462000   0.87215716   -7.2533248    639.62723  0.021649987  0.021220043           25 
 2463000   0.85318779   -7.2302495    640.27229  0.021663023  0.021213438           12 
 2464000    0.8396568   -7.2241203     640.6698  0.021667674  0.021206891            8 
 2465000   0.84398915   -7.2026276    642.12892  0.021708212  0.021200336           14 
 2466000   0.85888994   -7.2239762    640.09275  0.021630601  0.021193767            4 
 2467000   0.84359738    -7.228692    642.89935  0.021716638  0.021187212           17 
 2468000   0.84694755   -7.2159886    642.83781  0.021705761  0.021180724           14 
 2469000   0.85719812   -7.2392934    642.35174  0.021680564  0.021174244            8 
 2470000   0.86638807   -7.2636083    639.69138   0.02158203  0.021167705            4 
 2471000   0.85240083   -7.2228274    641.75396  0.021642856  0.021161146            8 
 2472000   0.84321118   -7.2669549     641.1927   0.02161518  0.021154615           12 
 2473000   0.86955701    -7.260714    640.72449  0.021590662  0.021148099            8 
 2474000   0.85507665   -7.2321069    640.21455  0.021564758  0.021141513           22 
 2475000   0.84294419   -7.2400049     641.1168  0.021586424  0.021134921           11 
 2476000   0.85196523   -7.2754571    639.71752  0.021530611  0.021128303           13 
 2477000   0.86415576    -7.278909    641.06548  0.021567268  0.021121634           10 
 2478000   0.85889242   -7.2675493    640.63038  0.021543933  0.021114972            7 
 2479000   0.85420657   -7.2803294    640.86939  0.021543277  0.021108262            7 
 2480000   0.84372776   -7.2365975    642.00218  0.021572654  0.021101569            5 
 2481000   0.84736054   -7.2283821    640.11283  0.021500498  0.021094957           11 
 2482000   0.83477446   -7.2430991    641.14705  0.021526559   0.02108838            7 
 2483000   0.85097951    -7.254648    641.65199  0.021534837  0.021081784            6 
 2484000   0.87760183   -7.2815012    639.88582  0.021466916  0.021075123            5 
 2485000   0.85922204   -7.2304282    642.93681   0.02156059  0.021068522            8 
 2486000   0.85846493   -7.2448147    640.85286  0.021482062  0.021061906            5 
 2487000   0.85325557   -7.2372225    642.83125  0.021539715  0.021055305            6 
 2488000   0.86881093    -7.255913    640.49022  0.021452647  0.021048728           16 
 2489000   0.84729248   -7.2273377    643.65631   0.02155003  0.021042119            7 
 2490000   0.84232947   -7.2210137    642.34839  0.021497603  0.021035549            8 
 2491000   0.84673149   -7.2402859    643.39937  0.021524132  0.021028993            6 
 2492000   0.85666816   -7.2539044    642.56104  0.021487461  0.021022431            8 
 2493000   0.84161315   -7.2460086    644.05096  0.021528645  0.021015885            9 
 2494000   0.85403028   -7.2646469    642.40596  0.021465048  0.021009301            7 
 2495000   0.85048567   -7.2193592    642.95432   0.02147476   0.02100268            9 
 2496000   0.83726854    -7.260036    641.03958  0.021402229  0.020995986            9 
 2497000   0.84880608   -7.2612627    641.70241  0.021415779  0.020989318            8 
 2498000   0.85735893   -7.2503959    642.70994  0.021440817  0.020982704            5 
 2499000   0.85425809   -7.2847036    642.76761  0.021434161  0.020976064            8 
 2500000    0.8423906   -7.2332479    642.39199  0.021413066  0.020969412           15 
 2501000   0.86284139   -7.2422284    641.45177  0.021373176  0.020962814           14 
 2502000   0.86345087   -7.2392919    643.13434  0.021420675  0.020956247            8 
 2503000   0.85277642     -7.26913     641.9784  0.021373632  0.020949655           12 
 2504000   0.84026051    -7.218241    644.51947  0.021449663  0.020943012            9 
 2505000   0.85831188   -7.2344344    644.00432  0.021423963  0.020936454            8 
 2506000   0.86129528   -7.2440025    643.93849  0.021413225  0.020929929            5 
 2507000   0.85666802   -7.2518826    642.79622  0.021366714  0.020923374            6 
 2508000   0.85753935   -7.2793883    641.74367  0.021323221  0.020916831            7 
 2509000    0.8480283   -7.2442894    642.43427   0.02133766  0.020910197            7 
 2510000   0.84777885   -7.2704903    644.91386  0.021411483  0.020903625            8 
 2511000     0.829144   -7.2791643    643.09668  0.021342648  0.020896986           11 
 2512000    0.8510128    -7.297426     641.4822  0.021280593  0.020890336           18 
 2513000   0.83695775   -7.2837806    642.52991  0.021306868  0.020883707            5 
 2514000   0.85583517   -7.2800265    642.89224  0.021310403  0.020877048            8 
 2515000   0.86483701   -7.2433889    644.13551  0.021343125  0.020870486            7 
 2516000   0.85714213   -7.2833771    642.63812  0.021285047  0.020863863            9 
 2517000   0.86781299   -7.2493772    643.62374  0.021309222   0.02085725            6 
 2518000   0.85177732   -7.2640679    645.00127  0.021346349  0.020850648            8 
 2519000   0.84575775   -7.2952535    642.82026  0.021265722  0.020844005            7 
 2520000   0.83128202   -7.2838982    642.07073  0.021232498  0.020837349           17 
 2521000   0.83882612   -7.2796508    641.99706   0.02122164  0.020830669           17 
 2522000   0.87684312   -7.2937265     643.0521  0.021248087  0.020824039           13 
 2523000   0.84994532   -7.2578874    644.73659  0.021295303  0.020817412            7 
 2524000   0.85952446   -7.3038499    642.80654  0.021223143  0.020810795            8 
 2525000   0.84293393     -7.28288     643.0582  0.021223043  0.020804093           14 
 2526000    0.8569278   -7.2496766    644.08114  0.021248388  0.020797444           16 
 2527000   0.84875262   -7.2639495    644.94432  0.021268445  0.020790847           11 
 2528000   0.84126621   -7.2752317    644.26079    0.0212375  0.020784247           12 
 2529000   0.84008184    -7.261204    642.93552  0.021185433  0.020777651           14 
 2530000   0.85040169   -7.2918835    642.99763  0.021179105  0.020771068           10 
 2531000   0.81625749     -7.26027    643.57753   0.02118983  0.020764497            8 
 2532000   0.85549998   -7.2987229    642.90497  0.021159326  0.020757894            6 
 2533000   0.83096942    -7.260111    644.17267  0.021192679  0.020751271           10 
 2534000   0.85429496   -7.2989501    643.93821  0.021176605  0.020744654            3 
 2535000   0.83219981   -7.2727719    643.68047  0.021159779  0.020738047           23 
 2536000   0.83689935   -7.2966406      643.556  0.021147345  0.020731417            9 
 2537000   0.83993136   -7.3017835    645.04261   0.02118784  0.020724822            6 
 2538000    0.8550604   -7.2767358    644.80794  0.021171787  0.020718262            8 
 2539000   0.83985612   -7.2854243     645.6789  0.021192034  0.020711696           14 
 2540000   0.85950489   -7.2614589    644.60132  0.021148337   0.02070514            6 
 2541000   0.85725447   -7.2296954    645.32453  0.021163733   0.02069865            7 
 2542000   0.85344608   -7.2885255    645.25111     0.021153  0.020692125            8 
 2543000    0.8596679   -7.3022721    646.07105  0.021171551  0.020685584            8 
 2544000   0.84666372   -7.2503217    647.59862  0.021213267  0.020679107            6 
 2545000   0.84577766    -7.251785    647.85744  0.021213407   0.02067262           21 
 2546000   0.84433262   -7.2853188    645.75755  0.021136343  0.020666098           14 
 2547000   0.83342576   -7.3176238    645.43814  0.021117594  0.020659552            9 
 2548000   0.84929665   -7.2830839    645.79051  0.021120831  0.020652971            7 
 2549000   0.85372187   -7.2928546    645.77094  0.021111905  0.020646396           11 
 2550000   0.84643868   -7.3178366     643.7054  0.021036124  0.020639828           13 
 2551000   0.82746862   -7.2956404    646.24297  0.021110773  0.020633245            8 
 2552000    0.8426057   -7.2663511    646.41364  0.021108073  0.020626745           11 
 2553000   0.86939392   -7.2858591    647.03193  0.021119987  0.020620276            9 
 2554000   0.85003218    -7.287297    645.38907  0.021058114  0.020613786           14 
 2555000   0.83550594   -7.2826894    645.74234  0.021061394  0.020607289           32 
 2556000   0.83539341    -7.276779    646.00779  0.021061808  0.020600757            9 
 2557000   0.84012198   -7.3101464    645.55924  0.021038953  0.020594247            9 
 2558000   0.85165414   -7.2603169    648.46164  0.021125281  0.020587822            6 
 2559000   0.83762927   -7.2663443     646.6755  0.021058861  0.020581363            6 
 2560000   0.84938759   -7.2621466    648.22993  0.021101235  0.020574955            6 
 2561000    0.8501262   -7.2939752     646.4107  0.021033799  0.020568529            7 
 2562000   0.83070914   -7.2735471    647.78325  0.021070233  0.020562048           10 
 2563000   0.84483757   -7.3088716    646.61203  0.021023931  0.020555568            7 
 2564000   0.83117131   -7.2939736    647.14152  0.021032941  0.020549076            4 
 2565000   0.84323059     -7.29734    646.44339  0.021002059  0.020542607            4 
 2566000   0.83581037   -7.3109322    647.92339  0.021041939  0.020536111           20 
 2567000   0.83323831   -7.2929344    646.90251  0.021000601   0.02052963            5 
 2568000   0.82687126   -7.2758217    648.42145  0.021041714  0.020523122            6 
 2569000   0.81057339    -7.283747    647.77056   0.02101241  0.020516621            6 
 2570000    0.8346179   -7.2887114    646.69663  0.020969411  0.020510079            9 
 2571000   0.82932937    -7.287568    646.48454   0.02095438  0.020503574           18 
 2572000   0.84224915   -7.3282311    646.91122  0.020960058  0.020497056           21 
 2573000    0.8412141   -7.3184502    647.34956  0.020966108  0.020490557           10 
 2574000   0.84765625   -7.2704795    648.80414  0.021005055  0.020484064            8 
 2575000   0.83993873   -7.3388302    645.75278  0.020898148  0.020477583           16 
 2576000   0.83429094   -7.3311652    645.64771  0.020886636  0.020471032            6 
 2577000   0.82567235   -7.2862095    646.81598   0.02091631  0.020464507            6 
 2578000   0.84578035   -7.3023072    647.10912  0.020917672  0.020457997            8 
 2579000   0.82548177   -7.2657561    648.46232  0.020953287  0.020451531            8 
 2580000    0.8422559   -7.3171478     647.6615  0.020919299  0.020445083           24 
 2581000   0.84148635   -7.2847058    649.73568  0.020978163  0.020438596            9 
 2582000   0.84670059    -7.286368    648.46283  0.020928958  0.020432169           12 
 2583000   0.84750778    -7.296579    647.18315   0.02087957  0.020425721           12 
 2584000   0.84771031   -7.2845515    647.21793  0.020872611  0.020419271           10 
 2585000   0.84790727   -7.3034662    646.27818  0.020834242   0.02041282            3 
 2586000   0.82127941   -7.2948458    648.26745  0.020890289   0.02040635            7 
 2587000   0.86240171   -7.2935915     650.1289  0.020942176  0.020399866           12 
 2588000   0.84073689   -7.3035457    648.08128  0.020868151  0.020393381           11 
 2589000   0.81743981   -7.2948459    650.78695  0.020947179   0.02038692           10 
 2590000   0.84654028   -7.2968571    647.91195  0.020846588  0.020380416           15 
 2591000   0.82749575   -7.2975146    648.50355   0.02085757  0.020373933            9 
 2592000    0.8370141   -7.3139042    648.50566   0.02084959  0.020367442            9 
 2593000   0.84483244   -7.3053972     647.8762   0.02082132  0.020360946            9 
 2594000   0.82518806   -7.3004227    649.70511  0.020872048  0.020354499           14 
 2595000     0.845433     -7.29469    650.01393  0.020873922  0.020348046           12 
 2596000   0.83390014    -7.287023    647.66434  0.020790458  0.020341585           12 
 2597000   0.83772888   -7.2854179    649.55778   0.02084321  0.020335099            8 
 2598000   0.83977979   -7.2818288    648.90478  0.020814241  0.020328625            7 
 2599000    0.8271533   -7.2851371    651.03457  0.020874521  0.020322135            7 
 2600000   0.81558829    -7.284024    650.30014  0.020842953  0.020315694           19 
 2601000   0.83806803   -7.2404142    650.50014  0.020841347  0.020309292            6 
 2602000   0.85108105   -7.2634489    651.38699  0.020861741  0.020302916            6 
 2603000   0.84295261   -7.2911453    649.42042  0.020790768  0.020296498            5 
 2604000   0.82999014   -7.2874931    648.78531  0.020762459  0.020290069           10 
 2605000   0.81861134   -7.3140874    648.97913  0.020760689  0.020283621            7 
 2606000   0.83236309   -7.3191901    648.84033  0.020748284  0.020277145           16 
 2607000   0.83783933   -7.3334322    648.31101  0.020723405  0.020270695            9 
 2608000   0.83288222   -7.2578855    650.34439  0.020780432  0.020264243            5 
 2609000    0.8596345   -7.2711272    650.63201  0.020781654  0.020257832            7 
 2610000   0.84314918   -7.3161736    649.39271  0.020734122  0.020251456            4 
 2611000   0.82071352   -7.3036074    649.60744  0.020733035  0.020245023           10 
 2612000   0.83611347   -7.3034057    649.59432  0.020724678  0.020238543            8 
 2613000   0.85183969    -7.308892    647.73651  0.020657498  0.020232058            5 
 2614000   0.83842224   -7.3658621    647.45303  0.020640558  0.020225478           25 
 2615000   0.86348284   -7.3627529    647.77138   0.02064281  0.020218869           16 
 2616000   0.82526465   -7.3202752    649.65166  0.020694816  0.020212283           11 
 2617000     0.827478   -7.3482513    649.58259  0.020684709  0.020205731           11 
 2618000   0.85089458   -7.3121821    650.40596  0.020703016  0.020199215           18 
 2619000   0.82471252    -7.342007    648.08772  0.020621348  0.020192705            7 
 2620000   0.81947412    -7.333418    649.67489   0.02066396  0.020186234            8 
 2621000   0.81639365   -7.3098016    648.91059  0.020631775  0.020179782           13 
 2622000   0.82351301   -7.3315964    649.96204  0.020657324  0.020173328           22 
 2623000    0.8455728   -7.3215386    650.09902    0.0206538  0.020166895           28 
 2624000   0.82368722   -7.3326029    650.28008  0.020651679  0.020160441           30 
 2625000    0.8480042    -7.305667    650.77485  0.020659519  0.020154018           18 
 2626000   0.82892974   -7.3260275    652.35537  0.020701808  0.020147572            7 
 2627000   0.82472968   -7.3342619    649.35204  0.020598656  0.020141109            8 
 2628000   0.82497064   -7.3589605    649.52671  0.020596357  0.020134628           11 
 2629000   0.82558576   -7.3252145    650.14643  0.020608166  0.020128093            9 
 2630000   0.81785304   -7.3123137    652.19358  0.020665196  0.020121615           10 
 2631000   0.83466507   -7.3155604    650.33924  0.020598608  0.020115193            9 
 2632000   0.83058796    -7.307172    651.20619  0.020618231  0.020108784           12 
 2633000   0.83081153   -7.3287113    650.28673  0.020581299  0.020102345           11 
 2634000   0.82428408   -7.3271582    650.19234  0.020570499  0.020095858           24 
 2635000   0.83110349   -7.3140545     649.6475  0.020545462  0.020089408           14 
 2636000   0.84259827   -7.3142347    651.05165  0.020582058  0.020082949           28 
 2637000   0.82980152   -7.2881906    650.34245  0.020551841  0.020076514           29 
 2638000   0.82682382   -7.3089241    649.49081  0.020517147  0.020070058           35 
 2639000   0.82261537   -7.3255786    650.02652  0.020526289   0.02006359           48 
 2640000   0.82435569   -7.3464964    651.24077  0.020556843   0.02005707           44 
 2641000   0.83032534   -7.3149886    651.19297  0.020547551   0.02005057           12 
 2642000   0.84596446   -7.3695538    649.48179    0.0204858  0.020044045           15 
 2643000   0.80905295   -7.3280837    650.79302  0.020519392  0.020037502           13 
 2644000    0.8312278   -7.3236557     650.3112  0.020496445  0.020031014           13 
 2645000   0.82306728   -7.3225254    651.72352  0.020533192  0.020024552           10 
 2646000   0.83835244   -7.3663221     649.5444  0.020456803  0.020018085           25 
 2647000   0.83928349   -7.3313889    652.57338  0.020544433   0.02001156           13 
 2648000   0.83748021   -7.3446724    650.41065  0.020468613  0.020005048            7 
 2649000   0.82638682   -7.3292678    651.63912  0.020499532  0.019998579           12 
 2650000   0.82575392    -7.295728    652.62616  0.020522835  0.019992152            9 
 2651000   0.82189321   -7.3213308    651.54355  0.020481062   0.01998574           16 
 2652000   0.83162047   -7.3192023    653.20316  0.020525489   0.01997934            5 
 2653000   0.84294409   -7.3326637    651.86996  0.020475875  0.019972936           11 
 2654000   0.83653116   -7.2977429    651.61448  0.020460138  0.019966516            9 
 2655000   0.83847197   -7.3496843    651.19877  0.020439384   0.01996012           17 
 2656000   0.82401306   -7.3088191    653.76827  0.020512308  0.019953719            5 
 2657000   0.82078333   -7.3722737    651.21022  0.020424358  0.019947324            9 
 2658000   0.81543988   -7.3734136    650.80738  0.020404044  0.019940867           10 
 2659000   0.81265597   -7.3677315    650.94835  0.020400788  0.019934409           20 
 2660000   0.81511259   -7.3171268    652.10313  0.020429296  0.019927942           18 
 2661000    0.8164302     -7.30831    653.24134  0.020457264  0.019921508           14 
 2662000   0.83196892   -7.3449403    651.10251  0.020382623  0.019915049           25 
 2663000   0.83431748   -7.3583836    650.32696    0.0203507  0.019908583            6 
 2664000   0.82427894   -7.3652936    650.94272  0.020362322  0.019902135           18 
 2665000   0.85313646    -7.311894    654.31157  0.020460024  0.019895738           17 
 2666000   0.84207224   -7.3402028     650.7624   0.02034141  0.019889305           16 
 2667000   0.80159117   -7.3264769    652.42762  0.020385815  0.019882833            8 
 2668000   0.81583724   -7.3217423    652.01616  0.020365322  0.019876407           11 
 2669000   0.80537421   -7.3504424     651.3459  0.020336765   0.01986998           17 
 2670000   0.82619509   -7.3441319    653.35074  0.020391721  0.019863562           13 
 2671000   0.82003691    -7.342543    652.55835  0.020359364  0.019857166            8 
 2672000   0.79896906   -7.3337475     652.7191  0.020356758  0.019850757            7 
 2673000   0.81309094     -7.34845    650.44023  0.020278097  0.019844307           10 
 2674000   0.81523964     -7.34171    651.65405  0.020308341   0.01983784           11 
 2675000   0.84155503   -7.3418044    652.33456  0.020321949   0.01983138            9 
 2676000   0.81656576    -7.343011    652.95407  0.020333647  0.019824964           10 
 2677000   0.82727027   -7.3257075    652.33619  0.020306817  0.019818516            7 
 2678000   0.84006327   -7.3675039     651.7293  0.020280349  0.019812072            6 
 2679000   0.80895851   -7.3564705    651.96404  0.020280081  0.019805604            8 
 2680000   0.80853079   -7.3404879    652.31381   0.02028339   0.01979915           15 
 2681000    0.8201311   -7.3452597    651.07721  0.020237387  0.019792672           16 
 2682000   0.80879807   -7.3852408     651.5045  0.020243118  0.019786203            9 
 2683000     0.841612   -7.3505035    651.39207  0.020232081  0.019779716           16 
 2684000   0.82445185   -7.3509339    651.73035  0.020235046  0.019773224           24 
 2685000   0.83196285   -7.3813851    652.21656    0.0202426  0.019766762            6 
 2686000   0.80136099   -7.3496131    652.66453  0.020248962  0.019760311            7 
 2687000   0.80740589   -7.3621364    651.83807  0.020215794  0.019753861           11 
 2688000   0.82530147   -7.3741711    650.86465  0.020178095  0.019747367           13 
 2689000   0.80946932   -7.3394605    653.14866  0.020241374  0.019740902           10 
 2690000   0.82091276   -7.3324106    652.72467  0.020220715  0.019734423            8 
 2691000   0.83054577   -7.3646865    652.36025  0.020201915  0.019727917            7 
 2692000   0.81767153   -7.3151519    652.98322  0.020213696  0.019721477            8 
 2693000   0.83994148   -7.3256054    651.74827  0.020167975  0.019715019           14 
 2694000   0.81068311   -7.3366269    653.15506  0.020204005  0.019708565            9 
 2695000   0.79144662   -7.3504002    652.13094   0.02016484  0.019702112            7 
 2696000   0.83020208   -7.3499697    652.15865  0.020158217  0.019695653            9 
 2697000   0.81474676   -7.3097701    654.02597  0.020208441  0.019689235            6 
 2698000   0.82133239   -7.3624433    651.77489  0.020131421  0.019682769           12 
 2699000   0.82435362   -7.3473392    652.69899  0.020152494  0.019676298            9 
 2700000    0.8304056   -7.3477957    652.52739  0.020139734  0.019669835           14 
 2701000   0.82725807    -7.359212    652.91487  0.020144233  0.019663371            6 
 2702000   0.83702583   -7.3612452    652.87133  0.020135435   0.01965684            5 
 2703000   0.81759958    -7.379675    651.18564  0.020076015  0.019650314            8 
 2704000   0.80419679   -7.3947105    652.29775  0.020102865   0.01964377           13 
 2705000   0.80865879    -7.380277    653.25011  0.020124772  0.019637262            8 
 2706000   0.81560459   -7.3873037    652.40785  0.020091397  0.019630793           13 
 2707000   0.82157629   -7.3650924    653.61364  0.020121095  0.019624304           13 
 2708000   0.81774738   -7.3816023    652.82535  0.020089406  0.019617811           14 
 2709000   0.82401466   -7.3501133    653.36458  0.020098578  0.019611353           11 
 2710000   0.82458457   -7.3317493    653.50158  0.020095374  0.019604968            5 
 2711000   0.81883457   -7.3833136    651.64571  0.020030914  0.019598562            7 
 2712000   0.80634519   -7.3548541    653.16172  0.020070112  0.019592153            8 
 2713000   0.81815462   -7.3560178    654.12837  0.020092406  0.019585739           19 
 2714000   0.81013623   -7.3865228    652.59664  0.020037971    0.0195793           17 
 2715000   0.80334788   -7.3584944    653.73258  0.020065457  0.019572882           17 
 2716000   0.82991954   -7.3521152    654.83154  0.020091788   0.01956644           20 
 2717000    0.8132273   -7.3314672    652.83555  0.020023173  0.019560033           16 
 2718000   0.81236824   -7.3523794    654.05357  0.020053151  0.019553659            6 
 2719000    0.8168344   -7.3488964    655.33631   0.02008509  0.019547222           10 
 2720000   0.81081603   -7.3458523    655.03532  0.020068484  0.019540805           10 
 2721000   0.81893169   -7.3597396    653.11717  0.020002363  0.019534396           20 
 2722000   0.82439402   -7.3550869    653.93526  0.020020061  0.019527975            6 
 2723000   0.80825547   -7.3538353    655.41504  0.020057995  0.019521578           12 
 2724000    0.8107504   -7.3289962     653.0367  0.019977873  0.019515174           11 
 2725000   0.82815932    -7.385184    654.14521  0.020004441   0.01950873           20 
 2726000   0.81702843   -7.3747202    655.58692  0.020041175  0.019502348            9 
 2727000   0.80935997   -7.3186847    655.82199  0.020041009  0.019495972            8 
 2728000   0.80953624   -7.3433578    655.70011   0.02002994  0.019489641            9 
 2729000   0.82874768   -7.3636355    654.79111  0.019994843  0.019483275           10 
 2730000   0.83121773   -7.3836551    654.42821  0.019976441  0.019476877           12 
 2731000   0.81682838   -7.3779269    655.22317  0.019993384  0.019470544           11 
 2732000   0.82603158   -7.3815959    654.73759  0.019971254  0.019464153           11 
 2733000   0.83192203   -7.4128955    654.41663   0.01995416  0.019457782            7 
 2734000    0.8109831   -7.3536319    655.46344  0.019978768  0.019451421           18 
 2735000   0.80937064   -7.3680199    654.69836  0.019948152   0.01944507            7 
 2736000   0.80661795   -7.3802217    656.29708  0.019989555  0.019438705            6 
 2737000   0.82508876   -7.3621447    655.16624  0.019947821  0.019432393           15 
 2738000   0.81211237   -7.3711893    655.28135  0.019944039  0.019426076           11 
 2739000   0.81119748   -7.3847646    655.29118  0.019937057  0.019419744            7 
 2740000   0.82241648   -7.3679451    654.71324  0.019912203  0.019413382            7 
 2741000   0.81572835   -7.3861405    654.83108  0.019908521  0.019407024            8 
 2742000   0.80125306   -7.3981388    653.33631  0.019855832  0.019400647            6 
 2743000   0.79797686    -7.395615    655.20923  0.019905494  0.019394263           10 
 2744000   0.81936793   -7.4042741    654.34258   0.01987192  0.019387881            9 
 2745000   0.80123535   -7.3912215    655.18669  0.019890306  0.019381495           11 
 2746000   0.80680156   -7.3904262     656.3578  0.019918603  0.019375109            9 
 2747000   0.80571298   -7.3934655     655.0396  0.019871363  0.019368772           11 
 2748000   0.80957558   -7.3864061    654.64811  0.019852259   0.01936242           10 
 2749000   0.81631488    -7.389215    655.54288  0.019872162  0.019356063           14 
 2750000   0.80835035   -7.3796009    656.34048  0.019889105  0.019349705           12 
 2751000    0.8078458   -7.4080284    655.19894  0.019847296  0.019343356           25 
 2752000   0.80121337    -7.385929    654.47933  0.019818294  0.019337022           16 
 2753000   0.80553577   -7.4156897    654.26291  0.019804544  0.019330654           14 
 2754000   0.81475091   -7.4058117    654.56717  0.019806559  0.019324294           25 
 2755000   0.80113137   -7.4221306    655.83519  0.019837725  0.019317901           31 
 2756000   0.82642888   -7.4018352    654.58444  0.019792708  0.019311522           32 
 2757000   0.81467012   -7.4304686    656.13445   0.01983238  0.019305141           23 
 2758000   0.80368368   -7.3614694    655.79513  0.019814936  0.019298764           10 
 2759000   0.81716653   -7.3815248    656.25293  0.019821582  0.019292442           21 
 2760000   0.83187816   -7.3815437    656.96405  0.019835871  0.019286144           12 
 2761000   0.79956377   -7.4134126    655.00849  0.019769663  0.019279809           76 
 2762000    0.8146032   -7.3979186    656.04914  0.019793904  0.019273446           35 
 2763000   0.79103497   -7.3775048    654.37451  0.019736232  0.019267074           34 
 2764000   0.81575399   -7.3876201    657.30178  0.019817347  0.019260699           56 
 2765000   0.81908511    -7.391404    655.55596  0.019757564  0.019254344           23 
 2766000    0.7941768   -7.3987589    656.26685  0.019771838  0.019247984           28 
 2767000   0.79736321   -7.3870758    656.35972  0.019767489  0.019241643           17 
 2768000    0.8362037   -7.4318174    653.83973  0.019684481  0.019235287           20 
 2769000   0.82068923   -7.4014766    657.62788  0.019791377  0.019228949           15 
 2770000    0.8041862   -7.3708488    656.75746  0.019758046  0.019222611            7 
 2771000   0.82674765   -7.3978548    655.16864  0.019703135  0.019216238            3 
 2772000   0.80293972   -7.3977506    656.15855  0.019725786  0.019209897           13 
 2773000   0.79975487   -7.4123828    655.56103  0.019700716  0.019203526           13 
 2774000   0.81053678   -7.4193177    654.32546  0.019656497   0.01919716            8 
 2775000   0.84094841   -7.4186551    655.29303  0.019678469  0.019190792            6 
 2776000   0.80819615   -7.4160378    655.08946  0.019665269   0.01918443            9 
 2777000   0.81595572   -7.3911873    656.75602  0.019708199   0.01917808           10 
 2778000    0.7961133   -7.3760278    657.00039  0.019708435  0.019171778           16 
 2779000   0.82428467   -7.3936489    655.77543   0.01966461  0.019165422            8 
 2780000   0.80231277   -7.3980594     657.1522  0.019698807   0.01915905            9 
 2781000   0.79664164   -7.4047087    657.22841  0.019694007  0.019152702           20 
 2782000   0.81375635   -7.4325892    655.02551  0.019620942  0.019146348            8 
 2783000    0.7935315   -7.4101751    656.37103  0.019654181  0.019139982           23 
 2784000    0.7916156    -7.365462    657.49954  0.019680901  0.019133661           10 
 2785000   0.81659234    -7.378343    657.36214  0.019669723   0.01912735           11 
 2786000   0.81143093   -7.4234305    655.66566  0.019611919  0.019121034           14 
 2787000   0.80826278   -7.4219153    656.80311  0.019638892  0.019114672            8 
 2788000   0.79209601   -7.3838957    656.86297  0.019633637  0.019108357           16 
 2789000   0.80295361   -7.3989041      656.894  0.019627525  0.019102049           18 
 2790000   0.79921582   -7.4464006    656.17731  0.019599083  0.019095704           18 
 2791000   0.79954625   -7.4075026    656.19542  0.019592602  0.019089378           14 
 2792000   0.79549493   -7.3808829    656.54241  0.019595941  0.019083102           24 
 2793000    0.8090118   -7.3604557     658.6854  0.019652864  0.019076809           17 
 2794000   0.81541519   -7.3804392    658.12779  0.019629199  0.019070535           18 
 2795000   0.79911371   -7.4245971    655.63852  0.019547958   0.01906422           29 
 2796000   0.79481284   -7.4166153    656.50908  0.019566913  0.019057878           25 
 2797000   0.80735159   -7.4213689    657.72283   0.01959608  0.019051574           17 
 2798000   0.80439156   -7.4250824    656.27261  0.019545884  0.019045254           20 
 2799000   0.81793803   -7.3989001    658.31258  0.019599636   0.01903896           26 
 2800000    0.8182919   -7.4079166    656.42579  0.019536482  0.019032662           17 
 2801000   0.83652811   -7.4058537    657.23379  0.019553546  0.019026331           54 
 2802000   0.80284299   -7.4488738    656.42656   0.01952256  0.019020012           10 
 2803000   0.79563189   -7.3953504    656.56614  0.019519745  0.019013731           14 
 2804000   0.78554747   -7.4284608    657.47942  0.019539926  0.019007444            8 
 2805000   0.80061941   -7.3802373     657.5298  0.019534456  0.019001119           21 
 2806000   0.81288559   -7.4235527     657.0954  0.019514594  0.018994805           15 
 2807000   0.81568782   -7.4185541    656.50485   0.01949011  0.018988506           42 
 2808000   0.80416061   -7.4270607     656.7038  0.019489073  0.018982133           12 
 2809000    0.7905722   -7.4203856    655.89371  0.019458102  0.018975756            9 
 2810000   0.79603985   -7.4123423    657.69902  0.019504716  0.018969378           12 
 2811000    0.7996103   -7.4280659    656.67007  0.019467273  0.018963015           12 
 2812000   0.80038107   -7.4248578    655.88593  0.019437113  0.018956681           13 
 2813000   0.79713487   -7.4289593    657.99426  0.019492661  0.018950353            8 
 2814000   0.80371022    -7.415187    657.05326  0.019457867  0.018944025            5 
 2815000   0.81173573   -7.3991413    657.69978  0.019470094  0.018937734           18 
 2816000   0.81116946   -7.3949692    657.62108  0.019460851  0.018931426           25 
 2817000   0.80138395   -7.4184075    657.81432  0.019459659  0.018925124           20 
 2818000   0.79551016   -7.4099719    657.46589   0.01944245   0.01891883           10 
 2819000   0.79427254      -7.3989    657.89642   0.01944828  0.018912509           20 
 2820000   0.77976724   -7.3956615    658.73007  0.019466019  0.018906238           16 
 2821000   0.79650092   -7.3673755    659.13491  0.019471077  0.018899959           10 
 2822000    0.7913326   -7.4374116    657.32193  0.019410641  0.018893653           12 
 2823000    0.8073575   -7.4217661    658.19983   0.01942968  0.018887363           17 
 2824000   0.79113193   -7.4244913    656.36137  0.019368548  0.018881055           15 
 2825000   0.81460303   -7.4261843     656.5899  0.019368434  0.018874711           17 
 2826000   0.79326345   -7.4062935    657.53054  0.019389318  0.018868417           14 
 2827000   0.78772756   -7.3981035    657.36039  0.019377443  0.018862071            9 
 2828000    0.8129561   -7.4256609     657.9661   0.01938844  0.018855742           11 
 2829000   0.81507557   -7.3961812    657.64601  0.019372158   0.01884942           15 
 2830000   0.77602099   -7.4091344    657.07665  0.019348547  0.018843105           11 
 2831000   0.79448076   -7.4134439    657.32276  0.019348957   0.01883679            9 
 2832000   0.80676721   -7.4445459    656.85983  0.019328503   0.01883046            7 
 2833000    0.7815638   -7.4239959    656.54369  0.019312381  0.018824132            7 
 2834000   0.79201012     -7.42674    658.31309  0.019357595  0.018817809            7 
 2835000   0.79325983   -7.4382009     657.7176  0.019333263  0.018811425            6 
 2836000   0.79661928   -7.4084541    656.61709  0.019294108  0.018805099           14 
 2837000   0.79987715   -7.4324526    658.45141  0.019341188  0.018798756           10 
 2838000   0.79481785    -7.434042     657.1865  0.019297231  0.018792393           19 
 2839000    0.7806718   -7.4417125    654.45178  0.019210162   0.01878603            9 
 2840000   0.80494505   -7.4449823    656.76016  0.019271132  0.018779689           26 
 2841000    0.8036957   -7.4452459    657.77697  0.019294174  0.018773299           11 
 2842000   0.82445259   -7.4494474    656.30676  0.019244275  0.018766909           24 
 2843000   0.80522101   -7.4259059    657.10194  0.019260814  0.018760558           27 
 2844000   0.80516684   -7.4266806    658.57402  0.019297176  0.018754195           11 
 2845000   0.78174211   -7.4411579     657.6263  0.019262633  0.018747852           12 
 2846000   0.77972079   -7.4560992    657.56223  0.019253989  0.018741494            9 
 2847000   0.78972462   -7.4455341    656.61028  0.019219362  0.018735138           20 
 2848000   0.80166773   -7.4064817    657.70243   0.01924457  0.018728797           15 
 2849000   0.78876967   -7.4366501     657.7069  0.019237946  0.018722461           12 
 2850000   0.78967382   -7.4616307    656.21105  0.019187458  0.018716104           10 
 2851000   0.81360932   -7.4724745    657.01241  0.019204151  0.018709732           19 
 2852000   0.80687564   -7.4274437    657.92451  0.019224068  0.018703381           11 
 2853000   0.76860054   -7.4260466    659.06272  0.019250576  0.018697045           13 
 2854000   0.77672656   -7.4679077     657.1114  0.019186855  0.018690672           19 
 2855000   0.79056443   -7.4566642    656.76106  0.019169908   0.01868434           12 
 2856000    0.7978288   -7.4745144    656.33698  0.019150822  0.018677988           10 
 2857000   0.78220927   -7.4690525    655.45572  0.019118414  0.018671601           18 
 2858000    0.8050614   -7.4686166    657.36216  0.019167313  0.018665266           13 
 2859000   0.79945829   -7.4603196    657.85512  0.019174977  0.018658919           12 
 2860000   0.81075192    -7.449692    658.71172  0.019193232  0.018652625           21 
 2861000   0.76660944   -7.4672256    658.10809  0.019168941  0.018646326           14 
 2862000   0.80036952   -7.4342331    658.29175  0.019167591      0.01864           11 
 2863000   0.80822041   -7.4637299    658.06869  0.019154404  0.018633694           13 
 2864000    0.7888526   -7.4704623    657.36265  0.019127172  0.018627389           15 
 2865000   0.78675585   -7.4779408    657.94126  0.019137326   0.01862112           12 
 2866000    0.8014429   -7.4370651    658.22535  0.019138909  0.018614837           45 
 2867000   0.79677278   -7.4392662    659.12047  0.019158251  0.018608589           12 
 2868000   0.78634084   -7.4378588    659.66896  0.019167508  0.018602351           11 
 2869000   0.80628021   -7.4534852    658.85821  0.019137278  0.018596078            5 
 2870000   0.79493266   -7.4291239    660.27098  0.019171631  0.018589859           15 
 2871000     0.814541   -7.4457992    659.50697  0.019142778  0.018583623            7 
 2872000   0.82065631   -7.4238687    658.39317  0.019103794  0.018577394            9 
 2873000     0.780734   -7.4250697    660.15489  0.019148245  0.018571175           25 
 2874000   0.79682589   -7.4473578    659.49145  0.019122345  0.018564955           18 
 2875000   0.78466983   -7.4445275    659.30114  0.019110178   0.01855875           10 
 2876000    0.8091073   -7.4414536    660.27023  0.019131613  0.018552538            7 
 2877000   0.79757142   -7.4546677    658.52371  0.019074375  0.018546333           20 
 2878000   0.78903079   -7.4344822    660.18001  0.019115706  0.018540152           14 
 2879000   0.77378024   -7.4318711    660.63939  0.019122363  0.018533955           24 
 2880000   0.76808974   -7.4482905    659.28124  0.019076425  0.018527742           35 
 2881000   0.80176279   -7.4259753    659.03378  0.019062646  0.018521472           28 
 2882000   0.78557627   -7.4601943    659.28736  0.019063363  0.018515216           21 
 2883000   0.80011451   -7.4313544    659.60661  0.019065979  0.018508984           16 
 2884000   0.78171245   -7.4392263    658.80865  0.019036311  0.018502761           33 
 2885000   0.78616957   -7.4176708    660.56142  0.019080341  0.018496555           18 
 2886000   0.80281828   -7.4631964    657.79226  0.018993771  0.018490337           12 
 2887000   0.80737747   -7.4461134      659.644  0.019040642  0.018484148           11 
 2888000   0.79321533   -7.4363479      660.013  0.019044696  0.018477962           13 
 2889000   0.79137863   -7.4564605    659.62039  0.019026779  0.018471768           12 
 2890000   0.77796764    -7.426193    661.20507   0.01906589  0.018465587            7 
 2891000   0.80242826   -7.4446302    658.56958  0.018983327  0.018459404           12 
 2892000    0.7847174   -7.4574538    659.64131  0.019007645  0.018453156           20 
 2893000   0.79073729   -7.4347922    660.05521  0.019012997  0.018446937            9 
 2894000   0.77871048   -7.4938762    658.49581  0.018961524   0.01844072           26 
 2895000   0.78030408   -7.4696595    660.52184  0.019013294  0.018434534           10 
 2896000   0.77687573   -7.4639582    658.10198  0.018937097  0.018428305           14 
 2897000   0.80416288   -7.4574632    659.82745  0.018980194  0.018422097           23 
 2898000   0.78296883   -7.4566514    659.41127  0.018961677  0.018415837           10 
 2899000   0.78155333   -7.4507534    659.16862  0.018948161  0.018409601           11 
 2900000   0.79464464   -7.4889658    658.97783  0.018936145  0.018403341           18 
 2901000   0.78163548   -7.4514493    659.42262  0.018942394  0.018397121           11 
 2902000   0.79891295   -7.4627644      659.586  0.018940558  0.018390885            7 
 2903000   0.80428622   -7.4617871    658.96425  0.018916186  0.018384668           12 
 2904000   0.79897686   -7.4394586    659.34068  0.018920474  0.018378441           12 
 2905000   0.80447994    -7.497377    659.06496  0.018906052   0.01837221           12 
 2906000   0.78556807   -7.4839298    659.06259  0.018899478  0.018365979           10 
 2907000   0.78198264   -7.4589082    661.68417  0.018968128  0.018359748            7 
 2908000   0.78824122   -7.4533031    661.84459  0.018966202  0.018353523           27 
 2909000    0.7947701   -7.4711451    659.96186  0.018905748  0.018347274           24 
 2910000    0.7884247   -7.4802365    659.04183  0.018872905  0.018341061            9 
 2911000   0.79213481   -7.4429314    658.44982  0.018849474  0.018334823           13 
 2912000   0.78752982   -7.4316031    660.32127  0.018896556  0.018328604           11 
 2913000   0.79015649   -7.4528088    660.87296  0.018905852   0.01832243           18 
 2914000   0.78391719   -7.5051624    659.80334  0.018868776  0.018316197           13 
 2915000   0.77900702   -7.5260948    656.34465  0.018763426  0.018309937           20 
 2916000   0.78850027   -7.4510509    661.04271  0.018891253  0.018303713           24 
 2917000    0.8011632   -7.5015911    659.17916  0.018831538  0.018297487           12 
 2918000   0.80419734   -7.4269086    661.03572  0.018878105  0.018291281            9 
 2919000   0.78402672   -7.4802178    660.41255  0.018853847  0.018285092            8 
 2920000    0.7689989   -7.4526266    658.33739  0.018788167  0.018278891           11 
 2921000   0.79282917   -7.4686962    659.31185  0.018809536  0.018272653           10 
 2922000   0.78333081   -7.4759234    659.76454  0.018816009  0.018266408           10 
 2923000   0.77577591   -7.4830537    659.60184  0.018804933  0.018260222           13 
 2924000   0.76950821   -7.4754678    660.08329  0.018812223  0.018254009           21 
 2925000   0.76930519   -7.4737522    659.16387  0.018779598  0.018247788           19 
 2926000   0.77954469   -7.4985223    658.87067  0.018764829  0.018241538           26 
 2927000   0.79579038   -7.4703665    661.33284  0.018828517  0.018235314           13 
 2928000    0.7740731   -7.4811708    660.96319  0.018811566   0.01822912           13 
 2929000   0.79711594   -7.4767982    661.29823  0.018814676  0.018222915           27 
 2930000   0.79337503   -7.4836743    658.98662  0.018742509  0.018216716            9 
 2931000   0.75917693   -7.4614969    660.20812  0.018770844  0.018210513           41 
 2932000   0.77640352   -7.4950214    658.16131  0.018706267  0.018204308           24 
 2933000    0.7832851   -7.4885016    659.53494  0.018738917  0.018198095           13 
 2934000   0.77925111   -7.4695701    660.27748  0.018753621  0.018191887           18 
 2935000   0.79006469   -7.4891206    661.24303  0.018774646  0.018185695           16 
 2936000   0.78949436   -7.4933683    660.40995  0.018744606  0.018179528           13 
 2937000   0.76364997   -7.4936741    658.41236  0.018681545  0.018173363           12 
 2938000   0.77273438    -7.470316    661.67377  0.018767693  0.018167197           10 
 2939000   0.79702522   -7.4824159    661.15872  0.018746703  0.018161053           23 
 2940000   0.77796418   -7.4723873    661.58401  0.018752381  0.018154888            8 
 2941000   0.79701781   -7.5000991    659.74866     0.018694  0.018148749            9 
 2942000   0.77434287   -7.4806582    660.25118   0.01870188  0.018142572           11 
 2943000   0.78800773   -7.4708512      660.056  0.018689999  0.018136408           16 
 2944000   0.76572873   -7.4458149    661.45261  0.018723183  0.018130284           27 
 2945000   0.78283222   -7.5078239    659.52671  0.018662329  0.018124109           17 
 2946000   0.77429995   -7.4800773    661.36181  0.018707904  0.018117946           14 
 2947000   0.79049941   -7.4598197    660.51849  0.018677709  0.018111788           12 
 2948000   0.78051681   -7.4976383    659.74277  0.018649445  0.018105595            9 
 2949000    0.7703905   -7.5055343    660.13227  0.018654128  0.018099386           10 
 2950000   0.78018284   -7.4747984    660.57689  0.018660364  0.018093186           15 
 2951000   0.78941243    -7.487728    661.88237  0.018690906  0.018087001           12 
 2952000   0.78547244   -7.4973153    660.51748  0.018646045  0.018080834           18 
 2953000   0.77929069   -7.5130516     658.8747  0.018593371  0.018074685           21 
 2954000   0.76863916   -7.4958971    661.20974  0.018652949  0.018068528           16 
 2955000   0.78822478    -7.481131    659.64694  0.018602565  0.018062384           14 
 2956000   0.79018243    -7.475495    662.14817  0.018666784  0.018056242           11 
 2957000   0.77778717   -7.5023274    661.64226  0.018646214  0.018050132           11 
 2958000    0.7806547   -7.4742969    662.67475  0.018668998  0.018044072            8 
 2959000   0.78108188   -7.4791936    661.42537  0.018627503  0.018037997           10 
 2960000   0.77178495   -7.4905433    662.04102  0.018638542  0.018031877           14 
 2961000   0.78946918   -7.4942502    661.07065  0.018604938  0.018025727           23 
 2962000   0.78411574   -7.4899253    660.73974  0.018589347  0.018019582           19 
 2963000   0.79292409   -7.4960396    660.85625   0.01858635  0.018013467           12 
 2964000   0.80699389    -7.485953    661.29847  0.018592512  0.018007313           14 
 2965000   0.78919026   -7.5073637     662.4677  0.018619104   0.01800116           20 
 2966000   0.78309776   -7.5211383    660.85016  0.018567379  0.017995005           18 
 2967000   0.78938591   -7.5048141    661.63449   0.01858315  0.017988882            9 
 2968000   0.78682157    -7.514555    660.52807  0.018545824  0.017982742           14 
 2969000   0.77247225    -7.476912    662.04446  0.018582139  0.017976596            7 
 2970000    0.7785587   -7.5248141     661.7099  0.018566495  0.017970453           14 
 2971000   0.78688015    -7.490657    662.80318  0.018590912  0.017964291           14 
 2972000   0.77075495    -7.530901    658.88465  0.018474783  0.017958147           15 
 2973000   0.76237597   -7.5169835    661.55183   0.01854333  0.017951991           28 
 2974000   0.79026653   -7.5231914    661.60157  0.018538488  0.017945845           12 
 2975000   0.79260533   -7.5388257    659.87736   0.01848396  0.017939674           15 
 2976000   0.77816908   -7.5524225    660.38781  0.018492042  0.017933498           20 
 2977000   0.77216167   -7.5492951    661.74855  0.018523921  0.017927324           23 
 2978000   0.76389449   -7.5270178     660.9147  0.018494367  0.017921151           20 
 2979000    0.7854884   -7.5056435    660.86393  0.018486739  0.017914989           30 
 2980000   0.76351767    -7.509655    660.88623  0.018481158  0.017908843           17 
 2981000   0.79049123   -7.5125505    659.85175   0.01844604  0.017902733           16 
 2982000   0.78461664   -7.5000921    661.67615  0.018490838  0.017896598           29 
 2983000   0.77693291    -7.503369    661.88903  0.018490586  0.017890452           13 
 2984000   0.77437028   -7.5075668    661.29403  0.018467773  0.017884293           31 
 2985000   0.78759728   -7.5074595    663.33003  0.018518426  0.017878139           56 
 2986000     0.775513   -7.5314875    660.23975  0.018425981  0.017871991           21 
 2987000   0.74577752   -7.5011725    662.16979  0.018473658  0.017865839           12 
 2988000   0.78091823   -7.5132525    661.62145  0.018452182  0.017859707            8 
 2989000   0.77604838   -7.5213716    660.95903  0.018427541  0.017853527           13 
 2990000   0.78072101   -7.5211495    660.81559   0.01841738  0.017847371           29 
 2991000   0.76300256   -7.5553803    659.68013  0.018379587  0.017841216           18 
 2992000   0.77613601   -7.5480805    662.07723  0.018440208  0.017835052           37 
 2993000   0.76786269   -7.5390335    661.95549  0.018430657  0.017828928           14 
 2994000   0.77269833   -7.5499552    662.45175  0.018438314  0.017822773           16 
 2995000   0.76418366   -7.5408687    661.14194  0.018395713  0.017816645           13 
 2996000   0.76890797   -7.5516191    661.62475  0.018403003   0.01781048           30 
 2997000   0.77350143   -7.5540243    660.60746  0.018368576  0.017804321           26 
 2998000   0.77858935   -7.5338133     660.1735  0.018350386  0.017798167           14 
 2999000   0.77352285   -7.5099927    663.10412  0.018425701  0.017792031           20 
 3000000   0.75802614   -7.5156901    659.91146  0.018330874  0.017785894           44 
 3001000    0.7632562   -7.5213806    661.60854  0.018371891  0.017779769           11 
 3002000   0.76921362   -7.5692872    660.49984  0.018334995  0.017773609           19 
 3003000   0.76313641   -7.5555648    658.43271  0.018271526   0.01776743           13 
 3004000   0.76382729   -7.5543255    659.97156  0.018308132  0.017761253           11 
 3005000   0.76839877   -7.5415362    661.11638  0.018333788  0.017755099           11 
 3006000   0.77898326   -7.5055318    661.95802  0.018351021  0.017748967           19 
 3007000   0.76119408   -7.5315923    660.40429  0.018301859  0.017742849           20 
 3008000   0.76295899   -7.5264309    660.30076  0.018292907  0.017736715           31 
 3009000   0.77706748   -7.5383572    660.26023  0.018285705   0.01773056           31 
 3010000   0.77139125   -7.5616328    660.74399  0.018293023  0.017724386           27 
 3011000   0.75999823   -7.5690112    659.20813  0.018244441  0.017718228           16 
 3012000   0.77707105   -7.5615192    661.28468  0.018295836  0.017712091           45 
 3013000   0.79436797   -7.5534034    660.21674  0.018260226   0.01770592           11 
 3014000   0.75361342   -7.5514287    660.79116   0.01827005  0.017699781           24 
 3015000   0.77742939   -7.5465804    662.37853  0.018307864   0.01769364           28 
 3016000   0.76516948   -7.5538537    660.59187  0.018252428  0.017687515           15 
 3017000   0.76267579   -7.5350426     660.4029  0.018241158  0.017681419           24 
 3018000   0.77434737   -7.5293959      662.575  0.018295091  0.017675332           14 
 3019000   0.76445414   -7.5289433    661.70765  0.018265089  0.017669221           13 
 3020000   0.76145543   -7.5434825    661.19531  0.018244904  0.017663165           12 
 3021000   0.76121689   -7.5259909     661.5934  0.018249845  0.017657095           16 
 3022000   0.77402094   -7.5551865    660.07883  0.018202042   0.01765099           22 
 3023000   0.77120736    -7.536971    661.65379  0.018239436  0.017644874           23 
 3024000   0.77503603   -7.5537801    660.67019  0.018206299  0.017638758           14 
 3025000   0.77443917   -7.5518198    662.49364  0.018250514  0.017632621           16 
 3026000   0.77302368   -7.5285165    661.33519  0.018212579  0.017626513           20 
 3027000   0.78118903   -7.5262342     662.4805  0.018238093  0.017620439           23 
 3028000   0.76492357   -7.5104767    662.33769   0.01822814  0.017614373           19 
 3029000   0.75597098   -7.5580963    660.84186  0.018180969  0.017608279           11 
 3030000    0.7636725   -7.5131815    663.19573  0.018239707  0.017602175           48 
 3031000   0.76420348   -7.5241815    662.10341  0.018203657  0.017596094           17 
 3032000    0.7662018    -7.536671    662.72153  0.018214642  0.017590033           22 
 3033000    0.7606621    -7.529441    662.84743  0.018212096  0.017583965           20 
 3034000   0.75425356   -7.5054835    662.50808  0.018196772  0.017577897           15 
 3035000   0.79605444   -7.5429706    661.36343  0.018159347  0.017571841           20 
 3036000   0.75751115   -7.5464905    661.24845   0.01815021  0.017565766           13 
 3037000   0.76444641   -7.5277554    662.54222  0.018179734  0.017559691           16 
 3038000   0.76464037   -7.5195281    662.29283  0.018166909  0.017553623           14 
 3039000   0.75903419   -7.5452948    661.73786  0.018145713  0.017547562           15 
 3040000    0.7924304   -7.5436785    660.99884  0.018119486  0.017541484           25 
 3041000   0.75174349    -7.532597    661.95919  0.018139844   0.01753545           14 
 3042000   0.76971948   -7.5496625    660.99677  0.018107516  0.017529389           11 
 3043000   0.75471825    -7.535894    660.27284  0.018081741  0.017523339           21 
 3044000   0.77709257   -7.5485221    662.52315  0.018137406   0.01751728           26 
 3045000   0.74897223   -7.5306908    663.36657  0.018154531  0.017511207           27 
 3046000   0.77392465   -7.5439338    661.38783  0.018094436  0.017505147           18 
 3047000    0.7740984   -7.5547638    662.16866  0.018109853  0.017499115           24 
 3048000   0.77510178   -7.5091786    664.15561  0.018158235  0.017493079           13 
 3049000   0.76587791   -7.5737221    661.23584  0.018072479  0.017487015           37 
 3050000   0.76232366   -7.5407073    661.66554  0.018078294   0.01748095           29 
 3051000   0.75969267   -7.5035064    662.62514  0.018098578   0.01747492           22 
 3052000   0.76409833   -7.5311694     662.8265  0.018098146  0.017468867           26 
 3053000   0.76925282    -7.526813    662.50978  0.018083573  0.017462845           18 
 3054000   0.76203297   -7.5253894    663.91852  0.018116092  0.017456797           20 
 3055000    0.7574761   -7.5206746    662.84492  0.018080876  0.017450761           15 
 3056000   0.76961097   -7.5387235    662.97861  0.018078605  0.017444752           17 
 3057000   0.77118513   -7.5205764    662.16486  0.018050509   0.01743872           13 
 3058000   0.76868323   -7.5334958    661.08489  0.018015176  0.017432684           44 
 3059000   0.74907609   -7.5566751    662.30824  0.018042613  0.017426645           15 
 3060000   0.76150813   -7.5367125      662.238  0.018034804  0.017420597           20 
 3061000   0.76815206   -7.5440591    663.65163  0.018067397   0.01741459           21 
 3062000    0.7586311   -7.5376415    662.30323  0.018024799  0.017408587           27 
 3063000    0.7626252   -7.5179545    661.97986  0.018010117  0.017402554           33 
 3064000   0.76383658   -7.5352217    662.25037  0.018011596  0.017396544           21 
 3065000   0.74821278   -7.5359097    661.29567  0.017979763  0.017390507           16 
 3066000    0.7757146   -7.5259903     663.9595  0.018046301  0.017384485           33 
 3067000   0.76195333   -7.5347535    662.63988  0.018004562  0.017378471           16 
 3068000   0.76417244   -7.5449003     661.9942  0.017981155  0.017372468           34 
 3069000   0.75684148   -7.5203719    662.17314  0.017980155  0.017366423           19 
 3070000   0.74923393   -7.5411801    663.53034  0.018011139  0.017360416           58 
 3071000   0.74804042   -7.5549349    662.05872   0.01796534  0.017354391           19 
 3072000   0.75125287   -7.5613495    661.02592  0.017931476  0.017348349           20 
 3073000   0.74829655    -7.557603    662.15683  0.017956308  0.017342299           46 
 3074000   0.73737693   -7.5629055    660.91935   0.01791692  0.017336238           20 
 3075000   0.76537478   -7.5559573    661.91105  0.017937969  0.017330205           24 
 3076000   0.77836441   -7.5771215    660.86273  0.017903737  0.017324167           50 
 3077000   0.76510782    -7.552304     662.6645  0.017946715  0.017318134           27 
 3078000   0.75326187   -7.5364475     663.3691   0.01795996  0.017312126           10 
 3079000   0.77156363   -7.5571026    662.35792   0.01792676  0.017306121           13 
 3080000   0.76368834   -7.5322954    664.02343  0.017966002  0.017300086           21 
 3081000   0.76059832   -7.5512868    661.49001  0.017891648  0.017294071           36 
 3082000   0.75277171   -7.5257907    662.41491  0.017910851  0.017288073           20 
 3083000   0.75843638   -7.5451303    662.57278  0.017909309  0.017282037           13 
 3084000   0.76889164   -7.5642806    660.40894  0.017845032  0.017276014           24 
 3085000   0.76148197   -7.5484992    661.13517  0.017858865  0.017269996           28 
 3086000   0.76105813   -7.5755178    660.46857  0.017835077  0.017263955           24 
 3087000   0.75674229   -7.5546347     662.5196  0.017884667  0.017257915           13 
 3088000   0.76062031   -7.5551382    662.03778  0.017865873  0.017251876           14 
 3089000   0.77626251   -7.5415233    662.33283  0.017868049  0.017245847           15 
 3090000   0.76341032   -7.5717228    662.02996  0.017854098  0.017239809           32 
 3091000   0.74635766   -7.5476157    663.22113  0.017880436  0.017233793           64 
 3092000   0.76276611   -7.5568354    661.77947  0.017835799  0.017227773           43 
 3093000    0.7537359   -7.5468907    662.86022   0.01785915  0.017221751           17 
 3094000   0.74296234   -7.5792794    659.63726  0.017766571  0.017215706           18 
 3095000   0.74648994   -7.5845902    661.16142  0.017801869  0.017209656           25 
 3096000    0.7360033   -7.5626326    662.15512  0.017822866  0.017203619           15 
 3097000   0.74806097   -7.5904861    660.93493  0.017784279  0.017197587           40 
 3098000   0.75943158   -7.5648762    661.65444  0.017797892  0.017191529           12 
 3099000   0.75607462   -7.5754283    660.25002  0.017754384  0.017185492           16 
 3100000   0.75007142   -7.5778184    661.78517  0.017789924  0.017179451           10 
 3101000   0.75913633   -7.5728333    661.60608  0.017779374  0.017173413           15 
 3102000   0.77649096   -7.5766736    663.15729  0.017815315  0.017167389           25 
 3103000   0.75010598   -7.5621351    662.25366  0.017785306  0.017161381           21 
 3104000   0.74757454   -7.5798188     662.6431  0.017790032  0.017155366           23 
 3105000   0.76658472   -7.5564777     662.8353  0.017789461  0.017149364           16 
 3106000    0.7468447   -7.5618657    663.29087  0.017795956  0.017143378           25 
 3107000   0.73902619   -7.5595083     662.0189  0.017756112  0.017137392           11 
 3108000   0.77297607   -7.5724875    662.98558  0.017776319  0.017131394           28 
 3109000   0.76721108   -7.5835523    661.42563  0.017728788  0.017125387           28 
 3110000   0.74600376   -7.5811551    661.63655  0.017728739  0.017119362           36 
 3111000    0.7628761   -7.5770968    662.69492  0.017751391   0.01711335           32 
 3112000    0.7556583   -7.6103406    661.60632  0.017716536  0.017107303           44 
 3113000   0.74554135   -7.5512752    662.75246  0.017741526   0.01710128           14 
 3114000   0.75153294   -7.5616592    663.12974  0.017745925  0.017095262           23 
 3115000   0.76593904   -7.5773309    662.93125  0.017734918   0.01708926           31 
 3116000   0.75938295   -7.5818883    661.62706  0.017694348  0.017083266           27 
 3117000   0.74301472   -7.6054186    662.11861  0.017701813  0.017077232           40 
 3118000   0.75764211   -7.5804221    661.09557  0.017668793  0.017071181           39 
 3119000   0.77019116   -7.5745011    661.08779  0.017662921  0.017065137           53 
 3120000   0.74642336   -7.6062444    661.75597  0.017675106  0.017059104           25 
 3121000   0.76751991   -7.6056179    660.84032  0.017644994  0.017053058           37 
 3122000   0.76723687   -7.6217333    661.79194  0.017664743  0.017047023            9 
 3123000   0.75448687   -7.6028003    661.05403  0.017639397  0.017041002           36 
 3124000   0.75623324   -7.6011082    660.07148  0.017607541  0.017034991           16 
 3125000   0.76222898   -7.5854766     662.1801  0.017658136  0.017028967           21 
 3126000   0.74605432   -7.5782598    661.46926  0.017633537  0.017022931           16 
 3127000   0.76258336   -7.5603518    662.55391  0.017656804  0.017016931           13 
 3128000   0.75936738   -7.6052819    660.79654  0.017604341  0.017010941           21 
 3129000   0.73689838   -7.6091621    660.74967  0.017597466  0.017004924           28 
 3130000   0.74689917   -7.6148415    661.11766  0.017601642  0.016998898           11 
 3131000   0.75124299   -7.5889044    662.17815  0.017624245  0.016992881           23 
 3132000   0.74334385   -7.6349461    662.27871  0.017621294   0.01698689           20 
 3133000   0.76588834   -7.5845714    661.51794  0.017595434  0.016980914           17 
 3134000   0.75055475   -7.6072613    661.69152  0.017594435  0.016974918           15 
 3135000    0.7584531   -7.5989335    660.97998  0.017569909  0.016968948           22 
 3136000   0.75247021   -7.5898007    663.58237   0.01763346  0.016962969           10 
 3137000   0.75235606   -7.6078731     662.3606  0.017595383  0.016956986           42 
 3138000   0.73536865   -7.6068257    661.25524  0.017560422   0.01695101           25 
 3139000   0.75690536   -7.5922052    662.37908  0.017584663  0.016945038           19 
 3140000   0.75079811   -7.6163911    662.00905  0.017569242  0.016939087           19 
 3141000   0.73776175   -7.6408058    660.21248  0.017515984  0.016933104           36 
 3142000   0.74243021   -7.6032153    661.67213  0.017549123  0.016927133           26 
 3143000   0.75812816   -7.6195172    663.13327   0.01758228  0.016921162           33 
 3144000   0.74494148   -7.6104143    661.20455  0.017525566  0.016915196           40 
 3145000   0.75111469   -7.5975549    663.27402  0.017574828  0.016909232           22 
 3146000   0.74387893   -7.6163099    661.40033   0.01751961  0.016903241           49 
 3147000   0.75906003   -7.6196736    662.70647   0.01754863  0.016897249           23 
 3148000   0.76577132   -7.6039585    662.48836  0.017537282  0.016891258           36 
 3149000   0.74636906    -7.594701    662.03771  0.017519787  0.016885278           33 
 3150000   0.74423528   -7.6084858    660.61798  0.017476666  0.016879284           23 
 3151000   0.75080099   -7.6262961    662.52523   0.01752156  0.016873266           73 
 3152000   0.74521169   -7.6250793    662.20642  0.017507572  0.016867261           27 
 3153000   0.75637277   -7.6337628    661.04285  0.017471267  0.016861259           37 
 3154000    0.7502909   -7.6232716    661.75857  0.017484638  0.016855266           36 
 3155000   0.74812786   -7.6413001    660.26343  0.017439605  0.016849278           32 
 3156000   0.76534324   -7.5813854    661.82956  0.017475432  0.016843314           20 
 3157000    0.7393457   -7.6002479    661.44161  0.017459656  0.016837365           11 
 3158000   0.75975403   -7.6227391    661.99281  0.017468673  0.016831412           19 
 3159000   0.72329497   -7.5983089    662.93006  0.017487867  0.016825458           14 
 3160000   0.76635723   -7.5971812     662.3533  0.017467123   0.01681951           11 
 3161000   0.73584262   -7.5989045    662.16069  0.017456519  0.016813567           28 
 3162000   0.74927352   -7.6072668    662.95285  0.017471876  0.016807628           18 
 3163000   0.72642403   -7.6309347     660.7818  0.017409153  0.016801652           22 
 3164000   0.74542386   -7.6162427    661.84297  0.017431599  0.016795695           26 
 3165000   0.74435538   -7.5911981    664.00731  0.017483078  0.016789791           27 
 3166000   0.74630768    -7.611506     662.6174  0.017440972  0.016783911           18 
 3167000   0.75023977   -7.5715802    664.29607  0.017479636  0.016778021           16 
 3168000   0.74193642   -7.6015994    662.69358  0.017431965  0.016772118           31 
 3169000    0.7543168    -7.614669    663.23117  0.017440601  0.016766195           17 
 3170000    0.7265498   -7.6109872    662.47119  0.017415121  0.016760269           15 
 3171000   0.76150276   -7.5876146    661.53308  0.017384975  0.016754359           28 
 3172000     0.751172   -7.5877579    662.40887  0.017402503  0.016748451           32 
 3173000   0.73715396   -7.6006782    662.57388  0.017401352  0.016742514           37 
 3174000    0.7427614   -7.6190227     662.6731  0.017398475  0.016736613           47 
 3175000   0.75324077   -7.5908147     661.9512  0.017374047  0.016730719           45 
 3176000   0.74403033   -7.5874974    662.45662  0.017381838   0.01672482           27 
 3177000   0.75524658   -7.6227973    661.85446  0.017360572   0.01671891           49 
 3178000    0.7301984   -7.6313662     662.1634  0.017363211  0.016712985           32 
 3179000    0.7396605   -7.5895511    662.77453  0.017373769  0.016707079           42 
 3180000   0.73497407   -7.5671192    663.89025  0.017397543  0.016701187           20 
 3181000   0.74094751   -7.6098433    663.12635  0.017372062   0.01669528           11 
 3182000   0.74540432   -7.6300314    662.42871  0.017348332  0.016689386           20 
 3183000   0.75213203   -7.6058063    663.38981  0.017368044  0.016683501           18 
 3184000   0.74326123   -7.6220952    661.16435  0.017304343  0.016677606           30 
 3185000    0.7426083   -7.6011887    663.33633  0.017355739  0.016671686           28 
 3186000   0.73894691   -7.6231291    661.97328  0.017314639  0.016665759           56 
 3187000   0.74353236   -7.6195298    661.63634  0.017300396   0.01665987           20 
 3188000   0.74670079   -7.6546979    661.89658  0.017301772  0.016653954           27 
 3189000   0.74619674   -7.6246462    662.17796  0.017303699   0.01664806           24 
 3190000   0.74988117   -7.6173026    662.89794  0.017317083  0.016642159           30 
 3191000   0.73961358   -7.6152509      662.673  0.017305782  0.016636267           18 
 3192000   0.75605022   -7.6024689    661.83609  0.017278511  0.016630367           32 
 3193000   0.74824813   -7.5820845    664.37058  0.017339247  0.016624473           46 
 3194000     0.738478   -7.6050672    661.74996  0.017265445  0.016618613           28 
 3195000   0.73792622   -7.6254644    661.58234  0.017255669  0.016612723           22 
 3196000   0.74544548   -7.6417113    661.64885  0.017252004  0.016606844           61 
 3197000    0.7424415   -7.6344589    662.96958  0.017281034   0.01660095           32 
 3198000   0.75063857   -7.6365517    662.62518  0.017266656  0.016595056           70 
 3199000    0.7377987   -7.6421663    661.75932  0.017238703  0.016589126           33 
 3200000   0.74698031   -7.6271546    663.19785  0.017270777  0.016583201           54 
 3201000   0.74704583   -7.6507259    661.47575   0.01722055  0.016577273           57 
 3202000   0.73174845   -7.6569959    663.44629  0.017266456   0.01657135           47 
 3203000   0.74816622   -7.6252445    662.33014  0.017232026  0.016565432           44 
 3204000   0.74055662   -7.6313218    662.22412   0.01722389  0.016559509           48 
 3205000    0.7473478   -7.6385793    661.83116  0.017208298  0.016553627           34 
 3206000   0.73467408   -7.6275346    662.07617  0.017209299  0.016547727           31 
 3207000   0.73830667   -7.6372267    660.64162  0.017166657  0.016541826           38 
 3208000   0.74992696   -7.6310174    661.95767  0.017195492  0.016535927           47 
 3209000   0.74304271   -7.6628125    660.63862   0.01715588  0.016530023           72 
 3210000   0.73565097    -7.640172    660.94545  0.017158501    0.0165241          106 
 3211000   0.73515344    -7.657349    661.68958  0.017172469  0.016518177           62 
 3212000    0.7413295   -7.6167223    663.16499  0.017205401  0.016512249          115 
 3213000   0.73251012   -7.6451348    660.78399  0.017138292  0.016506339           36 
 3214000   0.73894928   -7.6713474    661.30857  0.017146561  0.016500408           63 
 3215000   0.72058052   -7.6437254    660.76578  0.017127159  0.016494473           47 
 3216000   0.74525913   -7.6389315    660.39231  0.017112156   0.01648855           47 
 3217000   0.73837729   -7.6550195    661.81612  0.017143719  0.016482623           80 
 3218000   0.74620097   -7.6353794    661.31022  0.017125291  0.016476691          102 
 3219000    0.7372105   -7.6423958    661.37905  0.017121752  0.016470762          128 
 3220000   0.74007725   -7.6534861    660.86869  0.017103227  0.016464824           45 
 3221000   0.73241373   -7.6617135    661.11842  0.017104378  0.016458914           40 
 3222000   0.74691205   -7.6597869    661.05066  0.017097317  0.016453017          163 
 3223000   0.73389685   -7.6668955    662.09067  0.017118902  0.016447108          113 
 3224000   0.74401944   -7.6813763    661.73425   0.01710438  0.016441193          118 
 3225000   0.72205048   -7.6900345    660.19469  0.017059294  0.016435271           83 
 3226000   0.73378591   -7.6456515    659.91383  0.017046751  0.016429357          121 
 3227000   0.72143815   -7.6789484    659.92323  0.017041711  0.016423427           98 
 3228000   0.73205691   -7.6694613    659.18313  0.017017326  0.016417515          109 
 3229000   0.73504433   -7.6385813    661.92019  0.017082693  0.016411608           71 
 3230000   0.74348655   -7.6446031    660.84016   0.01704954  0.016405697           53 
 3231000   0.72247791   -7.6675396    662.54405  0.017088209  0.016399799           67 
 3232000   0.71120668   -7.6439484    662.16096  0.017073045  0.016393884           64 
 3233000   0.72666523   -7.6474291    661.76479  0.017057552  0.016387974           76 
 3234000   0.74747745   -7.6722776    660.98859  0.017032277  0.016382055          145 
 3235000   0.74821919   -7.6666313    662.17677  0.017057619  0.016376134          120 
 3236000   0.74285109    -7.673057    661.41942  0.017032845  0.016370245          111 
 3237000   0.74641133    -7.661507     662.0941  0.017044952  0.016364352          114 
 3238000   0.73373947   -7.6709028     662.3118   0.01704529  0.016358451           66 
 3239000   0.72419433   -7.6686579    659.46779  0.016966857  0.016352551          120 
 3240000   0.72930752   -7.6691452    662.16585  0.017031015   0.01634666           71 
 3241000    0.7518909   -7.6620177    662.56117  0.017035924  0.016340757          131 
 3242000   0.73337868   -7.6492513    660.01568   0.01696524  0.016334858          167 
 3243000   0.71991538   -7.6351976      661.163   0.01698949  0.016328967          144 
 3244000   0.72032967    -7.674166    661.73241   0.01699888  0.016323069          106 
 3245000   0.72635364    -7.666501    660.04348  0.016950269  0.016317177          156 
 3246000   0.72058017   -7.6622273    661.90345  0.016992798  0.016311305          155 
 3247000   0.73451139   -7.6452707    661.96602   0.01698917  0.016305432          148 
 3248000   0.74896481   -7.6436581    662.65608  0.017001644  0.016299574          124 
 3249000   0.74446276   -7.6466711    661.42055  0.016964721  0.016293722          129 
 3250000   0.72979524   -7.6661899    661.16677  0.016952994  0.016287873           84 
 3251000   0.72944834   -7.6630986    662.96735  0.016993934  0.016282022          109 
 3252000   0.72217233   -7.6425535    662.00991  0.016964174  0.016276192           96 
 3253000    0.7356829   -7.6576636    661.50143  0.016945933  0.016270364           93 
 3254000   0.73468356   -7.6456338    662.20294   0.01695869  0.016264533           81 
 3255000   0.72752114   -7.6317733     663.7783  0.016993812  0.016258706           80 
 3256000   0.72549943   -7.6543877     662.4071  0.016953499  0.016252882           94 
 3257000   0.72412457    -7.642244    661.62594  0.016928307  0.016247082          150 
 3258000   0.74635823   -7.6579586    661.07515  0.016909023  0.016241271          160 
 3259000   0.73741323   -7.6533792    662.49048  0.016940024  0.016235463          143 
 3260000   0.71790266   -7.6619363    662.35342  0.016931325  0.016229674           94 
 3261000   0.72892798   -7.6814148    662.79102  0.016937315   0.01622386          115 
 3262000   0.73702542   -7.6528399    665.05863  0.016990053  0.016218063           94 
 3263000   0.73069132   -7.6533512    664.19362  0.016962755  0.016212258          133 
 3264000   0.72676275   -7.6670156     662.5481  0.016915546  0.016206474          149 
 3265000   0.75062074   -7.6531348    663.19228  0.016926807   0.01620069          155 
 3266000   0.74322474   -7.6463139    663.04501  0.016917866   0.01619491          142 
 3267000   0.73581262    -7.658432     662.7687   0.01690564   0.01618912          156 
 3268000   0.72035061   -7.6543673    662.61388  0.016896519  0.016183337          116 
 3269000   0.73244086   -7.6495826    662.28057  0.016882853  0.016177556          189 
 3270000   0.72981053   -7.6516436     662.2411  0.016876685  0.016171761          252 
 3271000   0.74110273   -7.6572876    662.93892  0.016889303  0.016165958          181 
 3272000   0.73187695   -7.6695749    662.60242  0.016875571  0.016160165          220 
 3273000    0.7333337   -7.6416952    663.23036  0.016886403  0.016154366          199 
 3274000   0.73143264   -7.6621195    662.64111  0.016866247  0.016148569          260 
 3275000   0.73824506   -7.6756069    662.21644  0.016850291  0.016142776          154 
 3276000    0.7246931   -7.6563501    662.63691  0.016855843  0.016136958          263 
 3277000   0.72721659   -7.6810587    661.59763  0.016824271  0.016131147          328 
 3278000   0.72710927    -7.692326    660.87137  0.016800675  0.016125332          300 
 3279000   0.73925523   -7.6751393     662.8037   0.01684466  0.016119515          263 
 3280000   0.72856019    -7.694588    659.94588  0.016766918   0.01611368          259 
 3281000   0.73661325   -7.6689784    661.03508  0.016789472  0.016107849          218 
 3282000   0.72890687    -7.674518    661.12196  0.016786562  0.016102033          269 
 3283000   0.74157158   -7.6807424    662.10388  0.016806373   0.01609622          241 
 3284000   0.74339714   -7.6504244    662.97337  0.016823319   0.01609044          222 
 3285000   0.71516295   -7.6613002    661.90613  0.016791125  0.016084649          230 
 3286000   0.71618657   -7.7013224    660.43661  0.016748748  0.016078836          271 
 3287000    0.7314579   -7.6879504    661.06968  0.016759702  0.016073009          301 
 3288000   0.72594223   -7.6788005    661.37114  0.016762245  0.016067198          263 
 3289000   0.71884255      -7.6873    660.05205  0.016723727  0.016061371          269 
 3290000   0.73079559   -7.7011476    660.47799  0.016729432  0.016055552          287 
 3291000   0.71942357   -7.6812884    661.22865  0.016743357  0.016049732          293 
 3292000   0.72143314   -7.6791332    661.81739  0.016753174  0.016043917          291 
 3293000   0.73237947   -7.6596287    662.10927  0.016755473  0.016038086          280 
 3294000   0.73123231    -7.726833    661.18198  0.016726927  0.016032264          290 
 3295000   0.72466561   -7.6998721     660.8863  0.016714373  0.016026427          329 
 3296000   0.72530803   -7.7014343    660.24873  0.016693182  0.016020597          325 
 3297000   0.72067309   -7.7069632    660.16492     0.016686  0.016014774          278 
 3298000   0.72684635    -7.703287    660.87302  0.016698833  0.016008957          341 
 3299000   0.73378195   -7.6813535    661.48195  0.016709153  0.016003145          269 
 3300000   0.71667795   -7.7301496    659.96456  0.016665772  0.015997335          288 
 3301000   0.70977809   -7.6964374    660.91586  0.016684738  0.015991514          295 
 3302000   0.72213573   -7.7127039     660.9074  0.016679472   0.01598571          234 
 3303000   0.71857579   -7.7332179    660.37291  0.016660937  0.015979906          262 
 3304000   0.70887292   -7.7135818    661.71619  0.016689775  0.015974102          213 
 3305000   0.73256601   -7.7132308    661.06519   0.01666831  0.015968305          265 
 3306000   0.73593832   -7.6958494    660.04923  0.016637659  0.015962494          272 
 3307000   0.71037828   -7.7048864    661.18754  0.016661313  0.015956694          269 
 3308000     0.710006    -7.688239    661.28121  0.016658636  0.015950912          345 
 3309000   0.71502849   -7.7202769    660.20183  0.016626419  0.015945107          293 
 3310000    0.7177558   -7.7052083    660.69318  0.016633766  0.015939291          280 
 3311000   0.72076969   -7.7283113    661.36272  0.016645593  0.015933491          385 
 3312000   0.72293286     -7.70373    660.52065   0.01661938  0.015927682          248 
 3313000   0.71491142   -7.6994774    661.38606  0.016636132  0.015921885          190 
 3314000   0.71269678   -7.7010339    662.56306  0.016660709  0.015916088          248 
 3315000   0.73179093   -7.7165928    660.83461  0.016612233  0.015910286          181 
 3316000   0.72389374   -7.7043806    661.91111  0.016634276  0.015904503          289 
 3317000   0.71813791     -7.71669    661.23716   0.01661233  0.015898726          291 
 3318000   0.71833995   -7.7033801     660.3418  0.016584835  0.015892928          233 
 3319000   0.71879767   -7.7292244    660.70112   0.01658886  0.015887118          224 
 3320000   0.70267605   -7.7039491    661.42146  0.016601944  0.015881323          230 
 3321000   0.71969962   -7.7313698    660.00625  0.016561433  0.015875528          328 
 3322000   0.72432755    -7.730228    659.98411  0.016555893  0.015869719          281 
 3323000   0.72502336    -7.734272    660.32267  0.016559401  0.015863905          448 
 3324000   0.72842915   -7.6936647    661.70421  0.016589055  0.015858113          370 
 3325000   0.72368994    -7.735457       659.66  0.016532832  0.015852306          412 
 3326000   0.72136055   -7.7243233    660.56863  0.016550627  0.015846503          389 
 3327000   0.71677526   -7.7368952     660.0147  0.016531778  0.015840689          286 
 3328000    0.7093338   -7.7357888    660.18926  0.016531181  0.015834877          481 
 3329000   0.70941549   -7.7257751    660.56975   0.01653574  0.015829087          358 
 3330000   0.73201783   -7.7478704    661.00971  0.016541785  0.015823272          433 
 3331000   0.72654903   -7.7435305    658.94664  0.016485206  0.015817474          435 
 3332000   0.72446169   -7.7229395    662.70374  0.016574223  0.015811705          348 
 3333000   0.72331462   -7.7471451    659.64852  0.016492862  0.015805939          358 
 3334000    0.7224988   -7.7460282    660.63643  0.016512608  0.015800177          347 
 3335000   0.73214811   -7.7274236    659.65952  0.016483246  0.015794417          355 
 3336000   0.72108543    -7.728295    659.58079  0.016476339  0.015788658          336 
 3337000   0.71513778   -7.7500248    659.60078    0.0164719  0.015782895          370 
 3338000   0.71671967   -7.7320342     659.2838  0.016459052  0.015777145          400 
 3339000   0.71269818   -7.7371898    660.95554  0.016495845  0.015771376          322 
 3340000   0.71752126   -7.7351444    661.09215  0.016494315  0.015765619          367 
 3341000   0.72068945   -7.7454915    659.89749   0.01645958  0.015759847          336 
 3342000   0.71822123   -7.7544104    659.32648  0.016440417  0.015754079          369 
 3343000   0.72321677   -7.7340014    660.46017  0.016463759  0.015748304          351 
 3344000   0.73253753   -7.7597348    659.12594  0.016425587  0.015742533          447 
 3345000   0.72605505   -7.7115497    662.65732  0.016508653  0.015736774          400 
 3346000    0.7212727   -7.7425678    659.88301  0.016434624  0.015731013          408 
 3347000   0.72295964   -7.7634389    660.36975  0.016441832  0.015725253          420 
 3348000   0.70976498   -7.7278405    660.73826  0.016446094  0.015719493          402 
 3349000   0.71132952   -7.7451033    659.79966  0.016417828  0.015713742          449 
 3350000   0.71748046   -7.7505374    661.48784  0.016454921  0.015707999          469 
 3351000   0.72814704   -7.7519749    660.62724  0.016428609  0.015702254          403 
 3352000    0.7067011   -7.7549801    660.92483  0.016431107  0.015696508          489 
 3353000   0.72497064    -7.737123    661.59143  0.016442773  0.015690764          367 
 3354000    0.6999997   -7.7463855    659.87319   0.01639518  0.015685013          438 
 3355000   0.70208142   -7.7756601    657.45272  0.016330172  0.015679272          459 
 3356000   0.71236419   -7.7653242    660.72794  0.016406633  0.015673532          405 
 3357000   0.70879553   -7.7526066    659.96309   0.01638276  0.015667793          451 
 3358000   0.70260997   -7.7549185    660.75999  0.016397657   0.01566207          474 
 3359000   0.70519222   -7.7323546    661.34132  0.016407198   0.01565633          444 
 3360000   0.70509375   -7.7486098    660.41262  0.016379281  0.015650597          480 
 3361000   0.71669484   -7.7356807    661.29926  0.016396391  0.015644882          452 
 3362000   0.70906686   -7.7548165    659.88475  0.016356453  0.015639164          409 
 3363000   0.71055448   -7.7399203    660.82509  0.016374891  0.015633459          467 
 3364000   0.71740838   -7.7215036    661.39099  0.016384042  0.015627782          452 
 3365000   0.72022716   -7.7013146    660.80392  0.016364634  0.015622092          434 
 3366000   0.72282054   -7.7533523    660.13454    0.0163432  0.015616407          446 
 3367000   0.72287589   -7.7371055    661.97758  0.016383961  0.015610734          456 
 3368000   0.71389837   -7.7355602    662.43019  0.016390296  0.015605039          487 
 3369000   0.69894295   -7.7319798    660.27336  0.016332081   0.01559935          515 
 3370000   0.71793548    -7.762612    659.99443  0.016320337  0.015593658          436 
 3371000   0.72166242   -7.7553395    660.38324  0.016325107  0.015587958          396 
 3372000   0.70127238   -7.7297935    661.28796  0.016342625  0.015582269          305 
 3373000   0.70834658   -7.7448625    660.19868  0.016310868  0.015576582          351 
 3374000   0.70321133   -7.7196116    661.31084  0.016333502  0.015570893          413 
 3375000    0.7134197   -7.7685187    660.68013   0.01631309    0.0155652          360 
 3376000   0.71246938   -7.7809178    660.42865   0.01630205  0.015559526          411 
 3377000   0.69763488   -7.7425088    660.39416  0.016296372  0.015553862          429 
 3378000   0.70742227   -7.7438037    661.79613  0.016326133  0.015548202          430 
 3379000   0.70109159   -7.7386999    662.27629  0.016333143   0.01554254          424 
 3380000   0.71379477    -7.751173    660.26636  0.016278756  0.015536879          464 
 3381000   0.70508835   -7.7194537    660.30671  0.016274936   0.01553121          537 
 3382000   0.70841991   -7.7301876    661.89159  0.016309176  0.015525547          497 
 3383000   0.70598917   -7.7602096    660.41468  0.016267974  0.015519885          625 
 3384000     0.705772   -7.7761908    661.08065  0.016279567  0.015514204          516 
 3385000   0.71339517   -7.7704785    660.52752   0.01626114  0.015508536          543 
 3386000   0.69916586   -7.7639522    660.12368  0.016246399  0.015502865          537 
 3387000    0.7095271   -7.7642895    661.73986  0.016281366   0.01549719          612 
 3388000   0.70905706   -7.7182159    661.12227   0.01626137  0.015491527          530 
 3389000   0.71692652   -7.7516669    660.80137  0.016248681  0.015485859          637 
 3390000   0.71046588   -7.7881526    659.53918  0.016212861  0.015480178          647 
 3391000   0.69833618   -7.7749314    660.16526  0.016223466  0.015474483          571 
 3392000   0.70256943   -7.7843057    660.65896  0.016230812  0.015468779          624 
 3393000   0.72042778   -7.7868053    659.69888  0.016202448  0.015463091          627 
 3394000   0.70546446   -7.7951989    659.19635  0.016185336  0.015457412          688 
 3395000   0.71953173   -7.7846253    659.33785  0.016184041  0.015451722          642 
 3396000   0.70655473   -7.7919724    658.71858   0.01616408  0.015446017          654 
 3397000   0.72151479   -7.7884378     659.6575  0.016182354  0.015440312          708 
 3398000   0.70182615   -7.7927196    660.15173  0.016189713  0.015434596          668 
 3399000   0.71488031   -7.7862105    658.86381  0.016153374  0.015428887          643 
 3400000   0.69377599   -7.7830788    660.20358   0.01618146  0.015423188          666 
 3401000   0.68676548   -7.7632485    660.36856  0.016180745  0.015417507          698 
 3402000   0.70778192   -7.7741125    659.14574  0.016146035  0.015411827          624 
 3403000   0.70793507   -7.8028458    658.14602  0.016116809  0.015406139          745 
 3404000   0.71262365   -7.8082914    659.19114   0.01613766  0.015400435          714 
 3405000   0.69138963   -7.8072877    659.15627  0.016132067  0.015394743          684 
 3406000   0.70900199   -7.7772394     659.6695  0.016139888  0.015389053          682 
 3407000    0.7021135   -7.7694611    659.64042   0.01613444  0.015383378          647 
 3408000   0.71338665   -7.8055946     659.1559  0.016117858  0.015377705          686 
 3409000   0.70687712    -7.799405    660.80276  0.016153387  0.015372033          738 
 3410000   0.72103809   -7.7962221    659.21072  0.016109744  0.015366351          734 
 3411000   0.70489271   -7.8155503    659.19368  0.016104605  0.015360656          703 
 3412000   0.70321882   -7.8010972    659.09742  0.016097534  0.015354967          767 
 3413000   0.69817729   -7.8004549     659.5277  0.016103323   0.01534929          730 
 3414000   0.71918669   -7.7896337    659.19176  0.016090406  0.015343628          648 
 3415000   0.71010894   -7.7842046    660.08324  0.016107449  0.015337978          654 
 3416000   0.70902199   -7.8106961    658.97448  0.016075685  0.015332326          729 
 3417000   0.70047321   -7.8143512    659.97534  0.016095389  0.015326667          783 
 3418000   0.72152853    -7.806288    658.81895  0.016062487  0.015321003          733 
 3419000   0.70867694   -7.7894958    660.14198  0.016090036  0.015315364          768 
 3420000   0.72618581   -7.8086067    659.02353  0.016058078  0.015309712          730 
 3421000   0.70505961   -7.8041631    659.24126  0.016058688  0.015304065          815 
 3422000   0.70210643   -7.7945366    660.10191  0.016074954  0.015298426          809 
 3423000   0.70580322   -7.7928134    657.91015  0.016016899  0.015292768          765 
 3424000   0.69434671   -7.8124634     658.6541  0.016030327  0.015287109          766 
 3425000   0.70874592    -7.825156     659.1452  0.016037596  0.015281444          889 
 3426000   0.71202503   -7.8187901    658.80343  0.016024602  0.015275788          913 
 3427000   0.69203995   -7.8029456    658.60901  0.016015198  0.015270145          848 
 3428000   0.70959399   -7.8032537    659.23469  0.016025736    0.0152645          892 
 3429000   0.70637427   -7.8084905    659.05738  0.016016754  0.015258842          840 
 3430000   0.70603944   -7.7943876    657.88548  0.015983612  0.015253177          821 
 3431000   0.68355994   -7.8358258    659.02693  0.016006678    0.0152475          865 
 3432000   0.70890645   -7.8174417    658.16241  0.015981022  0.015241828          913 
 3433000   0.68998765   -7.8125878    658.65216  0.015988255   0.01523616          802 
 3434000   0.70287004   -7.8282046    659.46814  0.016003401  0.015230493          809 
 3435000   0.69150829   -7.8289203     657.0673  0.015940497   0.01522483          857 
 3436000   0.69736052    -7.837518    657.83439  0.015954462  0.015219172          915 
 3437000   0.69960098   -7.8225622     658.7305  0.015971547  0.015213493          820 
 3438000   0.70205353   -7.8353406    657.45478   0.01593598  0.015207839          834 
 3439000   0.71088814    -7.814277    659.22542  0.015974252  0.015202185          825 
 3440000   0.69389155   -7.8326374    657.33442  0.015923799  0.015196545          921 
 3441000   0.68715539   -7.8169053    658.85252  0.015955936  0.015190908          785 
 3442000   0.68877827   -7.8323397    658.70712   0.01594778  0.015185262          831 
 3443000   0.71819378   -7.8153909    660.43266  0.015984913   0.01517961          855 
 3444000   0.70517457   -7.8408199    658.44022  0.015932061  0.015173967          879 
 3445000    0.7073957   -7.8410131    658.69423  0.015933581  0.015168338          871 
 3446000   0.69737456   -7.8181834    659.28299  0.015943195  0.015162698          856 
 3447000   0.69915428   -7.8143864    657.96338  0.015906667  0.015157063          828 
 3448000   0.71938189   -7.8286236    658.07991   0.01590487  0.015151438          859 
 3449000    0.7094889    -7.814401    658.92078  0.015920576  0.015145799          976 
 3450000   0.71358087   -7.8399942    658.27411  0.015900341  0.015140159          984 
 3451000   0.68101027   -7.8379777    659.75111  0.015931399   0.01513452          908 
 3452000   0.67988302   -7.8340404    658.62118  0.015899507  0.015128886          940 
 3453000     0.698108   -7.8319113    657.73966  0.015873628  0.015123256          985 
 3454000   0.68812456   -7.8255516    658.51146  0.015887653  0.015117651          974 
 3455000   0.70011369   -7.8349081    658.70376  0.015887693  0.015112042          961 
 3456000   0.69220872   -7.8266298    658.93744  0.015888731  0.015106423          980 
 3457000    0.6968219   -7.8262724     657.8618  0.015858205  0.015100803          954 
 3458000   0.69418327   -7.8441804     657.7685  0.015851371  0.015095176          971 
 3459000   0.70437688   -7.8265009    657.88255  0.015849536  0.015089556          972 
 3460000   0.68912369   -7.8299109    658.49015  0.015859589  0.015083951         1094 
 3461000   0.69185046   -7.8519603    657.59879  0.015833545   0.01507834          958 
 3462000    0.6851182   -7.8374003    658.35463  0.015847165  0.015072738          962 
 3463000   0.71034625   -7.8634217    658.28864  0.015841001  0.015067129         1036 
 3464000   0.70528433   -7.8596902    656.92495  0.015803622  0.015061504         1011 
 3465000   0.69537567   -7.8529544    658.77346  0.015843517  0.015055902          959 
 3466000   0.69373675   -7.8439559    660.18152  0.015872801  0.015050285          962 
 3467000   0.69643415   -7.8311651     659.1027  0.015842292  0.015044685          933 
 3468000   0.69462852   -7.8777037    658.03831  0.015812147  0.015039075          977 
 3469000   0.70452015   -7.8453993    658.46832  0.015817919  0.015033462          929 
 3470000   0.71552527    -7.834839    657.97981  0.015801628  0.015027854          989 
 3471000   0.70006829   -7.8355929    659.63639  0.015836848  0.015022263          913 
 3472000   0.70649728   -7.8535253    657.01097  0.015769272  0.015016658         1072 
 3473000    0.6998046   -7.8327725    658.72135  0.015805772  0.015011072         1043 
 3474000   0.69182202   -7.8653578    656.15783  0.015739729  0.015005477         1090 
 3475000   0.69858038   -7.8359594    657.70047  0.015772193  0.014999878          943 
 3476000   0.69853045     -7.85101    657.36883  0.015759705  0.014994282         1030 
 3477000    0.6921642   -7.8657481    656.74788  0.015740291  0.014988685         1076 
 3478000   0.70005107   -7.8392082    657.60697  0.015756349  0.014983087         1000 
 3479000   0.68712581   -7.8722394    656.68185   0.01572966  0.014977488         1181 
 3480000   0.68855785   -7.8575763    658.07035   0.01575839  0.014971881         1073 
 3481000   0.69131772   -7.8646059      657.971  0.015751484  0.014966283         1122 
 3482000   0.69107416   -7.8529527    659.65279   0.01578721  0.014960699         1017 
 3483000   0.69681429   -7.8665619    658.39858   0.01575267  0.014955122         1083 
 3484000   0.70617967   -7.8459486    658.19279  0.015743226   0.01494955         1120 
 3485000   0.69690519     -7.85979    657.16326   0.01571409  0.014943986         1203 
 3486000   0.69682133   -7.8635152    657.82177  0.015725324  0.014938409         1124 
 3487000   0.70871093   -7.8976946    657.40189   0.01571078  0.014932837         1120 
 3488000   0.69965567   -7.8834001    657.07403  0.015698443   0.01492726         1139 
 3489000   0.69121643   -7.8745116    657.87419  0.015713055  0.014921684         1082 
 3490000   0.69976379   -7.8831453    656.48805  0.015675455  0.014916108         1091 
 3491000   0.69565329   -7.8511017    658.24471  0.015712898  0.014910542         1153 
 3492000   0.68247313    -7.831466    659.34757  0.015734717  0.014904975         1286 
 3493000   0.69695366   -7.8538882    657.28277  0.015680952  0.014899408         1173 
 3494000   0.67807928    -7.866755    658.40735  0.015703285   0.01489384         1146 
 3495000   0.69446613   -7.8635191    657.04226  0.015666244  0.014888283         1243 
 3496000   0.69608823   -7.8713371    657.87594  0.015681635  0.014882729         1209 
 3497000   0.68474742   -7.8735134    657.38456  0.015665441  0.014877173         1136 
 3498000   0.68276319   -7.8789815    656.91347   0.01564974  0.014871614         1202 
 3499000   0.67939842   -7.8750554    658.89698  0.015692507  0.014866057         1114 
 3500000   0.69377868   -7.8461586     659.1579  0.015694236  0.014860511         1213 
 3501000   0.68797894   -7.8521776    656.98712  0.015638082  0.014854953         1088 
 3502000   0.69948818   -7.8801918    657.10969  0.015636534  0.014849396         1157 
 3503000   0.66665884   -7.8509152    657.75378  0.015647392   0.01484384         1193 
 3504000   0.69600714   -7.8545637    658.06671  0.015650369  0.014838291         1246 
 3505000    0.6935694   -7.8858661    657.97403    0.0156437  0.014832751         1098 
 3506000   0.70218148   -7.8716549     658.2763  0.015646423  0.014827213         1228 
 3507000     0.690523   -7.8779192    657.42114  0.015621641  0.014821673         1286 
 3508000   0.71177866   -7.8854227    656.69065  0.015599835  0.014816134         1234 
 3509000   0.69263264   -7.8870539    657.48958  0.015614363  0.014810601         1334 
 3510000    0.7004429   -7.8845921    657.36388   0.01560693  0.014805061         1332 
 3511000   0.69675099   -7.8558773       657.65  0.015609276   0.01479953         1242 
 3512000   0.69669853   -7.8764317     656.9019   0.01558708  0.014793995         1376 
 3513000   0.71103221   -7.8561949    658.10116  0.015611091  0.014788463         1336 
 3514000   0.68672107   -7.8967741    657.25526  0.015586588  0.014782928         1269 
 3515000   0.68864699   -7.8630931    656.79434  0.015571227  0.014777387         1246 
 3516000   0.68464394   -7.8852462    656.67276  0.015563916  0.014771845         1296 
 3517000   0.69733937   -7.8978935    656.07178  0.015545251  0.014766314         1239 
 3518000    0.6890401   -7.8831148    657.74393  0.015580442  0.014760784         1329 
 3519000   0.67144979   -7.8732684    656.22953  0.015540152   0.01475525         1264 
 3520000   0.68539007   -7.8922615     656.4464  0.015540871  0.014749717         1305 
 3521000   0.67966768   -7.8993073    656.93767  0.015548085  0.014744181         1338 
 3522000   0.67446618   -7.9025307    657.30363  0.015552329  0.014738636         1266 
 3523000   0.67447929   -7.9158382    656.53138  0.015529648  0.014733088         1295 
 3524000   0.70542944   -7.9048814    655.99075  0.015512456  0.014727552         1327 
 3525000    0.6917981   -7.9225477    656.43094  0.015518462  0.014722003         1330 
 3526000   0.69656716     -7.90958    656.63904  0.015518979  0.014716468         1326 
 3527000   0.70541068   -7.9027692    656.50855  0.015511496  0.014710926         1366 
 3528000   0.68865936   -7.9056868     657.0373  0.015519588  0.014705399         1381 
 3529000   0.67955549   -7.9376726    655.41487  0.015476879  0.014699864         1336 
 3530000   0.68603882   -7.9141421    656.52585  0.015498722  0.014694333         1267 
 3531000   0.69448033   -7.9164281    656.22417  0.015487213  0.014688803         1371 
 3532000   0.68447387   -7.9013714     655.6934  0.015470305  0.014683281         1331 
 3533000    0.6879187   -7.8844488     657.1825   0.01550105  0.014677765         1341 
 3534000   0.71344475   -7.9149667    656.23922   0.01547442  0.014672238         1265 
 3535000    0.6807807   -7.8892861    658.20994    0.0155165  0.014666719         1335 
 3536000   0.68249869   -7.9030973    658.35295  0.015515482  0.014661196         1304 
 3537000   0.69053379   -7.9082062    655.71611  0.015448971  0.014655674         1311 
 3538000   0.67757827   -7.9135763    657.34894  0.015483063  0.014650153         1404 
 3539000   0.68522945   -7.9172415    655.83026  0.015442928  0.014644641         1429 
 3540000   0.67441428   -7.9248675    656.39087  0.015451763  0.014639126         1421 
 3541000   0.68223408   -7.8992964    656.68681  0.015454363  0.014633622         1347 
 3542000   0.67487736   -7.9145907    656.69665  0.015450232  0.014628119         1386 
 3543000   0.68655845   -7.9168144    654.99316  0.015405804  0.014622619         1398 
 3544000   0.69067646   -7.8982013    656.40899  0.015434749  0.014617113         1470 
 3545000   0.68624473   -7.9197542    656.69733  0.015437173  0.014611609         1566 
 3546000   0.68007556   -7.9302896    655.45367  0.015403593  0.014606104         1596 
 3547000   0.68171501   -7.9223608    656.19845  0.015416748  0.014600597         1538 
 3548000    0.6810873   -7.9272586    656.23372  0.015413231  0.014595082         1613 
 3549000   0.68836874   -7.9131878    656.66056   0.01541891  0.014589586         1391 
 3550000   0.68260227   -7.8971916    656.47564  0.015410226  0.014584117         1466 
 3551000   0.66572544   -7.9059989    658.06729  0.015443239  0.014578631         1519 
 3552000   0.69764115   -7.9006178    656.91351  0.015411822   0.01457315         1485 
 3553000   0.69635863   -7.8919103    656.28979  0.015392856  0.014567667         1535 
 3554000   0.68507089   -7.9043031    657.29812  0.015412168  0.014562182         1482 
 3555000   0.66913193     -7.90491    656.86572  0.015397696  0.014556692         1626 
 3556000   0.69619031   -7.9211792    655.24146  0.015355302  0.014551208         1575 
 3557000   0.67377356   -7.9174681     655.4546  0.015355979  0.014545721         1616 
 3558000    0.6700924   -7.9004591    656.78881  0.015382912  0.014540239         1590 
 3559000   0.67389857   -7.9163152     655.4542   0.01534734  0.014534759         1544 
 3560000   0.67507477   -7.9061336    655.05328  0.015333644   0.01452928         1612 
 3561000   0.68998967   -7.9127189    657.12633  0.015377851  0.014523792         1527 
 3562000   0.68471688   -7.9280082    655.95033  0.015346021  0.014518312         1643 
 3563000   0.66930285   -7.9016185    656.51847  0.015355002  0.014512836         1525 
 3564000   0.68259052   -7.9057171    655.78042  0.015333437  0.014507364         1588 
 3565000   0.68309841    -7.912901     655.4643  0.015321746  0.014501902         1558 
 3566000   0.67752353   -7.9157348    655.81739  0.015325701  0.014496427         1680 
 3567000   0.66894537   -7.9148291    657.49837  0.015360676   0.01449096         1614 
 3568000   0.68383489   -7.9138442    655.66104  0.015313459  0.014485492         1608 
 3569000   0.68995718   -7.9279582    655.89859  0.015314714  0.014480017         1672 
 3570000   0.68650785   -7.9293936    656.04064   0.01531374   0.01447455         1612 
 3571000   0.67999804   -7.9262509    655.91778  0.015306585  0.014469074         1691 
 3572000   0.69253928   -7.9247307    655.21119  0.015285815  0.014463604         1641 
 3573000   0.67112476   -7.9121351    654.85546  0.015273241  0.014458137         1721 
 3574000   0.69402488   -7.9296714    654.87244  0.015269363  0.014452663         1703 
 3575000   0.69098422   -7.9382766    654.58905  0.015258486  0.014447176         1770 
 3576000   0.67510159   -7.9343416    655.67678  0.015279567  0.014441698         1656 
 3577000   0.68425229   -7.9300866    654.98931  0.015259279   0.01443623         1753 
 3578000   0.66506216   -7.9387323    654.71706  0.015248674  0.014430752         1750 
 3579000   0.67085106   -7.9339358    656.28428  0.015280904  0.014425279         1681 
 3580000   0.67831017   -7.9589888    654.27937  0.015229967  0.014419796         1728 
 3581000   0.68341864   -7.9370191    656.75108  0.015283233  0.014414322         1627 
 3582000   0.68023877   -7.9522544    655.44312  0.015248537  0.014408831         1782 
 3583000    0.6862959   -7.9551116    654.23583  0.015216202  0.014403354         1753 
 3584000   0.67860974   -7.9395492    655.00188  0.015229768  0.014397864         1755 
 3585000    0.6932186   -7.9598308    653.53392  0.015191398  0.014392384         1714 
 3586000   0.68403367   -7.9551265    653.93943  0.015196585  0.014386921         1735 
 3587000   0.67038844   -7.9232217    654.37915  0.015202564  0.014381452         1782 
 3588000   0.68860233   -7.9416404    654.04622  0.015190594  0.014375984         1716 
 3589000   0.66924809   -7.9293542    654.51244  0.015197187  0.014370525         1759 
 3590000    0.6800641   -7.9400266    652.98501  0.015157498  0.014365069         1811 
 3591000   0.68337811   -7.9323434    655.48368  0.015211261  0.014359621         1743 
 3592000   0.67673293   -7.9475408    655.93975  0.015217607  0.014354166         1831 
 3593000   0.68769846   -7.9401207    656.10776  0.015217269  0.014348702         1828 
 3594000    0.6923834   -7.9701201    654.64817  0.015179191  0.014343247         1808 
 3595000   0.67434944   -7.9497127    652.65768  0.015128829  0.014337784         1828 
 3596000   0.67352611   -7.9312488    655.93251  0.015200512   0.01433234         1803 
 3597000   0.67725584   -7.9584938    654.22275  0.015156676  0.014326894         1745 
 3598000   0.67231567    -7.941131    654.60489  0.015161314  0.014321444         1716 
 3599000   0.67559535   -7.9533994    656.51959  0.015201435  0.014315995         1771 
 3600000   0.68548799   -7.9736865    653.36228  0.015124127  0.014310552         1759 
 3601000    0.6759377   -7.9614908    654.07209  0.015136353    0.0143051         1799 
 3602000   0.67337727   -7.9379204    654.85505  0.015150265   0.01429965         1726 
 3603000   0.66191742   -7.9542388    655.93959  0.015171144  0.014294217         1765 
 3604000   0.65921186   -7.9620521    654.33351  0.015129798  0.014288778         1815 
 3605000   0.67273575   -7.9525551    655.65878  0.015156236  0.014283343         1763 
 3606000   0.68501238   -7.9511055    653.98101  0.015113261  0.014277915         1797 
 3607000   0.68157635   -7.9650434    654.37144  0.015118091  0.014272495         1818 
 3608000   0.66197851   -7.9625152     654.0019  0.015105365  0.014267067         1846 
 3609000   0.67490474   -7.9585994    654.16819   0.01510502  0.014261644         1735 
 3610000    0.6583379   -7.9690931    652.94292  0.015072551  0.014256227         1795 
 3611000   0.66178146   -7.9481931    656.31832  0.015146273  0.014250806         1765 
 3612000   0.66706986   -7.9393951    654.61972  0.015102891  0.014245388         1774 
 3613000   0.66496922   -7.9739536     653.9467  0.015083188  0.014239971         1778 
 3614000   0.67653744   -8.0067316    652.74803  0.015051375   0.01423455         1904 
 3615000   0.65741624   -7.9641655    654.36369  0.015084456  0.014229134         1881 
 3616000   0.67939432   -7.9795015    653.59769  0.015062631   0.01422372         1893 
 3617000   0.67147393   -7.9606437    654.96623  0.015089997  0.014218304         1845 
 3618000   0.66416232   -7.9719657    653.62573   0.01505495  0.014212882         1788 
 3619000    0.6826512   -7.9728065    654.63183  0.015073958  0.014207466         1877 
 3620000    0.6690145   -7.9487246    654.79357  0.015073517   0.01420205         1865 
 3621000   0.68679123   -7.9759535    653.57518  0.015041314  0.014196635         1875 
 3622000    0.6799441   -7.9703484    655.69091  0.015085839  0.014191221         1756 
 3623000   0.66967838   -7.9813438    653.71627  0.015036256  0.014185808         1867 
 3624000   0.67409384    -7.981041    653.75972  0.015033106  0.014180391         1882 
 3625000   0.68059927   -7.9689433    653.68881  0.015027329  0.014174982         1871 
 3626000   0.68284702   -7.9626207    653.99603  0.015030245  0.014169592         1851 
 3627000   0.67219212   -7.9491878    655.40636  0.015058505  0.014164196         1875 
 3628000   0.67923297   -7.9668423    653.42921   0.01500894    0.0141588         1948 
 3629000   0.67357102    -7.973508    654.39916  0.015027077   0.01415341         1907 
 3630000   0.66719438   -7.9723053    653.42941  0.015000675  0.014148025         1830 
 3631000   0.68397236   -7.9839407    654.75446  0.015026955  0.014142639         1866 
 3632000    0.6573885   -7.9793555    655.18236  0.015032635  0.014137258         1902 
 3633000   0.66772791   -7.9772063    653.84847  0.014997901  0.014131881         1920 
 3634000   0.66903484   -7.9766492    652.51827   0.01496327  0.014126485         1936 
 3635000   0.67176953   -7.9553424    654.19014  0.014997481  0.014121107         1796 
 3636000   0.68009385   -7.9671158    655.62417  0.015026223  0.014115727         1904 
 3637000   0.66562868   -7.9682967    653.15398  0.014965493  0.014110346         1850 
 3638000    0.6730012   -7.9788029    653.47075  0.014968635  0.014104963         1895 
 3639000   0.66778351   -7.9842786    654.42031  0.014986267  0.014099584         1923 
 3640000   0.66279247   -7.9890531    653.86005  0.014969323  0.014094207         1909 
 3641000   0.67095082   -7.9895989    654.82282  0.014987247  0.014088827         1811 
 3642000   0.68098934   -7.9655487    652.64577  0.014933319  0.014083449         1972 
 3643000   0.67228562   -7.9734172    654.36089  0.014968453  0.014078074         1935 
 3644000   0.67380877   -7.9820019    652.58758  0.014923792  0.014072693         1973 
 3645000   0.66781987   -7.9953723    653.57283  0.014942223  0.014067311         1856 
 3646000   0.66075151   -7.9769529    653.54108  0.014937399  0.014061929         1930 
 3647000   0.66725051   -7.9925176    651.93562  0.014896619  0.014056552         1941 
 3648000   0.65192487   -7.9766505     652.4682  0.014904701  0.014051181         1936 
 3649000   0.65091382   -7.9963861     652.9792  0.014912286  0.014045812         1870 
 3650000   0.66907821   -7.9892908    652.98843  0.014908412   0.01404044         1866 
 3651000   0.66697179   -7.9774749    654.01853   0.01492784  0.014035068         1957 
 3652000   0.66909036   -7.9810293    652.87743  0.014897714    0.0140297         1865 
 3653000   0.66063568   -7.9898438    652.98144  0.014896009  0.014024341         1870 
 3654000   0.67758211   -7.9809741    654.08284  0.014917051  0.014018982         1983 
 3655000   0.65864682   -7.9952526    653.69069  0.014904028  0.014013622         1895 
 3656000   0.67630081    -7.998526    652.27444   0.01486767  0.014008263         1933 
 3657000   0.66927978    -7.992123    653.90445  0.014900749  0.014002903         1864 
 3658000   0.66996247   -7.9812381    654.00027  0.014898858  0.013997551         1770 
 3659000   0.67003199   -8.0046502    653.00758  0.014872178  0.013992199         1953 
 3660000   0.66365542   -7.9953277    653.02882  0.014868598  0.013986843         1922 
 3661000   0.65539576   -7.9985942    651.93296  0.014839592  0.013981494         1989 
 3662000   0.66121779   -7.9750458     653.1963  0.014864289  0.013976146         1939 
 3663000    0.6511254   -7.9797703    654.12823  0.014881432  0.013970804         1959 
 3664000   0.66107241   -8.0135087    653.24806  0.014857352   0.01396546         1940 
 3665000   0.67192823   -7.9807923    654.70171  0.014886351  0.013960124         1881 
 3666000   0.67078707   -7.9957395    653.33846  0.014851302  0.013954788         1987 
 3667000   0.67636166   -7.9909345    653.13261  0.014842574  0.013949455         1932 
 3668000    0.6730826   -8.0185412    652.76275  0.014830124  0.013944122         2122 
 3669000   0.67673853   -7.9894323    653.70817  0.014847556  0.013938791         1952 
 3670000   0.66346877   -8.0003983     651.7906  0.014799968  0.013933467         1962 
 3671000   0.65981735   -8.0000018    653.88057   0.01484338  0.013928142         2056 
 3672000   0.65270796   -8.0042312    653.01139  0.014819612  0.013922815         1944 
 3673000   0.66829749   -8.0004144    652.63185  0.014806966  0.013917497         2027 
 3674000   0.66491639   -8.0035166    653.48433  0.014822272  0.013912185         2027 
 3675000   0.66660051   -8.0072126    652.06666  0.014786092  0.013906866         2017 
 3676000   0.67207352   -7.9936438    651.59258  0.014771323  0.013901546         2081 
 3677000   0.67069111    -8.013693    653.91783  0.014820004  0.013896226         2000 
 3678000    0.6665245   -7.9803103    653.55408  0.014807732  0.013890914         2045 
 3679000   0.65899557    -7.999958    652.24998  0.014774168  0.013885601         2064 
 3680000   0.66525097    -8.011816    652.76897  0.014781906  0.013880295         2109 
 3681000   0.66953577    -7.999718     653.4595  0.014793523  0.013874981         2180 
 3682000   0.66937246   -8.0173647    652.17388  0.014760408  0.013869682         2099 
 3683000   0.65779653   -7.9648451       653.39  0.014783917  0.013864384         2099 
 3684000   0.66254609   -7.9852103    653.68245  0.014786519  0.013859095         2117 
 3685000   0.66700881   -8.0026651    652.49784  0.014755718  0.013853803         2165 
 3686000   0.66575065   -8.0066639    653.94617  0.014784458  0.013848516         2043 
 3687000   0.66950169   -7.9984867    652.98338  0.014758688  0.013843222         2101 
 3688000   0.67359863   -8.0042987     653.2137   0.01475989   0.01383793         2100 
 3689000   0.64874085    -7.986176    653.19292   0.01475542   0.01383264         2134 
 3690000   0.66993851   -8.0198757    652.55717  0.014737063  0.013827364         2151 
 3691000     0.678527   -8.0193274    652.40232  0.014729575  0.013822077         2118 
 3692000   0.65098037    -8.015586     653.1024  0.014741387  0.013816784         2056 
 3693000   0.66319454   -8.0137636     653.7686  0.014752428  0.013811482         2072 
 3694000   0.65816618   -8.0040717    653.24714  0.014736671  0.013806191         2114 
 3695000   0.67045236   -8.0156555    650.61872  0.014673404  0.013800906         2080 
 3696000   0.65799218     -8.01265    651.91291  0.014698614  0.013795617         2046 
 3697000   0.66449939   -7.9933511    652.73204  0.014713102  0.013790332         2084 
 3698000    0.6654874   -8.0189796    651.98832  0.014692363  0.013785042         2129 
 3699000   0.65812186   -8.0157651    653.04391  0.014712172  0.013779767         2086 
 3700000    0.6589117    -8.026032    652.95387  0.014706168  0.013774491         2071 
 3701000   0.66135039   -8.0163026    651.78202  0.014675809  0.013769219         2046 
 3702000    0.6604771   -8.0115198    652.97362  0.014698668  0.013763949         2051 
 3703000   0.66848032   -8.0473721    652.51883  0.014684464  0.013758682         2063 
 3704000   0.67323318   -8.0184776     653.1162  0.014693939  0.013753415         2131 
 3705000   0.65151501   -7.9912103    652.94098  0.014686032  0.013748146         2170 
 3706000      0.67026   -8.0190251    651.61481  0.014652249  0.013742883         2089 
 3707000   0.65909368   -8.0251144    651.64004  0.014648863  0.013737625         1981 
 3708000   0.65547757   -7.9811141    653.02726  0.014676089  0.013732372         1993 
 3709000   0.65729318   -8.0000505    652.26944  0.014655106  0.013727122         2098 
 3710000   0.66465258   -7.9927814    653.34458  0.014675305  0.013721874         1972 
 3711000   0.66539554   -8.0315334    651.87993  0.014638461  0.013716621         2090 
 3712000   0.66045635   -7.9997372    652.27887  0.014643473  0.013711379         1971 
 3713000   0.65840747   -8.0233759     651.9898  0.014633041  0.013706128         2041 
 3714000   0.64123054   -8.0037431    653.37689  0.014660225  0.013700879         2056 
 3715000     0.649108   -8.0459152    651.31433  0.014610012  0.013695634         2084 
 3716000   0.65258556   -8.0280227    653.32445  0.014651158  0.013690394         2108 
 3717000   0.65693214   -8.0391913    651.76914  0.014612347   0.01368514         2151 
 3718000   0.65547101    -8.021779    650.77503  0.014586136  0.013679898         2142 
 3719000   0.67024422   -8.0199782    653.63289  0.014646251  0.013674665         2018 
 3720000   0.65789763   -8.0324033    652.10896  0.014608176  0.013669445         2010 
 3721000   0.64821194   -8.0183429     652.5238   0.01461354  0.013664217         2083 
 3722000   0.64930494   -8.0381155    651.69686  0.014591099  0.013658991         2146 
 3723000   0.66571765   -8.0027838    653.10929  0.014618795  0.013653767         2159 
 3724000    0.6487264   -8.0164798    651.39312  0.014576466  0.013648541         2082 
 3725000   0.65324262   -8.0459089    651.66332  0.014578598  0.013643309         2092 
 3726000   0.66896093   -8.0365813    652.37979  0.014590709  0.013638078         2123 
 3727000   0.65948296   -8.0434583    651.96394  0.014577496  0.013632856         2153 
 3728000   0.65760606   -8.0253829    652.83719  0.014593106   0.01362764         2161 
 3729000   0.65190673   -8.0278559    652.04395  0.014571466  0.013622425         2139 
 3730000   0.65105577   -7.9862254    653.40011  0.014597858  0.013617208         1995 
 3731000   0.66707148   -8.0455628    652.35998  0.014570713  0.013612002         2089 
 3732000   0.64932741   -8.0627342    651.80681  0.014554457  0.013606783         2092 
 3733000   0.64954719   -8.0154023    652.22928  0.014559989  0.013601576         2096 
 3734000   0.65750161   -8.0211441    652.04866  0.014552059  0.013596374         2126 
 3735000   0.65232989   -8.0449371    651.71026  0.014540613  0.013591185         2140 
 3736000   0.66707847   -8.0164963    651.62342  0.014534784  0.013585996         2065 
 3737000   0.64341006   -8.0361953    652.30781  0.014546156  0.013580804         2090 
 3738000   0.66292126   -8.0310967    650.44799  0.014500802   0.01357561         2036 
 3739000   0.65798569   -8.0291058    652.06609  0.014532988  0.013570423         2049 
 3740000    0.6507319   -8.0448641    651.53049  0.014517168   0.01356523         2078 
 3741000   0.65917426    -8.016708    652.29551  0.014530329  0.013560049         2056 
 3742000   0.66038649    -8.038215    652.70451  0.014535554  0.013554865         2077 
 3743000   0.66271214   -8.0444196     650.9756  0.014493178  0.013549685         2066 
 3744000   0.65259822   -8.0404846     651.2516  0.014495451  0.013544502         2130 
 3745000   0.64897524   -8.0300456    651.52419  0.014497646  0.013539321         2104 
 3746000   0.65263158   -8.0318735    652.64647  0.014518742  0.013534133         2028 
 3747000   0.66019475   -8.0208896    652.91872  0.014520922  0.013528959         2103 
 3748000   0.65518497   -8.0307609    653.60704  0.014532352  0.013523795         2112 
 3749000   0.64586045   -8.0396787    651.92238  0.014491028  0.013518628         2163 
 3750000   0.65567038    -8.025496    651.54321  0.014478738  0.013513457         2114 
 3751000   0.64824569   -8.0031163    652.47812  0.014495648  0.013508289         2156 
 3752000   0.65007456   -8.0315254    652.07601  0.014482854  0.013503122         2175 
 3753000   0.65134459   -8.0463281    652.08588  0.014479214  0.013497951         2260 
 3754000   0.64816373   -8.0473146     651.7981  0.014468969  0.013492773         2283 
 3755000   0.64968585   -8.0290269    651.48274  0.014458117  0.013487601         2220 
 3756000   0.64657858    -8.043995    652.89219  0.014485538  0.013482423         2262 
 3757000   0.63628057   -8.0502937    651.06916  0.014441246  0.013477252         2285 
 3758000    0.6480791   -8.0422531    651.68994   0.01445117  0.013472091         2204 
 3759000   0.63461352   -8.0203912    652.76435  0.014471144  0.013466927         2275 
 3760000   0.63794733   -8.0383551    652.03457  0.014451121  0.013461772         2191 
 3761000   0.64599223   -8.0463206    652.16535  0.014450176  0.013456621         2236 
 3762000   0.65250627   -8.0667568    651.47127   0.01443096  0.013451467         2304 
 3763000    0.6402433   -8.0347007    652.09383  0.014440912  0.013446317         2358 
 3764000    0.6407917   -8.0462471    650.55218  0.014402944  0.013441175         2252 
 3765000   0.63832116   -8.0450189    651.57062  0.014421661  0.013436031         2331 
 3766000   0.64955566   -8.0639023    651.74773   0.01442175  0.013430886         2316 
 3767000   0.65395997   -8.0323285    653.39666  0.014454399  0.013425744         2286 
 3768000   0.65131327   -8.0288492    652.91432  0.014439896  0.013420612         2259 
 3769000   0.65523064   -8.0526532    650.68706  0.014386819  0.013415484         2204 
 3770000   0.67214311   -8.0350372    651.22133  0.014394813  0.013410356         2227 
 3771000    0.6396252   -8.0492846    652.14241   0.01441135  0.013405219         2276 
 3772000   0.65299871   -8.0463629    651.89614  0.014402089  0.013400095         2175 
 3773000    0.6547158   -8.0345029    652.23972   0.01440586  0.013394968         2272 
 3774000   0.65375595   -8.0569492    652.32575  0.014403943  0.013389856         2282 
 3775000   0.65435261   -8.0652177    650.50757   0.01435999  0.013384734         2238 
 3776000   0.64527904   -8.0547609    652.25088  0.014394661  0.013379611         2189 
 3777000    0.6654954   -8.0240353    650.44961  0.014351108  0.013374489         2302 
 3778000   0.65802084   -8.0585332    650.84338  0.014355995  0.013369367         2255 
 3779000   0.65438014   -8.0489295    650.87864  0.014352973  0.013364255         2231 
 3780000   0.64187176   -8.0596062    650.32268   0.01433692  0.013359134         2322 
 3781000    0.6465372    -8.057672    651.48305  0.014358702  0.013354014         2266 
 3782000   0.65816816   -8.0564613    651.00382  0.014344346  0.013348899         2256 
 3783000   0.64849078   -8.0747277     651.2696  0.014346409  0.013343792         2323 
 3784000   0.65734347   -8.0604669     651.2334  0.014341821  0.013338684         2227 
 3785000    0.6535107   -8.0699753     651.9416  0.014353624  0.013333576         2264 
 3786000    0.6491489   -8.0597898    651.29805  0.014335668   0.01332847         2237 
 3787000   0.64625269   -8.0464308    650.30485  0.014310027  0.013323374         2148 
 3788000   0.63599746   -8.0482812    652.21819  0.014348341  0.013318279         2308 
 3789000   0.65713629   -8.0352916    650.72395  0.014311691  0.013313179         2323 
 3790000     0.632355   -8.0710052    651.16511  0.014317615  0.013308082         2385 
 3791000   0.64911828   -8.0578748    650.49363  0.014299077  0.013302989         2338 
 3792000   0.63319825   -8.0445634    652.05733  0.014329671  0.013297895         2284 
 3793000   0.64224569   -8.0454969    651.02077  0.014303119  0.013292802         2227 
 3794000   0.64719571   -8.0469947    651.25512  0.014304496   0.01328772         2307 
 3795000   0.66668184   -8.0655549    651.35222  0.014302859  0.013282628         2240 
 3796000   0.64442351   -8.0639037    650.61741   0.01428296  0.013277542         2320 
 3797000   0.64195026   -8.0770395      649.822  0.014261742  0.013272454         2328 
 3798000   0.63806594   -8.0555281    651.96147  0.014304929  0.013267369         2371 
 3799000    0.6595409   -8.0516695    650.80409  0.014275776  0.013262294         2364 
 3800000   0.64478883   -8.0882772    650.82784   0.01427254  0.013257209         2360 
 3801000    0.6553758   -8.0403872    650.23032  0.014255685  0.013252132         2404 
 3802000   0.64925079   -8.0566045    651.93344  0.014289265  0.013247059         2321 
 3803000   0.64979091   -8.0659613     650.9441  0.014263829  0.013241994         2373 
 3804000   0.64370653     -8.04586    649.58811  0.014230374  0.013236926         2310 
 3805000   0.65251074   -8.0541061    651.11507  0.014260076  0.013231865         2305 
 3806000   0.63832804   -8.0717063    651.24218  0.014259112  0.013226798         2340 
 3807000      0.63714   -8.0773293    650.37088  0.014236294  0.013221732         2354 
 3808000   0.64362932   -8.0873085    651.12614  0.014249084  0.013216675         2292 
 3809000   0.64367215   -8.0633599    650.82073  0.014238661  0.013211617         2418 
 3810000   0.65936765   -8.0470026    651.33975  0.014246276  0.013206558         2253 
 3811000   0.65984952   -8.0964376    650.55866  0.014225458  0.013201498         2377 
 3812000   0.64629203   -8.0775509    652.17272  0.014257011  0.013196446         2369 
 3813000   0.63387515   -8.0668398    650.66447  0.014220309  0.013191392         2348 
 3814000   0.64175784   -8.0933705    650.39522  0.014210698  0.013186343         2375 
 3815000   0.64545405   -8.0630716    651.44621   0.01422993  0.013181299         2402 
 3816000   0.63915646   -8.0711161    651.97838  0.014237823   0.01317625         2372 
 3817000   0.63946864   -8.0717891    650.12691  0.014193671  0.013171212         2434 
 3818000   0.63988018   -8.0780803    650.78503  0.014204318  0.013166166         2385 
 3819000   0.63157584   -8.0600458    650.40087  0.014192216   0.01316112         2338 
 3820000   0.64850991   -8.0682501    651.68736  0.014216565  0.013156078         2381 
 3821000   0.64431769   -8.0770066    649.84634  0.014172693  0.013151033         2401 
 3822000   0.64608378   -8.0832919     650.5636  0.014184624   0.01314599         2438 
 3823000   0.64982978   -8.0755566     650.7216  0.014184358  0.013140944         2475 
 3824000   0.63471525   -8.0848911     649.7547  0.014159578  0.013135901         2354 
 3825000   0.63599236   -8.0683513    651.99301  0.014204641  0.013130863         2422 
 3826000   0.64750694   -8.0655347    650.18734  0.014161599   0.01312583         2469 
 3827000   0.63811616   -8.0659916    649.10783  0.014134392   0.01312079         2334 
 3828000   0.64631289   -8.1030191    649.65731  0.014142662  0.013115754         2453 
 3829000   0.63679749   -8.0742487    650.73383  0.014162397  0.013110727         2386 
 3830000   0.62735448    -8.053353    649.74895  0.014137271  0.013105696         2349 
 3831000    0.6450252   -8.0999845    649.78726  0.014134414  0.013100664         2460 
 3832000   0.63457477   -8.0854776    648.84723  0.014110283   0.01309564         2486 
 3833000   0.63126456   -8.0807165     650.5705  0.014144067  0.013090612         2349 
 3834000    0.6379759   -8.0978216    649.97496  0.014127433  0.013085599         2388 
 3835000   0.64559901    -8.077226    650.15862  0.014127741  0.013080581         2310 
 3836000   0.63018642   -8.0860245    652.32206  0.014171056  0.013075565         2338 
 3837000   0.62694284   -8.0912805    650.17483  0.014120729  0.013070553         2352 
 3838000   0.64201617     -8.07777    651.16761  0.014138605  0.013065545         2466 
 3839000   0.63605119   -8.0846438    651.46341  0.014141343  0.013060531         2444 
 3840000   0.65081519   -8.0904421    650.31951  0.014112837  0.013055522         2421 
 3841000   0.64206053   -8.1016046    649.17209  0.014084268  0.013050517         2429 
 3842000   0.64188479   -8.1125698    648.43998  0.014064723  0.013045512         2490 
 3843000   0.62886414   -8.0910808    650.19493  0.014099118  0.013040515         2481 
 3844000   0.64507867   -8.0982606    649.50471  0.014080487  0.013035513         2411 
 3845000   0.64168682   -8.1097435     649.6486  0.014079944  0.013030511         2419 
 3846000   0.63251377   -8.0643909    650.37049  0.014091924  0.013025523         2364 
 3847000   0.63978491   -8.0826674    650.62491  0.014093772  0.013020528         2401 
 3848000   0.62719193   -8.0861763    649.75885  0.014071354  0.013015543         2353 
 3849000   0.63959149   -8.0619584    650.68445  0.014087738  0.013010566         2263 
 3850000   0.62140795   -8.0872998    649.56163  0.014059776  0.013005582         2440 
 3851000   0.63483563   -8.0803994    651.57193  0.014099626  0.013000606         2428 
 3852000   0.64059295   -8.0651935    650.49043  0.014072569  0.012995627         2414 
 3853000   0.62213179   -8.1073491    650.13202  0.014061165  0.012990654         2420 
 3854000   0.62929593   -8.0903468    650.63794  0.014068456  0.012985673         2368 
 3855000    0.6392112    -8.089622    648.83476  0.014025827  0.012980702         2373 
 3856000   0.62830412   -8.0769458    650.74152  0.014063397  0.012975733         2374 
 3857000   0.63496481   -8.1033185    650.05044   0.01404482  0.012970769         2382 
 3858000    0.6165743   -8.0800202    650.85859  0.014058636    0.0129658         2298 
 3859000   0.63796994    -8.099941    649.51599     0.014026  0.012960836         2403 
 3860000   0.64299761   -8.0851672    651.21617  0.014059071  0.012955876         2404 
 3861000   0.63333465   -8.0796298    648.50107  0.013996829  0.012950919         2418 
 3862000   0.62565168   -8.0814788    649.90987  0.014023603  0.012945959         2442 
 3863000   0.63421209   -8.1015593    649.85059  0.014018694     0.012941         2417 
 3864000   0.63150519   -8.0703143    650.11831   0.01402084  0.012936045         2445 
 3865000   0.64610736   -8.0954325    650.83151   0.01403259  0.012931092         2402 
 3866000   0.63575497   -8.0841611    648.76699  0.013984458  0.012926147         2482 
 3867000   0.63564892   -8.0957753    650.59919  0.014020326  0.012921196         2447 
 3868000   0.62721136   -8.0731271    650.14372  0.014006888  0.012916244         2501 
 3869000   0.64067852   -8.0644922    650.92777  0.014020155  0.012911305         2466 
 3870000   0.62947295   -8.1041093    649.97773  0.013996075  0.012906366         2504 
 3871000   0.64161661   -8.0914096    650.12141  0.013995553  0.012901422         2401 
 3872000    0.6485077   -8.0995196    649.87064  0.013986541  0.012896483         2467 
 3873000   0.63728038   -8.1011788    649.91378  0.013983858  0.012891548         2453 
 3874000   0.63919044   -8.0976376    649.84256  0.013978716  0.012886617         2446 
 3875000   0.61490292   -8.1085135    649.05606  0.013958195  0.012881681         2487 
 3876000   0.63138076   -8.0986072    649.39999  0.013961988  0.012876754         2491 
 3877000   0.63970566   -8.1051642    650.50133  0.013982059  0.012871817         2500 
 3878000   0.63145645   -8.0957494    648.85345  0.013943043  0.012866896         2395 
 3879000   0.62223254   -8.0788375    650.11429  0.013966535   0.01286197         2397 
 3880000   0.62091392   -8.0787673    649.49508  0.013949637  0.012857054         2419 
 3881000   0.62760504   -8.0831881    650.02504  0.013957422   0.01285213         2465 
 3882000   0.61253215   -8.1271964    649.28164  0.013937868  0.012847213         2394 
 3883000    0.6362372   -8.1098849    651.15218  0.013974422  0.012842298         2437 
 3884000   0.63667575   -8.0728358    650.86556  0.013964675  0.012837385         2410 
 3885000   0.63538506   -8.1073616    649.13882  0.013924042  0.012832465         2465 
 3886000   0.63492603   -8.1073701    649.40831  0.013926238  0.012827552         2515 
 3887000   0.62201021     -8.11155    649.17245  0.013917598  0.012822637         2409 
 3888000   0.63482174   -8.0964618    651.05606  0.013954391  0.012817731         2392 
 3889000   0.62427005   -8.0962366    649.28834  0.013912924  0.012812828         2389 
 3890000   0.62401696   -8.0885712    649.76771  0.013919617  0.012807931         2453 
 3891000   0.62880843   -8.0994683    649.18408   0.01390354  0.012803025         2443 
 3892000   0.63555861   -8.0983728     648.6151  0.013887785  0.012798132         2379 
 3893000   0.62853124   -8.0845828    648.77327  0.013887603  0.012793237         2425 
 3894000   0.63380924   -8.0867356    649.44013  0.013898308  0.012788346         2400 
 3895000   0.63074555   -8.1192076    648.39374  0.013872352  0.012783452         2475 
 3896000   0.62247236   -8.0816644    650.78964  0.013920039  0.012778566         2455 
 3897000   0.62305459   -8.0982435    649.32499  0.013885147   0.01277368         2378 
 3898000   0.63711292   -8.1070905    650.87812  0.013914788  0.012768798         2407 
 3899000   0.62615924    -8.096788    649.60289  0.013883964  0.012763914         2440 
 3900000   0.62837728   -8.1007526    649.39799  0.013876025  0.012759033         2518 
 3901000   0.62167577    -8.105762    650.35946  0.013893007  0.012754149         2437 
 3902000   0.61493393   -8.1133719    648.76305  0.013855353   0.01274927         2542 
 3903000   0.62173289    -8.100837    648.70405  0.013850543    0.0127444         2390 
 3904000   0.62853243    -8.118918     650.6271  0.013888044  0.012739532         2425 
 3905000   0.63585439   -8.1181698    650.10743  0.013873398  0.012734665         2411 
 3906000   0.61839616   -8.0917548    650.11997  0.013870114  0.012729796         2475 
 3907000    0.6348654   -8.0954436    651.16872  0.013888933  0.012724936         2409 
 3908000    0.6209314    -8.118483    649.22671  0.013843968  0.012720077         2464 
 3909000   0.64181491    -8.119783    650.78721  0.013873693  0.012715216         2462 
 3910000   0.62677369   -8.1040458    649.09339  0.013834045  0.012710359         2484 
 3911000    0.6244188   -8.1072361    648.34635   0.01381459  0.012705494         2430 
 3912000   0.61886494    -8.100244    648.28367  0.013809724  0.012700638         2483 
 3913000   0.61893007   -8.1169187    649.11078  0.013823809   0.01269579         2539 
 3914000   0.62765921   -8.1052676    649.35501  0.013825477   0.01269094         2496 
 3915000   0.62170573   -8.1229681    649.71927  0.013829699  0.012686088         2581 
 3916000   0.62453306   -8.1142352    649.56778  0.013822944  0.012681243         2523 
 3917000   0.61665581   -8.1031057    648.10589  0.013788314  0.012676397         2471 
 3918000   0.62393559   -8.0879814    649.63682  0.013817356  0.012671547         2531 
 3919000   0.62846064   -8.1383935    649.74527  0.013816136   0.01266671         2495 
 3920000   0.62121759   -8.0986671    648.62477  0.013788792  0.012661872         2498 
 3921000   0.62887579    -8.120773    648.48978  0.013782406  0.012657028         2558 
 3922000   0.62173089   -8.1169235    649.81711  0.013807095  0.012652192         2461 
 3923000   0.62872618   -8.1131484    648.91976  0.013784513  0.012647355         2444 
 3924000   0.62292726   -8.1218881    649.21747  0.013787323  0.012642515         2404 
 3925000    0.6239559   -8.1281652    648.05265   0.01375908   0.01263768         2467 
 3926000   0.64285699   -8.1275171    648.72496  0.013769845  0.012632846         2482 
 3927000   0.62188816   -8.1118957    650.22919   0.01379826  0.012628017         2436 
 3928000   0.62847374    -8.111637    648.93103  0.013767206  0.012623184         2479 
 3929000   0.62608822   -8.1242361    648.57014  0.013756048  0.012618353         2503 
 3930000   0.62104088   -8.1194637    649.02608  0.013762216  0.012613526         2488 
 3931000     0.638972   -8.1161091    649.21004  0.013762614    0.0126087         2492 
 3932000   0.62777927   -8.1005657     649.0806  0.013756371  0.012603882         2511 
 3933000   0.63366619   -8.1249971    650.48059  0.013782536   0.01259906         2416 
 3934000   0.63404682   -8.1135329    649.22618  0.013752461   0.01259424         2438 
 3935000   0.61781546   -8.1561262    648.06231  0.013724318  0.012589422         2524 
 3936000    0.6223061   -8.1299537    648.99821  0.013740646  0.012584609         2542 
 3937000   0.62630845   -8.1110326    648.75892  0.013732091  0.012579794         2513 
 3938000   0.62585121    -8.117025    648.99677  0.013733637   0.01257499         2538 
 3939000   0.64031401   -8.1224229      649.455  0.013739845  0.012570185         2504 
 3940000   0.60479863   -8.1291775    649.60178  0.013739462  0.012565383         2423 
 3941000   0.62131893   -8.1314993     648.3339  0.013709166  0.012560579         2552 
 3942000   0.61762538   -8.1376116    648.46913  0.013708548  0.012555774         2490 
 3943000   0.62222756   -8.1232374    647.64676   0.01368769  0.012550974         2441 
 3944000   0.61405311   -8.1450578    648.57067  0.013703741  0.012546176         2545 
 3945000     0.617505   -8.1320838    649.22382  0.013714065  0.012541383         2489 
 3946000   0.63256321   -8.1417448    649.06499  0.013707235  0.012536588         2543 
 3947000   0.62954465   -8.1348932    647.82829  0.013677652  0.012531791         2498 
 3948000    0.6110665    -8.130389    648.31763  0.013684516  0.012527008         2503 
 3949000   0.62627072   -8.1413759    648.37011  0.013682158  0.012522221         2523 
 3950000   0.62022942   -8.1237744    649.10911  0.013694285  0.012517442         2514 
 3951000   0.63402565   -8.1190031    647.45542   0.01365594  0.012512667         2507 
 3952000   0.61754078   -8.0986247    648.76509  0.013680101  0.012507888         2500 
 3953000   0.62321291   -8.1362277    648.98972  0.013681375  0.012503114         2545 
 3954000   0.62323957   -8.1376173    648.23412   0.01366199  0.012498339         2413 
 3955000   0.62400411   -8.1266184    647.77923  0.013648951   0.01249356         2526 
 3956000   0.60741368   -8.1352602    648.32484  0.013656994  0.012488795         2569 
 3957000   0.60771428   -8.1313206    647.93243  0.013645279  0.012484027         2451 
 3958000   0.62160201   -8.1195719     649.2689   0.01366997  0.012479268         2398 
 3959000   0.63424531   -8.1120526    648.52504   0.01365086  0.012474512         2558 
 3960000   0.63189923   -8.1313067    649.50229  0.013667977  0.012469755         2583 
 3961000   0.61578912   -8.1134206    648.08682  0.013634748  0.012464997         2494 
 3962000   0.60806629    -8.140684    648.93643  0.013649176  0.012460239         2493 
 3963000    0.6159443   -8.1549245    648.05594  0.013627217  0.012455486         2486 
 3964000   0.61828179   -8.1239574    649.36868  0.013651377  0.012450733         2511 
 3965000    0.6264482   -8.1431889    648.83372   0.01363669   0.01244598         2513 
 3966000   0.60893926   -8.1342534    649.91405  0.013655952  0.012441241         2516 
 3967000   0.61792077   -8.1218305     649.8124  0.013650374  0.012436502         2477 
 3968000   0.59923159   -8.1327232     648.3241  0.013615677  0.012431769         2549 
 3969000   0.61244269   -8.1321273    648.58083  0.013617637  0.012427035         2569 
 3970000   0.63136415   -8.1403344    649.01777  0.013623379  0.012422297         2553 
 3971000   0.61747708   -8.1400763    648.55825  0.013610305   0.01241756         2483 
 3972000   0.61767535   -8.1304894    649.32971  0.013623064  0.012412821         2468 
 3973000   0.62593881   -8.1277562    649.55561  0.013624373  0.012408093         2353 
 3974000   0.62925631   -8.1313826    648.73705   0.01360378  0.012403363         2514 
 3975000   0.60965827   -8.1299995    648.10306  0.013587066  0.012398634         2431 
 3976000   0.61696462   -8.1515462    648.60317  0.013594131  0.012393905         2621 
 3977000   0.60858401   -8.1164875    648.78954  0.013594618  0.012389171         2550 
 3978000   0.60960114   -8.1462362    648.37128  0.013582438  0.012384445         2524 
 3979000   0.63246049   -8.1442741    648.80352  0.013588077  0.012379713         2508 
 3980000   0.61500635   -8.1130528    647.89513  0.013565643   0.01237499         2466 
 3981000   0.60994236   -8.1457751    648.51288  0.013575167  0.012370273         2479 
 3982000   0.62448313   -8.1329539    648.77365  0.013577215  0.012365555         2526 
 3983000   0.61259569   -8.1556772    648.28109  0.013563501  0.012360837         2535 
 3984000   0.62239645   -8.1619642     647.9385   0.01355293  0.012356126         2515 
 3985000   0.60758048   -8.1564429    647.75214  0.013545632  0.012351413         2561 
 3986000   0.61276924   -8.1481967     648.5763  0.013559464  0.012346697         2506 
 3987000   0.61014455   -8.1268595    648.58844  0.013556317  0.012341993         2545 
 3988000   0.60837685   -8.1576971    648.62587    0.0135537  0.012337288         2542 
 3989000   0.61022305   -8.1477144    648.30678  0.013543636  0.012332574         2529 
 3990000   0.61402312   -8.1481586    647.56692  0.013524789  0.012327868         2513 
 3991000   0.60483004   -8.1334545    649.10318  0.013553478  0.012323164         2486 
 3992000   0.61145448   -8.1475185    648.15608  0.013530312  0.012318458         2536 
 3993000    0.6015507   -8.1313942    648.95256  0.013543546   0.01231376         2500 
 3994000   0.60600491   -8.1604868    648.95402  0.013540186  0.012309058         2494 
 3995000   0.61146488   -8.1324472    647.91602  0.013515144  0.012304365         2547 
 3996000   0.61994096   -8.1208126    648.20603   0.01351781  0.012299673         2552 
 3997000   0.61108088   -8.1326758    648.99752   0.01353093  0.012294987         2575 
 3998000    0.6220958    -8.164596    648.32721  0.013513574  0.012290297         2524 
 3999000   0.62712067   -8.1366929    648.27021  0.013509007   0.01228562         2546 
 4000000   0.60994093   -8.1383517    648.06243  0.013501301  0.012280936         2568 
 4001000   0.60183841     -8.15027    648.23122  0.013501442  0.012276252         2450 
 4002000   0.60366186   -8.1518016    648.24512  0.013498357  0.012271574         2522 
 4003000   0.59125521   -8.1701283    648.12635  0.013492513  0.012266892         2633 
 4004000   0.61053151   -8.1559748    646.50687  0.013455438  0.012262203         2511 
 4005000   0.60817927   -8.1744757    647.93058  0.013481702  0.012257528         2570 
 4006000   0.62490198    -8.155861     649.2485  0.013505752   0.01225285         2529 
 4007000   0.61327399   -8.1432866    647.04597  0.013456575  0.012248181         2514 
 4008000   0.60624318   -8.1764045    648.47861  0.013483005   0.01224351         2579 
 4009000   0.61667645   -8.1555953    648.11253  0.013472032  0.012238842         2469 
 4010000   0.61321241   -8.1521749    648.41029   0.01347486  0.012234179         2503 
 4011000   0.62432902   -8.1682553    649.04297  0.013484646  0.012229516         2526 
 4012000   0.61360039   -8.1560816    648.42136  0.013468373  0.012224854         2456 
 4013000   0.60661389   -8.1560937    647.45624  0.013444975  0.012220193         2530 
 4014000   0.61001698   -8.1452337    647.37867  0.013440015  0.012215546         2500 
 4015000   0.61999458   -8.1584098    648.36117   0.01345706  0.012210893         2456 
 4016000   0.61329514   -8.1523905    648.40275  0.013454572  0.012206249         2541 
 4017000   0.60679268   -8.1493906    647.62527  0.013435094  0.012201603         2568 
 4018000   0.58848324   -8.1418169    648.78471  0.013455797  0.012196957         2463 
 4019000   0.59769898   -8.1434377    648.60849  0.013448795  0.012192313         2566 
 4020000   0.60981617   -8.1633217    646.94529  0.013410972  0.012187672         2513 
 4021000   0.60489873   -8.1614828    647.19204  0.013412751  0.012183029         2556 
 4022000   0.59238501   -8.1599019    647.25919  0.013410807  0.012178387         2551 
 4023000    0.6004213   -8.1592733    648.60807  0.013435415  0.012173752         2521 
 4024000   0.59631696   -8.1616376    647.27007  0.013404367  0.012169122         2588 
 4025000   0.61460825    -8.162115    648.46178   0.01342571  0.012164485         2564 
 4026000   0.62284547   -8.1374938    649.17707  0.013437181   0.01215985         2593 
 4027000   0.61825085   -8.1410829    648.33657  0.013416451   0.01215523         2461 
 4028000   0.61159584   -8.1348301     647.5908  0.013397691  0.012150606         2482 
 4029000   0.60523976   -8.1409863    647.81186  0.013398938  0.012145989         2582 
 4030000   0.61863123   -8.1696768    647.57251  0.013390664   0.01214137         2581 
 4031000   0.61020123   -8.1645382     648.2842  0.013402055   0.01213675         2572 
 4032000   0.60176432   -8.1548375    648.99962  0.013413517  0.012132136         2465 
 4033000   0.61440463   -8.1567976    648.32144  0.013396178  0.012127526         2579 
 4034000   0.60604946   -8.1624124    648.63574   0.01339935  0.012122913         2499 
 4035000   0.59605907   -8.1521546    647.11331  0.013364587    0.0121183         2463 
 4036000   0.60597944   -8.1458253    647.51486  0.013369567  0.012113688         2542 
 4037000   0.59547139   -8.1476923    647.26058  0.013361006  0.012109085         2541 
 4038000   0.61041683   -8.1493296    647.08292  0.013354031  0.012104476         2618 
 4039000   0.59605765   -8.1674899    647.21641  0.013353479   0.01209987         2529 
 4040000   0.60125552   -8.1785787    647.29592  0.013351814  0.012095267         2602 
 4041000   0.60241869   -8.1474413    647.04457  0.013343326  0.012090665         2541 
 4042000   0.60972057   -8.1682681    647.66823  0.013352883  0.012086074         2557 
 4043000   0.62073645   -8.1504214    646.83906   0.01333249  0.012081477         2549 
 4044000   0.61048731    -8.154987    647.81115  0.013349224  0.012076883         2550 
 4045000   0.60473831   -8.1734238     648.0334  0.013350503  0.012072296         2534 
 4046000   0.59863158   -8.1585057    647.73053  0.013340965  0.012067703         2484 
 4047000   0.59754568   -8.1630108    647.57257  0.013334416  0.012063113         2575 
 4048000   0.60905697   -8.1435003    646.58716  0.013310836  0.012058527         2563 
 4049000   0.58862358   -8.1603583    647.87576  0.013334069  0.012053944         2564 
 4050000    0.6154269   -8.1554967    648.25012   0.01333848  0.012049362         2543 
 4051000   0.62033067   -8.1700354     648.1259  0.013332632  0.012044783         2475 
 4052000   0.59630979   -8.1777836    647.55978  0.013317699  0.012040209         2505 
 4053000   0.59920877   -8.1841726    646.69391   0.01329661  0.012035631         2489 
 4054000   0.59856391   -8.1641967    647.20262  0.013303787  0.012031062         2560 
 4055000    0.6094452   -8.1629638    646.78929  0.013292012  0.012026492         2590 
 4056000   0.60635213   -8.1687677    647.09068  0.013294927  0.012021922         2486 
 4057000    0.6120616   -8.1785135    647.41086  0.013298227  0.012017354         2554 
 4058000   0.59737563   -8.1569312    647.85291  0.013304027  0.012012784         2630 
 4059000   0.59856359   -8.1830629     646.8615  0.013280395  0.012008218         2562 
 4060000    0.6004018   -8.1849812    646.60757  0.013271912  0.012003652         2531 
 4061000   0.59220128   -8.1812859    647.27521  0.013282344  0.011999088         2537 
 4062000   0.60446933   -8.1753401    646.82807  0.013269901  0.011994532         2522 
 4063000   0.60456726    -8.154267    647.45695  0.013279534  0.011989974         2627 
 4064000   0.60116032   -8.1680209    647.71322  0.013281521  0.011985419         2543 
 4065000   0.60766997   -8.1890773    647.06501  0.013264965  0.011980865         2561 
 4066000   0.61088909   -8.1681708     646.2798   0.01324561  0.011976312         2508 
 4067000   0.60241068   -8.1779787    647.69141  0.013271277  0.011971766         2597 
 4068000   0.61886859   -8.1627998    647.48278  0.013263741  0.011967218         2579 
 4069000   0.59938849   -8.1701473    646.89545  0.013248453  0.011962671         2565 
 4070000   0.60421072   -8.1785758    646.86079  0.013244488  0.011958124         2604 
 4071000   0.60585203   -8.1653915    645.94279  0.013222443   0.01195358         2592 
 4072000   0.59842801    -8.205949    647.12902  0.013243472  0.011949045         2631 
 4073000    0.5946346   -8.1776973     647.4729  0.013247256  0.011944507         2468 
 4074000   0.59693427   -8.1658647    647.33021  0.013241086  0.011939968         2596 
 4075000   0.60330667   -8.1625321    647.49952  0.013241299   0.01193543         2566 
 4076000   0.60098761   -8.1718335    646.53445   0.01321832  0.011930894         2526 
 4077000   0.59495703    -8.168068    646.23771  0.013209012  0.011926359         2524 
 4078000   0.60298327   -8.1707273    645.71486  0.013195089  0.011921828         2573 
 4079000   0.59457089   -8.1762544     648.1087   0.01324076  0.011917299         2537 
 4080000   0.60548882   -8.1713813    646.90541  0.013212937   0.01191277         2527 
 4081000   0.60571526   -8.1744652    646.68388  0.013205176  0.011908251         2603 
 4082000   0.60361482   -8.1845304     646.3783  0.013195703  0.011903734         2508 
 4083000   0.58631133    -8.182392    646.31086  0.013191094  0.011899218         2549 
 4084000   0.58551296   -8.1657517    647.31991  0.013208454  0.011894701         2573 
 4085000   0.59438571    -8.187001    646.91834  0.013197029  0.011890185         2514 
 4086000   0.59927082   -8.1663736    646.74771  0.013190319  0.011885674         2546 
 4087000   0.61683261   -8.1796806    647.42841  0.013200971  0.011881161         2530 
 4088000   0.61902098   -8.1947558    646.68879  0.013182664  0.011876652         2578 
 4089000   0.59808478   -8.1819197    646.12803  0.013168012  0.011872144         2493 
 4090000    0.6053549   -8.1662166    646.79534  0.013178389  0.011867642         2454 
 4091000   0.59230627   -8.1946951    646.15283   0.01316208  0.011863136         2538 
 4092000   0.59309972   -8.1763096     647.3597  0.013183441  0.011858643         2579 
 4093000   0.58987959   -8.1800654    646.50398  0.013162798  0.011854145         2547 
 4094000   0.60087876   -8.1805017    646.10968  0.013151557  0.011849654         2575 
 4095000    0.5906101    -8.173045    647.15048  0.013169526  0.011845164         2609 
 4096000   0.60097072   -8.1830248    647.63857   0.01317624  0.011840673         2485 
 4097000   0.60614926   -8.1672791    646.47607  0.013149379  0.011836183         2462 
 4098000   0.59391452   -8.1802536    646.50086  0.013146674  0.011831694         2541 
 4099000   0.59069362   -8.1903233    646.78082  0.013149159  0.011827208         2554 
 4100000   0.59885333   -8.1955981    648.17334  0.013174255  0.011822726         2559 
 4101000   0.58650635   -8.1827175    645.86292  0.013124094  0.011818242         2490 
 4102000   0.59019442   -8.1960191     646.8608  0.013141167  0.011813765         2507 
 4103000   0.58984444   -8.1628148    648.03743  0.013161862  0.011809287         2518 
 4104000   0.59145838   -8.1603155    648.06415  0.013159197  0.011804809         2434 
 4105000   0.58640284   -8.1883163     647.5404  0.013145359   0.01180034         2535 
 4106000   0.59627466   -8.1753664    646.90119  0.013129185  0.011795869         2519 
 4107000   0.60388272   -8.1721954    647.44896  0.013137103  0.011791397         2549 
 4108000   0.59483658    -8.161538     646.4597  0.013113837   0.01178693         2516 
 4109000   0.59093004   -8.1917124    646.39945  0.013109423  0.011782465         2545 
 4110000   0.58958713   -8.2003761    645.86727  0.013095443  0.011778006         2504 
 4111000   0.59457699   -8.1985677    647.03333  0.013115895  0.011773543         2474 
 4112000   0.59154331   -8.1773791    646.62743  0.013104479  0.011769084         2496 
 4113000   0.59003068   -8.1777547    646.07247  0.013090049  0.011764624         2544 
 4114000     0.586034    -8.162838    646.46855   0.01309489  0.011760166         2596 
 4115000   0.59811793   -8.1682968    647.09997  0.013104495  0.011755712         2526 
 4116000   0.59857354   -8.1841114    647.08394  0.013100987  0.011751257         2560 
 4117000     0.613445   -8.1931136    646.80084  0.013092074   0.01174681         2625 
 4118000    0.5975123    -8.178498    646.96425  0.013092202  0.011742362         2571 
 4119000   0.60156183   -8.1890717    645.60179  0.013061459  0.011737918         2566 
 4120000   0.58808633   -8.1777713    646.44103  0.013075264  0.011733477         2553 
 4121000    0.5949092    -8.198371    647.16206  0.013086671  0.011729037         2524 
 4122000   0.58288919   -8.1788049    646.85983  0.013077386  0.011724597         2511 
 4123000   0.59337472   -8.1922184    646.98955  0.013076836  0.011720162         2439 
 4124000   0.59369815   -8.2025494    646.23891  0.013058497  0.011715721         2597 
 4125000    0.5957846   -8.1971665    646.71657  0.013064981  0.011711288         2546 
 4126000     0.589833   -8.1823428    646.01225  0.013047589  0.011706855         2560 
 4127000   0.60150558   -8.1902649    646.61112   0.01305652  0.011702428         2561 
 4128000   0.59234365    -8.177345    647.65244  0.013074379  0.011698001         2605 
 4129000   0.58953676   -8.1797646    646.55159  0.013048995  0.011693576         2595 
 4130000   0.58307189   -8.1805658    646.01855   0.01303508  0.011689152         2517 
 4131000   0.58687291   -8.1775493     646.3223  0.013038052   0.01168473         2589 
 4132000   0.58938945   -8.1999072    646.81716  0.013044877  0.011680309         2631 
 4133000   0.57680983   -8.1823618    645.55146    0.0130162   0.01167589         2648 
 4134000   0.58100143   -8.1795238    647.99172  0.013062242  0.011671476         2527 
 4135000   0.60304661   -8.1884096    644.99002   0.01299859  0.011667059         2595 
 4136000   0.59596236   -8.1877684    646.97142  0.013035369  0.011662646         2500 
 4137000   0.58551589   -8.1871281    647.91641  0.013051253  0.011658237         2579 
 4138000   0.59896123   -8.2047774    646.78109  0.013025235  0.011653829         2594 
 4139000   0.58745804   -8.1870008    646.16827   0.01300975  0.011649418         2513 
 4140000   0.58583549     -8.18903    645.95488  0.013002312  0.011645013         2526 
 4141000   0.60100744   -8.1962792     646.7242  0.013014654  0.011640615         2535 
 4142000   0.57834778    -8.188544     646.1777  0.013000517  0.011636216         2580 
 4143000   0.59172026   -8.1697997    645.84098  0.012990606  0.011631818         2479 
 4144000   0.58943141   -8.1953421    646.73407  0.013005431  0.011627424         2562 
 4145000   0.59044231   -8.1931813    645.84754   0.01298447  0.011623029         2597 
 4146000   0.58854798    -8.187455    647.01936  0.013004891  0.011618641         2609 
 4147000   0.59674579   -8.1906298    645.82333  0.012977721  0.011614255         2608 
 4148000   0.60833433   -8.2108474    645.74035  0.012972926   0.01160987         2606 
 4149000   0.59885294   -8.2060202    647.08861  0.012996879  0.011605487         2607 
 4150000   0.59240166    -8.213944    645.65916  0.012965043  0.011601105         2601 
 4151000   0.59058179   -8.2029988    645.73618  0.012963466  0.011596727         2568 
 4152000   0.58642804   -8.1991693    645.76589   0.01296094  0.011592349         2590 
 4153000   0.59640365   -8.2166421    646.39131  0.012970369  0.011587975         2636 
 4154000   0.58526579   -8.1973344    646.45204  0.012968465  0.011583596         2583 
 4155000    0.5860308   -8.1809118    647.92845  0.012994955   0.01157922         2586 
 4156000    0.5855699   -8.1925129    646.28723   0.01295892  0.011574844         2555 
 4157000   0.57628429   -8.1952943    647.45193   0.01297915  0.011570475         2507 
 4158000   0.58122906   -8.2091093     647.7787  0.012982578  0.011566102         2568 
 4159000   0.58339592   -8.2095043    645.78844  0.012939578  0.011561731         2621 
 4160000   0.59294935   -8.1903855     647.0825   0.01296239  0.011557369         2579 
 4161000     0.579376   -8.2127295    645.75469  0.012932682  0.011553006         2650 
 4162000    0.5983366   -8.1912669    645.03498  0.012915165  0.011548645         2643 
 4163000   0.58985904   -8.2043949    646.87456  0.012948886  0.011544286         2571 
 4164000   0.58553112   -8.1973436    645.13217  0.012910906  0.011539927         2642 
 4165000   0.60069192   -8.1777133    647.54508  0.012956084  0.011535576         2564 
 4166000   0.58104323   -8.2158071    645.61592  0.012914385   0.01153122         2621 
 4167000    0.5950884   -8.2014293    646.37885  0.012926543  0.011526868         2614 
 4168000   0.59237892   -8.1825892    646.35569  0.012922978  0.011522518         2541 
 4169000   0.58530441   -8.1880088    646.70742  0.012926909  0.011518169         2591 
 4170000   0.58476004   -8.2056357    645.07236  0.012891134  0.011513829         2590 
 4171000    0.5833347   -8.2012099    647.30878  0.012932726  0.011509483         2529 
 4172000   0.57779506   -8.2206881    646.48262  0.012913124   0.01150514         2597 
 4173000   0.57339207   -8.1959623    645.84131  0.012897222  0.011500798         2625 
 4174000   0.57358283   -8.2093407    646.32933  0.012903876  0.011496456         2562 
 4175000   0.59046936   -8.2272312    646.28441  0.012899888  0.011492119         2578 
 4176000   0.58040254    -8.215635    644.77129  0.012866605  0.011487786         2582 
 4177000   0.58711698   -8.2186574    645.71189   0.01288229   0.01148345         2599 
 4178000    0.5802322   -8.2171001    645.87712  0.012882502  0.011479123         2678 
 4179000   0.59343049   -8.1873977    646.27828  0.012887419  0.011474798         2685 
 4180000   0.58669791   -8.2102405    646.24039   0.01288358  0.011470473         2645 
 4181000   0.58896135   -8.2005245    645.85636  0.012872845  0.011466145         2563 
 4182000   0.59165196   -8.2133732    647.08045  0.012894159  0.011461825         2587 
 4183000   0.57097465   -8.2057637     645.1835  0.012853285  0.011457501         2579 
 4184000   0.58311747   -8.1764609     647.2728  0.012891826  0.011453185         2554 
 4185000   0.59352378   -8.1962881    646.11748   0.01286574  0.011448871         2554 
 4186000   0.58740389   -8.2042398     646.8436  0.012877122  0.011444556         2629 
 4187000   0.58540298   -8.1981586    646.68082  0.012870807  0.011440241         2668 
 4188000   0.59113108   -8.2190118    645.82916  0.012850787  0.011435933         2618 
 4189000   0.57051264    -8.205696    645.18347  0.012834874  0.011431627         2645 
 4190000   0.58609288   -8.2368752    645.28812  0.012833893  0.011427321         2666 
 4191000   0.57730907   -8.2225684    645.87408  0.012842482  0.011423013         2629 
 4192000   0.58067977   -8.2123101    645.55646  0.012833104  0.011418715         2672 
 4193000   0.58173737   -8.1976915    646.84147  0.012855582  0.011414417         2628 
 4194000   0.57032905   -8.2268738    645.08802  0.012817676  0.011410118         2620 
 4195000   0.57164771   -8.2005309    646.49575  0.012842585  0.011405816         2658 
 4196000   0.58577595   -8.2124174    645.50442  0.012819837  0.011401518         2579 
 4197000    0.5695308   -8.2072182    646.08584  0.012828327  0.011397222         2604 
 4198000    0.5797142   -8.2107391     646.2404  0.012828339  0.011392926         2601 
 4199000   0.57182567    -8.226663     646.3488  0.012827435  0.011388635         2648 
 4200000   0.58394642   -8.2300501    644.83375   0.01279432  0.011384345         2649 
 4201000    0.5873304   -8.1979681    646.19896  0.012818356  0.011380059         2634 
 4202000   0.58105947   -8.2102544    646.29918  0.012817293  0.011375772         2732 
 4203000   0.58741083   -8.2263182     645.4674  0.012797752  0.011371487         2588 
 4204000   0.56887519   -8.2210146    645.35044  0.012792389  0.011367206         2676 
 4205000   0.55319918    -8.213799    645.95654  0.012801358  0.011362923         2652 
 4206000   0.59825632   -8.2181511    645.39004  0.012787091  0.011358641         2663 
 4207000   0.58497369   -8.2282641    645.37117  0.012783677  0.011354366         2669 
 4208000   0.57372657    -8.218726    645.06951  0.012774665  0.011350092         2640 
 4209000   0.57438617   -8.2279621    645.32985  0.012776785  0.011345818         2695 
 4210000   0.56801845   -8.2174399    646.23292  0.012791626  0.011341548         2612 
 4211000   0.57651523   -8.2137456    645.62105  0.012776479  0.011337282         2666 
 4212000   0.57112711   -8.2348018    646.14182  0.012783749  0.011333014         2678 
 4213000   0.57716969   -8.2306242     645.6914  0.012771805  0.011328748         2653 
 4214000   0.58079215   -8.2176192    644.96705   0.01275445  0.011324486         2691 
 4215000   0.57300336   -8.1989415    646.68323  0.012785355  0.011320226         2729 
 4216000   0.57973605   -8.2311689    645.48685  0.012758674  0.011315966         2725 
 4217000    0.5739066   -8.2040636    644.98394  0.012745711  0.011311703         2605 
 4218000   0.57733533    -8.236922     644.8192  0.012739434  0.011307444         2616 
 4219000    0.5685011   -8.2424312     644.8854  0.012737722  0.011303186         2614 
 4220000   0.57725183   -8.2370695    644.03622  0.012717935  0.011298935         2649 
 4221000   0.57086356   -8.2261358    644.69286  0.012727886  0.011294683         2625 
 4222000   0.57709338   -8.2185407    646.07306  0.012752113  0.011290439         2633 
 4223000   0.57057103   -8.2544129    644.61031  0.012720229  0.011286198         2671 
 4224000   0.56793747   -8.2329229    645.67337   0.01273819  0.011281958         2676 
 4225000   0.57530929   -8.2203136    646.74108  0.012756234  0.011277714         2640 
 4226000   0.57743191   -8.2210159    645.80643  0.012734785  0.011273471         2684 
 4227000   0.58541167   -8.2246011    645.89579  0.012733534  0.011269235         2697 
 4228000   0.55661985   -8.2199551    645.82554  0.012729138  0.011264999         2623 
 4229000   0.57747765   -8.2296725    645.37005  0.012717152  0.011260769         2638 
 4230000   0.56861717   -8.2245524    644.34185   0.01269389  0.011256545         2652 
 4231000   0.57089517   -8.2223802    645.27952  0.012709358  0.011252317         2603 
 4232000   0.58700116   -8.2331859    645.49812  0.012710659  0.011248088         2724 
 4233000   0.57123808   -8.2116545    644.89391  0.012695762  0.011243861         2724 
 4234000   0.57506383   -8.2458888    646.01516  0.012714832  0.011239635         2666 
 4235000    0.5629189   -8.2371672    645.41099  0.012699941  0.011235411         2668 
 4236000   0.58531754   -8.2254357    645.11674  0.012691154  0.011231191         2644 
 4237000   0.57001638   -8.2292165    645.73464  0.012700312   0.01122697         2630 
 4238000   0.57383203   -8.2438656    645.35429  0.012689836  0.011222756         2720 
 4239000   0.57280843   -8.2289271      645.895  0.012697472   0.01121854         2624 
 4240000   0.57044258    -8.235685    644.50295  0.012667118  0.011214331         2650 
 4241000   0.57801375   -8.2152742    645.09856  0.012675834  0.011210123         2618 
 4242000   0.56308187   -8.2306385    645.17623  0.012674372  0.011205912         2639 
 4243000   0.57336843   -8.2124352    644.71982  0.012662421  0.011201708         2649 
 4244000   0.57833983   -8.2068683    645.45865  0.012673944  0.011197504         2647 
 4245000   0.57294305    -8.237083    645.81532  0.012677961  0.011193297         2668 
 4246000   0.57544451   -8.2457313     644.2984  0.012645203  0.011189093         2681 
 4247000   0.57516658   -8.2332736    644.29362  0.012642132  0.011184891         2669 
 4248000   0.58253554   -8.2329558    646.17867  0.012676135  0.011180691         2670 
 4249000   0.59028906   -8.2401137    644.88002  0.012647682  0.011176493         2635 
 4250000   0.56169771   -8.2297783     645.2664  0.012652282  0.011172296         2745 
 4251000   0.57684273   -8.2217699    644.95606  0.012643222  0.011168105         2690 
 4252000    0.5676225   -8.2275969    645.52094   0.01265132  0.011163915         2697 
 4253000   0.57231984    -8.244417    644.64645   0.01263121   0.01115972         2695 
 4254000    0.5676986   -8.2344405    644.49203  0.012625216   0.01115553         2689 
 4255000   0.56305456   -8.2298152    645.57292  0.012643418  0.011151344         2687 
 4256000   0.58070906    -8.221677    645.10093  0.012631206  0.011147158         2777 
 4257000   0.57327522   -8.2113448    644.90548  0.012624412   0.01114298         2746 
 4258000   0.57856755   -8.2306006    644.85562  0.012620472  0.011138799         2675 
 4259000   0.57210709   -8.2254361    644.74111  0.012615268  0.011134624         2761 
 4260000   0.56957884   -8.2376716    645.07681  0.012618874  0.011130447         2801 
 4261000   0.56266968   -8.2509041    645.63627  0.012626854  0.011126277         2752 
 4262000   0.56515862   -8.2415396    644.76885   0.01260693  0.011122106         2798 
 4263000   0.56788907   -8.2297756    644.51205  0.012598953  0.011117937         2779 
 4264000   0.55947816   -8.2445472    644.10551  0.012588053  0.011113767         2772 
 4265000    0.5656054   -8.2477658    645.63035  0.012614896  0.011109599         2775 
 4266000   0.57207148   -8.2252171    644.05524   0.01258117  0.011105433         2729 
 4267000   0.56854521   -8.2584278    644.56781  0.012588232  0.011101274         2841 
 4268000    0.5713231   -8.2366277    644.96094  0.012592958  0.011097115         2755 
 4269000   0.58217861   -8.2253248    644.10541  0.012573308   0.01109296         2746 
 4270000    0.5655253    -8.224703    645.11713  0.012590108  0.011088804         2731 
 4271000   0.57317155   -8.2461948    644.22825  0.012569817  0.011084647         2814 
 4272000   0.56466148   -8.2587808    644.30203  0.012568314  0.011080496         2854 
 4273000    0.5603498   -8.2347496    644.63109   0.01257179   0.01107634         2773 
 4274000   0.56861886   -8.2359809    646.31866  0.012601752  0.011072189         2801 
 4275000   0.57249356   -8.2328993    644.63453  0.012565975  0.011068038         2821 
 4276000   0.56889099   -8.2408783    645.23298    0.0125747  0.011063893         2823 
 4277000   0.58242001   -8.2246059    644.91742  0.012565611   0.01105975         2785 
 4278000   0.56212298   -8.2477351    644.92921  0.012562903  0.011055613         2841 
 4279000   0.56193567   -8.2242827    645.45987  0.012570302  0.011051476         2761 
 4280000   0.57151092   -8.2316958    645.91083  0.012576145  0.011047344         2806 
 4281000   0.56118103   -8.2194444    645.00753  0.012555624  0.011043215         2840 
 4282000   0.57228152   -8.2395885    645.73782  0.012566905  0.011039085         2834 
 4283000   0.56831834   -8.2382824    644.48007  0.012539499  0.011034954         2769 
 4284000   0.54944297   -8.2545989    645.42253  0.012554905  0.011030826         2820 
 4285000   0.57848028   -8.2438121     643.9116   0.01252259    0.0110267         2778 
 4286000   0.57115602    -8.245936    643.92162  0.012519864  0.011022572         2809 
 4287000   0.56666183   -8.2463661    643.47653  0.012508291  0.011018449         2811 
 4288000   0.56263928   -8.2464137    644.95367  0.012534081  0.011014328         2798 
 4289000   0.56983278   -8.2113953    646.61644  0.012563465  0.011010209         2714 
 4290000   0.55967927   -8.2316789    645.12112   0.01253149  0.011006092         2777 
 4291000   0.57182577   -8.2536192    644.30209  0.012512664  0.011001971         2844 
 4292000   0.57469043   -8.2433206     644.1254  0.012506318  0.010997857         2797 
 4293000   0.56982021   -8.2684066    645.41291  0.012528397  0.010993741         2832 
 4294000   0.56342598   -8.2468333    645.87781  0.012534502  0.010989626         2841 
 4295000   0.55258702   -8.2472227    643.54167  0.012486257  0.010985515         2813 
 4296000   0.57458223   -8.2217102    644.52564  0.012502437  0.010981404         2792 
 4297000   0.56753157   -8.2319785    644.18309  0.012492884  0.010977301         2785 
 4298000   0.56257106   -8.2437126    644.93781  0.012504611  0.010973201         2770 
 4299000   0.56791827   -8.2409501    644.62079  0.012495557  0.010969101         2840 
 4300000   0.56509186   -8.2344079    644.45146  0.012489369  0.010965003         2795 
 4301000   0.56122928   -8.2214477    644.10105  0.012479676  0.010960904         2856 
 4302000   0.55508966   -8.2323115    644.53847  0.012485249  0.010956805         2881 
 4303000   0.56619397    -8.250743    643.96021  0.012471148  0.010952711         2897 
 4304000   0.56296739   -8.2291701    644.84587  0.012485399   0.01094862         2843 
 4305000   0.57461469   -8.2519035    644.30001  0.012471932  0.010944526         2862 
 4306000   0.55382999   -8.2549881    644.50892  0.012473079  0.010940434         2975 
 4307000   0.56356857   -8.2529544    645.92285   0.01249754  0.010936344         2847 
 4308000   0.56394441   -8.2566628    645.34572  0.012483475  0.010932255         2848 
 4309000   0.56199033   -8.2356302    645.10405  0.012475904   0.01092817         2863 
 4310000   0.55473355   -8.2335498    644.16354  0.012454825   0.01092409         2843 
 4311000    0.5691786   -8.2374639    644.68745  0.012462063  0.010920011         2799 
 4312000   0.56837918   -8.2615511    643.76375  0.012441322  0.010915936         2855 
 4313000    0.5621368   -8.2656289    643.59619    0.0124352  0.010911855         2811 
 4314000   0.55063267    -8.259143    645.31298   0.01246548  0.010907782         2856 
 4315000   0.55426658   -8.2603244    643.97012  0.012436657  0.010903706         2748 
 4316000   0.56315918   -8.2361809    643.98871  0.012434135  0.010899635         2842 
 4317000    0.5537289   -8.2486977    644.31806  0.012437612  0.010895567         2783 
 4318000   0.56633451   -8.2396568    643.85413  0.012425778  0.010891499         2824 
 4319000   0.55674177   -8.2527556    644.50167  0.012435395  0.010887435         2836 
 4320000   0.55835063   -8.2364008    643.47777  0.012412766  0.010883369         2903 
 4321000   0.56423979   -8.2502395    643.63711  0.012412966  0.010879315         2834 
 4322000   0.56334601   -8.2416634    644.21645  0.012421264  0.010875254         2870 
 4323000   0.56583499   -8.2528547    644.04831   0.01241515  0.010871197         2809 
 4324000   0.55027992   -8.2574139    644.24453   0.01241606   0.01086714         2854 
 4325000   0.55378265   -8.2559005    645.38037  0.012435075  0.010863083         2855 
 4326000    0.5464753   -8.2521355     643.8215  0.012402171  0.010859027         2900 
 4327000   0.55494561   -8.2609103    643.81745  0.012399227  0.010854973         2859 
 4328000   0.56536874   -8.2565453    643.54786  0.012391171  0.010850924         2846 
 4329000   0.55178063   -8.2489579    645.56064  0.012427055  0.010846873         2818 
 4330000   0.55449797   -8.2545162    643.47527  0.012384051  0.010842827         2831 
 4331000   0.54977081   -8.2581029    643.27827  0.012377401  0.010838784         2859 
 4332000    0.5604369   -8.2548823    643.52187   0.01237923  0.010834743         2855 
 4333000   0.57191982   -8.2583805    643.62476  0.012378351    0.0108307         2849 
 4334000   0.55318096   -8.2575535    643.91548  0.012381085  0.010826661         2889 
 4335000   0.57079626   -8.2670301    642.90468  0.012358798  0.010822624         2898 
 4336000   0.55450376   -8.2591821    643.23064  0.012362213  0.010818587         2779 
 4337000   0.56505862   -8.2568021     643.4801  0.012364155  0.010814558         2838 
 4338000   0.55724405   -8.2527879    644.34023  0.012377828  0.010810522         2828 
 4339000   0.56076022   -8.2609459    645.12894  0.012390123   0.01080649         2890 
 4340000   0.56984234   -8.2427018    644.16041  0.012368671  0.010802461         2857 
 4341000   0.55510274   -8.2566834    645.53624  0.012392234  0.010798434         2897 
 4342000   0.55816146   -8.2496736    642.78179  0.012336515  0.010794403         2878 
 4343000   0.55741574   -8.2490672    644.43311   0.01236536  0.010790381         2925 
 4344000   0.54331812   -8.2532238    643.00179  0.012335056  0.010786361         2804 
 4345000   0.55182705   -8.2564922    643.97485  0.012350879   0.01078234         2910 
 4346000     0.552805   -8.2655135    644.37398  0.012355691  0.010778316         2832 
 4347000   0.54892528   -8.2673701    643.43997  0.012334943  0.010774297         2831 
 4348000   0.55531632   -8.2546057    643.19325  0.012327377  0.010770281         2903 
 4349000   0.55621681   -8.2790397    644.04537  0.012340871  0.010766263         2919 
 4350000   0.55769889   -8.2794256    642.87195  0.012315555  0.010762251         2904 
 4351000   0.55504259   -8.2539088    643.49932   0.01232474  0.010758239         2832 
 4352000   0.55016471   -8.2658625    643.89571  0.012329498  0.010754235         2877 
 4353000   0.56720922   -8.2606582    644.81042  0.012344177  0.010750235         2926 
 4354000   0.55107295   -8.2551071    644.27588  0.012331111  0.010746233         2939 
 4355000   0.55732131   -8.2638079    642.38942  0.012292182  0.010742229         2905 
 4356000   0.55675496   -8.2441682    644.78366  0.012335163  0.010738229         2924 
 4357000   0.55277496   -8.2616722    644.03385  0.012317991  0.010734232         2893 
 4358000   0.54949237   -8.2537379       642.77  0.012290997  0.010730235         2942 
 4359000   0.55121326   -8.2644477    643.48074  0.012301765  0.010726239         2940 
 4360000    0.5602805   -8.2820933    643.16077  0.012292828  0.010722243         3000 
 4361000   0.55746992   -8.2739066    644.36939  0.012313105  0.010718251         2933 
 4362000   0.56236507    -8.269716    643.40635  0.012291883  0.010714259         2845 
 4363000   0.55447383   -8.2718906    643.43158  0.012289548  0.010710272         2992 
 4364000   0.55817168   -8.2707066     644.0339  0.012298234  0.010706285         2925 
 4365000   0.55345059   -8.2620019     644.4035  0.012302472  0.010702303         2962 
 4366000   0.54266671   -8.2710753     644.0226  0.012292384  0.010698325         2836 
 4367000   0.56392258   -8.2706901    644.15101   0.01229202  0.010694345         2869 
 4368000   0.55128561   -8.2687237    643.92995  0.012284988  0.010690365         2814 
 4369000    0.5439089   -8.2856622    643.69721  0.012277737  0.010686386         2826 
 4370000   0.54682639   -8.2694029    643.61901  0.012273436  0.010682412         2897 
 4371000   0.54667505   -8.2674848    643.00271  0.012258879  0.010678444         2874 
 4372000   0.56289194   -8.2753207    644.12764  0.012277517  0.010674476         2854 
 4373000   0.56532803   -8.2627739    643.34206  0.012259739   0.01067051         2864 
 4374000   0.55706893   -8.2475114    643.37477  0.012257559  0.010666545         2814 
 4375000   0.55132526   -8.2629603    643.12662  0.012250031  0.010662583         2887 
 4376000   0.55836472   -8.2540088     644.0461  0.012264741  0.010658623         2861 
 4377000   0.55809921   -8.2675602    643.87692  0.012258718  0.010654664         2815 
 4378000   0.54853956   -8.2656927    643.91326   0.01225661  0.010650707         2833 
 4379000    0.5540866   -8.2650031    643.55185  0.012246933  0.010646753         2912 
 4380000   0.54836262   -8.2767197    642.63144  0.012226625  0.010642797         2908 
 4381000   0.55212447   -8.2720936    644.19252  0.012253529  0.010638841         2917 
 4382000   0.56393278   -8.2579564    644.14003  0.012249734  0.010634892         2890 
 4383000   0.56347124   -8.2657532    643.78265  0.012240145  0.010630945         2899 
 4384000   0.55819105   -8.2729069    642.62917  0.012215427  0.010626999         2899 
 4385000   0.54989459   -8.2617513    644.39071  0.012246118  0.010623052         2920 
 4386000   0.55260234   -8.2729962    642.82908  0.012213655  0.010619109         2870 
 4387000   0.55353278   -8.2808908    644.99363  0.012251988  0.010615167         2923 
 4388000   0.56472918   -8.2885174    643.55364  0.012221848  0.010611226         2916 
 4389000   0.55232249   -8.2829882    644.78625  0.012242467   0.01060729         2912 
 4390000   0.55737319   -8.2808305     644.3871  0.012232101  0.010603353         2901 
 4391000   0.56864715   -8.2812964    642.88386  0.012200787  0.010599415         2958 
 4392000   0.54886018   -8.2844871    643.28424  0.012205606  0.010595482         2994 
 4393000   0.54405745   -8.2650892    643.61747  0.012209148  0.010591554         2968 
 4394000   0.53705968   -8.2694047    643.83009  0.012210402  0.010587624         2937 
 4395000   0.54860532   -8.2721808     643.5756  0.012202799  0.010583699         2898 
 4396000   0.53820435     -8.28072     643.2895  0.012194599  0.010579767         2952 
 4397000   0.54826048   -8.2934338    641.98974  0.012167192   0.01057584         2954 
 4398000     0.545056   -8.2801498    642.83223  0.012180389  0.010571918         2987 
 4399000   0.54385643   -8.2912611    643.89587   0.01219777  0.010567998         2979 
 4400000   0.54763988   -8.2761274    643.31469   0.01218399  0.010564077         2974 
 4401000   0.54292585    -8.273789    643.59683  0.012186564  0.010560162         2904 
 4402000   0.55034408   -8.2775867     643.6737  0.012185251  0.010556245         2923 
 4403000   0.53702867   -8.2761525    642.93971  0.012168592  0.010552329         2958 
 4404000   0.54548401   -8.2915475    642.70445  0.012161377  0.010548417         2913 
 4405000   0.53847888   -8.2710855    643.21026  0.012168185  0.010544505         2918 
 4406000   0.53747693   -8.2909524    642.83262  0.012158281  0.010540596         2904 
 4407000   0.54945513   -8.2660666    642.66006  0.012152259  0.010536687         2918 
 4408000   0.55558837   -8.2756595    643.38426  0.012163193  0.010532784         2904 
 4409000   0.53783897   -8.2689961    643.82288  0.012168725  0.010528876         2958 
 4410000   0.54330818    -8.293895    643.12527  0.012152783  0.010524972         3016 
 4411000   0.53834225   -8.2806806      642.139  0.012131395  0.010521073         2922 
 4412000   0.53907661   -8.2939749    643.25199  0.012149667  0.010517169         3067 
 4413000   0.55065804   -8.2926051    642.68597  0.012136226  0.010513273         2985 
 4414000   0.55240952   -8.2953472    644.06423  0.012159497  0.010509379         2995 
 4415000   0.54675252   -8.2950053    643.57608  0.012147529  0.010505486         2902 
 4416000   0.54382122   -8.2774225    643.62174   0.01214564  0.010501593         2959 
 4417000   0.53652079   -8.2885997     643.2561  0.012135992  0.010497704         2953 
 4418000   0.55111087   -8.2696005    642.88157   0.01212618  0.010493813         2903 
 4419000   0.54154167   -8.2814671    643.22955  0.012129998  0.010489931         2914 
 4420000    0.5429458   -8.2976865    643.23363  0.012127331  0.010486044         2956 
 4421000   0.53969777   -8.2792146     644.0061  0.012139148   0.01048216         2979 
 4422000   0.54053819   -8.2804997    643.38146  0.012124632  0.010478282         2960 
 4423000   0.54511171   -8.2694677    643.21125  0.012118684  0.010474402         2922 
 4424000   0.54757576   -8.2918442    643.24164  0.012116517  0.010470526         2919 
 4425000   0.54499365   -8.2811362     643.7544  0.012123435  0.010466646         2915 
 4426000   0.54582434   -8.2876921    643.28396  0.012111838  0.010462769         2930 
 4427000   0.54385782   -8.2643222    643.75363  0.012117944    0.0104589         2956 
 4428000   0.54914961   -8.2917727     642.8507  0.012098214  0.010455028         2905 
 4429000   0.54082885   -8.2989658    642.23684  0.012083932  0.010451159         2946 
 4430000   0.54027677   -8.2772737     643.5133  0.012105216  0.010447292         2893 
 4431000   0.55328732   -8.2951207    643.41852  0.012100702  0.010443427         2910 
 4432000   0.53166903   -8.2864314    643.26266  0.012095041  0.010439559         2952 
 4433000   0.53726882   -8.2778728    643.55003  0.012097715    0.0104357         2944 
 4434000   0.54518074   -8.2845607    641.72805  0.012060744  0.010431839         2912 
 4435000   0.53955744    -8.295683    642.73355  0.012076917  0.010427982         2938 
 4436000    0.5424388   -8.3021547    642.70388  0.012073638  0.010424122         2940 
 4437000    0.5283826   -8.2909615    642.07809  0.012059163  0.010420266         2897 
 4438000   0.54777729   -8.2996257    642.37224  0.012061969  0.010416411         2919 
 4439000   0.54102924   -8.2907833    641.96497  0.012051606  0.010412556         2981 
 4440000   0.53453778   -8.2920013    642.93273  0.012067056  0.010408703         2973 
 4441000   0.54992308   -8.3066818    642.09575  0.012048633  0.010404851         2923 
 4442000   0.55319803   -8.2888875    642.08014  0.012045628  0.010401006         2945 
 4443000   0.53281233   -8.3013781    642.40309  0.012048974  0.010397161         2934 
 4444000   0.54009364   -8.3104148    642.45839    0.0120473  0.010393317         2982 
 4445000   0.54182769   -8.2922795    642.71493  0.012049399  0.010389476         2909 
 4446000   0.54753579   -8.2975699    641.67973  0.012027285  0.010385635         2948 
 4447000   0.54739236    -8.293072     643.1346  0.012051844  0.010381793         2956 
 4448000   0.55010493    -8.285585    642.33562  0.012034166  0.010377961         2933 
 4449000    0.5440811   -8.2795719    642.46693   0.01203392  0.010374127         2994 
 4450000   0.54401546   -8.2728561    643.96106  0.012059196  0.010370295         2908 
 4451000    0.5362426   -8.2893512    643.44446  0.012046815  0.010366468         2924 
 4452000   0.55056484   -8.2986333    643.64162  0.012047799  0.010362639         2985 
 4453000   0.53297089   -8.2827967    642.34587  0.012020845  0.010358815         2982 
 4454000   0.54743557   -8.3046988    643.42704  0.012038375  0.010354989         2944 
 4455000   0.54750831    -8.297772    641.44647  0.011998625  0.010351164         2972 
 4456000   0.53460586   -8.2965522    642.44719  0.012014647  0.010347345         2935 
 4457000    0.5432503     -8.30689    643.49748  0.012031589  0.010343523         2969 
 4458000   0.53589596   -8.3073843    642.55022  0.012011183  0.010339701         2969 
 4459000   0.54479809   -8.2988426    642.35671  0.012004872  0.010335883         3025 
 4460000   0.53901694   -8.2932327    642.97875  0.012013803  0.010332061         2950 
 4461000   0.55395407   -8.3038224    642.25747  0.011997636  0.010328249         2970 
 4462000   0.54800367   -8.2932826    642.51833  0.011999819  0.010324436         3006 
 4463000   0.52818456   -8.3030775     642.8212  0.012002786  0.010320624         3032 
 4464000   0.54091419   -8.3081211    642.30085  0.011990383  0.010316815         2977 
 4465000   0.53556636   -8.2805416    643.37717  0.012007786  0.010313009         2947 
 4466000   0.54189545   -8.3113304    642.86109  0.011995467  0.010309206         2953 
 4467000   0.53922467    -8.297339    641.85191  0.011973955  0.010305407         2932 
 4468000   0.54139602   -8.3124793    642.54547  0.011984211  0.010301608         3035 
 4469000   0.53849863   -8.2876658    643.52904   0.01199987  0.010297811         2935 
 4470000   0.53917246   -8.2819265    643.39874  0.011994756  0.010294016         2899 
 4471000   0.53813583   -8.2930055    642.73486    0.0119797  0.010290222         2974 
 4472000   0.53446137   -8.2987889     642.1492  0.011966108  0.010286427         2988 
 4473000   0.53956027   -8.2890339    642.64855  0.011972735  0.010282637         2995 
 4474000   0.54666945   -8.2868022    642.16763  0.011961102  0.010278847         2962 
 4475000   0.53527421   -8.2991348    642.17794  0.011958621  0.010275058         2962 
 4476000   0.52660584   -8.2855189    643.79648  0.011986083  0.010271271         2989 
 4477000   0.55201503   -8.3048344    642.43117  0.011957992  0.010267486         2930 
 4478000   0.54020829   -8.3006056    641.94057  0.011946192  0.010263705         2945 
 4479000   0.53863865   -8.2970531    642.93511  0.011962029  0.010259922         2958 
 4480000   0.53713851   -8.3104484    642.94703   0.01195958  0.010256144         2888 
 4481000     0.528202    -8.299971    642.19114  0.011942854  0.010252368         2921 
 4482000   0.51946821   -8.2863364    642.21108   0.01194056  0.010248594         2948 
 4483000   0.52986737   -8.3146585    642.20661  0.011937813  0.010244816         3001 
 4484000   0.53231597   -8.2939081     642.4803  0.011940237  0.010241042         2974 
 4485000   0.53002975   -8.3181282    643.02541  0.011947704  0.010237271         3045 
 4486000   0.53501256   -8.2853665    643.25475  0.011949301  0.010233501         2976 
 4487000   0.53121928   -8.2907874    642.07622   0.01192475  0.010229732         2962 
 4488000   0.52954772   -8.3014334    642.41019  0.011928294  0.010225969         2971 
 4489000   0.54629131   -8.2988098    642.39777  0.011925406  0.010222208         2950 
 4490000   0.53615905   -8.2982136    642.42423  0.011923241  0.010218447         2964 
 4491000   0.52993225   -8.3084002    643.16716  0.011934372  0.010214688         2951 
 4492000   0.53157598    -8.295511     642.5487  0.011920242  0.010210929         2911 
 4493000   0.53629646   -8.2907261    642.48284  0.011916367  0.010207174         2904 
 4494000   0.53169759   -8.3016203    641.38928  0.011893437  0.010203419         2984 
 4495000   0.53236793   -8.2963934    642.57439  0.011912762  0.010199668         2966 
 4496000   0.53677236    -8.300169    640.47355  0.011871173  0.010195916         3006 
 4497000   0.54197687   -8.3153152    641.71522  0.011891543  0.010192171         2925 
 4498000   0.53461219   -8.2914496    642.40326  0.011901646  0.010188423         2944 
 4499000   0.54265482   -8.3068072    642.39898  0.011898922  0.010184678         2974 
 4500000   0.53367779   -8.3209522    641.37914  0.011877391  0.010180931         3004 
 4501000   0.53467509   -8.2976469    642.13774  0.011888798  0.010177188         3032 
 4502000   0.54484902   -8.3098648    641.27946   0.01187027  0.010173446         2903 
 4503000   0.51703115   -8.2906356    643.40746  0.011907015  0.010169706         2883 
 4504000   0.53120988   -8.3145603    641.58187  0.011870594   0.01016597         3001 
 4505000   0.51559831   -8.2954239    641.05562  0.011858225  0.010162233         2958 
 4506000    0.5214341   -8.3031555    642.48923  0.011882106    0.0101585         3028 
 4507000   0.53228535   -8.3172843    642.25474  0.011875134  0.010154771         2968 
 4508000   0.52945651   -8.3080342    642.63814  0.011879587  0.010151037         3044 
 4509000   0.52785832   -8.3115781     642.4954  0.011874314  0.010147306         2963 
 4510000   0.53793114   -8.3190235    642.55422  0.011872768  0.010143577         2992 
 4511000   0.53135898   -8.3264754    642.67441  0.011872357  0.010139849         3050 
 4512000   0.52457062   -8.3018781    642.20128  0.011860987  0.010136123         2980 
 4513000   0.52220691   -8.3211485    641.17522  0.011839412  0.010132398         2999 
 4514000   0.52909781   -8.3087166    641.31672  0.011839402  0.010128678         3023 
 4515000   0.54065536   -8.3191312    643.62168  0.011879322   0.01012496         2988 
 4516000   0.53195728   -8.3039267    643.14002  0.011867804  0.010121241         3027 
 4517000   0.53394182   -8.3012539    642.02645  0.011844632  0.010117527         2968 
 4518000   0.53684563   -8.2948729    642.47607  0.011850304  0.010113814         2972 
 4519000   0.52672198   -8.2997493    642.10708  0.011840877  0.010110107         2905 
 4520000   0.52355202   -8.3069186    642.05519  0.011837301  0.010106394         2965 
 4521000   0.52765209   -8.2924127    641.95842  0.011832899  0.010102685         2955 
 4522000   0.52787234   -8.3013526     642.9267  0.011848126  0.010098981         2962 
 4523000   0.54146711   -8.3037313    642.71978  0.011841694  0.010095279         2928 
 4524000   0.52468609   -8.3065692    641.35957  0.011814021  0.010091574         2957 
 4525000   0.53453485   -8.3255238    641.43867  0.011812867  0.010087873         2893 
 4526000   0.52177408   -8.2928434    641.38455   0.01180926  0.010084173         3021 
 4527000   0.52592055   -8.3220259    641.22719  0.011803755  0.010080475         3017 
 4528000   0.52425622   -8.3145299    642.83749  0.011830784   0.01007678         2919 
 4529000   0.52355701   -8.2963608    642.36283  0.011819438  0.010073086         2922 
 4530000   0.51974611    -8.305208    642.97293  0.011828052  0.010069396         2981 
 4531000   0.53250025   -8.3246899    641.76089   0.01180315  0.010065704         2913 
 4532000   0.52886471   -8.3232471    641.70907  0.011799593  0.010062018         2955 
 4533000   0.52997429   -8.3227707    643.04115  0.011821479  0.010058335         2971 
 4534000   0.51924796   -8.3223211    642.09935  0.011801561  0.010054647         2895 
 4535000   0.52838262   -8.2956656    641.97676  0.011796706  0.010050967         2935 
 4536000   0.52501416   -8.3023889    641.75868  0.011790099  0.010047284         2953 
 4537000   0.52024959   -8.3031927     642.6401   0.01180369  0.010043601         2981 
 4538000   0.52412057   -8.3104443    642.27106  0.011794312  0.010039923         2857 
 4539000   0.53028836   -8.3043975    642.59735  0.011797704  0.010036245         2952 
 4540000   0.52542233   -8.3229133    641.57068  0.011776261  0.010032571         2987 
 4541000   0.52964352    -8.324076      643.068  0.011801145  0.010028898         2994 
 4542000   0.53447383   -8.3124436     641.0572  0.011761654  0.010025225         2937 
 4543000   0.52398208   -8.3132734    641.69301  0.011770728  0.010021558         2923 
 4544000   0.53278358   -8.3090325    642.06112  0.011774889  0.010017891         2999 
 4545000   0.52565752   -8.3184909    642.34279  0.011777462  0.010014223         2978 
 4546000   0.53119844   -8.3098105    642.30817  0.011774237  0.010010558         3047 
 4547000   0.52594096   -8.3105571    642.23549  0.011770315  0.010006898         2871 
 4548000   0.52451862   -8.3312211    641.26947  0.011750027  0.010003234         2965 
 4549000   0.52917745   -8.3341696    641.44584  0.011750675 0.0099995776         2968 
 4550000   0.52547384   -8.3271489     642.5975  0.011769185 0.0099959245         2970 
 4551000   0.51094566   -8.3079115    641.80246  0.011752041 0.0099922698         2979 
 4552000    0.5217395   -8.3117057     642.6865  0.011765643 0.0099886151         2933 
 4553000   0.52090731   -8.3259255    642.33432  0.011756613 0.0099849619         2961 
 4554000   0.52022399   -8.3224212    641.79137  0.011744096 0.0099813112         2970 
 4555000   0.52812503   -8.3108086    641.57801  0.011737614 0.0099776594         2993 
 4556000   0.52033035   -8.3353381    640.71101   0.01171918 0.0099740092         2987 
 4557000    0.5197035   -8.3163058    641.96374  0.011739517 0.0099703606         2922 
 4558000   0.51436604    -8.318653    641.52142  0.011728854 0.0099667163         2979 
 4559000   0.52114531   -8.3107487    641.49524  0.011725803 0.0099630712         3008 
 4560000   0.52211379   -8.3268697    640.89051   0.01171218 0.0099594272         3015 
 4561000   0.52405002    -8.311548    641.96515  0.011729247 0.0099557877         3026 
 4562000   0.52388867   -8.3219903    641.67403  0.011721358 0.0099521505         2965 
 4563000    0.5288068   -8.2998038    640.61001  0.011699357 0.0099485174         2918 
 4564000   0.51759488   -8.3311893    641.34279  0.011710174  0.009944888         2966 
 4565000    0.5235915   -8.3279105    641.70838  0.011714282 0.0099412559         2951 
 4566000   0.50873282   -8.3136131    641.57832  0.011709343 0.0099376236         2950 
 4567000   0.53040855   -8.3244188    640.61931   0.01168928 0.0099339972         2876 
 4568000   0.53241471   -8.3435541    641.40719  0.011701094 0.0099303688         3019 
 4569000   0.51406909   -8.3102596    642.07525  0.011710718 0.0099267456         2983 
 4570000   0.51189172   -8.3145562    642.26811  0.011711672  0.009923122         2917 
 4571000   0.52412679   -8.3155494    642.34066  0.011710433 0.0099195029         2890 
 4572000     0.523998    -8.328166    642.49466  0.011710678 0.0099158841         2878 
 4573000   0.51423406   -8.3161749    641.13574  0.011683354 0.0099122641         2905 
 4574000   0.52394216   -8.3342405    642.20248  0.011700235 0.0099086476         2846 
 4575000    0.5150858   -8.3219091    641.73432   0.01168915 0.0099050347         2886 
 4576000   0.51428647   -8.3376956    641.40277  0.011680557 0.0099014236         2924 
 4577000   0.51139376    -8.329644    641.76328  0.011684569 0.0098978104         3004 
 4578000   0.51898923   -8.3196815    641.46626   0.01167661 0.0098942011         2895 
 4579000   0.50641365   -8.3366442    642.16118  0.011686707 0.0098905933         2912 
 4580000   0.51956085   -8.3177478    642.86848  0.011697025 0.0098869885         2931 
 4581000   0.50749453   -8.3264427    642.18948   0.01168212 0.0098833858         3014 
 4582000   0.51879145   -8.3310917    641.09822  0.011659723 0.0098797836         2893 
 4583000   0.51353732   -8.3340384    640.76592  0.011651137 0.0098761834         2942 
 4584000   0.51487602   -8.3153911    641.22422  0.011656927 0.0098725824         2962 
 4585000   0.51035756   -8.3086644    641.29201  0.011655616 0.0098689826         2987 
 4586000   0.51857189    -8.317512    641.71681  0.011660794 0.0098653868         2970 
 4587000   0.53402673   -8.3361598    641.27372  0.011650202 0.0098617923         2896 
 4588000   0.52472386   -8.3344795    640.75631  0.011638265 0.0098582036         2927 
 4589000   0.51920451   -8.3226621    641.62663  0.011651533 0.0098546164         2920 
 4590000    0.5208969   -8.3282838    642.31444  0.011661482 0.0098510228         2991 
 4591000   0.51336874   -8.3309741    641.61872  0.011646314  0.009847434         2984 
 4592000   0.52071095   -8.3195635    641.57954  0.011643067 0.0098438452         2987 
 4593000   0.51171866   -8.3328735    643.27902  0.011671366 0.0098402605         3062 
 4594000   0.50844258   -8.3346986     642.5681   0.01165593 0.0098366756         2898 
 4595000   0.51240931   -8.3254459    641.55814  0.011635077  0.009833094         2919 
 4596000   0.51087465   -8.3275379    641.33675  0.011628531  0.009829513         2963 
 4597000   0.51890145   -8.3265342    642.18781  0.011641429 0.0098259318         2923 
 4598000   0.51053271   -8.3296793    641.30808  0.011622953 0.0098223562         2935 
 4599000   0.52414702   -8.3159764    640.79228   0.01161108 0.0098187793         3004 
 4600000   0.50530583   -8.3268126    640.86225  0.011609823  0.009815208         2985 
 4601000   0.51691409   -8.3369812    640.69551   0.01160428  0.009811635         2948 
 4602000   0.51118634   -8.3277696    641.26086  0.011611996 0.0098080663         2935 
 4603000   0.51203195   -8.3389579    642.06252  0.011623987 0.0098044997         2947 
 4604000   0.50680574   -8.3338247    639.94927  0.011583212 0.0098009353         2966 
 4605000   0.51288468    -8.319301    641.32021  0.011605505 0.0097973709         2944 
 4606000   0.49443498   -8.3269666    641.87829  0.011613082 0.0097938073         2978 
 4607000    0.5274105   -8.3239334    641.48219  0.011603397 0.0097902472         2898 
 4608000   0.52353432   -8.3178456     641.6453  0.011603828 0.0097866884         2993 
 4609000   0.51212885    -8.330901    641.21464  0.011593524 0.0097831283         2955 
 4610000   0.50009953   -8.3268332    641.38555  0.011594099   0.00977957         2944 
 4611000   0.50768722   -8.3334548    640.58513  0.011577119 0.0097760145         2967 
 4612000   0.51425389   -8.3193025    641.90684   0.01159849 0.0097724595         2955 
 4613000   0.51140532   -8.3425556    640.94656  0.011578628 0.0097689062         2926 
 4614000   0.51673984   -8.3398939    640.88115  0.011574938 0.0097653562         2991 
 4615000   0.51750016   -8.3316039    642.28318  0.011597746 0.0097618093         2967 
 4616000   0.51572301   -8.3394574    640.98111  0.011571727 0.0097582655         2959 
 4617000    0.5173365   -8.3280714    642.19147  0.011591067 0.0097547219         2890 
 4618000   0.51047122   -8.3071874    642.17206  0.011588207 0.0097511777         2985 
 4619000   0.50891384   -8.3405148    640.83199  0.011561521 0.0097476365         2966 
 4620000   0.51455535   -8.3300869    640.57124  0.011554315 0.0097440956         2925 
 4621000   0.50070841    -8.334374    641.53358  0.011569169 0.0097405587         2905 
 4622000   0.51930702   -8.3508279    641.58773  0.011567643  0.009737023         2959 
 4623000   0.51546469   -8.3381718    641.51868  0.011563896 0.0097334877         2946 
 4624000   0.50590634   -8.3419936    641.04268  0.011552816 0.0097299557         2978 
 4625000   0.52741668   -8.3434171    641.24566  0.011553976 0.0097264227         2957 
 4626000   0.51623406   -8.3410752    641.39275  0.011554128 0.0097228944         2986 
 4627000   0.49966841   -8.3447374    640.78381  0.011540664 0.0097193662         2960 
 4628000   0.50289317   -8.3425163    642.31036  0.011565658  0.009715837         3005 
 4629000   0.51887414   -8.3343184    640.98109  0.011539229  0.009712311         2928 
 4630000   0.50786813   -8.3267297    641.21974  0.011541032 0.0097087855         3014 
 4631000   0.50320513   -8.3376438    641.22666  0.011538664 0.0097052664         2948 
 4632000   0.50957792    -8.343162    640.53657  0.011523758 0.0097017462         2936 
 4633000   0.50838049   -8.3359959    641.92393  0.011546225  0.009698225         2911 
 4634000   0.51926508   -8.3301493    641.51075  0.011536303 0.0096947105         2932 
 4635000   0.50757451   -8.3282589    641.69219  0.011537076 0.0096911973         2937 
 4636000    0.5077963   -8.3332874    640.38747  0.011511135 0.0096876851         2993 
 4637000   0.51171337   -8.3276124    641.09387  0.011521348 0.0096841708         2974 
 4638000   0.49979324   -8.3495174    640.93297  0.011515973 0.0096806598         2911 
 4639000   0.50793681   -8.3496918     641.0673  0.011515903 0.0096771491         3021 
 4640000    0.5031204   -8.3379578    641.29677  0.011517543 0.0096736406         2998 
 4641000   0.50965841   -8.3465705      641.695  0.011522212 0.0096701363         3019 
 4642000   0.51661143   -8.3315206    641.33712  0.011513305 0.0096666333         2939 
 4643000   0.51909549   -8.3476541    641.91845  0.011521259 0.0096631334         2974 
 4644000   0.49558446   -8.3354104    640.91386  0.011500751 0.0096596335         2989 
 4645000   0.51241157   -8.3274709    640.80933    0.0114964 0.0096561366         2924 
 4646000    0.5203978   -8.3444634    641.30353   0.01150279 0.0096526403         3005 
 4647000   0.51600437   -8.3453199    641.64109  0.011506368 0.0096491445         2981 
 4648000    0.5075158   -8.3327505    640.79268  0.011488681 0.0096456553         2933 
 4649000   0.50043787   -8.3455218    641.03344  0.011490526 0.0096421625         3045 
 4650000   0.50788937   -8.3486517    641.61168  0.011498417 0.0096386734         2974 
 4651000   0.50539507   -8.3238499    641.89939    0.0115011 0.0096351877         2930 
 4652000   0.51006821   -8.3551821    640.55466  0.011474539 0.0096317049         3024 
 4653000    0.5048201   -8.3634178     640.6221  0.011473281 0.0096282212         2993 
 4654000   0.51398643   -8.3239553    640.91403  0.011476043 0.0096247399         2971 
 4655000   0.51363686   -8.3272077    641.91296   0.01149146 0.0096212616         2957 
 4656000   0.52097504   -8.3309278     640.2104  0.011458519 0.0096177873         2996 
 4657000   0.50685302   -8.3338842    641.06686  0.011471385 0.0096143084         3015 
 4658000   0.50836072   -8.3340278    641.17724  0.011470897 0.0096108303         2990 
 4659000   0.51610847   -8.3423729    640.10939  0.011449335 0.0096073558         2969 
 4660000   0.51034949    -8.341741    641.16821  0.011465812 0.0096038817         2962 
 4661000    0.5154665   -8.3426592    641.04684  0.011461182 0.0096004116         2977 
 4662000   0.51887532   -8.3385095     640.7818  0.011453986 0.0095969417         2991 
 4663000   0.50712276   -8.3446514    640.26129  0.011442228 0.0095934727         2999 
 4664000   0.50063635   -8.3569358    641.40474  0.011460205 0.0095900043         2981 
 4665000   0.50660744   -8.3485298    640.98171  0.011450191 0.0095865403         2912 
 4666000   0.50778164   -8.3560507    641.11955  0.011450199 0.0095830774         2892 
 4667000   0.50371156   -8.3330234    641.63347  0.011456922 0.0095796169         2945 
 4668000   0.50353068   -8.3341493     641.2098  0.011446904 0.0095761566         2963 
 4669000   0.49551832   -8.3420178    640.67617  0.011434928 0.0095726985         3015 
 4670000   0.51316302   -8.3395615    639.78548  0.011416586 0.0095692394         2919 
 4671000   0.50225075   -8.3338296    640.39994  0.011425104 0.0095657862         2976 
 4672000   0.50703804   -8.3442998    640.70904  0.011428172 0.0095623297         2980 
 4673000   0.50717216   -8.3418439    641.18409  0.011434198 0.0095588757         2975 
 4674000   0.50735126   -8.3291307    642.42518  0.011453879 0.0095554259         3048 
 4675000   0.50451547   -8.3675332     640.4002  0.011415333 0.0095519742         2977 
 4676000   0.50153791   -8.3510067    640.10459  0.011407624 0.0095485243         3000 
 4677000   0.50548624    -8.349213    642.03972  0.011439664 0.0095450761         3039 
 4678000   0.49375182   -8.3514084    640.67879  0.011412975 0.0095416281         2979 
 4679000   0.50768124   -8.3287349    640.38499  0.011405304 0.0095381862         2912 
 4680000   0.49522938   -8.3521369     641.6928  0.011426154 0.0095347425         3032 
 4681000   0.48627995   -8.3544885    640.17312  0.011396659 0.0095313019         3044 
 4682000    0.4943986   -8.3629067     641.0554  0.011409928 0.0095278613         3024 
 4683000   0.49689002   -8.3486666    641.42766  0.011414116  0.009524423         2982 
 4684000   0.51015383   -8.3595768    640.60843  0.011397104 0.0095209861         3026 
 4685000   0.49021995   -8.3663184    640.31179  0.011389395 0.0095175509         2993 
 4686000   0.50325515   -8.3458162    640.54491   0.01139111 0.0095141163         2996 
 4687000   0.50514823   -8.3431973    640.51605  0.011388167 0.0095106815         3013 
 4688000   0.49526527    -8.343656     640.5099  0.011385628 0.0095072494         2998 
 4689000   0.49942439   -8.3620802    641.33065  0.011397786 0.0095038178         3073 
 4690000   0.50251819   -8.3513702    641.17765  0.011392638 0.0095003883         3010 
 4691000   0.51011637   -8.3562187    640.06887  0.011370512  0.009496958         3031 
 4692000   0.49695859   -8.3494888    640.11871  0.011368974 0.0094935326         3000 
 4693000   0.50317113   -8.3433801    640.47303  0.011372843 0.0094901115         2952 
 4694000   0.51367747   -8.3510768    640.90099  0.011378018 0.0094866893         3005 
 4695000   0.49659899    -8.345969    640.80381   0.01137387 0.0094832703         3002 
 4696000    0.5002392   -8.3484756    639.93483  0.011356027  0.009479852         2969 
 4697000   0.49377128    -8.349483    640.49895  0.011363618 0.0094764349         2981 
 4698000   0.48859708   -8.3621011     639.9547  0.011351545 0.0094730176         2954 
 4699000   0.50494856   -8.3403914    640.85672  0.011365126 0.0094696042         3010 
 4700000   0.49743124   -8.3610575      640.225  0.011351507 0.0094661936         2898 
 4701000   0.49029186   -8.3454362    641.13024  0.011365139 0.0094627834         2993 
 4702000   0.50501117   -8.3432383    641.58498  0.011370782 0.0094593741         2962 
 4703000   0.50455926   -8.3642173    641.56253  0.011367966  0.009455968         3000 
 4704000   0.50492923   -8.3616419    641.33179  0.011361462  0.009452562         2931 
 4705000   0.50135434   -8.3618092    640.90574  0.011351501 0.0094491571         3068 
 4706000   0.49250247    -8.362241    640.15498  0.011335794 0.0094457525         3062 
 4707000   0.50212553   -8.3672471    640.02771  0.011331133 0.0094423509         3006 
 4708000    0.4909448   -8.3640939    640.04365  0.011329008 0.0094389494         3017 
 4709000   0.49383639   -8.3451074    640.17339  0.011328898 0.0094355512         3043 
 4710000   0.50186101   -8.3612505    640.47544  0.011331837 0.0094321523         3050 
 4711000   0.49297497   -8.3719032    639.51997   0.01131253 0.0094287552         2959 
 4712000   0.49609912   -8.3475808     640.6504  0.011330122 0.0094253606         2975 
 4713000   0.49320535    -8.357352    640.69102  0.011328436 0.0094219684         3023 
 4714000   0.49750763   -8.3657642    640.75552  0.011327173 0.0094185771         3050 
 4715000   0.50370754   -8.3766048    640.29073  0.011316556 0.0094151863         2983 
 4716000   0.49096128   -8.3582278    640.55781  0.011318876  0.009411801         3051 
 4717000   0.51226933   -8.3749632    640.09882  0.011308367 0.0094084155         2974 
 4718000   0.48985167   -8.3637207    640.58453  0.011314549 0.0094050286         3017 
 4719000   0.49171545   -8.3529356    640.58834  0.011312219 0.0094016466         3046 
 4720000   0.50422761   -8.3641217    640.28462   0.01130446 0.0093982612         2998 
 4721000   0.50138145    -8.354441    639.82363  0.011293928 0.0093948829         3028 
 4722000   0.50777844     -8.35711    640.77606  0.011308345  0.009391504         3008 
 4723000    0.4893603   -8.3448576    639.16716  0.011277563 0.0093881243         3004 
 4724000   0.50634996    -8.370219    640.81119  0.011304177 0.0093847482         2991 
 4725000   0.48946425   -8.3475891    640.77861   0.01130121 0.0093813727         3030 
 4726000   0.50277244   -8.3694667    639.60162  0.011278065 0.0093779963         3006 
 4727000   0.50036172    -8.374068    639.96828  0.011282143 0.0093746227         2940 
 4728000    0.4975817   -8.3444523     640.2619  0.011284932 0.0093712509         2973 
 4729000   0.49132456   -8.3682057    641.71636  0.011308176 0.0093678827         2953 
 4730000   0.49787986    -8.365238    640.96328  0.011292517 0.0093645151         2952 
 4731000   0.49586391   -8.3605064    640.88207    0.0112887 0.0093611488         2950 
 4732000   0.48322002   -8.3681261    640.35264  0.011276991 0.0093577824         3020 
 4733000   0.49668703   -8.3673446    640.14836  0.011271011 0.0093544192         3020 
 4734000    0.5083096   -8.3817224    640.33686  0.011271949  0.009351059         3034 
 4735000   0.49920992   -8.3566135    640.59573  0.011274124 0.0093476991         3036 
 4736000   0.50166324   -8.3675469    640.28401  0.011266259 0.0093443416         3079 
 4737000   0.49851626   -8.3596485    640.50632  0.011267791 0.0093409842         3053 
 4738000   0.49269545   -8.3587654    639.92262  0.011255147 0.0093376291         3003 
 4739000   0.50028808    -8.360497    639.60145  0.011247124 0.0093342794         3052 
 4740000   0.48631493   -8.3718366    639.35957  0.011240499 0.0093309273         3106 
 4741000   0.48778526   -8.3867401     640.4703  0.011257651 0.0093275805         3028 
 4742000   0.50127895   -8.3755277    641.16862  0.011267549 0.0093242311         3024 
 4743000   0.49525697   -8.3715462    639.91135  0.011243084 0.0093208825         3072 
 4744000   0.49034577   -8.3835526    639.18454  0.011227946 0.0093175343         3062 
 4745000   0.48700883   -8.3698794    640.24182  0.011244149 0.0093141914         2996 
 4746000   0.48391744   -8.3807745    640.43305  0.011245137 0.0093108475         2979 
 4747000   0.49860508   -8.3766551    640.48363  0.011243656 0.0093075034         2966 
 4748000   0.48516006   -8.3832587    640.07719  0.011234155 0.0093041637         3024 
 4749000   0.48793089   -8.3776976    640.57872   0.01124059 0.0093008236         3025 
 4750000   0.50693011   -8.3678512    639.43374  0.011218136 0.0092974861         3047 
 4751000    0.4865952   -8.3712756    640.25358  0.011230155 0.0092941505         3025 
 4752000   0.49275917   -8.3687571    639.00134  0.011205832 0.0092908166         3074 
 4753000   0.48967958   -8.3687261    638.93266   0.01120227 0.0092874847         3036 
 4754000    0.5057459   -8.3780283    640.34846  0.011224731 0.0092841572         3017 
 4755000   0.48394865   -8.3601054    639.73075  0.011211545 0.0092808304         3040 
 4756000   0.49075616   -8.3664482    640.36043  0.011220221 0.0092774992         3010 
 4757000   0.48845695   -8.3852115    640.34078  0.011217518 0.0092741696         3063 
 4758000   0.49296441   -8.3730638    639.23978  0.011195877 0.0092708444         3043 
 4759000   0.49643387   -8.3727544      640.254  0.011211284   0.00926752         3099 
 4760000     0.496067   -8.3875772    640.62884  0.011215491 0.0092641989         3060 
 4761000   0.49048259    -8.382441    640.10307  0.011203932 0.0092608789         3036 
 4762000   0.48641207   -8.3643139    639.75627  0.011195511 0.0092575602         3035 
 4763000   0.49070177    -8.372127    639.71094  0.011192367 0.0092542428         2997 
 4764000   0.49489195   -8.3794723     640.1924   0.01119844 0.0092509293         3016 
 4765000   0.49229185   -8.3773394    639.53652  0.011184619  0.009247613         3021 
 4766000   0.49040414   -8.3788015    640.30388   0.01119569 0.0092442992         3001 
 4767000   0.47262005   -8.3725846    639.87478   0.01118584 0.0092409852         3029 
 4768000   0.49052083   -8.3780858    639.57292  0.011178218 0.0092376753         3050 
 4769000   0.49012478   -8.3829977    639.78101   0.01117951 0.0092343674         3052 
 4770000   0.49429797   -8.3820891    641.16311  0.011201312 0.0092310612         3021 
 4771000     0.479177   -8.3750772     639.6354  0.011172281 0.0092277583         3056 
 4772000   0.49092727   -8.3995287    639.58069  0.011168984 0.0092244565         3045 
 4773000   0.49237994   -8.3714961    640.04477  0.011174746 0.0092211532         2974 
 4774000   0.49519748   -8.3841763     640.1326  0.011173939 0.0092178524         3015 
 4775000   0.48252353   -8.3932939    639.66878  0.011163504 0.0092145502         3020 
 4776000   0.48368719   -8.3840368    639.82823  0.011163949 0.0092112516         3000 
 4777000   0.49104186   -8.3776835    640.50489  0.011173416 0.0092079558         3002 
 4778000    0.4791162   -8.3846254    640.97931  0.011179352 0.0092046597         3019 
 4779000   0.49031611   -8.3817011    639.87788  0.011157806  0.009201367         3006 
 4780000   0.48661722    -8.382505    639.20432  0.011143729 0.0091980725         2953 
 4781000   0.48890906   -8.3832984    638.91139  0.011136293 0.0091947832         3069 
 4782000   0.49097292   -8.3882021    639.78791  0.011149239 0.0091914955         2969 
 4783000   0.47536412   -8.3793229    639.43681   0.01114079 0.0091882087         3073 
 4784000   0.48362933   -8.3823871    639.45475  0.011138774 0.0091849236         3065 
 4785000   0.47908198   -8.3762307    639.87475  0.011143761 0.0091816373         3021 
 4786000   0.48606226   -8.3931642    640.62275  0.011154457 0.0091783568         3020 
 4787000    0.4826315   -8.3778304    640.29862  0.011146484 0.0091750742         2976 
 4788000   0.48481485   -8.3824873    639.78607  0.011135235 0.0091717925         3037 
 4789000   0.48724463   -8.4046743    638.68507  0.011113751 0.0091685135         3020 
 4790000   0.48627994   -8.3858644     639.0383  0.011117576 0.0091652361         3034 
 4791000   0.48431665   -8.3665245    638.93311  0.011113426 0.0091619641         3053 
 4792000   0.47945695   -8.3789216    639.47475  0.011120526 0.0091586887         3077 
 4793000    0.4812037   -8.3901348     639.8158  0.011124136 0.0091554177         3066 
 4794000   0.49303748   -8.3770838    639.63985  0.011118757 0.0091521475         3036 
 4795000   0.48415086   -8.3820217    639.55095  0.011114893 0.0091488767         3012 
 4796000   0.48364452   -8.3976958    640.91277  0.011136238 0.0091456064         3019 
 4797000   0.48070438   -8.3785685    639.55128  0.011110265 0.0091423393         2996 
 4798000   0.48618112   -8.3950229    639.46298  0.011106415 0.0091390754         3001 
 4799000   0.48378111   -8.3805662     639.8011  0.011109973 0.0091358163         2917 
 4800000   0.49186996   -8.3973272    640.34607  0.011117119 0.0091325544         3029 
 4801000   0.48439292   -8.3720967    639.87455  0.011106619  0.009129294         2950 
 4802000   0.48690275   -8.3964241    639.64536  0.011100329 0.0091260377         3025 
 4803000     0.482146   -8.4032117    639.78122  0.011100375 0.0091227774         3022 
 4804000   0.47877583   -8.3605172    640.11892  0.011103922 0.0091195191         2975 
 4805000   0.48667925    -8.386415    639.55589  0.011091847 0.0091162641         3016 
 4806000   0.48500377   -8.3819248    639.55276  0.011089485 0.0091130093         3010 
 4807000   0.48081239   -8.4014999    639.13092  0.011079865 0.0091097603         3023 
 4808000   0.48043418   -8.3855422    639.26642  0.011079909 0.0091065117         3004 
 4809000   0.48442802   -8.3935876    639.26784  0.011077629 0.0091032658         3016 
 4810000    0.4824503   -8.3900996    638.82369  0.011067632 0.0091000202         3047 
 4811000   0.49326659   -8.3934627    640.10031  0.011087444 0.0090967746         3037 
 4812000   0.48404233   -8.3819088    638.55597  0.011058395 0.0090935287         3088 
 4813000   0.49067052   -8.3697717    639.04408  0.011064549 0.0090902882         3085 
 4814000   0.47272993   -8.4002938    638.38476  0.011050837 0.0090870474         3016 
 4815000   0.48322895   -8.3880855    640.50222  0.011085189  0.009083808         3037 
 4816000   0.48507563   -8.3867995    640.03337  0.011074775 0.0090805693         3071 
 4817000   0.48590239   -8.3879704    639.11346  0.011056561 0.0090773315         3025 
 4818000    0.4829009    -8.397426    639.91718  0.011068168 0.0090740972         3063 
 4819000   0.47368348   -8.3732008    640.07688  0.011068633 0.0090708625         2995 
 4820000   0.47067062    -8.392776    639.07524  0.011049019  0.009067629         3011 
 4821000   0.47992511    -8.396199    639.45004  0.011053205 0.0090644014         2948 
 4822000   0.47930168    -8.396812     639.5725   0.01105303 0.0090611749         3048 
 4823000   0.48253447   -8.3780477    640.67447  0.011069778 0.0090579505         3052 
 4824000   0.48492745   -8.3938078     638.4873    0.0110297 0.0090547233         3039 
 4825000   0.48597004     -8.39052     639.1938  0.011039617 0.0090515012         3034 
 4826000    0.4749813   -8.3882501    639.57884  0.011043978 0.0090482783         3061 
 4827000   0.48368487    -8.383239     639.4613  0.011039661 0.0090450565         2999 
 4828000   0.47546906    -8.388473    639.18054  0.011032528 0.0090418346         3036 
 4829000   0.48308607   -8.3974669    639.00409  0.011027198 0.0090386151         3099 
 4830000   0.47719832   -8.3945953    639.65841  0.011036204 0.0090353976         3036 
 4831000    0.4671398   -8.3903739    639.38959  0.011029283 0.0090321805         3075 
 4832000   0.47968972   -8.3758136    640.38842  0.011044226 0.0090289641         2995 
 4833000   0.48649165   -8.4011351    638.97879  0.011017636 0.0090257505         3105 
 4834000   0.48372205   -8.4083756    639.62699  0.011026531 0.0090225369         3042 
 4835000   0.48176645   -8.4077155     637.6829  0.010990743 0.0090193289         3044 
 4836000   0.48072173   -8.3785708    639.70248  0.011023271 0.0090161206         3038 
 4837000   0.47611748   -8.3907229    639.04449  0.011009656 0.0090129139         3034 
 4838000   0.47092489   -8.4051227    639.80113  0.011020414 0.0090097072         3057 
 4839000   0.47731951   -8.3926787    639.58214  0.011014365  0.009006503         3032 
 4840000    0.4833974   -8.4112166    639.09385  0.011003682 0.0090032977         3067 
 4841000   0.48073449   -8.3931777    639.76936  0.011013037 0.0090000997         3034 
 4842000   0.46770533   -8.3993284    639.15039   0.01100011 0.0089968989         3070 
 4843000   0.47930606   -8.4072013    639.40281  0.011002182 0.0089937034         3076 
 4844000   0.47869947   -8.3964376    639.78773  0.011006533 0.0089905063         3010 
 4845000    0.4828014   -8.3939699    639.19102  0.010993998 0.0089873119         3007 
 4846000   0.48194423   -8.3952393    639.54704  0.010997851 0.0089841166         3055 
 4847000    0.4824884   -8.3987604    638.93893  0.010985127 0.0089809222         2996 
 4848000   0.48347062   -8.3928076    638.57512  0.010976608 0.0089777324         3048 
 4849000   0.47523593   -8.3915806    639.10009  0.010983366 0.0089745423         3051 
 4850000   0.47339302   -8.4136668    639.45819  0.010987254 0.0089713559         3060 
 4851000    0.4715372   -8.3928784    639.21832  0.010980869 0.0089681692         3007 
 4852000   0.47281941   -8.4017918    639.87772  0.010989931 0.0089649849         3042 
 4853000   0.47292878   -8.4024045    638.86965  0.010970356 0.0089618009         3058 
 4854000   0.47270794   -8.3989373    638.67275  0.010964715 0.0089586191         3038 
 4855000   0.49549944   -8.3970248    639.75418  0.010981019 0.0089554386         3023 
 4856000   0.48357719   -8.4079755    639.49776  0.010974358 0.0089522577         3077 
 4857000    0.4681879   -8.4053188    637.47677  0.010937423 0.0089490768         3105 
 4858000   0.47969564     -8.40512    639.18864  0.010964537 0.0089459005         3056 
 4859000   0.47848652   -8.3936574    638.86245  0.010956686 0.0089427227         3045 
 4860000   0.47800085   -8.4205418    638.90282  0.010955124 0.0089395495         3076 
 4861000   0.47816971   -8.4179097     638.9182  0.010953134 0.0089363772         3039 
 4862000   0.47190242   -8.4058515    638.62839  0.010945914 0.0089332061         3064 
 4863000   0.47069354   -8.4030863    639.06689  0.010951177  0.008930034         3064 
 4864000   0.48103869   -8.3995233    639.67465  0.010959338 0.0089268636         3050 
 4865000   0.47006508    -8.403568    639.02788  0.010946007 0.0089236978         3033 
 4866000   0.47642255   -8.3973873    638.72184  0.010938516 0.0089205309         3041 
 4867000    0.4693879   -8.3997347    639.22368  0.010944861 0.0089173681         3005 
 4868000   0.47916497    -8.401932    638.93444  0.010937662 0.0089142039         3053 
 4869000   0.46981175   -8.4248506    638.94856  0.010935657 0.0089110446         3061 
 4870000   0.47346642   -8.3975285    639.38429  0.010940867 0.0089078849         3087 
 4871000   0.47593206   -8.4053051    639.28584  0.010936937 0.0089047259         3039 
 4872000   0.46864496   -8.4027822    638.03407  0.010913281 0.0089015711         2985 
 4873000   0.47785982     -8.40901    638.58561  0.010920473 0.0088984188         3007 
 4874000   0.47337593   -8.4027637    638.65201  0.010919368 0.0088952659         3054 
 4875000   0.46560539   -8.4008157    638.91073  0.010921551 0.0088921139         3031 
 4876000   0.46214539   -8.3954021    638.83893  0.010918084 0.0088889638         3017 
 4877000   0.46968741   -8.4000708    638.98864  0.010918403 0.0088858175         3034 
 4878000   0.47132743   -8.3956818     639.2549  0.010920714 0.0088826736         3030 
 4879000   0.47110507   -8.4009171    639.11659  0.010916113  0.008879529         3073 
 4880000   0.47347088   -8.3950117    639.43796  0.010919364 0.0088763853         3025 
 4881000   0.46707982   -8.4218558    637.96174  0.010891923 0.0088732426         3077 
 4882000   0.46772856   -8.4151427    639.30087  0.010912551 0.0088701003         3077 
 4883000   0.47923985   -8.4020388    639.09184  0.010906749  0.008866961         3009 
 4884000   0.46626029   -8.4152375    638.23825  0.010889951 0.0088638242         3068 
 4885000   0.48189873   -8.4097007     638.0274  0.010884125 0.0088606868         3069 
 4886000   0.46697867    -8.413215    639.10484  0.010900274 0.0088575523         3070 
 4887000   0.45738369   -8.4170542    638.79714  0.010892796 0.0088544212         3043 
 4888000   0.46457693   -8.4110856    639.13391  0.010896309 0.0088512866         3006 
 4889000   0.46683482   -8.3997203    638.59874  0.010884958  0.008848154         3034 
 4890000   0.47640564   -8.4151627    637.63794  0.010866359 0.0088450229         3070 
 4891000   0.46126573   -8.4207155    639.71388  0.010899507 0.0088418963         3055 
 4892000   0.46898795   -8.4173486    638.65158  0.010879183 0.0088387682         3023 
 4893000   0.47179322   -8.4253067    638.30765  0.010871102 0.0088356427         3071 
 4894000    0.4744382   -8.3984609    638.97445  0.010880235 0.0088325145         3001 
 4895000   0.47019581   -8.3908177    638.64097  0.010872335 0.0088293912         3033 
 4896000   0.46906037   -8.4160083    638.18429  0.010862342  0.008826272         3068 
 4897000   0.47007506   -8.4084462    639.76707  0.010887058 0.0088231498         2998 
 4898000   0.45935873   -8.4037084    639.69126  0.010883545 0.0088200278         3064 
 4899000    0.4690785   -8.4046938    639.14926  0.010872104 0.0088169103         3007 
 4900000   0.47376957   -8.4144651    637.99793  0.010850305 0.0088137952         3081 
 4901000   0.46582947   -8.4121559    637.95537  0.010847367 0.0088106821         3068 
 4902000   0.47791274   -8.4110646    638.93896  0.010861875  0.008807569         3057 
 4903000   0.47393044   -8.4119023    638.55202  0.010853083 0.0088044562         3014 
 4904000   0.46742274   -8.4080905     637.5664  0.010834122 0.0088013439         3050 
 4905000   0.46357101   -8.4131834    638.82387  0.010853277 0.0087982328         2996 
 4906000   0.46845701   -8.4163193    639.05415  0.010854976 0.0087951228         3055 
 4907000   0.47748655   -8.4119244    638.20123  0.010838279 0.0087920162         3030 
 4908000    0.4698344   -8.4079838    638.50132  0.010841166 0.0087889136         3023 
 4909000   0.46197547    -8.404915    637.44477  0.010821022 0.0087858115         3065 
 4910000   0.45560225   -8.4120755    637.63753   0.01082209 0.0087827066         3090 
 4911000   0.46455899   -8.4031668    638.16888  0.010828902 0.0087796057         2978 
 4912000   0.46748734   -8.4339777    638.93285  0.010839659 0.0087765059         3010 
 4913000   0.46264802   -8.3976183    638.76566  0.010834617 0.0087734061         3040 
 4914000   0.46145514   -8.4165466    638.44416   0.01082696 0.0087703089         3010 
 4915000   0.48237928   -8.4204964    637.11897  0.010802288 0.0087672156         3039 
 4916000   0.46246296   -8.4202301    638.99324  0.010831863 0.0087641242         2968 
 4917000   0.47372157   -8.4245724    637.89933   0.01081112 0.0087610338         3023 
 4918000   0.46772108   -8.4221308    637.99105  0.010810476 0.0087579445         3039 
 4919000    0.4661405   -8.4131626    638.17725  0.010811433 0.0087548557         3022 
 4920000   0.45505825   -8.4189414    638.02501  0.010806657 0.0087517689         3040 
 4921000    0.4673088    -8.410715    638.55133  0.010813373 0.0087486816         3069 
 4922000   0.46335529   -8.4202138    638.31121  0.010807111 0.0087455983         3089 
 4923000   0.45579139   -8.4107372    639.12492   0.01081869 0.0087425158         3023 
 4924000   0.46643758   -8.4230751    637.79692  0.010794018 0.0087394369         2988 
 4925000   0.45983211   -8.4203383    638.31895  0.010800659 0.0087363581         3028 
 4926000   0.46936046   -8.4163602    637.85167  0.010790561 0.0087332803         3076 
 4927000   0.45620014   -8.4168544    637.99487  0.010790793 0.0087302047         3083 
 4928000   0.45871418   -8.4232022    638.61567  0.010799101 0.0087271291         3016 
 4929000   0.45640484   -8.4081447    638.71167  0.010798534  0.008724056         3009 
 4930000   0.46685457    -8.419318    638.18689  0.010787473 0.0087209836         3011 
 4931000   0.45694603   -8.4110042    638.83716  0.010796275 0.0087179133         3015 
 4932000   0.46496805   -8.4144488    638.40191  0.010786731 0.0087148426         2991 
 4933000   0.46074806   -8.4151919    637.44616  0.010768399 0.0087117726         3088 
 4934000   0.44944908   -8.4105283    638.53251  0.010784565 0.0087087068         2981 
 4935000   0.46520562   -8.4300231    637.46214  0.010764305 0.0087056425         3088 
 4936000   0.45665321   -8.4226787    637.59732  0.010764406 0.0087025801         3055 
 4937000   0.47044332     -8.41595    638.30163  0.010774114 0.0086995213         3015 
 4938000   0.46931411   -8.4057825    638.93878  0.010782685 0.0086964605         3016 
 4939000   0.46618056   -8.4106815    637.08774   0.01074927 0.0086933999         3016 
 4940000   0.46048302   -8.4302263     637.4413  0.010753058 0.0086903411         3001 
 4941000   0.45885034   -8.4160511    637.94391  0.010759359  0.008687283         2997 
 4942000   0.46089606   -8.4243262    637.64207  0.010752092 0.0086842266         3024 
 4943000   0.46774778   -8.4151107    638.38668   0.01076247 0.0086811747         3029 
 4944000   0.45656675   -8.4053653    639.32147   0.01077605 0.0086781223         3004 
 4945000   0.45975785   -8.4123524    638.32287  0.010757042 0.0086750705         2995 
 4946000   0.46679527   -8.4212953    638.13548   0.01075171 0.0086720196         3070 
 4947000   0.45809669   -8.4093893    638.05465  0.010748175 0.0086689698         3028 
 4948000   0.46107791   -8.4248214    637.40787   0.01073511 0.0086659225         3018 
 4949000   0.46083833   -8.4189031    638.18281  0.010745989 0.0086628763         3014 
 4950000   0.45566025   -8.4088174    637.56118  0.010733353 0.0086598312         3045 
 4951000   0.46243596   -8.4157978     637.8174  0.010735498  0.008656786         3009 
 4952000   0.45239879   -8.4187623    638.24209  0.010740477 0.0086537462         2996 
 4953000   0.47464062   -8.4233025    637.69696  0.010729137 0.0086507043         3013 
 4954000   0.46028985   -8.4164249    638.46604  0.010739908 0.0086476654         2971 
 4955000   0.45097344    -8.429537    638.46506  0.010737724 0.0086446269         3060 
 4956000   0.46196937   -8.4245065    638.11657  0.010729698 0.0086415895         3055 
 4957000   0.45680373   -8.4282325     638.1512  0.010728115 0.0086385549         3007 
 4958000   0.46535148   -8.4118327    637.84434  0.010720794 0.0086355223         3045 
 4959000   0.46958197   -8.4288428    636.14942   0.01069015 0.0086324921         2994 
 4960000   0.45840021   -8.4209096    638.00286  0.010719134 0.0086294602         3067 
 4961000   0.45280868   -8.4269133    637.72095  0.010712238 0.0086264313         3028 
 4962000   0.46665635   -8.4187869    637.92449  0.010713497 0.0086234066         3075 
 4963000    0.4558025   -8.4182461    637.66131   0.01070692 0.0086203823         3008 
 4964000   0.45815221   -8.4215741    638.00496  0.010710532  0.008617355         2998 
 4965000   0.47570526    -8.436235    638.06914  0.010709452 0.0086143328         3066 
 4966000   0.45542441   -8.4213591    638.91935  0.010721562 0.0086113126         2979 
 4967000   0.46690907    -8.443396    637.89618  0.010702238 0.0086082953         2982 
 4968000   0.46315996    -8.437663     637.8591  0.010699462 0.0086052749         3096 
 4969000    0.4486274   -8.4357385     638.2588  0.010704011 0.0086022561         3109 
 4970000   0.46166235   -8.4192386    637.76867   0.01069364 0.0085992399         3067 
 4971000   0.45191397   -8.4250367    637.88539  0.010693445 0.0085962258         2990 
 4972000   0.44787958   -8.4221383     638.3591  0.010699234 0.0085932131         3019 
 4973000   0.44812545   -8.4241984    638.25147  0.010695279 0.0085902026         3005 
 4974000   0.45381585   -8.4298078    637.79197   0.01068543 0.0085871899         3134 
 4975000   0.45974628    -8.434876    638.68878  0.010698305 0.0085841816         3106 
 4976000    0.4524591   -8.4278969    637.47808  0.010675879 0.0085811734         3077 
 4977000   0.45009249   -8.4313364    637.74129  0.010678141 0.0085781646         3064 
 4978000   0.47224216   -8.4228364    638.35986  0.010686351 0.0085751606         3052 
 4979000   0.46036064   -8.4147595    637.54029  0.010670488 0.0085721572         3060 
 4980000   0.46712859   -8.4258831    638.05483  0.010676955 0.0085691556         3052 
 4981000   0.44991472   -8.4240728    637.96527  0.010673313 0.0085661562         3061 
 4982000   0.45241027   -8.4278799    639.52062  0.010697187 0.0085631581         3056 
 4983000   0.45678453   -8.4343188    638.07119    0.0106708 0.0085601595         3047 
 4984000   0.44407884   -8.4264817    637.76798   0.01066359 0.0085571622         3034 
 4985000   0.45659626   -8.4206682    639.08585  0.010683481 0.0085541651         3043 
 4986000   0.45996077   -8.4441572    637.59451  0.010656413 0.0085511698         3050 
 4987000   0.44644728    -8.438433    636.60661  0.010637768 0.0085481766         3049 
 4988000   0.45269821   -8.4270346    638.04741  0.010659707 0.0085451837         3012 
 4989000   0.44949561   -8.4357861     638.1161  0.010658718 0.0085421952         3025 
 4990000   0.45444299   -8.4341666    637.85408  0.010652206 0.0085392077         3063 
 4991000   0.44467388   -8.4349066    638.08091  0.010653859 0.0085362217         3074 
 4992000   0.44664662   -8.4254593    637.41601  0.010640625 0.0085332348         3022 
 4993000   0.45559442   -8.4309679    638.01717  0.010648527 0.0085302517         3002 
 4994000   0.46295287   -8.4288198    637.59026  0.010639271 0.0085272698         3005 
 4995000   0.45387238   -8.4161913    637.18146  0.010630321 0.0085242871         3111 
 4996000   0.45856027   -8.4241926    637.58622  0.010634945 0.0085213073         3016 
 4997000   0.45633456   -8.4246794    637.13411  0.010625277 0.0085183284         3022 
 4998000   0.44630127   -8.4244293    638.92833  0.010653067  0.008515352         3065 
 4999000   0.45574239   -8.4362696    637.53034  0.010627631 0.0085123762         2996 
 5000000   0.45328784   -8.4411569    637.83895  0.010630649 0.0085094023         3113 
 5001000   0.45534281   -8.4349731    638.03603  0.010631807 0.0085064283         3029 
 5002000   0.46057154   -8.4333847     637.7171  0.010624369 0.0085034546         3076 
 5003000   0.44455272   -8.4294445    637.80214  0.010623661 0.0085004826         3013 
 5004000   0.44444294   -8.4373523    638.08281  0.010626213 0.0084975123         3026 
 5005000   0.45455298   -8.4312322    637.57949  0.010615709 0.0084945441         3036 
 5006000   0.44346241    -8.445217    637.58473  0.010613676 0.0084915771         3104 
 5007000    0.4476817   -8.4422029    637.66349  0.010612867  0.008488611         3043 
 5008000   0.44576759   -8.4391168    638.38773  0.010622799 0.0084856459         3082 
 5009000   0.44121642   -8.4456731    636.74855  0.010593408 0.0084826833         3064 
 5010000   0.45112063   -8.4360444    637.78016  0.010608453 0.0084797202         3091 
 5011000   0.45128793   -8.4357613    637.22355  0.010597079 0.0084767582         3088 
 5012000   0.45621204   -8.4257643    638.39301  0.010614409 0.0084738008         3083 
Loop time of 13236 on 48 procs for 5000000 steps with 4000 atoms

Performance: 65276.660 tau/day, 377.758 timesteps/s
99.4% CPU use with 48 MPI tasks x no OpenMP threads

MPI task timing breakdown:
Section |  min time  |  avg time  |  max time  |%varavg| %total
---------------------------------------------------------------
Pair    | 1015.5     | 1092.7     | 1197.3     | 145.4 |  8.26
Neigh   | 93.008     | 96.211     | 100.82     |  21.4 |  0.73
Comm    | 824.57     | 943.2      | 1032.5     | 164.6 |  7.13
Output  | 17.925     | 17.93      | 18.038     |   0.4 |  0.14
Modify  | 10895      | 10954      | 11003      |  26.9 | 82.76
Other   |            | 132        |            |       |  1.00

Nlocal:        83.3333 ave          89 max          78 min
Histogram: 4 4 7 7 3 4 8 2 6 3
Nghost:        2445.00 ave        2473 max        2420 min
Histogram: 3 7 4 3 8 9 6 1 3 4
Neighs:        17038.2 ave       20019 max       14386 min
Histogram: 4 2 7 7 8 5 5 3 6 1
FullNghs:      34076.7 ave       36772 max       31335 min
Histogram: 2 4 6 5 8 4 5 9 2 3

Total # of neighbors = 1635683
Ave neighs/atom = 408.92075
Neighbor list builds = 266498
Dangerous builds = 0

#clear
#
#next RN
#
#jump SELF
Total wall time: 3:40:39
