
units lj                  # Use reduced LJ style units
atom_style atomic         # Uncharged point particles
atom_modify map hash      # Needed for indexing of clusters etc
                          # Used to be able to find where atoms are in relation to each other.

lattice fcc 1.0 spacing 1 1 1
Lattice spacing in x,y,z = 1.5874011 1.5874011 1.5874011
region box block 0 10 0 10 0 10 units lattice
create_box 2 box
Created orthogonal box = (0.0000000 0.0000000 0.0000000) to (15.874011 15.874011 15.874011)
  3 by 4 by 4 MPI processor grid
create_atoms 1 box
Created 4000 atoms
  using lattice units in orthogonal box = (0.0000000 0.0000000 0.0000000) to (15.874011 15.874011 15.874011)
  create_atoms CPU = 0.002 seconds
set type 1 type/fraction 2 0.21 78393
Setting atom values ...
  872 settings made for type/fraction
mass 1 1.0
mass 2 1.0
pair_style lj/cut  3.5
pair_modify tail  yes
pair_coeff 1  1  1.0  1.0   # Intearaction between 1 and 1 set with epsilon = 1 and sigma = 1
pair_coeff 1  2  1.5  0.8
pair_coeff 2  2  0.5  0.88

write_data data.0
System init for write_data ...
Neighbor list info ...
  update every 1 steps, delay 10 steps, check yes
  max neighbors/atom: 2000, page size: 100000
  master list distance cutoff = 3.8
  ghost atom cutoff = 3.8
  binsize = 1.9, bins = 9 9 9
  1 neighbor lists, perpetual/occasional/extra = 1 0 0
  (1) pair lj/cut, perpetual
      attributes: half, newton on
      pair build: half/bin/atomonly/newton
      stencil: half/bin/3d
      bin: standard
WARNING: Not all mixed pair coeffs generated from mixing. Use write_data with 'pair ij' option to store all pair coeffs. (../write_data.cpp:312)


#############################
#   M E L T   S Y S T E M   #
#############################

velocity all create 2.4 1741580 mom yes dist gaussian # Assign velocities
                                                    # Temperature 2.4, random number seed, zero linear momentum
                                                                                # Gaussian distribution

timestep 0.002   # simulation timestep
thermo 1000       # output thermodynamic data every 1000 steps bf 100

# Define a fix  in this case with index 1 applied to all
# particles in the simulation. This fix is for simulations
# in the anisotropic NPT ensemble. Note that we use the MTK
# correction.
fix 1 all npt temp 2.4 2.4 0.1 iso 5.68 5.68 0.5 mtk yes tchain 5 pchain 5 # Use NPT ensemble
                                                                         # Set temperature and pressure and damping
                                                                         # Numbers of thermostats in chain and in barostat
run 10000          # run for 10000 steps
Per MPI rank memory allocation (min/avg/max) = 3.642 | 3.644 | 3.648 Mbytes
Step Temp E_pair E_mol TotEng Press Volume 
       0          2.4   -6.9803555            0   -3.3812555   -3.6586826         4000 
    1000    2.4254553   -4.8678929            0   -1.2306195    5.7129132    4427.8533 
    2000     2.427862   -4.8712898            0   -1.2304072    5.9669297     4401.858 
    3000    2.3752359   -4.7921195            0   -1.2301564    5.8874746    4445.4974 
    4000    2.3707129   -4.8634436            0   -1.3082633    5.8510745     4410.227 
    5000    2.3987674   -4.8218608            0   -1.2246092    5.9441364    4429.3095 
    6000    2.3964774   -4.8677892            0   -1.2739718    5.9049443     4402.833 
    7000    2.3947645   -4.8964415            0   -1.3051928    5.6063285    4421.7237 
    8000    2.4001263    -4.814918            0   -1.2156286    5.8731287    4430.0096 
    9000    2.3987981   -4.8671983            0   -1.2699006    5.9593981    4403.6303 
   10000    2.4107815   -4.8799274            0   -1.2646591    5.5682318    4437.5714 
Loop time of 2.37599 on 48 procs for 10000 steps with 4000 atoms

Performance: 727274.426 tau/day, 4208.764 timesteps/s
99.5% CPU use with 48 MPI tasks x no OpenMP threads

MPI task timing breakdown:
Section |  min time  |  avg time  |  max time  |%varavg| %total
---------------------------------------------------------------
Pair    | 0.989      | 1.0507     | 1.1453     |   3.6 | 44.22
Neigh   | 0.19908    | 0.20781    | 0.22613    |   1.1 |  8.75
Comm    | 0.71504    | 0.81067    | 0.885      |   4.2 | 34.12
Output  | 0.0002576  | 0.00026134 | 0.00032838 |   0.0 |  0.01
Modify  | 0.26579    | 0.29192    | 0.31979    |   2.6 | 12.29
Other   |            | 0.01459    |            |       |  0.61

Nlocal:        83.3333 ave          92 max          69 min
Histogram: 1 0 1 6 4 8 10 9 7 2
Nghost:        1531.50 ave        1559 max        1497 min
Histogram: 3 1 4 3 6 13 5 5 3 5
Neighs:        8600.50 ave        9565 max        7119 min
Histogram: 1 3 2 5 3 5 10 9 8 2

Total # of neighbors = 412824
Ave neighs/atom = 103.20600
Neighbor list builds = 913
Dangerous builds = 250

# Equilibrate just above the melting temperature to avoid step fn in T

fix 1 all npt temp 1.25 1.25 0.1 iso 5.68 5.68 0.5 mtk yes tchain 5 pchain 5
run 2000
Per MPI rank memory allocation (min/avg/max) = 3.642 | 3.645 | 3.649 Mbytes
Step Temp E_pair E_mol TotEng Press Volume 
   10000    2.4107815   -4.8799274            0   -1.2646591    5.5682318    4437.5714 
   11000     1.248776   -6.6080745            0   -4.7353788    5.5344692    3614.2221 
   12000    1.2348038   -6.5807317            0    -4.728989    5.8569995    3607.1503 
Loop time of 0.556098 on 48 procs for 2000 steps with 4000 atoms

Performance: 621473.486 tau/day, 3596.490 timesteps/s
99.5% CPU use with 48 MPI tasks x no OpenMP threads

MPI task timing breakdown:
Section |  min time  |  avg time  |  max time  |%varavg| %total
---------------------------------------------------------------
Pair    | 0.23366    | 0.25126    | 0.27736    |   2.0 | 45.18
Neigh   | 0.033449   | 0.035261   | 0.037285   |   0.5 |  6.34
Comm    | 0.15237    | 0.17929    | 0.23077    |   3.4 | 32.24
Output  | 5.3294e-05 | 5.5121e-05 | 7.0042e-05 |   0.0 |  0.01
Modify  | 0.050967   | 0.085556   | 0.092134   |   3.1 | 15.39
Other   |            | 0.004675   |            |       |  0.84

Nlocal:        83.3333 ave          90 max          77 min
Histogram: 3 5 4 6 6 5 12 2 3 2
Nghost:        1761.83 ave        1788 max        1737 min
Histogram: 1 5 5 6 9 8 6 3 2 3
Neighs:        10588.4 ave       11689 max        9570 min
Histogram: 4 4 5 3 8 8 7 3 5 1

Total # of neighbors = 508242
Ave neighs/atom = 127.06050
Neighbor list builds = 143
Dangerous builds = 7

#############################
# L I N E A R  Q U E N C H  #
#############################

# Define solid atoms. This closely follows ten Wolde  Ruiz-Montero and Frenkel  Faraday Discuss  1996  104  93-110
# Compute components of the per-atom q6 vector
compute q6 all orientorder/atom degrees 1 6 components 6 nnn NULL cutoff 1.3 # compute the Q6 parameter.
                                                                             # Use all neighbours within 1.3 unit cell.

# get number of connections
compute coord_number all coord/atom orientorder q6 0.5

# An atom is solid if it has 8 or more connections (of a possible 14)
variable is_solid atom c_coord_number>=8
group solid dynamic all var is_solid    # Must be dynamic to update
dynamic group solid defined

# do clustering
compute cluster solid cluster/atom 1.3 # Create a cluster where all atoms within are solid and max 1.3 units from another member

# define chunks one chunk per cluster
compute clus_chunks solid chunk/atom c_cluster nchunk every compress yes  # Says which atoms are in which chunk

# count the size of each chunk
compute size_chunks solid property/chunk clus_chunks count


# Find the maximum entry in the vector of chunk sizes
variable max_n equal max(c_size_chunks)


# Thermo style which includes this variable
# thermo_style custom step temp pe vol v_max_n

thermo ${N}  # Print the thermo information every 100 steps
thermo 1000  

# Reset the npt fix at a lower temperature (below freezing)
fix 1  all npt temp  ${temp} ${temp}  0.1  iso  5.68  5.68  0.5  mtk yes tchain  5  pchain  5
fix 1  all npt temp  0.45 ${temp}  0.1  iso  5.68  5.68  0.5  mtk yes tchain  5  pchain  5
fix 1  all npt temp  0.45 0.45  0.1  iso  5.68  5.68  0.5  mtk yes tchain  5  pchain  5

dump dmp2 all dcd ${N} traj.dcd
dump dmp2 all dcd 1000 traj.dcd


compute msd all msd com yes
variable twopoint equal c_msd[4]/6/(step*dt+1.0e-6)
fix 9 all vector 10 c_msd[4]
variable fit equal slope(f_9)/6/(10*dt)
thermo_style custom step temp pe c_msd[4] v_twopoint v_fit v_max_n

fix 1 all npt temp 1.25 ${temp} 0.1 iso 5.68 5.68 0.5 mtk yes tchain 5 pchain 5
fix 1 all npt temp 1.25 0.45 0.1 iso 5.68 5.68 0.5 mtk yes tchain 5 pchain 5
run 2000000 # 5000000  # Run for this many steps
Neighbor list info ...
  update every 1 steps, delay 10 steps, check yes
  max neighbors/atom: 2000, page size: 100000
  master list distance cutoff = 3.8
  ghost atom cutoff = 3.8
  binsize = 1.9, bins = 9 9 9
  4 neighbor lists, perpetual/occasional/extra = 1 3 0
  (1) pair lj/cut, perpetual
      attributes: half, newton on
      pair build: half/bin/atomonly/newton
      stencil: half/bin/3d
      bin: standard
  (2) compute orientorder/atom, occasional
      attributes: full, newton on
      pair build: full/bin/atomonly
      stencil: full/bin/3d
      bin: standard
  (3) compute coord/atom, occasional
      attributes: full, newton on
      pair build: full/bin/atomonly
      stencil: full/bin/3d
      bin: standard
  (4) compute cluster/atom, occasional
      attributes: full, newton on
      pair build: full/bin/atomonly
      stencil: full/bin/3d
      bin: standard
Per MPI rank memory allocation (min/avg/max) = 9.777 | 9.784 | 9.790 Mbytes
Step Temp PotEng c_msd[4] v_twopoint v_fit v_max_n 
   12000    1.2348038   -6.5807317            0            0 8.3333333e+20            1 
   13000    1.2324028   -6.5483811   0.56365107 0.0036131477  0.046469816            2 
   14000    1.2599428   -6.6264566    1.0906534 0.0064919845  0.046010179            2 
   15000    1.2002631   -6.5973767    1.6160908  0.008978282  0.044332312            5 
   16000    1.2660295   -6.6135608    2.1328318  0.011108498  0.044054911            1 
   17000    1.2135442   -6.6145468    2.6415859   0.01294895  0.043723858            2 
   18000     1.269853   -6.5820485    3.1887759  0.014762851  0.043597411            2 
   19000    1.2498931   -6.5927364    3.7576454  0.016480901  0.043881684            2 
   20000    1.2412391    -6.576282    4.2868918  0.017862049  0.043999357            1 
   21000     1.259368   -6.5844649    4.6988682  0.018646302   0.04382458            2 
   22000    1.2698729   -6.6026615      5.19554  0.019680075  0.043312766            2 
   23000    1.2694759   -6.6386924      5.64901  0.020467427   0.04296394            2 
   24000    1.2566166    -6.606767    6.1494539   0.02135227   0.04272718            3 
   25000    1.2402866   -6.6173357    6.6865753  0.022288584  0.042524861            2 
   26000    1.2372855   -6.5908328    7.2288758  0.023169473  0.042471238            3 
   27000    1.2481246   -6.6082204     7.645542  0.023597351  0.042413068            8 
   28000    1.2618052   -6.6080689    8.1719611  0.024321312  0.042273138            3 
   29000    1.2667878   -6.6158433    8.7363985  0.025104593  0.042233999            1 
   30000    1.2184213   -6.5922121    9.3015578   0.02583766  0.042304134            2 
   31000    1.2669014   -6.5735206    9.7344082  0.026167763  0.042298888            2 
   32000    1.2525151   -6.6038337    10.265371  0.026732737  0.042298353            2 
   33000    1.2386952   -6.6018995    10.765325  0.027185163  0.042280847            1 
   34000     1.246197   -6.6164149      11.3381   0.02778946  0.042310919            2 
   35000    1.2633639   -6.5668311    12.021673   0.02862303  0.042430139            2 
   36000    1.2466446   -6.6181452    12.551513  0.029054427  0.042579302            2 
   37000    1.2440147   -6.6236791    13.045625  0.029382038  0.042724916            1 
   38000    1.2467043   -6.6245245    13.539938  0.029692846  0.042829289            3 
   39000    1.2396673   -6.5722321    14.205525  0.030353686  0.042981777            1 
   40000    1.2499557   -6.6451163    14.777565  0.030786594   0.04313739            3 
   41000    1.2461543   -6.6552824     15.34504  0.031189106  0.043312092            3 
   42000    1.2217645    -6.604402    15.812348  0.031373705  0.043443033            2 
   43000     1.241991   -6.6639895    16.477312  0.031932774   0.04358941            2 
   44000    1.2309646   -6.6375177    17.124409  0.032432592  0.043767493            2 
   45000    1.2546179    -6.615508    17.489963  0.032388819  0.043886667            1 
   46000    1.2302348   -6.6222451     18.02236  0.032649203  0.043944292            2 
   47000     1.225523   -6.6139581     18.55173  0.032893139  0.044002572            1 
   48000    1.2221313   -6.6593124    18.871403  0.032762853  0.044040009            3 
   49000    1.2590692   -6.6496933    19.352245   0.03291198   0.04402595            3 
   50000    1.2165386   -6.6600918    19.725694  0.032876156  0.043964352            1 
   51000     1.239152   -6.6331131    20.147259  0.032920357  0.043888906            1 
   52000    1.2368179   -6.6272178    20.619973  0.033044828  0.043781747            4 
   53000    1.2288387   -6.6354731    21.186557  0.033312196  0.043690177            2 
   54000    1.2490788   -6.6160467    21.660127  0.033426121  0.043609393            2 
   55000     1.235545   -6.6046112    22.070013  0.033439414  0.043513617            5 
   56000    1.2119385   -6.6542389    22.517769  0.033508585  0.043420466            2 
   57000    1.2279088   -6.6330111    22.898199  0.033476899  0.043301405            2 
   58000    1.2486404   -6.6419394    23.354392   0.03355516   0.04316254            1 
   59000    1.2340375   -6.6361787    23.676363  0.033441191   0.04302641            1 
   60000    1.2090672   -6.6541231    24.060839  0.033417831  0.042878963            2 
   61000    1.2205339   -6.6512377    24.620984  0.033635223  0.042734937            2 
   62000    1.2617264   -6.6392113    25.171433  0.033832571  0.042617253            1 
   63000      1.22202   -6.6046809    25.597959  0.033859733  0.042497847            2 
   64000     1.205226   -6.6409082    26.061336  0.033934031  0.042387863            2 
   65000    1.2550459   -6.6148751    26.626895  0.034137045  0.042285087            3 
   66000    1.2361933   -6.6780737    27.124249  0.034247789  0.042187763            2 
   67000    1.2521894   -6.6332424    27.481791  0.034181332  0.042097259            1 
   68000    1.2334989     -6.65152    27.941504  0.034242038  0.042002154            1 
   69000    1.2555776   -6.6549714    28.322016  0.034205334  0.041906615            3 
   70000    1.2042307   -6.6193546    28.852498  0.034348211  0.041814232            4 
   71000    1.2602924   -6.6508112    29.482637  0.034604034  0.041731908            1 
   72000    1.2047292   -6.6332595    29.982316  0.034701754  0.041664295            5 
   73000     1.234837   -6.6430871     30.47251  0.034785971  0.041605611            3 
   74000    1.2045265   -6.6739847    30.957237  0.034861753  0.041552952            3 
   75000    1.2298901   -6.6615453    31.298701  0.034776335  0.041497083            3 
   76000    1.2198235   -6.6740726    31.890071  0.034967183  0.041455379            2 
   77000    1.2261931   -6.6247018    32.476849  0.035148104  0.041425657            1 
   78000    1.2005589   -6.6480197    32.899149  0.035148663   0.04139285            1 
   79000    1.2110448   -6.6338164    33.357389  0.035187119  0.041354403            2 
   80000    1.2339876   -6.6446864    33.975702  0.035391356  0.041326843            2 
   81000    1.2314481   -6.6707343    34.303064  0.035291218  0.041297328            3 
   82000    1.2132594   -6.6878855    34.611711  0.035174503  0.041252885            1 
   83000    1.2286863   -6.6384183    35.187629  0.035328944  0.041202342            1 
   84000    1.1994278   -6.6547459    35.773739  0.035489821  0.041171435            2 
   85000    1.2168829   -6.6174773    36.241193  0.035530581  0.041142408            1 
   86000     1.188518    -6.671611    36.794917  0.035653989  0.041114134            3 
   87000    1.2250699   -6.6530013    37.026692   0.03546618  0.041080487            3 
   88000    1.2169808   -6.6466923    37.586185  0.035592978  0.041039614            1 
   89000    1.1886996   -6.6321713    37.899089  0.035486038  0.040998972            2 
   90000     1.225173   -6.7013513     38.42324  0.035577074  0.040960794            1 
   91000    1.2216578   -6.6540883    38.976083  0.035692384  0.040931183            1 
   92000    1.2039431   -6.6169789    39.470268  0.035752054  0.040892816            3 
   93000    1.2248357   -6.6115411    39.874534  0.035729869  0.040853412            3 
   94000    1.1953478   -6.6901326    40.438072  0.035849354  0.040821989            1 
   95000    1.2384874   -6.6166533    41.017744  0.035980477  0.040799669            3 
   96000    1.2295519   -6.6702276    41.716704  0.036212416  0.040784013            3 
   97000    1.1874543   -6.6152855    42.344879  0.036378762  0.040779312            1 
   98000    1.2103146   -6.6507081    42.738378  0.036342158  0.040781389            1 
   99000    1.2110242   -6.6828653    43.041582  0.036230287  0.040786528            1 
  100000    1.2179521   -6.6655464    43.775521  0.036479601  0.040788099            1 
  101000    1.2225221   -6.6305486    44.384736  0.036621069  0.040793759            2 
  102000    1.1788797   -6.6798772    44.680509  0.036503684  0.040800655            1 
  103000    1.2184291   -6.6799495    45.118654  0.036503765  0.040797535            1 
  104000      1.20524   -6.6434887    45.569541  0.036514055  0.040789602            1 
  105000    1.2440896   -6.6887263    45.911487  0.036437688  0.040783467            2 
  106000    1.2110737   -6.6995863    46.414333  0.036489255  0.040776729            1 
  107000    1.2180523   -6.6373372     47.14888  0.036720311  0.040774254            1 
  108000    1.2191231   -6.6483128    47.614985  0.036739958  0.040774107            4 
  109000    1.2163502   -6.6820958    48.085815  0.036762855  0.040768384            1 
  110000    1.2324101   -6.6662772    48.456588  0.036709536  0.040762193            3 
  111000    1.2038987   -6.6541218    49.117283  0.036874837  0.040763408            3 
  112000    1.2284222   -6.6648757    49.753804  0.037019199  0.040772409            2 
  113000    1.2138847   -6.6930996    49.825726  0.036744636  0.040773779            2 
  114000      1.22483   -6.6417955    50.135319  0.036648625  0.040760103            3 
  115000    1.2156695   -6.6611109    50.579011  0.036651457  0.040743637            1 
  116000    1.2008418   -6.7164876    50.762006  0.036466958  0.040720569            1 
  117000    1.2055028   -6.6533154    51.660229  0.036795035  0.040701357            2 
  118000    1.2035991   -6.6727166    52.156896  0.036833966  0.040690238            2 
  119000    1.2325776   -6.6480604    52.849539  0.037009481   0.04067905            1 
  120000    1.1920077   -6.6841035    53.131987  0.036897213  0.040665032            2 
  121000    1.2089656   -6.6733646    53.370718  0.036756693  0.040645143            1 
  122000    1.2019865   -6.6500533     53.82142  0.036763265  0.040623532            3 
  123000    1.1856007   -6.7121165    53.999869  0.036585277  0.040598589            2 
  124000    1.2182353   -6.7020882     54.36051  0.036532601  0.040569504            2 
  125000    1.2287882   -6.6999806    54.913785   0.03660919  0.040537294            1 
  126000    1.1900618   -6.6912863    55.256532  0.036545325  0.040507642            2 
  127000    1.2157075   -6.7002774    55.863147  0.036655608  0.040477114            1 
  128000    1.2165655   -6.6785516    56.019477  0.036471014  0.040445543            1 
  129000      1.21115   -6.6491982    56.736729  0.036651633  0.040410945            1 
  130000    1.2034044   -6.6840018    57.171232  0.036648226  0.040381341            3 
  131000    1.2005956   -6.6776831    57.826425  0.036785258  0.040358364            4 
  132000     1.233268   -6.7035929    58.133081  0.036700177  0.040336322            4 
  133000    1.2032083    -6.675373    58.601933  0.036718003  0.040308702            2 
  134000     1.205164   -6.7063554    58.772554  0.036550096  0.040276463            1 
  135000    1.2104479   -6.6866868    59.190296   0.03653722  0.040242333            2 
  136000    1.1891906   -6.6897673     59.64523  0.036547322  0.040212526            2 
  137000    1.2059624   -6.6893239    60.271974  0.036661785  0.040182384            1 
  138000    1.1969298   -6.7147266    60.632724  0.036613964  0.040156624            2 
  139000     1.186718   -6.7397985    61.236464  0.036712508  0.040131127            2 
  140000    1.1828574   -6.6546596    61.899193  0.036844758  0.040109707            1 
  141000    1.2151885   -6.6846104    62.328274  0.036837041  0.040088821            2 
  142000    1.1842008   -6.6712752    62.417426  0.036629945  0.040064122            1 
  143000    1.1777073   -6.6945342    62.923115  0.036668482  0.040036238            1 
  144000    1.1999183   -6.6843315    63.289559  0.036625902   0.04001008            1 
  145000     1.214091   -6.7089377    64.110556  0.036845147  0.039989305            3 
  146000    1.1890375   -6.6904008    64.726143  0.036944146  0.039970391            1 
  147000    1.2124421    -6.675578    65.074466  0.036890287  0.039953052            1 
  148000     1.166574   -6.6682622    65.401541  0.036825192  0.039932171            1 
  149000    1.1810324   -6.7102935    65.671187  0.036728852  0.039907534            1 
  150000     1.166538   -6.7119416     65.90808    0.0366156   0.03987866            2 
  151000    1.1843441   -6.6836476    66.254331    0.0365642  0.039849753            2 
  152000    1.1842728   -6.7184679    66.600297  0.036513321  0.039818126            2 
  153000    1.1882563   -6.6922654    67.147572  0.036572751   0.03978805            4 
  154000    1.1877026   -6.7472113    67.458388  0.036503457  0.039756762            2 
  155000    1.1872311    -6.725059    68.274782  0.036706872  0.039727315            1 
  156000    1.2056926   -6.7201517    68.459307  0.036570143   0.03969852            1 
  157000    1.1877658   -6.7236581     68.89954  0.036570881  0.039666737            1 
  158000    1.1912909   -6.7235219    69.214467   0.03650552  0.039636549            2 
  159000    1.1879921   -6.6998226    69.561344  0.036457727  0.039604506            2 
  160000    1.1953681   -6.6931933    70.099292  0.036510048  0.039571576            4 
  161000    1.1786872   -6.7134578    70.349572  0.036412822   0.03953609            3 
  162000    1.1855262    -6.732014    70.675316  0.036355615  0.039500949            1 
  163000    1.1864904   -6.7382915    70.913845  0.036254522  0.039463058            2 
  164000    1.2090213   -6.7400882    71.550462  0.036356942  0.039426202            2 
  165000    1.1810075   -6.7437394    71.767584  0.036246254    0.0393905            1 
  166000    1.1981381    -6.705882    72.729742  0.036510915  0.039357373            2 
  167000    1.1951039   -6.7265193    73.191173  0.036522541  0.039328901            1 
  168000    1.1744029   -6.7077539    73.898285  0.036655895  0.039304305            3 
  169000    1.1974114   -6.7167931     74.21058  0.036592988  0.039279875            4 
  170000    1.2018061   -6.7138649    74.656499  0.036596323   0.03925672            1 
  171000    1.1749201   -6.7467545     74.99463  0.036547091  0.039231952            3 
  172000    1.1972318   -6.7378945    75.426389  0.036543793  0.039206952            2 
  173000    1.1565573   -6.6816915    76.143865  0.036678162  0.039182395            1 
  174000     1.181655   -6.6969643    76.570627  0.036671756  0.039163519            2 
  175000    1.1632893   -6.7038562    77.124052  0.036725739  0.039145624            4 
  176000    1.1641072   -6.6852975    77.601051  0.036742922  0.039126814            2 
  177000    1.1752031   -6.6808087    77.903928  0.036677932  0.039108287            4 
  178000    1.2055528   -6.7220247     78.40242  0.036705253  0.039088666            1 
  179000    1.1703708   -6.7346936    78.618035  0.036600575  0.039066674            3 
  180000    1.1746569   -6.7551161    79.121514  0.036630331   0.03904575            3 
  181000    1.1890207    -6.750524     79.67711  0.036683752  0.039025217            3 
  182000    1.2004382   -6.7162822    80.272821  0.036754955  0.039008883            2 
  183000    1.1766295   -6.7091699    80.337278   0.03658346  0.038992614            2 
  184000    1.1874016   -6.7336659     80.72199  0.036558872  0.038972799            1 
  185000    1.1662548   -6.7465864    81.075216  0.036520367  0.038949344            3 
  186000    1.1866526   -6.7678702    81.131285  0.036349142  0.038926458            1 
  187000    1.2058571   -6.7109967    82.284171  0.036668525  0.038904536            3 
  188000    1.1749265   -6.7069231     82.50441  0.036571103  0.038885509            1 
  189000    1.1932368   -6.7603216    82.864147   0.03653622   0.03886686            1 
  190000    1.1631198   -6.7275413    83.235276    0.0365067  0.038848444            2 
  191000    1.1635897   -6.7142677     83.99455  0.036646837  0.038827071            1 
  192000    1.1674931    -6.778214    84.259934  0.036571152  0.038808117            1 
  193000    1.1666552    -6.727234    84.627713  0.036540463   0.03879095            1 
  194000    1.1666764   -6.7000205    85.593511  0.036766972  0.038772729            2 
  195000     1.164459    -6.735261    85.925123  0.036720138  0.038756791            3 
  196000    1.1836826   -6.7370906    86.297191  0.036690983  0.038741775            1 
  197000    1.1903268   -6.7396926    86.460309  0.036573735  0.038727091            5 
  198000    1.1829895   -6.7351014    87.121495  0.036667296  0.038711782            4 
  199000    1.1768278   -6.7362856    87.321206  0.036566669  0.038696092            2 
  200000    1.1629063   -6.7422255    87.768997  0.036570415  0.038678627            2 
  201000    1.1607458    -6.716868    88.211482  0.036571925  0.038658164            2 
  202000     1.168853   -6.7310356    88.449485  0.036489061  0.038636659            2 
  203000    1.1772548   -6.7652403    88.723082  0.036421626  0.038615056            2 
  204000    1.1562982   -6.7427015    89.211577  0.036442638  0.038594918            2 
  205000    1.1723218   -6.7665339    89.305407  0.036303011  0.038572548            1 
  206000    1.1843186   -6.7854898    89.937554  0.036382506  0.038549364            2 
  207000     1.166186   -6.7659029    90.376417  0.036383421  0.038527713            3 
  208000    1.1649313   -6.6902097    90.973244  0.036447614  0.038505801            2 
  209000    1.1960277   -6.7537366    91.017298  0.036290789  0.038482438            1 
  210000    1.1645749   -6.7747374    91.565267  0.036335423  0.038458745            1 
  211000    1.1410694   -6.7417096    91.705356  0.036218545  0.038434393            1 
  212000    1.1982186   -6.7401102     92.14919  0.036222166  0.038411265            1 
  213000    1.1663285    -6.722234    93.098037  0.036423332  0.038387127            1 
  214000    1.1689544   -6.7454983    92.987861  0.036210226  0.038363119            5 
  215000    1.1542165   -6.7488741    93.494749  0.036238275  0.038340385            3 
  216000    1.1759445   -6.7492841    94.028103  0.036276274  0.038317002            2 
  217000    1.1421578   -6.7647106    94.151276  0.036156404  0.038291426            2 
  218000    1.1768012    -6.749179    94.568095  0.036149883  0.038265667            2 
  219000    1.1704339   -6.7511187    94.826985  0.036083328  0.038239624            3 
  220000    1.1653013   -6.8113792    95.130238  0.036034181  0.038213034            1 
  221000     1.172478   -6.7399921    95.853283  0.036143772   0.03818699            2 
  222000    1.1796429   -6.7596526    95.842742  0.035977005  0.038160404            1 
  223000    1.1759459   -6.7403786    96.162232  0.035935064  0.038133168            2 
  224000     1.166926   -6.7803381    96.618225   0.03594428  0.038104792            1 
  225000    1.1536781   -6.7717908    97.487552  0.036106501  0.038076741            3 
  226000    1.1430565   -6.7474177      97.8875  0.036094211  0.038050536            3 
  227000    1.1741429   -6.7802788    97.902136  0.035940579  0.038024791            2 
  228000    1.1627141   -6.7638601    98.697259  0.036073559  0.038001557            1 
  229000    1.1751431   -6.7581838    99.004119    0.0360277  0.037976504            1 
  230000    1.1606876   -6.7600403     99.55197  0.036069554  0.037951652            4 
  231000     1.166646   -6.7430368    99.923241  0.036047345  0.037928636            2 
  232000    1.1804646   -6.7776072     100.1221  0.035963399  0.037904176            3 
  233000    1.1839016   -6.6865136    101.01707   0.03612914  0.037881835            1 
  234000    1.1625905   -6.7212675    101.03809  0.035982225  0.037858269            1 
  235000    1.1539621    -6.773098     101.4002  0.035957517  0.037833562            2 
  236000    1.1495909   -6.7647863    101.48115   0.03583374  0.037808075            2 
  237000    1.1704025   -6.7693224    102.16509  0.035923026  0.037781595            2 
  238000    1.1872635   -6.8028305    102.53748  0.035902481  0.037756767            4 
  239000    1.1537865   -6.7753726    102.85482  0.035862909  0.037731285            2 
  240000    1.1675598   -6.7437659    103.32783   0.03587772  0.037706879            3 
  241000    1.1372511   -6.7571401    103.68225  0.035851401  0.037682445            2 
  242000    1.1456767   -6.7794676    103.71654   0.03571506  0.037656114            1 
  243000     1.157429   -6.7354385    104.17276   0.03572454  0.037630175            4 
  244000    1.1584242   -6.7507019    104.36184  0.035642704  0.037602942            3 
  245000     1.157924   -6.7785774    105.07425   0.03573954  0.037577018            2 
  246000    1.1566036   -6.7966654    105.53787  0.035751311  0.037553469            1 
  247000    1.1726831   -6.7626413    105.87383  0.035719914  0.037529295            4 
  248000    1.1619914   -6.7607009     106.2465   0.03570111  0.037505811            2 
  249000    1.1526891   -6.7645319    106.98607  0.035805243  0.037482519            1 
  250000    1.1617882   -6.7951063    106.98678  0.035662261  0.037458132            2 
  251000    1.1223817   -6.7934361    107.42191  0.035664646  0.037434547            3 
  252000    1.1516604   -6.8246824    107.99084  0.035711257  0.037410705            2 
  253000    1.1693818    -6.779285    108.18759  0.035634911  0.037386593            3 
  254000    1.1656877    -6.815186    108.76322  0.035683471  0.037362122            2 
  255000    1.1430587   -6.7612839    109.03266  0.035631589  0.037340071            2 
  256000    1.1684927   -6.7678265    109.45231  0.035629009  0.037318306            2 
  257000    1.1425977   -6.7824077    110.09481  0.035698706  0.037296855            2 
  258000     1.152799   -6.8182176    109.99859  0.035529261  0.037275785            2 
  259000      1.14198   -6.7593035    110.64035  0.035598569  0.037253869            1 
  260000    1.1554917   -6.7613995    111.29607  0.035671817  0.037233164            1 
  261000     1.145427   -6.7956726    111.51994  0.035606623  0.037214564            4 
  262000    1.1949998    -6.766882    112.26667  0.035708227  0.037194687            1 
  263000    1.1681433    -6.735325    112.94941  0.035788786  0.037176123            2 
  264000    1.1667686   -6.7949154    113.27273   0.03575528  0.037156943            2 
  265000    1.1825636   -6.8197183    113.25603  0.035615104  0.037136777            3 
  266000    1.1387568   -6.7847561    113.72985  0.035629651  0.037115815            1 
  267000      1.15172   -6.7599318    114.19715  0.035642056  0.037096444            2 
  268000    1.1577792     -6.81437    114.56384  0.035623085   0.03707738            4 
  269000    1.1518085    -6.806224    115.57348  0.035803434  0.037059666            1 
  270000    1.1489345   -6.7820358    115.89743  0.035770812  0.037043462            3 
  271000    1.1461705   -6.7984575    116.06448  0.035690184  0.037026433            2 
  272000    1.1536804   -6.7924198    116.70265  0.035754489  0.037009318            1 
  273000    1.1470475   -6.7760021    117.24515  0.035789118  0.036992012            2 
  274000    1.1464425   -6.7824046    117.24998  0.035659969  0.036974223            2 
  275000    1.1317063   -6.8010341    117.35795  0.035563017  0.036956224            2 
  276000    1.1500719   -6.8036225    117.98996  0.035624988  0.036939823            2 
  277000    1.1532248   -6.7893252    118.71019  0.035713054  0.036923251            3 
  278000    1.1442671   -6.8183417    118.87058  0.035632669  0.036906487            2 
  279000     1.133646   -6.7781821     119.2276  0.035611588  0.036889554            1 
  280000    1.1342135   -6.7794671    119.74387  0.035638056  0.036872351            2 
  281000     1.168907   -6.8362055    119.94926   0.03557214  0.036854952            2 
  282000    1.1355403    -6.866426    119.93401  0.035441493  0.036835421            2 
  283000    1.1493705   -6.8245599    120.29162   0.03542156  0.036815647            1 
  284000    1.1581639   -6.8174028    120.69642  0.035415616  0.036795974            3 
  285000    1.1413579   -6.8359431    121.00087   0.03538037  0.036775975            2 
  286000    1.1364859   -6.8233103    121.25547  0.035330848  0.036755787            2 
  287000    1.1272494   -6.8154831    121.50216  0.035279373  0.036734546            2 
  288000    1.1005584   -6.8556944    122.08516  0.035325568  0.036714735            3 
  289000    1.1807929   -6.8203518    122.66782  0.035371345    0.0366946            3 
  290000    1.1347757   -6.8220813    123.33613  0.035441416  0.036675263            2 
  291000    1.1327541   -6.8073322     123.5449   0.03537941  0.036656725            1 
  292000    1.1186062   -6.8134918    123.86592  0.035349863   0.03663727            4 
  293000    1.1151083   -6.8482447    124.14796   0.03530943  0.036617346            1 
  294000    1.1380763   -6.8111029    124.49421  0.035287476  0.036598516            2 
  295000    1.1329116   -6.8573468    124.73579  0.035236099  0.036579245            1 
  296000     1.131889   -6.8025514    124.78043  0.035129627  0.036557602            2 
  297000    1.1242657   -6.8108337    125.62551  0.035248458   0.03653605            3 
  298000    1.1386256   -6.8126934    126.01635  0.035239472  0.036516342            3 
  299000    1.1433018   -6.8018756     126.9353  0.035377731  0.036497524            1 
  300000    1.1200538   -6.8362107    126.96735  0.035268709  0.036478092            4 
  301000    1.1477803   -6.8736041    126.80939  0.035107806  0.036459962            1 
  302000    1.1288967   -6.8448244     127.7731  0.035257477  0.036441494            1 
  303000    1.1461326   -6.8698017    128.14766  0.035244132  0.036424553            2 
  304000    1.1240699   -6.8128919    128.19695  0.035141709  0.036405459            1 
  305000    1.1142213   -6.7862846    128.75832   0.03517987  0.036387673            3 
  306000    1.1308126   -6.8351703    129.19597  0.035184089  0.036369269            2 
  307000    1.1443128   -6.8063857    129.77678   0.03522714  0.036350451            1 
  308000    1.1164287   -6.7977206    129.89377  0.035144419  0.036332147            2 
  309000     1.112918   -6.8422211    130.28617  0.035136507  0.036312723            2 
  310000    1.1296611   -6.8703903    130.58792  0.035104278   0.03629362            2 
  311000    1.1421222   -6.7945184     131.4641  0.035226179  0.036276747            1 
  312000    1.1221204   -6.7847286    131.85611  0.035217977  0.036258338            3 
  313000    1.1255656   -6.8349706    131.47719  0.035004578  0.036240666            6 
  314000    1.1299743   -6.8232789    132.07921  0.035052868  0.036221531            3 
  315000    1.1327155   -6.8298376    132.45574  0.035041201  0.036201855            5 
  316000    1.1324366   -6.8456945    132.57688  0.034962258  0.036182003            2 
  317000    1.1598938   -6.8153994    132.63227  0.034866528  0.036162481            2 
  318000    1.1572712   -6.8427657    132.96923  0.034845187  0.036142304            1 
  319000     1.092128   -6.8883629    133.46934  0.034866598  0.036122734            2 
  320000    1.1420337   -6.8604577    133.98039  0.034890727  0.036103952            3 
  321000    1.1227345   -6.8427966    134.72034  0.034974127  0.036084928            2 
  322000    1.1272822   -6.8489566    134.41397  0.034786223  0.036065617            3 
  323000     1.147951   -6.8427787    135.23326  0.034889901  0.036045028            3 
  324000    1.1315402   -6.8762319    135.28939  0.034796654   0.03602647            1 
  325000    1.1208093   -6.8298737    136.30126  0.034949041  0.036008267            4 
  326000    1.1214897   -6.8753977    136.51692  0.034896963  0.035991043            2 
  327000    1.1163585   -6.9084598    137.05519  0.034927418  0.035974401            2 
  328000    1.1356928   -6.8543736    137.94161  0.035046141  0.035958405            2 
  329000    1.1418052   -6.8344484    138.61535   0.03511027  0.035943699            3 
  330000    1.1318378   -6.8077774    138.90851  0.035077907  0.035929243            2 
  331000    1.1132462   -6.8358976    138.64034  0.034904415  0.035913576            3 
  332000    1.1145121    -6.852376    139.00338  0.034890407  0.035897588            4 
  333000    1.1266441   -6.8431346    139.65475  0.034948636   0.03588091            2 
  334000    1.1415374    -6.846529    139.82526  0.034886543  0.035865061            3 
  335000    1.0905441   -6.8349343    139.94794   0.03481292  0.035849285            4 
  336000    1.0890581   -6.8598715    140.93799  0.034954858  0.035833329            2 
  337000     1.126834   -6.8104629    141.16137  0.034906371  0.035818818            2 
  338000    1.1066224   -6.8523566    141.91546  0.034989019  0.035804461            2 
  339000    1.1286483   -6.8371275     141.9425  0.034892454  0.035789858            1 
  340000    1.1283932   -6.8608814    142.49557  0.034925385  0.035775745            2 
  341000    1.1288096   -6.8651088    142.66642  0.034864716  0.035761562            2 
  342000    1.1178591   -6.8346674    143.12679   0.03487495  0.035748378            4 
  343000    1.1067346   -6.8272278    143.58101  0.034883628  0.035735183            3 
  344000    1.1197862     -6.82926    143.63367  0.034794979   0.03572032            2 
  345000    1.1079769   -6.8360928    144.26608   0.03484688  0.035704997            1 
  346000    1.1412128   -6.8539196    144.85438  0.034887856   0.03568973            9 
  347000     1.106066   -6.8801219    145.04887  0.034834021  0.035674797            2 
  348000    1.1079525   -6.8498086      145.411  0.034820641  0.035659522            1 
  349000    1.1164401   -6.8520829    145.93429  0.034845818  0.035644677            3 
  350000    1.0902167   -6.8618111    145.94321  0.034748384  0.035628912            1 
  351000    1.1083094   -6.8829397    146.29048  0.034731833  0.035614259            1 
  352000    1.1056704    -6.856754    146.60105  0.034706688  0.035599419            1 
  353000    1.1230333    -6.859699    146.46669   0.03457665  0.035583701            2 
  354000      1.10489   -6.8887865    146.80496  0.034558607  0.035567576            2 
  355000    1.1422778   -6.8924482    147.50151  0.034624769  0.035551834            6 
  356000    1.1227906   -6.8374518    148.58823  0.034781888  0.035537018            1 
  357000    1.1209308   -6.8127991    149.64966  0.034932227  0.035523609            1 
  358000    1.1138477   -6.8530959    149.34188  0.034763008   0.03551004            3 
  359000    1.1127322   -6.8697804    149.46896  0.034695674  0.035497301            2 
  360000    1.1139162   -6.8835006    150.12057  0.034750132  0.035484042            4 
  361000    1.0938644   -6.8582629    150.92439  0.034839424  0.035472027            3 
  362000    1.1271301   -6.8590622    151.01628  0.034764336  0.035459818            5 
  363000    1.0994449   -6.8354338    151.97678  0.034889069  0.035447868            2 
  364000    1.1376767    -6.886049    151.33615  0.034646555  0.035435309            4 
  365000    1.1154728    -6.897693    152.21083  0.034751331  0.035421385            4 
  366000    1.1126435   -6.8402496    152.55379  0.034734469  0.035408782            2 
  367000    1.0972393   -6.8764627    153.36671  0.034824412  0.035396419            1 
  368000    1.0997734   -6.8748334     153.2189  0.034696308  0.035382984            1 
  369000    1.1094701   -6.8917805    153.16383  0.034589844  0.035369491            3 
  370000    1.1167919   -6.8842576    154.20072  0.034729891  0.035356274            1 
  371000    1.0977115   -6.8413402     154.7913  0.034768936  0.035343403            1 
  372000    1.1132701   -6.9323447    154.16067  0.034534201  0.035329025            2 
  373000    1.0893542   -6.8946035    154.69388  0.034560741  0.035314244            3 
  374000    1.0942675   -6.8807159    154.68092  0.034465445  0.035299494            3 
  375000    1.0834471   -6.8585656    155.12362  0.034471916  0.035283972            3 
  376000    1.1066095   -6.8878122     154.9658  0.034345256  0.035268677            2 
  377000    1.1133697   -6.8532599    155.51883    0.0343764  0.035252489            4 
  378000    1.0905569   -6.8484739    156.24081  0.034444624  0.035237271            2 
  379000     1.082378   -6.8830958      156.396  0.034387863  0.035222494            1 
  380000    1.1069493   -6.8906307    156.42644  0.034304043  0.035206614            2 
  381000    1.1369687   -6.8837187    157.98397  0.034554674  0.035191569            2 
  382000    1.0955541   -6.8673539    158.23481  0.034518938  0.035177718            2 
  383000    1.1193555   -6.8926165    158.08342   0.03439587  0.035162549            2 
  384000    1.1392766   -6.8936117    158.47878  0.034392096  0.035148227            2 
  385000    1.1166553   -6.8746254     159.2969  0.034479848  0.035134877            1 
  386000    1.0866623   -6.9140033     158.8216   0.03428791  0.035121135            1 
  387000    1.0976049   -6.8861166    160.15578  0.034486601  0.035107405            2 
  388000    1.1127944   -6.8722638    160.00719  0.034365805  0.035094334            2 
  389000    1.1014925   -6.8607508    160.73958  0.034434357  0.035080855            1 
  390000    1.1053346    -6.889147    160.47306  0.034289115  0.035066707            3 
  391000    1.1015948   -6.8960659    160.46988  0.034200742  0.035051869            6 
  392000    1.0712092   -6.8946253    161.14711  0.034257464  0.035036132            3 
  393000    1.0842671   -6.8913451    161.36586   0.03421668  0.035020772            2 
  394000    1.1076046    -6.876326     162.1476  0.034295177  0.035005784            5 
  395000    1.0981831   -6.8936014    162.15701  0.034210339  0.034991084            2 
  396000    1.0688697   -6.8982752    162.52946  0.034202328  0.034976565            1 
  397000    1.0894942   -6.9144412    163.17564  0.034251813  0.034962505            2 
  398000    1.0839827   -6.9004896     163.1206   0.03415423  0.034948407            3 
  399000    1.0751746   -6.8893373    164.01413  0.034255249  0.034934146            2 
  400000    1.1106102   -6.8963511    164.48728  0.034268183  0.034920364            2 
  401000    1.1052961   -6.8846997    164.05083  0.034092027  0.034905318            2 
  402000    1.0896489   -6.8902205    165.13566  0.034232101  0.034890109            4 
  403000    1.0957915    -6.838574     165.8573  0.034296382   0.03487558            4 
  404000    1.0788338   -6.9091386     165.5312  0.034144224  0.034861082            3 
  405000    1.0880884   -6.8707415    165.77388  0.034109852  0.034846674            3 
  406000    1.0770997   -6.9117455    165.52263  0.033974268  0.034830823            1 
  407000    1.0923318   -6.9325642    166.00918  0.033990413    0.0348152            4 
  408000    1.1079845   -6.8878809    166.62472  0.034032827  0.034799449            2 
  409000     1.088854   -6.9149728    166.92503  0.034010806  0.034783562            1 
  410000    1.0837616   -6.9188413    166.58773  0.033859295  0.034767136            1 
  411000    1.0790562   -6.8911082    167.87443  0.034037799  0.034750197            3 
  412000    1.0908198   -6.9047045    167.89635  0.033959619  0.034733579            5 
  413000    1.1061706    -6.897442    168.10934  0.033920368  0.034717335            2 
  414000    1.0910375   -6.9332347    167.94448  0.033805249  0.034700311            3 
  415000    1.1096561   -6.9001131    168.38741  0.033812733  0.034683438            3 
  416000    1.0648971   -6.9131119    168.68537   0.03379114  0.034666653            2 
  417000    1.0655565   -6.8703983    168.57676  0.033688402  0.034649224            2 
  418000    1.0780993   -6.9054758    169.22455  0.033736952  0.034631672            4 
  419000    1.0588602   -6.9165015    169.91113  0.033792985  0.034614189            2 
  420000    1.0882016   -6.9259343    169.80154  0.033690782   0.03459659            1 
  421000    1.0615314   -6.9019841    170.41585  0.033732353  0.034579161            2 
  422000    1.0963956   -6.8929927    170.63245  0.033695192  0.034561529            3 
  423000    1.0739799   -6.9125487    171.48928  0.033784335  0.034544316            4 
  424000    1.0868004    -6.875443    171.73775   0.03375349  0.034526872            1 
  425000    1.0917317   -6.9075266    171.53142  0.033633611  0.034509218            2 
  426000    1.0697248   -6.9188343    172.71435  0.033786063  0.034492059            2 
  427000    1.0696355   -6.9251685    172.01501  0.033570455  0.034474204            1 
  428000    1.0734674   -6.8927597    172.66518  0.033618609  0.034456241            2 
  429000    1.0753251   -6.8888029    173.13418  0.033631347  0.034439231            2 
  430000    1.0894535   -6.9406244    172.63084  0.033455589  0.034422083            4 
  431000    1.0943509   -6.8920267     173.9405  0.033631187  0.034404495            4 
  432000    1.0769118   -6.9402319    174.15741   0.03359518  0.034387153            3 
  433000    1.0765473   -6.9335524    174.52884  0.033589077  0.034369418            3 
  434000    1.0516633   -6.9558631    174.28934  0.033465695  0.034351603            2 
  435000    1.0758096   -6.9332739    175.18782  0.033560885  0.034332793            1 
  436000    1.1021586    -6.941236    174.70262  0.033391173  0.034314644            4 
  437000    1.0728068   -6.9418906    175.40986   0.03344963  0.034296042            1 
  438000    1.0913457   -6.9246318    175.77639  0.033442997  0.034277898            2 
  439000    1.0645727   -6.9207079    175.78975  0.033369353  0.034259033            2 
  440000    1.0813431   -6.9425819    175.57782  0.033253374  0.034240037            1 
  441000    1.0993988   -6.9202977    176.74391   0.03339832  0.034221783            2 
  442000    1.0949948   -6.9230468     177.0626  0.033382843  0.034203706            3 
  443000    1.0847403   -6.9206563    177.59999  0.033408577  0.034186554            1 
  444000    1.0741171   -6.9029273    178.60117   0.03352124  0.034169147            5 
  445000    1.0799042   -6.9136902    179.03221   0.03352663  0.034152043            1 
  446000    1.0800259   -6.9268532    178.74098  0.033397044  0.034135348            2 
  447000    1.0822418   -6.9567311    178.12864  0.033208173  0.034117974            5 
  448000    1.0592523   -6.9096875    178.96664  0.033289926  0.034099948            2 
  449000    1.0699311   -6.9201854    179.14893  0.033249617  0.034081632            3 
  450000    1.0653694   -6.9280036    179.36789  0.033216276   0.03406294            2 
  451000    1.0597947   -6.9563025    179.48507  0.033164278  0.034045179            2 
  452000    1.0429716   -6.9530921    180.10617  0.033205414   0.03402769            2 
  453000    1.0604111   -6.9205285    180.74124  0.033248939   0.03400986            2 
  454000    1.0937702   -6.9119142    180.60385  0.033150487  0.033992037            2 
  455000    1.0661199   -6.9772313    181.37622  0.033219088  0.033974188            2 
  456000    1.0685208   -6.9343849    181.57039  0.033181723  0.033956684            4 
  457000     1.072085   -6.9433649    182.29964  0.033242093  0.033939839            2 
  458000    1.0628481   -6.9683938    183.08385    0.0333122  0.033923446            1 
  459000     1.068044   -6.9421966    182.79273   0.03318677  0.033907623            3 
  460000    1.0784388   -6.9567348     183.3137  0.033209003  0.033891502            2 
  461000    1.0776005   -6.9626372    183.76422  0.033218405  0.033875829            1 
  462000    1.0725746    -6.954684    184.64128  0.033304704  0.033859942            3 
  463000    1.0683539   -6.9192311    184.73369  0.033249404  0.033844575            3 
  464000    1.0318464   -6.9597589    184.99507  0.033224688  0.033829132            3 
  465000    1.0701482    -6.949817    185.27375  0.033203181  0.033813279            2 
  466000     1.084373   -6.9659303    185.43726   0.03316117   0.03379766            3 
  467000     1.093147   -6.9754267    185.96324  0.033184018  0.033782477            3 
  468000    1.0729392   -6.9562529    186.07836  0.033133611  0.033766702            4 
  469000    1.0626055   -6.9256537    186.38136  0.033116801  0.033751166            1 
  470000    1.0668465   -6.9597514    186.79574  0.033119812  0.033735814            3 
  471000    1.0816255   -6.9700844    187.06289  0.033096761  0.033719438            2 
  472000    1.0771685   -6.9393613    187.85291  0.033166121  0.033704161            2 
  473000    1.0887785   -6.9607058    187.41667  0.033019145    0.0336887            4 
  474000     1.079614   -6.9744434    188.29948   0.03310469  0.033672858            3 
  475000    1.0677846   -6.9827239    188.28521  0.033032492  0.033656453            2 
  476000    1.0786378   -6.9858305    188.41821  0.032986382  0.033640206            3 
  477000    1.0568263   -6.9204355    188.78087  0.032980586  0.033623822            1 
  478000    1.0506915   -6.9488843     188.5493  0.032871217  0.033607098            3 
  479000    1.0441225    -6.964225    188.33871  0.032765956  0.033589784            2 
  480000    1.0508995   -6.9822001     188.6286   0.03274802  0.033572488            9 
  481000    1.0596243   -6.9568036    189.72625  0.032870106  0.033554559            4 
  482000    1.0583772    -6.932003    190.62878  0.032957949  0.033536969            2 
  483000    1.0811894   -6.9774852    189.99549   0.03278045  0.033519236            2 
  484000    1.0631259   -7.0076409    189.68356  0.032659014  0.033501421            2 
  485000     1.085162   -6.9577291    190.69662  0.032765743  0.033483581            4 
  486000    1.0804836   -6.9647893     190.9979  0.032749984  0.033465453            2 
  487000    1.0963895   -6.9521301    190.93008  0.032671129   0.03344729            2 
  488000    1.0538895   -6.9696743     191.1671  0.032644656  0.033430163            2 
  489000    1.0721014   -6.9690497    192.05124  0.032728569  0.033412395            6 
  490000    1.0698504   -7.0009612    191.67778  0.032598261  0.033394305            2 
  491000    1.0606463   -6.9580252    192.48141  0.032668264  0.033376556            2 
  492000    1.0476596   -6.9613909    193.12851  0.032711469  0.033358888            2 
  493000    1.0611017   -6.9314539    192.56344  0.032549601   0.03334131            2 
  494000    1.0633326   -6.9858164    192.33222  0.032444707  0.033323292            2 
  495000    1.0655677   -7.0078579     192.6502  0.032432693  0.033304327            3 
  496000     1.074171   -6.9682596    193.88629  0.032574981  0.033285692            3 
  497000    1.0810082   -6.9962995    193.78371  0.032492238  0.033266646            3 
  498000    1.0705693   -6.9598609    194.41268  0.032532243  0.033248304            3 
  499000    1.0614029    -6.964593     194.6235  0.032502254   0.03323031            4 
  500000    1.0597751   -6.9699638    195.26373  0.032543956  0.033211846            2 
  501000    1.0531553    -6.942998    195.69496  0.032550726  0.033193614            1 
  502000    1.0316795   -6.9542078    195.55006   0.03246183  0.033175502            3 
  503000    1.0572909   -6.9970849    195.87678  0.032451422  0.033157678            3 
  504000     1.051596   -6.9546631    196.56188   0.03250031  0.033139444            2 
  505000    1.0434599   -6.9777329    196.66714  0.032453323  0.033121665            2 
  506000    1.0429597   -6.9807196    197.05636  0.032453288  0.033104054            2 
  507000    1.0694378   -6.9711309    197.50049  0.032462276  0.033086348            3 
  508000     1.070025   -7.0061907    197.25808  0.032358609  0.033068691            1 
  509000    1.0661273   -6.9888202    197.25458  0.032294463  0.033051088            3 
  510000    1.0725653   -7.0182355    197.59884  0.032287392  0.033032706            2 
  511000    1.0543764   -6.9955725     198.1231  0.032309703  0.033014239            6 
  512000    1.0426393   -6.9653323    198.47037  0.032303119  0.032996358            4 
  513000    1.0366079   -6.9917987    198.75058   0.03228567  0.032978483            1 
  514000    1.0511038   -6.9902277    198.98509  0.032260877  0.032960404            1 
  515000    1.0245343   -6.9471956    199.73362  0.032319356  0.032942672            2 
  516000    1.0520095   -6.9937403    199.53078  0.032223963  0.032924921            4 
  517000    1.0438572   -7.0025429    199.64814  0.032180551  0.032906633            3 
  518000    1.0648771   -7.0140344    199.95618  0.032167983  0.032888387            3 
  519000    1.0321491   -7.0004301    200.17689  0.032141441  0.032869888            3 
  520000    1.0201998   -7.0155952    200.08708  0.032065237   0.03285104            3 
  521000    1.0384542   -6.9643836    201.16791  0.032176568  0.032832666            3 
  522000    1.0484298   -6.9668603    201.41127  0.032153779  0.032814164            2 
  523000    1.0592937   -6.9757619    201.67054   0.03213361  0.032796031            3 
  524000    1.0624323   -6.9864992    202.03437  0.032130148  0.032778379            2 
  525000    1.0257073   -7.0153778    201.87433  0.032043544  0.032760816            4 
  526000    1.0260735   -6.9857984    202.65933  0.032106991   0.03274309            3 
  527000    1.0479168   -6.9892918    202.75182  0.032060693  0.032726002            2 
  528000    1.0287687   -6.9943154    203.49831  0.032117789   0.03270911            2 
  529000    1.0338311   -7.0238223     203.2053  0.032010917  0.032692046            3 
  530000     1.021827   -7.0116036    203.48246  0.031994098  0.032675264            2 
  531000    1.0395712   -7.0042989     204.8128  0.032142625  0.032658099            1 
  532000    1.0504943   -6.9885483    204.37539  0.032013689  0.032641459            3 
  533000    1.0335413   -7.0114875    205.64985  0.032152885  0.032624382            7 
  534000    1.0440118   -6.9655907    206.01307  0.032149356  0.032607981            1 
  535000    1.0359687   -7.0170856    205.62767  0.032029232  0.032591899            4 
  536000    1.0294122   -6.9990925    206.11484  0.032045218  0.032575378            2 
  537000    1.0390919   -7.0334846    206.29115  0.032012904  0.032559202            2 
  538000    1.0787549   -7.0317238    206.81326  0.032034273  0.032542933            1 
  539000     1.047322   -6.9892003     207.0833  0.032016589  0.032527105            2 
  540000    1.0389319   -7.0313197    207.50914  0.032023015  0.032511133            2 
  541000     1.033236   -7.0301276    207.62738  0.031982037  0.032494732            3 
  542000     1.048778   -7.0084174    208.25394  0.032019364   0.03247818            2 
  543000    1.0259542   -7.0146623    208.31925  0.031970419  0.032461767            1 
  544000     1.032573   -7.0217789    207.79937  0.031832012  0.032444579            2 
  545000    1.0337102   -6.9974241    208.96664  0.031952085  0.032427339            3 
  546000    1.0309168   -6.9901571    207.88002   0.03172772  0.032409996            1 
  547000    1.0488774   -7.0285215    207.58763  0.031625173  0.032392241            2 
  548000    1.0481649   -7.0191718    208.37201  0.031686742  0.032373616            1 
  549000    1.0507102   -7.0217991    207.65581  0.031520311  0.032354724            2 
  550000    1.0366103   -7.0296064    208.73554  0.031626597    0.0323351            2 
  551000    1.0478102    -7.051848    209.10296  0.031624766  0.032316156            2 
  552000    1.0160827   -6.9873691    209.64443  0.031649219  0.032297284            3 
  553000    1.0377149   -7.0125737    209.67116  0.031596015  0.032278473            2 
  554000    1.0437233   -7.0009185    210.39991  0.031648603  0.032260124            3 
  555000    1.0319864   -6.9852847    211.10907  0.031698058  0.032241953            1 
  556000    1.0325417   -7.0353879    211.19401  0.031653778  0.032224291            2 
  557000    1.0180015   -7.0036354    211.07793  0.031579582  0.032206803            5 
  558000    1.0432072   -7.0411042    212.03627   0.03166611  0.032189197            4 
  559000    1.0370168   -7.0515989    211.43822  0.031520308  0.032171072            4 
  560000    1.0481975   -7.0239628    211.94308  0.031539148  0.032153053            2 
  561000    1.0255172   -7.0285761    211.77393  0.031457803  0.032135496            2 
  562000     1.031859   -7.0127515    212.58348  0.031521868  0.032116763            2 
  563000    1.0419342   -7.0425708    212.33654  0.031429328  0.032098015            3 
  564000    1.0331812   -7.0480262    212.80183  0.031442351  0.032079133            3 
  565000    1.0449785   -7.0021637    212.49392  0.031341287  0.032060188            2 
  566000    1.0130839   -7.0220867    212.27866  0.031254219  0.032040662            1 
  567000    1.0262352   -6.9935638    213.19419  0.031333655  0.032021419            1 
  568000    1.0259849   -7.0030757    213.14892  0.031271848  0.032002068            2 
  569000    1.0319077   -7.0510108    212.37136  0.031103011  0.031982446            2 
  570000    1.0142008   -7.0842917    212.19648  0.031022877  0.031962109            3 
  571000    1.0092333    -7.071225    212.54192  0.031018961  0.031941615            2 
  572000    1.0535307   -7.0297811    213.48862  0.031102654  0.031921282            4 
  573000    1.0272629   -7.0599723    213.10905  0.030993172  0.031900623            2 
  574000     1.019809   -7.0139425    213.87935  0.031051008  0.031880096            2 
  575000    1.0202372   -7.0765917    214.07933  0.031025989  0.031859392            5 
  576000    1.0232614   -7.0422877    214.35675  0.031012262  0.031838537            2 
  577000    1.0331858   -7.0764129    213.51444  0.030836864  0.031817514            3 
  578000    1.0264097   -7.0208608    215.18729  0.031024696  0.031796542            3 
  579000    1.0146101   -7.0288681    214.68723  0.030899141  0.031776328            5 
  580000    1.0182398   -7.0885969    214.91719  0.030878906  0.031755925            2 
  581000   0.99850925   -7.0621144     215.4518  0.030902438  0.031735525            2 
  582000     1.051169   -7.0320334    215.63049  0.030874927  0.031714466            7 
  583000    1.0160427    -7.041974    215.91406  0.030862502  0.031693672            1 
  584000    1.0342528   -7.1037214       216.07  0.030831906  0.031673016            2 
  585000    1.0019654   -7.0546527    216.48755  0.030838682  0.031652739            5 
  586000    1.0420254    -7.075688    216.79918  0.030830373  0.031631972           10 
  587000    1.0235968   -7.0520397    217.00993   0.03080777  0.031611182            4 
  588000    1.0223325   -7.0400149    217.01729  0.030756418  0.031590425            2 
  589000    1.0210456    -7.041265    217.26449  0.030739175   0.03156956            2 
  590000    1.0111875    -7.037037    217.39246   0.03070515  0.031548894            2 
  591000    1.0225577   -7.0666209     217.5898  0.030681021   0.03152833            1 
  592000    1.0250066   -7.0781711    217.77664  0.030655496  0.031507753            2 
  593000    1.0176713   -7.0485545    218.13541  0.030654217  0.031487271            2 
  594000    1.0145029   -7.0660564     218.2277  0.030615558  0.031466466            2 
  595000    1.0130779   -7.0569575    218.65364  0.030623759  0.031445518            2 
  596000     1.002329   -7.0739091    218.57733  0.030561707   0.03142431            3 
  597000    1.0319472   -7.0652197    219.28507  0.030609307   0.03140333            6 
  598000    1.0172659   -7.0846244    218.84247  0.030496443   0.03138219            3 
  599000    1.0317071   -7.0470449    219.81209  0.030580425   0.03136107            3 
  600000    1.0196437   -7.0181625    220.34273  0.030603158  0.031340086            2 
  601000     1.018552      -7.0674    220.11553  0.030520733  0.031319411            4 
  602000    1.0085361   -7.0409238    219.88997  0.030438811  0.031298266            3 
  603000    1.0301031   -7.0753497    220.18398  0.030428964  0.031277591            2 
  604000    1.0069245   -7.0833053    220.58372  0.030433737  0.031256418            3 
  605000    1.0338514   -7.0595106    220.47871  0.030368968   0.03123554            1 
  606000    1.0290575   -7.0814559    221.41088  0.030447041  0.031214782            3 
  607000   0.99800148   -7.0848554    221.06933   0.03034999  0.031194029            1 
  608000    1.0034746   -7.0680544    221.22832  0.030321864  0.031173154            3 
  609000    1.0042169   -7.0847794    221.77753  0.030347227  0.031152722            4 
  610000    1.0180931   -7.1125665    221.40794  0.030246986  0.031131843            4 
  611000    1.0150416   -7.0748273    221.54807  0.030216594  0.031110828            3 
  612000    0.9973305   -7.0498713    222.73611  0.030328991  0.031090064            3 
  613000     1.006177   -7.0714712     223.2124  0.030344263   0.03106952            1 
  614000    1.0193256   -7.0734942    223.10998  0.030280941   0.03104855            6 
  615000    1.0056748   -7.1062461    222.86885  0.030199032  0.031027309            2 
  616000    1.0292956   -7.0772882    223.20283  0.030195188  0.031005889            3 
  617000    1.0199686   -7.0951141    223.75277  0.030220525  0.030985001            4 
  618000   0.97984072   -7.0525679    223.34677  0.030116878  0.030963874            1 
  619000   0.98874676     -7.06735    224.40572  0.030210786  0.030942346            6 
  620000    1.0163697   -7.0739491    223.95999  0.030102149  0.030921221            2 
  621000    1.0024338   -7.0591449    224.61485  0.030141553  0.030899706            3 
  622000   0.99334036   -7.0701997    224.46355  0.030072822  0.030878367            3 
  623000    1.0325999   -7.1068345    225.01702  0.030098585  0.030857155            1 
  624000   0.97894109   -7.1128321    225.38074  0.030098923  0.030836303            3 
  625000    1.0093283   -7.0761839    225.73978  0.030098637    0.0308151            5 
  626000    1.0089841   -7.0593136    225.82646  0.030062095   0.03079414            2 
  627000    0.9918114   -7.1224837    225.39765  0.029957157  0.030773207            2 
  628000    1.0164486   -7.0666818    226.25457  0.030023165  0.030752038            3 
  629000   0.99516161   -7.1193347    226.56919  0.030017115  0.030731152            4 
  630000    1.0181226   -7.1183248    226.12282  0.029910426  0.030710672            2 
  631000    1.0095558   -7.1079844    226.79585  0.029951908  0.030689699            4 
  632000    1.0021216   -7.0907459    227.48598  0.029995514  0.030669391            4 
  633000    1.0165131   -7.1097202    226.63386  0.029835947  0.030648653            4 
  634000   0.99433966   -7.0763574    227.02781  0.029840668  0.030627629            2 
  635000   0.98848456   -7.0908426    227.19574  0.029815714  0.030606349            3 
  636000   0.98050053   -7.1076507    227.22457  0.029772612  0.030584737            3 
  637000   0.99106326   -7.1112886    227.77542  0.029797935  0.030563832            3 
  638000    1.0010871   -7.0991342     226.9898  0.029648615  0.030542583            2 
  639000   0.99821815   -7.1223836    227.49856  0.029668565  0.030521429            2 
  640000    1.0035136   -7.0783328    228.27914  0.029723846  0.030499934            2 
  641000   0.98560055   -7.1097045    228.18315  0.029664996  0.030478534            1 
  642000    1.0075466   -7.0998808    227.94439  0.029587798  0.030457055            4 
  643000    0.9807307   -7.0723529    228.67785  0.029636839  0.030435762            1 
  644000   0.97410991   -7.0814659    229.35208  0.029678064   0.03041462            3 
  645000   0.99981624   -7.1073082    229.64026  0.029669284  0.030394063            3 
  646000   0.98621979    -7.090475    230.04102  0.029675055   0.03037335            3 
  647000   0.98742438   -7.1270856    230.39931  0.029675337  0.030352616            3 
  648000    1.0102471    -7.137713    230.60601  0.029656123  0.030332277            1 
  649000   0.99850474   -7.1313129    230.67565   0.02961937  0.030312067            2 
  650000   0.99601419   -7.0808922     231.2042  0.029641564  0.030291829            3 
  651000   0.99860164    -7.100501    231.21409  0.029597298  0.030271988            3 
  652000   0.99032096   -7.1124081    231.89714  0.029639205  0.030251854            3 
  653000   0.98086006   -7.1154874    231.79227  0.029580433  0.030231868            3 
  654000   0.98110969   -7.1185665     231.5826  0.029508487   0.03021232            3 
  655000    0.9949257   -7.1094839    232.87977   0.02962847   0.03019247            1 
  656000    1.0119602   -7.1491375    232.56195  0.029542931  0.030172481            5 
  657000    1.0280872   -7.1019191    232.71467  0.029517335  0.030152326            2 
  658000   0.99319252   -7.1009893    232.90122  0.029496101   0.03013241            5 
  659000   0.98670191   -7.1103867     233.0072  0.029464745  0.030112219            3 
  660000    1.0213041   -7.1298551    233.20441  0.029445002  0.030091901            2 
  661000   0.99562271   -7.1025539    233.56966  0.029446502  0.030071884            2 
  662000     0.970247   -7.0794003    233.85872  0.029438409  0.030051906            3 
  663000   0.98540822   -7.0772267    233.95015  0.029405499  0.030032164            7 
  664000    1.0067193    -7.102973    233.75604  0.029336852  0.030012072            4 
  665000   0.98816699   -7.1004098    234.10339  0.029336265   0.02999206            2 
  666000   0.98000741   -7.1384221    234.64812  0.029360376  0.029971629            1 
  667000   0.99196088   -7.1033974    235.38764  0.029408751  0.029951963            6 
  668000    1.0060622   -7.1298307    235.00582  0.029317094  0.029932126            4 
  669000    1.0093081   -7.1244604    235.71048  0.029361046  0.029912637            2 
  670000   0.98027367   -7.1346198    235.96041  0.029348309  0.029892865            3 
  671000    1.0022483   -7.0725929    236.04614  0.029315219  0.029872978            4 
  672000   0.97489579    -7.133752    236.03718  0.029270484  0.029853508            4 
  673000    1.0035501   -7.1731877    236.26825  0.029255603  0.029833132            3 
  674000   0.98375823   -7.1648164    235.85438  0.029161026  0.029812993            4 
  675000   0.98334206   -7.1342769      236.502  0.029197778   0.02979323            2 
  676000   0.98455026   -7.1600681    235.19003  0.028992854  0.029773193            3 
  677000   0.97901232   -7.1206151    236.97083  0.029169231  0.029753172            3 
  678000    0.9724912   -7.1316524    236.48965  0.029067066  0.029733116            2 
  679000     0.984716   -7.1402608    237.16837  0.029107557  0.029712903            2 
  680000   0.97823126   -7.1495831    237.03609   0.02904854   0.02969258            4 
  681000   0.97192764   -7.1588517    237.18203  0.029023744  0.029672354            2 
  682000   0.98862744   -7.1178299    237.75258  0.029050902  0.029652059            2 
  683000   0.95557532   -7.1562115     237.9134   0.02902799  0.029631982            2 
  684000   0.97692136   -7.1412244    238.31747  0.029034779  0.029612196            2 
  685000   0.97875255   -7.1149978    238.42224  0.029005139  0.029592332            2 
  686000   0.97218146   -7.1516427    238.88153   0.02901865  0.029572633            3 
  687000   0.96919299   -7.1510149    238.57464  0.028939185  0.029552558            4 
  688000   0.99417896   -7.1237685    239.08579  0.028959035  0.029532754            2 
  689000   0.99761898   -7.1418205     238.7858  0.028880721  0.029512958            3 
  690000   0.98198484   -7.1597519    239.53117  0.028928886  0.029492877            5 
  691000    0.9711416   -7.1687445     238.8803  0.028808527  0.029472913            2 
  692000   0.95840894   -7.1552305    239.13495  0.028797561   0.02945271            2 
  693000   0.97549417   -7.1710087    239.80572  0.028836667  0.029432337            2 
  694000   0.97366784   -7.1108629    240.35059  0.028860542  0.029412272            2 
  695000   0.96103424   -7.1662471    239.35787  0.028699984  0.029392014            2 
  696000   0.95972552   -7.1438498    240.00307     0.028736  0.029371623            4 
  697000   0.96110663   -7.1663962    240.38623  0.028740583  0.029351576            2 
  698000   0.95171634   -7.1969389    240.56254  0.028720456  0.029331377            3 
  699000   0.96902127   -7.1555544    240.85623  0.028714381  0.029311335            2 
  700000   0.98790883   -7.1213308    241.86752  0.028793753  0.029291288            4 
  701000   0.98693542   -7.1038067      240.598  0.028601759  0.029271066            2 
  702000   0.96687306   -7.1657658    240.48778  0.028547932  0.029250724            3 
  703000   0.99275106   -7.1517825    241.93041  0.028678333  0.029230474            1 
  704000    0.9808693   -7.1344186    242.44703  0.028698749  0.029210432            2 
  705000   0.99213823   -7.1803392    241.81313  0.028583113  0.029190316            5 
  706000   0.96273164   -7.1115778    242.85569  0.028665686  0.029170471            2 
  707000   0.97457738   -7.1370611    242.43336  0.028575361  0.029150621            3 
  708000   0.97752348   -7.1759906    242.58095  0.028552372   0.02913085            1 
  709000   0.98843287   -7.1366806    243.62598  0.028634929  0.029111336            2 
  710000   0.96191823   -7.1740317    243.32456  0.028559221  0.029091776            2 
  711000    0.9716566   -7.1597551    243.22537  0.028507427  0.029072038            3 
  712000   0.96777918   -7.1664172    244.12445  0.028572618  0.029052362            3 
  713000     0.973489   -7.1646274    244.39636  0.028564324  0.029032981            2 
  714000   0.96915792   -7.1614042    244.30693  0.028513881  0.029013548            4 
  715000    0.9488012   -7.1754729     244.8462  0.028536853  0.028994294            3 
  716000   0.97093784   -7.1510327    245.03907  0.028519445  0.028974784            2 
  717000   0.99404968   -7.1937919    244.75547  0.028446707  0.028955362            4 
  718000     0.984445   -7.1802984    245.25956  0.028465595  0.028935707            4 
  719000    0.9701293   -7.2193468    244.00753  0.028280891  0.028916111            2 
  720000   0.96932663   -7.1132661    245.36902  0.028399192  0.028896638            3 
  721000   0.97136055   -7.1748335    245.54124  0.028379708  0.028876926            2 
  722000   0.97617021   -7.1588557    245.57539  0.028344343    0.0288572            2 
  723000   0.97570417   -7.1224018     245.7078  0.028320401  0.028837599            2 
  724000    0.9591904   -7.1256423     245.8403  0.028296535  0.028818005            5 
  725000   0.98433781   -7.1810136    246.06958   0.02828386  0.028798734            2 
  726000   0.96371395   -7.1786322     246.2474  0.028265312  0.028779072            2 
  727000   0.98421039    -7.207239    246.55115   0.02826125  0.028759831            3 
  728000   0.97134557   -7.1951062    246.54943  0.028222234  0.028740619            3 
  729000   0.95328825   -7.1737284     246.8536   0.02821829  0.028721615            5 
  730000    0.9517374   -7.1634827    247.34224  0.028235416  0.028702738            1 
  731000   0.97161444   -7.1709013    248.59041   0.02833908   0.02868411            3 
  732000   0.98232322   -7.1780522    248.95628  0.028342018  0.028665661            4 
  733000   0.95818964   -7.1962845    248.07818  0.028203522    0.0286469            2 
  734000   0.97666829   -7.1487677    248.71346  0.028237223  0.028628062            2 
  735000   0.94801771   -7.1700499    249.20623  0.028254675  0.028609413            5 
  736000   0.97856692   -7.1849357    249.06081   0.02819982  0.028590758            2 
  737000   0.94957411   -7.1733746     249.5322  0.028214858  0.028572325            2 
  738000    0.9518932   -7.2001145    249.65016  0.028189946  0.028553679            1 
  739000   0.95658511   -7.1724625     250.0498  0.028196865  0.028535106            5 
  740000   0.95265554   -7.1783994    250.45613  0.028204519  0.028516634            6 
  741000   0.94877592    -7.152448    250.90474  0.028216907   0.02849839            2 
  742000   0.94879625   -7.1484794    250.66662  0.028152136  0.028480161            2 
  743000   0.96300346   -7.1872687    250.81175  0.028130523  0.028461882            2 
  744000   0.94532698   -7.1827424    251.13585  0.028129016  0.028443716            3 
  745000   0.93820629   -7.1799288    251.08308  0.028085355  0.028425778            2 
  746000   0.94553966   -7.1976195    251.05912  0.028045031  0.028407686            3 
  747000   0.94832436   -7.1863978    251.23084  0.028026645  0.028389463            4 
  748000   0.96134461   -7.2320925    250.86926  0.027948893  0.028371177            5 
  749000   0.94005882   -7.2009903    252.48065   0.02809086  0.028353232            2 
  750000   0.94388216   -7.2147265    251.92073  0.027991193  0.028335312            2 
  751000   0.94812061   -7.2291499    252.34533  0.028001036  0.028317145            2 
  752000   0.95209726   -7.1795584    252.62123  0.027994374   0.02829914            2 
  753000   0.94046177   -7.1829636    252.66735  0.027962301  0.028281276            4 
  754000   0.94194875   -7.1826835    252.83794  0.027944069  0.028263465            1 
  755000   0.93490639   -7.1826487    253.53596  0.027984102  0.028245475            3 
  756000   0.93955579   -7.2190903     253.7976  0.027975926  0.028227815            2 
  757000      0.96803   -7.1928895    254.09632  0.027971853  0.028210197            5 
  758000   0.95820291   -7.1812975    254.23303  0.027949981  0.028192799            4 
  759000   0.95182671   -7.1962934    254.84633  0.027980493  0.028175506            3 
  760000   0.95824013   -7.2051004    254.94537  0.027954536  0.028158072            4 
  761000   0.96629164   -7.1970632    254.66221  0.027886795  0.028140559            3 
  762000   0.95011065   -7.2126379    254.88222  0.027874258  0.028123221            2 
  763000   0.94110076   -7.2128388    255.86611  0.027945184  0.028106043            2 
  764000   0.95338293   -7.1929313    255.19083  0.027834951  0.028088617            2 
  765000   0.95802493   -7.2172023    256.47976  0.027938972  0.028071504            3 
  766000    0.9238354   -7.2074974     255.5323  0.027799423  0.028054049            3 
  767000   0.92920597   -7.1990467    255.53653  0.027763639  0.028036555            3 
  768000   0.93955813   -7.2103781    254.50438  0.027615493  0.028018744            4 
  769000   0.95989863   -7.2175935    255.14436  0.027648933  0.028000825            3 
  770000   0.94231385   -7.2021847    256.31215  0.027739411  0.027983187            3 
  771000   0.94770377   -7.2089266     256.6542  0.027740403  0.027965668            2 
  772000   0.93979727   -7.2168244    257.07655  0.027750059  0.027948042            3 
  773000   0.95258524   -7.2003416    256.43987  0.027645523  0.027930442            4 
  774000   0.94935773   -7.2039104    257.18744  0.027690292  0.027913117            4 
  775000   0.95069745   -7.2063463     257.3051  0.027667215  0.027895723            2 
  776000   0.93607125   -7.2038291    256.64041  0.027560181  0.027878145            4 
  777000   0.95055328   -7.2007467    256.96816  0.027559863  0.027860526            2 
  778000   0.94350063   -7.2425633    258.28609  0.027665605  0.027842818            3 
  779000   0.93104793   -7.2253231    257.68598  0.027565895   0.02782507            5 
  780000   0.93692015   -7.2354269    257.90116  0.027553543  0.027807247            4 
  781000   0.91634475   -7.2050067    258.24647  0.027555108  0.027789512            2 
  782000   0.92632282   -7.2249469    257.58579  0.027449466  0.027771522            3 
  783000   0.93886215   -7.2153557    257.57223  0.027412966  0.027753678            1 
  784000   0.92033468   -7.2446766    258.00982  0.027424514  0.027735451            4 
  785000   0.93118049   -7.2365586    258.15965  0.027405483  0.027717179            3 
  786000   0.93419299   -7.1834281    258.48074  0.027404658  0.027699047            3 
  787000   0.93652299   -7.2077087    258.86212   0.02741022  0.027681219            3 
  788000   0.95598967   -7.2459081    258.96175  0.027385972  0.027663528            2 
  789000   0.93857823   -7.2518347    259.24635  0.027381321  0.027645859            2 
  790000   0.92088188   -7.2055042    259.82599  0.027407805  0.027627801            7 
  791000   0.93381187   -7.2086101    259.93196  0.027384319  0.027609851            5 
  792000   0.92958029   -7.2207887    259.86894  0.027343112  0.027592185            7 
  793000   0.96523063   -7.2398171    259.96117  0.027318324  0.027574373            2 
  794000   0.95634524   -7.2481494    259.70893  0.027257444  0.027556351            2 
  795000   0.93319517   -7.2281045    259.85487  0.027238456  0.027538246            3 
  796000   0.94577471   -7.1987283    260.50046  0.027271824  0.027520464            7 
  797000   0.93146709   -7.2377017    260.90861  0.027280281  0.027502706            3 
  798000   0.92798099   -7.2258333     260.1323  0.027165027  0.027484846            3 
  799000   0.93335502   -7.2148896    260.97755  0.027219185  0.027467187            2 
  800000   0.91456817   -7.2470163     261.1783  0.027206072  0.027449191            3 
  801000   0.93035212   -7.2475895    260.49313  0.027100825  0.027431223            2 
  802000    0.9128153   -7.2695975    260.83589  0.027102649  0.027413203            3 
  803000   0.93718208   -7.1962508    261.95781  0.027185327  0.027395354            2 
  804000   0.94048776   -7.2307237    261.55513  0.027109777  0.027377386            6 
  805000   0.94559701   -7.2399995    261.76907  0.027098247  0.027359485            5 
  806000   0.95392646   -7.2251507    261.76295  0.027063994  0.027341516            9 
  807000   0.93353583   -7.2140938    262.42843  0.027099177  0.027323481            3 
  808000   0.94029839   -7.1968881     262.1906  0.027041109   0.02730542            3 
  809000   0.94847781   -7.2151338    262.30012  0.027018966  0.027287241            2 
  810000    0.9124376   -7.2731795    261.50509  0.026903815  0.027268997            3 
  811000   0.94941301   -7.2360917    261.79811  0.026900751   0.02725079            3 
  812000   0.93358293   -7.2436239    262.11606  0.026900253  0.027232487            4 
  813000   0.91583735   -7.2693595    262.17036   0.02687273  0.027214086            4 
  814000   0.92794362   -7.2501297    262.79625  0.026903793  0.027195677            2 
  815000    0.9245402   -7.2655956    262.81224  0.026872417  0.027177296            2 
  816000   0.95596084   -7.2573144    262.94073  0.026852607  0.027158924            4 
  817000   0.92381241   -7.2270995    264.15534  0.026943629  0.027140613            3 
  818000   0.95340844   -7.2530656     263.2401  0.026817451    0.0271224            4 
  819000   0.90471108   -7.2547906    263.76624  0.026838241  0.027104286            2 
  820000   0.91970791   -7.2560318     263.1362  0.026741484  0.027086179            4 
  821000   0.93423136     -7.25942    263.90993  0.026787447  0.027067837            3 
  822000   0.92839417   -7.2831022    264.39751   0.02680429  0.027049539            7 
  823000   0.91889298   -7.2356612    263.71477  0.026702589  0.027031186            7 
  824000   0.93080402   -7.2483074    264.46945  0.026746506    0.0270131            3 
  825000   0.92647424   -7.2422758    265.15549  0.026783382  0.026994901            2 
  826000   0.91133723   -7.2828572     264.7611  0.026711168  0.026976711            2 
  827000   0.91263044   -7.2595254    264.53782  0.026656371  0.026958275            4 
  828000    0.9378209   -7.2565711    265.24206  0.026695054  0.026940055            4 
  829000    0.9203173   -7.2465271    264.29718   0.02656787  0.026921721            6 
  830000   0.92988063   -7.2540788     265.5484  0.026661486   0.02690353            2 
  831000   0.91326237   -7.2789268    265.11896  0.026586338  0.026885354            2 
  832000   0.93236869   -7.2684788     264.6038  0.026502785  0.026867037            5 
  833000   0.92430139   -7.2318875    265.72462  0.026583095  0.026848851            4 
  834000   0.93103958   -7.2676198    265.79404  0.026558158  0.026830762            3 
  835000   0.91751085   -7.2665686    266.06006    0.0265529  0.026812657            3 
  836000   0.91002994   -7.2671424    266.36774  0.026551808  0.026794766            5 
  837000   0.92853874   -7.2628033    265.45582  0.026429293  0.026776566            1 
  838000   0.90095299   -7.2996337    265.85048  0.026437001   0.02675835            2 
  839000   0.91018751     -7.26165    267.07354   0.02652697  0.026740022            7 
  840000   0.91257351   -7.3058004    266.26382  0.026415061  0.026721955            3 
  841000   0.90941921   -7.2824742    266.95164  0.026451807  0.026703772            3 
  842000   0.90401635   -7.2887396    266.55718  0.026381352  0.026685849            5 
  843000   0.92314929   -7.2566916    268.04458  0.026497092  0.026668168            3 
  844000    0.9195665   -7.2337415    267.75156  0.026436765   0.02665022            3 
  845000   0.92398567   -7.2425711    267.85765  0.026415942  0.026632294            5 
  846000   0.92969634   -7.2909359    267.76434  0.026375526  0.026614533            4 
  847000   0.92292911   -7.2808383     268.5483  0.026421517  0.026596611            3 
  848000   0.90181042   -7.2521861    268.79429  0.026414533  0.026578902            3 
  849000   0.92231861   -7.2677683    268.75054  0.026379127  0.026561369            2 
  850000   0.90620192   -7.2782964    269.24414  0.026396485  0.026543793            2 
  851000   0.90741362   -7.2898451    269.18859  0.026360026  0.026526416            3 
  852000   0.89707632   -7.2782358     269.4589  0.026355526   0.02650903            3 
  853000   0.91155665   -7.3026507    269.36421  0.026315378   0.02649177            3 
  854000   0.91519083   -7.2733955    269.63323  0.026310814  0.026474441            4 
  855000   0.91650806   -7.2472328    270.12914  0.026328376  0.026457196            1 
  856000   0.92976309   -7.2871447    270.27059  0.026311389  0.026439821            2 
  857000   0.94022971   -7.2737356    269.50215  0.026205966  0.026422428            2 
  858000   0.90435315   -7.2767773    270.92156  0.026313282  0.026405123            2 
  859000   0.91880789   -7.2857465    270.54889  0.026246496  0.026387832            3 
  860000   0.90513193   -7.2748854    271.14729  0.026273962  0.026370663            2 
  861000   0.88457244   -7.2803289    271.41312  0.026269175  0.026353699            2 
  862000   0.93171708   -7.2871427     271.4835  0.026245505  0.026336688            1 
  863000   0.93054961   -7.2546865    271.44954  0.026211813  0.026319946            3 
  864000   0.90901105   -7.2983413    272.01108  0.026235637   0.02630319            1 
  865000   0.91137224   -7.2848586    272.40593  0.026243346    0.0262862            6 
  866000   0.89727535   -7.2757828    272.28443   0.02620135  0.026269426            2 
  867000     0.909307   -7.2945279    272.93896  0.026234041  0.026252861            2 
  868000   0.93930207   -7.3119447    272.76323  0.026186946  0.026236402            2 
  869000   0.92005596   -7.3034699    273.43162  0.026220907  0.026219798            4 
  870000    0.9110056   -7.3065058    273.51765  0.026199009  0.026203153            5 
  871000   0.91572467   -7.2699813    273.27191  0.026145418  0.026186637            3 
  872000   0.91329306   -7.3075978     273.8984  0.026175306  0.026170175            2 
  873000   0.89295953   -7.3410779    273.05165  0.026064495  0.026153672            2 
  874000   0.89956265   -7.3045565    273.67703  0.026094301  0.026137011            3 
  875000   0.91550088   -7.2571269    274.63221  0.026155448  0.026120514            5 
  876000   0.89495525   -7.2974883    273.86061  0.026052189  0.026104055            2 
  877000   0.90074582    -7.276712    274.86263  0.026117695  0.026087585            4 
  878000    0.9011098   -7.2810802    274.29459  0.026034035  0.026071369            2 
  879000   0.90840747   -7.3210121    274.52731   0.02602648  0.026054906            3 
  880000   0.92155306   -7.3146186    274.80692  0.026023383  0.026038731            4 
  881000   0.89904945   -7.2966533    275.54658  0.026063809  0.026022751            3 
  882000   0.90868856   -7.2791316    275.73687  0.026052237  0.026006815            2 
  883000   0.89645389   -7.3205624    275.50157  0.026000525  0.025990762            1 
  884000   0.90133452   -7.2908534    275.87193  0.026006026  0.025974644            3 
  885000   0.89600001    -7.311966    275.97981    0.0259868  0.025958509            3 
  886000   0.88893361   -7.3308077    276.44075  0.026000823  0.025942345            3 
  887000   0.90443406   -7.2834026    277.16527  0.026039578  0.025926374            4 
  888000   0.89410229   -7.3338445    277.12379  0.026006362  0.025910507            2 
  889000   0.88418989   -7.3383858    276.78308  0.025945171  0.025894661            2 
  890000   0.87051809   -7.2907498    276.97674  0.025934151  0.025878509            4 
  891000   0.90707286   -7.3120464       276.71  0.025880097    0.0258626            8 
  892000   0.90112747   -7.3102756    276.83386  0.025862655  0.025846752            4 
  893000   0.89833016   -7.3174552    277.39425  0.025885988  0.025830537            5 
  894000   0.89489656   -7.2908127    278.45849  0.025956235  0.025814656            4 
  895000   0.92075057   -7.3113066    277.77371  0.025863474  0.025798691            3 
  896000   0.90399852   -7.3293988    277.62164  0.025820465  0.025782637            2 
  897000   0.89518016   -7.3458118     277.6786  0.025796971  0.025766445            2 
  898000   0.90528008    -7.378706    277.36793  0.025739414  0.025750113            2 
  899000    0.9009088   -7.3048207     279.2519  0.025885419   0.02573395            3 
  900000   0.89673611   -7.3071306    278.60492  0.025796752  0.025717887            3 
  901000   0.89626686    -7.323732    277.78613  0.025692391   0.02570185            4 
  902000   0.90275771   -7.2935431    278.47414  0.025727471  0.025685733            8 
  903000   0.89180651   -7.3380399    278.61835  0.025712288   0.02566965            4 
  904000   0.88062577   -7.3166307    278.60204  0.025682342  0.025653572            1 
  905000   0.86797706   -7.3294208    279.20285  0.025709287  0.025637486            3 
  906000   0.88146504   -7.3364345     278.7645  0.025640591  0.025621232            4 
  907000   0.89667897   -7.3507549    278.81324  0.025616799  0.025605129           10 
  908000   0.89550512   -7.3660262    279.03225  0.025608687  0.025588716            4 
  909000   0.88480584   -7.3491612    279.56849  0.025629674  0.025572376            3 
  910000   0.89176842   -7.3039242    279.70275  0.025613805  0.025556041            5 
  911000   0.89176604   -7.3233073    279.40948  0.025558862  0.025539899            2 
  912000   0.89734508   -7.3389343    278.85306  0.025479994  0.025523714            1 
  913000   0.90079758   -7.3411071    279.53447  0.025514281  0.025507432            3 
  914000   0.87672147   -7.3150199     279.7735   0.02550816  0.025491123            4 
  915000   0.91146741   -7.3168957     279.5381  0.025458843  0.025474997            6 
  916000   0.87262194   -7.3278027    279.83686   0.02545823  0.025458722            4 
  917000   0.90434006   -7.3189274    280.51445  0.025492044  0.025442548            6 
  918000   0.87687611   -7.3412222    280.51358  0.025464196  0.025426368            4 
  919000   0.88719282   -7.3634841    280.90421  0.025471909  0.025410066            5 
  920000   0.90584475   -7.3726104    280.15079  0.025375978   0.02539385            3 
  921000    0.8828353   -7.3492233    280.20285  0.025353135  0.025377389            4 
  922000    0.8677253   -7.3411298    280.75652  0.025375679  0.025361119            3 
  923000   0.86915803   -7.3622484    280.82992  0.025354814  0.025344801            3 
  924000   0.87732365   -7.3440831    281.36406  0.025375546  0.025328563            2 
  925000   0.85924039    -7.343928    281.02656  0.025317708  0.025312113            5 
  926000   0.89915777     -7.34605    281.36527  0.025320849  0.025295731            2 
  927000   0.88331652   -7.3646538    281.57267  0.025312178  0.025279454            4 
  928000   0.86649411   -7.3815655    280.75317  0.025211312  0.025263094            1 
  929000   0.89099703   -7.3565795    281.13703  0.025218607  0.025246684            4 
  930000   0.89995931   -7.3720226    281.98659  0.025267616  0.025230414            3 
  931000   0.88593814   -7.3469413     282.6474  0.025299624  0.025214254            2 
  932000   0.90274986   -7.3542173     282.2021  0.025232663  0.025198233            2 
  933000   0.87947916   -7.3096933    281.79961  0.025169669  0.025182177            5 
  934000    0.8919803   -7.3517519    282.86147  0.025237462  0.025166103            5 
  935000   0.88268601   -7.3479066    282.80653  0.025205573  0.025149922            2 
  936000   0.88352308   -7.3314076    281.81284  0.025090175  0.025133696            2 
  937000   0.87047126   -7.3484261    282.79947  0.025151145  0.025117479            2 
  938000   0.87299988   -7.3296828     283.6223  0.025197433  0.025101478            3 
  939000   0.88447784   -7.3673983    283.78476  0.025185016  0.025085448            6 
  940000   0.87221266   -7.3436628     284.0224  0.025179291  0.025069507            3 
  941000   0.90015962   -7.3671277    283.82324  0.025134895  0.025053479            3 
  942000   0.87560613   -7.3177596    283.76012  0.025102629  0.025037447            4 
  943000   0.87495389   -7.3561845    283.02378  0.025010939  0.025021452            2 
  944000   0.87219603   -7.3771016    283.50289  0.025026738  0.025005488            3 
  945000   0.90101432   -7.3734648    284.61552   0.02509837  0.024989643            2 
  946000   0.86268546   -7.3458797    284.16132  0.025031828  0.024973831            1 
  947000   0.86918181   -7.3408808    284.26334  0.025014373   0.02495776            2 
  948000   0.86153258   -7.3796791     284.0969  0.024973356  0.024941678            2 
  949000   0.85900039   -7.3709032    284.36271  0.024970382  0.024925522            5 
  950000   0.86986347   -7.3995738    284.82914  0.024985012  0.024909151            1 
  951000    0.8645759    -7.379979    284.19617  0.024903275  0.024892627            5 
  952000   0.86432152   -7.3588258    284.07564  0.024866565  0.024876346            3 
  953000   0.88432322   -7.3800256    284.77984   0.02490205  0.024860159           10 
  954000   0.87852523   -7.4018911    284.35395  0.024838745  0.024843889            2 
  955000   0.84761872   -7.3797785    284.67517  0.024840765  0.024827431            2 
  956000   0.87225528   -7.3885779    284.48091  0.024797848  0.024810982            2 
  957000   0.88031707   -7.3848061    284.15161  0.024743261  0.024794631            4 
  958000   0.87285349   -7.3687437    284.76142  0.024770479  0.024778338            2 
  959000   0.88108284   -7.3719394     284.7515  0.024743787  0.024761961            5 
  960000    0.8571796   -7.3763182    284.64079  0.024708402  0.024745352            2 
  961000   0.85563975   -7.3691057    285.40918  0.024749322  0.024728909            4 
  962000   0.86013209   -7.3499733     285.3169  0.024715602  0.024712442            1 
  963000   0.87969851    -7.363933    284.83184  0.024647961  0.024696048            7 
  964000   0.86926066   -7.3996747      285.349  0.024667099  0.024679556            2 
  965000   0.86445216   -7.3590017    285.38113  0.024644312  0.024663075            3 
  966000   0.85365946   -7.3596542    286.82134  0.024743042  0.024646827            2 
  967000   0.84266287   -7.3636506    285.82016  0.024631176   0.02463062            3 
  968000   0.86677403   -7.3829859    286.37044  0.024653102  0.024614259            7 
  969000   0.86801847   -7.3861402    285.60789  0.024562082  0.024597875            2 
  970000   0.86786651   -7.3655014    285.93069  0.024564492  0.024581525            2 
  971000   0.89000899   -7.3813222     286.2021  0.024562487  0.024565291            3 
  972000   0.86291056    -7.376578    286.15568  0.024533237  0.024548755            4 
  973000   0.86761112   -7.3960138    286.22201  0.024513704  0.024532366            3 
  974000   0.87907163   -7.3839844      285.918  0.024462526  0.024515854            5 
  975000   0.85246613   -7.3794221    286.67426  0.024502074  0.024499293            4 
  976000   0.86748086   -7.3858119    286.80675  0.024488281  0.024482889            3 
  977000   0.86114652   -7.4038624    286.65052  0.024449891  0.024466511            2 
  978000   0.87159513   -7.3873109    287.39562  0.024488379  0.024450147            3 
  979000   0.85393026   -7.3695035      286.894  0.024420667   0.02443367            2 
  980000   0.85423345   -7.4188046     285.9882  0.024318725  0.024417128            2 
  981000   0.86303206   -7.4156389    286.65969  0.024350976  0.024400543            3 
  982000   0.85666574   -7.3905267    287.44454  0.024392781  0.024384031            2 
  983000   0.86307256   -7.3988648    287.90482  0.024406987  0.024367693            3 
  984000   0.86550215   -7.4204579    286.82954   0.02429112  0.024351259            5 
  985000   0.85484971    -7.415556    287.43437  0.024317629  0.024334794            6 
  986000   0.84928988   -7.3945743     287.4862  0.024297346  0.024318436            7 
  987000   0.84842514   -7.3906227    288.49779  0.024358138  0.024302204            5 
  988000   0.85781572   -7.4089328    288.24718  0.024312346  0.024286006            3 
  989000   0.86559426   -7.3774201    288.77769  0.024332465  0.024269728            2 
  990000   0.86530098   -7.3988863    288.51148  0.024285478  0.024253716            3 
  991000   0.85957022    -7.377841    289.31713  0.024328719   0.02423778            4 
  992000   0.84976371   -7.3740123    289.19499  0.024293934  0.024221793            2 
  993000   0.86599522   -7.4028146       289.33  0.024280799  0.024205783            5 
  994000   0.84676046   -7.4503782    288.93918  0.024223607  0.024189605            4 
  995000   0.85935162   -7.3965652    290.43806  0.024324796  0.024173554            1 
  996000   0.85660791   -7.4132605    289.49449  0.024221427  0.024157492            6 
  997000   0.84983726   -7.3854524    290.46145  0.024277954  0.024141581            2 
  998000   0.84996574   -7.4338579    290.68323  0.024272147  0.024125695            4 
  999000   0.82764681     -7.42146    289.40067  0.024140863  0.024109795            4 
 1000000   0.83925761   -7.4218675    289.91756  0.024159796  0.024093727            5 
 1001000    0.8634509   -7.3912935    289.88084  0.024132604  0.024077698            5 
 1002000   0.86433514   -7.4427114    290.08607  0.024125588   0.02406178            3 
 1003000   0.84963922   -7.3933286    289.66803  0.024066802  0.024045852            1 
 1004000   0.85931818   -7.4172447    290.74633  0.024132332  0.024029738            4 
 1005000   0.85060363   -7.4325719    290.77922  0.024111046  0.024013727            6 
 1006000   0.82227043   -7.4422416     289.9085  0.024014952  0.023997684            3 
 1007000   0.86095197   -7.4248946    290.89902  0.024073074  0.023981677            4 
 1008000    0.8523798   -7.3754418     291.9152  0.024133201  0.023965846            2 
 1009000   0.85573659   -7.4517927    291.45123  0.024070964  0.023950078            2 
 1010000   0.85889206   -7.4191124    291.72202  0.024069474    0.0239344            2 
 1011000    0.8566104   -7.4073538    291.66035  0.024040583  0.023918705            4 
 1012000   0.85468966   -7.3842176    291.20277  0.023979148  0.023902844            5 
 1013000   0.85260645   -7.4166982    291.58342   0.02398679  0.023887008            4 
 1014000    0.8379237   -7.3714833     291.6211  0.023966231  0.023871246            5 
 1015000   0.85273843   -7.4274172    292.34533  0.024002079  0.023855561            4 
 1016000   0.84122064   -7.4019993    292.14682  0.023962173  0.023839893            3 
 1017000   0.86030794   -7.3930869    292.42294  0.023961237  0.023824126            3 
 1018000   0.84811376   -7.4241157    292.52484  0.023946041  0.023808429            3 
 1019000   0.86756819   -7.4274446    292.59389  0.023928189  0.023792771            4 
 1020000   0.84801576   -7.4396254    292.48987  0.023896231  0.023777206            3 
 1021000   0.84972782   -7.4258081    292.69433  0.023889515  0.023761625            5 
 1022000   0.85015857   -7.4356009    292.89843  0.023882781  0.023745926            3 
 1023000   0.84556068   -7.4264455     293.1076  0.023876474  0.023730324            5 
 1024000   0.83863808   -7.4440549    293.14145  0.023855912  0.023714756            2 
 1025000   0.84193524    -7.426127    293.80363  0.023886474  0.023699157            2 
 1026000   0.82664084   -7.4471738    293.34025  0.023825557  0.023683699            4 
 1027000   0.85608251   -7.4456998    293.47103  0.023812969  0.023668069            5 
 1028000   0.85863154   -7.4702088    293.50532  0.023792584  0.023652366            2 
 1029000   0.84611916   -7.4362287    293.42699  0.023763119  0.023636656            4 
 1030000     0.845404   -7.4020398    293.78354  0.023768895  0.023621114            3 
 1031000   0.82328735   -7.4394651    294.16074  0.023776328  0.023605792            2 
 1032000     0.850367   -7.4355465    294.00654  0.023740838   0.02359049            2 
 1033000   0.84900881   -7.4282792    294.51917   0.02375921   0.02357503            2 
 1034000   0.84353261   -7.4241677    294.38237  0.023725207  0.023559698            3 
 1035000   0.83276925   -7.4797959    294.67849  0.023726126  0.023544301            2 
 1036000   0.84848043   -7.4397614    295.45867  0.023765981  0.023529059            3 
 1037000   0.84797006   -7.4239979    295.47196   0.02374413  0.023513836            2 
 1038000   0.82885606   -7.4335819    294.74283  0.023662719  0.023498667            2 
 1039000   0.83206072   -7.4339947    294.71332  0.023637578  0.023483574            2 
 1040000   0.85063639   -7.4467577    296.58519  0.023764839  0.023468412            4 
 1041000   0.85548836   -7.4763981    295.83358  0.023681843  0.023453327            2 
 1042000   0.84353483   -7.4501131    296.23864   0.02369151  0.023438282            5 
 1043000   0.82713516   -7.4440534     295.7341  0.023628484  0.023423269            3 
 1044000   0.81108822   -7.4324629    295.65509  0.023599544  0.023408256            8 
 1045000   0.84641231   -7.4551733    295.82854  0.023590793  0.023393013            3 
 1046000   0.83733804   -7.4145425     296.3028  0.023606023   0.02337784            3 
 1047000   0.84333829   -7.4647398    296.10346  0.023567611  0.023362704            6 
 1048000   0.85102147   -7.4409159    296.65313  0.023588831   0.02334765            7 
 1049000   0.83549992   -7.4662321    296.41449  0.023547385  0.023332486            7 
 1050000   0.83643869   -7.4631714    295.80629   0.02347669  0.023317301            6 
 1051000    0.8315191   -7.4955529    296.30578  0.023493957  0.023302079            2 
 1052000   0.82248741   -7.4727028    296.30334   0.02347143  0.023286741            3 
 1053000   0.83322248    -7.460042     296.3932  0.023456252  0.023271556            3 
 1054000   0.82525167   -7.4689955    296.23429  0.023421434  0.023256284            4 
 1055000   0.85627931   -7.4537384    297.27625  0.023481536  0.023241114            3 
 1056000   0.83396623   -7.4702076    297.35092  0.023465193  0.023225918            2 
 1057000   0.82085478   -7.4745585     297.1475  0.023426956  0.023210789            2 
 1058000   0.81203033   -7.4792771     296.5083  0.023354466   0.02319548            3 
 1059000   0.83758793   -7.4650003    297.58505  0.023417143  0.023180255            7 
 1060000   0.84895114   -7.4560776    297.03246  0.023351608  0.023164999            5 
 1061000   0.83948016   -7.4987495    296.10287  0.023256588  0.023149613            3 
 1062000   0.84048523   -7.4998906    297.60673  0.023352694  0.023134308            3 
 1063000   0.81260663   -7.4547332    297.54461  0.023325856  0.023119124            2 
 1064000    0.8311972   -7.4797265    297.24579  0.023280529  0.023103912            4 
 1065000   0.84724511   -7.4700167    298.02513   0.02331965  0.023088794            4 
 1066000   0.83054908    -7.472347     298.3234  0.023321091  0.023073663            2 
 1067000   0.82559453   -7.4914788    297.80155  0.023258477   0.02305847            3 
 1068000   0.84109157   -7.4821406    298.13852  0.023262993   0.02304334            3 
 1069000   0.83105237   -7.4911558    298.14848  0.023242008  0.023028127            6 
 1070000   0.83308693   -7.4792706    298.26557  0.023229406  0.023013001            2 
 1071000    0.8352388   -7.5072828    297.64456  0.023159396  0.022997744            4 
 1072000   0.81631387   -7.4856598    298.37122   0.02319428  0.022982399            4 
 1073000   0.81750797   -7.4934312    298.76875  0.023203538  0.022967151            3 
 1074000   0.82401653   -7.4849201    298.76069  0.023181308  0.022951994           11 
 1075000   0.82955675   -7.4628562     298.4422  0.023135054  0.022936799            4 
 1076000   0.82504088    -7.493297    299.01924  0.023158244  0.022921766            2 
 1077000   0.81537421   -7.5159681    298.56363  0.023101488  0.022906768            3 
 1078000   0.82319317   -7.4818255      299.332  0.023139456  0.022891628            2 
 1079000   0.82178679   -7.4750138    299.00493   0.02309275  0.022876495            3 
 1080000   0.82277667    -7.529862    298.35364  0.023021114  0.022861319            6 
 1081000   0.80656555   -7.4839749    298.86553  0.023039279  0.022846107            1 
 1082000   0.81912783    -7.503629    298.67634  0.023003415  0.022830877            7 
 1083000   0.81544995   -7.5203896    298.52266  0.022970349  0.022815576            2 
 1084000   0.83226079   -7.5081275    299.19775  0.023001057  0.022800248            2 
 1085000   0.81760104   -7.5025023    299.47469  0.023001128  0.022784883            5 
 1086000   0.79796185   -7.4920831    299.27961   0.02296498  0.022769472            5 
 1087000   0.82206572   -7.5032722    298.99922  0.022922356  0.022754171            4 
 1088000   0.81740497   -7.5174277    298.35706  0.022852103  0.022738792            4 
 1089000   0.83393977   -7.5167983    299.05555  0.022884569  0.022723312            9 
 1090000   0.82414103   -7.4957348      299.159  0.022871483  0.022707833            3 
 1091000   0.81841015   -7.4964803    299.18976  0.022852869  0.022692482            6 
 1092000   0.81457621     -7.49359    299.92374  0.022887953  0.022677077            2 
 1093000   0.80317123   -7.4969384    299.77471   0.02285565  0.022661688            6 
 1094000    0.8133432   -7.4882507    300.05004  0.022855731  0.022646403            3 
 1095000   0.82712403   -7.4818163    299.93462  0.022826075    0.0226312            3 
 1096000   0.80747264   -7.4882502    300.81844  0.022872448  0.022615972            5 
 1097000   0.83551796   -7.5089111    299.78349  0.022772978  0.022600799            5 
 1098000   0.81618269   -7.4664052    300.44579  0.022802504  0.022585673            4 
 1099000   0.80623697   -7.4826781    300.38663   0.02277727  0.022570536            2 
 1100000   0.81775302   -7.5113548    300.31413   0.02275107    0.0225553            5 
 1101000   0.81123861   -7.5059247    300.21153  0.022722641  0.022540062            3 
 1102000   0.80307312   -7.5259106    299.67919  0.022661766  0.022524673            7 
 1103000   0.82377432   -7.4947416    300.49115  0.022702565  0.022509311            3 
 1104000   0.79728464   -7.5268812    300.01713  0.022646221  0.022493972            2 
 1105000   0.80712687   -7.5059612    300.26705  0.022644574  0.022478682            6 
 1106000    0.8263359   -7.5212726    300.96444  0.022676646  0.022463473            2 
 1107000   0.82364314   -7.5066751     300.7487   0.02263992  0.022448209            7 
 1108000   0.81570494   -7.5152259    301.24751  0.022657003  0.022432988            2 
 1109000   0.80382781   -7.5147103    300.83646  0.022605685  0.022417725            3 
 1110000   0.81597314   -7.5085209    301.10969  0.022605832  0.022402501            3 
 1111000   0.79581267   -7.5294943    301.15784  0.022589097  0.022387337            5 
 1112000   0.81632825   -7.5104902    301.57206  0.022599825  0.022372261            5 
 1113000   0.80389799   -7.5122045    301.87094  0.022601897  0.022357207            6 
 1114000   0.79673131   -7.5022107    301.39759  0.022546199  0.022342149            5 
 1115000   0.82109259   -7.4832183    302.46061  0.022605426  0.022327158            8 
 1116000   0.80839761   -7.5102166    301.95534  0.022547441  0.022312096            3 
 1117000    0.7991822   -7.5158409    301.99969  0.022530565  0.022297006            3 
 1118000   0.81417488   -7.5235576    302.06817  0.022515516  0.022281915            2 
 1119000    0.7822747   -7.5321473    301.43429  0.022448189  0.022266684            8 
 1120000   0.80573832   -7.4742506    301.80319  0.022455594  0.022251523            3 
 1121000   0.81543512   -7.5242835     301.2464  0.022394172  0.022236419            4 
 1122000   0.79074717   -7.5157187    301.78139  0.022413947  0.022221346            3 
 1123000   0.80268194   -7.5240491    301.44325  0.022368897  0.022206235            2 
 1124000   0.79787141   -7.5181511    302.14637  0.022401125  0.022191128            4 
 1125000   0.82905443   -7.5104003    302.22166   0.02238679  0.022176005            6 
 1126000   0.78489907   -7.5517076    302.39256  0.022379556  0.022160824            3 
 1127000   0.78028913   -7.5150455    302.31346  0.022353849  0.022145612            2 
 1128000   0.80683384   -7.5399898     301.8495  0.022299756   0.02213037            4 
 1129000   0.80012301   -7.5262104    302.51032   0.02232878  0.022115084            3 
 1130000   0.78584022   -7.5230102    302.07358  0.022276813  0.022099923            2 
 1131000     0.791636   -7.5155586    302.40993  0.022281899  0.022084759            3 
 1132000   0.79918988   -7.5151986    302.16568  0.022244234  0.022069602            4 
 1133000   0.79846538   -7.5412465    301.74263  0.022193486  0.022054444            3 
 1134000   0.81002098   -7.5755328    302.44831  0.022225772  0.022039167           10 
 1135000    0.7935809   -7.5495116    302.04319  0.022176446  0.022023934            2 
 1136000   0.78918867   -7.5438748    302.67923  0.022203582  0.022008711            3 
 1137000   0.78741356   -7.5331114    303.44823  0.022240415  0.021993515            3 
 1138000   0.81504353   -7.5478601    303.25379  0.022206633  0.021978446            3 
 1139000   0.80061114   -7.5382747    302.98003  0.022167108  0.021963385            6 
 1140000   0.78897541   -7.5347997    303.43162  0.022180674  0.021948286            4 
 1141000   0.79938323   -7.5493138    303.29317  0.022151123   0.02193319            2 
 1142000   0.78479044   -7.5408311    302.99421   0.02210991  0.021917941            4 
 1143000   0.80431539   -7.5485027    304.32679  0.022187722  0.021902822            7 
 1144000    0.7983411   -7.5379495    304.07148  0.022149729  0.021887744            5 
 1145000   0.78562038   -7.5593248      303.261  0.022071397  0.021872595            9 
 1146000   0.78006873   -7.5583975     303.5095  0.022070208  0.021857419            2 
 1147000   0.78378885   -7.5327298    303.70467  0.022065146  0.021842271            7 
 1148000   0.79583811   -7.5261551    303.64698  0.022041738  0.021827245            3 
 1149000   0.80885741   -7.5194274    303.78274  0.022032401  0.021812201            2 
 1150000   0.81205096   -7.5462448    304.35704  0.022054858  0.021797168            3 
 1151000   0.79222284   -7.5604694    303.84815  0.021998852  0.021782071            7 
 1152000   0.78110337   -7.5422644    304.43116   0.02202193  0.021767032            3 
 1153000    0.7885665   -7.5356981    304.32848  0.021995409  0.021752041            6 
 1154000   0.79103631   -7.5544335    303.69388  0.021930523  0.021737075            4 
 1155000   0.78717074    -7.544314    304.26507  0.021952747  0.021722172            2 
 1156000   0.78469572   -7.5271251    304.36753  0.021941143  0.021707323            6 
 1157000    0.8065175   -7.5669999    304.95856  0.021964748  0.021692398            2 
 1158000   0.79300717    -7.535432    304.20955  0.021891879  0.021677495            4 
 1159000   0.79359237   -7.5769933    304.39976  0.021886666  0.021662584            5 
 1160000   0.80823789   -7.5405371     305.2866  0.021931509  0.021647645            4 
 1161000   0.76757577   -7.5715709     305.0975  0.021899045  0.021632655            4 
 1162000   0.79338035   -7.5732452     304.7765  0.021857179  0.021617661           14 
 1163000   0.80063895   -7.5564572    304.39133  0.021810786  0.021602746            4 
 1164000    0.8005306    -7.577384    304.44406  0.021795823   0.02158765            3 
 1165000   0.79048829    -7.557331    304.94994    0.0218133  0.021572534            2 
 1166000   0.77958593    -7.555471    305.50889  0.021834541  0.021557515            3 
 1167000   0.79840228   -7.5396614    305.26841  0.021798658  0.021542523            5 
 1168000   0.79476107   -7.5579021     305.3883  0.021788549  0.021527531            4 
 1169000   0.81676468   -7.5769525    305.19524  0.021756147   0.02151256           10 
 1170000   0.77945256   -7.5784078    304.28867  0.021672982  0.021497554            5 
 1171000   0.76149459   -7.5515534    304.80641  0.021691319  0.021482531            3 
 1172000    0.7834132    -7.578804    304.58833  0.021657304   0.02146741            4 
 1173000   0.80019287   -7.5808037    305.20689  0.021682786  0.021452309            5 
 1174000   0.77798869   -7.5876526    304.62529  0.021623033  0.021437136            3 
 1175000   0.79119787   -7.5639641    305.87218  0.021693062  0.021421956            2 
 1176000   0.77689234   -7.5715482    305.65448  0.021659189  0.021406841            2 
 1177000   0.79952044   -7.5738106    304.96125  0.021591705  0.021391713            7 
 1178000   0.78578866   -7.6165372     304.8322  0.021564247  0.021376643            6 
 1179000   0.76926547    -7.578362    305.07621  0.021563204  0.021361504            2 
 1180000   0.78683577   -7.5892982    305.80257  0.021596226  0.021346418            5 
 1181000   0.77687093   -7.5669773    305.49457  0.021556207  0.021331353            7 
 1182000    0.7884602    -7.586323    305.83706  0.021562117  0.021316256            5 
 1183000   0.78193079   -7.6026234    305.63728  0.021529817  0.021301214            8 
 1184000   0.77406002   -7.5997155    305.13345  0.021476172  0.021286178            4 
 1185000   0.77064765   -7.5841254    305.62113  0.021492344  0.021271091            4 
 1186000   0.77401312   -7.5986854    305.00041  0.021430607  0.021255976            5 
 1187000   0.79598697   -7.6172204    304.96129  0.021409807   0.02124082            6 
 1188000   0.79857967   -7.5966723    305.79791   0.02145047  0.021225684            2 
 1189000    0.7775533   -7.5849167    306.16929  0.021458458  0.021210627            3 
 1190000    0.7753502   -7.5986592    305.28589  0.021378564   0.02119554            3 
 1191000   0.77261153   -7.5988049     305.9975  0.021410404  0.021180461            3 
 1192000   0.77471935   -7.5888501     306.0904  0.021398938  0.021165375            2 
 1193000   0.78468356   -7.6067192    305.97492  0.021372934   0.02115017            3 
 1194000   0.77508341    -7.610171    305.81992  0.021344216  0.021134975            3 
 1195000   0.79050824   -7.5752349    306.35869  0.021363926  0.021119761            3 
 1196000    0.7736098   -7.5901872    306.39524  0.021348609  0.021104697            3 
 1197000   0.78449758   -7.5888329    306.03602  0.021305766  0.021089631            4 
 1198000   0.79202052   -7.5859223    306.74282  0.021337147  0.021074555            3 
 1199000   0.79172595   -7.5907773    305.54037  0.021235778  0.021059426            5 
 1200000   0.76820867   -7.6084657    306.85468  0.021309353  0.021044249            6 
 1201000   0.76716206    -7.615525    306.30955  0.021253785  0.021029121            3 
 1202000   0.77350053   -7.5760518    306.32531  0.021237195  0.021014039            2 
 1203000   0.79301369   -7.6276026     306.5869  0.021237663  0.020998919            7 
 1204000   0.78932496   -7.6050472     306.7035  0.021228094  0.020983827            3 
 1205000   0.79640192   -7.5733411    306.60603  0.021203736  0.020968795            3 
 1206000   0.76198685   -7.6032062    306.93553  0.021208923  0.020953793            3 
 1207000   0.77381048    -7.622742    306.37272  0.021152494  0.020938769            4 
 1208000   0.78774595   -7.5758963    306.82515  0.021166194  0.020923808            2 
 1209000   0.76161215   -7.6209524    306.91428   0.02115483  0.020908784            1 
 1210000   0.75489632   -7.6153384    307.40122  0.021170883  0.020893768            3 
 1211000   0.76358474   -7.6132307    307.11322  0.021133582  0.020878804            4 
 1212000   0.77334506   -7.6350613    307.33905  0.021131673  0.020863904            2 
 1213000   0.77006827   -7.6245975    308.24586   0.02117655   0.02084904            3 
 1214000   0.76740055   -7.6203999    308.05378  0.021145921  0.020834203            2 
 1215000    0.7641332   -7.6004434    307.71956  0.021105594  0.020819371            4 
 1216000   0.78093011   -7.6004436    307.83026  0.021095823  0.020804544            5 
 1217000   0.76914591   -7.5963472    307.36894  0.021046901  0.020789782            2 
 1218000   0.75792599   -7.5800927    308.00592  0.021073202  0.020775055            3 
 1219000   0.75913844   -7.5974231    307.67735  0.021033453  0.020760361            7 
 1220000   0.76489743   -7.5910639    308.69894  0.021085993  0.020745675            2 
 1221000   0.76938231   -7.5995882    308.49813  0.021055018   0.02073109            8 
 1222000   0.77388946   -7.5838005    308.19986  0.021017448  0.020716423            4 
 1223000   0.78438042   -7.6009317    307.64128  0.020962202  0.020701769            3 
 1224000   0.76053262   -7.6220699    308.03252  0.020971713  0.020687141            6 
 1225000   0.75670825   -7.6091339    307.90388  0.020945842  0.020672436            3 
 1226000   0.78659887   -7.6103206    308.19337  0.020948435  0.020657813            8 
 1227000   0.76215573   -7.6270481    308.55942  0.020956222  0.020643103            3 
 1228000   0.74702555   -7.6210802    308.46137  0.020932503  0.020628385            4 
 1229000   0.76385922    -7.605477    308.62069  0.020926274  0.020613684            7 
 1230000    0.7778166   -7.6446934    309.22505  0.020950207  0.020598996            5 
 1231000   0.75791913   -7.6401259    308.33437  0.020872893   0.02058428            5 
 1232000   0.75322011   -7.6406417    308.89238  0.020893695  0.020569655            4 
 1233000   0.75786657   -7.6182825    308.91322  0.020878158  0.020555039            2 
 1234000   0.76531129   -7.6445081    308.92529  0.020862054  0.020540362            3 
 1235000   0.75509204   -7.6586805     308.7836  0.020835601  0.020525701            4 
 1236000   0.76290029   -7.6276023    309.15161  0.020843555  0.020511027            4 
 1237000   0.74126756    -7.659463    308.15045  0.020759259  0.020496308            4 
 1238000   0.76468569   -7.6517793    308.51426   0.02076698  0.020481612            4 
 1239000   0.75479456   -7.6154993    308.64276  0.020758862   0.02046693            3 
 1240000   0.76467434   -7.6368699    308.81381  0.020753616  0.020452297            4 
 1241000   0.77686788   -7.6368477     308.8803  0.020741358  0.020437637            5 
 1242000   0.75866067   -7.6450861    308.71007  0.020713236  0.020423035            2 
 1243000   0.76258463   -7.6343582    308.47153   0.02068058  0.020408423            5 
 1244000   0.76436933   -7.6420024    308.83271  0.020688151  0.020393785            5 
 1245000   0.75191269   -7.6382996    308.96311  0.020680262  0.020379164            3 
 1246000   0.74573159   -7.6280871    309.26541  0.020683882  0.020364568            3 
 1247000    0.7520591   -7.6507215    309.40115  0.020676366  0.020350027            3 
 1248000   0.75232008   -7.6622622    309.62256  0.020674584   0.02033549            2 
 1249000   0.75272748   -7.6611391    309.01994  0.020617823  0.020320877            2 
 1250000   0.75697568   -7.6489895    309.10871  0.020607247  0.020306271            5 
 1251000   0.74035535   -7.6524176    308.78565  0.020569255  0.020291697            5 
 1252000   0.75389989   -7.6581005    310.09882   0.02064023  0.020277075            3 
 1253000   0.73299005   -7.6472377    309.60635  0.020591005  0.020262455            4 
 1254000   0.73803646   -7.6268655    309.46735  0.020565348  0.020247827            9 
 1255000   0.74394523   -7.6526302    309.59002  0.020557106  0.020233282            5 
 1256000   0.75329745   -7.6491038    309.37462  0.020526448  0.020218746            3 
 1257000    0.7687423    -7.636178    308.59231  0.020458254  0.020204135            2 
 1258000    0.7672104   -7.6720828    309.54769  0.020505279   0.02018946            5 
 1259000   0.75819392   -7.6040433    310.47852  0.020550603  0.020174867            3 
 1260000   0.73357564   -7.6654782    309.91014  0.020496702  0.020160381            6 
 1261000    0.7440218   -7.6480731    309.92349   0.02048133  0.020145815            4 
 1262000   0.74110041   -7.6652781    310.05145  0.020473551  0.020131352            2 
 1263000   0.75998952   -7.6655458    310.29415  0.020473354  0.020116898           15 
 1264000   0.74045117   -7.6516343     310.2459  0.020453975  0.020102494            5 
 1265000    0.7512698   -7.6475734     311.0127   0.02048832  0.020088111            3 
 1266000   0.75177766   -7.6422678    310.39151  0.020431248  0.020073751            3 
 1267000   0.74526621   -7.6873295    310.40915  0.020416282  0.020059396            7 
 1268000   0.75163166    -7.654586    310.34236  0.020395791   0.02004494            5 
 1269000    0.7649905   -7.6814291     310.6925  0.020402712  0.020030552            2 
 1270000   0.74577913   -7.6794492    310.22982  0.020356287  0.020016166            3 
 1271000   0.74832919   -7.6750143    310.33018  0.020346852  0.020001732            5 
 1272000   0.73972373   -7.6925796    310.29397  0.020328483  0.019987242            5 
 1273000    0.7466912   -7.6615785    310.40673  0.020319896  0.019972795            5 
 1274000   0.75946815    -7.662669    310.16541  0.020288161  0.019958357            7 
 1275000   0.73353319   -7.6682561    310.96743  0.020324668  0.019944006            7 
 1276000   0.74606947   -7.6581011    311.00103  0.020310934  0.019929714            8 
 1277000   0.74711339   -7.6656499    311.10941  0.020302102  0.019915403            3 
 1278000   0.74685263   -7.6345137    311.25823   0.02029592  0.019901179            9 
 1279000   0.71998346    -7.676121    310.87546  0.020255112  0.019886914            7 
 1280000   0.75050703   -7.6498801    310.40691  0.020208783  0.019872619            4 
 1281000   0.75027924    -7.667529     310.7061  0.020212471  0.019858332            5 
 1282000   0.74554851   -7.6698055     311.4912  0.020247738  0.019844063            6 
 1283000    0.7565533   -7.6491256    311.83797   0.02025448  0.019829825            7 
 1284000   0.75017013   -7.6919723     311.3646  0.020207983  0.019815603            4 
 1285000   0.73776679   -7.6727469    310.91622  0.020163179   0.01980136            5 
 1286000   0.73628531   -7.6726434    311.68695  0.020197444  0.019787163            3 
 1287000   0.73713024   -7.6715773    311.85296  0.020192499   0.01977301            4 
 1288000   0.72651338    -7.685332    311.44313  0.020150306  0.019758778            6 
 1289000    0.7362662   -7.6785184    311.45411  0.020135383  0.019744541            4 
 1290000   0.72343989   -7.7107534    311.41747  0.020117408  0.019730301            2 
 1291000   0.72416384    -7.698942    311.10352  0.020081559  0.019716092            3 
 1292000   0.73591327    -7.698296    311.89581  0.020117119  0.019701934            2 
 1293000   0.73286947   -7.6739595     312.0705  0.020112819  0.019687862            3 
 1294000   0.73280399   -7.6843304    311.84665   0.02008286  0.019673777            4 
 1295000    0.7298583   -7.6986707     311.3772  0.020037143  0.019659698            4 
 1296000   0.73954517   -7.6859187    312.10348  0.020068382  0.019645574            7 
 1297000   0.75355522   -7.6824505    311.40535  0.020008054  0.019631481            3 
 1298000   0.74491226   -7.6770706    312.12991  0.020039157  0.019617418            3 
 1299000   0.73857458   -7.6854006    312.05583  0.020018978  0.019603347            5 
 1300000   0.72853319   -7.6901319    312.25245  0.020016182  0.019589257            2 
 1301000   0.72251435   -7.6835449    310.87777  0.019912745  0.019575108            7 
 1302000   0.73315733   -7.6832599    311.77618  0.019954953  0.019560907            2 
 1303000   0.72950792   -7.7025781    311.36349  0.019913244  0.019546744            3 
 1304000   0.72211225   -7.6987644    311.81627  0.019926909  0.019532509            3 
 1305000   0.73706489   -7.6791874    311.95428  0.019920452  0.019518355            3 
 1306000    0.7281752   -7.6849373      311.981  0.019906904  0.019504281            4 
 1307000   0.74550872   -7.6932505    312.25175  0.019908936  0.019490241            3 
 1308000    0.7108356   -7.7075135    312.81751   0.01992976  0.019476274            3 
 1309000   0.72600643   -7.6867077    312.73871  0.019909518  0.019462296            5 
 1310000   0.74049895   -7.7238499    312.86237  0.019902186  0.019448345            4 
 1311000    0.7392185    -7.699562    312.89932  0.019889354  0.019434347            3 
 1312000   0.73090736   -7.6890164    312.45701  0.019846101  0.019420335            5 
 1313000   0.73189749   -7.7212364    312.92829  0.019860897  0.019406345            3 
 1314000   0.72887167   -7.7056613    313.43293  0.019877786   0.01939234            6 
 1315000   0.72984785   -7.7142893    312.81539  0.019823535  0.019378315            4 
 1316000    0.7217848   -7.6935073    313.26711  0.019837076  0.019364341            4 
 1317000    0.7264253   -7.7144248    313.12616  0.019813096  0.019350385            4 
 1318000   0.74832372   -7.7251591    312.72849  0.019772919  0.019336394            5 
 1319000   0.72107703   -7.7390106    312.59051  0.019749211   0.01932239           12 
 1320000   0.73155946   -7.7184411    313.12389  0.019767922  0.019308429            6 
 1321000   0.72410896    -7.705651    313.43553  0.019772617  0.019294558            5 
 1322000   0.72773378   -7.7344932    312.81427  0.019718499  0.019280708            7 
 1323000   0.71225885   -7.6875389    313.41153  0.019741215  0.019266874            4 
 1324000   0.72779645   -7.7201015    313.48572  0.019730974  0.019253047            5 
 1325000   0.72605178   -7.7210021    312.98315  0.019684475  0.019239216            7 
 1326000   0.73168617   -7.7377849    312.92874   0.01966621  0.019225357            3 
 1327000   0.72239135   -7.7137709    313.08599  0.019661265   0.01921145            5 
 1328000   0.73306352   -7.7374558    313.37372  0.019664515  0.019197565            5 
 1329000   0.71286426   -7.7231078     313.3641  0.019649116  0.019183724            5 
 1330000   0.70137143   -7.7289952    313.23799   0.01962644  0.019169914            3 
 1331000   0.72048514   -7.7227517    313.56244  0.019632008  0.019156073           11 
 1332000   0.71711898     -7.71635    313.23265  0.019596637  0.019142172            5 
 1333000   0.70751194   -7.7294766    313.65026  0.019608043  0.019128291            4 
 1334000   0.72958757   -7.7445767    313.32691  0.019573145  0.019114445            6 
 1335000   0.72500655   -7.7269121    313.42537   0.01956463  0.019100642            2 
 1336000   0.70716745   -7.7378446    312.97535  0.019521916  0.019086829            3 
 1337000   0.73818652   -7.7357972     313.3482  0.019530553  0.019073038            5 
 1338000   0.72281193    -7.712851     312.8069  0.019482243  0.019059263            3 
 1339000   0.71845852   -7.7318292    312.94967  0.019476579  0.019045448            4 
 1340000    0.7189366   -7.7326419    314.15746  0.019537155  0.019031585            3 
 1341000   0.71583238    -7.741479    313.13122  0.019458813  0.019017772            4 
 1342000   0.72141951   -7.7330778    313.65995  0.019477145  0.019003916            6 
 1343000    0.7020855   -7.7326879    312.12573  0.019367444  0.018989998            8 
 1344000   0.73661418   -7.7411622    313.89359  0.019462648  0.018976167            3 
 1345000   0.71567092   -7.7493537    312.37764  0.019354253  0.018962307            5 
 1346000   0.70764219   -7.7340226    312.68764  0.019359066  0.018948463            3 
 1347000   0.71878042   -7.7133949    313.43491  0.019390925  0.018934558            3 
 1348000   0.72154403    -7.729916    312.99447  0.019349312  0.018920708            3 
 1349000   0.71603881   -7.7471291    313.65051  0.019375495  0.018906846            6 
 1350000    0.7095092   -7.7194119    313.84889  0.019373388   0.01889304            4 
 1351000   0.70229974   -7.7463045    313.52734  0.019339214  0.018879252            2 
 1352000   0.71740256     -7.72545    313.65627  0.019332857  0.018865404            5 
 1353000   0.71756398   -7.7520835    313.72419  0.019322751  0.018851533            1 
 1354000   0.70187859   -7.7421781    313.31887  0.019283535  0.018837669            2 
 1355000   0.72658744   -7.7559523    313.81129  0.019299587  0.018823789            5 
 1356000   0.71045204     -7.75076    314.03946  0.019299377  0.018809885            2 
 1357000   0.71002488   -7.7378754    313.16826  0.019231654  0.018796059            4 
 1358000   0.71292365   -7.7690569    313.48765  0.019237092  0.018782166            7 
 1359000   0.71429332   -7.7594051    313.98126  0.019253204  0.018768289            8 
 1360000   0.70285829   -7.7423451    312.78847   0.01916596  0.018754414            4 
 1361000   0.71043307   -7.7388669    313.57692  0.019200154  0.018740559            3 
 1362000   0.70670717   -7.7437687    313.57477  0.019185926  0.018726736            6 
 1363000   0.71616491   -7.7422923    313.84874    0.0191886  0.018712886            3 
 1364000   0.70336313   -7.7481953    313.98492  0.019182852  0.018699076            2 
 1365000   0.70897407    -7.746337    313.59397  0.019144931  0.018685292            2 
 1366000   0.71782984   -7.7534267    313.15051  0.019103863  0.018671435            5 
 1367000   0.70428361   -7.7464691    313.88611   0.01913473   0.01865757            5 
 1368000   0.70835123   -7.7644838    313.45973  0.019094769  0.018643736            3 
 1369000   0.71937637   -7.7415285    314.10223  0.019119931  0.018629872            6 
 1370000   0.70546189   -7.7479023     313.5068  0.019069757   0.01861597            3 
 1371000   0.71558338   -7.7450075    313.31725  0.019044326  0.018602061            3 
 1372000   0.70467364   -7.7418578    313.48732  0.019040775  0.018588175            4 
 1373000   0.69491336   -7.7359175    313.64353  0.019036388  0.018574304            5 
 1374000   0.69812332   -7.7708737    314.03192  0.019046089   0.01856043            5 
 1375000   0.70225253    -7.745274    314.01176  0.019031016  0.018546535            4 
 1376000   0.71178323   -7.7552089    313.16495    0.0189659  0.018532629            7 
 1377000   0.69385021    -7.732272     313.4016  0.018966449  0.018518767            4 
 1378000   0.70383911   -7.7761214    313.37171  0.018950877  0.018504951            3 
 1379000   0.70535598    -7.771608    313.68422   0.01895602  0.018491113            3 
 1380000   0.69792666    -7.753382    313.19646   0.01891283  0.018477265            4 
 1381000   0.71564473   -7.7842222    312.71511  0.018870088  0.018463416            5 
 1382000   0.71162261   -7.7525914    313.82084  0.018923109  0.018449541            3 
 1383000    0.6933419   -7.7840569    312.81018  0.018848528  0.018435685            5 
 1384000    0.6940934   -7.7742404    313.47901  0.018875181  0.018421839            6 
 1385000   0.70089255   -7.7391202    313.61327  0.018869631  0.018408001            8 
 1386000   0.70465452   -7.7828137    313.20014  0.018831177  0.018394132            3 
 1387000   0.71669969   -7.7817798    312.72957  0.018789328  0.018380223           10 
 1388000   0.70341172   -7.7903157    313.27583  0.018808587  0.018366302            4 
 1389000    0.6938604   -7.7947982    313.26734  0.018794537   0.01835243            3 
 1390000   0.69938422   -7.7818604    313.19977  0.018776965   0.01833857            5 
 1391000   0.70223265   -7.7762938    312.82896  0.018741251   0.01832467            5 
 1392000   0.70862624    -7.794707     313.4893  0.018767319  0.018310749            5 
 1393000   0.70336069   -7.7908396    313.25341  0.018739735  0.018296854            5 
 1394000   0.69117849   -7.7727219    314.00193  0.018771039  0.018282953            5 
 1395000   0.69514051   -7.7764378    313.54448  0.018730256  0.018269093            4 
 1396000   0.68991031   -7.7889766    313.39459  0.018707891  0.018255251            2 
 1397000   0.69719144    -7.764338    313.53325  0.018702771  0.018241448           12 
 1398000   0.69808189   -7.7789299    313.53451  0.018689467   0.01822766            3 
 1399000   0.69908106   -7.7757026     313.3758  0.018666655  0.018213875            3 
 1400000   0.69108713     -7.77959    313.52651  0.018662292  0.018200027            3 
 1401000   0.70396609   -7.7905609    312.95885  0.018615207    0.0181862            4 
 1402000   0.68338704   -7.7954696     312.9405  0.018600838  0.018172431            4 
 1403000    0.6876123   -7.7781642    313.37406  0.018613332  0.018158683            6 
 1404000   0.69875679   -7.7986822    313.34438  0.018598313  0.018144932            5 
 1405000   0.68946021   -7.7906282     313.1459  0.018573304  0.018131147            7 
 1406000   0.68702754   -7.7905489    313.44439  0.018577785  0.018117358            4 
 1407000   0.69420958   -7.8226997    313.45528  0.018565226   0.01810359            6 
 1408000   0.68113817    -7.812582    313.45681  0.018552131  0.018089899           10 
 1409000   0.69563389   -7.8138484    313.65429  0.018550644   0.01807616            3 
 1410000   0.70002146   -7.7963078    313.23825  0.018512899  0.018062437            4 
 1411000    0.6809022   -7.8179803    313.69433  0.018526714  0.018048766            4 
 1412000   0.68624983   -7.8177748    313.64457  0.018510657  0.018035079            4 
 1413000   0.68499325   -7.7910489      314.413  0.018542876  0.018021397            3 
 1414000   0.67420565   -7.7868268    314.22937   0.01851894  0.018007748            6 
 1415000   0.69478863   -7.7977245    313.95929  0.018489946  0.017994117            4 
 1416000   0.68738197   -7.7768278    314.59265  0.018514162  0.017980543            6 
 1417000   0.69024199   -7.8070897    314.03334  0.018468204  0.017966967            4 
 1418000   0.68939541     -7.82243    313.89185  0.018446865  0.017953366            4 
 1419000   0.69903635    -7.807242    314.30203  0.018457954  0.017939809            7 
 1420000   0.69406251   -7.8013814    313.73072  0.018411427   0.01792627            3 
 1421000   0.68231321   -7.8181063    313.58814  0.018390109  0.017912651            5 
 1422000   0.68551834   -7.7978487    313.94346  0.018397999  0.017899028            5 
 1423000   0.68727449   -7.7856405    314.48919  0.018417029  0.017885434            4 
 1424000   0.67928677   -7.7992043    313.97405   0.01837395   0.01787187            9 
 1425000   0.67398169    -7.803996    313.86365  0.018354599  0.017858337            3 
 1426000   0.68933544   -7.8222423    313.90811  0.018344326  0.017844785            3 
 1427000   0.68794948   -7.8085587    313.64575   0.01831615  0.017831263            7 
 1428000   0.68113246   -7.8369092    314.26455  0.018339434  0.017817746            9 
 1429000    0.6841167   -7.7829621    314.33727  0.018330842  0.017804258            6 
 1430000    0.6784989   -7.8077386    314.14163  0.018306622  0.017790752            4 
 1431000   0.68536128   -7.8220012    313.85317  0.018277031   0.01777722            5 
 1432000   0.68563491   -7.8149824    314.21546   0.01828535   0.01776374            6 
 1433000    0.6779013   -7.8057979    314.60066  0.018294991  0.017750245            5 
 1434000   0.69150298   -7.8540714    314.03626  0.018249434  0.017736725            4 
 1435000   0.67967304   -7.8206312    314.19525   0.01824595  0.017723219           10 
 1436000   0.68677747   -7.8128665    314.27361  0.018237791  0.017709743            4 
 1437000   0.68491671   -7.8221257    313.90663  0.018203817   0.01769625            5 
 1438000   0.67837764   -7.8028692    313.79258  0.018184549  0.017682723           11 
 1439000   0.67967722   -7.8458408    313.88174  0.018177076  0.017669214            5 
 1440000   0.69168209   -7.8497212    313.78888  0.018159079  0.017655736            3 
 1441000   0.67444902   -7.8474231    314.45315  0.018184892  0.017642235            6 
 1442000   0.68400079    -7.830517    314.16477  0.018155615  0.017628747            3 
 1443000   0.68201139   -7.8385756    314.15131  0.018142256  0.017615235            5 
 1444000   0.66889309   -7.8210297    314.04567  0.018123596  0.017601767            6 
 1445000   0.68666336    -7.838506    313.66637  0.018089179  0.017588284            5 
 1446000   0.67525157   -7.8316872    314.55586  0.018127931  0.017574819            4 
 1447000   0.67302147    -7.841526     313.9291  0.018079308  0.017561366            5 
 1448000   0.67435024   -7.8481335    314.37056  0.018092228   0.01754793            8 
 1449000   0.67174746   -7.8555194    313.84682  0.018049622  0.017534499            2 
 1450000   0.66492745   -7.8380137    313.51109  0.018017879  0.017521037            5 
 1451000   0.66759613   -7.8457355    313.73771  0.018018476  0.017507621            3 
 1452000   0.67215427   -7.8392707    313.48959  0.017991827  0.017494195            4 
 1453000   0.66331608    -7.839804    314.28589  0.018025114  0.017480756            6 
 1454000   0.68221766   -7.8562801    313.60468  0.017973675  0.017467356            3 
 1455000   0.67539483   -7.8226131    314.50027  0.018012616  0.017453979            6 
 1456000   0.68752832   -7.8581522    314.23664  0.017985156  0.017440601            3 
 1457000   0.68612649   -7.8414922    314.14422  0.017967526   0.01742717            8 
 1458000   0.68047962   -7.8423426    314.11436  0.017953496  0.017413761            9 
 1459000   0.66463731   -7.8449282    313.96646  0.017932743  0.017400334            4 
 1460000   0.67292043   -7.8326807    313.94726  0.017919364  0.017386925            4 
 1461000   0.67325177   -7.8527916    314.21302  0.017922258  0.017373486            4 
 1462000   0.66753839   -7.8643254    314.24705  0.017911938  0.017360057            5 
 1463000   0.67923656   -7.8533656    313.69982  0.017868525  0.017346644            3 
 1464000   0.66243241   -7.8678005    313.76277  0.017859903  0.017333207            5 
 1465000   0.67576709   -7.8545354    314.16918   0.01787083    0.0173198            3 
 1466000   0.66790128   -7.8596722    314.17701  0.017859084  0.017306434            6 
 1467000   0.67565086   -7.8439668    313.25326  0.017794437  0.017293077            4 
 1468000   0.67425396   -7.8607986    314.45056  0.017850281  0.017279752            6 
 1469000   0.67459917   -7.8392376    313.73963    0.0177978   0.01726645            7 
 1470000   0.67113093   -7.8624295    313.42414  0.017767808  0.017253132            3 
 1471000   0.67161413   -7.8480892    313.85342  0.017780049  0.017239865            4 
 1472000    0.6753795   -7.8603763      314.467  0.017802706  0.017226591            4 
 1473000   0.67951365   -7.8714195     314.2287  0.017777138  0.017213308            2 
 1474000   0.66601573   -7.8663965    314.54114  0.017782742  0.017200026            7 
 1475000    0.6566311   -7.8671366    314.70426  0.017779902  0.017186771            5 
 1476000   0.66949136   -7.8742661     314.4893  0.017755719  0.017173551            5 
 1477000    0.6678412   -7.8609584    314.19592  0.017727145  0.017160306           11 
 1478000   0.65811299   -7.8683808    314.91851  0.017755892  0.017147096            5 
 1479000   0.65794447   -7.8592228    314.24122  0.017705725  0.017133898            7 
 1480000   0.67079127   -7.8780631     314.4037  0.017702911    0.0171207            5 
 1481000    0.6597089   -7.8274242    314.55697  0.017699582  0.017107536            3 
 1482000   0.65133315   -7.8697968    314.16116  0.017665382  0.017094381            3 
 1483000   0.66755546   -7.8639124    314.83383   0.01769127  0.017081224            2 
 1484000   0.66774479   -7.8530872    313.87912  0.017625737  0.017068051            4 
 1485000   0.66093287   -7.8551401    315.03195  0.017678561  0.017054889            3 
 1486000   0.65599283   -7.8668785    314.00371  0.017609001  0.017041729            5 
 1487000   0.65491227   -7.8808589    314.77554  0.017640413  0.017028573            7 
 1488000   0.66720308   -7.8650106    314.12769  0.017592276  0.017015508            9 
 1489000   0.64988693   -7.8673967    314.45898  0.017599003  0.017002386            7 
 1490000   0.66067351   -7.8819811    314.40005  0.017583895  0.016989295            3 
 1491000   0.66033368   -7.8755929    314.74182  0.017591204  0.016976179            3 
 1492000   0.66375912   -7.8900235    314.77677  0.017581365  0.016963065            4 
 1493000   0.66101834   -7.8977998    314.02044  0.017527374   0.01694998            5 
 1494000   0.66685326   -7.8741843    313.78957  0.017502765  0.016936899            3 
 1495000   0.66916535   -7.8662727    314.12559  0.017509788  0.016923789            4 
 1496000   0.64353852   -7.8940551    313.81377  0.017480714  0.016910714            4 
 1497000   0.65364654    -7.889221     313.8434  0.017470686  0.016897632            4 
 1498000   0.66359785   -7.9150582    314.52391   0.01749688  0.016884571            3 
 1499000   0.64592693    -7.870225    314.49443  0.017483568  0.016871511            7 
 1500000   0.65815577   -7.8938608    314.70512  0.017483618  0.016858483            4 
 1501000    0.6696344   -7.8796134    314.56241  0.017464047  0.016845456            5 
 1502000    0.6342839   -7.8522358    314.81092  0.017466207  0.016832473            6 
 1503000   0.66052346   -7.8950961    315.22273  0.017477419  0.016819514            5 
 1504000   0.64252103   -7.8687238     314.5639  0.017429294  0.016806485            5 
 1505000   0.64462002   -7.8969396    314.83295  0.017432611  0.016793482            3 
 1506000   0.64894097    -7.865749     314.4151  0.017397914  0.016780465            4 
 1507000   0.66493706   -7.8858565    314.48977  0.017390498   0.01676747            3 
 1508000   0.66154213   -7.8859372    314.42968  0.017375646  0.016754452            4 
 1509000    0.6563135   -7.8954663    314.48966  0.017367443  0.016741426            3 
 1510000   0.64594687   -7.9040041    314.13032   0.01733611  0.016728459            3 
 1511000   0.63101053   -7.8759232    314.34686   0.01733658  0.016715469            6 
 1512000   0.64526916   -7.9167745    314.09554  0.017311262  0.016702503            2 
 1513000   0.66419336   -7.9354167    314.31769  0.017312056  0.016689524            2 
 1514000   0.64446442   -7.8813908    314.61509  0.017316991  0.016676567            3 
 1515000   0.64672826   -7.9112383    314.45759  0.017296897  0.016663624            5 
 1516000   0.64929077     -7.91607    314.65264  0.017296209  0.016650688            2 
 1517000   0.64853863   -7.9105064    314.57243  0.017280402  0.016637725            4 
 1518000   0.65457148   -7.9142424     314.7405  0.017278245  0.016624777            3 
 1519000   0.64795307   -7.9066422    314.20203  0.017237329  0.016611826            3 
 1520000   0.64034361   -7.9124632    314.53131  0.017244041   0.01659888            7 
 1521000   0.64329788   -7.9259857    314.41216  0.017226176  0.016585941            8 
 1522000   0.64322466   -7.9043246    314.12905  0.017199357   0.01657303            5 
 1523000   0.65316128   -7.9032313    314.00148  0.017181083  0.016560133            4 
 1524000   0.64162397   -7.9101452    314.66008  0.017205823  0.016547258            3 
 1525000   0.64452837   -7.9192295    314.69613   0.01719651  0.016534412            5 
 1526000   0.64993319   -7.9130952    314.58966  0.017179427  0.016521556            4 
 1527000   0.64098069   -7.9166947    314.21159  0.017147544  0.016508685            3 
 1528000   0.64325934    -7.921096    314.43375  0.017148437  0.016495859            3 
 1529000   0.64957674   -7.9236356    314.72063  0.017152857  0.016483035            4 
 1530000   0.63191813    -7.897607     314.4399  0.017126356   0.01647022            5 
 1531000   0.63608916   -7.9252401    314.29541  0.017107305  0.016457375            2 
 1532000   0.64140176   -7.9139066     314.2725  0.017094892  0.016444554            3 
 1533000   0.66333005    -7.939029    314.46112  0.017093995  0.016431763            6 
 1534000   0.64661984   -7.9303808     314.6747  0.017094453  0.016418969            3 
 1535000   0.63712925   -7.9486459    314.26868  0.017061275  0.016406169            4 
 1536000   0.63137958   -7.9449263    314.22577  0.017047839  0.016393355            4 
 1537000   0.64655189   -7.9316261    315.43443  0.017102279  0.016380551            3 
 1538000   0.62674804     -7.93911    314.57269  0.017044467  0.016367773            5 
 1539000    0.6323142   -7.9368975    314.41606  0.017024911  0.016354976            3 
 1540000   0.63209958   -7.9111788    314.41798   0.01701396  0.016342218            5 
 1541000   0.64207023   -7.9108997    314.27385  0.016995125  0.016329455            4 
 1542000   0.63634738   -7.9454138     314.3836  0.016990035   0.01631668            7 
 1543000   0.64149636   -7.9391174    314.71733  0.016997047  0.016303928            5 
 1544000   0.63723392   -7.9300169    313.79969  0.016936512  0.016291173            5 
 1545000   0.63920309   -7.9300317    314.35883  0.016955708  0.016278413            8 
 1546000   0.62709601   -7.9068501    314.09373  0.016930451  0.016265662            5 
 1547000   0.62883294     -7.91283    314.36255  0.016933988  0.016252972            4 
 1548000   0.64761997   -7.9184145    313.98547  0.016902749   0.01624025            6 
 1549000   0.62291685   -7.9380075    314.04995  0.016895306  0.016227512           12 
 1550000    0.6288299   -7.9279415    313.89211   0.01687592  0.016214754            5 
 1551000    0.6396035   -7.9428609    314.49669  0.016897523  0.016201991            5 
 1552000   0.63355234   -7.9447239    313.31158  0.016823001    0.0161892            7 
 1553000   0.63601846   -7.9428622    314.13069  0.016856122  0.016176448            5 
 1554000   0.63515545   -7.9624381     314.3185  0.016855346  0.016163734            4 
 1555000   0.64010254    -7.941021    313.68256  0.016810426  0.016151014            9 
 1556000   0.63523572   -7.9226766    313.93935  0.016813376  0.016138335            8 
 1557000   0.63015202   -7.9476922    314.25418  0.016819427  0.016125638            6 
 1558000   0.63865042   -7.9579157    314.34593  0.016813539  0.016112966            6 
 1559000   0.63639332   -7.9404169    314.13066  0.016791247  0.016100293            6 
 1560000   0.62796216   -7.9355782    313.69036  0.016756964   0.01608763            5 
 1561000   0.63216047   -7.9204502      314.309  0.016779255  0.016074995            3 
 1562000    0.6301393   -7.9473019    314.05557  0.016754992  0.016062351            5 
 1563000   0.63904284   -7.9350495    313.98426   0.01674047  0.016049708            6 
 1564000    0.6231157     -7.95873    314.17777  0.016740077  0.016037097            5 
 1565000   0.63245033   -7.9368244     313.9932  0.016719553  0.016024462            2 
 1566000    0.6425054   -7.9565676    314.20261   0.01672002  0.016011833            7 
 1567000   0.62545315   -7.9619166    314.51469  0.016725946  0.015999229            4 
 1568000   0.61633297   -7.9405274    313.92169  0.016683763  0.015986638            6 
 1569000   0.61876411   -7.9634123    314.29127  0.016692759  0.015974034            4 
 1570000   0.63033489   -7.9364095    313.99267  0.016666278  0.015961439            4 
 1571000   0.62756514   -7.9548418    314.12114  0.016662484  0.015948879            5 
 1572000   0.63128018   -7.9644065    313.53136  0.016620619  0.015936329            7 
 1573000   0.62412048    -7.954666    313.82351   0.01662553  0.015923779            6 
 1574000   0.63226496   -7.9692881    314.12033  0.016630682   0.01591125            9 
 1575000   0.61043395    -7.970972    313.70076  0.016597924  0.015898692            5 
 1576000    0.6354589   -7.9685334    313.63452   0.01658389  0.015886149            7 
 1577000   0.61524032   -7.9625473    314.19547  0.016603016  0.015873631           11 
 1578000   0.61929205   -7.9542278    313.87667  0.016575658  0.015861111           10 
 1579000   0.62133367   -7.9508076     313.8628  0.016564429  0.015848596            7 
 1580000   0.62974928   -7.9483279    314.24011  0.016573845  0.015836045            9 
 1581000   0.62355679    -7.965098    313.93231  0.016547138  0.015823502            5 
 1582000   0.61175059   -7.9836113    313.58605  0.016518439  0.015810968            3 
 1583000   0.62824495   -7.9429451    313.73773  0.016515989  0.015798445            8 
 1584000   0.62227144   -7.9688724    314.44432  0.016542736   0.01578595            3 
 1585000   0.62340768   -7.9665068    313.83099  0.016500052  0.015773459            6 
 1586000   0.60765648   -7.9742673    313.83578    0.0164899  0.015760951            4 
 1587000   0.62249544   -7.9799665    313.49581  0.016461658   0.01574847            3 
 1588000    0.6188143   -7.9857989     313.6087  0.016457216   0.01573599            7 
 1589000   0.62537847   -7.9901566    314.25776  0.016480898  0.015723512            5 
 1590000   0.62520448   -7.9853713    313.62814  0.016437534  0.015711043            6 
 1591000   0.61841601   -7.9570847     313.7286  0.016432464  0.015698575            8 
 1592000   0.60998474   -7.9928795    313.29219  0.016399298  0.015686122            5 
 1593000   0.61413618   -7.9818422    313.84767  0.016418062  0.015673679            7 
 1594000   0.62591557   -7.9858603    313.54743  0.016392065  0.015661242            6 
 1595000   0.60943472   -7.9781006    313.04936  0.016355766  0.015648806            4 
 1596000   0.62236987   -7.9869457    313.79442  0.016384421  0.015636385            4 
 1597000   0.61828888   -7.9924899    313.76519  0.016372636  0.015623984            4 
 1598000   0.61558168   -7.9994216    313.70609  0.016359308  0.015611577            6 
 1599000   0.61974951   -7.9770819    313.71581  0.016349584  0.015599196            7 
 1600000   0.61542396   -7.9792496    312.96195  0.016300102  0.015586824            4 
 1601000   0.60398277    -7.998308    312.99935  0.016291867  0.015574441            4 
 1602000   0.60076347   -8.0056628    313.92361  0.016329776   0.01556208            7 
 1603000   0.60819104   -7.9856051    313.37214   0.01629092  0.015549722            8 
 1604000   0.62121183   -7.9861896    313.44057  0.016284319  0.015537386            6 
 1605000   0.62037745   -7.9915528    313.17329  0.016260296  0.015525058            5 
 1606000   0.62552876   -7.9964524    313.84497  0.016285023  0.015512706            7 
 1607000   0.60012921   -7.9950969    313.36062  0.016249773  0.015500381            4 
 1608000   0.62281662   -7.9766249    313.33177  0.016238172  0.015488046            7 
 1609000   0.62232741    -8.008709    313.42994  0.016233164  0.015475722            8 
 1610000   0.61091097   -8.0088504    313.54302  0.016228935  0.015463396            5 
 1611000   0.60418369   -8.0075639    313.22899  0.016202617  0.015451088            7 
 1612000   0.59827683   -7.9887291    313.49004  0.016206061  0.015438795            6 
 1613000   0.62038263   -7.9884511    313.84671  0.016214441  0.015426505            7 
 1614000   0.61666023   -8.0087865      312.949  0.016158044  0.015414207            8 
 1615000   0.61461217   -8.0066798    313.82248  0.016193111  0.015401917            7 
 1616000   0.62166839   -7.9834172    313.64796   0.01617409  0.015389638            9 
 1617000   0.60433794   -8.0070163    312.82969  0.016121917  0.015377381           10 
 1618000   0.60675112   -8.0053661    312.98695  0.016120053  0.015365134            9 
 1619000   0.61669934   -8.0039957    312.79153  0.016100038  0.015352899           12 
 1620000   0.59626884   -8.0109109    313.45817  0.016124391  0.015340658            5 
 1621000   0.60913351   -8.0118484    313.79421   0.01613172  0.015328437            9 
 1622000   0.61573325   -8.0003776    313.53965  0.016108695  0.015316228            5 
 1623000   0.61112186   -8.0167132    313.04032  0.016073132   0.01530403            8 
 1624000   0.60978798   -8.0173304    313.39939   0.01608166  0.015291837            6 
 1625000   0.60569041    -7.982799    312.86238  0.016044225  0.015279636            6 
 1626000   0.60403388   -8.0119616    313.61103  0.016072726  0.015267449            8 
 1627000   0.59616786   -8.0085751    313.14041  0.016038743  0.015255288            8 
 1628000   0.62285864   -8.0084304    313.42227  0.016043318  0.015243144           10 
 1629000   0.61632983   -8.0153194    313.52248  0.016038596  0.015230992            5 
 1630000    0.5974972   -8.0144051    313.88699  0.016047392  0.015218881           14 
 1631000   0.61189449   -8.0091458    313.05254  0.015994918  0.015206753            5 
 1632000   0.59539406   -8.0141991    313.47788  0.016006836  0.015194623            8 
 1633000   0.59288117   -8.0294061    313.02544  0.015973946  0.015182496            8 
 1634000   0.61133419   -8.0087997    313.32303  0.015979347  0.015170415            9 
 1635000   0.60240352   -8.0129267    313.30618  0.015968714  0.015158314            6 
 1636000   0.58532381    -8.021687    313.68812  0.015978409  0.015146242            5 
 1637000   0.59481081   -8.0163518    313.18684   0.01594313  0.015134173            6 
 1638000   0.58212629   -8.0172948    313.98797  0.015974154   0.01512214            6 
 1639000   0.59109891   -8.0089283    314.20494  0.015975439  0.015110105            4 
 1640000   0.59585105   -8.0322195    312.83501  0.015896088  0.015098053            7 
 1641000   0.58264518    -8.021596    313.17494  0.015903663  0.015086029            8 
 1642000   0.60231887   -8.0310116    313.71306  0.015921288  0.015074012            7 
 1643000   0.59860115   -8.0238891    313.05836  0.015878391  0.015062011           11 
 1644000   0.58882774   -8.0248041    312.29039  0.015829805  0.015049979           12 
 1645000   0.60000125   -8.0185296    312.98167  0.015855201   0.01503797           10 
 1646000   0.60084052   -8.0123969    313.43875  0.015868709  0.015025967            8 
 1647000   0.59418249   -8.0311907    313.28295  0.015851192  0.015013982            6 
 1648000   0.59617029   -8.0397673    313.25927  0.015840376  0.015002013           10 
 1649000    0.5929618     -8.04211    313.12088  0.015823776  0.014990016           11 
 1650000   0.59534939   -8.0269528    313.02437  0.015809311  0.014978052           13 
 1651000   0.60391271   -8.0371767    313.22765  0.015809996  0.014966093           11 
 1652000   0.59230772   -8.0298584    313.20705  0.015799387   0.01495415           13 
 1653000   0.58615883   -8.0230598    313.15853  0.015787383  0.014942201           10 
 1654000   0.60319235   -8.0409728    313.06123  0.015772936  0.014930267            7 
 1655000    0.5889502   -8.0538627     313.0495  0.015762814  0.014918343           14 
 1656000   0.59316201   -8.0413916     313.2366  0.015762712  0.014906436            3 
 1657000   0.60727696   -8.0442209    312.67042  0.015724724   0.01489453            6 
 1658000   0.59129287   -8.0375891    313.28551  0.015746155  0.014882651            3 
 1659000    0.5920746   -8.0316873    312.90592  0.015717597  0.014870777            2 
 1660000   0.61162195   -8.0468165     313.3548  0.015730662  0.014858903            8 
 1661000    0.5874803   -8.0494063    313.32696  0.015719795  0.014847039           12 
 1662000   0.58658272    -8.028235    312.97431  0.015692655  0.014835186           10 
 1663000   0.59826697   -8.0218485    313.78705  0.015723945  0.014823337            6 
 1664000   0.57259526   -8.0378534    313.29698  0.015689953  0.014811499            5 
 1665000   0.59059827   -8.0418403    312.97179  0.015664254  0.014799652            7 
 1666000   0.58222919   -8.0603399    312.58372   0.01563544  0.014787812            7 
 1667000   0.60660475   -8.0528273    312.94059  0.015643901  0.014775972           10 
 1668000   0.58914586    -8.031253    312.65006  0.015620007  0.014764163            7 
 1669000   0.59028814   -8.0354609    313.42736  0.015649459  0.014752362            4 
 1670000   0.57491092   -8.0446657    313.06864  0.015622188  0.014740567            8 
 1671000   0.58839493   -8.0658861     312.6647  0.015592694  0.014728767            5 
 1672000   0.58376646   -8.0691792    312.87851  0.015594025  0.014716976            6 
 1673000     0.591648    -8.076819    312.52107  0.015566899    0.0147052            5 
 1674000   0.57935838   -8.0329169    313.28167  0.015595464  0.014693417           12 
 1675000   0.58228835   -8.0457154    312.72461  0.015558438  0.014681658            5 
 1676000   0.57561405   -8.0379405    312.45155  0.015535578  0.014669884            7 
 1677000   0.57649953   -8.0575515    312.64735  0.015536044  0.014658137           10 
 1678000   0.58690304    -8.062862     311.8164  0.015485519  0.014646402            7 
 1679000   0.59387686   -8.0618296    312.94281  0.015532202  0.014634666           14 
 1680000   0.59523819   -8.0420681    312.65856  0.015508857  0.014622924            8 
 1681000   0.59492741   -8.0690403     313.2437  0.015528638  0.014611192            8 
 1682000   0.59474316   -8.0567345    312.23186  0.015469276  0.014599455            8 
 1683000   0.58049521   -8.0565783    312.48139   0.01547244  0.014587721            9 
 1684000   0.58353417   -8.0701915    311.85802  0.015432404  0.014575991            6 
 1685000     0.586621   -8.0692499    311.99804   0.01543017  0.014564259           16 
 1686000   0.56595363   -8.0485948    312.49777  0.015445718  0.014552567            8 
 1687000   0.59494645   -8.0561886    312.40999  0.015432226  0.014540874           14 
 1688000   0.57704606   -8.0770139    312.59749  0.015432341  0.014529182            8 
 1689000   0.57017379   -8.0498309    312.58729    0.0154227  0.014517496            8 
 1690000   0.58539684   -8.0860737    312.72913  0.015420568  0.014505835            7 
 1691000   0.57505665   -8.0626292    312.72144   0.01541107  0.014494171            5 
 1692000   0.57329173   -8.0699993    312.46532  0.015389348  0.014482507            8 
 1693000    0.5860855   -8.0887823    312.44447  0.015379232   0.01447087            5 
 1694000   0.56855303    -8.059808    312.32731  0.015364389  0.014459243            5 
 1695000   0.59064838   -8.0349717    312.18337  0.015348248  0.014447611            8 
 1696000   0.57302477   -8.0623409    312.55285  0.015357353  0.014435988            9 
 1697000   0.58249796   -8.0615519    311.85365  0.015313968  0.014424352            4 
 1698000    0.5703886   -8.0712655    312.35846  0.015329724  0.014412729            5 
 1699000   0.58703366   -8.1024437    312.55101  0.015330146   0.01440112            4 
 1700000   0.58782568   -8.0970698    311.75769   0.01528224  0.014389489            6 
 1701000   0.57108225   -8.0816423    312.42585  0.015305989  0.014377873            9 
 1702000   0.56872035   -8.0712225    311.92657   0.01527255  0.014366262            8 
 1703000   0.58237028   -8.0912409    312.13029  0.015273551  0.014354677            5 
 1704000   0.57453441   -8.0753727    312.01304  0.015258854    0.0143431            4 
 1705000   0.57950097   -8.0656804    311.77158  0.015238103  0.014331544            6 
 1706000   0.56574175   -8.0844961    311.62603  0.015222061  0.014319985            6 
 1707000   0.57338185   -8.0590295    312.46387  0.015254046  0.014308446            6 
 1708000   0.57255668    -8.074785    312.29219  0.015236738  0.014296924            5 
 1709000   0.58270881   -8.0999486    311.67403  0.015197681  0.014285405            5 
 1710000   0.56490777   -8.0902253    312.21162  0.015214991  0.014273873            6 
 1711000   0.56676883   -8.0821322    311.76087  0.015184145  0.014262363            5 
 1712000   0.57696346   -8.0814532    311.57144  0.015166055  0.014250869            7 
 1713000   0.57724812    -8.076132    312.01788   0.01517892  0.014239377            6 
 1714000   0.57299824   -8.0925933    311.84228  0.015161527  0.014227889            6 
 1715000   0.55030068    -8.092237    311.83739  0.015152449  0.014216412            7 
 1716000   0.57898875   -8.0741719    312.55459  0.015178448  0.014204944            8 
 1717000   0.57741148   -8.1182287    311.56697  0.015121674  0.014193475            7 
 1718000   0.56783827   -8.0993159    312.65731   0.01516576  0.014182033            5 
 1719000   0.57669849   -8.1008525     312.2176  0.015135621  0.014170586            5 
 1720000   0.58105375    -8.105342    312.22342  0.015127104  0.014159146            8 
 1721000    0.5666532    -8.108685    312.40771  0.015127238  0.014147712            3 
 1722000    0.5675013   -8.0776025    312.20753  0.015108765  0.014136309           11 
 1723000   0.56570126   -8.0935787    311.83299  0.015081882    0.0141249            6 
 1724000   0.55814862   -8.0818135    312.00482   0.01508144  0.014113475            4 
 1725000   0.56893763   -8.0963468    311.66247  0.015056158  0.014102072            7 
 1726000    0.5624216   -8.0944179    311.93154  0.015060426  0.014090708            6 
 1727000   0.55386563   -8.1236918     311.7578  0.015043322   0.01407934            5 
 1728000    0.5691344   -8.0949157    312.15266  0.015053659   0.01406799            9 
 1729000   0.57354351   -8.0984871    311.84579  0.015030161  0.014056632            4 
 1730000   0.54662406   -8.1079462    312.24418  0.015040664    0.0140453            9 
 1731000   0.56138959   -8.1162658    311.95226  0.015017921  0.014033979            9 
 1732000   0.54867762   -8.0954009    311.46826  0.014985963  0.014022667            5 
 1733000   0.55880395   -8.1012283    312.05508  0.015005534  0.014011374            6 
 1734000    0.5589222   -8.1092974    312.08006  0.014998081  0.014000099            6 
 1735000   0.54759542   -8.0957398     311.2008  0.014947204  0.013988813            9 
 1736000   0.54941603   -8.0881084    311.78456  0.014966617  0.013977533            9 
 1737000   0.55776665   -8.1001479    311.87555  0.014962366   0.01396626            6 
 1738000   0.55354208    -8.102574    311.78823   0.01494957  0.013955005            4 
 1739000   0.56704103   -8.1098769    311.52263  0.014928246  0.013943771            5 
 1740000   0.56779089   -8.1090384    311.52674  0.014919863   0.01393254            7 
 1741000   0.55392187   -8.1013766    312.16287  0.014941742  0.013921325            5 
 1742000   0.56099232   -8.0996562    311.22214  0.014888162  0.013910119            9 
 1743000   0.55761523   -8.0807366    311.57111  0.014896305  0.013898909            7 
 1744000   0.55439003   -8.1169194    312.14189  0.014915037  0.013887719            4 
 1745000   0.55048587   -8.1063373    311.98446  0.014898971  0.013876522            7 
 1746000   0.55573226   -8.1088876    311.69679  0.014876708   0.01386535            6 
 1747000    0.5480463   -8.1110988    311.91759  0.014878725  0.013854165            4 
 1748000   0.54976639   -8.1060306    311.11932  0.014832157  0.013842985            7 
 1749000   0.55594378   -8.1149849    311.52731  0.014843115   0.01383185            5 
 1750000   0.56465194   -8.1263311     311.5984  0.014838019  0.013820704            7 
 1751000    0.5557461   -8.1142806    312.07682  0.014852314  0.013809565            4 
 1752000    0.5656432    -8.108067    312.02981    0.0148416  0.013798437            3 
 1753000   0.54739551   -8.1117845    311.64055   0.01481463  0.013787317            7 
 1754000   0.56749224   -8.1315077    311.08026  0.014779564  0.013776192            6 
 1755000   0.55884233   -8.1020675    311.54661  0.014793286  0.013765099            5 
 1756000   0.56141631   -8.1300937    311.77152  0.014795535  0.013754002            6 
 1757000   0.56116258   -8.1397303    311.46457  0.014772556  0.013742924            8 
 1758000   0.53781983   -8.1142023    311.12723  0.014748162  0.013731851            8 
 1759000   0.55590237   -8.1044766    311.53796  0.014759236  0.013720808            5 
 1760000   0.55154663   -8.1106106    311.78867  0.014762721  0.013709765            8 
 1761000   0.55512325    -8.141998    311.39109  0.014735524  0.013698732            5 
 1762000   0.55381393   -8.1312779     311.0685  0.014711904  0.013687708            4 
 1763000   0.56299182   -8.1284352    311.52587  0.014725178  0.013676674            6 
 1764000   0.52871887   -8.1220107    311.61371   0.01472098  0.013665668            9 
 1765000   0.54276588   -8.1362018    311.62019  0.014712946  0.013654674           13 
 1766000     0.548316   -8.1261686    311.59222  0.014703295  0.013643697            4 
 1767000   0.56229538   -8.1217817    311.23926  0.014678328   0.01363273            3 
 1768000    0.5419654   -8.1314377    312.28268  0.014719206  0.013621767           11 
 1769000   0.55974964   -8.1263875     311.7325  0.014684968  0.013610817            3 
 1770000   0.55373025    -8.134233    311.82145  0.014680859  0.013599885            4 
 1771000   0.54878458   -8.1284567    311.60645  0.014662453  0.013588956            7 
 1772000   0.54692178   -8.1421415    311.63946  0.014655731  0.013578043            6 
 1773000    0.5528864   -8.1498103    311.83989  0.014656885  0.013567139            9 
 1774000    0.5436449   -8.1309966    311.75101  0.014644448   0.01355623            9 
 1775000   0.53459521    -8.131799    311.88776  0.014642618  0.013545346            5 
 1776000   0.53963277     -8.14483    311.46932  0.014614739  0.013534472            9 
 1777000   0.53564037   -8.1324039    311.42498  0.014604435  0.013523599            6 
 1778000    0.5469913   -8.1132816    311.91184   0.01461904  0.013512759            5 
 1779000   0.54628107   -8.1350196     311.4857  0.014590861  0.013501919            6 
 1780000    0.5379033   -8.1279696    311.74342  0.014594729    0.0134911            5 
 1781000   0.53999847    -8.131285    311.18454  0.014560384  0.013480265            6 
 1782000   0.53874865   -8.1223724    311.40373  0.014562464  0.013469454            8 
 1783000   0.52501303   -8.1332044    311.13625  0.014541795  0.013458641            5 
 1784000   0.54488857   -8.1484617    311.71052  0.014560469  0.013447824            5 
 1785000   0.54331578   -8.1323966    311.23106  0.014529928  0.013437029            9 
 1786000   0.53643666     -8.14053    311.51209  0.014534905  0.013426246            9 
 1787000   0.53646979   -8.1323319    311.24394  0.014514267  0.013415469            7 
 1788000    0.5405852   -8.1438603    311.41402  0.014514076  0.013404704            4 
 1789000   0.54262037   -8.1379592    311.61889  0.014515506  0.013393939            5 
 1790000   0.52365169   -8.1470504    311.85498  0.014518388  0.013383195            7 
 1791000   0.53037423   -8.1387647    310.95542  0.014468426  0.013372453            5 
 1792000   0.52947519   -8.1538595    311.59142  0.014489928  0.013361725            6 
 1793000   0.52652105    -8.151042    311.52169  0.014478606  0.013351007            2 
 1794000    0.5421921   -8.1448046    311.13893  0.014452756  0.013340281            5 
 1795000     0.546133   -8.1340509    311.46269  0.014459735   0.01332958            4 
 1796000   0.54519636   -8.1426663    311.34208  0.014446088  0.013318882           12 
 1797000   0.52906039   -8.1437957    310.90775  0.014417907  0.013308186            4 
 1798000   0.54516927   -8.1395117    311.87774  0.014454845  0.013297515            3 
 1799000   0.53625497    -8.149214    311.13652  0.014412476  0.013286865            6 
 1800000   0.53483532   -8.1614842    311.63808  0.014427689  0.013276192            2 
 1801000   0.53480395   -8.1334974     311.5619  0.014416153  0.013265534            8 
 1802000    0.5404249    -8.148225    311.87293  0.014422537  0.013254907            4 
 1803000   0.53434961   -8.1605828    311.47135  0.014395977  0.013244291            3 
 1804000   0.53558391   -8.1481984    310.92151  0.014362597  0.013233664            7 
 1805000   0.53469858   -8.1418555    311.61202   0.01438652   0.01322305            8 
 1806000   0.53231541    -8.144616    311.24696  0.014361709  0.013212452            7 
 1807000   0.53559531   -8.1520482    311.38482  0.014360119  0.013201851            4 
 1808000   0.53003777   -8.1478948    311.25486  0.014346187  0.013191278            9 
 1809000   0.53749611    -8.163085    311.51042  0.014350029  0.013180719            6 
 1810000   0.52490266   -8.1366737    312.02241  0.014365673  0.013170155           11 
 1811000   0.52817673   -8.1605454    311.01374  0.014311326   0.01315959            5 
 1812000   0.52247806   -8.1546311     311.2155  0.014312707  0.013149038            8 
 1813000   0.52354732   -8.1669003    311.18623  0.014303467  0.013138499            6 
 1814000   0.53097148   -8.1690085    310.73325  0.014274773  0.013127974           12 
 1815000   0.51679592   -8.1647741     311.0544  0.014281653  0.013117441            6 
 1816000   0.53463568    -8.153022    311.21811  0.014281301  0.013106923            9 
 1817000   0.52876685   -8.1662954    311.33048  0.014278595  0.013096413            5 
 1818000   0.53453995   -8.1776194    310.65595  0.014239822  0.013085913           12 
 1819000   0.52751658   -8.1550484    311.13681  0.014254023  0.013075435            4 
 1820000     0.525418   -8.1706487    311.34925  0.014255918  0.013064969            4 
 1821000   0.52869392   -8.1685862    311.10524  0.014236923   0.01305452           10 
 1822000    0.5190847    -8.157286    311.24661  0.014235575  0.013044065            5 
 1823000   0.53468071   -8.1657225    311.53965  0.014241161  0.013033619            5 
 1824000   0.52911478   -8.1696055    311.27491  0.014221259  0.013023171            6 
 1825000   0.52501001   -8.1703093    310.79449  0.014191529  0.013012738            5 
 1826000   0.52651987   -8.1819373    310.82592  0.014185192  0.013002311            6 
 1827000   0.52423915   -8.1502754    310.98185   0.01418454  0.012991894            4 
 1828000   0.54201589   -8.1722355    310.70437   0.01416413   0.01298149            8 
 1829000   0.51891935   -8.1667921    311.05747  0.014172474   0.01297109            6 
 1830000   0.53266753   -8.1773121    311.11534  0.014167365  0.012960692            5 
 1831000   0.52289262   -8.1618354    310.88703  0.014149237  0.012950317            6 
 1832000   0.53470963   -8.1815028    311.55863  0.014172063  0.012939953           11 
 1833000   0.52125798   -8.1793338    310.94155  0.014136277  0.012929586           10 
 1834000   0.53476677   -8.1878729    311.42424  0.014150502  0.012919236            6 
 1835000   0.51214176    -8.176688    310.92776  0.014120243  0.012908902           17 
 1836000   0.50917557   -8.1779142    310.90226  0.014111395  0.012898577            9 
 1837000   0.52067468   -8.1732947    310.72762  0.014095791  0.012888259            6 
 1838000   0.51180847   -8.1770874    311.10433  0.014105202  0.012877947            5 
 1839000   0.52983521   -8.1680498    311.14142  0.014099212  0.012867646            8 
 1840000   0.52084366   -8.1530061    310.90466  0.014080827  0.012857356            6 
 1841000   0.51421184   -8.1930728    311.12604    0.0140832  0.012847073            4 
 1842000   0.52421995   -8.1798738    311.22013  0.014079811  0.012836808           19 
 1843000   0.51899443    -8.170214    311.05674  0.014064783  0.012826548            9 
 1844000   0.51407891   -8.1791268     311.6311  0.014083112  0.012816301            7 
 1845000   0.53434954   -8.1756415    310.92558  0.014043613  0.012806066           15 
 1846000   0.52775357   -8.1834396    311.17366  0.014047204  0.012795835           10 
 1847000   0.51503243   -8.1808831    310.94972  0.014029495  0.012785614            7 
 1848000   0.52226003   -8.1653365    310.75311  0.014013037  0.012775406            8 
 1849000   0.51923709   -8.1818927    311.00301  0.014016721  0.012765208            6 
 1850000   0.51653148   -8.1965001    311.19616  0.014017845  0.012755014           11 
 1851000   0.51573344   -8.1847505    310.36102  0.013972673  0.012744823           14 
 1852000   0.51634646   -8.1710018    310.52867  0.013972672  0.012734658            7 
 1853000   0.51243939   -8.1846459    310.95167  0.013984155  0.012724497            7 
 1854000   0.50938167   -8.1936249    310.26095  0.013945566  0.012714348            5 
 1855000   0.52075201   -8.1692042    310.40056   0.01394432  0.012704199            9 
 1856000   0.50714664   -8.1915126    311.05924  0.013966381  0.012694066            9 
 1857000   0.51123615   -8.1801088     311.2993  0.013969633  0.012683945            8 
 1858000   0.49136346   -8.1909246    310.71902  0.013936088  0.012673828           10 
 1859000    0.5079697   -8.1823839    310.76892  0.013930828  0.012663726           11 
 1860000   0.51153133    -8.187845    310.90401  0.013929391  0.012653635           10 
 1861000   0.50730007   -8.1770878    310.42412  0.013900417  0.012643542            3 
 1862000   0.50908014   -8.2060701    310.79455  0.013909531   0.01263346           10 
 1863000   0.51047029   -8.1850485    310.35127  0.013882236  0.012623396            8 
 1864000   0.50558402   -8.1618388    310.64487  0.013887915  0.012613351            9 
 1865000    0.5037732   -8.1902079    310.94348  0.013893811  0.012603309           10 
 1866000   0.50996033   -8.1935635    310.89727  0.013884301  0.012593267            8 
 1867000   0.49574408   -8.1752026    310.85606  0.013875025  0.012583243           12 
 1868000   0.50457069   -8.1916971    310.79548  0.013864895  0.012573233            5 
 1869000   0.50159383   -8.1841656    310.25753  0.013833491  0.012563223           14 
 1870000   0.50420977   -8.1997824    310.59455  0.013841112   0.01255322            6 
 1871000   0.51099485   -8.1845667    310.39101  0.013824649  0.012543231           10 
 1872000   0.50559137   -8.1899078    310.82833  0.013836731  0.012533247            5 
 1873000   0.51191869   -8.1882347    310.69818  0.013823553  0.012523268            6 
 1874000    0.4989666   -8.1846305    310.74712  0.013818353  0.012513289           12 
 1875000   0.51385816   -8.1769748    310.89577   0.01381759  0.012503334           15 
 1876000   0.50580187   -8.1921816    310.92288  0.013811428  0.012493382            9 
 1877000    0.4934453   -8.2114397    311.28104  0.013819972  0.012483445            6 
 1878000   0.51473115   -8.1962948    310.89721  0.013795581  0.012473503           10 
 1879000   0.51705386   -8.2117582    310.56747  0.013773615  0.012463589            9 
 1880000    0.5079606   -8.2100771    310.74749  0.013774268  0.012453672           11 
 1881000   0.50124993   -8.1996044    310.65097  0.013762669  0.012443781            6 
 1882000   0.49542104   -8.1945314    310.54191  0.013750527  0.012433887            7 
 1883000   0.49441796   -8.2050579    310.17128  0.013726822  0.012423998            9 
 1884000    0.5102057   -8.2085087    311.00366  0.013756354  0.012414111            4 
 1885000   0.49231563   -8.1870392    310.64839   0.01373335  0.012404254           10 
 1886000   0.50171804   -8.2139782    310.81864  0.013733591  0.012394401            5 
 1887000   0.50302105   -8.1845519    310.78147  0.013724672  0.012384566           12 
 1888000   0.49926077   -8.2059214    310.53719   0.01370662  0.012374745           10 
 1889000   0.50999273   -8.2150949     310.0832  0.013679337   0.01236491            6 
 1890000   0.49638393   -8.2016943    310.48857  0.013689972  0.012355076            7 
 1891000   0.49412314    -8.208549    310.18799  0.013669487  0.012345252            8 
 1892000    0.5005591   -8.2049649    310.64424  0.013682357   0.01233545            5 
 1893000   0.49902074   -8.2109992    310.50227   0.01366888  0.012325651            5 
 1894000   0.49495124    -8.202581    310.55569  0.013664013   0.01231586            6 
 1895000   0.50220441   -8.2108743    310.63812  0.013660427  0.012306087            5 
 1896000    0.4955355   -8.2175533    310.18877  0.013633472  0.012296317            6 
 1897000   0.49776967   -8.2174571    310.33869  0.013632871  0.012286551           11 
 1898000   0.49484843   -8.2035326    310.29651  0.013623837  0.012276803            5 
 1899000   0.48889215   -8.2011467    310.16637  0.013610952  0.012267043            7 
 1900000   0.49107456   -8.2141437    310.18276  0.013604507  0.012257296            7 
 1901000   0.49886035   -8.2123346    310.56687  0.013614189   0.01224755            5 
 1902000    0.4980154   -8.2085378    310.49351  0.013603816  0.012237815            9 
 1903000   0.49411341   -8.2132061    310.57199  0.013600104  0.012228116           12 
 1904000   0.48929464   -8.2326523    310.91032   0.01360777  0.012218402           14 
 1905000     0.500083   -8.2260768    310.23369  0.013571027  0.012208705            9 
 1906000   0.49109425   -8.2285261    310.67002  0.013582985  0.012199013           14 
 1907000   0.49035733   -8.2095229    310.23862   0.01355701  0.012189332           10 
 1908000   0.49226141    -8.213526    310.03493  0.013541009  0.012179644           10 
 1909000   0.49480931   -8.2067354    310.32247  0.013546467  0.012169985           13 
 1910000   0.48749263    -8.222396    310.79014  0.013559779  0.012160326            6 
 1911000   0.47720332   -8.2266872    310.24907  0.013529089  0.012150689            7 
 1912000    0.4884809   -8.2214469    310.69972  0.013541654  0.012141049           10 
 1913000   0.48716731   -8.2236134    309.95745  0.013502241  0.012131434            5 
 1914000   0.49227125   -8.2212401    310.32544  0.013511209  0.012121821            8 
 1915000   0.48239039     -8.22524    310.15811  0.013496872  0.012112211           12 
 1916000   0.48679164    -8.219158    310.11825  0.013488094  0.012102614            7 
 1917000   0.50058386   -8.2280288    310.36773  0.013491903  0.012093023            5 
 1918000   0.50124858   -8.2229257    309.74175  0.013457671  0.012083446            6 
 1919000   0.49490474   -8.2315209    310.05957  0.013464459  0.012073863           11 
 1920000   0.49998525   -8.2326238    310.11713  0.013459945  0.012064303           13 
 1921000   0.48314714    -8.211854    310.40496  0.013465424  0.012054743            9 
 1922000   0.47623004   -8.2231466    309.72461   0.01342892  0.012045195            9 
 1923000   0.49082074   -8.2412138    309.84507  0.013427157  0.012035661            7 
 1924000   0.48567277   -8.2170045    310.10788  0.013431561  0.012026135           18 
 1925000    0.4970734   -8.2280952    310.23028  0.013429882  0.012016603           15 
 1926000   0.48588689   -8.2303481    309.65877  0.013398181   0.01200709           10 
 1927000   0.47711996   -8.2195703    310.12273  0.013411293  0.011997591            6 
 1928000    0.4928158   -8.2411136    310.16804  0.013406295  0.011988107            5 
 1929000   0.49210674   -8.2236969    309.81366  0.013384036  0.011978627            7 
 1930000   0.48715172   -8.2228527    310.16534  0.013392286  0.011969154           14 
 1931000   0.48548389   -8.2255231    309.68107  0.013364451  0.011959681            7 
 1932000   0.48849905   -8.2404605    310.06289  0.013374003  0.011950229           11 
 1933000   0.48847949   -8.2157899    310.23923  0.013374687  0.011940775           16 
 1934000   0.48186428   -8.2235229    309.74881  0.013346639   0.01193133           15 
 1935000    0.4714243   -8.2295132    309.56769  0.013331942  0.011921892           14 
 1936000    0.4820119   -8.2478058    310.07716  0.013346985  0.011912457            7 
 1937000   0.48880798   -8.2379647    309.51983  0.013316117  0.011903036           10 
 1938000   0.46760052   -8.2582864    309.69887  0.013316945  0.011893622            8 
 1939000   0.48108929   -8.2428048    309.47076  0.013300273   0.01188422           10 
 1940000   0.47075921   -8.2434292    309.66481  0.013301753  0.011874826            5 
 1941000   0.47391461   -8.2473471    309.67095  0.013295164  0.011865436           15 
 1942000   0.47376238   -8.2448464    310.28806  0.013314798  0.011856064           10 
 1943000   0.47350059    -8.239768    309.55016  0.013276298  0.011846691           11 
 1944000   0.48309245   -8.2482709    309.96108  0.013287083  0.011837329           15 
 1945000   0.47387205   -8.2498381    309.69299  0.013268766  0.011827985           10 
 1946000   0.47891222   -8.2337805    309.87487  0.013269736  0.011818654           10 
 1947000   0.46670827   -8.2465391    309.84703  0.013261729  0.011809325            8 
 1948000   0.47438738   -8.2394712    309.69731  0.013248516  0.011800005           11 
 1949000   0.46630383   -8.2521868    309.60793  0.013237897  0.011790683           11 
 1950000     0.472416   -8.2494898    309.59642  0.013230616  0.011781384            8 
 1951000   0.47732545   -8.2433993    309.81785  0.013233293  0.011772086           11 
 1952000    0.4677229   -8.2386794     309.9763  0.013233278  0.011762799            9 
 1953000   0.47207551   -8.2471142    309.49778  0.013206084  0.011753516            8 
 1954000   0.48086218   -8.2556753    310.03406  0.013222196  0.011744241            9 
 1955000   0.47709005   -8.2308406    309.23836  0.013181516  0.011734979           11 
 1956000   0.48171891   -8.2447392    309.60918  0.013190575  0.011725729            7 
 1957000   0.47921442   -8.2386945    309.17851  0.013165496  0.011716486            9 
 1958000   0.46210002   -8.2397835    309.45387  0.013170492  0.011707237            7 
 1959000   0.47583746   -8.2393596     309.8555  0.013180853  0.011698017            9 
 1960000   0.47854315     -8.23884    309.28289  0.013149783  0.011688793           10 
 1961000   0.47261442   -8.2524537    309.54188  0.013154083  0.011679579            7 
 1962000   0.46406857   -8.2545785    309.98228  0.013166084  0.011670378            8 
 1963000   0.46046914   -8.2573392    309.58907  0.013142684  0.011661182            6 
 1964000   0.46512263   -8.2675491    309.82709  0.013146092  0.011651995            7 
 1965000   0.47216886   -8.2468088    309.58219  0.013129016  0.011642825            9 
 1966000   0.46731231    -8.245979    309.45654  0.013117012  0.011633663            4 
 1967000   0.46117424   -8.2312266    310.04794  0.013135398  0.011624518            5 
 1968000   0.46120158   -8.2480489    309.99085  0.013126307  0.011615367            7 
 1969000   0.45826394   -8.2518142    309.93394  0.013117231  0.011606222            9 
 1970000   0.47224841   -8.2413316    309.55219  0.013094424  0.011597099            8 
 1971000   0.45627345   -8.2542513    309.46151  0.013083947   0.01158798            6 
 1972000   0.47165218   -8.2540978    309.96334  0.013098518  0.011578864            9 
 1973000   0.46019148   -8.2641625    309.88064  0.013088387   0.01156977           14 
 1974000   0.47042693     -8.26433    309.69144  0.013073769  0.011560669            5 
 1975000   0.46140568   -8.2601699    310.09663  0.013084246  0.011551584            7 
 1976000    0.4606605   -8.2553189    309.81656  0.013065813  0.011542504            9 
 1977000   0.46198102   -8.2537653    309.72864  0.013055498  0.011533431           10 
 1978000   0.46094781    -8.250786    309.74904  0.013049757  0.011524376           15 
 1979000   0.46413292   -8.2645685    309.50031  0.013032689  0.011515327            5 
 1980000   0.46327679   -8.2584781    309.40715  0.013022186  0.011506283            7 
 1981000   0.46239438   -8.2593362    309.42179  0.013016229  0.011497241            7 
 1982000   0.46263333   -8.2612275       309.65  0.013019257  0.011488208            6 
 1983000   0.46902599   -8.2875438    309.50234  0.013006486  0.011479189            7 
 1984000   0.46921834   -8.2421974    309.55363  0.013002084  0.011470182           19 
 1985000   0.46129185   -8.2823701    309.50149  0.012993346  0.011461181            9 
 1986000   0.45473126   -8.2567591    309.22535  0.012975216  0.011452186            9 
 1987000   0.46238517   -8.2428098     309.5464  0.012982151  0.011443202            8 
 1988000   0.45426118   -8.2721612    309.93644   0.01299197   0.01143423            4 
 1989000   0.45539242   -8.2634127    309.32326  0.012959748  0.011425276            8 
 1990000   0.46099625   -8.2599143    309.70658  0.012969287  0.011416312            4 
 1991000   0.45463452   -8.2591406    309.77234  0.012965526  0.011407367            7 
 1992000   0.45820632   -8.2860506    309.97497  0.012967494   0.01139844            4 
 1993000   0.45724236   -8.2730771      309.733   0.01295087  0.011389512           13 
 1994000   0.46163992   -8.2752399     309.2603   0.01292462  0.011380589            6 
 1995000   0.45489528   -8.2697506    309.04052  0.012908961  0.011371667            8 
 1996000    0.4527476   -8.2578289    309.14333  0.012906786  0.011362763            6 
 1997000    0.4571883   -8.2665945    309.43642  0.012912553  0.011353872            7 
 1998000     0.442548   -8.2549132    308.95403  0.012885971  0.011344989            7 
 1999000   0.45287573    -8.275438    309.24453  0.012891635  0.011336114            7 
 2000000   0.46741926   -8.2751662    309.06204  0.012877585  0.011327238            9 
 2001000   0.45233966   -8.2743374    309.63688  0.012895089  0.011318377            6 
 2002000   0.44656757   -8.2708896    309.35339  0.012876848  0.011309522            5 
 2003000   0.44597716   -8.2899308    309.72244  0.012885773  0.011300678            8 
 2004000   0.45357158   -8.2793829    309.41166   0.01286642  0.011291832            7 
 2005000   0.45186083    -8.280519    309.09106  0.012846677  0.011283004            8 
 2006000   0.44548408   -8.2595656    309.52058  0.012858116  0.011274189            6 
 2007000   0.46073367   -8.2778539    309.37096  0.012845497  0.011265376           10 
 2008000   0.45451876   -8.2729846    309.19938  0.012831979  0.011256563            4 
 2009000   0.44989487   -8.2808371    309.48826  0.012837575  0.011247766            7 
 2010000   0.43794028   -8.2664353    308.98366  0.012810268  0.011238977           10 
 2011000   0.44114892   -8.2785902     309.2961  0.012816845  0.011230204            4 
 2012000   0.45251383   -8.2712545    309.26774    0.0128093  0.011221426            5 
Loop time of 4579.97 on 48 procs for 2000000 steps with 4000 atoms

Performance: 75458.954 tau/day, 436.684 timesteps/s
99.4% CPU use with 48 MPI tasks x no OpenMP threads

MPI task timing breakdown:
Section |  min time  |  avg time  |  max time  |%varavg| %total
---------------------------------------------------------------
Pair    | 280.52     | 302.05     | 324.25     |  55.2 |  6.60
Neigh   | 29.576     | 30.923     | 31.969     |  11.2 |  0.68
Comm    | 268.42     | 296.63     | 323.38     |  66.4 |  6.48
Output  | 4.0412     | 4.0428     | 4.0791     |   0.3 |  0.09
Modify  | 3895       | 3904       | 3914.3     |   7.0 | 85.24
Other   |            | 42.37      |            |       |  0.93

Nlocal:        83.3333 ave          94 max          75 min
Histogram: 3 3 4 11 9 9 5 1 2 1
Nghost:        1945.44 ave        1969 max        1925 min
Histogram: 5 2 3 7 10 10 3 3 2 3
Neighs:        12327.5 ave       14648 max       10665 min
Histogram: 2 4 9 10 4 10 6 1 1 1
FullNghs:      24653.8 ave       28068 max       22160 min
Histogram: 3 4 6 10 9 7 5 1 2 1

Total # of neighbors = 1183380
Ave neighs/atom = 295.84500
Neighbor list builds = 107406
Dangerous builds = 0

#clear
#
#next RN
#
#jump SELF
Total wall time: 1:16:23
