
units lj                  # Use reduced LJ style units
atom_style atomic         # Uncharged point particles
atom_modify map hash      # Needed for indexing of clusters etc
                          # Used to be able to find where atoms are in relation to each other.

lattice fcc 1.0 spacing 1 1 1
Lattice spacing in x,y,z = 1.5874011 1.5874011 1.5874011
region box block 0 10 0 10 0 10 units lattice
create_box 2 box
Created orthogonal box = (0.0000000 0.0000000 0.0000000) to (15.874011 15.874011 15.874011)
  3 by 4 by 4 MPI processor grid
create_atoms 1 box
Created 4000 atoms
  using lattice units in orthogonal box = (0.0000000 0.0000000 0.0000000) to (15.874011 15.874011 15.874011)
  create_atoms CPU = 0.002 seconds
set type 1 type/fraction 2 0.97 78393
Setting atom values ...
  3879 settings made for type/fraction
mass 1 1.0
mass 2 1.0
pair_style lj/cut  3.5
pair_modify tail  yes
pair_coeff 1  1  1.0  1.0   # Intearaction between 1 and 1 set with epsilon = 1 and sigma = 1
pair_coeff 1  2  1.5  0.8
pair_coeff 2  2  0.5  0.88

write_data data.0
System init for write_data ...
Neighbor list info ...
  update every 1 steps, delay 10 steps, check yes
  max neighbors/atom: 2000, page size: 100000
  master list distance cutoff = 3.8
  ghost atom cutoff = 3.8
  binsize = 1.9, bins = 9 9 9
  1 neighbor lists, perpetual/occasional/extra = 1 0 0
  (1) pair lj/cut, perpetual
      attributes: half, newton on
      pair build: half/bin/atomonly/newton
      stencil: half/bin/3d
      bin: standard
WARNING: Not all mixed pair coeffs generated from mixing. Use write_data with 'pair ij' option to store all pair coeffs. (../write_data.cpp:312)


#############################
#   M E L T   S Y S T E M   #
#############################

velocity all create 2.4 8172548 mom yes dist gaussian # Assign velocities
                                                    # Temperature 2.4, random number seed, zero linear momentum
                                                                                # Gaussian distribution

timestep 0.002   # simulation timestep
thermo 1000       # output thermodynamic data every 1000 steps bf 100

# Define a fix  in this case with index 1 applied to all
# particles in the simulation. This fix is for simulations
# in the anisotropic NPT ensemble. Note that we use the MTK
# correction.
fix 1 all npt temp 2.4 2.4 0.1 iso 5.68 5.68 0.5 mtk yes tchain 5 pchain 5 # Use NPT ensemble
                                                                         # Set temperature and pressure and damping
                                                                         # Numbers of thermostats in chain and in barostat
run 10000          # run for 10000 steps
Per MPI rank memory allocation (min/avg/max) = 3.642 | 3.644 | 3.648 Mbytes
Step Temp E_pair E_mol TotEng Press Volume 
       0          2.4   -2.8451072            0   0.75399283    -1.976462         4000 
    1000    2.3833876   -1.6851386            0     1.889049    5.4533859    4204.8724 
    2000    2.3967455    -1.625944            0    1.9682755    5.7337099    4205.0853 
    3000    2.4106904   -1.6531322            0    1.9619994    5.6499869    4202.8099 
    4000    2.3990596   -1.6809882            0    1.9167016    5.5033324    4204.9369 
    5000    2.4041866   -1.6570096            0    1.9483687    5.7902254    4182.1758 
    6000    2.4099098   -1.6886308            0    1.9253301    5.5692887    4185.7843 
    7000     2.406334   -1.6322076            0    1.9763911    5.8766526    4175.8356 
    8000    2.4104961    -1.658395            0    1.9564453    5.7608572    4173.7174 
    9000    2.4310831   -1.6068555            0    2.0388575    6.0979766    4164.2474 
   10000    2.4424732   -1.6965675            0    1.9662263    5.6499103    4167.7229 
Loop time of 2.44899 on 48 procs for 10000 steps with 4000 atoms

Performance: 705597.387 tau/day, 4083.318 timesteps/s
99.6% CPU use with 48 MPI tasks x no OpenMP threads

MPI task timing breakdown:
Section |  min time  |  avg time  |  max time  |%varavg| %total
---------------------------------------------------------------
Pair    | 1.0679     | 1.1185     | 1.215      |   3.2 | 45.67
Neigh   | 0.20528    | 0.21299    | 0.23378    |   1.1 |  8.70
Comm    | 0.74526    | 0.84176    | 0.9119     |   4.4 | 34.37
Output  | 0.00025143 | 0.00025518 | 0.00032049 |   0.0 |  0.01
Modify  | 0.22836    | 0.2604     | 0.29304    |   3.1 | 10.63
Other   |            | 0.01514    |            |       |  0.62

Nlocal:        83.3333 ave          93 max          75 min
Histogram: 3 3 8 8 5 6 8 3 1 3
Nghost:        1592.35 ave        1617 max        1567 min
Histogram: 2 3 5 7 5 8 6 6 3 3
Neighs:        9143.29 ave       10604 max        7881 min
Histogram: 2 3 5 10 10 5 6 3 3 1

Total # of neighbors = 438878
Ave neighs/atom = 109.71950
Neighbor list builds = 907
Dangerous builds = 212

# Equilibrate just above the melting temperature to avoid step fn in T

fix 1 all npt temp 1.25 1.25 0.1 iso 5.68 5.68 0.5 mtk yes tchain 5 pchain 5
run 2000
Per MPI rank memory allocation (min/avg/max) = 3.643 | 3.645 | 3.649 Mbytes
Step Temp E_pair E_mol TotEng Press Volume 
   10000    2.4424732   -1.6965675            0    1.9662263    5.6499103    4167.7229 
   11000     1.268324   -2.5855801            0  -0.68356977     5.703546    3243.2468 
   12000    1.2374763   -2.5637637            0  -0.70801326    5.5290743    3265.4932 
Loop time of 0.596543 on 48 procs for 2000 steps with 4000 atoms

Performance: 579338.362 tau/day, 3352.653 timesteps/s
99.6% CPU use with 48 MPI tasks x no OpenMP threads

MPI task timing breakdown:
Section |  min time  |  avg time  |  max time  |%varavg| %total
---------------------------------------------------------------
Pair    | 0.26123    | 0.28409    | 0.33077    |   2.3 | 47.62
Neigh   | 0.038414   | 0.040513   | 0.047562   |   0.8 |  6.79
Comm    | 0.17289    | 0.22011    | 0.24284    |   2.7 | 36.90
Output  | 5.2775e-05 | 5.4103e-05 | 6.9915e-05 |   0.0 |  0.01
Modify  | 0.038874   | 0.046857   | 0.053881   |   2.0 |  7.85
Other   |            | 0.004917   |            |       |  0.82

Nlocal:        83.3333 ave          90 max          77 min
Histogram: 2 3 6 8 10 4 5 4 3 3
Nghost:        1883.12 ave        1901 max        1869 min
Histogram: 5 5 7 4 6 7 4 6 2 2
Neighs:        11692.2 ave       13123 max       10154 min
Histogram: 1 2 2 7 13 8 6 4 3 2

Total # of neighbors = 561227
Ave neighs/atom = 140.30675
Neighbor list builds = 141
Dangerous builds = 11

#############################
# L I N E A R  Q U E N C H  #
#############################

# Define solid atoms. This closely follows ten Wolde  Ruiz-Montero and Frenkel  Faraday Discuss  1996  104  93-110
# Compute components of the per-atom q6 vector
compute q6 all orientorder/atom degrees 1 6 components 6 nnn NULL cutoff 1.3 # compute the Q6 parameter.
                                                                             # Use all neighbours within 1.3 unit cell.

# get number of connections
compute coord_number all coord/atom orientorder q6 0.5

# An atom is solid if it has 8 or more connections (of a possible 14)
variable is_solid atom c_coord_number>=8
group solid dynamic all var is_solid    # Must be dynamic to update
dynamic group solid defined

# do clustering
compute cluster solid cluster/atom 1.3 # Create a cluster where all atoms within are solid and max 1.3 units from another member

# define chunks one chunk per cluster
compute clus_chunks solid chunk/atom c_cluster nchunk every compress yes  # Says which atoms are in which chunk

# count the size of each chunk
compute size_chunks solid property/chunk clus_chunks count


# Find the maximum entry in the vector of chunk sizes
variable max_n equal max(c_size_chunks)


# Thermo style which includes this variable
# thermo_style custom step temp pe vol v_max_n

thermo ${N}  # Print the thermo information every 100 steps
thermo 1000  

# Reset the npt fix at a lower temperature (below freezing)
fix 1  all npt temp  ${temp} ${temp}  0.1  iso  5.68  5.68  0.5  mtk yes tchain  5  pchain  5
fix 1  all npt temp  0.45 ${temp}  0.1  iso  5.68  5.68  0.5  mtk yes tchain  5  pchain  5
fix 1  all npt temp  0.45 0.45  0.1  iso  5.68  5.68  0.5  mtk yes tchain  5  pchain  5

dump dmp2 all dcd ${N} traj.dcd
dump dmp2 all dcd 1000 traj.dcd


compute msd all msd com yes
variable twopoint equal c_msd[4]/6/(step*dt+1.0e-6)
fix 9 all vector 10 c_msd[4]
variable fit equal slope(f_9)/6/(10*dt)
thermo_style custom step temp pe c_msd[4] v_twopoint v_fit v_max_n

fix 1 all npt temp 1.25 ${temp} 0.1 iso 5.68 5.68 0.5 mtk yes tchain 5 pchain 5
fix 1 all npt temp 1.25 0.45 0.1 iso 5.68 5.68 0.5 mtk yes tchain 5 pchain 5
run 5000000 # 5000000  # Run for this many steps
Neighbor list info ...
  update every 1 steps, delay 10 steps, check yes
  max neighbors/atom: 2000, page size: 100000
  master list distance cutoff = 3.8
  ghost atom cutoff = 3.8
  binsize = 1.9, bins = 8 8 8
  4 neighbor lists, perpetual/occasional/extra = 1 3 0
  (1) pair lj/cut, perpetual
      attributes: half, newton on
      pair build: half/bin/atomonly/newton
      stencil: half/bin/3d
      bin: standard
  (2) compute orientorder/atom, occasional
      attributes: full, newton on
      pair build: full/bin/atomonly
      stencil: full/bin/3d
      bin: standard
  (3) compute coord/atom, occasional
      attributes: full, newton on
      pair build: full/bin/atomonly
      stencil: full/bin/3d
      bin: standard
  (4) compute cluster/atom, occasional
      attributes: full, newton on
      pair build: full/bin/atomonly
      stencil: full/bin/3d
      bin: standard
Per MPI rank memory allocation (min/avg/max) = 9.815 | 9.819 | 9.823 Mbytes
Step Temp PotEng c_msd[4] v_twopoint v_fit v_max_n 
   12000    1.2374763   -2.5637637 3.1554436e-30 2.1912802e-32 8.3333333e+20            1 
   13000    1.2555561   -2.5444157    1.1432984 0.0073288355  0.097537269            1 
   14000    1.2345203   -2.5521806    2.3873834  0.014210615   0.10001393            2 
   15000    1.2513538   -2.5829448    3.7396202  0.020775667   0.10476768            1 
   16000    1.2640426   -2.5539599    4.9723522  0.025897667   0.10672176            1 
   17000    1.2486443   -2.5650268    6.2392321   0.03058447    0.1062821            2 
   18000     1.247522   -2.5680542    7.5103292  0.034770042   0.10616938            1 
   19000    1.2322514   -2.5598287    8.8016838  0.038603875   0.10617774            1 
   20000    1.2404007   -2.5082557    10.188146  0.042450609   0.10612044            2 
   21000    1.2319175   -2.5671289    11.423572  0.045331634   0.10637375            3 
   22000    1.2500633      -2.5702    12.551266  0.047542672   0.10620041       -1e+20 
   23000    1.2762114    -2.544231    13.687509  0.049592424   0.10575857            2 
   24000    1.2316146   -2.5676739     14.87071  0.051634408   0.10514051            2 
   25000    1.2743021   -2.5546987    16.069299   0.05356433   0.10455339            1 
   26000    1.2432658   -2.5753008    17.300899    0.0554516   0.10401565            1 
   27000    1.2570247   -2.5576889    18.480846  0.057039647    0.1035937            1 
   28000    1.2468372   -2.5851593    19.727552  0.058712953   0.10339842            1 
   29000    1.2573319   -2.5341161    21.170559  0.060834938   0.10324387            1 
   30000    1.2350494   -2.5453602    22.454058  0.062372383   0.10329537            1 
   31000    1.2341893   -2.5401118    23.417863  0.062951244   0.10322291            1 
   32000    1.2513508   -2.5411292     24.77555   0.06451966   0.10312485            1 
   33000     1.255212   -2.5187093    25.778193  0.065096445   0.10294054            2 
   34000    1.2305912    -2.561817    27.033448  0.066258449   0.10266699            1 
   35000    1.2664189   -2.5609789    28.517925   0.06789982   0.10257535            1 
   36000    1.2353988    -2.557683    29.989943  0.069421162   0.10280204            1 
   37000    1.2460224   -2.5126258    31.337814  0.070580661   0.10302765            2 
   38000    1.2821411   -2.5413076    32.657912  0.071618228   0.10330565            2 
   39000    1.2352497    -2.580302     33.86775  0.072366987   0.10354078            2 
   40000    1.2438355   -2.5639582    34.998569  0.072913684   0.10371666            2 
   41000    1.2442179   -2.5660367    36.648005  0.074487814   0.10390198            2 
   42000    1.2190645   -2.5484981    37.820441  0.075040557    0.1040783            1 
   43000    1.2299419   -2.5527132    39.044978  0.075668561   0.10425053            1 
   44000    1.2751189   -2.5494877    40.421095  0.076555104   0.10447529            2 
   45000    1.2423221   -2.5618772    41.743207  0.077302235   0.10471797            1 
   46000    1.2444884   -2.5432092     42.73406  0.077416774   0.10486959            2 
   47000    1.2501036   -2.5414763    44.190234  0.078351478   0.10493696            1 
   48000    1.2825182    -2.559592     45.22814  0.078521076   0.10501043            1 
   49000    1.2428459   -2.5378194    46.527533  0.079128456   0.10507113            2 
   50000    1.2589116   -2.5492171    47.827487  0.079712477   0.10509421            1 
   51000    1.2616647   -2.5427492    49.118613   0.08025917   0.10510221            2 
   52000    1.2237507   -2.5364267    50.612902  0.081110419   0.10515157            1 
   53000    1.2277881   -2.5229946    51.717137  0.081316253   0.10517911            2 
   54000    1.2698296   -2.5282421    52.872436  0.081593265   0.10522074            2 
   55000    1.2173063   -2.5751255    54.306036  0.082281871   0.10526539            2 
   56000    1.2659048   -2.5652065    55.123377  0.082028834   0.10527877            2 
   57000     1.241919   -2.5785136    56.405565  0.082464275   0.10523934            2 
   58000    1.2251322   -2.5782871    57.472045  0.082574777   0.10516621            2 
   59000    1.2327407   -2.5593459    59.093767  0.083465772   0.10511917            2 
   60000    1.2478481   -2.5708541    60.069863  0.083430364    0.1051175            2 
   61000    1.2435426    -2.546951    61.947604  0.084627873    0.1051442            3 
   62000     1.250178   -2.5051936    63.721951  0.085647783   0.10525405            1 
   63000    1.2468455   -2.5392051    64.681532  0.085557581   0.10534169            1 
   64000    1.2531532   -2.5713805    65.478743   0.08525878    0.1053851            2 
   65000    1.2339866   -2.5349014    66.648252  0.085446477   0.10539127            1 
   66000    1.2462727   -2.5304795    67.583292  0.085332439   0.10540531            3 
   67000    1.2302812   -2.5559974    68.908079  0.085706566   0.10538137            2 
   68000    1.2421218   -2.5605653    70.647714   0.08657808   0.10534198            2 
   69000     1.230787   -2.5822833     71.39428  0.086224976   0.10534666            3 
   70000    1.2324796   -2.5626013    73.154847  0.087089103   0.10533731            1 
   71000    1.2152515   -2.5595927    74.036822  0.086897677   0.10532086            1 
   72000    1.2547028   -2.5275465     76.08674  0.088063356   0.10529935            1 
   73000    1.2392787   -2.5705354    76.754299  0.087619062   0.10529792            2 
   74000    1.2554683   -2.5465198    78.562756  0.088471571   0.10530415            1 
   75000    1.2385222   -2.5604291    79.152938  0.087947708   0.10531476            1 
   76000    1.2254735   -2.5704537    80.724371  0.088513564   0.10532365            3 
   77000    1.2367885   -2.5622044    82.432639  0.089212813    0.1053429            4 
   78000    1.2520346   -2.5634934    82.827236  0.088490636   0.10533554            1 
   79000    1.2232392   -2.5505278     84.13001  0.088744735   0.10533122            1 
   80000     1.228744   -2.5676104    85.955631  0.089537115   0.10532745            2 
   81000    1.2371691   -2.5563134    87.053911  0.089561636   0.10534205            2 
   82000     1.250364   -2.5522349    88.424822  0.089862624   0.10536455            2 
   83000    1.2293032   -2.5901212    89.553972  0.089913626    0.1053852            2 
   84000    1.2325218   -2.5706029    91.138793  0.090415469   0.10542391            3 
   85000    1.2377111   -2.5714971    92.711664  0.090893788   0.10546464            1 
   86000    1.2165589   -2.5321415    94.779164  0.091840275    0.1055303            1 
   87000    1.2619087   -2.5539245    95.986117  0.091940725   0.10562561            1 
   88000    1.2400411   -2.5466821    97.328359  0.092167006   0.10573272            2 
   89000    1.2193024   -2.5823245    98.467977   0.09219848   0.10583487            2 
   90000    1.2548811   -2.5384567    100.33178  0.092899791   0.10592998            1 
   91000    1.2162336   -2.5649419    101.63802   0.09307511   0.10603635            1 
   92000    1.2138778   -2.5293389    103.25608  0.093529056   0.10614828            2 
   93000    1.2427811   -2.5518763    103.80124  0.093011865   0.10625876            1 
   94000    1.2267142   -2.5571193    104.55694  0.092692322   0.10632612            2 
   95000    1.2425341   -2.5631239    105.54261  0.092581235    0.1063654            2 
   96000    1.2236434   -2.5453843    106.87413  0.092772679   0.10637759            1 
   97000    1.2470705    -2.544698    108.59765  0.093296952   0.10641833            2 
   98000    1.2293437   -2.5696694    109.23485  0.092886779   0.10642044            1 
   99000     1.251701   -2.5817672    110.47777  0.092994752   0.10642715            2 
  100000    1.2606038   -2.5669295    111.99095  0.093325791   0.10642653            1 
  101000    1.2255131   -2.5701641    113.56611  0.093701408   0.10644828            1 
  102000    1.2138129   -2.5794378    114.79612  0.093787677   0.10646987            1 
  103000    1.2213279   -2.5468495    116.12033  0.093948488   0.10648214            1 
  104000    1.2496144    -2.558184     116.8348  0.093617629    0.1064796            3 
  105000    1.2265197   -2.5459744    118.03294  0.093676934    0.1064619            1 
  106000     1.231649   -2.5833688    118.97995  0.093537695   0.10645401            2 
  107000     1.223406    -2.573106    120.47019  0.093824131   0.10642159            1 
  108000    1.2351144   -2.5473134    121.25974  0.093564613   0.10638139            1 
  109000     1.230076   -2.5441116    121.73164  0.093067002   0.10631698            1 
  110000    1.2414769   -2.6023436    122.48355   0.09279057   0.10623206            2 
  111000    1.1988951   -2.5634988    124.07458  0.093149087   0.10614344            2 
  112000    1.2280277   -2.5643867    125.96918  0.093727067     0.106085            1 
  113000    1.2274927   -2.5651668    126.52262  0.093305765   0.10604193            1 
  114000    1.2233359   -2.5629345    128.18079  0.093699408   0.10599309            1 
  115000     1.221363   -2.5244145    129.98247  0.094190194   0.10595006            2 
  116000    1.2431542   -2.5757184    130.74694  0.093927396    0.1059045            2 
  117000    1.2197929   -2.5421534    131.90625  0.093950318   0.10586105            1 
  118000    1.2549139   -2.5505709    133.37344   0.09419028   0.10581079            1 
  119000    1.1936241    -2.566839    134.84961  0.094432497   0.10576019            1 
  120000    1.2327165   -2.5673237     134.8543   0.09364882   0.10570958            2 
  121000    1.2327246   -2.5601752    136.90344  0.094286113   0.10564011            1 
  122000    1.2423065   -2.5804796    137.84961   0.09415957   0.10557798            1 
  123000    1.2486859   -2.6056299    138.26531  0.093675685   0.10551839            2 
  124000    1.1994076   -2.5781227     139.3475  0.093647514   0.10544887            2 
  125000    1.2409195   -2.5788331    141.07583  0.094050555   0.10537336            1 
  126000    1.2233421   -2.5565621    142.03175  0.093936343    0.1053101            1 
  127000    1.2404335   -2.5621486    143.67657  0.094275962    0.1052476            2 
  128000    1.2257492   -2.5736348    145.04219  0.094428507   0.10518243            1 
  129000    1.2314001   -2.5495746    145.50963  0.093998468   0.10512067            1 
  130000    1.2243424   -2.5686858     147.2059  0.094362755   0.10506525            1 
  131000    1.2281197   -2.5822523    148.58902  0.094522276   0.10501552            3 
  132000    1.2275354   -2.5846856    149.60642  0.094448497   0.10495885            1 
  133000    1.2300807   -2.5682131    151.48468   0.09491521   0.10491041            1 
  134000    1.2148205   -2.5811476    151.81061  0.094409581   0.10487164            2 
  135000     1.229658   -2.5570404    153.62715  0.094831576   0.10482457            1 
  136000    1.2231517   -2.6082109    154.55504  0.094702846   0.10477313            1 
  137000    1.2553962   -2.5453029     155.6472  0.094675911   0.10472121            1 
  138000    1.2462357   -2.5617408    156.39346  0.094440496   0.10466224            1 
  139000    1.2081241   -2.5585837    158.13671  0.094806183   0.10459141            5 
  140000    1.2554783   -2.5658669    158.80244  0.094525262   0.10452779            2 
  141000     1.231395   -2.5570279     159.5155  0.094276302   0.10445988            1 
  142000    1.2572392   -2.5561051    161.31312  0.094667323   0.10439908            4 
  143000    1.2275531   -2.5753506    163.37197  0.095205113   0.10434879            3 
  144000    1.2200849   -2.5785253    163.42422  0.094574201   0.10430069            2 
  145000    1.1920691   -2.6016255    165.66726   0.09521107   0.10426342            4 
  146000    1.2382374    -2.574461    166.85572   0.09523728    0.1042374            1 
  147000    1.2366518   -2.5694748    168.70618  0.095638425   0.10421394            2 
  148000    1.2402661   -2.5563123    168.90439  0.095103823   0.10418596            1 
  149000    1.2177034    -2.557954    171.24195  0.095772901   0.10416149            2 
  150000    1.2256108   -2.5863101    172.12222  0.095623455    0.1041315            1 
  151000    1.2188694   -2.5519282    173.37829  0.095683382   0.10410109            2 
  152000    1.2595562    -2.579737    173.87783   0.09532776   0.10406841            2 
  153000     1.239662   -2.5623778    175.14725  0.095396106   0.10403073            2 
  154000    1.2159882   -2.5537274    176.97426  0.095765293   0.10399276            2 
  155000    1.2305323   -2.5780273    178.65943  0.096053457   0.10397008            2 
  156000    1.2027884   -2.5667083    179.38944  0.095827692   0.10394792            1 
  157000    1.2531463   -2.6135628    180.86195  0.095998914   0.10392881            2 
  158000    1.2330621   -2.6017568      181.936  0.095957805   0.10391459            1 
  159000    1.2289704    -2.574948    182.66753  0.095737697   0.10389919            5 
  160000    1.2238578   -2.5728061    184.42582  0.096055116   0.10388774            2 
  161000    1.2420208   -2.5575463    186.24312  0.096399129   0.10387791            1 
  162000    1.2428459   -2.5635995    186.11518  0.095738261   0.10385193            1 
  163000    1.2092324   -2.5762107    186.76268  0.095481943   0.10382246            2 
  164000    1.2414126   -2.5845495    188.77462  0.095922065   0.10379571            1 
  165000    1.1980028   -2.6154991    189.30504  0.095608606   0.10376157            2 
  166000    1.2223186   -2.5749422    190.68669  0.095726248   0.10372884            2 
  167000    1.2118645   -2.5508889    193.56179   0.09658772   0.10370578            2 
  168000    1.2168564   -2.5853182    193.61416  0.096038772   0.10368245            2 
  169000    1.2118956   -2.6162222    195.78845  0.096542628   0.10366737            3 
  170000     1.218802   -2.5914667    195.67353  0.095918396   0.10364251            2 
  171000    1.2352266   -2.6048271    196.93119  0.095970367   0.10361382            1 
  172000    1.2426047   -2.5875673    198.31509  0.096082892   0.10358838            1 
  173000    1.1841742   -2.5817765    200.73638  0.096693824   0.10356738            1 
  174000    1.2224456   -2.5669978    200.92849   0.09623012   0.10354283            3 
  175000    1.2144643     -2.56515    202.67726  0.096512979   0.10351613            1 
  176000    1.2114155   -2.5745268    204.12779  0.096651416   0.10349063            1 
  177000    1.2103969    -2.587536    203.42732  0.095775573   0.10347035            1 
  178000    1.1948315   -2.5790523    206.13572  0.096505486   0.10345118            2 
  179000      1.22833   -2.5761583    206.73674  0.096246152   0.10343275            1 
  180000    1.2095017   -2.5578654    209.63235  0.097052012   0.10341194            4 
  181000    1.2085667   -2.5958769    209.97944  0.096675619   0.10339346            2 
  182000    1.2457028   -2.5508688    212.69847   0.09738941   0.10338582            2 
  183000    1.2283007    -2.536681    214.52633  0.097689583   0.10338863            2 
  184000    1.2120562     -2.54757    213.36596  0.096633133   0.10338541            2 
  185000    1.1860743   -2.5724177    213.87266  0.096339036   0.10338127            2 
  186000    1.2126879   -2.5774739     216.0399  0.096792068   0.10337359            1 
  187000     1.231189   -2.5829294    217.99817  0.097147135    0.1033651            1 
  188000    1.2234485   -2.5763561    218.20986  0.096724228   0.10335243       -1e+20 
  189000    1.2187815   -2.5856473      219.022  0.096570545   0.10333216            1 
  190000    1.2242659   -2.5445123    220.36943  0.096653261   0.10331743            3 
  191000    1.2064981   -2.5771364    222.12144  0.096911622   0.10330212            1 
  192000    1.2326119   -2.6260844    223.16088   0.09685802   0.10328461            5 
  193000    1.1971186   -2.5702353    224.35946  0.096873687   0.10326614            2 
  194000    1.2446291   -2.5616062    225.14962  0.096713753   0.10325718            2 
  195000     1.205821    -2.593415    227.70634    0.0973104   0.10324569            1 
  196000    1.2001529   -2.5714109     228.3212  0.097075339    0.1032405            1 
  197000    1.2090392   -2.5896307     230.0833  0.097327961   0.10323341            2 
  198000    1.2383599   -2.6026316    230.26152  0.096911414   0.10323177            2 
  199000    1.2340147   -2.5988949    232.65968  0.097428678   0.10323433            2 
  200000    1.2186651   -2.5885359    233.65969  0.097358203   0.10322984            4 
  201000    1.2135611   -2.5592085    234.83055  0.097359268    0.1032276            1 
  202000    1.2260436   -2.5801638    234.51873  0.096748652     0.103215            3 
  203000    1.2490969   -2.5862278    237.06975  0.097319272   0.10320004            3 
  204000    1.2016919   -2.5777538    238.65393  0.097489352    0.1031915            1 
  205000    1.2487649   -2.5967975    238.62777  0.097003158   0.10317892            1 
  206000    1.2133836   -2.5995783    238.99325  0.096680117   0.10316287            1 
  207000    1.2022033   -2.5807376    241.97045  0.097411616   0.10314545            3 
  208000    1.2447866   -2.5866039    240.63101  0.096406656   0.10312948            3 
  209000    1.2000013   -2.5549162    244.46443  0.097473854   0.10311588            3 
  210000    1.2222275   -2.6010103    245.57268  0.097449476   0.10309783            3 
  211000    1.2191344   -2.5972032    246.32491  0.097284718   0.10307743            2 
  212000    1.2220897   -2.5836995     246.4053  0.096857428   0.10306387            1 
  213000    1.2247086   -2.5705402    248.20875  0.097108274   0.10304529            1 
  214000    1.2154079   -2.5717284    249.44686  0.097136626   0.10303014            3 
  215000    1.1990915    -2.557836    251.06865  0.097313429   0.10301692            1 
  216000    1.2143446   -2.5910134      251.591  0.097064428   0.10299823       -1e+20 
  217000    1.2177964    -2.588723    253.45911  0.097334528   0.10299002            2 
  218000    1.1851199    -2.558978    254.48517  0.097280264   0.10297814            1 
  219000    1.2069021   -2.5696677    256.00334  0.097413751    0.1029754            3 
  220000    1.2202879    -2.585687    257.96468  0.097713895   0.10297586            2 
  221000    1.2306714   -2.5898255    259.93639  0.098015231   0.10298263            1 
  222000    1.2263377   -2.5901033    261.50549   0.09816272   0.10299084            3 
  223000    1.1905499    -2.620732    262.42124  0.098064738   0.10299787            1 
  224000    1.2093525   -2.6062495    263.76036  0.098125133    0.1029988            1 
  225000    1.2404683   -2.5564273    265.86312  0.098467821   0.10301037            1 
  226000     1.202092   -2.5571761     266.7253  0.098350037   0.10302572            1 
  227000     1.193483    -2.593215    267.94732  0.098365391   0.10302955            2 
  228000    1.2303434   -2.5537432    270.14226  0.098736207   0.10304237            1 
  229000    1.2113495    -2.578602    271.01105  0.098621195   0.10304944            1 
  230000    1.2202848   -2.5666115     271.9802  0.098543551   0.10306224            1 
  231000    1.1908398   -2.5955462    273.64889  0.098718937   0.10306933            3 
  232000    1.2138183   -2.6153961    274.21362  0.098496273   0.10307704            4 
  233000    1.2316465   -2.5681729    275.47939   0.09852625   0.10308489            2 
  234000    1.2163835   -2.5681585     277.4693  0.098813854   0.10309729            2 
  235000     1.211361   -2.5887688    276.75225  0.098139095   0.10310214            1 
  236000    1.2031701   -2.5952965    279.23869   0.09860123   0.10310491            1 
  237000    1.2204136   -2.5811269    279.21253  0.098175994    0.1031102            2 
  238000    1.2116527   -2.5985628    281.36417  0.098516866   0.10312242            1 
  239000    1.2329166   -2.6069077     282.1618  0.098382774   0.10313403            1 
  240000    1.2032653   -2.5677421    283.63507  0.098484401   0.10314197            1 
  241000    1.2272699   -2.5849992    284.45346  0.098358735   0.10314569            1 
  242000    1.2404776   -2.6033588    286.15238  0.098537321   0.10314855            2 
  243000     1.212003   -2.5662328    287.76027  0.098683221   0.10315452            1 
  244000    1.2145751   -2.5666893    290.49764  0.099213676   0.10316407            2 
  245000    1.2059751   -2.5461922    291.01218  0.098983735   0.10317087            3 
  246000    1.2247795    -2.577619    292.64614   0.09913487   0.10317522            1 
  247000    1.2312385   -2.5828434    293.24047  0.098934032   0.10317994            2 
  248000    1.2174251   -2.5824148    294.50738  0.098960812    0.1031902            3 
  249000    1.2347226   -2.5790127      295.306  0.098830657   0.10319567            2 
  250000    1.1875887   -2.6070255    295.20931  0.098403103   0.10319543            1 
  251000    1.2109404   -2.6091618    297.06975  0.098628737   0.10318996            1 
  252000    1.2255085   -2.5926856    297.57811  0.098405461   0.10318358            2 
  253000    1.2036756   -2.5999024    298.61319   0.09835744   0.10317624            4 
  254000     1.223754   -2.6033213    299.19925  0.098162483    0.1031682            3 
  255000    1.2131005   -2.6004045    300.27489  0.098129049   0.10316148            1 
  256000    1.1954425   -2.6050477    302.09473  0.098338129   0.10315528            3 
  257000    1.2127012   -2.5777694    303.97764  0.098566032   0.10315212            2 
  258000    1.2009628   -2.5956083    305.57565  0.098700145   0.10314999            2 
  259000    1.1987116   -2.5844829     306.4786  0.098609588   0.10314902            4 
  260000    1.2158536   -2.6011347    306.63881  0.098281669   0.10314763            2 
  261000    1.2291814   -2.6238783    308.73713  0.098575072   0.10314539            2 
  262000    1.2175842   -2.5734565    309.23822  0.098358213    0.1031381            3 
  263000    1.2259973   -2.5849016    310.10693  0.098259483   0.10313206            5 
  264000    1.1949288    -2.567871    312.19509   0.09854643   0.10312552            2 
  265000    1.1870083   -2.6006117    312.64535  0.098316148   0.10312007            3 
  266000    1.2008557   -2.6114162    313.53182  0.098224256   0.10311108            2 
  267000    1.2090441   -2.6045199    315.59037  0.098498868   0.10310502            1 
  268000     1.198163   -2.5872849    315.96672  0.098248358   0.10309729            1 
  269000    1.2025669   -2.6069431    318.29354  0.098603946   0.10309289            2 
  270000    1.2035003   -2.5876444    319.39842  0.098579758   0.10308752            2 
  271000    1.1671488   -2.5834109    320.64672  0.098599853   0.10308268            1 
  272000    1.1821558   -2.6033774    321.28401  0.098432599   0.10307692            1 
  273000    1.2265024   -2.5562466    324.22402  0.098969482    0.1030725            1 
  274000    1.2183496   -2.5941329    325.49906  0.098996065   0.10306544            1 
  275000    1.2184703   -2.5874381    326.54108  0.098951843   0.10306207            3 
  276000    1.2072715   -2.5843614    325.07763  0.098151459   0.10305642            1 
  277000    1.2299702   -2.5878891    330.11811   0.09931351    0.1030525            1 
  278000    1.1949367   -2.5777885    329.28237  0.098705747   0.10304792       -1e+20 
  279000    1.2124631   -2.5755776    331.92489  0.099141245   0.10304396            1 
  280000    1.2142629   -2.5815238    333.21191  0.099170211    0.1030398            2 
  281000    1.2108523   -2.5934435    332.90094  0.098725071   0.10303682            2 
  282000    1.1888474   -2.6069642    334.75392  0.098922553   0.10303401            2 
  283000    1.2581018   -2.5935957    336.33248  0.099037832   0.10303527            3 
  284000    1.2076083   -2.5984944    338.62749  0.099362526   0.10303842            2 
  285000    1.2154182   -2.5931388    339.47347  0.099261247   0.10303863            2 
  286000    1.2023314   -2.5996387    340.52633  0.099220958   0.10304413            1 
  287000    1.2026679   -2.5785522    342.54934  0.099462642   0.10304822            3 
  288000    1.2000768   -2.6133123    343.50448  0.099393657   0.10305159            2 
  289000    1.2148277   -2.5731207    345.23827  0.099549673    0.1030644            3 
  290000    1.2123744   -2.5760876    347.03983  0.099724088   0.10307564            2 
  291000    1.1993802   -2.5724379     346.9555  0.099357245   0.10308537            1 
  292000    1.2249387   -2.5677368    349.33008  0.099694657   0.10309109            1 
  293000    1.2114039   -2.6149762    349.00929  0.099263164    0.1030994            1 
  294000    1.1952396   -2.6103515    349.96893  0.099197543   0.10310524            1 
  295000    1.1999103    -2.604128    352.41701  0.099552828   0.10310824            3 
  296000    1.1910534   -2.6109174    354.28162  0.099741447   0.10311274            2 
  297000    1.2023284   -2.5861515    355.69696  0.099802739   0.10311535            5 
  298000    1.2263495   -2.5597105    357.18465   0.09988385   0.10312192            3 
  299000     1.194108   -2.5719885    358.72726  0.099979727    0.1031302            1 
  300000    1.2061135   -2.6121695    357.79414   0.09938726   0.10313612            1 
  301000    1.2200193   -2.6132769    359.44119  0.099513065   0.10314142            1 
  302000    1.2388339   -2.5899462    362.67762   0.10007661   0.10314825            1 
  303000    1.2103303   -2.5678001    362.72662  0.099759797   0.10315808            1 
  304000     1.194017   -2.5541933    364.33606  0.099872823   0.10316472            2 
  305000    1.2242871   -2.6334446    362.90441  0.099154211   0.10316863            1 
  306000    1.2332252   -2.5894241     364.2148  0.099187037    0.1031648            5 
  307000    1.2160008   -2.5821635    365.93117  0.099329851   0.10316039            1 
  308000     1.187892   -2.5779199    366.95194  0.099283532   0.10315791            1 
  309000     1.199412   -2.6209274    366.83016  0.098929386    0.1031509            3 
  310000    1.1652692   -2.6140291    369.92268  0.099441582   0.10314601            2 
  311000    1.1865409   -2.5836497    368.60596  0.098769013   0.10313957            1 
  312000    1.2077119   -2.6029962    368.19502  0.098342686   0.10312826            2 
  313000     1.182237   -2.5856762    374.02712  0.099581235   0.10311647            1 
  314000    1.2263549   -2.6320434    370.99988   0.09846069   0.10310814            3 
  315000    1.1817192   -2.5961935    375.51729  0.099343199   0.10309862            2 
  316000    1.1997157   -2.6314345    375.89753  0.099129094   0.10309357            2 
  317000    1.2116267   -2.6058901    375.83048   0.09879876    0.1030872            1 
  318000     1.164872   -2.6196474    377.03509  0.098803744   0.10307762            1 
  319000    1.2052955   -2.6010896    376.98849  0.098481841   0.10306694            1 
  320000    1.2346718   -2.6031623     378.8879  0.098668724   0.10305422            1 
  321000    1.2006304   -2.6010286    378.50076  0.098260841   0.10304079            1 
  322000    1.1910209   -2.5983624    381.50034  0.098731973    0.1030254            2 
  323000    1.2116701   -2.6010196    381.26025  0.098364357   0.10301162            1 
  324000    1.1800502   -2.5630052     385.9881  0.099276776   0.10299549            1 
  325000    1.1953083    -2.600063    386.46515  0.099093628   0.10298524            1 
  326000    1.1997668   -2.5890594     388.0856  0.099203886   0.10297816            1 
  327000    1.1864453   -2.6155078    388.37596  0.098974505   0.10296791            2 
  328000    1.2100775   -2.5750851    391.04845   0.09935174   0.10295761            4 
  329000      1.19647   -2.5951373    390.47282  0.098903957   0.10294908            2 
  330000     1.221945    -2.584242    391.59626  0.098887945   0.10293847            2 
  331000     1.215407   -2.5931947    394.09092  0.099217251   0.10292289            1 
  332000    1.1920542   -2.6050099    394.34431  0.098982005   0.10290974            1 
  333000    1.2166061   -2.6035267    394.04275  0.098609298   0.10289847            4 
  334000    1.2177938   -2.5936085      396.748  0.098989023   0.10288537            1 
  335000    1.1797358   -2.6253551    395.21878  0.098313128   0.10287252            3 
  336000    1.2014361    -2.597191    398.43124  0.098817272   0.10286171            2 
  337000    1.1997532   -2.6302484    399.65995  0.098827881   0.10285012            2 
  338000    1.2023833   -2.6151101    400.96774  0.098857924   0.10283911            1 
  339000    1.1778296     -2.60938    405.13351  0.099590343   0.10282666            4 
  340000    1.1813056   -2.6091354    402.47478  0.098645778   0.10281533            1 
  341000    1.1868451   -2.5864556    403.69571  0.098654866   0.10280266            3 
  342000    1.2034848   -2.5973895    407.18952  0.099217719   0.10279145            2 
  343000    1.1950477   -2.5803131    408.24349  0.099184521   0.10278084            1 
  344000    1.1820727   -2.6056653    408.45114  0.098946496   0.10277103            1 
  345000    1.1894985   -2.6160428    409.88847  0.099006877   0.10276045            1 
  346000    1.2098328   -2.6349102    410.16491  0.098787309   0.10274816            2 
  347000    1.2104068   -2.6226773    411.56565  0.098839014    0.1027395            3 
  348000    1.2010588   -2.6069357     412.3758  0.098748994   0.10272903            1 
  349000     1.231481   -2.6511747    413.56153  0.098749171   0.10271862            2 
  350000    1.2135656    -2.636717    414.91976  0.098790419   0.10270587            1 
  351000    1.1768819   -2.5861255    418.19199  0.099285847   0.10269344            2 
  352000    1.1828228   -2.6057513    418.45568  0.099066212   0.10268245            2 
  353000    1.2296696   -2.6049492    417.03782  0.098450854    0.1026709            1 
  354000    1.1944203   -2.5703594    420.60189  0.099011745   0.10265999            1 
  355000    1.1909565   -2.5889875    420.23016  0.098645578   0.10264683            1 
  356000    1.2191244   -2.6230316    420.81062  0.098504359   0.10262982            3 
  357000    1.2088316   -2.5962045    424.14092  0.099005817   0.10261503            1 
  358000    1.2082325   -2.6512804    422.17979  0.098272763   0.10259646            3 
  359000     1.184222   -2.5729896    424.76751    0.0985997    0.1025806            1 
  360000      1.18764   -2.5625871    429.34872  0.099386277   0.10256556            2 
  361000    1.2048508   -2.5744094    428.01713  0.098803584   0.10255352            2 
  362000    1.1591568   -2.6187638    430.10792  0.099011952   0.10254108            2 
  363000    1.1744819    -2.604555    428.72635  0.098422027   0.10252875            1 
  364000    1.1901958   -2.6037786    432.28151  0.098965546   0.10251566            2 
  365000    1.1958692   -2.6083139    431.07088   0.09841801   0.10250322            1 
  366000    1.1845618   -2.6453827    432.78836  0.098540155    0.1024916            1 
  367000    1.2228308   -2.5848301     437.4079  0.099320596    0.1024796            2 
  368000    1.2025229    -2.601073    438.75492  0.099355734   0.10246778            1 
  369000    1.1768285   -2.6266145    437.88312  0.098889593   0.10245896            2 
  370000    1.1530234   -2.6249556    439.61362  0.099012076   0.10244668            2 
  371000    1.1762818   -2.6220997    440.72941  0.098995825   0.10243758            2 
  372000    1.1847982   -2.5936788    442.17134  0.099052719   0.10242681            1 
  373000    1.1895924   -2.6029887    443.66646  0.099121192   0.10241725            1 
  374000    1.1886224   -2.5909387    444.38813  0.099016963   0.10240782            2 
  375000    1.1900544   -2.5912822    444.07385  0.098683077   0.10239546            1 
  376000    1.1849667   -2.6155163    445.58453  0.098755436   0.10238548            1 
  377000    1.2009011   -2.5722059    449.46898  0.099352118   0.10237493            2 
  378000    1.2001169   -2.6337053    449.15947  0.099021047   0.10236548            3 
  379000    1.1874698   -2.6137536    449.64688  0.098866948   0.10235822            1 
  380000    1.1947847   -2.6296573     450.9175  0.098885416   0.10234602            1 
  381000    1.2091938   -2.6286549    454.02604  0.099305783   0.10233255            1 
  382000    1.1909173   -2.5976193    454.60856  0.099172897   0.10232674            2 
  383000    1.1685497   -2.6178334    455.61411  0.099132748   0.10231984            7 
  384000    1.1886795   -2.6143144    456.99515  0.099174295   0.10231383            4 
  385000    1.1973873   -2.6180936    460.26028  0.099623437   0.10231104            1 
  386000    1.2137738   -2.5958813    462.97404  0.099951218   0.10230996            1 
  387000    1.1746389   -2.6289673    462.01003  0.099485364   0.10231085            6 
  388000    1.2175307   -2.5957048    462.75834  0.099389678   0.10230625       -1e+20 
  389000    1.1844982    -2.603404     465.8316  0.099792544   0.10230481            1 
  390000    1.1666366   -2.6034822    467.60067  0.099914674   0.10230417            1 
  391000    1.1713019   -2.6035806    467.93482  0.099730353   0.10230393            1 
  392000    1.1691889   -2.6341443    468.16219  0.099524275   0.10230619            2 
  393000    1.1870567   -2.5586409    472.53251   0.10019773   0.10230861            1 
  394000    1.1640897   -2.5993765    471.08555  0.099637383   0.10231018            1 
  395000    1.2254249   -2.5796697    474.49826   0.10010512   0.10231187            1 
  396000    1.1896977   -2.6059836    474.33401  0.099817762    0.1023137            2 
  397000    1.2067533   -2.6154086    475.96739  0.099909191   0.10231433            1 
  398000    1.2004351   -2.6531569    474.56755  0.099365065   0.10231795            1 
  399000    1.1596575   -2.6451045    479.74045   0.10019642   0.10231807            2 
  400000    1.1820337   -2.6234354    477.62407  0.099505014   0.10232078            1 
  401000    1.2052213   -2.6638005    478.82522  0.099506487   0.10232098            2 
  402000    1.1882107   -2.6052926    479.31001  0.099359455   0.10232008            2 
  403000    1.1978343   -2.6003596    480.95376  0.099452803    0.1023172            1 
  404000    1.1728278   -2.5773304    484.36569  0.099910414   0.10231193            1 
  405000    1.1974417   -2.5962965    482.84084  0.099349967   0.10230797            2 
  406000    1.1865676   -2.6212533    484.47616  0.099440919   0.10230102            2 
  407000    1.1989933   -2.6037438    486.00558  0.099509743    0.1022916            1 
  408000    1.1673411   -2.6425345    484.85034  0.099029889   0.10228214            1 
  409000    1.1957752   -2.6215915    487.74504  0.099377555   0.10227269            9 
  410000    1.1780339   -2.6124895    488.71024   0.09933135   0.10226374            3 
  411000    1.1629197   -2.6087105    489.21631  0.099192277   0.10225443            3 
  412000    1.1665242    -2.611006    493.19102  0.099755465   0.10224949            2 
  413000    1.1769203   -2.6082232    491.25032   0.09912234   0.10224594            2 
  414000    1.1768393   -2.6405233    495.91013   0.09982088   0.10224107            1 
  415000    1.1944474    -2.622125    495.03888  0.099405397   0.10223668            2 
  416000    1.1790182   -2.6323205    496.89937  0.099539136   0.10223269            1 
  417000    1.1974295   -2.6078584    498.51594  0.099623489   0.10223299            2 
  418000    1.1730529   -2.5966771     497.8294  0.099248286   0.10223308            2 
  419000    1.1900899   -2.5873616    499.59643  0.099362854   0.10223255            1 
  420000    1.1934273   -2.6573345     502.0811  0.099619266   0.10223022            2 
  421000    1.1976868   -2.5996238    504.44617  0.099850785    0.1022278            2 
  422000    1.2148971   -2.5913965    507.95684   0.10030743   0.10222655            1 
  423000    1.1553612    -2.649208    504.87174  0.099462518    0.1022251            2 
  424000    1.1940718   -2.6272883    507.17077  0.099679789   0.10222381            1 
  425000    1.1924735   -2.6094927    507.21845  0.099454597    0.1022224            3 
  426000    1.1840121   -2.6088431    511.56061   0.10007054   0.10222304            2 
  427000    1.1803545   -2.6254386    511.95418  0.099912993   0.10222069            2 
  428000    1.1702291   -2.6319387    512.13401  0.099714565   0.10221894            2 
  429000    1.1838103   -2.6038686    510.75094  0.099213469   0.10221774            4 
  430000    1.1717457   -2.6222203    513.79308  0.099572302   0.10221522            1 
  431000    1.1878424   -2.6154815    515.99898  0.099767783   0.10221182            1 
  432000    1.1783232   -2.6475232    516.50291  0.099634049   0.10221028            2 
  433000    1.1749734   -2.6142293    516.95249  0.099490472   0.10220629            3 
  434000    1.1628675   -2.6007537    519.29852  0.099711697   0.10220102            2 
  435000    1.1715026   -2.5806124    520.28159  0.099670802   0.10219567            2 
  436000    1.1995608    -2.635742     519.4724  0.099287538    0.1021907            2 
  437000    1.1642351   -2.6013796    523.71577  0.099869522   0.10218893            2 
  438000    1.1784594   -2.6350851    522.34519  0.099380743   0.10218726            2 
  439000    1.1867908   -2.6552032    522.34745  0.099154793   0.10218296            2 
  440000    1.1802571   -2.6213442    524.25431  0.099290589   0.10217962            1 
  441000    1.1813843   -2.6004947    527.07858  0.099599127   0.10217439            3 
  442000    1.1740625   -2.5970025    529.10849  0.099756502   0.10216973            2 
  443000    1.1676121   -2.5870795    527.72224  0.099270548   0.10216157            3 
  444000    1.1775907   -2.5975396    531.09491  0.099679976   0.10215672            4 
  445000    1.1755123   -2.6024826    530.00051  0.099251031   0.10215288            1 
  446000    1.2025607    -2.613944    532.27776  0.099453991   0.10214404            2 
  447000    1.1261922   -2.6301239    533.42772  0.099445884   0.10214071            3 
  448000    1.1766639   -2.6141972    537.79948   0.10003711   0.10213755            1 
  449000    1.1615812    -2.622947    535.76096  0.099435961   0.10213456            3 
  450000    1.1672069   -2.6175994    538.43568  0.099710312   0.10213027            2 
  451000    1.1901495   -2.6258426    538.41528  0.099485454   0.10212513            2 
  452000    1.1997581   -2.5893385     539.5035  0.099465985   0.10211839            1 
  453000     1.172147   -2.6322219    541.28096  0.099573392   0.10211182            1 
  454000    1.1746439   -2.6517787    540.75488  0.099257504   0.10210481            2 
  455000     1.174914    -2.658196    542.19605  0.099303305   0.10209869            1 
  456000    1.1539094   -2.6059614    545.26062  0.099645581   0.10209249            1 
  457000    1.2002853   -2.6279566     543.4648  0.099100073   0.10208917            2 
  458000    1.1610883   -2.6302345    546.74455  0.099480449   0.10208424            2 
  459000    1.1508487    -2.615448    550.77663  0.099995757   0.10208041            2 
  460000    1.1479398   -2.6265751    551.33844  0.099880152    0.1020789            2 
  461000    1.1419666   -2.6277799      553.274   0.10001338   0.10207969            2 
  462000    1.1766109   -2.6110721    553.23124  0.099789184   0.10207796            1 
  463000    1.1819486   -2.6435319    553.51047  0.099623914   0.10207601            1 
  464000    1.1803454   -2.6022352     552.5041  0.099228466   0.10207331            2 
  465000    1.1827781   -2.6303557    555.08049  0.099476791   0.10206962            2 
  466000    1.1940256   -2.6328423    559.54536   0.10006176   0.10206743            2 
  467000    1.1810135   -2.6386577     557.8207   0.09953974    0.1020641            1 
  468000    1.1709124   -2.6112942    561.85162    0.1000448   0.10206063            2 
  469000    1.1712138   -2.6224664    560.06123  0.099513367   0.10205821            3 
  470000    1.1695329   -2.6262354    563.19428  0.099857143   0.10205535            2 
  471000    1.1582682   -2.5989463    564.72121  0.099915288   0.10205129            4 
  472000    1.1741725   -2.6175233    563.24245  0.099442522   0.10204645            3 
  473000    1.1493702   -2.6267292    565.51542  0.099632737   0.10203973            1 
  474000    1.1666979   -2.6403418    564.71493  0.099281809   0.10203321            4 
  475000    1.1828117   -2.6390087    565.59517  0.099227223   0.10202612            2 
  476000     1.166638   -2.6206009    570.61772   0.09989806   0.10201958            1 
  477000    1.1995807   -2.6127481    569.22304  0.099444976   0.10200974            4 
  478000    1.1768025   -2.5996446    571.17334  0.099576943   0.10200214            2 
  479000    1.1748803   -2.5848252     571.4048  0.099409325   0.10199362            3 
  480000    1.1570875   -2.6366863    571.32757  0.099188814   0.10198595            2 
  481000    1.1907817   -2.6357408    571.77589  0.099060273   0.10197476            1 
  482000    1.1524357   -2.6180482    571.07706  0.098733931    0.1019633            1 
  483000    1.1699659   -2.6313939    576.09976  0.099396094     0.101951            1 
  484000    1.1872413   -2.6274494    577.01689  0.099348639    0.1019392            1 
  485000    1.1598656   -2.6385446    574.39625  0.098693514   0.10192744            5 
  486000    1.1826099   -2.6190981    579.79833  0.099416724   0.10191648            1 
  487000    1.1601215   -2.6160633    579.81135  0.099214811   0.10190532            1 
  488000    1.1692273   -2.5959215    581.07473  0.099227242   0.10189468            2 
  489000    1.1600314   -2.6201529     582.8455  0.099326091   0.10188634            4 
  490000    1.1644452    -2.640409    582.88769   0.09913056   0.10187454            2 
  491000    1.1748384   -2.6336763    583.41449  0.099018073   0.10186157            1 
  492000    1.1809272   -2.6448189    579.71826  0.098190762   0.10184798            2 
  493000    1.1846811    -2.659308      581.513  0.098294962   0.10183325            2 
  494000    1.1492399   -2.6075685    585.09691  0.098700559   0.10181764            3 
  495000    1.1848429    -2.630311    583.40663  0.098216605   0.10180052            2 
  496000    1.1610696   -2.6594623    585.08719  0.098300939   0.10178423            3 
  497000     1.178178   -2.6499085     587.6287  0.098529292   0.10176796            1 
  498000    1.1531868   -2.6366607    587.63454   0.09833242    0.1017502            2 
  499000     1.172488   -2.6068827    591.36879  0.098758982   0.10173315            1 
  500000    1.1610687   -2.6384138    590.06115  0.098343525     0.101717            2 
  501000    1.1581552   -2.6182434    591.41743  0.098372826   0.10170095            2 
  502000    1.1663547   -2.6200538    594.11351   0.09862442   0.10168353            2 
  503000    1.1620789   -2.6200343    595.27494  0.098620765   0.10166662            1 
  504000    1.1616757   -2.6301726    593.46755  0.098126248   0.10165003            1 
  505000    1.1652057   -2.6360219    595.50686  0.098268459   0.10163245            3 
  506000     1.174138    -2.611748    596.49452   0.09823691   0.10161373            1 
  507000    1.1757983   -2.6428741    597.52491   0.09821251   0.10159609            1 
  508000    1.1759692   -2.6257873    598.81204  0.098230322   0.10157623            1 
  509000    1.1711754   -2.6182323    598.51487  0.097988682   0.10155429            2 
  510000    1.1862071   -2.6166195    599.22981  0.097913367   0.10153572            3 
  511000    1.1894146   -2.6411402    597.32978  0.097411902   0.10151415            1 
  512000    1.1443967   -2.6186118    600.77408   0.09778224    0.1014927            1 
  513000    1.1736252   -2.6411984    601.83104  0.097763326   0.10147279            2 
  514000    1.1605412   -2.6156059    605.99149  0.098247647   0.10145455            1 
  515000    1.1832444   -2.6406055    601.60574  0.097347207   0.10143332            2 
  516000    1.1508262   -2.6409432    608.78281  0.098317638   0.10141247            3 
  517000    1.1827678   -2.6215662    606.84845  0.097815676   0.10138963            1 
  518000    1.1593801   -2.6441827    606.86766  0.097629933   0.10136728            4 
  519000    1.1577119   -2.6342182    611.79774   0.09823342   0.10134361            1 
  520000    1.1764711   -2.6077347     612.2526  0.098117404   0.10132282            5 
  521000    1.1700941   -2.6341698    612.82803  0.098021118   0.10130214            2 
  522000    1.1645662   -2.6173197     614.6175  0.098119014   0.10127966            1 
  523000    1.1998311   -2.6177472    614.54299  0.097919533   0.10125973            1 
  524000    1.1810193   -2.6307267    617.36633  0.098181668   0.10123989            5 
  525000    1.1731183   -2.6206689    615.11179  0.097636792   0.10122188            1 
  526000    1.1406637   -2.6260064    620.47478   0.09830082   0.10120321            4 
  527000    1.1812123   -2.6432914    619.92032  0.098026615   0.10118256            1 
  528000    1.1410608   -2.6124135    621.51081  0.098091984   0.10116426            1 
  529000    1.1404061   -2.6381342    622.02037  0.097986826   0.10114574            2 
  530000    1.1968646   -2.6384715    621.84324  0.097774094    0.1011274            1 
  531000     1.173189   -2.6369506    623.93706  0.097918559   0.10110776            1 
  532000    1.1655141   -2.6477968    619.17739   0.09698894   0.10108527            1 
  533000    1.1649786   -2.6440808    624.59395  0.097653839   0.10106457            2 
  534000    1.1476694   -2.6343615     625.0334  0.097539544   0.10104259            2 
  535000    1.1582249   -2.5990396    627.17403  0.097690659   0.10102101            1 
  536000     1.151033   -2.6130426    629.29735  0.097838518   0.10099939            2 
  537000    1.1392619   -2.6073168    628.10341  0.097471045   0.10097624            1 
  538000    1.1665786   -2.6390762    630.48718  0.097659104   0.10095303            1 
  539000    1.1580222   -2.6236239    628.26275  0.097134006   0.10092856            1 
  540000    1.1747019   -2.6242994    631.21146  0.097409177   0.10090232            2 
  541000     1.166848    -2.617712    631.87025    0.0973306   0.10087789            1 
  542000    1.1333668   -2.6289444    635.17271  0.097658781   0.10085509            2 
  543000    1.1616404   -2.6755105    633.44935  0.097214449   0.10083265            2 
  544000    1.1588863   -2.6319917    636.29996   0.09747242   0.10080985            3 
  545000    1.1778706   -2.6386687    636.71507  0.097357044    0.1007855            3 
  546000    1.1350304    -2.639301    639.72032  0.097637412    0.1007627            3 
  547000    1.1921839   -2.6675587    637.90007  0.097181608   0.10074213            1 
  548000    1.1551436    -2.628376    638.56984  0.097106119    0.1007217            1 
  549000    1.1603622   -2.6432288    643.78023  0.097720132   0.10070048            3 
  550000    1.1465953   -2.6420202    644.93538  0.097717482   0.10068244            2 
  551000    1.1687132   -2.6242413    646.63364  0.097796982   0.10066175            1 
  552000    1.1519596   -2.6255105    648.83085  0.097951517   0.10064016            2 
  553000    1.1653389   -2.6328336    644.71001  0.097153407   0.10062064            3 
  554000     1.183748   -2.6483756     644.2999   0.09691635   0.10059874            2 
  555000    1.1737654   -2.6495531    645.97913  0.096993864   0.10057644            1 
  556000    1.1553994    -2.620734    651.31539  0.097619214   0.10055385            3 
  557000    1.1634771   -2.6456144    649.99284  0.097246086   0.10053117            2 
  558000    1.1611239   -2.6226431     650.9611  0.097216412   0.10050712            1 
  559000    1.1550987   -2.6521427    649.23179  0.096784703   0.10048438            2 
  560000     1.164413   -2.6544593    651.04136  0.096881155   0.10046107            2 
  561000    1.1670589   -2.6513805    652.85177  0.096977388   0.10043809            2 
  562000    1.1548049   -2.6412647    658.62795   0.09766132   0.10041444            1 
  563000    1.1494177   -2.6206659    656.23938  0.097134307   0.10039171            1 
  564000    1.1538197   -2.6299061    658.57257  0.097306822   0.10037049            2 
  565000    1.1675209   -2.6373948    659.90485  0.097331099   0.10034941            2 
  566000    1.1806031   -2.6137433    663.23987  0.097650158   0.10032865            3 
  567000    1.1755125   -2.6484694    662.99431  0.097441845   0.10030811            2 
  568000     1.163624   -2.6581227    662.00634  0.097125343   0.10028693            2 
  569000    1.1700509   -2.6368203    664.04575  0.097253331   0.10026561            2 
  570000    1.1380895   -2.6241875    665.41898  0.097283477    0.1002443            3 
  571000      1.15033   -2.6649563    663.72608  0.096866036   0.10022335            2 
  572000    1.1781866   -2.6570977    664.38883  0.096793245   0.10020021            1 
  573000    1.1570744     -2.63142    664.28598  0.096609363   0.10017719            1 
  574000    1.1675831   -2.6503092    666.73548  0.096796672   0.10015295            2 
  575000    1.1638013   -2.6302962    665.93762  0.096512699   0.10012996            2 
  576000    1.1767761   -2.6492794     667.2684  0.096537673   0.10010769            3 
  577000    1.1638132    -2.633274    671.62774  0.096999963   0.10008513            3 
  578000    1.1571163   -2.6315192    670.44628  0.096661804    0.1000638            1 
  579000    1.1601942   -2.6211453    674.75085  0.097114399   0.10004376            2 
  580000    1.1537627   -2.6576913    673.70121   0.09679615   0.10002233            2 
  581000    1.1336636   -2.6324272    677.76144  0.097211911   0.10000087            2 
  582000      1.17225   -2.6561612    672.99377  0.096362223  0.099979768            1 
  583000    1.1829017   -2.6411965     676.6935  0.096725771  0.099956579            2 
  584000    1.1417119   -2.6861364    677.22422  0.096635876  0.099935102            4 
  585000      1.16154   -2.6515356      679.984  0.096863817  0.099912242            2 
  586000    1.1515294   -2.6377424    681.03984  0.096848669  0.099890518            1 
  587000    1.1689296   -2.6494705    679.86254  0.096516544  0.099869176            3 
  588000    1.1575348   -2.6443449     683.5496  0.096874944  0.099849238            2 
  589000    1.1239285   -2.6503123    687.74075  0.097303446  0.099828335            1 
  590000    1.1707812   -2.6122406    687.13709  0.097053261   0.09980794            1 
  591000    1.1517191   -2.6280773     684.4365  0.096508249  0.099787823            2 
  592000    1.1829808   -2.6334227    684.93627  0.096415579  0.099765035            1 
  593000    1.1382061   -2.6265114    689.26589  0.096861423  0.099742067            1 
  594000    1.1406616   -2.6629254    687.46151  0.096445217  0.099720044            2 
  595000    1.1540237   -2.6842633    686.99069  0.096217184  0.099696655            1 
  596000    1.1738894   -2.6318303    689.33147  0.096383036  0.099672642            1 
  597000    1.1395597    -2.643943     690.4246  0.096374177   0.09964891            1 
  598000    1.1496925   -2.6665349    691.53364  0.096367564  0.099624535            2 
  599000    1.1557344   -2.6396488    690.98407  0.096130227  0.099598606            4 
  600000    1.1514442    -2.637782    693.36095  0.096300132  0.099573253            2 
  601000    1.1392144   -2.6601266    693.40533  0.096146052  0.099547617            2 
  602000    1.1372841   -2.6384963    696.19436   0.09637242  0.099522989            2 
  603000    1.1578494   -2.6246299    698.71796  0.096561354  0.099500561            2 
  604000    1.1342558   -2.6506878     698.1964  0.096329525  0.099477365            2 
  605000    1.1519696   -2.6274861    701.00466  0.096557115  0.099452328            1 
  606000    1.1202088     -2.63971    702.13186  0.096552786  0.099428509            1 
  607000    1.1687412   -2.6475061    700.47017  0.096165592   0.09940233            2 
  608000    1.1850131   -2.6595615    695.67043  0.095349566  0.099376031            1 
  609000    1.1503585   -2.6553571    704.96185  0.096464402  0.099350754            2 
  610000    1.1628431   -2.6481039    699.75088  0.095594383  0.099325677            1 
  611000    1.1466378   -2.6424911    703.99287  0.096016485  0.099300462            2 
  612000    1.1318009   -2.6780733    704.71795  0.095958326  0.099276051            6 
  613000    1.1487236   -2.6248031    709.70848  0.096480218  0.099251674            1 
  614000    1.1521915   -2.6231827    708.10444  0.096105379   0.09922803            2 
  615000    1.1436591   -2.6571732    708.35965  0.095983692  0.099204013            3 
  616000    1.1458159   -2.6452972    708.96542  0.095909824  0.099179224            3 
  617000    1.1604262   -2.6501623    711.33247  0.096074078  0.099155387            3 
  618000    1.1745542   -2.6372637    712.72686  0.096106642  0.099132491            1 
  619000    1.1653599   -2.6245686    716.42721  0.096449544   0.09911056            1 
  620000    1.1611694   -2.6370901    712.39737  0.095752334  0.099088897            3 
  621000    1.1545427   -2.6608871    714.64315   0.09589951  0.099065683            1 
  622000    1.1514055    -2.636684    718.85298  0.096309349  0.099042971            2 
  623000    1.1458889   -2.6450619    715.61382  0.095721485  0.099022214            1 
  624000    1.1465717   -2.6676766    717.58088   0.09583078  0.098999164            2 
  625000    1.1467171   -2.6760612    722.71985  0.096362646  0.098977176            1 
  626000    1.1282547     -2.64494    722.41919  0.096168689   0.09895572            2 
  627000    1.1141342    -2.682528    723.97969  0.096222713  0.098933826            1 
  628000    1.1595709   -2.6751396    726.89571  0.096456437  0.098911856            1 
  629000     1.154309   -2.6410713    725.52235  0.096121139  0.098891005            1 
  630000    1.1331278   -2.6263459    727.87641  0.096279948  0.098870727            1 
  631000    1.1478914   -2.6263746    731.45047  0.096599375   0.09884979            1 
  632000    1.1436804   -2.6858353    727.93744  0.095983312  0.098827762            1 
  633000    1.1507404   -2.6481996    729.02342  0.095974648  0.098807544            1 
  634000    1.1584801   -2.6655571    730.81586  0.096058867  0.098787939            4 
  635000    1.1399898   -2.6697213    729.01578  0.095671362  0.098766362            1 
  636000    1.1545668   -2.6424806    733.42784  0.096099036  0.098746475            1 
  637000    1.1380606    -2.655928    730.28451  0.095536959  0.098725931            2 
  638000    1.1561211   -2.6465948    735.27775  0.096039413  0.098705198            1 
  639000    1.1566499   -2.6652395    735.38874  0.095903591  0.098684758            1 
  640000    1.1296449   -2.6549531    740.51159   0.09642078  0.098664213            1 
  641000    1.1713484   -2.6527637     738.3927   0.09599489  0.098643384            3 
  642000    1.1421411   -2.6573252     736.5379  0.095604608  0.098622976            2 
  643000    1.1098301   -2.6316027    738.38717   0.09569559  0.098601329            3 
  644000    1.1286874   -2.6662555    740.31702  0.095796716  0.098578192            1 
  645000    1.1626656   -2.6529273    739.69078  0.095567285  0.098556094            1 
  646000    1.1315049    -2.643616    742.25031  0.095749524  0.098534191            1 
  647000    1.1365855   -2.6600377    741.34698  0.095485186  0.098510365            1 
  648000    1.1530623   -2.6691589    745.13555  0.095825045  0.098487771            1 
  649000     1.148158   -2.6627568     744.5424  0.095601233  0.098467846            3 
  650000    1.1454814   -2.6544619    746.79699  0.095743204  0.098447247            3 
  651000    1.1410767   -2.6265994    750.13463  0.096023379  0.098426627            2 
  652000    1.1279708   -2.6407454    750.16155  0.095879543  0.098405026            2 
  653000    1.1385715    -2.649547    750.24821  0.095743774  0.098384329            2 
  654000    1.1366673    -2.671268    748.05927   0.09531846  0.098361443            1 
  655000    1.1413259   -2.6388857    752.74509  0.095769095  0.098339406            2 
  656000    1.1355443   -2.6508585    753.68596  0.095742628  0.098316297            2 
  657000    1.1626593   -2.6489651    758.29229  0.096181163  0.098295291            1 
  658000    1.1496978   -2.6496465    756.18524  0.095768141  0.098273987            2 
  659000    1.1591268   -2.6823456    755.63994  0.095553861  0.098253182            2 
  660000    1.1304078   -2.6611495    758.26025   0.09573993  0.098233157            2 
  661000    1.1597211   -2.6365762    760.63291  0.095894214  0.098214188            2 
  662000    1.1576207   -2.6485936     760.4386  0.095724899  0.098195249            1 
  663000    1.1596748   -2.6391999    762.28788  0.095812956  0.098175541            1 
  664000    1.1616484    -2.642486     762.0482   0.09563858   0.09815556            2 
  665000    1.1449655    -2.684377    763.92843  0.095730379  0.098134168            1 
  666000    1.1605214   -2.6713682    763.81566  0.095572531  0.098112285            1 
  667000    1.1220274   -2.6674312     765.5761  0.095649188  0.098092321            3 
  668000    1.1285372   -2.6446003    767.91099  0.095797279  0.098073625            2 
  669000    1.1402453   -2.6748968    766.65025  0.095497041  0.098054969            2 
  670000    1.1437563    -2.667217     768.8145  0.095623694  0.098037315            2 
  671000    1.1377517   -2.6586138    770.08695  0.095639213  0.098019281            2 
  672000    1.1353805   -2.6453727    773.53157  0.095924053  0.097999829            3 
  673000    1.1223486   -2.6298054    775.53377  0.096029441   0.09798171            1 
  674000    1.1287061    -2.647407    774.17406   0.09571885  0.097964281            1 
  675000    1.1445419    -2.656555    771.81464  0.095285758  0.097945378            2 
  676000    1.1438924   -2.6610154     775.5595  0.095606447  0.097926553            1 
  677000    1.1395234   -2.6704361    774.75642  0.095366374  0.097907396            2 
  678000     1.150764   -2.6737393    777.50398   0.09556342  0.097888657            1 
  679000    1.1692141     -2.66183    776.87027  0.095344903  0.097870472            2 
  680000    1.1549742   -2.6362193    781.13539  0.095727376  0.097852572            2 
  681000    1.1683906   -2.6527068    783.86347   0.09592064  0.097835915            3 
  682000    1.1488093   -2.6525158    784.97025  0.095915231  0.097818365            2 
  683000    1.1289137   -2.6570347     782.8838  0.095520229  0.097800364            2 
  684000    1.1442464    -2.627503    786.00977  0.095761424  0.097783273            3 
  685000    1.1555861   -2.6408276    790.90262  0.096216863  0.097766991            3 
  686000    1.1379631   -2.6634797    788.17581  0.095745361  0.097751394            2 
  687000    1.1366471   -2.6379099    787.35294  0.095506179  0.097734417            1 
  688000    1.1459336   -2.6480595    789.65371   0.09564604  0.097718277            2 
  689000    1.1209031    -2.650486     791.6579  0.095749625  0.097701842            1 
  690000     1.136562   -2.6461364    793.57354  0.095842215  0.097685004            1 
  691000    1.1479687   -2.6606899    792.87125   0.09561882   0.09766861            1 
  692000    1.1566025   -2.6709364    792.74458  0.095465388  0.097652511            3 
  693000    1.1623881   -2.6467498    793.32091  0.095396934  0.097636203            2 
  694000    1.1374454   -2.6631859    794.76162  0.095432471  0.097619198            2 
  695000    1.1402868   -2.6456238    797.61527  0.095637322  0.097601873            1 
  696000    1.1548696   -2.6458268    800.10497  0.095798009  0.097586199            1 
  697000    1.1553689   -2.6485466    798.49751  0.095468378  0.097569267            1 
  698000     1.132279   -2.6473749    803.77992  0.095962264  0.097553755            4 
  699000    1.1334612   -2.6367694    804.97926  0.095967962  0.097538562            2 
  700000    1.1709561   -2.6270082     809.4513   0.09636325  0.097523948            3 
  701000    1.1255935   -2.6867648    807.31025  0.095971261  0.097510274            3 
  702000    1.1432575   -2.6485216    809.59495  0.096105763  0.097496276            2 
  703000    1.1310055    -2.660355    807.79367  0.095755532  0.097482179            1 
  704000    1.1204612   -2.6782592    809.68898  0.095843865  0.097468267            2 
  705000    1.1341492   -2.6530723    807.85777  0.095491462  0.097454468            4 
  706000    1.1474955   -2.6620586    809.08811  0.095501429  0.097440032            1 
  707000    1.1411719   -2.6541044     811.1893  0.095614015  0.097426015            1 
  708000     1.114641   -2.6719494    815.54597  0.095991758  0.097412233            3 
  709000    1.1593288   -2.6639703     816.7705  0.096000294  0.097398938            1 
  710000    1.1314981   -2.6843154    813.92662  0.095531293  0.097384509            4 
  711000    1.1497262   -2.6696991    813.81818  0.095384222  0.097369734            2 
  712000     1.127906   -2.6439898    819.21581  0.095882001  0.097356641            1 
  713000    1.1402444   -2.6527248     817.4631  0.095542671  0.097344038            5 
  714000    1.1267717   -2.6564165     823.0413  0.096059909  0.097331226            2 
  715000    1.1594349   -2.6788785    822.29604    0.0958387  0.097318831            1 
  716000    1.1396348    -2.687124    824.42633  0.095952785  0.097306152            2 
  717000      1.10653    -2.664672    825.98367  0.095999962  0.097294804            4 
  718000    1.1261643   -2.6573594    827.38099  0.096028435  0.097283629            5 
  719000    1.1355113   -2.6801903     827.7676  0.095939684  0.097271874            1 
  720000    1.1440359   -2.6604935    830.40249  0.096111399  0.097260765            2 
  721000    1.1521183   -2.6750922    831.95539  0.096157581  0.097248299            5 
  722000    1.1333658    -2.664703    832.36428  0.096071593  0.097236985            3 
  723000    1.1339298   -2.6290564    831.41564  0.095829373  0.097224019            3 
  724000    1.1390412   -2.6500547    836.01325  0.096226202  0.097211274            3 
  725000     1.153826   -2.6612879    831.66853  0.095594084  0.097198839            1 
  726000    1.1126856   -2.6567555    830.74722   0.09535666  0.097186454            1 
  727000    1.1466928   -2.6646543    836.80446  0.095919814  0.097175017            3 
  728000    1.1549098   -2.6839255    837.68156  0.095888457  0.097162862            2 
  729000    1.1497569   -2.6723831    834.98488  0.095448661  0.097149449            2 
  730000    1.1503581   -2.6894513    838.03454  0.095666043  0.097137134            2 
  731000     1.149358   -2.6851807    838.17348  0.095551012  0.097125069            1 
  732000    1.1552805   -2.6909556    837.34576  0.095326248  0.097111291            3 
  733000    1.1466623   -2.6682894    838.67993  0.095347877  0.097098161            2 
  734000    1.1537505   -2.6650365    843.76099  0.095794844  0.097085451            3 
  735000    1.1370011   -2.6833185     839.4141  0.095171667  0.097072168            2 
  736000    1.1349372   -2.6638384    842.45328  0.095386467  0.097058732            3 
  737000    1.1126652   -2.6589459    843.49708  0.095375065  0.097045789            1 
  738000    1.1129347   -2.6688792    847.53109  0.095701343   0.09703385            1 
  739000    1.1063226   -2.6634993    848.45926  0.095676506  0.097019898            6 
  740000    1.1141299   -2.6731547    849.87056  0.095706144  0.097006272            2 
  741000    1.1415114   -2.6463508     848.9589   0.09547446   0.09699401            1 
  742000    1.1335289    -2.673324    853.70886  0.095879252   0.09698184            2 
  743000    1.1401962   -2.6533598    850.04358  0.095339118  0.096968718            1 
  744000    1.1303071   -2.6398659     849.9778  0.095203606  0.096953132            2 
  745000    1.1395943   -2.6672586     850.0679  0.095085895   0.09693951            2 
  746000    1.1152254   -2.6925723    848.34045  0.094765466  0.096924079            2 
  747000    1.1205903   -2.6933715    850.79509  0.094912438  0.096908435            2 
  748000    1.1273398    -2.680431    855.90136   0.09535443  0.096893088            1 
  749000    1.1158767    -2.675166    856.97034  0.095346055  0.096878645            1 
  750000    1.1689883   -2.6614852    855.31997  0.095035552  0.096864109            1 
  751000    1.1166828   -2.6755992    860.07219  0.095436328  0.096850302            3 
  752000    1.1262654   -2.6980605    855.29806   0.09478037  0.096836442            1 
  753000    1.1238949   -2.6749016    861.97003  0.095392876  0.096822272            2 
  754000     1.134947   -2.6542584    862.72745  0.095350072  0.096807634            1 
  755000    1.1442784   -2.6332534    861.92139  0.095134811  0.096793112            2 
  756000    1.1353177   -2.6721502    860.83586  0.094889314  0.096777464            2 
  757000    1.1186236   -2.6974806    863.82279  0.095092777     0.096761            3 
  758000    1.1110949   -2.6596965    864.30773  0.095020639   0.09674559            2 
  759000     1.167729   -2.6619284    868.05919  0.095307333  0.096730435            2 
  760000    1.0966775    -2.678838    865.92789  0.094948234  0.096715931            3 
  761000    1.0947071   -2.6602573    869.32992  0.095196006  0.096701106            2 
  762000    1.1348146   -2.6790041    867.29267   0.09484828  0.096686751            2 
  763000    1.1286458   -2.6793485    869.74594  0.094991911  0.096671593            2 
  764000    1.1178785   -2.6621402    871.23165   0.09502963  0.096658186            1 
  765000    1.1243423   -2.6904229    870.64547  0.094841555  0.096644837            2 
  766000    1.1185948   -2.6768553    877.59884  0.095474199  0.096631908            2 
  767000    1.1437722   -2.6947722    877.95444  0.095388357  0.096619045            2 
  768000    1.1447338    -2.657335    876.73785  0.095132145  0.096606277            2 
  769000      1.11085   -2.6776927    879.31752  0.095287984  0.096594271            1 
  770000    1.1375051   -2.6714813    875.72658  0.094775604  0.096580792            2 
  771000    1.1102011   -2.6849539    878.66472  0.094970246  0.096567361            4 
  772000    1.1323181   -2.6568444     885.7415   0.09561113  0.096554186            2 
  773000    1.1167866   -2.7035085    881.52212   0.09503257   0.09654124            5 
  774000    1.1114576   -2.6918358    882.42362   0.09500685  0.096528569            1 
  775000    1.1243553   -2.7228629    886.63278  0.095336858  0.096515897            2 
  776000    1.1150213   -2.6614892     887.7376  0.095332646  0.096503237            1 
  777000    1.1321668    -2.674409    889.21927  0.095368862   0.09649093            2 
  778000     1.140042   -2.6962309    890.23276  0.095354837  0.096477619            1 
  779000    1.1094688   -2.6693507    894.51968  0.095691023  0.096465394            2 
  780000    1.1396414   -2.7019006    890.99873  0.095192172  0.096451455            1 
  781000    1.0917624   -2.7113038     889.9014  0.094953201  0.096438245            2 
  782000    1.1571806   -2.6874772    891.98555  0.095053873  0.096424839            1 
  783000     1.130383    -2.667745    892.84473  0.095023917  0.096412925            4 
  784000    1.1130714    -2.652461    890.71458  0.094676295  0.096399891            2 
  785000    1.1143637   -2.6779361    891.26298  0.094613905  0.096385813            2 
  786000    1.1180297   -2.6839835     896.6482  0.095064483  0.096371648            3 
  787000    1.1245744   -2.7015125    893.73604  0.094635328  0.096357167            3 
  788000    1.1198807   -2.6659143    898.30279  0.094998179  0.096342344            4 
  789000    1.1240494    -2.683235    897.44067   0.09478672  0.096327415            2 
  790000    1.1317433   -2.6807075    895.66266  0.094479183   0.09631249            1 
  791000    1.1020873   -2.6751437    900.75429  0.094896154  0.096298988            2 
  792000    1.1131661   -2.6627574    901.31866  0.094835717  0.096284831            1 
  793000    1.1222258   -2.6599991    900.05047  0.094582857  0.096270668            1 
  794000    1.1216584   -2.6678391     904.5013  0.094930867  0.096256229            1 
  795000    1.1222831   -2.6770585    905.03565  0.094867468  0.096242546            2 
  796000     1.076628   -2.6740621    901.99146  0.094429591  0.096227611            1 
  797000    1.1405567   -2.6457705    903.96123  0.094517067  0.096213243            2 
  798000    1.1200136   -2.6983421    909.21095  0.094946841  0.096199597            1 
  799000    1.1273084   -2.6940536    910.57909  0.094970702  0.096187146            1 
  800000     1.127746   -2.6868152    908.85768  0.094672675  0.096173827            2 
  801000    1.1294796   -2.6751204    913.92509  0.095081678  0.096161073            2 
  802000    1.0814877   -2.6904118    914.93621  0.095068185  0.096148969            2 
  803000    1.1317013   -2.6699843    915.36787   0.09499459  0.096137603            2 
  804000    1.1166426   -2.6780311    916.92464  0.095037794  0.096126543            2 
  805000    1.1262905   -2.7047226    919.74378  0.095211571  0.096114464            4 
  806000     1.123194   -2.7113674    917.39299  0.094850392  0.096103294            3 
  807000    1.1255126   -2.6827237     919.5199  0.094952489   0.09609322            3 
  808000    1.1134031   -2.6745528    921.24217    0.0950126  0.096083851            3 
  809000    1.1287634   -2.6834929    924.66547  0.095247782  0.096072805            2 
  810000    1.1154651    -2.661226    922.97532  0.094956308  0.096061898            3 
  811000    1.1432904   -2.6827804     921.8613  0.094724754  0.096049814            1 
  812000    1.1362467   -2.7080285    921.72963  0.094594584  0.096038557            2 
  813000     1.105835   -2.6851561    923.16785  0.094625651  0.096026739            1 
  814000    1.1089685   -2.6797733    923.73639  0.094567607  0.096014892            1 
  815000    1.1302522   -2.6815515    931.11289  0.095205816  0.096002874            3 
  816000    1.1413323   -2.6615152    930.97556  0.095075118  0.095992094            1 
  817000    1.1367358   -2.6716052    928.64138  0.094720662  0.095980258            1 
  818000    1.1317736    -2.680888    931.62854  0.094909183  0.095968037            2 
  819000     1.116518   -2.6820501    931.56105  0.094786432  0.095955469            2 
  820000    1.1128145   -2.7089551    931.54242  0.094668945  0.095941897            4 
  821000    1.1163571   -2.6889846    935.12827  0.094917608  0.095929812            1 
  822000    1.1096725   -2.6806189    935.94434  0.094884868  0.095917978            2 
  823000     1.132105   -2.6740442    934.95295  0.094669193  0.095906541            1 
  824000    1.1219455   -2.6940748    937.77585   0.09483979  0.095895043            2 
  825000    1.1282185   -2.6915663    942.36977  0.095188866  0.095883527            2 
  826000    1.1333138   -2.6540021    941.54169  0.094990081  0.095871634            1 
  827000    1.1025118   -2.7182242    939.34675  0.094654045  0.095857789            2 
  828000    1.1497817   -2.6944121    942.95031  0.094902406  0.095845673            1 
  829000    1.1326227   -2.6754992    938.84917  0.094375671  0.095832946            2 
  830000    1.1327481   -2.6792978    941.87242  0.094565504  0.095821354            3 
  831000    1.1110011   -2.6843218    942.30278  0.094494864  0.095808668            1 
  832000    1.1156921   -2.6810478    944.21582  0.094572899  0.095795832            1 
  833000    1.1093077   -2.6991198    943.59345  0.094397104  0.095781911            2 
  834000    1.1252082   -2.6841505    945.27784  0.094452222  0.095768513            1 
  835000    1.1358615   -2.7125395    943.24656  0.094136383  0.095754602            1 
  836000    1.0964811   -2.6889992    946.52998  0.094351074  0.095740229            2 
  837000     1.112798   -2.6881746    947.26599  0.094311628  0.095726347            2 
  838000    1.1227342   -2.7270253    947.86866  0.094259015  0.095710733            1 
  839000    1.1185416   -2.6608258    949.44073  0.094302814   0.09569749            3 
  840000    1.1348908   -2.6978187    949.41452  0.094187949  0.095684417            2 
  841000    1.1234063   -2.6994054    951.65276  0.094297736   0.09567137            2 
  842000    1.1002735   -2.7179109    957.82819  0.094796931  0.095657234            2 
  843000    1.1195569   -2.6986104    954.88012  0.094393052  0.095643912            2 
  844000    1.1257346   -2.6649467    959.49932  0.094737294  0.095631564            2 
  845000    1.1425727   -2.6865974    958.38209  0.094514999  0.095618526            1 
  846000    1.0827643   -2.7103561    960.38323  0.094600397  0.095605822            2 
  847000    1.1070342   -2.6614654    957.82301  0.094236817  0.095592853            2 
  848000    1.1281324   -2.6744983    961.71413  0.094508071  0.095580517            1 
  849000    1.1343214   -2.6848987    967.11655  0.094927027  0.095567983            1 
  850000    1.1315185   -2.6931609      963.343  0.094445392  0.095555318            1 
  851000    1.1257454    -2.675548    965.34267  0.094530226  0.095543913            2 
  852000    1.1220269   -2.6688268    968.84527  0.094761862  0.095533486            3 
  853000    1.1173332   -2.6775246    967.34845  0.094504537  0.095521276            2 
  854000    1.1202024   -2.6967561    967.86322  0.094444108  0.095509124            2 
  855000    1.0962976   -2.6617261    971.12417  0.094651479  0.095496725            1 
  856000    1.1048985    -2.694697    969.20567  0.094354135  0.095485118            1 
  857000    1.1185272   -2.6922622    971.32199  0.094449824  0.095472481            2 
  858000    1.1053489   -2.7056555    965.15524  0.093740796  0.095460407            3 
  859000    1.1042827   -2.7024459     969.7554  0.094077939  0.095447488            2 
  860000    1.1078418   -2.7069344    971.45082  0.094132831  0.095435034            3 
  861000    1.1102342    -2.700769    971.09773  0.093989327  0.095423064            2 
  862000    1.0978535   -2.6844265    973.73412  0.094135162  0.095410248            1 
  863000     1.115588   -2.6757021    979.03338  0.094537793  0.095397771            1 
  864000    1.1234461   -2.6919764    976.93671  0.094226148  0.095384948            3 
  865000    1.1126623   -2.7084761    976.46577  0.094071847  0.095371002            2 
  866000    1.1133708   -2.6821671    978.30929  0.094140617   0.09535689            1 
  867000    1.1049001   -2.6579925    979.10523  0.094108538  0.095343019            1 
  868000    1.1048614   -2.6791478    981.18659  0.094199941  0.095329117            1 
  869000    1.1148518   -2.6862421     983.0799  0.094273101  0.095315664            1 
  870000    1.1081843   -2.6879635    982.15133  0.094075798  0.095303313            1 
  871000    1.1417351   -2.7209541    981.32018  0.093888268   0.09529051            1 
  872000    1.1131151   -2.6912845    983.44092  0.093983268  0.095276824            2 
  873000    1.1311078   -2.7013041    987.25424  0.094239619  0.095264802            2 
  874000    1.1035443   -2.6998396    983.30251  0.093755007  0.095252917            2 
  875000    1.1050474   -2.7031082    986.47307  0.093949816  0.095240448            3 
  876000    1.0816518   -2.7007572     991.1052  0.094283219  0.095228646            1 
  877000    1.1204812    -2.698676    986.02491  0.093692979   0.09521633            2 
  878000    1.1005881   -2.7119796     990.2278  0.093985174  0.095204757            2 
  879000    1.1185576   -2.7240258    990.98244  0.093949795  0.095192424            1 
  880000     1.110994   -2.6982142    994.27568  0.094154894  0.095180665            3 
  881000    1.1083061   -2.6856083    1001.1107  0.094694538  0.095169682            2 
  882000    1.1131009   -2.7247719    997.55774  0.094251487  0.095158542            2 
  883000    1.1216072   -2.7004966    998.28801  0.094213666  0.095148077            1 
  884000    1.0925368    -2.675227    1000.7478  0.094338967  0.095137688            2 
  885000     1.122434   -2.6871157     1005.776  0.094705835  0.095128596            2 
  886000    1.1086418   -2.6920909    1007.0566  0.094719391  0.095119838            2 
  887000    1.1389336   -2.6824722    1001.8229  0.094120907  0.095109247            3 
  888000    1.1044529    -2.715637     1005.468   0.09435698  0.095099774            3 
  889000    1.1318638   -2.6785529    1005.4486  0.094249021  0.095090113            2 
  890000      1.11712   -2.6982632    1005.2593  0.094125399   0.09508052            2 
  891000     1.108211   -2.7199105    1008.6148  0.094333599    0.0950703            2 
  892000    1.1124002   -2.6772483    1010.2443  0.094380069  0.095060406            3 
  893000    1.1193239   -2.6985281    1014.0909   0.09463334  0.095051325            1 
  894000    1.0927028   -2.7054356     1010.779  0.094218775  0.095041749            2 
  895000    1.1029198   -2.7160466    1008.9553  0.093943695  0.095030482            3 
  896000    1.1168416    -2.699186    1009.7853  0.093916043  0.095020692            2 
  897000    1.1085499   -2.7434453    1014.4054   0.09424056  0.095009989            2 
  898000    1.0977112   -2.6750466    1014.3542  0.094130866  0.094998794            2 
  899000    1.1345808   -2.7094571    1014.8234   0.09406965   0.09498785            1 
  900000    1.1076216   -2.6921456    1017.7619  0.094237214  0.094977927            1 
  901000    1.0933142   -2.7050013    1021.4249  0.094471408  0.094967499            2 
  902000    1.0983674   -2.7084932    1016.8759  0.093946408  0.094957804            6 
  903000    1.1150955    -2.708271    1017.4974  0.093899721  0.094948022            1 
  904000    1.1115834   -2.7152268    1018.1675  0.093857621  0.094937827            3 
  905000    1.1156887   -2.6899809     1025.727  0.094449998  0.094928612       -1e+20 
  906000    1.1079417    -2.703061    1025.3685  0.094312775  0.094919948            1 
  907000    1.1016643   -2.7175107    1029.1921  0.094560101  0.094911316            1 
  908000    1.1010677   -2.7232283    1027.5465  0.094304924  0.094903459            1 
  909000    1.1312957   -2.6848711    1031.0908  0.094526107  0.094895992            3 
  910000    1.1070618   -2.7017075    1029.9864  0.094321095  0.094887903            1 
  911000    1.1067432   -2.7335242    1027.4602  0.093986483  0.094879476            2 
  912000    1.1180819    -2.727797    1031.1782  0.094223157  0.094870495            1 
  913000    1.1080512   -2.6944406    1034.8244  0.094452754  0.094861803            1 
  914000     1.112529   -2.7555541    1029.2856  0.093844416  0.094853289            1 
  915000    1.1292315   -2.6945167    1035.8062  0.094335722  0.094844088            3 
  916000    1.1025226   -2.7143025    1037.9599  0.094428667  0.094836595            2 
  917000    1.0941035    -2.722705    1037.2897  0.094264789  0.094828442            2 
  918000    1.0880579   -2.7250697    1035.7512  0.094022442   0.09482059            2 
  919000    1.1049295   -2.7008639    1041.4925  0.094440743  0.094813232            3 
  920000      1.10356   -2.7022568    1044.5354   0.09461371  0.094806124            2 
  921000    1.0988561   -2.6804232    1042.1926  0.094299008  0.094798612            2 
  922000    1.0992145   -2.6923805    1041.4268  0.094127512  0.094790701            2 
  923000    1.1226703    -2.702295    1042.8683  0.094155683  0.094783168            4 
  924000    1.0831965   -2.7088128    1048.4703  0.094559012  0.094774853            2 
  925000    1.0945787   -2.6944375    1043.1556  0.093977984  0.094765787            1 
  926000     1.104912   -2.7309756    1047.6288  0.094279054  0.094757045            4 
  927000     1.100251    -2.727502    1045.9985  0.094030788  0.094748085            3 
  928000    1.1052083   -2.7113686    1053.2436  0.094580061  0.094739461            1 
  929000    1.0923177   -2.7096632    1053.8852   0.09453581  0.094732138            3 
  930000    1.1017343   -2.7071053    1049.1109  0.094006349  0.094724328            2 
  931000    1.1109822   -2.6663589    1054.4226  0.094380825  0.094715967            2 
  932000    1.0949617   -2.7309246     1048.895  0.093785319  0.094707858            2 
  933000    1.1010048   -2.7090202    1054.0376   0.09414412  0.094699229            2 
  934000    1.0946107    -2.731181    1053.9557  0.094036017  0.094691466            1 
  935000    1.0816718   -2.7119256    1060.0944  0.094482567  0.094683591            1 
  936000     1.116399   -2.6802693    1060.0037  0.094373553  0.094675661            2 
  937000    1.1100248   -2.7342819    1055.5667  0.093878223  0.094667419            3 
  938000    1.0706833   -2.7253993    1062.5649  0.094399862  0.094659294            3 
  939000    1.1220966   -2.7025169    1062.4601  0.094290031  0.094650676            6 
  940000    1.1272755   -2.7378563    1061.2554  0.094082929   0.09464316            2 
  941000    1.1113393   -2.6945557    1060.6815  0.093932122  0.094634348            3 
  942000    1.0962885   -2.7162753    1062.1082  0.093958613  0.094625009            2 
  943000    1.1247016   -2.7089191    1067.8807  0.094369097  0.094616405            2 
  944000    1.1133363   -2.6915325    1061.6173  0.093716217  0.094608005            1 
  945000    1.1089856   -2.7273154    1070.3423  0.094386442  0.094599691            2 
  946000    1.0925459   -2.7119357    1066.5253  0.093950435  0.094590855            3 
  947000    1.1197088   -2.7218026    1067.9802  0.093979246  0.094581426            2 
  948000    1.0714711   -2.7311956    1067.5583   0.09384303  0.094571881            5 
  949000    1.0975481   -2.7069835    1070.4544  0.093998452  0.094562743            2 
  950000    1.1052504   -2.6615041     1074.605  0.094263597   0.09455427            1 
  951000    1.1006121   -2.6936434    1077.2578  0.094396934  0.094545603            1 
  952000    1.0990785   -2.6898029    1077.6707  0.094333917  0.094537733            3 
  953000    1.1063603   -2.7172591    1072.4727  0.093780406  0.094528756            3 
  954000    1.1005342   -2.7168197    1077.5127  0.094122353  0.094519746            4 
  955000    1.0858327   -2.6934752    1073.2236  0.093649529  0.094510014            4 
  956000    1.1008515   -2.7101371    1080.2114  0.094160684  0.094501364            2 
  957000    1.0996763   -2.6899498    1079.0861  0.093964307   0.09449238            2 
  958000    1.1030056   -2.7188704    1076.8919  0.093675354  0.094484038            3 
  959000    1.1118592   -2.7022154    1080.9391  0.093929361  0.094474906            1 
  960000    1.0918267   -2.6894873    1082.3687  0.093955615  0.094465675            1 
  961000    1.0887329   -2.7182636    1081.4258  0.093776087  0.094456318            1 
  962000    1.0879964   -2.7085643    1083.3275  0.093843341  0.094446594            2 
  963000     1.088769   -2.7456034    1080.7631  0.093523977  0.094437422            1 
  964000    1.1049382   -2.7040608    1081.7593  0.093513076  0.094427309            4 
  965000    1.0977182   -2.7045525    1090.4576  0.094167323  0.094418135            2 
  966000    1.1012272   -2.7190493     1086.757  0.093750605  0.094409276            3 
  967000     1.082904   -2.7269885    1082.5345  0.093289773   0.09440025            1 
  968000    1.0771638   -2.7389837    1085.4145  0.093441332  0.094390959            3 
  969000    1.1059037    -2.687967     1089.264  0.093675956  0.094381867            4 
  970000    1.1348437   -2.7313177    1088.3966  0.093504861  0.094372632            2 
  971000    1.0896936   -2.7329093     1093.846  0.093876247  0.094362668            1 
  972000    1.0784241   -2.7350775    1095.0902  0.093886333  0.094354149            2 
  973000    1.1452684   -2.7107493    1094.6217  0.093749717  0.094344591            2 
  974000    1.0909893   -2.7030622    1096.8472  0.093843877  0.094335175            4 
  975000    1.1150072   -2.7569968    1093.1001  0.093427361  0.094324787            3 
  976000     1.091492   -2.7108213    1095.1643  0.093507883  0.094313702            1 
  977000    1.1143669   -2.7300205    1097.8356   0.09364002  0.094302065            1 
  978000    1.1180011   -2.6915164    1093.5526   0.09317933  0.094290974            1 
  979000    1.1089939   -2.7079821    1098.2435  0.093483446  0.094280258            1 
  980000    1.0893134   -2.7112866      1099.22  0.093471089  0.094269457            2 
  981000    1.1160877   -2.7180923    1097.0807  0.093194081  0.094258532            2 
  982000    1.1084563   -2.7064085    1101.5186  0.093475777  0.094247795            1 
  983000    1.0908107   -2.7219929      1102.81  0.093490166  0.094236685            3 
  984000    1.1128217   -2.6999817     1107.539  0.093795649  0.094226214            1 
  985000    1.0868265   -2.7150807    1101.3503   0.09317684  0.094214862            2 
  986000    1.0986162   -2.7025011    1101.4626  0.093091837  0.094204217            1 
  987000    1.1266377   -2.7108905    1106.4866  0.093421698  0.094192881            1 
  988000    1.0741415   -2.7536246    1102.6154  0.093000626  0.094181901            1 
  989000    1.1046001   -2.7221598    1113.6642  0.093837562   0.09417073            2 
  990000    1.0716812   -2.6838577    1109.5056   0.09339273  0.094160098            2 
  991000    1.1239542    -2.712428    1108.7849  0.093237887  0.094149367            2 
  992000     1.108555   -2.7110632    1104.3388  0.092770393  0.094137698            2 
  993000    1.0900618   -2.6807916    1109.8652  0.093140753  0.094125462            2 
  994000    1.0803606   -2.7061027    1111.4306  0.093178288   0.09411429            3 
  995000    1.0844053   -2.6812521    1116.4254  0.093502966  0.094103134            3 
  996000    1.1044997   -2.7179643    1116.0184  0.093375033  0.094092553            3 
  997000    1.0985592   -2.7151788    1111.5108  0.092904614  0.094081319            2 
  998000    1.0933095   -2.7289754    1113.9318  0.093013681  0.094070528            2 
  999000    1.0875685   -2.7181255    1120.7177  0.093486624  0.094058799            1 
 1000000    1.0766706   -2.7308979    1117.1081  0.093092345  0.094047077            3 
 1001000    1.0923658   -2.6972199    1118.6187  0.093125098  0.094035917            4 
 1002000    1.0921788   -2.7082595    1120.0392  0.093150296   0.09402456            1 
 1003000    1.0709041   -2.7185058    1119.9455  0.093049643  0.094013456            1 
 1004000    1.1227644   -2.7049461    1120.8456  0.093031675  0.094002407            2 
 1005000    1.0666039   -2.7393188    1119.1585  0.092799215  0.093991017            2 
 1006000    1.0849277   -2.7169797    1121.5316  0.092903542  0.093979124            3 
 1007000    1.0932106   -2.7515003    1128.8764    0.0934191  0.093966205            2 
 1008000    1.0856285   -2.7061725    1124.5332  0.092967358  0.093954178            3 
 1009000    1.0959829   -2.6986033    1127.8027  0.093145251  0.093941205            2 
 1010000    1.0920643   -2.7134092    1126.9626  0.092983712  0.093929365            2 
 1011000    1.0850326   -2.7381415    1121.9648  0.092479789  0.093917447            7 
 1012000     1.108898   -2.7160643    1123.9244  0.092549768  0.093905667            3 
 1013000    1.0956164    -2.707863    1128.6755  0.092849253  0.093894275            3 
 1014000    1.0724028    -2.741398    1134.6423  0.093248056  0.093882459            1 
 1015000    1.0784526   -2.7178095    1131.8013   0.09292293  0.093871083            2 
 1016000    1.0848006   -2.7284988    1128.7709  0.092582914  0.093859728            4 
 1017000    1.0743656   -2.7073565    1134.0107  0.092921231  0.093848002            2 
 1018000    1.0813975   -2.7098733     1130.755  0.092563442  0.093836085            3 
 1019000    1.0795673   -2.7176041    1135.3716  0.092850144  0.093824025            3 
 1020000    1.0804019   -2.7467114    1135.7171  0.092787341  0.093812377            2 
 1021000    1.0684546   -2.7119995    1134.7108  0.092614333  0.093800616            1 
 1022000    1.1176623   -2.7287974    1137.0234  0.092712282  0.093787869            2 
 1023000    1.0937411   -2.7279662    1145.1566  0.093284183  0.093775834            2 
 1024000    1.1023607   -2.6984271    1137.7758  0.092592431  0.093763648            1 
 1025000    1.0821645   -2.7012836    1144.6246  0.093058911  0.093751468            3 
 1026000    1.0851901   -2.7189511    1138.4657  0.092467975  0.093739466            1 
 1027000    1.0785392   -2.7240111    1141.7133  0.092641455  0.093727879            1 
 1028000    1.0690615   -2.7326637    1144.0873  0.092743785  0.093716729            1 
 1029000    1.0792961   -2.7401536    1146.7744  0.092871263  0.093705615            2 
 1030000    1.0879228   -2.7178848    1147.6244  0.092849872  0.093694545            2 
 1031000    1.0789608   -2.7536428    1150.0126  0.092952847  0.093682854            3 
 1032000    1.1154553   -2.7149397    1144.7377  0.092436832  0.093671058            5 
 1033000    1.0743803   -2.7127495    1150.4083  0.092804797   0.09365923            1 
 1034000    1.0916956   -2.7134581    1148.5054  0.092561686  0.093646998            4 
 1035000    1.0868821   -2.7268484     1148.625  0.092481885   0.09363512            3 
 1036000    1.1038501   -2.7335057    1150.5632  0.092548516  0.093622876            2 
 1037000    1.1023266   -2.7498098    1149.0572  0.092338251  0.093610236            2 
 1038000     1.090856   -2.7092822    1148.1292  0.092174792   0.09359767            2 
 1039000    1.0869766   -2.7208992    1154.1666  0.092570311  0.093585495            1 
 1040000    1.0793149   -2.7582007    1154.3852  0.092498814  0.093572545            2 
 1041000    1.0910346   -2.7139242    1148.9637   0.09197596  0.093558572            2 
 1042000    1.0837563   -2.7299759    1148.1665  0.091823939  0.093546074            1 
 1043000    1.0830183   -2.7386857     1157.794  0.092505111  0.093533154            2 
 1044000    1.0670217   -2.6971352    1156.9167  0.092346476  0.093520531            1 
 1045000    1.1215505   -2.7363606    1160.8953  0.092575385  0.093508315            1 
 1046000    1.0581858   -2.7533289    1160.5663  0.092460668  0.093495591            1 
 1047000    1.0998778   -2.7011828    1163.4719  0.092603618  0.093482566            2 
 1048000    1.0571725   -2.7246377    1157.8206  0.092065884  0.093469614            3 
 1049000    1.0764364   -2.7236315    1162.8914  0.092380954   0.09345644            2 
 1050000    1.0856039   -2.7146646    1166.6588  0.092591966  0.093443479            2 
 1051000    1.0822131   -2.7605298     1159.376   0.09192642   0.09343044            1 
 1052000    1.0748095   -2.7109876    1160.9563  0.091964216  0.093416131            2 
 1053000    1.0842275   -2.7317364    1164.4411  0.092152665  0.093402323            1 
 1054000    1.0899572   -2.7339812    1162.3523  0.091900089  0.093388392            1 
 1055000    1.0669677   -2.7174261    1166.0573   0.09210563  0.093374645            1 
 1056000    1.0653158   -2.7195247     1169.989  0.092328676  0.093361885            1 
 1057000    1.0724699   -2.7259289    1168.0817  0.092090955  0.093347991            5 
 1058000     1.083868   -2.7477129    1164.2665  0.091703408  0.093334427            3 
 1059000    1.0697705   -2.7171361    1167.1518  0.091843864  0.093319689            2 
 1060000    1.0895977   -2.7058418    1169.3412  0.091929338  0.093305738            2 
 1061000    1.0920033   -2.7589742    1169.8825  0.091885213    0.0932917            1 
 1062000    1.0753429   -2.7258031    1170.9297  0.091880861  0.093277386            4 
 1063000      1.06284   -2.7290209    1171.0428  0.091803295  0.093262766            3 
 1064000    1.0922366   -2.7105545    1180.7311   0.09247581  0.093249106            1 
 1065000    1.0916022   -2.7348861    1176.8177  0.092082762  0.093235855            1 
 1066000    1.0832625   -2.7278164    1175.3239  0.091879606  0.093222154            2 
 1067000    1.0841427   -2.7240893    1177.5272  0.091965574  0.093207935            1 
 1068000    1.1014147   -2.7483804    1179.2489    0.0920138  0.093193718            2 
 1069000    1.0843444   -2.7516052    1179.4527  0.091943616  0.093179848            4 
 1070000    1.1232645   -2.7516256    1176.8384   0.09165408  0.093165747            3 
 1071000    1.0997966   -2.7554279    1177.5728  0.091625648  0.093151504            2 
 1072000    1.0714175   -2.7432601    1178.1935  0.091588422  0.093137133            1 
 1073000    1.0951194   -2.7266332    1183.2773  0.091897898  0.093123116            1 
 1074000     1.093634   -2.7395574    1184.9506  0.091942163  0.093109177            2 
 1075000    1.0599711   -2.7477573    1181.7678  0.091609905  0.093095033            1 
 1076000    1.0879534   -2.7425088    1185.1989  0.091790496  0.093079791            1 
 1077000    1.0934939   -2.7378923    1183.1678  0.091548113  0.093065449            2 
 1078000    1.0989557   -2.7268428    1191.9065  0.092138721  0.093050885            4 
 1079000    1.0857907   -2.7255685    1183.1947  0.091380497  0.093037081            1 
 1080000    1.0700084   -2.7077477    1187.9591  0.091663507  0.093022047            4 
 1081000    1.0823904   -2.7245898    1189.7118   0.09171383  0.093007302            2 
 1082000    1.0986349   -2.7381804    1187.0156  0.091421412  0.092993231            1 
 1083000     1.063649    -2.712537    1194.4802  0.091911374  0.092979104            1 
 1084000    1.1057992   -2.7625269     1193.863  0.091779138  0.092965298            2 
 1085000     1.093164   -2.7080609    1194.2339  0.091723031  0.092951846            2 
 1086000    1.0849774   -2.7291509    1193.9062  0.091613429  0.092937653            2 
 1087000    1.0787756   -2.7783137    1192.8213  0.091445975   0.09292313            2 
 1088000    1.0660603    -2.700892    1198.0055  0.091758997   0.09290893            2 
 1089000    1.0896554    -2.746572    1195.6953   0.09149796  0.092895225            2 
 1090000    1.0689531    -2.731122    1196.6607  0.091487821  0.092880937            2 
 1091000    1.0855687   -2.7519581    1202.1753   0.09182518  0.092867332            2 
 1092000    1.0820218   -2.7672645    1198.3745  0.091451043  0.092853151            3 
 1093000    1.0799834   -2.7394044    1203.1638  0.091732527  0.092839692            2 
 1094000    1.0722868   -2.7279171    1198.7818  0.091314881  0.092825842            1 
 1095000    1.0808673    -2.739911    1203.2742  0.091573381   0.09281201            5 
 1096000    1.0474788   -2.7376156    1197.4358  0.091045912  0.092796734            2 
 1097000    1.0618362   -2.7398506    1202.6119  0.091356116  0.092781257            4 
 1098000    1.0893262   -2.7289724    1203.5683  0.091345499   0.09276596            1 
 1099000    1.0948394   -2.7350263    1208.5842  0.091642718  0.092751475            2 
 1100000    1.0633229   -2.7235263    1208.4965  0.091552763  0.092736335            3 
 1101000    1.1043924   -2.7229822    1202.6291  0.091025511  0.092721489            1 
 1102000    1.0704704   -2.7597406    1204.1486  0.091057821  0.092705837            4 
 1103000    1.0796666   -2.7420179    1205.7998  0.091100018  0.092690531            5 
 1104000    1.0486565   -2.7146897    1210.1474  0.091345668  0.092675385            1 
 1105000    1.0973891   -2.7374785    1206.9027  0.091018306   0.09265997            1 
 1106000    1.0849387    -2.721993    1210.0979  0.091176753  0.092645094            1 
 1107000    1.0906111   -2.7304694    1211.8679  0.091227637  0.092629777            3 
 1108000    1.0683262   -2.7180035    1210.1918   0.09101924  0.092613591            3 
 1109000    1.0732311     -2.77089    1211.8253  0.091059913  0.092597422            1 
 1110000    1.0480229   -2.7437657    1214.3635  0.091168429  0.092581536            1 
 1111000     1.082845   -2.7452192     1210.656  0.090808284  0.092566393            1 
 1112000    1.0703464   -2.7718392    1211.1057  0.090760317  0.092550389            5 
 1113000    1.0801249   -2.7245192    1218.9451  0.091265731  0.092534819            1 
 1114000    1.0491056   -2.7358865    1216.7471  0.091019385  0.092519304            1 
 1115000      1.07125   -2.7636004    1219.2357  0.091123742   0.09250392            2 
 1116000    1.0778415   -2.7535851    1219.8518  0.091088099  0.092488805            2 
 1117000    1.0685451   -2.7142324    1221.3905  0.091121345  0.092473572            1 
 1118000    1.0691486   -2.7333353    1222.9282  0.091154456  0.092459028            2 
 1119000    1.0734889   -2.7294141     1222.017  0.091005139  0.092444135            2 
 1120000    1.0907372   -2.7370749    1225.5584   0.09118738  0.092429192            2 
 1121000    1.0922705   -2.7274004    1221.7766  0.090824903  0.092414187            4 
 1122000     1.067748   -2.7629025    1225.5502  0.091024226  0.092398789            2 
 1123000    1.0709198   -2.7321024     1227.142  0.091061292  0.092383614            3 
 1124000    1.0472871   -2.7557785    1220.0678  0.090455799  0.092368459            1 
 1125000    1.0779102   -2.7254925    1230.6902  0.091162238  0.092353395            2 
 1126000    1.0669804   -2.7181685    1225.7571  0.090716185  0.092338623            2 
 1127000    1.0616532    -2.749011    1228.0608  0.090806036  0.092323414            1 
 1128000    1.0907817   -2.7261114    1228.0417  0.090724122  0.092308093            3 
 1129000    1.0707669   -2.7348828     1234.276  0.091103928  0.092292834            1 
 1130000    1.0789059   -2.7335045    1234.6367  0.091049907   0.09227817            2 
 1131000    1.0687943   -2.7449862    1232.7526  0.090830578  0.092263834            2 
 1132000    1.0689198   -2.7291344    1235.3077  0.090938432    0.0922491            3 
 1133000    1.0606742    -2.724887    1234.4093  0.090792091  0.092234112            4 
 1134000    1.0670829   -2.7455971    1237.8207  0.090962719  0.092219084            3 
 1135000    1.0733781   -2.7573095    1239.1755  0.090982052  0.092204223            2 
 1136000    1.0853452   -2.7300345    1241.0862  0.091042124  0.092189244            3 
 1137000     1.078501   -2.7769009    1241.7646   0.09101177  0.092174181            2 
 1138000    1.0822911   -2.7676891    1237.7765  0.090639758    0.0921594            1 
 1139000    1.0550489   -2.7424088    1242.4659  0.090903269  0.092145118            2 
 1140000      1.06988   -2.7428689    1246.7401  0.091135971  0.092130531            1 
 1141000    1.0756215   -2.7290758    1240.5303  0.090602561  0.092116028            1 
 1142000    1.0604001   -2.7418633    1246.5113  0.090959672  0.092102221            1 
 1143000    1.0801628   -2.7632105    1246.3145  0.090865738  0.092088678            1 
 1144000    1.0780723   -2.7638074    1241.0998  0.090406455  0.092075104            1 
 1145000    1.0662265    -2.775091    1249.7436  0.090956592  0.092060618            3 
 1146000    1.0640419   -2.7341291    1252.6186  0.091086284  0.092046599            2 
 1147000    1.0579744   -2.7408855    1247.8387  0.090659596  0.092033001            4 
 1148000    1.0737312   -2.7526431    1252.4343  0.090914222   0.09201986            3 
 1149000    1.0469963   -2.7549287    1252.7482  0.090857861  0.092006393            3 
 1150000    1.0482217   -2.7217323     1257.339  0.091111518  0.091993438            2 
 1151000    1.0698617   -2.7301942    1262.9738  0.091440326  0.091980077            5 
 1152000    1.0617368   -2.7381287    1253.4056  0.090668811  0.091965837            2 
 1153000    1.0669433   -2.7174849    1256.9686  0.090847689  0.091952566            2 
 1154000    1.0724228   -2.7429246    1258.6691  0.090891762  0.091940051            2 
 1155000    1.0770998   -2.7645642    1257.7125  0.090744046  0.091926909            1 
 1156000    1.0597832   -2.7760929    1261.3944  0.090930966  0.091913599            1 
 1157000    1.0737505   -2.7620556    1261.8394  0.090884427  0.091900549            1 
 1158000    1.0731527    -2.751471    1266.8912  0.091169486   0.09188802            5 
 1159000    1.0971422   -2.7510512    1263.8119  0.090869424  0.091875553            2 
 1160000    1.0766956   -2.7407333    1265.9388  0.090943878  0.091862849            2 
 1161000     1.074405   -2.7513526    1263.6238  0.090699385  0.091849633            1 
 1162000    1.0655689   -2.7524577    1263.0451  0.090579823  0.091836908            4 
 1163000    1.0470283   -2.7549627    1262.4929  0.090462376  0.091823402            1 
 1164000    1.0836774   -2.7645837    1265.9474   0.09063197  0.091809723            3 
 1165000     1.058646   -2.7789863     1267.731  0.090681758  0.091796073            1 
 1166000    1.0655393   -2.7412596    1265.3539    0.0904341  0.091781906            1 
 1167000    1.0615501   -2.7528643    1266.4298  0.090433433  0.091767147            3 
 1168000    1.0657752   -2.7829125    1273.1456  0.090835163   0.09175217            3 
 1169000    1.0671773   -2.7654602    1261.7289  0.089943605  0.091737526            5 
 1170000    1.0555868   -2.7517856    1268.3429  0.090337815  0.091722735            4 
 1171000     1.069823    -2.770437    1277.0833  0.090882675   0.09170869            2 
 1172000    1.0203785   -2.7482769    1271.2893   0.09039315  0.091694308            2 
 1173000    1.0752912   -2.7422415    1273.9137  0.090502533  0.091679836            4 
 1174000    1.0567751    -2.761779    1274.9327  0.090497777   0.09166546            1 
 1175000    1.0721402   -2.7353733    1272.9244  0.090278328  0.091650935            6 
 1176000    1.0736343   -2.7475527    1273.0076  0.090207454  0.091635243            2 
 1177000    1.0548737   -2.7524172    1272.1512  0.090070178  0.091620121            1 
 1178000    1.0515114   -2.7552958    1279.5067  0.090514056  0.091605418            1 
 1179000    1.0600514   -2.7440246    1280.0827  0.090477996  0.091590876            3 
 1180000    1.0669678   -2.7684066    1281.2333  0.090482578  0.091576262            3 
 1181000    1.0730263   -2.7284948    1279.6633  0.090295177  0.091561253            2 
 1182000      1.04721   -2.7485996    1276.9734  0.090029146  0.091545283            2 
 1183000    1.0718946   -2.7505953    1279.9734  0.090164372  0.091529766            1 
 1184000    1.0700012   -2.7452997    1284.8334  0.090430281  0.091513907            1 
 1185000    1.0706257   -2.7364091    1279.2759  0.089963143  0.091499211            2 
 1186000    1.0735953   -2.7913078    1276.5308  0.089694407  0.091482873            4 
 1187000    1.0571008   -2.7765361    1277.6892   0.08970017   0.09146713            4 
 1188000    1.0596972   -2.7673583    1280.2125   0.08980166  0.091450611            3 
 1189000    1.0809642   -2.7552892    1285.6923  0.090110196  0.091434533            2 
 1190000    1.0733774   -2.7216247    1287.4888  0.090160281  0.091418778            2 
 1191000    1.0705802   -2.7374857    1286.6201    0.0900238  0.091402799            1 
 1192000    1.0642976   -2.7698971    1281.6276  0.089599247  0.091386947            1 
 1193000    1.0651137   -2.7647703    1284.6725   0.08973683  0.091369919            3 
 1194000    1.0722415   -2.7711943    1284.3351  0.089638127  0.091353223            4 
 1195000    1.0893117    -2.761173    1280.3842    0.0892876  0.091336577            5 
 1196000    1.0604177   -2.7540592    1289.8684  0.089873771  0.091319538            3 
 1197000    1.0650817   -2.7545084     1290.072  0.089812866  0.091302906            3 
 1198000    1.0731416   -2.7466257    1289.7367  0.089714571  0.091286479            1 
 1199000    1.0851292   -2.7413109    1290.9601  0.089724781  0.091269694            5 
 1200000    1.0566486   -2.7637335    1286.2135  0.089320383  0.091252598            5 
 1201000    1.0512363    -2.760125     1285.685  0.089209338  0.091235732            2 
 1202000    1.0516102   -2.7588005    1293.1019  0.089649329  0.091218973            3 
 1203000    1.0487662   -2.7226535    1291.8421  0.089487539  0.091202537            1 
 1204000    1.0593799   -2.7648006    1294.3786  0.089588773  0.091185732            3 
 1205000    1.0271063   -2.7451435    1291.7892  0.089335351  0.091169425            3 
 1206000    1.0465618    -2.735829    1299.6418  0.089803881  0.091152769            1 
 1207000     1.089147   -2.7512815    1298.2519  0.089633518   0.09113551            2 
 1208000    1.0665643   -2.7643421    1296.1722  0.089415853  0.091118936            2 
 1209000    1.0548061   -2.7352988    1302.5896  0.089784232  0.091101822            2 
 1210000    1.0742462   -2.7706211    1297.7946  0.089379796  0.091085885            3 
 1211000    1.0378335    -2.755923    1304.7309  0.089783302  0.091069261            1 
 1212000    1.0424579   -2.7908944    1298.8259   0.08930321  0.091052286            5 
 1213000    1.0606476   -2.7718329    1302.2425  0.089464313  0.091035306            2 
 1214000    1.0386327   -2.7701175    1303.2942  0.089462808  0.091018422            4 
 1215000      1.06906   -2.7746314    1305.1522   0.08951661   0.09100208            1 
 1216000    1.0393196   -2.7937732    1299.6159   0.08906359  0.090985425            2 
 1217000     1.076964    -2.773465    1304.5152  0.089325883  0.090968781            3 
 1218000    1.0539431   -2.7488405    1305.8324  0.089342668  0.090952378            3 
 1219000     1.039902   -2.7563923    1307.0369  0.089351715  0.090936556            2 
 1220000    1.0335697   -2.7512136    1311.0768  0.089554423   0.09092029            3 
 1221000    1.0627528   -2.7574506     1309.124  0.089347803  0.090903851            4 
 1222000    1.0561291    -2.762988    1310.3419  0.089357738  0.090887811            2 
 1223000    1.0702927   -2.7421252    1319.5789  0.089914067  0.090872956            1 
 1224000    1.0554833   -2.7481627    1310.8406  0.089245683  0.090857825            1 
 1225000    1.0376362   -2.7678119    1310.6082   0.08915702  0.090842179            2 
 1226000    1.0560929   -2.7442782    1318.2373  0.089602859  0.090826682            2 
 1227000    1.0670175   -2.7529863    1320.6654  0.089694743  0.090811364            2 
 1228000    1.0450696   -2.7390598    1320.4859  0.089609524  0.090796483            1 
 1229000    1.0371973   -2.7538027    1319.9393  0.089499547  0.090781671            2 
 1230000    1.0585843   -2.7357458    1324.5116  0.089736558  0.090766302            2 
 1231000    1.0615355    -2.772172    1316.8947  0.089148028  0.090751745            2 
 1232000    1.0793234   -2.7749697    1320.0699  0.089290445  0.090736216            2 
 1233000    1.0764629   -2.7824587    1322.2627  0.089366226  0.090721227            1 
 1234000     1.052814    -2.768579    1322.2878  0.089295499  0.090706024            1 
 1235000    1.0651487   -2.7794736    1319.8838  0.089060986  0.090690221            1 
 1236000    1.0512522   -2.7530322    1327.8409   0.08952541  0.090674394            6 
 1237000    1.0593415   -2.7673055     1324.855  0.089251888  0.090658249            2 
 1238000    1.0334333   -2.7693334    1323.4765  0.089086999  0.090642234            2 
 1239000     1.058364   -2.7337367    1323.9736  0.089048532   0.09062659            1 
 1240000    1.0617652   -2.7938006    1322.6492  0.088887714  0.090610632            2 
 1241000    1.0569578   -2.7306169    1328.6972  0.089222211  0.090595336            2 
 1242000    1.0448295    -2.730073    1331.5634  0.089342687  0.090579813            3 
 1243000    1.0228356     -2.76864    1332.9479  0.089363633  0.090564207            3 
 1244000    1.0712528   -2.7316487     1338.191  0.089643017   0.09054872            1 
 1245000    1.0423203     -2.76396    1334.6133  0.089331545  0.090533819            2 
 1246000    1.0826262   -2.7485627    1341.3421  0.089709875  0.090518511            6 
 1247000    1.0498453   -2.7734244    1332.4817   0.08904582  0.090503059            3 
 1248000    1.0654636   -2.7759707    1333.0181  0.089010292  0.090487786            2 
 1249000    1.0621675   -2.7696573     1338.111  0.089278824   0.09047198            2 
 1250000    1.0815659   -2.7904123     1336.268  0.089084531  0.090456799            2 
 1251000    1.0394054    -2.789678    1335.1943    0.0889418  0.090440277            1 
 1252000    1.0483666   -2.7504448    1339.1313   0.08913281  0.090424321            1 
 1253000    1.0438758   -2.7722615    1338.3272  0.089008196  0.090408635            1 
 1254000    1.0404739   -2.7750745    1337.2124   0.08886313  0.090392918            2 
 1255000    1.0623672   -2.7768245     1343.484  0.089208765  0.090376927            4 
 1256000    1.0397301    -2.785412    1339.6314  0.088882125  0.090360806            1 
 1257000    1.0422777   -2.7672378    1334.1677    0.0884492  0.090344233            1 
 1258000    1.0877686   -2.7788933    1343.5246  0.088998713  0.090327826            1 
 1259000    1.0401534   -2.7615906    1346.1335  0.089100707  0.090311447            3 
 1260000    1.0447015   -2.7917489    1343.6536   0.08886598  0.090295161            2 
 1261000    1.0474397   -2.7451769    1342.6567  0.088729626  0.090278826            4 
 1262000    1.0153418   -2.7669025    1341.6217  0.088590975  0.090262145            1 
 1263000    1.0142372   -2.7664161    1348.7538   0.08899141  0.090245678            1 
 1264000    1.0481279   -2.7768612     1344.123  0.088615705  0.090229184            1 
 1265000    1.0482949    -2.731091    1348.3981  0.088827279  0.090212397            2 
 1266000    1.0535487   -2.7817067    1350.6816  0.088907428   0.09019611            3 
 1267000    1.0562828   -2.7764954    1347.7381  0.088643652  0.090179481            4 
 1268000    1.0533521   -2.7755513    1349.1479  0.088666399  0.090163389            1 
 1269000     1.045451   -2.7706934    1351.3731  0.088742655  0.090147353            4 
 1270000    1.0462635   -2.7701908    1347.3792  0.088410706  0.090130766            4 
 1271000    1.0512082   -2.7743929    1358.2795  0.089055832  0.090113826            4 
 1272000    1.0506311   -2.7407189    1354.2581   0.08872236  0.090097164            1 
 1273000    1.0357799   -2.7619885    1351.9708  0.088502935   0.09008077            3 
 1274000    1.0613912   -2.7694382    1350.6014  0.088343891  0.090064023            3 
 1275000    1.0557105   -2.7600358    1354.1753  0.088508187  0.090046864            3 
 1276000    1.0291634   -2.7446468    1355.7245  0.088540003  0.090029947            3 
 1277000    1.0551932   -2.7837344    1358.3812  0.088644032  0.090012795            1 
 1278000    1.0429304   -2.7662929    1360.7982  0.088732279  0.089996334            1 
 1279000    1.0550981   -2.7618795    1356.5838  0.088388311  0.089979764            1 
 1280000    1.0438209   -2.7885434    1359.2692  0.088494091  0.089962823            3 
 1281000    1.0378784   -2.7695924    1358.9105  0.088401675  0.089945812            2 
 1282000    1.0574445   -2.7364112    1362.1985  0.088546445  0.089929064            1 
 1283000    1.0286325   -2.7490267    1358.9305  0.088265168  0.089912236            3 
 1284000    1.0706129   -2.7711383    1356.9415  0.088067334  0.089895517            3 
 1285000    1.0489185   -2.7689002    1365.9224  0.088581222  0.089879111            3 
 1286000    1.0517953     -2.74069    1363.5782  0.088360434  0.089862256            5 
 1287000    1.0507133   -2.7875907    1363.3643  0.088277926  0.089845972            4 
 1288000    1.0468246   -2.7546501    1365.8286  0.088368826  0.089829228            2 
 1289000    1.0299961   -2.7578769    1364.8968  0.088240031  0.089812412            4 
 1290000    1.0585622   -2.7562309    1364.0522  0.088117068  0.089795336            4 
 1291000    1.0501096   -2.7839409    1368.0778  0.088308665  0.089778375            2 
 1292000    1.0449514   -2.7749996    1373.5577  0.088593764  0.089761828            2 
 1293000    1.0354154   -2.7776728    1370.4425  0.088324472  0.089745437            2 
 1294000    1.0368663   -2.7569294    1372.1498  0.088366164  0.089729126            2 
 1295000    1.0539385   -2.7245226     1373.535  0.088387064   0.08971283            4 
 1296000    1.0541796   -2.7877738    1365.3047  0.087789654  0.089696637            1 
 1297000    1.0497941    -2.766947    1374.1051  0.088287403  0.089680871            2 
 1298000    1.0365055   -2.7588132    1378.4904  0.088500925   0.08966471            2 
 1299000    1.0462407   -2.7874418    1375.1588  0.088219069  0.089648461            5 
 1300000     1.037544   -2.7950607    1379.8847  0.088454145  0.089632521            5 
 1301000    1.0268789   -2.7734234    1382.8668  0.088577174  0.089617077            2 
 1302000    1.0498671   -2.7884851    1382.3032  0.088473069  0.089601734            1 
 1303000    1.0537046   -2.7723701    1385.9139  0.088636092  0.089586644            3 
 1304000    1.0439755   -2.7805223    1381.9252  0.088313217  0.089571928            1 
 1305000    1.0570582   -2.7349294    1384.8977  0.088435357  0.089557283            1 
 1306000    1.0236713   -2.7595782     1386.187   0.08844991  0.089542458            3 
 1307000    1.0456297   -2.7804584    1389.0487  0.088564697  0.089527734            2 
 1308000    1.0579182   -2.7843673    1388.9313  0.088489509  0.089512556            2 
 1309000    1.0234223   -2.7751188    1389.2896  0.088444719  0.089497545            3 
 1310000      1.04846   -2.7721401    1389.7675  0.088407601  0.089482394            3 
 1311000    1.0311747   -2.7817294    1391.1905   0.08843062  0.089467406            2 
 1312000    1.0451447   -2.7615504      1389.18  0.088235519  0.089452557            2 
 1313000    1.0604746   -2.7752006    1389.5209  0.088189954  0.089438058            2 
 1314000    1.0380762   -2.7967702    1394.6313  0.088446934   0.08942272            2 
 1315000    1.0358434   -2.7871962    1394.0856  0.088345095  0.089407743            1 
 1316000    1.0337689   -2.7839308    1387.6798  0.087872325  0.089393232            4 
 1317000    1.0558896   -2.7815241    1399.0477  0.088524913   0.08937838            1 
 1318000    1.0520935    -2.772099    1405.5269  0.088867408  0.089364487            3 
 1319000    1.0447133   -2.7715892    1408.8474  0.089009818  0.089349897            2 
 1320000    1.0341505   -2.7752012    1397.9199  0.088252518  0.089335601            1 
 1321000    1.0478685   -2.7959494    1402.2346    0.0884579  0.089321088            3 
 1322000     1.067068   -2.7861747    1392.5772  0.087782225  0.089306355            2 
 1323000    1.0419892   -2.7569489    1401.7133  0.088291338  0.089292308            3 
 1324000    1.0439999   -2.7937061     1397.587   0.08796494  0.089277483            3 
 1325000    1.0560872   -2.7545086     1404.779   0.08835088  0.089262766            2 
 1326000    1.0353763   -2.7722124    1405.3121  0.088317755  0.089248077            2 
 1327000    1.0589925   -2.7491973    1403.5948  0.088143355  0.089233154            3 
 1328000    1.0567787   -2.8031829    1397.2141  0.087676585   0.08921769            3 
 1329000    1.0458752   -2.8088345    1403.7215  0.088018652  0.089201972            2 
 1330000    1.0196307   -2.7453188    1407.6703  0.088199892  0.089186407            2 
 1331000    1.0433042   -2.8054362    1408.3919  0.088178807  0.089171817            2 
 1332000    1.0133598   -2.7854594    1403.7136   0.08781992  0.089156913            1 
 1333000    1.0542738   -2.7753865     1410.798  0.088196926   0.08914202            1 
 1334000    1.0464829   -2.8005002    1409.0812  0.088023563  0.089127789            2 
 1335000    1.0447322   -2.7743973    1411.5336  0.088110712   0.08911312       -1e+20 
 1336000    1.0378643   -2.7602635    1410.2243  0.087963092  0.089097719            2 
 1337000    1.0287078   -2.7833403    1413.8883   0.08812567  0.089082394            2 
 1338000    1.0311055   -2.7724237    1415.6311  0.088168355  0.089068116            2 
 1339000    1.0118249   -2.7682151    1417.6859  0.088230391  0.089053866            2 
 1340000     1.044881   -2.7914505    1418.3832  0.088207912  0.089039211            3 
 1341000    1.0478362   -2.8029453    1413.4136  0.087833307  0.089024271            2 
 1342000    1.0186013   -2.7696617    1419.8414  0.088167001  0.089009545            2 
 1343000     1.040171   -2.7794863    1420.3739  0.088134394  0.088995057            3 
 1344000    1.0458533   -2.7679805    1416.4004  0.087822447  0.088980491            4 
 1345000     1.016633   -2.8112296    1416.9225  0.087789498  0.088965861            3 
 1346000    1.0501629   -2.8196422     1414.948  0.087602029  0.088951481            2 
 1347000    1.0437006    -2.777063    1422.4921  0.088003721  0.088937161            2 
 1348000    1.0367275   -2.7781357    1425.9143  0.088149995  0.088923006            5 
 1349000    1.0500703   -2.7775945     1430.642    0.0883767  0.088909285            2 
 1350000    1.0532258   -2.7721767     1426.426  0.088050987  0.088895218            4 
 1351000    1.0403328   -2.7751226    1425.8762  0.087951901  0.088881128            3 
 1352000    1.0370421   -2.7670759    1434.6416  0.088427122  0.088867306            2 
 1353000    1.0338564   -2.8086933    1425.2454  0.087783037  0.088853075            1 
 1354000     1.015335    -2.819137    1430.8425  0.088062682  0.088838989            2 
 1355000    1.0134624   -2.7652718    1433.6902  0.088172831  0.088825451            3 
 1356000    1.0413307   -2.7722853    1425.9533  0.087632334  0.088811631            3 
 1357000    1.0246472   -2.7785246    1432.3123  0.087958259  0.088797294            2 
 1358000    1.0540176   -2.7904644    1428.8704   0.08768228  0.088783348            2 
 1359000    1.0154641   -2.7681336    1437.0303  0.088118121  0.088769367            2 
 1360000    1.0213361   -2.7877684    1430.3267  0.087642567  0.088755379            1 
 1361000    1.0251393   -2.7857963    1432.1594  0.087690387  0.088740894            3 
 1362000    1.0082383   -2.7988284    1430.1255  0.087501563  0.088726324            2 
 1363000    1.0380871   -2.7813153      1438.91  0.087974442  0.088711999            4 
 1364000    1.0490512   -2.7969141    1434.1892  0.087621528  0.088697522            5 
 1365000    1.0296781   -2.7683139    1434.5789  0.087581127  0.088683068            2 
 1366000    1.0207546    -2.761855    1440.2652  0.087863906  0.088668615            3 
 1367000     1.041132   -2.7957375    1432.9535  0.087353905  0.088653721            2 
 1368000    1.0353341   -2.8095712    1436.9538  0.087533737  0.088638902            4 
 1369000    1.0281054   -2.8017529    1444.9548  0.087956833  0.088624231            4 
 1370000    1.0459646   -2.7938825       1441.7  0.087694647  0.088609807            3 
 1371000    1.0341365    -2.783211    1434.4991  0.087192991  0.088594896            2 
 1372000    1.0120385   -2.7935084    1443.1062  0.087652224  0.088580229            4 
 1373000    1.0106719   -2.8010582    1451.4549  0.088095103  0.088565412            3 
 1374000     1.031148   -2.8129036    1444.3349  0.087599155  0.088551145            4 
 1375000    1.0436769   -2.7752662    1443.3867   0.08747798  0.088536648            2 
 1376000    1.0305509    -2.778522    1448.9143  0.087749171   0.08852201            2 
 1377000    1.0160523   -2.7807544    1451.4006  0.087835914  0.088507771            1 
 1378000    1.0447921   -2.7773996     1449.154  0.087636308  0.088493807            1 
 1379000    1.0275867   -2.7805624    1447.4282  0.087468468  0.088479227            2 
 1380000    1.0179455   -2.7878328    1451.8403  0.087671515   0.08846401            2 
 1381000    1.0312078   -2.7915231    1444.7526  0.087180337  0.088448788            3 
 1382000    1.0311924   -2.7954436    1457.3048  0.087874144  0.088434292            2 
 1383000     1.041148   -2.7730483    1453.5074  0.087581792  0.088420114            1 
 1384000    1.0269863   -2.7926472    1449.6751  0.087287759  0.088405928            2 
 1385000    1.0315936    -2.786095    1454.2665  0.087500991  0.088390986            4 
 1386000    1.0255558   -2.8040259    1455.3007  0.087500043   0.08837585            2 
 1387000    1.0266345   -2.7666376    1455.8242  0.087468411  0.088360862            2 
 1388000    1.0370108   -2.7827746    1451.7353  0.087159902  0.088346371            2 
 1389000    1.0504074   -2.8173393    1453.1557   0.08718237  0.088331234            5 
 1390000     1.026315    -2.794399    1454.8306  0.087220058  0.088315963            3 
 1391000    1.0249984    -2.801437    1453.7423  0.087092156  0.088300723            2 
 1392000    1.0339381   -2.8132479    1459.1337  0.087352355  0.088286234            3 
 1393000    1.0315343   -2.7807056     1459.623  0.087318916   0.08827136            2 
 1394000    1.0280054   -2.7865881    1463.1037  0.087464353   0.08825737            2 
 1395000    1.0231021   -2.8099766    1457.4745  0.087065384  0.088242982            2 
 1396000   0.99845321   -2.7742306    1469.3955  0.087714631  0.088228818            2 
 1397000    1.0095071   -2.7887545     1469.912  0.087682653   0.08821548            8 
 1398000    1.0549692   -2.7822126    1466.4738  0.087414984  0.088201817            1 
 1399000    1.0460762   -2.7951828    1468.7643  0.087488941  0.088187996            4 
 1400000    1.0265293   -2.7779588    1470.3875  0.087523065  0.088173947            2 
 1401000    1.0500623   -2.7584632    1471.2689  0.087513022  0.088160377            1 
 1402000    1.0397198    -2.816226    1467.4768  0.087225201  0.088146891            4 
 1403000    1.0051964   -2.8035998    1471.1081  0.087378716  0.088132995            3 
 1404000    1.0335112   -2.7963902    1469.6657   0.08723087  0.088118994            1 
 1405000    1.0522594   -2.8007358    1470.8957  0.087241739  0.088104786            3 
 1406000    1.0233962   -2.8048992      1474.85  0.087414059  0.088091652            2 
 1407000    1.0344874   -2.7960119    1481.3052  0.087734257  0.088078493            4 
 1408000    1.0058301   -2.8223224    1473.6147   0.08721678  0.088065071            3 
 1409000    1.0236035   -2.8249574    1475.0915   0.08724222  0.088051555            3 
 1410000      1.05203   -2.7748696    1479.0437  0.087413929  0.088038033            1 
 1411000    1.0583155   -2.8112805    1482.5206  0.087557322  0.088024858            1 
 1412000    1.0312252   -2.7937522    1484.4442  0.087608843  0.088011831            3 
 1413000    1.0198809   -2.8248295    1479.1414  0.087234103  0.087998773            3 
 1414000    1.0155809    -2.781876    1478.5093  0.087135155  0.087985704            1 
 1415000    1.0386182   -2.7587555    1488.1315  0.087640255   0.08797308            1 
 1416000    1.0293144   -2.8256468    1488.0781  0.087575218  0.087960393            5 
 1417000    1.0234342   -2.7870216    1488.4764  0.087536837  0.087947357            2 
 1418000    1.0264961   -2.7896922    1484.3421  0.087232141  0.087934993            3 
 1419000     1.012595   -2.7941813    1485.0498  0.087212226  0.087922284            3 
 1420000    1.0015608    -2.792921    1491.3647  0.087521405  0.087909067            3 
 1421000      1.05219   -2.8058631    1488.3884  0.087285269  0.087896076            1 
 1422000    1.0315855   -2.8173737     1489.128   0.08726723  0.087882579            4 
 1423000    1.0104606   -2.7972587    1488.9685  0.087196563  0.087869233            3 
 1424000    1.0262284   -2.8138853    1488.0209  0.087079877  0.087855793            3 
 1425000    1.0065614   -2.8010355     1489.359  0.087097015  0.087842499            2 
 1426000    1.0263228   -2.7686183     1490.458  0.087100165  0.087829038            2 
 1427000    1.0297303   -2.7772789    1489.4049  0.086977628  0.087815709            3 
 1428000    1.0126224   -2.8043447    1495.2017  0.087254999  0.087802382            3 
 1429000    1.0181229   -2.8007817    1493.3522  0.087086086  0.087789747            1 
 1430000    1.0293943   -2.8012376    1492.1843  0.086957126  0.087776641            3 
 1431000    1.0360322   -2.7995951     1498.336  0.087254602   0.08776384            2 
 1432000    1.0315505   -2.8011449    1498.8394  0.087222963    0.0877513            3 
 1433000     1.034474   -2.8002583    1497.2536  0.087069874  0.087738419            1 
 1434000    1.0260117   -2.7839598    1499.3004  0.087128101  0.087725139            2 
 1435000    1.0104233   -2.8290716    1495.9007  0.086869957  0.087711689            1 
 1436000    1.0092677   -2.7957101    1500.2266  0.087060502  0.087698065            1 
 1437000    1.0259735    -2.796081    1500.8357   0.08703524  0.087684689            2 
 1438000    1.0087434   -2.7844757    1504.1083  0.087164367  0.087671413            3 
 1439000    1.0428206   -2.8319019    1494.3858  0.086540758   0.08765792            1 
 1440000    1.0179169   -2.7977085    1502.3805  0.086943316  0.087644113            3 
 1441000   0.99741639   -2.8252741    1503.6716  0.086957645  0.087630502            2 
 1442000    1.0098845   -2.7768705    1504.2429  0.086930359  0.087617339            4 
 1443000    1.0291044   -2.7885467    1510.7631  0.087246659   0.08760472            4 
 1444000    1.0307506   -2.8112645    1507.1158  0.086975753  0.087591873            2 
 1445000    1.0245986   -2.8148595    1509.4071  0.087047697  0.087578782            1 
 1446000    1.0098292   -2.8069607    1509.4467  0.086989783  0.087565263            3 
 1447000   0.99697408   -2.7960925     1509.884  0.086954849  0.087551616            2 
 1448000    1.0275074   -2.8104161    1508.2055  0.086798201  0.087537972            1 
 1449000    1.0074669   -2.8360064    1509.2486  0.086798289  0.087523894            3 
 1450000    1.0038168   -2.7762481    1512.4908   0.08692476  0.087510247            2 
 1451000    1.0109664   -2.8115707    1515.6463  0.087046078  0.087496687            2 
 1452000    1.0045468   -2.7634886    1517.4379  0.087088954  0.087483257            3 
 1453000    1.0359451    -2.800811    1520.0783  0.087180446  0.087469746            1 
 1454000    1.0074169   -2.8262198    1509.9639  0.086540803  0.087456181            1 
 1455000    1.0304255   -2.7974086    1517.0516  0.086887261  0.087442371            5 
 1456000    1.0229401   -2.7767294    1525.1399  0.087290516  0.087428952            2 
 1457000    1.0215503   -2.7993874     1517.837  0.086812913  0.087415827            2 
 1458000    1.0079966   -2.8175299    1510.3242   0.08632397  0.087402071            2 
 1459000    1.0141515    -2.805531    1515.3416  0.086551384  0.087388367            1 
 1460000    1.0085504   -2.8285358    1523.0786  0.086933708  0.087374985            8 
 1461000    1.0039075    -2.793722    1517.5648  0.086559705   0.08736102            2 
 1462000    1.0164527   -2.8075124    1518.8419  0.086573298  0.087347445            4 
 1463000    1.0468677   -2.8147097    1524.0011  0.086807991  0.087333862            1 
 1464000    1.0282413   -2.8254109    1522.4957  0.086663009  0.087320114            1 
 1465000    1.0268817   -2.8103537     1522.724   0.08661684  0.087306442            2 
 1466000    1.0015533   -2.7870258    1519.2721  0.086361532  0.087292958            2 
 1467000     0.997096   -2.7949502    1520.5773  0.086376808  0.087279305            1 
 1468000    1.0363667   -2.8274406    1531.9508  0.086963603  0.087266181            3 
 1469000    1.0137956   -2.7897193    1530.0868  0.086798662  0.087252498            2 
 1470000    1.0314383   -2.8221406    1532.0463  0.086850696  0.087239396            1 
 1471000    1.0179729   -2.7913266    1528.6417  0.086598783  0.087225891            2 
 1472000   0.99919513   -2.8015083     1531.906   0.08672475  0.087212329            2 
 1473000    1.0112676   -2.7938531    1524.7223  0.086259463  0.087198939            1 
 1474000    1.0137091   -2.8089637    1530.7376  0.086541023  0.087185312            2 
 1475000    1.0289888   -2.7667045    1531.9496  0.086550825  0.087171806            2 
 1476000    1.0339116      -2.7788    1525.4316  0.086124188  0.087158486            3 
 1477000    1.0040965   -2.8260577    1533.0432   0.08649533  0.087144887            2 
 1478000    1.0050753   -2.8107755    1532.1029  0.086383792  0.087131004            2 
 1479000    1.0298576    -2.836999    1530.6774  0.086245062  0.087117516            2 
 1480000     1.008677   -2.8027566    1533.1776  0.086327565  0.087103652            2 
 1481000   0.98054669   -2.8024976    1538.3326  0.086559343  0.087090182            2 
 1482000    1.0205668   -2.8295509    1533.4608   0.08622699  0.087076253            1 
 1483000    1.0291451   -2.7959178    1538.6315  0.086459399  0.087062569            4 
 1484000    1.0167236   -2.7948814    1538.6084  0.086399841  0.087048472            1 
 1485000    1.0226085   -2.8319837    1541.1601  0.086484856  0.087034593            2 
 1486000    1.0171542   -2.8254021    1538.2144   0.08626146  0.087020877            4 
 1487000   0.98633629   -2.8052179    1538.6774  0.086229401  0.087006838            2 
 1488000    1.0333128   -2.7944462    1545.5825  0.086558162  0.086993835            2 
 1489000    1.0272622    -2.796502    1544.3123  0.086428938  0.086980372            4 
 1490000    1.0268698   -2.7951288    1545.4086  0.086432246  0.086966953            1 
 1491000   0.98787354   -2.8048565    1550.8138  0.086676378  0.086953544            4 
 1492000    1.0126859   -2.8201744    1540.1949  0.086025184  0.086940445            3 
 1493000    1.0022349   -2.8041601    1542.6764  0.086106073  0.086926743            2 
 1494000    1.0186515   -2.8299147    1544.0987  0.086127774  0.086912532            2 
 1495000    1.0166274   -2.7736214    1543.9673   0.08606284  0.086898496            2 
 1496000    1.0122769    -2.804695    1549.7586   0.08632791  0.086884612            6 
 1497000    1.0242065   -2.8020403    1551.0629  0.086342847  0.086871098            2 
 1498000    1.0038476   -2.8189189    1552.8056  0.086382152  0.086857919            1 
 1499000    1.0060107   -2.8121837    1548.1508  0.086065756  0.086844703            2 
 1500000    1.0106982   -2.8232288    1549.9894   0.08611052  0.086831282            2 
 1501000    1.0214853   -2.8064621     1543.512  0.085693539  0.086817542            5 
 1502000    1.0238804   -2.8062803    1557.6611  0.086421501    0.0868047            2 
 1503000    1.0104358   -2.8179882    1547.9964  0.085828145  0.086791425            2 
 1504000    1.0093614   -2.7907982    1550.5444  0.085912258  0.086778061            1 
 1505000    1.0150124   -2.7995591    1551.3303  0.085898688  0.086764202            1 
 1506000    1.0000866    -2.851694    1547.3988  0.085624106  0.086750498            2 
 1507000    0.9975474   -2.8214787     1551.803  0.085810827  0.086736681            4 
 1508000    1.0200082   -2.8049342    1555.5892  0.085963152  0.086722906            3 
 1509000    1.0122701   -2.8285011    1562.8272  0.086305897  0.086709159            1 
 1510000    1.0152752   -2.8078331    1558.4119  0.086005072    0.0866948            1 
 1511000    1.0067029    -2.804367    1556.6929  0.085853349  0.086680886            3 
 1512000   0.98590071   -2.8023769    1558.1983  0.085879534  0.086667039            2 
 1513000    1.0308836   -2.8117758    1562.6098  0.086065753  0.086652971            4 
 1514000    1.0275322   -2.8050904    1563.4786  0.086056728  0.086638834            5 
 1515000    1.0028224   -2.8073303    1564.2258  0.086041022  0.086624455            1 
 1516000    1.0029979   -2.8159321    1562.0889  0.085866805  0.086609744            4 
 1517000     1.016856   -2.8068448    1555.3743  0.085441349   0.08659576            2 
 1518000    1.0252548   -2.8215626    1561.0029  0.085694056  0.086580926            3 
 1519000    1.0041203   -2.8029262    1564.7715  0.085844389  0.086566055            1 
 1520000    0.9962515   -2.8071209    1562.2836  0.085651514  0.086551568            1 
 1521000   0.99678993   -2.8220227    1561.5308  0.085553957  0.086536594            2 
 1522000    1.0057701      -2.8425    1558.0773  0.085308659  0.086521532            1 
 1523000    1.0020868   -2.7621995    1564.1553  0.085585212  0.086507375            4 
 1524000    0.9901187   -2.8278958    1567.5472  0.085714522  0.086492457            1 
 1525000   0.99371325   -2.8276082    1560.7238  0.085285452  0.086477266            9 
 1526000    1.0053551   -2.8063737    1560.6592  0.085226039  0.086462238            1 
 1527000     1.024003   -2.8126126    1573.8884  0.085892186  0.086447187            2 
 1528000    1.0038054    -2.823643    1565.5324  0.085380259  0.086432178            2 
 1529000     1.025565   -2.8416398    1565.9615  0.085347805  0.086416633            2 
 1530000   0.99124081   -2.8306251    1569.2908  0.085473356  0.086401699            2 
 1531000     1.030434    -2.851829    1560.7001   0.08494993  0.086386321            4 
 1532000    1.0280496   -2.8058147    1569.5825  0.085377635  0.086371236            2 
 1533000    1.0325513   -2.8421057    1575.6418  0.085651327  0.086356246            6 
 1534000   0.99433766     -2.83135    1580.4607  0.085857276   0.08634179            2 
 1535000    1.0170584   -2.8471153    1574.0913  0.085455552  0.086326769            3 
 1536000    1.0149774   -2.8089382    1574.6623  0.085430898  0.086312707            3 
 1537000   0.99120075   -2.8072964    1578.1725   0.08556563  0.086298107            2 
 1538000    1.0090906   -2.8261136    1577.3936  0.085467794  0.086283569            1 
 1539000    1.0130634   -2.8192056    1579.5615  0.085529648  0.086269211            1 
 1540000    1.0387256   -2.8343666    1579.7256  0.085482987  0.086254436            1 
 1541000   0.99819045   -2.8324289    1575.9888  0.085225438  0.086239142            3 
 1542000   0.99415303   -2.8595278    1570.1688  0.084855641  0.086223768            1 
 1543000   0.98373885   -2.8256901    1583.1384  0.085501103  0.086208833            1 
 1544000   0.99587377   -2.8286127    1573.7504  0.084939035  0.086193854            5 
 1545000     1.000688   -2.8266421     1577.896   0.08510766  0.086178648            2 
 1546000    1.0307544   -2.8367399     1583.606  0.085360391   0.08616314            4 
 1547000    1.0021766   -2.7824984    1584.3445  0.085344997  0.086148043            2 
 1548000    1.0146387   -2.8192265    1579.0086  0.085002616  0.086132923            2 
 1549000    1.0044977   -2.8015272    1580.0015  0.085001154  0.086117618            2 
 1550000    1.0093219   -2.8251628    1578.9833  0.084891577  0.086102613            2 
 1551000     1.022137   -2.8189974    1587.4084  0.085289511  0.086087371            2 
 1552000    0.9957655   -2.8252835    1582.3851  0.084964838  0.086071731            1 
 1553000    1.0012133   -2.8099894    1588.8995  0.085259686  0.086056309            1 
 1554000    1.0291568   -2.8112903    1583.5563  0.084918292  0.086040998            1 
 1555000   0.99807255    -2.822531    1586.4199  0.085017145  0.086025892            3 
 1556000    1.0249241    -2.830066    1578.0003  0.084511584  0.086010074            5 
 1557000    0.9998531   -2.8271201    1591.6356  0.085187091  0.085994594            3 
 1558000    1.0159699   -2.8058372    1594.3546  0.085277843  0.085979033            1 
 1559000    1.0055652   -2.8473274    1593.4502  0.085174801  0.085963899            2 
 1560000    1.0062084   -2.8063629    1588.5854  0.084860331  0.085948668            1 
 1561000    0.9964852   -2.8479241    1589.2345  0.084840622  0.085932966            3 
 1562000    1.0011296   -2.8711927    1583.3733  0.084473608  0.085917513            2 
 1563000    1.0013532   -2.8323413    1595.6806  0.085075739  0.085902552            1 
 1564000    0.9984878   -2.8151685    1599.5112   0.08522545  0.085888349            2 
 1565000    1.0054893   -2.8180193    1597.1611  0.085045853  0.085873784            1 
 1566000    1.0026254   -2.8522501    1595.9116  0.084925055  0.085859616            3 
 1567000   0.98674538   -2.8229166    1597.1561  0.084937042  0.085845318            1 
 1568000   0.99684121   -2.7972684    1598.4251  0.084950314  0.085831022            1 
 1569000   0.99523259   -2.8265027    1600.2959  0.084995535  0.085816856            1 
 1570000     1.004252   -2.8174089     1605.107  0.085196763  0.085803032            2 
 1571000   0.99766267   -2.8073488    1609.7044  0.085386399  0.085789007            2 
 1572000   0.99759671    -2.825217    1605.9123  0.085131058   0.08577521            2 
 1573000    1.0103437   -2.8149484    1601.1787  0.084826165  0.085760931            4 
 1574000    1.0149926    -2.847957    1605.6289  0.085007886  0.085746411            2 
 1575000   0.99963655   -2.8135205     1606.721  0.085011691   0.08573157            3 
 1576000   0.98698529   -2.7996627    1610.5881  0.085162228  0.085717445            3 
 1577000    1.0189237   -2.7995512    1610.9096  0.085125215  0.085703408            4 
 1578000   0.98820529    -2.851301    1607.6637  0.084899855  0.085689282            3 
 1579000   0.99698514   -2.8401781    1613.1814  0.085137293  0.085675468            4 
 1580000   0.97615143    -2.817446    1610.2465  0.084928615  0.085661821            2 
 1581000    1.0023365   -2.8363004    1611.3517   0.08493315  0.085647829            4 
 1582000    1.0029636   -2.8148618      1613.22  0.084977874  0.085633964            3 
 1583000   0.99050205   -2.8594711    1613.9071  0.084960364  0.085620341            2 
 1584000    1.0228304    -2.833325     1615.669   0.08499942  0.085607145            2 
 1585000    1.0005457   -2.8444065    1611.2195  0.084711853  0.085593129            2 
 1586000    1.0013668   -2.8208541    1620.4619  0.085144069  0.085579557            3 
 1587000   0.96426448   -2.8097191    1618.1101  0.084966925  0.085565227            2 
 1588000    1.0108821   -2.8271419    1616.8421  0.084846876  0.085551212            1 
 1589000    1.0135732   -2.8410798    1608.8068  0.084372076   0.08553698            2 
 1590000   0.96116959   -2.7974884     1624.503  0.085141667  0.085522972            2 
 1591000   0.98140595   -2.7992412    1618.3738  0.084767119  0.085508737            2 
 1592000   0.98631195   -2.8533983    1620.5372  0.084827115  0.085494727            3 
 1593000    1.0088692   -2.8114754    1620.0027  0.084745906  0.085480621            2 
 1594000   0.98261538   -2.8198799    1621.9971  0.084797006  0.085466325            2 
 1595000   0.97984718   -2.8409455    1626.1737  0.084962055   0.08545212            3 
 1596000    1.0208792   -2.8461184    1615.1403  0.084332725  0.085438296            3 
 1597000    1.0020066   -2.8563027    1621.5392   0.08461382  0.085424226            1 
 1598000   0.99433884   -2.8182887    1624.4343   0.08471184  0.085410369            2 
 1599000   0.99657876   -2.8271657    1620.7486   0.08446678  0.085396424            1 
 1600000   0.98412758   -2.8284663    1627.6887  0.084775453  0.085382501            2 
 1601000   0.99900928   -2.8369452    1628.4444  0.084761837   0.08536871            5 
 1602000    0.9853822   -2.7992603    1635.7177  0.085087273  0.085355349            2 
 1603000   0.98023735   -2.8133595    1628.1931  0.084643018  0.085341979            2 
 1604000    1.0034909   -2.8423365     1629.771  0.084672226  0.085328581            1 
 1605000    1.0021314   -2.8395882    1626.9331  0.084472124  0.085315376            3 
 1606000   0.97631381   -2.8672385    1636.1289  0.084896684  0.085301826            2 
 1607000   0.99762406   -2.8526522     1634.772   0.08477349  0.085288547            1 
 1608000    1.0081577   -2.8344769    1641.7884  0.085084392  0.085275657            2 
 1609000   0.98064925   -2.8019307    1643.9488  0.085143401  0.085262661            3 
 1610000   0.98332367   -2.8424401    1642.9003  0.085036246  0.085249869            1 
 1611000    1.0173311   -2.8310303    1637.8727  0.084723395  0.085237335            2 
 1612000    1.0072844   -2.8041275    1652.3558   0.08541955  0.085224993            2 
 1613000    1.0057662   -2.8495581    1641.3951  0.084800327  0.085212736            2 
 1614000   0.99047487   -2.8428948    1640.5172  0.084702459  0.085200052            3 
 1615000     1.021665   -2.8460418    1646.9718  0.084983065  0.085187914            2 
 1616000   0.97308925   -2.8266613    1644.5294  0.084804526   0.08517535            2 
 1617000   0.99212092   -2.8359204    1649.6217  0.085014519   0.08516286            2 
 1618000   0.99624738   -2.8192277    1649.4077  0.084950954  0.085150222            8 
 1619000    1.0030056   -2.8375487    1648.1037  0.084831363  0.085137872            2 
 1620000    1.0206248   -2.8416055    1651.4296  0.084950082    0.0851253            1 
 1621000   0.99697024   -2.8176851     1650.778  0.084864176  0.085112538            3 
 1622000    1.0120542   -2.8473986    1651.2537  0.084836298  0.085099857            1 
 1623000   0.97836737   -2.8265685    1654.8889  0.084970678  0.085087389            2 
 1624000   0.98021821   -2.8252753    1652.5303  0.084797328  0.085074978            2 
 1625000   0.99981871   -2.8410326    1651.4304  0.084688739  0.085061942            5 
 1626000    1.0005461   -2.8270268    1653.5212   0.08474381  0.085049381            1 
 1627000   0.97697808   -2.8369159    1657.3551  0.084888094  0.085036892            2 
 1628000    0.9803502   -2.8641703    1653.0386  0.084614998  0.085024353            4 
 1629000   0.99607075   -2.8434268    1661.9417  0.085018502  0.085011819            6 
 1630000   0.99505567   -2.8467144    1648.2008  0.084263846  0.084998991            2 
 1631000   0.98795779   -2.8215064    1659.2425  0.084776339  0.084986253            3 
 1632000    1.0031151    -2.840923    1662.2386  0.084877378    0.0849741            2 
 1633000    1.0112847   -2.8549505    1661.3118  0.084778107  0.084961784            2 
 1634000   0.99342833   -2.8135042    1661.8753  0.084754961  0.084949255            1 
 1635000    1.0097542   -2.8178077    1661.3432  0.084676005  0.084936489            3 
 1636000    1.0089059   -2.8477774     1659.071  0.084508509  0.084923733            2 
 1637000   0.97514176   -2.8435306    1658.9056  0.084448462  0.084910683            4 
 1638000   0.98583135   -2.8419787     1661.146  0.084510886  0.084897864            1 
 1639000    0.9908169   -2.8350253    1661.2616  0.084465204   0.08488488            3 
 1640000   0.95981972   -2.8338947    1660.1902   0.08435926  0.084871637            2 
 1641000   0.96677158   -2.8131699    1653.9624  0.083991591  0.084858605            2 
 1642000   0.98503498   -2.8149371    1659.4983  0.084221392  0.084845672            3 
 1643000     0.972222   -2.8336034    1662.9811  0.084346777  0.084832144            2 
 1644000    0.9563625   -2.8630012    1660.7545  0.084182607  0.084818746            2 
 1645000    1.0015934   -2.8220828    1668.4808  0.084522835  0.084805586            3 
 1646000   0.97838338   -2.8277304     1667.932  0.084443704  0.084792487            2 
 1647000   0.99780391   -2.8468411    1668.0619  0.084399004  0.084779328            5 
 1648000   0.99225921   -2.8344533    1670.5956  0.084475912  0.084765829            1 
 1649000   0.97577488   -2.8450796    1671.3491  0.084462758  0.084752977            1 
 1650000   0.98261475   -2.8413576    1671.5397  0.084421194  0.084739943            4 
 1651000   0.99700086   -2.8222503    1669.1606  0.084249979  0.084727563            2 
 1652000   0.98184116   -2.8698054    1670.6227  0.084272737  0.084714556            2 
 1653000    0.9902269   -2.8386553    1664.1129  0.083893571  0.084701682            2 
 1654000   0.96924857   -2.8499116    1674.7256  0.084377549  0.084688926            2 
 1655000   0.98869649   -2.8619249    1682.5697  0.084721537  0.084676494            6 
 1656000    1.0043052   -2.8495947    1675.4343  0.084311307  0.084664051            3 
 1657000   0.99086056   -2.8616922    1677.7593  0.084377352  0.084651379            2 
 1658000   0.97954358   -2.8513254    1674.9429  0.084184908  0.084638628            2 
 1659000   0.98342909   -2.8203208    1683.9545  0.084586825   0.08462609            2 
 1660000    0.9684468   -2.8467346    1682.5742  0.084466575  0.084613535            2 
 1661000   0.97421353   -2.8502861     1680.616  0.084317481   0.08460144            1 
 1662000   0.97816747   -2.8623166    1682.1249  0.084342405   0.08458857            1 
 1663000   0.98295632   -2.8669119    1677.5268  0.084061276  0.084575978            2 
 1664000   0.96721201   -2.8153642    1681.1396  0.084191685  0.084563662            3 
 1665000   0.98523974    -2.841308    1685.3637  0.084352537  0.084551424            3 
 1666000   0.99228485   -2.8386664    1687.4698  0.084407252  0.084538975            2 
 1667000   0.98720877   -2.8590637    1684.7069  0.084218502  0.084526676            2 
 1668000   0.99310175   -2.8118365    1692.6429  0.084564492  0.084514326            2 
 1669000   0.99041045   -2.8332519    1690.2286  0.084393279  0.084502156            4 
 1670000   0.98290108   -2.8395251    1690.8019  0.084371352  0.084490363            3 
 1671000   0.98091496   -2.8649711    1694.0691  0.084483799  0.084478401            2 
 1672000   0.99870645   -2.8410898     1694.929  0.084476129  0.084466261            1 
 1673000   0.98167532   -2.8392475    1694.6844  0.084413447  0.084454419            2 
 1674000   0.99283932   -2.8225889    1700.3521  0.084645168  0.084442414            2 
 1675000    0.9662971   -2.8408778    1691.0391  0.084131298  0.084430434            2 
 1676000   0.99641551   -2.8703062    1691.3744  0.084097773  0.084417813            2 
 1677000   0.97912278   -2.8328877    1693.9921  0.084177703  0.084405049            3 
 1678000   0.96604513   -2.8640066    1691.7174   0.08401457  0.084392885            1 
 1679000    1.0075271   -2.8363257    1691.0296  0.083930396  0.084380573            1 
 1680000   0.98877589   -2.8117908     1698.854  0.084268552  0.084368233            2 
 1681000   0.96863988   -2.8540611    1697.5162  0.084152104  0.084355749            3 
 1682000   0.98452686   -2.8508268    1697.7667  0.084114481  0.084342666            4 
 1683000   0.98763038   -2.8459439     1694.916  0.083923352  0.084330463            2 
 1684000     0.969903   -2.8635577    1695.4399  0.083899438   0.08431774            3 
 1685000   0.98060249   -2.8657318    1696.9352  0.083923602  0.084304908            1 
 1686000   0.96149187   -2.8425416    1694.7937  0.083767978  0.084292131            2 
 1687000   0.98718387   -2.8297006    1698.3135  0.083892192  0.084279427            4 
 1688000   0.98367142   -2.8901224    1696.2751  0.083741861  0.084266603            2 
 1689000   0.98654498   -2.8200716     1697.127  0.083734311  0.084253358            2 
 1690000   0.97791954   -2.8310519    1701.7412  0.083912286  0.084240391            4 
 1691000   0.98045419   -2.8280809    1703.8035  0.083964295  0.084227785            4 
 1692000   0.99408555   -2.8258607    1708.6306  0.084152411  0.084214935            4 
 1693000   0.95964577   -2.8789212      1701.52  0.083752705  0.084201729            5 
 1694000    1.0152329   -2.8546705    1702.3972   0.08374642  0.084188636            1 
 1695000   0.98689658   -2.8322476    1703.6703    0.0837596  0.084175683            3 
 1696000   0.99313955   -2.8454636    1708.8767  0.083966031  0.084162566            1 
 1697000   0.97858336   -2.8564868     1713.297  0.084133617  0.084149419            1 
 1698000   0.99941462   -2.8585199    1709.3822  0.083891942  0.084136316            3 
 1699000   0.97446438   -2.8478447    1708.3212  0.083790525   0.08412332            2 
 1700000   0.96813009   -2.8483291    1703.9418  0.083526556  0.084110498            9 
 1701000   0.98268542   -2.8663985    1703.9394  0.083477335  0.084097547            2 
 1702000   0.97446416   -2.8693937    1704.4291  0.083452267  0.084084613            1 
 1703000   0.96802442   -2.8347522    1707.6721  0.083561954  0.084071804            3 
 1704000   0.97027363   -2.8341503    1713.7273  0.083809042  0.084058806            2 
 1705000   0.98418644   -2.8437278    1713.4808   0.08374784  0.084046102            6 
 1706000   0.95912939   -2.8677524    1715.3551  0.083790304  0.084032916            4 
 1707000   0.97665741   -2.8518912    1713.1671  0.083634401  0.084019911            3 
 1708000   0.97197407   -2.8641401    1718.6891  0.083854854   0.08400703            5 
 1709000   0.99144279   -2.8748952     1708.719  0.083319633  0.083994217            2 
 1710000   0.99158262   -2.8399015    1728.7406  0.084246617  0.083981088            3 
 1711000   0.98542015   -2.8691793    1715.6102  0.083557869  0.083968366            5 
 1712000   0.99596064   -2.8532298      1709.55  0.083214075  0.083955294            6 
 1713000   0.98348534   -2.8539622    1727.2628  0.084027184  0.083942524            2 
 1714000    0.9637214   -2.8466748    1713.3731  0.083302853  0.083929637            3 
 1715000   0.97269285   -2.8423555    1721.4954  0.083648949  0.083916738            3 
 1716000   0.97895799   -2.8388682    1725.4685  0.083793147  0.083904108            5 
 1717000   0.97323189   -2.8431378    1723.6183  0.083654546  0.083891534            3 
 1718000    0.9743431    -2.867457    1722.5187  0.083552517  0.083878976            2 
 1719000    1.0008535   -2.8392557    1726.4996  0.083696896  0.083866287            4 
 1720000   0.98553741   -2.8408287    1720.6523  0.083364938   0.08385358            2 
 1721000   0.98126678    -2.858213    1721.7952   0.08337184  0.083840984            3 
 1722000   0.95292411   -2.8604633    1728.3259  0.083639465  0.083828314           12 
 1723000   0.96451774   -2.8265925     1720.276  0.083201588   0.08381558            2 
 1724000   0.97977124   -2.8570136    1722.0904  0.083241029  0.083802905            4 
 1725000   0.96068527   -2.8707613    1723.9675  0.083283456  0.083789813            2 
 1726000   0.98643865   -2.8481325    1732.0784  0.083626805  0.083776684            3 
 1727000   0.97587039   -2.8406731    1728.2099  0.083391717  0.083764137            3 
 1728000   0.98231873    -2.855848    1730.9748  0.083476792  0.083751311            6 
 1729000   0.98361922   -2.8794398    1728.3123  0.083300187  0.083738606            2 
 1730000   0.98290226   -2.8703687    1727.2561  0.083201159  0.083725446            4 
 1731000   0.96669355   -2.8412707    1735.4087  0.083545577  0.083712752            3 
 1732000   0.98654689   -2.8652809    1733.2068  0.083391396  0.083700391            2 
 1733000   0.97699721   -2.8542229    1733.2578  0.083345732  0.083687667            3 
 1734000   0.98464142   -2.8897604     1727.047  0.082999181  0.083675133            3 
 1735000   0.96390657   -2.8665312    1738.6131  0.083506875  0.083662494            3 
 1736000   0.97614494   -2.8505102    1733.4992  0.083213286  0.083650259            3 
 1737000   0.96687533   -2.8510118    1738.4123  0.083401091  0.083637771            4 
 1738000   0.99068832    -2.856571    1738.8844  0.083375737  0.083625595            1 
 1739000   0.97159018   -2.8794894    1735.4851    0.0831649  0.083612866            3 
 1740000   0.98295721   -2.8665859    1735.0665  0.083097057  0.083600294            4 
 1741000   0.96356665   -2.8785381    1735.0295  0.083047554  0.083587584            3 
 1742000   0.98690109   -2.8287372    1740.0442  0.083239774  0.083574876            1 
 1743000   0.96744188   -2.8638186    1747.0574   0.08352732  0.083562535            2 
 1744000    0.9821004   -2.8573838    1743.0356   0.08328725   0.08354995            3 
 1745000   0.94817691   -2.8701066    1741.8887   0.08318475  0.083537146            2 
 1746000   0.96586956   -2.8645588    1746.5469  0.083359435  0.083524087            2 
 1747000   0.96570445   -2.8575335    1750.5079  0.083500665   0.08351135            1 
 1748000    0.9720056   -2.8429511    1743.3624  0.083112243  0.083498698            3 
 1749000   0.97484092   -2.8668252    1741.9604  0.082997922   0.08348638            3 
 1750000   0.96836555   -2.8355515    1752.0084  0.083428973  0.083473752            2 
 1751000   0.96855167   -2.8556968    1753.2447  0.083440163  0.083461507            2 
 1752000   0.98248572   -2.8483038    1747.8464  0.083135768  0.083449058            3 
 1753000   0.97754782    -2.879358    1746.4705  0.083022937  0.083436222            2 
 1754000   0.98071575   -2.8656774    1758.6884   0.08355608  0.083424134            1 
 1755000   0.97527322   -2.8820284    1748.5139  0.083025351  0.083411506            4 
 1756000    0.9740133   -2.8537065    1750.2383  0.083059905  0.083399299            2 
 1757000   0.98295056   -2.8550519    1752.4699  0.083118473   0.08338664            1 
 1758000   0.95448285   -2.8834906    1751.3453  0.083017885  0.083374145            6 
 1759000   0.98117871   -2.8697787    1754.0738  0.083099953  0.083361319            3 
 1760000   0.98783529   -2.8689537    1756.8128  0.083182425  0.083348138            4 
 1761000   0.99207341   -2.8558552    1745.3863  0.082594467   0.08333471            6 
 1762000   0.95243145   -2.8610282     1752.723  0.082894582  0.083321539            3 
 1763000   0.97066565   -2.8473007    1755.1437  0.082961981  0.083308822            3 
 1764000   0.96753033   -2.8623055    1759.7659  0.083133311  0.083296093            5 
 1765000   0.97049741   -2.8384939    1755.2966  0.082875193   0.08328312            2 
 1766000   0.99297049   -2.8763791    1753.7861  0.082756987  0.083270213            4 
 1767000   0.97297168   -2.8463594    1762.6139  0.083126479  0.083257077            2 
 1768000    0.9664069   -2.8427255    1760.9983  0.083003315  0.083244177            1 
 1769000   0.96911644   -2.8401096    1757.2058  0.082777735  0.083231462            2 
 1770000   0.95725228   -2.8516009    1760.4873  0.082885465  0.083218753            2 
 1771000    0.9690357   -2.8781364    1763.8152  0.082995259  0.083205891            2 
 1772000    0.9672089    -2.882839    1763.4302  0.082930316   0.08319359            3 
 1773000   0.97711482   -2.8692989    1758.3519  0.082644853  0.083181245            2 
 1774000   0.97546115   -2.8674919    1768.1439  0.083058246  0.083168897            2 
 1775000   0.95897024   -2.8673353     1768.219  0.083014975  0.083156325            1 
 1776000   0.96842934   -2.8822319    1767.1341  0.082917327  0.083143953            2 
 1777000   0.98386393   -2.8637004    1769.2123  0.082968123  0.083131549            6 
 1778000   0.98396202    -2.862711    1771.5682  0.083031879  0.083119498            3 
 1779000   0.97263234   -2.8531103    1766.1614  0.082731937  0.083107041            3 
 1780000    0.9729606    -2.864978    1775.3764  0.083116874  0.083094592            3 
 1781000   0.96585797   -2.8432015    1772.0794  0.082915936  0.083082499            3 
 1782000   0.96886729   -2.8882132    1775.0278  0.083007284  0.083070034            2 
 1783000   0.98370596   -2.8725754    1765.3795  0.082509793  0.083057316            4 
 1784000   0.96449259   -2.8707627    1774.6986   0.08289885  0.083044748            2 
 1785000   0.98220188   -2.8673532    1772.5436  0.082751804  0.083032182            2 
 1786000   0.96308552   -2.8826948    1769.2759  0.082553002  0.083019554            2 
 1787000   0.96169671   -2.8447541    1776.4354  0.082840673  0.083006939            4 
 1788000   0.95013298   -2.8721467    1785.9195  0.083236368  0.082994875            4 
 1789000   0.97396756   -2.8710605    1775.8966  0.082722966  0.082982551            3 
 1790000   0.96581615   -2.8564714    1775.5463   0.08266044  0.082970271            2 
 1791000   0.99024443    -2.879665    1777.5923  0.082709487  0.082958278            3 
 1792000   0.95505204   -2.8770317    1776.1583  0.082596645  0.082946252            1 
 1793000   0.95107567    -2.869812    1779.9015  0.082724552   0.08293422            2 
 1794000   0.95195448   -2.8975624    1777.6129  0.082572133  0.082921952            2 
 1795000   0.93777322    -2.869107    1788.2286  0.083018972   0.08290959            1 
 1796000    0.9579229   -2.8602856    1777.4153  0.082471015  0.082896887            2 
 1797000   0.97992692   -2.8843338    1780.4465  0.082565687  0.082884526            2 
 1798000   0.96696248   -2.8931631    1785.1852  0.082739398  0.082872091            2 
 1799000   0.98172812   -2.8670388    1783.1401  0.082598671  0.082859676            1 
 1800000   0.96615405   -2.8570757    1785.6496  0.082668964  0.082847645            5 
 1801000   0.95611134    -2.852423    1786.8078  0.082676652  0.082835111            1 
 1802000   0.97111378   -2.8640772    1776.3619    0.0821477  0.082822157            2 
 1803000   0.94447168   -2.8808615     1780.879  0.082310919  0.082809241            2 
 1804000   0.95522163   -2.8677477    1792.7507  0.082813687  0.082796499            4 
 1805000    0.9658689   -2.8721229    1778.7785  0.082122737  0.082783409            5 
 1806000   0.95116334   -2.8891887    1788.6691  0.082533642  0.082770065            2 
 1807000   0.99258229   -2.8825288    1784.5443  0.082297746  0.082756977            3 
 1808000   0.96297086   -2.8804788    1786.7043  0.082351782  0.082743952            5 
 1809000   0.95907507   -2.8701566    1794.0152  0.082643042  0.082731139            4 
 1810000    0.9831551   -2.8985281    1787.8988  0.082315781  0.082718758            3 
 1811000   0.94764357   -2.8976167    1791.7526  0.082447661  0.082705979            4 
 1812000    1.0007073   -2.8755396    1788.8351  0.082267988  0.082693394            4 
 1813000   0.95196078   -2.8669594    1788.3153  0.082198717  0.082680345            3 
 1814000   0.95321056   -2.8919221    1795.7033  0.082492803  0.082667152            1 
 1815000   0.95270118   -2.8699831    1792.5436  0.082302277  0.082654414            3 
 1816000   0.96644254   -2.8494879    1790.7132  0.082172965  0.082641507            3 
 1817000    0.9488056   -2.9097434    1789.5008  0.082072133  0.082628462            4 
 1818000   0.96981309   -2.8523246    1793.7489  0.082221712  0.082615497            1 
 1819000   0.96081791   -2.8861233    1794.8804  0.082228347  0.082602769            3 
 1820000   0.96320889   -2.9031932    1783.3808  0.081656631  0.082589861            3 
 1821000   0.96908907   -2.9243186    1793.3956  0.082070089  0.082576426            3 
 1822000   0.96044269   -2.8503317    1788.2657  0.081790417  0.082563049            3 
 1823000   0.96118938   -2.8845464    1791.4917  0.081893021  0.082549666            5 
 1824000   0.97812001   -2.8668725    1799.5293  0.082215338  0.082535936            3 
 1825000    0.9434182    -2.877755    1794.7453  0.081951842  0.082522364            3 
 1826000   0.94613517   -2.8482099    1804.4424  0.082349509  0.082508807            4 
 1827000    0.9790077   -2.8617765    1800.2917  0.082115112  0.082495306            3 
 1828000   0.96098304   -2.8777574    1795.2687  0.081841205   0.08248163            1 
 1829000   0.94946254   -2.8875434     1801.168  0.082065245  0.082468042            1 
 1830000    0.9715973   -2.8608704     1789.469  0.081487659  0.082454636            1 
 1831000   0.96673868   -2.8790811    1797.8763  0.081825792   0.08244103            4 
 1832000   0.95264304   -2.8855204    1798.5924    0.0818137  0.082427283            4 
 1833000   0.97658454   -2.8742375    1808.0421  0.082198678   0.08241404            2 
 1834000   0.95555898   -2.8548657    1801.9474  0.081876927  0.082400603            1 
 1835000    0.9559498   -2.9079679    1806.6952  0.082047921  0.082387282            2 
 1836000   0.96397188    -2.868131    1804.1722  0.081888716  0.082373966            4 
 1837000   0.97435197   -2.9168183    1806.5618  0.081952538  0.082360467            4 
 1838000   0.95414421   -2.8906674    1803.0428  0.081748403  0.082347394            3 
 1839000    0.9549788   -2.8757452     1803.141  0.081708399   0.08233396            4 
 1840000   0.96032385   -2.8804115    1805.2763  0.081760702  0.082320602            3 
 1841000   0.97291277   -2.8650702    1809.4424   0.08190487  0.082307428            2 
 1842000    0.9480613   -2.8647173    1812.0512  0.081978431  0.082293886            1 
 1843000    0.9487585   -2.9071701     1802.642  0.081508502  0.082280447            3 
 1844000    0.9610492   -2.8718564    1807.1023  0.081665868  0.082266476            3 
 1845000   0.94043198   -2.9137526    1804.4284  0.081500832  0.082252785            4 
 1846000     0.946938   -2.8900806     1806.056  0.081530156  0.082238969            2 
 1847000   0.95586496    -2.894324    1800.0766  0.081216232   0.08222542            3 
 1848000   0.97149386   -2.8957788    1814.0373  0.081801827  0.082211746            5 
 1849000   0.97065786    -2.868853    1812.1278  0.081671525  0.082198076            3 
 1850000   0.97710221    -2.857219    1815.7629   0.08179112  0.082184453            4 
 1851000   0.92827236   -2.8870533    1813.6018  0.081649639  0.082170678            5 
 1852000   0.95432435   -2.8642706    1807.6511  0.081337791  0.082156683            6 
 1853000   0.96791437   -2.9075769    1812.4007  0.081507495  0.082143199            3 
 1854000    0.9470344   -2.8787974    1812.1616  0.081452788  0.082129308            3 
 1855000   0.94138304   -2.8528021    1820.0183  0.081761828  0.082115431            2 
 1856000   0.94832329    -2.848572    1819.4903  0.081694068   0.08210152            1 
 1857000   0.95845687   -2.8834382    1811.6382  0.081297713  0.082087735            2 
 1858000   0.95075421   -2.8990485    1808.7964  0.081126499  0.082073516            3 
 1859000   0.93500213   -2.8793891     1814.109  0.081321005  0.082059427            3 
 1860000    0.9450609   -2.8861208    1816.9479  0.081404475   0.08204515            1 
 1861000   0.94529396   -2.9122213    1816.7885  0.081353596  0.082031235            2 
 1862000   0.95298919   -2.8716793     1818.119   0.08136945  0.082017137            1 
 1863000   0.93983231   -2.8972194    1807.5485  0.080852948  0.082003001            3 
 1864000   0.94925416   -2.8863474    1816.5876  0.081213679  0.081988972            2 
 1865000   0.94553345   -2.8804161    1819.8619  0.081316437  0.081975162            3 
 1866000   0.94192554   -2.8678358    1823.7013  0.081444325  0.081960965            3 
 1867000   0.96468018   -2.8909449    1820.7449  0.081268744  0.081946913            3 
 1868000   0.95314455   -2.8779642    1819.0763    0.0811508  0.081933014            6 
 1869000   0.95987753   -2.9080276    1814.3544  0.080896845  0.081919051            5 
 1870000   0.95644592   -2.8970049    1827.6815  0.081447482  0.081904782            2 
 1871000   0.96292344    -2.882789    1825.3508   0.08130014  0.081891028            2 
 1872000   0.96206812   -2.8557169     1825.627  0.081269007  0.081877427            2 
 1873000   0.94807057   -2.8865796    1827.2983  0.081299978  0.081863669            4 
 1874000   0.93199929   -2.8981409    1828.0253  0.081288925  0.081849754            3 
 1875000    0.9383938    -2.884281    1824.4746  0.081087758  0.081836149            3 
 1876000   0.94815213   -2.9091619    1824.1856  0.081031698  0.081822271            3 
 1877000   0.95276734   -2.8696155    1831.5571  0.081315802  0.081808465            1 
 1878000   0.93245338   -2.9133958    1829.7435  0.081192026  0.081794576            3 
 1879000   0.94411802   -2.8936895    1826.5885  0.081008893  0.081780652            4 
 1880000   0.95226572   -2.8835597    1826.3256  0.080954149  0.081766997            2 
 1881000    0.9593722   -2.8790477    1830.7832  0.081108594  0.081753684            2 
 1882000   0.94921137   -2.8913623    1834.3123  0.081221763  0.081740208            3 
 1883000   0.94878891    -2.874086    1838.4361   0.08136113   0.08172683            2 
 1884000   0.94814765   -2.8882469    1835.8603  0.081204013  0.081713382            3 
 1885000    0.9607866    -2.889129    1839.7608  0.081333369  0.081700123            3 
 1886000   0.94211363   -2.8561358    1841.5967  0.081371363  0.081687249            4 
 1887000   0.95613993   -2.9024406     1843.696   0.08142095   0.08167388            1 
 1888000   0.94845547   -2.8767978    1839.3239  0.081184846  0.081660939            5 
 1889000   0.93656255   -2.9218275    1833.2726  0.080874917  0.081647405            1 
 1890000   0.93660988   -2.8932222    1837.4916  0.081018148  0.081633994            2 
 1891000   0.94452264   -2.8836204    1855.1825  0.081754914  0.081620893            2 
 1892000   0.94871392   -2.8907528    1843.8038  0.081210527  0.081607782            2 
 1893000   0.95135378   -2.9158156    1843.2619  0.081143771    0.0815948            5 
 1894000   0.94574335   -2.8951106    1836.9419  0.080822858  0.081581444            3 
 1895000   0.95786006   -2.8806064    1835.3093  0.080708411  0.081568037            2 
 1896000   0.95469514    -2.890075    1841.2685  0.080927763  0.081555023            1 
 1897000   0.94495162   -2.8954891    1850.2136  0.081278053  0.081541934            4 
 1898000   0.95269108    -2.896575    1847.9969  0.081137903  0.081528587            2 
 1899000   0.98434878   -2.9058771    1849.2019  0.081148057  0.081515289            2 
 1900000   0.95610426   -2.8809361    1856.4994  0.081425414  0.081502495            2 
 1901000   0.94682975   -2.8891065    1856.1233  0.081366093  0.081489585            4 
 1902000   0.96115522   -2.8917797    1854.8141  0.081265954   0.08147694            2 
 1903000   0.95726432   -2.8796957    1857.8862  0.081357778  0.081464578            1 
 1904000   0.94547323   -2.8937315    1860.0942  0.081411686  0.081452042            3 
 1905000   0.96549527   -2.8845722    1854.2005  0.081111134  0.081439558            4 
 1906000   0.92885827   -2.8946319    1861.3706  0.081382066  0.081427061            3 
 1907000    0.9284365   -2.8916534    1859.0092  0.081236199   0.08141462            2 
 1908000   0.93810465   -2.9163791    1851.6942  0.080874135   0.08140235            2 
 1909000   0.96115425   -2.9227838    1862.3257  0.081295864  0.081389798            2 
 1910000   0.93481389   -2.8832218     1864.799  0.081361214  0.081377705            2 
 1911000    0.9264622   -2.9222523    1862.5338   0.08121986  0.081365156            2 
 1912000   0.94796572   -2.9065271    1863.4102  0.081215579  0.081352638            3 
 1913000   0.95102567   -2.8925896    1858.9684   0.08097963  0.081340265            1 
 1914000   0.93770857   -2.8778014    1867.0301  0.081288316  0.081327762            3 
 1915000    0.9280283   -2.8850905    1870.5299  0.081398167  0.081315617            2 
 1916000   0.96187754    -2.882076     1868.074   0.08124887  0.081303231            2 
 1917000   0.93248618   -2.9130362    1860.0422  0.080857337  0.081290701            2 
 1918000   0.93055945   -2.8983999    1866.7057  0.081104698  0.081277745            3 
 1919000   0.92318338   -2.9049301    1867.3861  0.081091981  0.081264837            2 
 1920000   0.94900367   -2.8955043    1865.5544  0.080970243  0.081252114            1 
 1921000   0.94368953   -2.8821639    1873.8837  0.081289418  0.081239219            2 
 1922000   0.93918387   -2.8864674    1865.8941  0.080900714  0.081226569            4 
 1923000   0.94339483   -2.8862088    1864.3211   0.08079048  0.081214017            2 
 1924000   0.94527942   -2.8997223    1864.8945  0.080773322  0.081201105            3 
 1925000   0.92213723   -2.9176538    1868.1263  0.080871271  0.081188478            4 
 1926000   0.93769456   -2.8997889    1873.8282  0.081075985   0.08117573            2 
 1927000    0.9182693   -2.8785976    1870.3899  0.080885224  0.081162861            3 
 1928000    0.9424438   -2.9148679    1871.6437  0.080897465  0.081150009            5 
 1929000   0.95802011   -2.8945867    1872.0181  0.080871699  0.081137297            2 
 1930000   0.94524482   -2.9281331    1872.0317  0.080830382  0.081124666            4 
 1931000   0.95155998   -2.8921191    1873.3531   0.08084555  0.081111883            5 
 1932000   0.94819078   -2.9244214    1871.5508  0.080725967  0.081099045            4 
 1933000   0.93595254   -2.8910826    1872.4308   0.08072214  0.081086225            1 
 1934000   0.92463889   -2.9167024    1876.6159  0.080860732   0.08107326            2 
 1935000   0.92712831   -2.9053996    1870.0667  0.080536897  0.081060493            4 
 1936000    0.9414678   -2.8915339    1878.8587  0.080873738  0.081047415            1 
 1937000   0.94626959    -2.915326    1874.4701  0.080643182  0.081034269            1 
 1938000   0.92987848   -2.9073105    1880.4791  0.080859954  0.081021559            2 
 1939000    0.9398408   -2.9069228     1873.092  0.080500772  0.081008506            3 
 1940000   0.95018531    -2.898176    1879.7758  0.080746383  0.080995607            4 
 1941000   0.93713057   -2.9298721    1875.4297  0.080518189   0.08098249            2 
 1942000   0.92233326   -2.8741805    1885.1084  0.080892051  0.080969483            2 
 1943000   0.97165778   -2.8977965    1877.1966  0.080511091  0.080956283            3 
 1944000   0.94244011   -2.8844081    1883.3083  0.080731668  0.080943177            3 
 1945000   0.96236402    -2.889578    1880.0735  0.080551564  0.080930251            1 
 1946000   0.95570042   -2.9051165    1876.3155  0.080349241  0.080917157            2 
 1947000   0.92963167   -2.8935865    1877.3665  0.080352956  0.080903506            5 
 1948000   0.93909351   -2.9027395    1875.2265  0.080220163  0.080890093            2 
 1949000   0.92988812   -2.9460611    1882.3783  0.080484792   0.08087689            4 
 1950000   0.93868989   -2.9145928    1878.2788  0.080268324  0.080863344            2 
 1951000    0.9229513   -2.9091673    1874.8619  0.080081234  0.080850088            3 
 1952000   0.94905004   -2.8956809    1883.9663  0.080428891   0.08083702            9 
 1953000   0.94016582   -2.8899524    1885.0836   0.08043538  0.080823732            2 
 1954000   0.93913294    -2.893371    1887.1355  0.080481727  0.080810465            2 
 1955000   0.92851397   -2.9289773    1882.1363  0.080227462  0.080797309            2 
 1956000   0.95347844    -2.895537     1887.507   0.08041526  0.080783746            3 
 1957000   0.94836975    -2.905247    1883.2178  0.080191526  0.080770773            4 
 1958000   0.93519153   -2.9101961    1888.7305  0.080385193  0.080757186           11 
 1959000    0.9332332   -2.9116825    1890.9214  0.080437357    0.0807439            5 
 1960000   0.92614903    -2.894556    1883.4784  0.080079865  0.080730241            3 
 1961000   0.92040794   -2.8863152    1884.7464   0.08009291  0.080716742            3 
 1962000   0.93177103   -2.9200173      1884.14  0.080026335  0.080702871            2 
 1963000   0.93956492   -2.9186764    1884.0502  0.079981756  0.080689144            2 
 1964000   0.93110658   -2.8856078    1891.3906  0.080252487   0.08067562            3 
 1965000   0.93068799   -2.8842195    1890.1369  0.080158478  0.080661794            3 
 1966000   0.94013557   -2.9170538    1886.6712  0.079970804  0.080648076            4 
 1967000   0.93620566   -2.9289312    1890.8319  0.080106419  0.080634444            5 
 1968000   0.96168612   -2.9266076    1883.8594  0.079770469  0.080620608            3 
 1969000   0.92009534   -2.9101955     1884.854   0.07977205  0.080606645            3 
 1970000   0.93682197   -2.9129946    1897.6038  0.080270889  0.080592875            2 
 1971000   0.93245636   -2.9124535    1889.4387  0.079884946  0.080579178            2 
 1972000   0.92076718   -2.9146017     1899.205  0.080257142  0.080565654            3 
 1973000   0.94340411   -2.8868071    1889.2037   0.07979404  0.080551621            1 
 1974000   0.93078692   -2.8914498    1896.4737  0.080060524   0.08053764            3 
 1975000   0.93529346   -2.9074085    1896.4909  0.080020714  0.080523665            4 
 1976000   0.92767043   -2.8869973    1897.3266  0.080015462  0.080509985            3 
 1977000   0.92138081   -2.9067274     1898.648  0.080030685  0.080496275            2 
 1978000   0.94140273   -2.8960278    1903.2789  0.080185327  0.080482741            4 
 1979000   0.92350978    -2.881832    1900.0002  0.080006745  0.080469237            2 
 1980000    0.9369338   -2.9091153    1904.3433  0.080149127  0.080455733            3 
 1981000   0.93925742   -2.9263908    1902.3317  0.080024051  0.080442359            2 
 1982000   0.93671564   -2.8859553     1900.206  0.079894298  0.080428907            1 
 1983000   0.92263109   -2.9175871     1899.551  0.079826483  0.080415578            3 
 1984000   0.94162018   -2.9128583    1902.2704  0.079900471  0.080402243            2 
 1985000   0.92099371    -2.901274    1899.3133  0.079736076   0.08038885            2 
 1986000   0.93575537   -2.9409672     1895.044  0.079516785  0.080375366            1 
 1987000   0.93814868   -2.8858334    1904.4876  0.079872822  0.080361544            1 
 1988000   0.94030958   -2.9070034    1902.4111  0.079745603  0.080347702            1 
 1989000   0.94579506   -2.9263628    1897.0408  0.079480508  0.080333648            4 
 1990000   0.93891335    -2.920763    1903.8452  0.079725512  0.080319491            4 
 1991000   0.92668224   -2.9163617    1905.5685  0.079757598  0.080305503            1 
 1992000   0.94139142   -2.9108076    1900.8517  0.079520236  0.080291397            3 
 1993000   0.93828249   -2.9295068    1899.5148  0.079424437  0.080277383            1 
 1994000   0.92867852   -2.9109559    1902.6978  0.079517629  0.080263078            4 
 1995000   0.96730675   -2.9225066    1907.1858   0.07966524  0.080249209            4 
 1996000   0.93832113   -2.9032939    1910.8816  0.079779627  0.080235197            2 
 1997000   0.93169903   -2.8847014    1903.9239  0.079449335  0.080221253            4 
 1998000    0.9270776   -2.8890681    1908.1601  0.079586259  0.080207144            6 
 1999000   0.92563125   -2.9296232    1909.1598  0.079588118  0.080193135            1 
 2000000   0.92892078   -2.8907632    1907.4939  0.079478911  0.080179052            6 
 2001000   0.92823316   -2.9028678    1915.5145  0.079773216  0.080165313            1 
 2002000   0.93258017   -2.9038925    1909.8909  0.079499287  0.080151454            3 
 2003000   0.94124282   -2.9304774    1915.9142  0.079710192  0.080137414            5 
 2004000   0.92904338   -2.9006982    1907.5913   0.07932432  0.080123094            3 
 2005000   0.93570246   -2.8793108    1910.9188  0.079423057  0.080109189            2 
 2006000   0.92144657   -2.9136665    1916.4671  0.079613953   0.08009492            4 
 2007000   0.94857267   -2.9166021    1904.8882  0.079093512  0.080081135            2 
 2008000   0.93679872   -2.9354168    1911.5903  0.079332266  0.080067023            3 
 2009000   0.92994334   -2.8932754    1916.3431  0.079489924  0.080052964            3 
 2010000   0.92035426   -2.9274013    1919.7677  0.079592358  0.080039016            2 
 2011000   0.92221788    -2.954316    1908.1727  0.079072297  0.080024966            4 
 2012000    0.9313204   -2.9228174    1919.0571  0.079483811  0.080011153            2 
 2013000   0.92920847   -2.9236017    1920.3223    0.0794967  0.079997157            5 
 2014000   0.92236259   -2.9027902    1911.9797  0.079112035  0.079982998            3 
 2015000   0.92394642   -2.9135533    1915.3857  0.079213633   0.07996932            3 
 2016000   0.90172932   -2.9090974    1918.5203  0.079303915  0.079955293            2 
 2017000   0.92969273   -2.9012187      1925.54  0.079554621   0.07994139            5 
 2018000   0.94608439   -2.9258919    1917.6745   0.07919039  0.079927443            2 
 2019000   0.94847261   -2.9132389    1922.4146  0.079346814  0.079913527            4 
 2020000   0.92901032   -2.9109917    1924.4228  0.079390379  0.079899868            3 
 2021000   0.93553337   -2.9446206    1921.1231   0.07921504  0.079886191            7 
 2022000    0.9126035   -2.9180609    1927.7689  0.079449758  0.079872392            3 
 2023000   0.92214234   -2.8825427    1926.8825  0.079373971  0.079858621            2 
 2024000   0.91663842   -2.9028427    1925.7244  0.079287072  0.079844859            3 
 2025000   0.93355486   -2.9220821    1922.2181  0.079103624  0.079831191            7 
 2026000   0.92121689   -2.9296025    1929.2031  0.079351886  0.079817165            2 
 2027000   0.92230212   -2.9308365    1923.7775  0.079089685  0.079803374            2 
 2028000    0.9031271   -2.9297467    1927.8589  0.079218397  0.079789636            3 
 2029000   0.90585595   -2.9220137    1937.8461  0.079589538   0.07977578            2 
 2030000   0.91654209   -2.9090421    1928.9925  0.079186882  0.079761929            2 
 2031000    0.9127517   -2.9036166    1929.0914  0.079151951  0.079747835            2 
 2032000   0.90466444   -2.9024585     1926.704  0.079015094  0.079734265            3 
 2033000   0.92779375   -2.9385713    1926.6962  0.078975907  0.079720554            1 
 2034000   0.93894099   -2.9072028    1930.7947  0.079104994  0.079706945            3 
 2035000   0.92076755   -2.9428052     1931.103  0.079078746   0.07969272            4 
 2036000   0.92355277   -2.9279045    1934.3487  0.079172754  0.079678772            3 
 2037000   0.92780424   -2.9109571    1929.0718  0.078918008  0.079664641            1 
 2038000   0.93619689   -2.9309588    1934.7178  0.079110151  0.079650581            6 
 2039000   0.93190288   -2.9088905    1937.5811  0.079188371  0.079636747            4 
 2040000   0.94028971   -2.9154067    1933.5436  0.078984625  0.079622958            1 
 2041000   0.91568559   -2.9295537    1931.0665  0.078844784  0.079609041            1 
 2042000   0.93245082   -2.9164702    1937.2771  0.079059628  0.079595106            3 
 2043000   0.92166667   -2.9099659    1931.8493  0.078799532  0.079581307            3 
 2044000   0.90639376   -2.9165837    1941.8197  0.079167469  0.079567281            3 
 2045000   0.91083734   -2.8934224    1937.7889  0.078964503  0.079553643            3 
 2046000   0.91522662   -2.9178297    1937.3733   0.07890898  0.079539967            5 
 2047000   0.90268038   -2.9116602    1943.6945  0.079127769  0.079526351            3 
 2048000    0.9468646   -2.9494411    1941.3814   0.07899501  0.079512429            2 
 2049000   0.91449785   -2.9148504    1944.5818  0.079086618  0.079498716            6 
 2050000   0.94005385   -2.9174195    1942.0318  0.078944383   0.07948531            2 
 2051000   0.93203344   -2.9326015    1944.5069  0.079006456  0.079471795            4 
 2052000    0.9364474   -2.9063461    1942.9851  0.078906151  0.079458167            3 
 2053000   0.93564665   -2.9485221    1943.9071  0.078905142  0.079444349            1 
 2054000   0.93662703   -2.9381803    1939.6659  0.078694657  0.079430379            5 
 2055000   0.92336207   -2.9288892    1949.1541  0.079041123  0.079416651            3 
 2056000    0.9337527   -2.9129592    1940.1804   0.07863896  0.079402931            3 
 2057000   0.91830452   -2.9062022    1943.9397  0.078753027  0.079389284            2 
 2058000   0.93643687   -2.9131037    1945.2913  0.078769488  0.079375583            3 
 2059000   0.91302156   -2.9251057    1946.3462  0.078773927  0.079361612            4 
 2060000   0.92708851   -2.8960972     1952.882  0.079000079  0.079348013            4 
 2061000   0.91752953   -2.9266117    1941.8669  0.078516371  0.079334306            4 
 2062000   0.91611538   -2.9183764    1953.2523  0.078938421  0.079320709            5 
 2063000   0.93067163   -2.9043956    1949.9441  0.078766525  0.079307059            6 
 2064000   0.89213597   -2.9443476    1948.4178  0.078666741  0.079292969            2 
 2065000   0.90888168   -2.9402415    1952.0776  0.078776337  0.079278924            3 
 2066000   0.94384722   -2.9359871    1955.5156  0.078876878  0.079265497            3 
 2067000   0.92057706    -2.915098    1954.7939  0.078809622  0.079251682            2 
 2068000   0.91784652    -2.922062     1952.263  0.078669529  0.079237963            2 
 2069000   0.94620781   -2.9300148    1953.2805  0.078672486  0.079224518            3 
 2070000   0.93168983   -2.9392409    1955.3491  0.078717758  0.079210896            3 
 2071000   0.91816333   -2.9462535    1955.7323  0.078695167   0.07919721            3 
 2072000   0.90847957   -2.9274227    1953.1056  0.078551546  0.079183083            3 
 2073000   0.89585237   -2.9329195    1953.4736  0.078528443  0.079169116            4 
 2074000   0.92261768   -2.9312087    1954.0312  0.078512986  0.079155151           10 
 2075000   0.92537434   -2.9234684     1955.301  0.078526146  0.079141321            1 
 2076000   0.89693395   -2.9365914    1951.5725  0.078338654  0.079127198            4 
 2077000   0.90467513   -2.9365809     1951.167  0.078284664  0.079112791            4 
 2078000   0.91408805   -2.9085453    1963.9205  0.078758441  0.079098526            2 
 2079000   0.91816172   -2.9369849    1955.4773  0.078382126  0.079084263            2 
 2080000   0.91048328   -2.9515131    1951.7853  0.078196527  0.079070116            3 
 2081000   0.91807735   -2.9447631    1952.6683  0.078194308  0.079056035            2 
 2082000   0.90458803   -2.9243823     1960.361  0.078464657  0.079042032            3 
 2083000     0.914827   -2.9175232    1967.1422   0.07869828  0.079028143            5 
 2084000   0.91244664   -2.9203865    1957.1885  0.078262496   0.07901424            3 
 2085000   0.91791891   -2.9190981    1971.7141  0.078805521  0.079000224            3 
 2086000   0.92293419   -2.9343468    1960.6308  0.078324975  0.078986064            3 
 2087000    0.9271529   -2.9273382    1967.9096  0.078578088  0.078972017            2 
 2088000   0.92305044   -2.9396351    1961.6759  0.078291662  0.078958024            2 
 2089000   0.92191953     -2.92588    1965.9015   0.07842275  0.078943871            3 
 2090000   0.91494326   -2.9455389    1961.8135  0.078222228  0.078929517            2 
 2091000   0.91845902   -2.9534257    1965.2305  0.078320999   0.07891496            2 
 2092000   0.92232091   -2.9388883    1958.9584  0.078033716   0.07890095            5 
 2093000   0.88828826   -2.9337454    1968.5425  0.078378027  0.078886619            2 
 2094000   0.91326809   -2.9372071    1962.1327   0.07808551   0.07887227            3 
 2095000   0.91293156   -2.9193986    1957.9086  0.077880214  0.078857972            4 
 2096000   0.92294082   -2.9226638    1968.9545  0.078282222  0.078843425            5 
 2097000   0.91537786   -2.9553658    1962.1091  0.077972863  0.078829017            3 
 2098000   0.91935608   -2.9157349    1969.2183  0.078218075  0.078814714            2 
 2099000   0.91630488   -2.9299502    1968.6526  0.078158353  0.078800528            4 
 2100000   0.92516217   -2.9484905    1958.3131  0.077710837  0.078786395            1 
 2101000   0.92070041   -2.9333777      1972.04  0.078218309  0.078772094            3 
 2102000   0.91072629   -2.9324488    1976.0908  0.078341692  0.078757875            3 
 2103000   0.91395555   -2.9289743    1971.8032  0.078134538  0.078743822            4 
 2104000    0.9281598   -2.9429777    1969.8932  0.078021751  0.078729499            2 
 2105000    0.9145086   -2.9070641    1973.0551   0.07810986  0.078715063            2 
 2106000   0.91197347   -2.9397827    1977.3093  0.078241107  0.078700623            2 
 2107000   0.92513012   -2.9374188    1969.3669  0.077889847  0.078686525            3 
 2108000   0.91659374   -2.9418756    1971.7132  0.077945651  0.078672127            4 
 2109000   0.92877728    -2.941791    1969.1696  0.077808189  0.078657811            4 
 2110000   0.90697875    -2.942944    1979.3128   0.07817191  0.078643612            3 
 2111000   0.92658778   -2.9396709    1973.9987  0.077925103  0.078629577            4 
 2112000   0.91112665   -2.9584057    1974.5542  0.077910126  0.078615303            3 
 2113000    0.9078676   -2.9739919    1975.7368  0.077919892  0.078600913            3 
 2114000    0.9200871   -2.9300313    1975.9472  0.077891328  0.078586501            3 
 2115000   0.90079502   -2.9554628    1976.7262  0.077885191  0.078572099            3 
 2116000   0.91092646   -2.9380776    1977.7823  0.077889976  0.078557871            4 
 2117000   0.93158957   -2.9299845    1983.2317  0.078067693  0.078543515            3 
 2118000   0.90971272   -2.9395678    1981.9209   0.07797926  0.078529546            6 
 2119000   0.88858941    -2.926985    1977.5086  0.077768939  0.078515432            3 
 2120000   0.90558106   -2.9056148    1986.2062  0.078074145  0.078501313            3 
 2121000    0.9240465   -2.9707194    1981.6057  0.077856581  0.078487405            3 
 2122000   0.91340295   -2.9285049    1982.2565   0.07784545  0.078473337            4 
 2123000   0.93078032   -2.9340279    1984.5184  0.077897567  0.078459137            3 
 2124000   0.92090464   -2.9248088    1982.8107   0.07779389  0.078444903            4 
 2125000   0.90908408   -2.9475069     1985.219  0.077851725  0.078430812            1 
 2126000   0.91754488   -2.9441054    1988.2599  0.077934303  0.078416731            6 
 2127000   0.90741804   -2.9433527    1984.2475  0.077740461  0.078402894            1 
 2128000   0.90845672   -2.9254911    1997.9486  0.078240468  0.078388844            2 
 2129000   0.91854185   -2.9313698     1989.357  0.077867427  0.078374757            2 
 2130000   0.90939789   -2.9523747    1991.2205  0.077903777  0.078360464            2 
 2131000   0.92485214   -2.9429018    1986.2394  0.077672432  0.078346363            4 
 2132000   0.89705385   -2.9289816    1987.3294  0.077678604  0.078332162            3 
 2133000   0.93855364   -2.9006831    1991.8835  0.077820109  0.078317714            2 
 2134000   0.93237964   -2.9464917    1989.8328  0.077703561  0.078303501            4 
 2135000   0.90556021   -2.9312342    1988.3458  0.077609127  0.078289466            2 
 2136000   0.92240559   -2.9291398    1989.4027  0.077614024    0.0782754            3 
 2137000   0.90203419   -2.9469321    1985.2534  0.077415903  0.078261081            3 
 2138000   0.90709928    -2.944201    1994.8141  0.077752343  0.078247056            2 
 2139000    0.8986845   -2.9266833    1991.5672  0.077589498  0.078232647            4 
 2140000   0.91310722   -2.9632209    1982.8148  0.077212416  0.078218285            3 
 2141000   0.92129067   -2.9443867    1989.4454  0.077434431  0.078203871            4 
 2142000   0.91544027   -2.9483151     1987.725   0.07733135   0.07818946            1 
 2143000   0.91307471   -2.9341948    1994.6657  0.077565163  0.078175034            3 
 2144000   0.89406028   -2.9293209    1996.4811  0.077599547  0.078160986            2 
 2145000   0.93018312    -2.956592    1997.3839  0.077598441  0.078146572            5 
 2146000   0.90068896   -2.8954898      2006.01  0.077897249  0.078132379            3 
 2147000   0.92621912   -2.9461689    2000.9971    0.0776664  0.078118438            3 
 2148000   0.88482338   -2.9208952    1983.6435  0.076956993  0.078104225            9 
 2149000    0.9204485   -2.9318165    1994.1502  0.077328609  0.078089955            2 
 2150000   0.90999361    -2.955616    1994.4801  0.077305432  0.078075742            3 
 2151000   0.91299469   -2.9421499     1995.064  0.077292111  0.078061295            4 
 2152000   0.90060963   -2.9219379    1996.8974  0.077327194  0.078046718            2 
 2153000   0.90593345   -2.9368364    1996.2005    0.0772643  0.078032308            3 
 2154000   0.89985111   -2.9421359    1996.9801  0.077258591  0.078017988            6 
 2155000   0.87615974   -2.9378397    1995.8062  0.077177346  0.078003619            2 
 2156000   0.92233073   -2.9349828    2000.2901  0.077314861  0.077989062            7 
 2157000   0.90244457   -2.9737458    2000.2444  0.077277253  0.077974335            3 
 2158000   0.91923173   -2.9412352    1995.4653  0.077056893  0.077959463            2 
 2159000   0.92414365   -2.9400753    1993.7207  0.076953864  0.077944984            3 
 2160000    0.8954563   -2.9424997     2002.426  0.077254091  0.077930129            4 
 2161000   0.89982973   -2.9512025     1999.853  0.077119118  0.077915607            2 
 2162000   0.90877547   -2.9808928    1990.8352  0.076735863  0.077900619            2 
 2163000   0.90835612   -2.9700984    1999.7435  0.077043593  0.077885926            5 
 2164000   0.88037609   -2.9485158    2009.9433  0.077400775  0.077871473            2 
 2165000   0.90792819   -2.9610915    1995.4767  0.076808187  0.077856518            3 
 2166000    0.9015644   -2.9531651    1997.5193  0.076851312  0.077841517            3 
 2167000   0.90582203   -2.9776246      1994.55  0.076701661  0.077826728            2 
 2168000   0.89524906   -2.9447998    2001.1579  0.076920275  0.077812011            3 
 2169000   0.90541717   -2.9718957    2005.7244   0.07706026   0.07779713            3 
 2170000   0.91036736   -2.9543497     2001.035   0.07684466  0.077782103            7 
 2171000   0.89785948   -2.9901366    1999.9952  0.076769355   0.07776698            1 
 2172000   0.91775017   -2.9422945    2003.0876  0.076852655   0.07775213            2 
 2173000   0.90247942   -2.9361422    2005.1618  0.076896832  0.077737223            5 
 2174000   0.90550164   -2.9565857    1998.0418  0.076588538  0.077722543            5 
 2175000   0.90522257   -2.9825006    2002.5475  0.076725957  0.077707571            1 
 2176000    0.8944995   -2.9674611    2000.4608  0.076610784  0.077692644            6 
 2177000   0.90877883    -2.965267    2005.3011  0.076760874  0.077677659            5 
 2178000   0.90236151   -2.9658248    2007.3656  0.076804623  0.077662758            3 
 2179000   0.91181183    -2.960063    2004.1383  0.076645951  0.077647897            4 
 2180000    0.8978251   -2.9694306    2006.3823  0.076696571  0.077633082            2 
 2181000   0.91833462   -2.9714829    2005.7653   0.07663783  0.077618201            2 
 2182000   0.90264591   -2.9457026    2011.6136   0.07682606  0.077603438            4 
 2183000   0.89728128   -2.9599658    2008.9194   0.07668802  0.077588636            3 
 2184000   0.92224209   -2.9662908    2011.3005   0.07674376   0.07757376            3 
 2185000   0.87373919   -2.9470666    2006.6074  0.076529648   0.07755892            4 
 2186000   0.89415344   -2.9570019    2004.1618  0.076401412  0.077543961            2 
 2187000   0.92175272   -2.9269133    2010.3273  0.076601406  0.077529002            3 
 2188000    0.8962826   -2.9453837    2011.1724  0.076598584  0.077514201            3 
 2189000   0.91708092   -2.9497364     2006.811  0.076397555  0.077499249            2 
 2190000    0.8879976   -2.9511249    2003.4117   0.07623332  0.077484302            9 
 2191000   0.89261911   -2.9295102    2008.7021  0.076399745  0.077469101            3 
 2192000   0.88797449   -2.9334676     2006.322  0.076274408  0.077454188            7 
 2193000   0.89746569   -2.9775439    2018.3858  0.076698048  0.077439043            3 
 2194000     0.913945   -2.9660777    2007.6389  0.076254895  0.077423898            3 
 2195000   0.89574314   -2.9506552    2017.9801  0.076612761  0.077409173            4 
 2196000   0.89234233   -2.9532949    2015.7014  0.076491399  0.077394239            2 
 2197000   0.90277567   -2.9502699    2014.2417  0.076401216  0.077379456            4 
 2198000   0.89665914    -2.961152    2019.0293  0.076547973  0.077364499            3 
 2199000   0.90800735   -2.9630444    2017.8473  0.076468368  0.077349973            6 
 2200000   0.89902992   -2.9404427    2015.5535  0.076346722   0.07733507            2 
 2201000   0.89226402   -2.9298367      2020.25  0.076489851  0.077320319            6 
 2202000   0.88383063   -2.9361894    2018.2321   0.07637875   0.07730537            3 
 2203000   0.90699645   -2.9547855    2016.5311  0.076279735  0.077290328            3 
 2204000    0.9052528   -2.9530761    2018.8265  0.076331917  0.077275199            3 
 2205000   0.91624786   -2.9425389    2016.0136  0.076190991  0.077259947            4 
 2206000   0.90736107   -2.9464602    2027.1523  0.076577224  0.077244968            5 
 2207000   0.90166029   -2.9587064    2013.2545  0.076017767  0.077229941            4 
 2208000   0.90624586   -2.9508631    2020.4562  0.076255141  0.077215027            6 
 2209000   0.90994422   -2.9499624     2023.664  0.076341632  0.077199979            3 
 2210000   0.87731056   -2.9745633    2023.1687  0.076288411  0.077185036            3 
 2211000   0.89779802   -2.9292079    2030.0888  0.076514728  0.077169797            3 
 2212000   0.90682507    -2.964478    2026.8995  0.076359988  0.077154901            4 
 2213000   0.89333754   -2.9481426    2025.4925  0.076272498  0.077139858            2 
 2214000   0.90190767    -2.946386    2020.4576  0.076048539  0.077124829            2 
 2215000   0.89332485    -2.946288    2028.4804  0.076316044  0.077109773            2 
 2216000   0.89335138   -2.9670134    2021.7028  0.076026729  0.077094407            2 
 2217000    0.8802389   -2.9600454    2026.3876  0.076168529  0.077079166            1 
 2218000   0.88314589   -2.9645785    2020.8794  0.075927238  0.077063716            3 
 2219000   0.89638726   -2.9790671    2020.1406  0.075865277  0.077048545            2 
 2220000   0.89697489   -2.9638539    2026.7912   0.07608075  0.077033116            3 
 2221000   0.89854143   -2.9600366    2032.6929  0.076267932  0.077018262            4 
 2222000   0.89394296   -2.9446345    2032.1806  0.076214393  0.077003433            1 
 2223000   0.89953394   -2.9510316    2033.1899  0.076217946  0.076988729            2 
 2224000   0.90093052   -2.9854411     2029.125  0.076031362  0.076973641            2 
 2225000   0.89849146   -2.9505226    2034.8067   0.07620999   0.07695863            2 
 2226000   0.90057353   -2.9576664    2023.4808  0.075751754  0.076943542            2 
 2227000   0.91275872   -2.9538849      2038.23  0.076269646  0.076928638            8 
 2228000   0.89948278   -2.9542544    2022.1572  0.075634246  0.076913488            2 
 2229000   0.88497701   -2.9397978    2035.5171  0.076099786  0.076898318            5 
 2230000   0.88528271   -2.9732426     2032.936  0.075969207  0.076883392            4 
 2231000   0.89022856   -2.9803858    2034.1338  0.075979898   0.07686803            2 
 2232000   0.90700278   -2.9495732    2025.5326  0.075624724  0.076852914            2 
 2233000   0.89207285   -2.9630868    2038.4932  0.076074535  0.076837995            2 
 2234000   0.89047363    -2.946753    2030.9103  0.075757622  0.076823139            3 
 2235000    0.8934366   -2.9492518    2030.9835  0.075726454  0.076808142            2 
 2236000   0.89428332   -2.9612243    2038.5071  0.075972985  0.076793245            1 
 2237000   0.89983475   -2.9663296    2036.4333  0.075861768  0.076777965            5 
 2238000   0.89628678   -2.9497963    2034.0572  0.075739395  0.076762795            3 
 2239000   0.89840278   -2.9727647    2035.1807  0.075747383  0.076747591            3 
 2240000   0.90343311   -2.9727576    2034.1599  0.075675591  0.076732589            4 
 2241000   0.89962624    -2.959738    2034.3677  0.075649549  0.076717532            4 
 2242000   0.91230403    -2.954656    2041.5856   0.07588409  0.076702509            2 
 2243000   0.89820224   -2.9690824    2044.3306  0.075952244   0.07668753            3 
 2244000   0.90892307   -2.9380748    2043.8607  0.075900948  0.076672687            2 
 2245000   0.87036092   -2.9872015    2033.9371  0.075498779   0.07665782           12 
 2246000   0.89487365   -2.9466612    2045.5011  0.075894224  0.076642682            5 
 2247000   0.89175049   -2.9644359    2041.6041  0.075715921    0.0766279            1 
 2248000   0.87756925   -2.9691659    2039.5152  0.075604805  0.076613089            3 
 2249000   0.91193729   -2.9598903    2039.1571  0.075557919  0.076598157            3 
 2250000   0.90253494   -2.9925462      2045.64  0.075764445   0.07658311            4 
 2251000    0.8689473   -2.9693349     2037.486  0.075428921  0.076568094            1 
 2252000   0.89645962   -2.9693409    2052.7287  0.075959469  0.076553033            2 
 2253000   0.89150127   -2.9582914    2044.9167  0.075636808  0.076538018            4 
 2254000   0.88700791   -2.9800317    2040.9935  0.075458205  0.076523284           10 
 2255000   0.88913782   -2.9761939    2047.0803  0.075649678  0.076508346            1 
 2256000   0.90279949    -2.972331    2046.7196  0.075602822  0.076493216            1 
 2257000    0.9027839   -2.9425903    2043.1446   0.07543733   0.07647825            4 
 2258000    0.8761355   -2.9668266    2048.4407  0.075599377  0.076463225            6 
 2259000   0.89067376   -2.9637712    2049.4198   0.07560203  0.076448321            4 
 2260000   0.91257547   -2.9850191     2048.836   0.07554705   0.07643336            2 
 2261000   0.90169201   -2.9326098    2049.7052  0.075545671  0.076418438            4 
 2262000    0.8781204   -2.9551486    2052.8294  0.075627374  0.076403517            7 
 2263000   0.91111148   -2.9770113     2045.025  0.075306561   0.07638859            3 
 2264000   0.88307488   -2.9751468    2054.9774  0.075639628  0.076373299            2 
 2265000   0.87632765   -2.9787937    2043.4667  0.075182733  0.076358156            2 
 2266000   0.90078275   -2.9576194    2049.2591  0.075362575  0.076343015            3 
 2267000   0.87118411   -2.9824533    2056.7456  0.075604529  0.076327627            2 
 2268000   0.89136155   -2.9618936    2054.8594  0.075501889  0.076312555            2 
 2269000   0.91176042   -2.9670121    2057.0392  0.075548671  0.076297605            2 
 2270000   0.90195004   -3.0018479    2053.9546  0.075402153  0.076282523            3 
 2271000   0.88702799   -2.9771257    2049.2659  0.075196898  0.076267505            4 
 2272000   0.88720553   -2.9933454    2056.2123  0.075418584  0.076252327            3 
 2273000   0.90027521   -2.9551649    2056.8677  0.075409433  0.076237273            3 
 2274000   0.88577225   -2.9696743    2055.1404  0.075312973   0.07622221            5 
 2275000    0.8947091   -2.9616064     2055.685  0.075299818  0.076207393            2 
 2276000   0.90063449    -2.971423     2050.159  0.075064405  0.076192387            3 
 2277000   0.87528964   -2.9775963    2050.5739  0.075046622  0.076177302            2 
 2278000    0.8880154   -2.9753406    2056.8463  0.075243132  0.076162195            4 
 2279000     0.908302   -2.9756079    2057.2943    0.0752265  0.076147178            3 
 2280000   0.88807094   -2.9614467     2064.473  0.075455884  0.076132133            4 
 2281000   0.88482874    -2.968396    2063.5222  0.075388069   0.07611723            6 
 2282000   0.88870622   -2.9783515    2064.6248  0.075395295  0.076102192            3 
 2283000   0.86744293   -2.9651292    2060.6583  0.075217486   0.07608734            2 
 2284000   0.90809018   -2.9842664    2054.7538  0.074969126  0.076072475            5 
 2285000   0.87620015   -2.9519071    2059.3097  0.075102469  0.076057445            2 
 2286000   0.86803844   -2.9574273    2066.6779  0.075338213  0.076042269            2 
 2287000   0.88158167   -2.9868227    2056.9645  0.074951337  0.076027232            3 
 2288000   0.88051712    -2.988103    2059.7174  0.075018845  0.076012082            4 
 2289000   0.89767022   -2.9526124    2065.0163  0.075178984  0.075997071            4 
 2290000   0.88919487   -2.9617977    2063.3744  0.075086405  0.075982122            3 
 2291000   0.89566479    -2.973233    2056.9926  0.074821497  0.075966899            6 
 2292000   0.88338305   -2.9950875    2059.8384  0.074892323  0.075951886            6 
 2293000   0.88717843   -2.9723897    2060.3131  0.074876913  0.075936813            3 
 2294000   0.89267597   -2.9877043    2064.5541  0.074998334  0.075921802            2 
 2295000   0.89435169   -2.9382459    2066.3502  0.075030871  0.075906819            3 
 2296000   0.86255837   -2.9891962    2063.5522  0.074896639  0.075891471            2 
 2297000   0.86046019   -2.9521011    2067.0448  0.074990741  0.075876269            3 
 2298000    0.8815088   -2.9714977    2066.8223  0.074950039  0.075861069            3 
 2299000     0.901906   -2.9986034    2071.9589  0.075103627  0.075845925            5 
 2300000   0.88212346   -2.9877332    2069.7882  0.074992326  0.075830881            4 
 2301000   0.88600217   -2.9708445    2066.7738  0.074850566  0.075815759            3 
 2302000   0.87886439   -2.9806251    2072.3343  0.075019341  0.075800432            2 
 2303000   0.88950057   -2.9840963     2072.006  0.074974887  0.075785376            7 
 2304000   0.89207676   -2.9996751    2064.5376  0.074672222  0.075770175            1 
 2305000   0.86559475   -2.9630083    2067.9022  0.074761466  0.075755021            3 
 2306000   0.89215791   -2.9392318     2070.644  0.074828128  0.075740114            2 
 2307000   0.86351892   -2.9825314    2075.9848  0.074988616  0.075724964            3 
 2308000   0.87352397   -2.9502951    2068.7711  0.074695663  0.075709972            4 
 2309000   0.87987801    -2.961281    2072.1122  0.074783895     0.075695            5 
 2310000   0.88243772    -3.010025    2077.6911  0.074952782  0.075679834            5 
 2311000   0.89997385   -2.9884763    2079.5035  0.074985704  0.075664718            3 
 2312000   0.87434767   -2.9836595    2077.6043  0.074884813  0.075649789            7 
 2313000   0.88799397   -2.9766856    2071.9941  0.074650313  0.075634875            4 
 2314000   0.88628281   -2.9824016    2075.7948  0.074754927  0.075619685            4 
 2315000   0.89686492   -2.9558763    2075.8917  0.074726125  0.075604583            3 
 2316000   0.85840094    -2.972838     2079.371   0.07481905   0.07558942            3 
 2317000   0.88261905   -2.9626775    2082.3546  0.074894067   0.07557439            2 
 2318000   0.88461983   -2.9862366    2075.7997  0.074626103  0.075559463            1 
 2319000   0.88528549   -2.9538654    2081.3432  0.074793129  0.075544601            3 
 2320000   0.87160913   -2.9933958    2072.8035   0.07445415  0.075529534            3 
 2321000   0.90429065   -2.9907857    2075.3647  0.074514028  0.075514553            9 
 2322000   0.89032018   -2.9749987    2083.9113  0.074788664  0.075499556            4 
 2323000    0.8712198   -2.9919581    2081.6887  0.074676735  0.075484704            5 
 2324000   0.88615895   -2.9997144    2087.6006  0.074856589  0.075469811            5 
 2325000   0.88243433   -2.9680661    2075.8707  0.074403968  0.075454853            3 
 2326000   0.85939034   -2.9848143    2070.8581  0.074192393  0.075439902            8 
 2327000   0.86558449   -2.9928629     2076.809  0.074373622  0.075424786            3 
 2328000   0.88310603   -2.9898328     2082.226  0.074535582  0.075409912            7 
 2329000   0.87504478   -2.9913384    2076.8855  0.074312491   0.07539489            2 
 2330000   0.87073344   -2.9801626    2078.7219  0.074346277  0.075380058            2 
 2331000      0.87188   -2.9889077    2093.6178  0.074846911  0.075365195            2 
 2332000   0.86984559   -2.9760835    2089.4552  0.074666068   0.07535045            2 
 2333000   0.87486681   -2.9998374    2085.8185  0.074504161  0.075335405            3 
 2334000   0.88187907   -2.9765218     2083.928   0.07440474  0.075320511            4 
 2335000   0.86332754   -2.9674272    2086.1183  0.074451046  0.075305599            1 
 2336000    0.8877012   -2.9852964    2084.3466  0.074355971  0.075290667            1 
 2337000   0.87911662   -3.0079192    2088.1609  0.074460167  0.075275714            3 
 2338000   0.88190266   -2.9812589    2087.3001  0.074397636  0.075260786            2 
 2339000   0.87853991   -2.9811283    2082.4346  0.074192482  0.075245765            4 
 2340000   0.87641486    -2.968824    2091.6781  0.074489962   0.07523079            3 
 2341000   0.87804718   -3.0035227    2085.6514  0.074243608  0.075215922            4 
 2342000   0.86701592   -2.9646169    2102.8975  0.074825558   0.07520114            6 
 2343000    0.8646412   -2.9864795    2091.8117  0.074399334  0.075186441            2 
 2344000   0.87224831   -2.9650871    2093.2845  0.074419954  0.075171553            2 
 2345000   0.89680203   -2.9795962     2090.324  0.074283012  0.075156641            3 
 2346000   0.86968315   -2.9747243    2093.8797  0.074377654  0.075141534            1 
 2347000   0.86030033   -3.0092078    2095.0506  0.074387538  0.075126831            3 
 2348000   0.87718581   -2.9745937    2090.9572  0.074210575  0.075111921            3 
 2349000   0.86766859   -2.9868765    2095.1701  0.074328441  0.075096864            4 
 2350000   0.86912068   -2.9883133    2091.0692  0.074151391  0.075081934            2 
 2351000   0.87729214   -2.9866289    2097.8463   0.07436007  0.075066907            4 
 2352000   0.86425153   -2.9907374     2092.746  0.074147746  0.075051929            2 
 2353000   0.89759289   -2.9737069     2101.349  0.074420916   0.07503717            8 
 2354000   0.86403992   -2.9828151    2098.4559  0.074286884  0.075022219            6 
 2355000   0.87401602   -3.0042524    2088.6589  0.073908667  0.075007025            9 
 2356000   0.87273035   -2.9936767    2090.5914  0.073945651  0.074991857            3 
 2357000   0.89164546   -2.9809112    2101.6884  0.074306618  0.074976893            3 
 2358000   0.85738692   -2.9681704    2095.3165   0.07404992  0.074961772            3 
 2359000   0.87152211   -2.9658464    2099.3808  0.074162101  0.074946722            4 
 2360000   0.85491264   -2.9842648    2093.0494  0.073907112   0.07493156            2 
 2361000   0.89940891   -3.0024997    2100.2479  0.074129885  0.074916466            4 
 2362000   0.88574702   -2.9847957    2100.9388  0.074122877  0.074901449            5 
 2363000   0.88109258   -3.0024751    2104.8383  0.074229027  0.074886302            5 
 2364000    0.8757895   -2.9990846    2099.3249  0.074003274  0.074871199            3 
 2365000   0.87164768   -2.9815658    2104.7977  0.074164825  0.074856314            2 
 2366000     0.836612   -2.9945163    2103.5171  0.074088372  0.074841462            4 
 2367000   0.86856678   -2.9964563    2102.1705  0.074009665  0.074826465            2 
 2368000   0.86845121   -2.9926784    2101.6476  0.073960008  0.074811495            5 
 2369000   0.87703753   -2.9806509    2101.8235  0.073934977  0.074796408            3 
 2370000   0.86827019   -3.0176849    2100.5288  0.073858257  0.074781474            4 
 2371000   0.86649908   -2.9954723    2097.2485  0.073711812  0.074766312            3 
 2372000   0.86216499   -2.9832304    2109.6935  0.074117956  0.074751689            2 
 2373000   0.88844126   -2.9922838    2115.1848  0.074279562  0.074736969            3 
 2374000    0.8918346   -2.9896178    2109.7879  0.074058828  0.074722113            3 
 2375000    0.8605611   -2.9980056    2120.4961  0.074403373  0.074707306            3 
 2376000   0.87156336   -2.9804442    2113.2506  0.074117937  0.074692582            3 
 2377000   0.87580243   -2.9496506     2105.536  0.073816294  0.074677885            3 
 2378000   0.87297357   -3.0072769    2108.7564  0.073898107  0.074663071            5 
 2379000   0.86982273   -2.9823393    2111.3604  0.073958258  0.074648422            2 
 2380000   0.86532116   -3.0171942    2106.8117  0.073767918  0.074633773            7 
 2381000    0.8690751    -2.984987    2114.0136  0.073988996  0.074619196            6 
 2382000   0.87706555   -3.0003622    2114.2518  0.073966267  0.074604604            3 
 2383000    0.8770304   -2.9899732    2117.1905  0.074037996  0.074589826            3 
 2384000   0.86737892    -3.001631    2114.6077  0.073916657  0.074575213            4 
 2385000   0.86703106   -2.9990018    2111.9644  0.073793305  0.074560316            3 
 2386000   0.87402993    -3.002322    2111.7892  0.073756257  0.074545649            3 
 2387000   0.87738701   -2.9833442    2125.8634  0.074216707  0.074531262            2 
 2388000   0.86598708   -3.0076003    2120.3538  0.073993363  0.074516798            3 
 2389000   0.85993858   -2.9955002      2119.64  0.073937492  0.074502491            6 
 2390000   0.88729738    -2.999974    2116.7171   0.07380464  0.074487973            3 
 2391000   0.88677382   -2.9946111    2113.2716  0.073653688  0.074473749            2 
 2392000   0.87648418   -3.0207286     2117.986  0.073787137  0.074459175            3 
 2393000   0.86963771   -3.0092414    2127.7984  0.074098007  0.074444931            4 
 2394000   0.87391022    -2.985523    2119.3501  0.073772978  0.074430596            3 
 2395000   0.85381102   -3.0139153    2124.7167  0.073928905  0.074416418            4 
 2396000   0.85835516   -2.9948834    2124.3508  0.073885323  0.074402196            7 
 2397000   0.84137687   -2.9723655    2131.0856  0.074088639  0.074388125            4 
 2398000   0.86463889   -3.0099758    2126.1511  0.073886264  0.074374058            4 
 2399000   0.87608047   -3.0266726    2119.9348  0.073639531  0.074359857            3 
 2400000   0.87537458   -3.0258039    2121.3891  0.073659342  0.074345227            3 
 2401000   0.86332166   -2.9886622    2128.1223  0.073862361  0.074330896            1 
 2402000   0.85938697   -3.0011882    2131.0853  0.073934404  0.074316738            4 
 2403000   0.87652512   -2.9779523    2122.9487  0.073621471  0.074302281            2 
 2404000   0.85993738   -2.9920754    2122.2178  0.073565509  0.074288143            3 
 2405000   0.86451495     -2.98347    2130.5031  0.073822006  0.074274061            4 
 2406000   0.87846568   -2.9871714    2127.8231  0.073698502  0.074259915            2 
 2407000    0.8615388   -3.0014055     2126.937  0.073637203  0.074245633            3 
 2408000   0.86744149   -3.0052106    2131.2906  0.073757288  0.074231505            5 
 2409000   0.86420163   -2.9946834    2137.1536  0.073929488  0.074217367            5 
 2410000   0.85306619   -2.9873764    2135.9954  0.073858764  0.074203119            4 
 2411000   0.85492753   -3.0046417    2134.0399  0.073760538    0.0741891            2 
 2412000   0.85356881   -2.9799574    2133.9374  0.073726417  0.074174775            3 
 2413000   0.89259337   -2.9917669    2132.7921   0.07365631  0.074160674            4 
 2414000   0.85958766   -2.9900667    2134.4841  0.073684207  0.074146399            7 
 2415000   0.85597463   -2.9845489    2133.9356   0.07363477  0.074132329            3 
 2416000   0.85199511   -3.0112255    2122.7944  0.073220005  0.074118145            6 
 2417000   0.85309344   -3.0187562    2136.6568  0.073667659  0.074104022            7 
 2418000   0.84458941   -3.0134464    2130.7962  0.073435216  0.074089829            3 
 2419000   0.88120832   -3.0084995    2135.4717  0.073565927  0.074075535            7 
 2420000   0.87522642    -2.990645    2145.3793  0.073876697   0.07406161            2 
 2421000   0.86631847   -3.0133743    2138.1039  0.073595755  0.074047628            3 
 2422000   0.84752945   -3.0235937    2133.9264  0.073421636  0.074033417            6 
 2423000   0.87197285   -3.0061973    2141.9172  0.073666157  0.074019311            5 
 2424000   0.87194394   -3.0065468    2138.0765   0.07350373  0.074005211            2 
 2425000   0.86929594   -3.0163006    2133.0031  0.073299075  0.073991074            4 
 2426000   0.89810807    -3.018454    2142.0265  0.073578817  0.073976755            3 
 2427000   0.85419596   -3.0110142    2137.5547  0.073394957  0.073962642            1 
 2428000   0.86208858   -2.9814978    2140.3653  0.073461193   0.07394842            2 
 2429000   0.87369804   -2.9993208    2139.7707  0.073410549  0.073934127            3 
 2430000   0.85814411   -3.0032353    2140.2056  0.073395253  0.073919829            3 
 2431000   0.84965012   -3.0274032    2138.0731  0.073291962  0.073905575            5 
 2432000   0.84437155   -2.9926709    2140.0344  0.073329031  0.073891276            3 
 2433000   0.86265121   -3.0426304    2137.2736  0.073204331  0.073877246            4 
 2434000   0.85097209   -3.0100391    2136.2829  0.073140334  0.073863006            4 
 2435000   0.87012823   -2.9926319    2134.0628  0.073034317  0.073848803            4 
 2436000    0.8698695   -3.0007294    2142.0557  0.073277767  0.073834502            3 
 2437000   0.85217121   -3.0150424    2147.8751  0.073446692  0.073820336            5 
 2438000   0.85026302   -3.0029732    2142.6793  0.073238968  0.073806138            3 
 2439000   0.88898301   -2.9957213    2144.9889  0.073287853  0.073791845            4 
 2440000   0.85623103    -3.013528    2147.5755  0.073346157  0.073777695            3 
 2441000   0.86538615   -3.0071497    2148.3178  0.073341453  0.073763543            4 
 2442000   0.86532063   -3.0061621    2147.7061  0.073290546  0.073749389            2 
 2443000   0.87484465   -2.9975354    2149.7569  0.073330497  0.073735251            1 
 2444000   0.85822109   -3.0222989    2140.5275  0.072985799  0.073720869            1 
 2445000   0.85421115   -3.0034866    2143.6581  0.073062648  0.073706546            6 
 2446000   0.85980427   -3.0061999    2143.8338  0.073038765  0.073692042            4 
 2447000   0.85643394   -3.0153522    2151.3177  0.073263781  0.073677741            3 
 2448000    0.8422743   -3.0184679    2139.3095   0.07282508  0.073663223            1 
 2449000   0.86356944   -3.0034514     2148.816  0.073118825  0.073648893            2 
 2450000   0.86902939   -2.9978271    2138.4133  0.072735145  0.073634603            1 
 2451000   0.85045587   -2.9878577     2144.273    0.0729047  0.073620291            4 
 2452000   0.85168654   -3.0085444     2145.433  0.072914388  0.073606034            2 
 2453000   0.83744151   -3.0037867    2146.5483  0.072922555  0.073591675            5 
 2454000     0.868743   -2.9996323    2145.2309    0.0728481  0.073577428            2 
 2455000   0.85994686   -2.9937598    2148.7431  0.072937647  0.073563146            2 
 2456000   0.85101195   -2.9963033    2146.0846  0.072817747  0.073548604            4 
 2457000   0.86274483   -3.0029982    2152.4095  0.073002629  0.073534162            4 
 2458000   0.85846997   -3.0193589    2152.4971  0.072975897  0.073519818            3 
 2459000   0.87234457   -3.0005026    2158.7804  0.073159156  0.073505438            7 
 2460000   0.84509408    -3.019589    2156.1261  0.073039501  0.073491411            7 
 2461000   0.87095392    -3.000312    2154.3555  0.072949869  0.073477162            4 
 2462000   0.86121002   -2.9734508    2162.3303  0.073190168  0.073462874            5 
 2463000    0.8494621   -3.0179124    2158.9379  0.073045673  0.073448598            2 
 2464000   0.85075793   -3.0133068    2155.6933  0.072906295  0.073434476            3 
 2465000   0.86430295   -3.0261895    2150.9274  0.072715599   0.07342019            2 
 2466000    0.8572819   -3.0185741     2162.085  0.073063158  0.073405788            1 
 2467000   0.85489163   -3.0118122     2148.734  0.072582558  0.073391356            7 
 2468000   0.83897725   -3.0326067    2152.3453  0.072675085  0.073377178            6 
 2469000   0.86692095   -2.9861371    2153.0222  0.072668496  0.073362778            6 
 2470000   0.86340448   -3.0187699    2156.7744  0.072765667  0.073348375            4 
 2471000   0.84349798   -3.0058715    2155.8186  0.072703986  0.073333906            3 
 2472000   0.85255622   -3.0257437    2164.0607  0.072952425  0.073319591            3 
 2473000   0.84379358   -3.0109271    2154.0551  0.072585762  0.073305133            2 
 2474000   0.85983212   -2.9936769    2153.7959  0.072547691  0.073290918            4 
 2475000   0.85602894   -3.0056053    2164.5926  0.072881906  0.073276786            1 
 2476000    0.8519046   -3.0302522    2153.7304  0.072486887  0.073262418            3 
 2477000   0.85848065   -3.0060734    2162.0787  0.072738483  0.073247889            4 
 2478000   0.86293814   -3.0288797    2160.2995  0.072649297  0.073233527            7 
 2479000   0.83663792   -3.0097116    2164.3114  0.072754854  0.073219081            3 
 2480000   0.84635708   -3.0278469    2160.1281   0.07258495  0.073204747            2 
 2481000   0.87277547   -3.0175997    2160.3724  0.072563899  0.073190275            5 
 2482000   0.85499701    -3.009479    2157.8808  0.072451006  0.073175908            3 
 2483000   0.86127013   -3.0409872    2162.2937  0.072569931  0.073161755            8 
 2484000   0.84317905   -3.0153135     2165.623  0.072652409  0.073147331            2 
 2485000   0.86971548   -2.9998532    2170.4489  0.072785006  0.073132968            2 
 2486000     0.838857   -3.0192565    2163.6097  0.072526473  0.073118578            2 
 2487000   0.84476748   -3.0114992    2166.7671  0.072603107  0.073104368            2 
 2488000   0.84609507   -3.0118554     2162.635  0.072435522  0.073090183            2 
 2489000    0.8434531   -2.9842519    2174.4745  0.072802817  0.073076134            4 
 2490000    0.8578618    -3.025431     2170.246  0.072632063  0.073061797            3 
 2491000   0.86500417   -3.0294683    2165.2567  0.072435991  0.073047474            3 
 2492000   0.85235558   -3.0216491    2168.4332  0.072513148  0.073033102            5 
 2493000   0.86382949    -3.007424    2164.2742  0.072345041  0.073018913            4 
 2494000   0.87051955   -3.0174087    2168.3333  0.072451661  0.073004656            3 
 2495000     0.842906   -3.0256585    2159.9732  0.072143392  0.072990443            4 
 2496000   0.87748831   -2.9842126    2176.1353   0.07265409  0.072976139            4 
 2497000   0.85325992   -3.0267006    2174.5349  0.072571583  0.072961729            3 
 2498000   0.84937063   -3.0016579     2171.359  0.072436583  0.072947439            3 
 2499000   0.86154072   -3.0040872    2163.3015  0.072138905  0.072933159            3 
 2500000   0.85749603   -3.0211513    2170.4236  0.072347453  0.072918771            4 
 2501000   0.84662784   -3.0250712    2177.5158  0.072554838  0.072904351            2 
 2502000   0.84857291    -3.041347    2174.3752  0.072421236  0.072890177            6 
 2503000    0.8544572   -3.0177753     2175.196  0.072419629  0.072876055            4 
 2504000   0.85865967   -3.0419219     2175.532   0.07240189  0.072861947            2 
 2505000   0.84912309   -3.0208515    2167.4874  0.072105368  0.072847945            4 
 2506000   0.84323205   -3.0126952    2173.1182   0.07226384  0.072833637            6 
 2507000   0.87487849   -2.9910339    2184.1489   0.07260168  0.072819599            3 
 2508000   0.84788974    -3.035313    2173.6972  0.072225451  0.072805735           10 
 2509000   0.83919414   -3.0224774    2171.8352  0.072134821  0.072791626            6 
 2510000   0.87102687   -3.0078215    2179.0101  0.072344291  0.072777431            3 
 2511000   0.86375586   -3.0012554    2186.8828  0.072576757  0.072763391            4 
 2512000   0.85568391   -3.0092235    2184.1164  0.072456092  0.072749381            5 
 2513000   0.83632201   -3.0195558     2180.248  0.072298979  0.072735176            4 
 2514000    0.8590504     -3.01929    2182.7327  0.072352583  0.072720886            4 
 2515000   0.86692666   -3.0335396    2184.8148  0.072392803  0.072706915            7 
 2516000   0.82861615   -3.0406203    2179.6162  0.072191846  0.072693171            8 
 2517000   0.85414066   -3.0287144    2184.1531  0.072313372  0.072679096            4 
 2518000   0.83087753   -3.0243956    2187.2282  0.072386423  0.072665096            4 
 2519000   0.86097479   -3.0099855    2194.4941  0.072598058  0.072651062            3 
 2520000   0.85499964   -3.0311928    2188.4448  0.072369206  0.072637346            4 
 2521000   0.85584268   -3.0170792    2187.1923  0.072299098  0.072623414            4 
 2522000   0.83989697   -3.0468815    2187.6821  0.072286615  0.072609703            3 
 2523000    0.8342439   -3.0369003    2185.3568   0.07218116  0.072595789            3 
 2524000   0.84873973   -3.0500084    2186.2662  0.072182586   0.07258182            3 
 2525000   0.81776006   -3.0472497    2187.1592  0.072183471  0.072567986            3 
 2526000   0.85769315   -2.9994263    2185.5527  0.072101897  0.072554138            4 
 2527000   0.85117293   -3.0384668    2181.4296  0.071937396  0.072540404            2 
 2528000   0.83831157    -3.039144    2186.2436   0.07206763  0.072526499            2 
 2529000   0.85384843   -3.0424373    2184.8511  0.071993249  0.072512575            7 
 2530000      0.84685   -3.0181307    2191.1142  0.072171089  0.072498711            3 
 2531000   0.83731167   -3.0426196     2185.011  0.071941624   0.07248477            3 
 2532000   0.84174974   -3.0489044    2190.3847  0.072090072  0.072470762            7 
 2533000   0.83070826    -3.048182    2191.1502  0.072086794  0.072456772            2 
 2534000   0.84930727   -3.0319249    2190.9666  0.072052308  0.072442924            4 
 2535000   0.84587715   -3.0277605    2191.5981  0.072044647  0.072429003            4 
 2536000   0.84627188    -3.043641    2185.6633  0.071821217  0.072415037            5 
 2537000   0.83962792   -3.0327129    2187.7775  0.071862355   0.07240095            4 
 2538000    0.8434894   -3.0560766    2189.1583  0.071879377  0.072386805            3 
 2539000   0.85534125   -3.0412711    2190.7953  0.071904795  0.072372987            4 
 2540000   0.86429918   -3.0179504    2189.1713  0.071823207   0.07235867            4 
 2541000   0.84131866   -3.0260368    2179.8569  0.071489468  0.072344609            7 
 2542000   0.85044934   -3.0322052    2191.5065   0.07184325  0.072330428            4 
 2543000   0.83555291   -3.0149467    2198.4878  0.072043775  0.072316194            2 
 2544000   0.84641163   -3.0444159    2192.8101  0.071829471  0.072302133            2 
 2545000   0.83403662   -3.0408167    2198.5095  0.071987868  0.072288038            3 
 2546000   0.85376217   -3.0214758    2197.7966  0.071936261  0.072273923            4 
 2547000   0.84967778   -3.0062808    2190.9049  0.071682533   0.07225986            2 
 2548000   0.84893243    -3.047876    2190.6942  0.071647509  0.072245875            5 
 2549000   0.85822543   -3.0295055    2200.2428  0.071931569  0.072231883            2 
 2550000   0.85303519   -3.0295942    2195.8485  0.071759755  0.072217893            8 
 2551000   0.84859429   -3.0458659    2196.0856  0.071739371  0.072203743            4 
 2552000   0.86210067   -3.0443213    2196.4172  0.071722087  0.072189731            6 
 2553000   0.85434876   -3.0354243    2192.0382  0.071551057  0.072175619            5 
 2554000   0.82556005    -3.007589    2205.8099  0.071972395  0.072161472            4 
 2555000   0.83794574   -3.0459463    2200.3559  0.071766338  0.072147714            3 
 2556000   0.85814348   -3.0272874    2196.4715  0.071611618  0.072133755            3 
 2557000   0.84468034   -3.0101098    2200.1278   0.07170277  0.072119872            3 
 2558000   0.86122872   -3.0443224    2201.5014  0.071719487  0.072105742            3 
 2559000   0.84787383   -3.0081709    2205.2863  0.071814717  0.072091812            3 
 2560000   0.84438393   -3.0250535    2208.5881  0.071894144  0.072077865            2 
 2561000   0.86756522   -3.0200268    2199.2635  0.071562653  0.072064011            3 
 2562000   0.84523762   -3.0336566     2208.468  0.071834113   0.07204996            4 
 2563000   0.85589699    -3.034374    2193.3687  0.071315147  0.072035887            2 
 2564000   0.84241021   -3.0366799    2201.3132  0.071545541  0.072021977            5 
 2565000   0.84514355   -3.0134824    2207.4265  0.071716261  0.072007885            3 
 2566000    0.8426329   -3.0313327    2200.0542  0.071448888  0.071994009            4 
 2567000   0.85757532   -3.0489178    2211.1954  0.071782737  0.071979956            4 
 2568000   0.83078794   -3.0324602    2197.3092  0.071304167  0.071966049            4 
 2569000   0.85887014   -2.9929408    2212.6545  0.071774182  0.071951972            3 
 2570000   0.84095057   -3.0371613    2207.2054  0.071569567  0.071937966            7 
 2571000   0.84621818   -3.0438524    2205.7794  0.071495509  0.071923966            4 
 2572000    0.8433296   -3.0366018     2208.627  0.071559972  0.071909893            6 
 2573000   0.83178696   -3.0247169    2208.0657   0.07151398   0.07189582            6 
 2574000   0.85330405   -3.0247743    2208.7946  0.071509796  0.071881608            2 
 2575000   0.86169993   -3.0451117    2206.3222  0.071402014  0.071867429            3 
 2576000   0.83608496   -3.0241078    2208.7164  0.071451745  0.071853268            4 
 2577000   0.85330203   -3.0152394     2215.191   0.07163339    0.0718392            4 
 2578000   0.84007262   -3.0566009    2217.6358  0.071684633  0.071825117            3 
 2579000    0.8418657   -3.0374971    2207.7527  0.071337493   0.07181101            3 
 2580000   0.85417393   -3.0247257    2211.8191  0.071441186  0.071796989            2 
 2581000   0.83851803   -3.0401539    2214.9801  0.071515567  0.071782948            2 
 2582000   0.81728084   -3.0339755    2211.9112   0.07138882  0.071768874            9 
 2583000   0.85372813   -3.0483076    2205.8928  0.071167016  0.071754874            5 
 2584000   0.83832859   -3.0451308    2209.3626  0.071251375  0.071740811            3 
 2585000   0.84590364   -3.0339725    2209.2696  0.071220811  0.071726711            5 
 2586000   0.85065252     -3.03047    2216.7908  0.071435639  0.071712659            4 
 2587000    0.8492342   -3.0795351    2203.8171  0.070990112  0.071698601            5 
 2588000   0.84913008   -3.0162121    2216.9152  0.071384441  0.071684485            2 
 2589000   0.81709442   -3.0376358    2214.4557  0.071277704  0.071670474            3 
 2590000   0.81529355   -3.0532571    2213.9486  0.071233868  0.071656491            4 
 2591000   0.84975706    -3.035792    2217.3542  0.071315907  0.071642499            2 
 2592000   0.84025974   -3.0478252    2216.8414  0.071271908  0.071628676            4 
 2593000   0.82876325   -3.0507593    2224.9779  0.071505909  0.071614721            2 
 2594000   0.83504104   -3.0421213    2221.1558  0.071355559  0.071600979            4 
 2595000   0.83419302   -3.0353309    2219.1793  0.071264589  0.071586971            3 
 2596000   0.84561054   -3.0211838     2221.365  0.071307299  0.071573061            5 
 2597000   0.83303399   -3.0369008    2208.8196  0.070877282  0.071558982            3 
 2598000   0.84620604   -3.0295333    2218.9339  0.071174427   0.07154496            4 
 2599000   0.83094702   -3.0254163     2219.295  0.071158618  0.071530999            3 
 2600000   0.83013583   -3.0339673    2218.0384  0.071090975  0.071517072            5 
 2601000    0.8249582   -3.0479577    2223.4233  0.071236168  0.071503118            4 
 2602000   0.83423117   -3.0406982    2220.1355  0.071103495  0.071488919            3 
 2603000   0.84755136   -3.0560169    2214.3473  0.070890873   0.07147477            4 
 2604000   0.82120256   -3.0446309    2221.0156  0.071077047  0.071460741            2 
 2605000   0.82447514     -3.02076    2227.7308  0.071264582  0.071446771            7 
 2606000   0.84874302   -3.0414174    2224.2699  0.071126564  0.071432919            3 
 2607000   0.83405667   -3.0385272    2222.3045  0.071036455  0.071419216            3 
 2608000   0.83857161   -3.0445332    2219.2042  0.070910155  0.071405334            2 
 2609000    0.8270676   -3.0399255    2222.9875  0.071003817  0.071391475            2 
 2610000   0.82528112   -3.0499192    2222.0658  0.070947183  0.071377563            3 
 2611000   0.84605184   -3.0184178    2230.8349  0.071199889  0.071363847            4 
 2612000   0.82722192   -3.0464597    2235.6103  0.071324985  0.071350089            2 
 2613000   0.84177049    -3.058552    2225.1912  0.070965404  0.071336311            4 
 2614000   0.84558989   -3.0383352    2225.5266  0.070948948  0.071322323            4 
 2615000   0.83076044   -3.0629056    2236.8773  0.071283535  0.071308641            4 
 2616000   0.82851083   -3.0446518    2227.6969  0.070963843   0.07129481            4 
 2617000   0.83916346   -3.0420011    2224.0277  0.070819887  0.071280975            5 
 2618000   0.84765373   -3.0424542    2221.4804  0.070711753  0.071267131            5 
 2619000    0.8208606    -3.053284    2230.9599  0.070986377  0.071253251            6 
 2620000   0.82268049   -3.0460506     2222.943  0.070704293  0.071239357            2 
 2621000   0.82912631   -3.0647829    2225.1522  0.070747559  0.071225301            2 
 2622000   0.84565746   -3.0470447     2235.469  0.071048467   0.07121125            6 
 2623000   0.82417652   -3.0571087    2236.3074  0.071048019  0.071197493            5 
 2624000   0.81084373   -3.0335303    2237.1851  0.071048815  0.071183698            5 
 2625000   0.83093414   -3.0436905    2235.5212  0.070968925  0.071169807            3 
 2626000   0.83222553   -3.0547782    2236.0059  0.070957284   0.07115603           10 
 2627000   0.84171555   -3.0601583    2228.7319  0.070699527  0.071142492            9 
 2628000   0.82865699    -3.037614    2243.0824  0.071127676  0.071128854            5 
 2629000   0.83948709   -3.0554853    2234.7791  0.070837425  0.071115192            3 
 2630000   0.83376161   -3.0475005    2244.3331  0.071113218  0.071101519            4 
 2631000   0.83425048   -3.0329299    2233.9404  0.070757012  0.071087726            3 
 2632000   0.82710868   -3.0561396    2234.9216  0.070761194  0.071074165            3 
 2633000   0.83613565   -3.0532038    2232.9609  0.070672264  0.071060501            7 
 2634000   0.81822892   -3.0482947    2234.3519  0.070689443  0.071046796            5 
 2635000   0.84851308   -3.0616345    2232.0551  0.070589977  0.071033068            2 
 2636000   0.84160647   -3.0384101    2244.0333  0.070941872  0.071019456            8 
 2637000   0.82464679    -3.023818    2245.0444  0.070946921  0.071005931            6 
 2638000   0.81749669   -3.0684807    2234.2219  0.070578151  0.070992236            3 
 2639000   0.82837437   -3.0470121    2240.7325  0.070756994   0.07097863            5 
 2640000    0.8236343   -3.0605426    2238.0146    0.0706444  0.070964999            4 
 2641000   0.83681825   -3.0448673    2234.6908  0.070512774  0.070951386            2 
 2642000   0.84557386   -3.0270333    2245.7574  0.070835144  0.070937781            6 
 2643000   0.83815582   -3.0529016    2235.9195  0.070498156  0.070924131            2 
 2644000   0.81977593   -3.0311038    2250.1555  0.070920181  0.070910385            2 
 2645000   0.83022008   -3.0575721    2241.1728  0.070610361  0.070896461            4 
 2646000   0.83554898   -3.0506242      2240.24  0.070554297  0.070882641            3 
 2647000   0.83299731    -3.049107    2244.1194  0.070649774  0.070868927            3 
 2648000   0.81036478    -3.036297    2238.0235  0.070431253  0.070855098            9 
 2649000   0.83622099   -3.0410854    2240.2717  0.070475392  0.070841264            2 
 2650000   0.81774118   -3.0581688    2235.3675  0.070294577  0.070827478            3 
 2651000   0.85132372   -3.0663923    2241.8765  0.070472668  0.070813584            4 
 2652000   0.81775565   -3.0729674    2241.2619  0.070426781  0.070799618            3 
 2653000   0.81793093   -3.0560703     2238.603  0.070316716  0.070785531            4 
 2654000   0.81283998   -3.0613551    2243.5714  0.070446225  0.070771418            8 
 2655000   0.83500304   -3.0636236    2243.3453  0.070412596  0.070757572            4 
 2656000   0.85177035   -3.0358702    2243.1215  0.070379064  0.070743607            4 
 2657000   0.83908244   -3.0480862    2254.3817  0.070705737  0.070729684            5 
 2658000   0.82435917   -3.0518424    2246.3527  0.070427411  0.070715784            4 
 2659000   0.82786557    -3.040812    2244.1889  0.070333111  0.070701837            3 
 2660000    0.8228302   -3.0574529    2246.6313  0.070383185   0.07068803            3 
 2661000   0.82667524   -3.0525117    2237.9492  0.070084842  0.070674105            6 
 2662000   0.80997326   -3.0744529    2242.0552  0.070187054  0.070660297            6 
 2663000   0.82214698   -3.0666633    2249.5889  0.070396448  0.070646437            5 
 2664000   0.82169076   -3.0344376    2252.6538  0.070465898  0.070632592            3 
 2665000    0.8129415   -3.0174897    2251.1357  0.070391986  0.070619031            3 
 2666000   0.83405923   -3.0379143    2251.1129  0.070364868  0.070605345            2 
 2667000   0.81682249   -3.0507273     2252.022   0.07036689  0.070591515            3 
 2668000   0.83456466   -3.0328139    2250.6355  0.070297212  0.070577724            8 
 2669000   0.83001596   -3.0540918    2251.8776  0.070309654  0.070563964            2 
 2670000   0.81155068   -3.0709368    2248.7285  0.070185035  0.070550075            6 
 2671000   0.82698088   -3.0461772    2250.4976  0.070213951  0.070536247            2 
 2672000   0.82434356   -3.0619844    2254.7706  0.070320941  0.070522587            5 
 2673000   0.81886177   -3.0623134    2248.2998  0.070092898  0.070508459            3 
 2674000    0.8217444    -3.049908    2252.8765  0.070209315  0.070494515            8 
 2675000   0.82602434   -3.0484088    2245.7844   0.06996213  0.070480583            3 
 2676000    0.8311519    -3.056281    2250.3734  0.070078894   0.07046673            4 
 2677000   0.83273506   -3.0597602    2255.8504  0.070223211  0.070452794            4 
 2678000   0.81700629   -3.0877144    2251.0609  0.070047949  0.070438845            4 
 2679000   0.83051756   -3.0809599    2250.7659  0.070012627  0.070424966            6 
 2680000   0.82307974   -3.0485325    2256.7499  0.070172571  0.070411029            2 
 2681000   0.81967057    -3.043139    2261.7926   0.07030314  0.070397304            3 
 2682000   0.83880265   -3.0716118    2246.4206  0.069799298  0.070383269            4 
 2683000   0.82659608   -3.0604841    2253.2133  0.069984262  0.070369217            5 
 2684000   0.82771675   -3.0454445    2267.2642  0.070394442   0.07035533            4 
 2685000   0.82534974   -3.0723904    2247.9085   0.06976749   0.07034156            4 
 2686000   0.83277532   -3.0705537    2258.4012  0.070067052  0.070327529            6 
 2687000    0.8327168   -3.0635869    2259.9795  0.070089924  0.070313651           10 
 2688000   0.82479748   -3.0762454    2254.0988  0.069881534  0.070299819            3 
 2689000   0.83015958   -3.0556356     2254.262  0.069860604  0.070285903            2 
 2690000   0.80651639   -3.0662491    2260.7002  0.070034083  0.070272309            3 
 2691000    0.8144663   -3.0574008    2268.2644  0.070242303  0.070258472            4 
 2692000   0.82556344   -3.0739507    2259.0549  0.069931121  0.070244546            3 
 2693000   0.83687839   -3.0641107    2264.8843  0.070085539  0.070230569            3 
 2694000   0.83799801   -3.0717851    2264.3656  0.070043479  0.070216737            2 
 2695000   0.81177388   -3.0838343    2255.8138  0.069753056  0.070202789            5 
 2696000   0.80752111   -3.0900238    2254.6892  0.069692422  0.070188882            4 
 2697000   0.82720143   -3.0743843    2249.5667  0.069508303  0.070174914            1 
 2698000   0.82449915   -3.0789958    2257.4303  0.069725424   0.07016105            2 
 2699000   0.82669839   -3.0505526    2252.7724  0.069555774  0.070147047            2 
 2700000   0.82214035   -3.0736829    2265.9594  0.069937019  0.070132988            4 
 2701000   0.82514558   -3.0720745    2266.4125  0.069925104   0.07011891            2 
 2702000   0.82829371   -3.0746868    2260.8534  0.069727775  0.070104991            3 
 2703000   0.81558155   -3.0466726    2260.8977  0.069703344  0.070090997            2 
 2704000   0.81218031   -3.0622618    2259.9849  0.069649435  0.070077016            3 
 2705000    0.8163781   -3.0836677    2265.6615  0.069798568   0.07006301            5 
 2706000   0.80949189   -3.0317563    2265.4405  0.069765967  0.070049288            4 
 2707000   0.82643375   -3.0632753    2262.7388  0.069657025  0.070035458            7 
 2708000    0.8191237   -3.0609701    2267.5297  0.069778732  0.070021465            4 
 2709000   0.80590295   -3.0601936    2266.3124   0.06971553  0.070007426            3 
 2710000   0.82111627   -3.0610521      2260.74  0.069518449  0.069993506            4 
 2711000   0.80065939   -3.0661232    2257.9358  0.069406608  0.069979408            2 
 2712000   0.82393816   -3.0689575    2269.9808   0.06975113  0.069965549            2 
 2713000   0.81792764   -3.0711782    2262.2131  0.069486825  0.069951365            2 
 2714000    0.8239066   -3.0565533    2265.2663  0.069554972  0.069937369           10 
 2715000   0.82370656   -3.0699617    2269.9595  0.069673403  0.069923284            4 
 2716000   0.82338241    -3.068599    2271.5032  0.069695115  0.069909053            9 
 2717000   0.82391111   -3.0779268    2261.8166  0.069372367  0.069895081            8 
 2718000   0.84144751   -3.0615274    2269.0099  0.069567389  0.069880985            9 
 2719000   0.81082613   -3.0716766    2269.8451  0.069567398  0.069866831            2 
 2720000   0.84028984   -3.0317768    2276.2413  0.069737784  0.069852918            3 
 2721000   0.81987675   -3.0651685    2267.8484  0.069455116  0.069838917            6 
 2722000   0.83773944   -3.1066256    2264.6409  0.069331403  0.069824852            6 
 2723000   0.80514978   -3.0671655    2265.7481  0.069339824  0.069810687            3 
 2724000   0.79821944   -3.0871229     2264.197  0.069266916  0.069796473            2 
 2725000   0.80655342   -3.0478885     2267.066  0.069329235  0.069782333            6 
 2726000   0.82620297   -3.1026329    2268.3549  0.069343204  0.069768056            6 
 2727000   0.83655977   -3.0837552    2264.2376  0.069191956  0.069753711            2 
 2728000   0.81058995   -3.0812977    2263.0441  0.069130136  0.069739511            5 
 2729000   0.82651707   -3.0555704    2265.3744  0.069175963  0.069725331            4 
 2730000   0.80626278   -3.0635656    2267.2525  0.069207952  0.069711032            4 
 2731000   0.79577038   -3.0546447    2266.8233  0.069169514  0.069696944            3 
 2732000   0.81448079   -3.0805734    2266.5406  0.069135571  0.069682609            5 
 2733000   0.82031374   -3.0718806    2275.1449  0.069372634  0.069668403            2 
 2734000   0.80905809   -3.0654115    2272.7557  0.069274435  0.069654241            3 
 2735000   0.81428247   -3.0577518    2269.6645  0.069154922  0.069640121            4 
 2736000   0.81073752   -3.0747685    2274.7867  0.069285658  0.069625895            3 
 2737000   0.80588146   -3.0935331    2267.2428  0.069030654  0.069611562            2 
 2738000   0.80115001   -3.0680409    2267.2834  0.069006678  0.069597285            6 
 2739000   0.82378291    -3.073479    2269.6895  0.069054688  0.069583158            4 
 2740000   0.82403967   -3.0737914    2268.1022  0.068981209  0.069569115            7 
 2741000   0.82652734   -3.0890365    2281.0488  0.069349655  0.069554896            5 
 2742000   0.82078432   -3.0981262    2264.4997  0.068821412  0.069540669            5 
 2743000   0.81132325   -3.0839431    2274.0779  0.069087311  0.069526387           10 
 2744000   0.81086597   -3.0802359    2271.6117  0.068987237  0.069511987            4 
 2745000   0.81845449   -3.0767099    2272.0561  0.068975595  0.069497535            2 
 2746000    0.8029444   -3.0751275    2277.3624  0.069111508  0.069483284            7 
 2747000   0.82112942   -3.0659597     2271.573  0.068910721  0.069468915            4 
 2748000   0.79392873   -3.0821095    2273.4658  0.068943043  0.069454529            4 
 2749000   0.80803348   -3.0777023    2267.7132   0.06874358  0.069440052            6 
 2750000   0.82111423   -3.0883639     2276.252  0.068977335  0.069425681            4 
 2751000   0.81075595    -3.090268     2272.647  0.068843057  0.069411361            8 
 2752000   0.82775979   -3.0833045     2272.133  0.068802478  0.069396764            6 
 2753000   0.81993123   -3.0592022    2283.7117  0.069127972  0.069382323            3 
 2754000   0.81488275   -3.0714655    2272.4578   0.06876234  0.069368019            5 
 2755000   0.80742498   -3.0783505    2276.3713  0.068855756  0.069353872            2 
 2756000   0.79583305   -3.0686377    2278.8236  0.068904923  0.069339647            5 
 2757000   0.81952459   -3.0790812    2274.4382  0.068747378  0.069325539            3 
 2758000   0.80018345   -3.0575772    2279.4528  0.068873966  0.069311276            3 
 2759000   0.81080737    -3.072771    2282.6888  0.068946743  0.069296989            3 
 2760000   0.82172345   -3.0693014    2279.3311  0.068820384  0.069282692            3 
 2761000   0.77909943   -3.0615161    2284.6834  0.068957002  0.069268299            4 
 2762000   0.80531192   -3.0632745    2271.8475  0.068544759  0.069253912            5 
 2763000   0.80768871   -3.0759744    2274.8183  0.068609553  0.069239374           12 
 2764000    0.8267987    -3.076607    2274.6819  0.068580616  0.069224869            3 
 2765000   0.80928004   -3.0820553      2283.86  0.068832428  0.069210377            3 
 2766000    0.8192627   -3.0479086    2291.2939  0.069031512   0.06919595            5 
 2767000   0.81437751   -3.1021744    2277.4122  0.068588491  0.069181579            5 
 2768000   0.82333051   -3.0743611    2275.5541   0.06850777  0.069167075            3 
 2769000    0.8060423   -3.0874048    2286.3567  0.068808134  0.069152729            3 
 2770000   0.83269773   -3.0868888    2280.0707  0.068594184  0.069138481            3 
 2771000   0.82695283   -3.0735222    2280.6094  0.068585631  0.069124072            4 
 2772000   0.80146731   -3.0741323    2276.5769  0.068439661  0.069109698            2 
 2773000   0.77431433   -3.0759385    2281.8362   0.06857303   0.06909527            4 
 2774000   0.79212856   -3.1080616     2279.906  0.068490328  0.069080754            2 
 2775000   0.79719979   -3.1054043    2274.8996  0.068315303  0.069066248            2 
 2776000   0.82153676    -3.088174    2277.9963  0.068383655  0.069051713            2 
 2777000   0.80287672   -3.0960656    2280.6556   0.06843883  0.069037306            3 
 2778000   0.80268482   -3.0836637    2276.8932  0.068301333  0.069022931            4 
 2779000   0.81142696   -3.0726446    2285.6325  0.068538818  0.069008574            5 
 2780000   0.79233774   -3.0870327    2287.7717  0.068578287  0.068994209            3 
 2781000   0.80659701   -3.0714521    2285.4366  0.068483657      0.06898            2 
 2782000   0.80806188   -3.0753556    2285.8536   0.06847153  0.068965628            6 
 2783000   0.83131881    -3.072072    2288.5454  0.068527529  0.068951379            2 
 2784000   0.80184418    -3.123193    2290.1013  0.068549489   0.06893706            6 
 2785000   0.82136557   -3.0794972    2292.2044  0.068587803   0.06892265            4 
 2786000   0.81600835   -3.0754289    2290.2247  0.068503968  0.068908292            3 
 2787000   0.80314552    -3.079485    2282.8703  0.068259487   0.06889405            3 
 2788000   0.80067591   -3.0748875    2285.8845  0.068325099  0.068879839            3 
 2789000   0.81300237   -3.0916029    2291.9941  0.068483151  0.068865546            6 
 2790000   0.78406594   -3.0713355    2293.8242  0.068513268  0.068851304            3 
 2791000   0.80821007   -3.1332124    2288.3936  0.068326574   0.06883719            4 
 2792000   0.81008683   -3.0623022    2294.2412  0.068476637  0.068822903            6 
 2793000   0.78606534    -3.101013     2293.539  0.068431168   0.06880875            3 
 2794000   0.78497186   -3.0792797     2296.427  0.068492812  0.068794516            2 
 2795000   0.80742043   -3.0913687    2292.3884  0.068347896  0.068780361            5 
 2796000   0.79072457    -3.090394    2292.5472  0.068328183    0.0687663            5 
 2797000   0.80138502   -3.0827312    2294.3279  0.068356806  0.068752271            7 
 2798000   0.82989858   -3.0799452    2291.8865  0.068259664  0.068738095            2 
 2799000   0.82016832   -3.0766715     2294.064  0.068300108  0.068724151            3 
 2800000   0.81275653   -3.1021542    2296.3995  0.068345223  0.068710299            4 
 2801000    0.7964435   -3.0938244     2297.189  0.068344311  0.068696264            4 
 2802000   0.80642086    -3.108263     2293.282  0.068203724  0.068682193            6 
 2803000   0.80538155   -3.0789059    2309.5334  0.068662547   0.06866842            2 
 2804000   0.79766973   -3.0635264    2297.9337  0.068293323  0.068654694            8 
 2805000   0.80231844   -3.0744583    2299.7795  0.068323813  0.068640887            4 
 2806000   0.81464436    -3.071028    2300.8708  0.068331871  0.068626915            3 
 2807000   0.80841904   -3.0841273    2298.8226  0.068246722  0.068612903            5 
 2808000   0.79193812   -3.0958169    2306.8323  0.068460121  0.068599039            3 
 2809000   0.79803753   -3.0735928    2311.5289  0.068575083  0.068585064            3 
 2810000   0.81051794   -3.0955528    2303.2577  0.068305388  0.068571084            4 
 2811000   0.81326363   -3.1048826    2308.6877  0.068442065  0.068557202            5 
 2812000   0.81531988    -3.083284    2305.3869  0.068319906   0.06854336            4 
 2813000   0.79202013   -3.1000917    2297.4093  0.068059288  0.068529533            5 
 2814000   0.80386119   -3.1013533    2312.7137  0.068488325  0.068515643            4 
 2815000   0.80184273   -3.0802431    2306.1015  0.068268249  0.068501827            6 
 2816000   0.80303867    -3.083762    2310.0336   0.06836037  0.068488006            3 
 2817000   0.81209845   -3.0904987    2304.2122  0.068163891  0.068474391            3 
 2818000   0.79067919   -3.0745003    2310.1582  0.068315536  0.068460566            6 
 2819000   0.80177166   -3.1000154    2301.5868   0.06803792  0.068446687            3 
 2820000   0.78335407   -3.0963784    2310.3216  0.068271916  0.068432912            3 
 2821000   0.81012593   -3.0934521    2314.8315  0.068380939  0.068419034            3 
 2822000   0.78767585   -3.1113014    2303.4187  0.068019688  0.068405235            5 
 2823000   0.76984943   -3.0836242    2304.5933  0.068030266   0.06839144            1 
 2824000   0.78454298    -3.087418    2311.7551  0.068217513  0.068377587            2 
 2825000   0.80804138   -3.0948064    2309.8733  0.068137855   0.06836378            6 
 2826000   0.80367544   -3.0900001    2318.2873  0.068361856  0.068350001            2 
 2827000   0.82042018   -3.0724478    2318.0018  0.068329259   0.06833635            5 
 2828000   0.80777398   -3.0886466    2309.1079   0.06804302  0.068322641            4 
 2829000   0.80141795   -3.0970709     2313.479  0.068147726  0.068308863            2 
 2830000   0.79196492   -3.1056765     2308.842  0.067987103  0.068295071            4 
 2831000   0.78000641   -3.0911636    2310.3474  0.068007401  0.068281231            2 
 2832000   0.80168663   -3.0670058    2317.9204  0.068206228   0.06826758            3 
 2833000   0.79382877    -3.109487    2314.2938  0.068075473  0.068253946            3 
 2834000   0.78938043   -3.0991458    2307.2636   0.06784473  0.068240257            3 
 2835000   0.80081377   -3.0748548    2305.5782  0.067771259  0.068226376            5 
 2836000   0.79106727   -3.0849521    2316.4628  0.068067197  0.068212619            5 
 2837000   0.80743454   -3.1045507    2311.5304  0.067898321  0.068198945            3 
 2838000   0.79703723   -3.0974758    2315.5383  0.067992082  0.068185273            3 
 2839000    0.7981293   -3.0927019    2311.3367  0.067844801  0.068171584            2 
 2840000   0.79901669   -3.0902115    2316.9572  0.067985832  0.068157531            3 
 2841000   0.77307606   -3.0812826    2305.4589   0.06762463  0.068143696            2 
 2842000   0.79667997   -3.1004983     2314.736  0.067872861  0.068129789            9 
 2843000    0.8066246   -3.1327235    2305.9873  0.067592547  0.068115859            5 
 2844000   0.79659545   -3.0897574    2316.0837  0.067864618   0.06810191            8 
 2845000   0.79225743   -3.0950895    2317.6474  0.067886566  0.068087989            3 
 2846000   0.79685579    -3.085326     2314.116   0.06775931  0.068074178            3 
 2847000   0.78939536   -3.0750618    2315.2673  0.067769211  0.068060349            7 
 2848000   0.78551545   -3.1024438    2306.4215  0.067486585  0.068046291            3 
 2849000   0.79076898   -3.1227141    2309.9549  0.067566248  0.068032174            8 
 2850000   0.79837967   -3.1165601    2309.4788   0.06752862  0.068018114            5 
 2851000   0.80001562   -3.0922761    2320.9354  0.067839804  0.068004267            5 
 2852000   0.79989948   -3.0862404    2314.1422  0.067617526  0.067990384            4 
 2853000    0.8139143   -3.1123022    2312.2356  0.067538136  0.067976457            3 
 2854000   0.78049665   -3.1112267    2316.3443   0.06763444  0.067962431            5 
 2855000   0.79115994   -3.1015726    2315.2763  0.067579578  0.067948445            6 
 2856000   0.78931017   -3.1024997    2320.2326   0.06770053  0.067934475            8 
 2857000   0.80020115    -3.092838    2318.9972  0.067640801   0.06792052            4 
 2858000   0.79538127   -3.0742936    2324.5975  0.067780427  0.067906718            5 
 2859000   0.78935424    -3.098586    2316.9826  0.067534762  0.067892936            8 
 2860000   0.80277339   -3.0968348    2324.5883   0.06773276  0.067879214            4 
 2861000    0.8085313   -3.0952364    2322.2132  0.067639903   0.06786555            7 
 2862000   0.78338707   -3.0826802    2325.9805  0.067725963  0.067851914            2 
 2863000   0.79246629   -3.1035263    2323.4041  0.067627317  0.067838238            2 
 2864000   0.80497205   -3.0932864    2326.0879  0.067681795  0.067824524            7 
 2865000   0.77913409   -3.0930844    2323.6701  0.067587844  0.067810632            3 
 2866000    0.7871097   -3.1035796    2323.7977  0.067567973  0.067796878            4 
 2867000    0.7851361   -3.1095738    2314.9192  0.067286339  0.067783118            4 
 2868000   0.80479864   -3.1418215     2314.301  0.067244916  0.067769272            8 
 2869000   0.79401002   -3.0853715    2326.2941  0.067569828  0.067755526            4 
 2870000   0.79176508    -3.118379    2331.3441  0.067692919  0.067742089            5 
 2871000   0.78443724   -3.1085713    2326.0248  0.067514942  0.067728396            5 
 2872000   0.79322294   -3.1303627    2318.7672  0.067280849  0.067714495            2 
 2873000   0.78773379   -3.1133482    2318.6452  0.067253892  0.067700577            6 
 2874000   0.79895843   -3.0998382    2327.0589  0.067474453  0.067686661            3 
 2875000   0.79064429   -3.0943452    2332.7624  0.067616301  0.067673002            3 
 2876000   0.77986923   -3.1181955    2321.4017  0.067263611  0.067659127            2 
 2877000   0.78481432   -3.1121644    2321.6968  0.067248779  0.067645391            2 
 2878000   0.80745219   -3.0708943    2330.1709  0.067470782  0.067631562            3 
 2879000   0.78197674   -3.0899605    2327.0931  0.067358257  0.067617772            2 
 2880000   0.78169866   -3.1128673    2327.5305  0.067347527  0.067603828            4 
 2881000   0.78261258   -3.1092064    2329.2159  0.067372901  0.067589839            4 
 2882000   0.79852282   -3.1000825    2324.8462  0.067223172  0.067575776            4 
 2883000   0.79108218   -3.0977516    2333.6277  0.067453686  0.067561974            3 
 2884000   0.79315118    -3.088103    2325.7747  0.067203384  0.067547948            3 
 2885000   0.78770502   -3.1229226    2329.5366  0.067288752  0.067533904            2 
 2886000   0.80844612   -3.0939014    2320.1983  0.066995793  0.067519752            2 
 2887000   0.78419073   -3.1193988    2331.9675  0.067312304  0.067505617            4 
 2888000   0.79750056   -3.1008267    2330.8847  0.067257753   0.06749139            2 
 2889000   0.77769127   -3.1164231    2317.0217  0.066834593  0.067477415            8 
 2890000   0.79121039   -3.0921535    2318.5689   0.06685608  0.067463275            2 
 2891000   0.80294507   -3.1143184    2318.5124  0.066831328  0.067449201            2 
 2892000   0.79039625   -3.1150338    2328.6794  0.067101183  0.067435123            4 
 2893000   0.79073082   -3.0896537    2333.0737  0.067204566  0.067421296            1 
 2894000   0.77757661   -3.1151195    2322.2802  0.066870542  0.067407226            2 
 2895000   0.78791508   -3.1001933    2326.8994  0.066980408  0.067393159            4 
 2896000   0.78926664   -3.1358127    2323.8673  0.066870031  0.067379108            6 
 2897000   0.77749798   -3.1205003    2335.3102  0.067176107  0.067365009            4 
 2898000   0.78004387   -3.1252472    2332.9311  0.067084514  0.067351022            4 
 2899000   0.80336582   -3.1142257    2329.1695  0.066953246  0.067336925            3 
 2900000   0.79287406   -3.1090418    2329.9504  0.066952597  0.067322736            3 
 2901000   0.79610935   -3.1396946    2322.4543  0.066714189  0.067308512            5 
 2902000   0.78291561   -3.1080648    2332.1445  0.066969459   0.06729432            8 
 2903000    0.7909603    -3.111146    2327.1679  0.066803533  0.067280184            4 
 2904000    0.7949195   -3.1196514    2328.3886  0.066815559  0.067265992            9 
 2905000   0.77895726   -3.1178906    2330.1228  0.066842307  0.067251705            4 
 2906000   0.80014584    -3.120326     2329.107  0.066790177  0.067237468            4 
 2907000   0.79890913   -3.1071325    2326.7784  0.066700446  0.067223106            5 
 2908000   0.77033757   -3.0837806    2335.1599  0.066917695  0.067208887            2 
 2909000   0.78716592   -3.1049815     2330.699  0.066766902  0.067194792            3 
 2910000   0.78535186   -3.1127911    2338.7311  0.066973972  0.067180755            4 
 2911000   0.77725672   -3.0992037    2330.0824  0.066703378  0.067166753            3 
 2912000   0.80132156   -3.1281235    2337.8147  0.066901748  0.067152723            6 
 2913000   0.78602382   -3.1034468    2333.2486  0.066748157  0.067138552            3 
 2914000   0.78378354   -3.1008822    2328.7115  0.066595501   0.06712442            3 
 2915000   0.78384441   -3.0916928    2336.0843  0.066783429  0.067110347            7 
 2916000   0.78100667   -3.1101197     2335.605  0.066746827  0.067096445            3 
 2917000   0.78262881   -3.1246397    2332.5949  0.066637952  0.067082352            4 
 2918000   0.78558689   -3.1125524    2337.6333  0.066759005   0.06706838            7 
 2919000   0.79084979   -3.1057252    2333.9997    0.0666324  0.067054417            6 
 2920000   0.79607562   -3.1257635    2335.9247  0.066664518  0.067040566            5 
 2921000   0.78926893   -3.1147487    2342.9646  0.066842537  0.067026575            7 
 2922000   0.77548111   -3.1255311    2337.6495  0.066668079   0.06701258            3 
 2923000   0.77731033   -3.1239083    2334.3845  0.066552185  0.066998456            3 
 2924000   0.76836669   -3.1097397    2340.1468  0.066693649  0.066984512            7 
 2925000   0.78762914   -3.1229613    2346.8505  0.066861839  0.066970455            5 
 2926000   0.76930623   -3.1265746    2333.4304  0.066456779  0.066956482            4 
 2927000      0.78585   -3.1240966    2339.4176  0.066604533  0.066942445            2 
 2928000   0.78601554   -3.1005077    2341.4867  0.066640674  0.066928518            6 
 2929000   0.77971079   -3.1590941     2337.092  0.066492888  0.066914385            6 
 2930000   0.78191477    -3.122271      2341.68  0.066600683  0.066900404            6 
 2931000   0.79107033   -3.1020485    2342.5309  0.066602153   0.06688644            6 
 2932000   0.79267766   -3.0972537    2342.6959  0.066584126  0.066872493            5 
 2933000   0.79088819    -3.121896    2349.3782  0.066751285  0.066858563            5 
 2934000    0.7776677   -3.1115858    2347.2354  0.066667672  0.066844731            5 
 2935000   0.78418419   -3.1111896    2344.8115  0.066576136  0.066830731            5 
 2936000   0.78389105   -3.1219382    2348.4612  0.066657052  0.066816899            2 
 2937000   0.80223522    -3.117688    2345.0026  0.066536222  0.066802893            4 
 2938000   0.76581176   -3.1447015    2343.8103  0.066479756  0.066788932            3 
 2939000   0.76999713    -3.102963     2346.451  0.066532013  0.066775023            2 
 2940000   0.78580121    -3.126521    2339.7721   0.06632007  0.066761313            4 
 2941000   0.79235353   -3.1156166    2351.4555   0.06662857  0.066747552            5 
 2942000   0.78933594   -3.1099725    2349.3051  0.066545011  0.066733757            7 
 2943000   0.77659502   -3.0967657    2350.6511  0.066560514   0.06671986            5 
 2944000   0.78457603   -3.1329036    2347.2058   0.06644038  0.066706001            4 
 2945000   0.77470781   -3.1106432    2353.1767  0.066586776  0.066692127            6 
 2946000   0.79354966   -3.1015813    2351.9807  0.066530344  0.066678058            3 
 2947000   0.79149576   -3.1325614    2344.0817  0.066284406  0.066664021            3 
 2948000   0.78879933   -3.1185998    2354.7762  0.066564231  0.066650038            3 
 2949000   0.76819664   -3.1149052    2352.7661  0.066484857  0.066636161            3 
 2950000   0.77633134   -3.1069642    2357.4491  0.066594608  0.066622313            2 
 2951000   0.77808686   -3.1289266    2356.5869  0.066547692  0.066608563            4 
 2952000   0.78311804   -3.1242185    2346.1145  0.066229519  0.066594937            8 
 2953000   0.78074682   -3.1344786    2349.1382  0.066292421  0.066581045            5 
 2954000   0.78352861   -3.1378198    2361.1307  0.066608291  0.066567333            4 
 2955000   0.77908257   -3.1453685    2351.2288   0.06630651  0.066553543            4 
 2956000   0.77928538   -3.1359644    2355.6973  0.066410051  0.066539809            3 
 2957000   0.80312327   -3.1183097    2350.3387  0.066236577  0.066526045            6 
 2958000   0.77978493   -3.1074482    2354.6959  0.066336936  0.066512283            5 
 2959000   0.78344718   -3.1284429      2353.38  0.066277458  0.066498398            3 
 2960000   0.78484123   -3.1235147    2357.4526  0.066369724   0.06648447            3 
 2961000    0.7868704   -3.1198915    2355.9369  0.066304653  0.066470747            5 
 2962000   0.77210915   -3.1033983    2353.5528  0.066215192  0.066456867            4 
 2963000   0.76709554   -3.1134416     2358.327  0.066327117  0.066443259            5 
 2964000   0.77728578   -3.1393834    2352.0833  0.066129198  0.066429558            5 
 2965000   0.78681998   -3.1031877    2358.8092  0.066295931  0.066415744            3 
 2966000   0.77985804   -3.1103983    2359.4936  0.066292808  0.066401923            4 
 2967000   0.77006293   -3.1367665    2349.8874  0.066000658  0.066388177            3 
 2968000    0.7649519   -3.1386749    2358.1077  0.066209223  0.066374454            4 
 2969000   0.78182941   -3.1020592    2357.8014  0.066178326    0.0663606            4 
 2970000   0.76915437   -3.1452956    2358.3738  0.066172104  0.066346872            3 
 2971000   0.77659651   -3.0901408    2365.1216    0.0663391  0.066333128            4 
 2972000   0.78234776   -3.0969078    2367.4283  0.066381457  0.066319739            3 
 2973000    0.7881603   -3.1216926    2370.4863  0.066444846  0.066306305            2 
 2974000   0.77791921   -3.1220077    2356.8703  0.066040974  0.066292646            1 
 2975000   0.77139692   -3.1238026    2365.4487  0.066259068  0.066279009            7 
 2976000   0.77397853   -3.1283236    2360.6096    0.0661013  0.066265448            6 
 2977000   0.78046101   -3.1344412    2359.9665  0.066061093  0.066251673            2 
 2978000   0.77184304   -3.1153849    2371.7713  0.066369245  0.066238103            2 
 2979000   0.78401397   -3.1480679    2363.4954  0.066115459  0.066224466            5 
 2980000   0.78089813   -3.1356101    2361.4203  0.066035243  0.066210687            6 
 2981000    0.7917155   -3.1145058    2365.8179  0.066136026  0.066197034            4 
 2982000   0.77189297   -3.1320705      2365.15  0.066095183    0.0661834            5 
 2983000   0.77210402   -3.1392926    2365.7931  0.066090991   0.06616976            4 
 2984000   0.78849969   -3.1362745     2360.913  0.065932557  0.066156251            6 
 2985000   0.77080142   -3.1441134    2363.9588  0.065995499   0.06614259            4 
 2986000   0.77211229   -3.1251321    2363.4417  0.065958966  0.066128943            4 
 2987000   0.78324205   -3.1097219    2368.3749  0.066074516  0.066115254            4 
 2988000   0.78538519   -3.1175268    2357.6194  0.065752438  0.066101611            5 
 2989000   0.78935519   -3.1284276    2368.7616  0.066041085  0.066087936            4 
 2990000     0.785993   -3.1221469     2366.772  0.065963546  0.066074323            5 
 2991000   0.76991866   -3.1305275    2372.3816  0.066097783  0.066060823            3 
 2992000   0.78589015   -3.1242864    2364.8312  0.065865396  0.066047256            5 
 2993000   0.75469236   -3.1306238    2360.6164  0.065726039  0.066033627           10 
 2994000   0.75890647   -3.1228161    2371.9569   0.06601973  0.066020009            5 
 2995000   0.76399385   -3.1324622    2365.9313   0.06583003  0.066006402            3 
 2996000    0.7801919   -3.1382492    2370.9953  0.065948913  0.065992763            2 
 2997000   0.75646552    -3.141252    2365.3286  0.065769342  0.065978952            4 
 2998000   0.77687933   -3.1229144    2379.3498  0.066137142  0.065965338            4 
 2999000   0.77113947   -3.1338096    2371.8065  0.065905481  0.065951824            6 
 3000000   0.78031293   -3.1354735    2368.4389   0.06578997    0.0659383            5 
 3001000   0.76420575   -3.1527632    2375.2176  0.065956281  0.065924695            2 
 3002000   0.75336043    -3.113182    2371.7272  0.065837419   0.06591112            2 
 3003000   0.76835073   -3.1240354    2363.1997  0.065578858  0.065897428            4 
 3004000   0.78074197   -3.1431119    2371.3647  0.065783531  0.065883794            3 
 3005000   0.74919363    -3.158214     2374.654  0.065852857   0.06587019            7 
 3006000   0.76940105   -3.1615859    2367.4677  0.065631727  0.065856562            5 
 3007000   0.77716062   -3.1286672    2364.5677  0.065529534  0.065842882            3 
 3008000    0.7677556   -3.1241573    2364.2609   0.06549925   0.06582909            7 
 3009000   0.76638993   -3.1297699    2367.0475  0.065554656  0.065815382            6 
 3010000   0.78201737   -3.1081624    2371.2635  0.065649599  0.065801751            4 
 3011000   0.76476863   -3.1499827    2372.4148  0.065659658  0.065788013            4 
 3012000   0.77304675    -3.131534    2369.9262  0.065569007  0.065774334            9 
 3013000   0.78298332   -3.1541291    2371.9667  0.065603681  0.065760558            5 
 3014000   0.75350317   -3.1357688    2376.8347   0.06571651  0.065746763            3 
 3015000   0.77393607   -3.1240748      2371.34  0.065542841   0.06573299            7 
 3016000    0.7600131   -3.1356751    2376.7758  0.065671303   0.06571952            6 
 3017000   0.76553044   -3.1349759    2367.3814  0.065390052  0.065705941            4 
 3018000   0.76532022   -3.1510234    2366.0361  0.065331237  0.065692316            5 
 3019000   0.76129793   -3.1381816    2377.3335   0.06562144  0.065678818            4 
 3020000   0.76869928   -3.1398157    2376.4133  0.065574318  0.065665334            5 
 3021000   0.76614281   -3.1299063    2366.7453  0.065285923  0.065651801            5 
 3022000   0.78423129   -3.1142382    2387.8174  0.065845396  0.065638242            5 
 3023000   0.76208365   -3.1610889    2372.9687  0.065414288  0.065624726            3 
 3024000   0.76077089   -3.1447821    2379.6502   0.06557678  0.065611384            6 
 3025000   0.76859288    -3.127413    2379.7211  0.065557054  0.065597982            4 
 3026000   0.76178216   -3.1397979    2378.7607  0.065508943  0.065584522            5 
 3027000   0.77082131   -3.1451825    2375.0978  0.065386461  0.065571106            5 
 3028000   0.76929172   -3.1435901    2364.7855  0.065081064  0.065557529            4 
 3029000   0.78316939    -3.110419    2382.9486  0.065559277  0.065543982            3 
 3030000     0.755818   -3.1320909    2381.2655   0.06549135  0.065530471            3 
 3031000   0.76515314   -3.1261856    2380.3075  0.065443405  0.065516919            3 
 3032000   0.76198793   -3.1281757    2372.7356   0.06521371  0.065503362            5 
 3033000   0.78035802   -3.1495226    2382.9488  0.065472821  0.065489715            6 
 3034000   0.76997962   -3.1434107    2379.7255  0.065362709  0.065476115            3 
 3035000   0.75903366   -3.1285482    2382.8999  0.065428332  0.065462563            5 
 3036000   0.78068053    -3.158839     2375.472  0.065202899  0.065448836            7 
 3037000   0.77316694    -3.139935    2385.7847  0.065464402   0.06543504            5 
 3038000   0.75966244   -3.1544696    2380.1635  0.065288664   0.06542134            5 
 3039000   0.78133829   -3.1413561    2373.1882  0.065075908  0.065407639            5 
 3040000   0.76329091   -3.1765073    2378.6725  0.065204839   0.06539387            6 
 3041000   0.74056232   -3.1319098    2381.6104  0.065263905  0.065380233            5 
 3042000   0.74913089   -3.1562346    2379.0044   0.06517106  0.065366537            4 
 3043000   0.78653745    -3.134881     2384.467  0.065299238  0.065352899            6 
 3044000   0.77877367   -3.1380213    2385.7634  0.065313277  0.065339167            5 
 3045000   0.76132034   -3.1450023    2378.6334  0.065096699  0.065325493            3 
 3046000   0.77232354   -3.1304127    2381.4489  0.065152355  0.065311741            4 
 3047000   0.77477308   -3.1458089    2390.9336  0.065390374  0.065298193           11 
 3048000   0.78296152   -3.1410244    2381.5914  0.065113501  0.065284541            5 
 3049000   0.75696303    -3.141605    2393.8021   0.06542588  0.065270918            5 
 3050000   0.75576929   -3.1312409    2384.7172  0.065156208  0.065257233            6 
 3051000   0.76645816   -3.1514661     2382.993  0.065087757  0.065243532            4 
 3052000   0.77165022   -3.1396377    2391.8069  0.065307092  0.065229906            3 
 3053000   0.77308819   -3.1442211    2385.6601   0.06511792  0.065216273            3 
 3054000   0.77632814   -3.1319353    2390.7297  0.065234931  0.065202612            2 
 3055000   0.76336343    -3.142954    2385.6744  0.065075679   0.06518908            4 
 3056000   0.76203423   -3.1110084    2384.5302  0.065023184  0.065175463            3 
 3057000   0.75992472    -3.151737    2383.0878  0.064962594  0.065161977            3 
 3058000   0.74939474   -3.1533716    2383.1018  0.064941733  0.065148233            3 
 3059000   0.76664287   -3.1421893    2378.0804  0.064783708  0.065134468            5 
 3060000    0.7581419   -3.1445346    2389.2104  0.065065642  0.065120756            5 
 3061000   0.76688885    -3.152917    2385.2992  0.064937906  0.065107201            2 
 3062000   0.75192605   -3.1606283    2382.6901  0.064845692  0.065093397            2 
 3063000   0.75371995   -3.1562704    2384.0359  0.064861135  0.065079564            4 
 3064000   0.76155605    -3.145724    2385.2843   0.06487392  0.065065829            5 
 3065000   0.75955202   -3.1543647    2380.0681  0.064710934  0.065051973            8 
 3066000   0.76735892   -3.1664318    2381.7118  0.064734501  0.065038082            5 
 3067000   0.76774514   -3.1420088    2387.9275  0.064882281  0.065024333            5 
 3068000   0.77179871   -3.1513637    2385.6463  0.064799171  0.065010452            6 
 3069000   0.76848494   -3.1963914     2389.463  0.064881693  0.064996566            4 
 3070000   0.77462163   -3.1558907    2379.8634  0.064599984  0.064982777            3 
 3071000    0.7585222   -3.1601125    2386.7041  0.064764575  0.064968944            5 
 3072000   0.76147605   -3.1426863    2394.0388   0.06494246  0.064955084            4 
 3073000    0.7641323   -3.1603032    2386.2928  0.064711269   0.06494121            4 
 3074000    0.7541445   -3.1484566    2394.4858  0.064912325  0.064927287            6 
 3075000   0.75968434   -3.1739756     2375.097  0.064365773  0.064913432            3 
 3076000   0.76036838   -3.1531337    2385.1048  0.064615972  0.064899608            7 
 3077000   0.74761074   -3.1389096    2386.1269  0.064622655  0.064885699            3 
 3078000   0.76258447   -3.1488364    2382.9469  0.064515566  0.064871809            7 
 3079000   0.75254143   -3.1568245     2386.281  0.064584849  0.064858066            2 
 3080000   0.76161832   -3.1288402    2393.5222  0.064759799  0.064844237            5 
 3081000   0.74801346   -3.1631064    2392.8235  0.064719883   0.06483032            4 
 3082000   0.75013589   -3.1354262    2393.7886  0.064724979  0.064816365            6 
 3083000   0.74296633   -3.1446804    2391.7111  0.064647829  0.064802581            7 
 3084000    0.7571742   -3.1774245    2396.8022  0.064764435   0.06478877            4 
 3085000   0.75755035   -3.1644698    2382.6599  0.064361423  0.064775003            5 
 3086000    0.7731274   -3.1600069    2392.2002  0.064598192  0.064761256            2 
 3087000   0.75660305   -3.1670704     2391.817  0.064566919  0.064747423            2 
 3088000     0.748221   -3.1510188    2383.1442  0.064311967  0.064733541           10 
 3089000   0.76704096   -3.1560284    2385.8147  0.064363189  0.064719602            6 
 3090000   0.76701729   -3.1546118    2390.6286  0.064472186   0.06470558            6 
 3091000   0.75549803   -3.1664359    2390.6363  0.064451535  0.064691707            3 
 3092000   0.76094723   -3.1544104    2397.8429  0.064624918  0.064677878            4 
 3093000   0.74345287   -3.1500577    2388.1987  0.064344183  0.064664037            5 
 3094000   0.76028108   -3.1453802    2397.5486  0.064575216   0.06465034            4 
 3095000   0.76297615   -3.1365422    2394.6577  0.064476512  0.064636604            4 
 3096000   0.74339146   -3.1678157    2389.3371  0.064312474  0.064622849            5 
 3097000   0.77270566   -3.1511946    2394.5739  0.064432621  0.064609138            4 
 3098000    0.7635663   -3.1756355    2388.7826  0.064256041   0.06459528            4 
 3099000   0.75824824   -3.1372559    2402.2878  0.064598468   0.06458155            4 
 3100000   0.77561994   -3.1470049    2397.8187  0.064457492  0.064567995            3 
 3101000   0.73928633   -3.1472652    2399.4154  0.064479615  0.064554342            3 
 3102000   0.76146994   -3.1681662    2400.3289   0.06448337  0.064540581           11 
 3103000   0.73435162   -3.1736737    2396.0197  0.064346861  0.064526847           11 
 3104000    0.7450007   -3.1591132    2395.3697  0.064308678  0.064513076            3 
 3105000   0.76210086   -3.1574706    2390.6038   0.06416006  0.064499342           10 
 3106000   0.75991916   -3.1480929    2398.2467   0.06434446  0.064485626            4 
 3107000   0.76121223   -3.1620448    2404.9366  0.064503182  0.064471988            5 
 3108000   0.75870196   -3.1752275    2392.2274  0.064141662  0.064458281            2 
 3109000   0.75199999   -3.1473366     2401.212  0.064361851  0.064444643            3 
 3110000   0.76050323   -3.1624409    2403.0531  0.064390492  0.064431066            9 
 3111000   0.74930729   -3.1682532     2396.549  0.064195569  0.064417344            4 
 3112000   0.76014776   -3.1437594    2405.6484  0.064418606  0.064403801            8 
 3113000   0.75477261   -3.1716176    2411.6101  0.064557503  0.064390383            4 
 3114000   0.76867305   -3.1471874    2412.4186  0.064558409  0.064376957            6 
 3115000   0.75736048   -3.1679241    2403.5966  0.064301674   0.06436351            4 
 3116000   0.75316979   -3.1579751    2402.1595  0.064242607  0.064350168            4 
 3117000   0.75859272   -3.1594714    2405.4374  0.064309629  0.064336598            2 
 3118000   0.74609271   -3.1803322    2398.6563  0.064107769  0.064323153            5 
 3119000   0.75803385   -3.1488753    2410.8825  0.064413876  0.064309786           15 
 3120000   0.74531871   -3.1755015    2405.4043   0.06424691  0.064296462            4 
 3121000   0.73839138   -3.1824714    2404.0821  0.064191021  0.064283008            6 
 3122000   0.74696087   -3.1817783    2403.4644  0.064153972  0.064269432            2 
 3123000   0.74606316   -3.1557087    2411.2299  0.064340642  0.064255901            3 
 3124000   0.73505942    -3.149611    2404.4073  0.064138052  0.064242527            5 
 3125000   0.74811941   -3.1722153    2403.9115  0.064104308  0.064229086            4 
 3126000   0.75102486   -3.1691649    2410.2787  0.064253537  0.064215685            2 
 3127000   0.74405029   -3.1802513    2400.5861  0.063974685   0.06420223            3 
 3128000   0.74778968   -3.1708197    2411.2102   0.06423727  0.064188566            4 
 3129000    0.7518743   -3.1510395    2411.8627   0.06423412  0.064175084            3 
 3130000   0.74264437   -3.1776584    2407.0498  0.064085458  0.064161537            6 
 3131000   0.75865647   -3.1542153    2412.1027  0.064199476  0.064148029            3 
 3132000    0.7542002   -3.1904088    2410.5067  0.064136512  0.064134475            2 
 3133000   0.76013283   -3.1730091    2412.5553  0.064170532  0.064120954           10 
 3134000   0.74544487    -3.180687    2407.0387  0.064003368  0.064107405            4 
 3135000   0.77688234   -3.1782933    2416.6639  0.064238806  0.064093826            6 
 3136000    0.7469314   -3.1728798    2408.4749  0.064000715  0.064080273            2 
 3137000   0.76354086   -3.1526578    2408.3601  0.063977264  0.064066737            4 
 3138000   0.74780047   -3.1959526    2404.9856   0.06386726  0.064053119            4 
 3139000   0.75062003   -3.1475576    2408.2875  0.063934574  0.064039696            7 
 3140000   0.74709597   -3.1777849     2412.266  0.064019797  0.064026181            3 
 3141000   0.74396024   -3.1624819    2419.5812  0.064193495  0.064012774            3 
 3142000   0.76391801   -3.1707381    2416.5803  0.064093473  0.063999288            4 
 3143000    0.7548795   -3.1755209    2406.5643  0.063807516   0.06398584            5 
 3144000   0.73861938   -3.1415044    2416.9142   0.06406155  0.063972388            5 
 3145000   0.76098494   -3.1715638    2415.4176  0.064001527  0.063958895            4 
 3146000   0.76060062   -3.1527579    2411.0133   0.06386452  0.063945451            5 
 3147000   0.76422271    -3.144264    2410.2495     0.063824  0.063931939            4 
 3148000   0.75650483   -3.1581208    2405.2645  0.063671761  0.063918413            5 
 3149000   0.74368372   -3.1643804    2414.1941  0.063887851  0.063904792            4 
 3150000   0.73941747   -3.1629222    2403.2677  0.063578511  0.063891223            8 
 3151000   0.75844351   -3.1695671    2418.4413  0.063959625  0.063877782            4 
 3152000   0.73340881   -3.1673948    2413.4331  0.063806924  0.063864262            5 
 3153000   0.76465978   -3.1566125     2411.017  0.063722831  0.063850704            5 
 3154000    0.7528527   -3.1776268    2409.1854  0.063654232   0.06383717            3 
 3155000   0.76240453   -3.1742117     2416.002  0.063814104  0.063823813            3 
 3156000    0.7495029   -3.1761689    2418.3169   0.06385501  0.063810304            4 
 3157000   0.75743211   -3.1645051    2413.7142  0.063713287  0.063796921            4 
 3158000   0.76250455   -3.1685676    2417.4412  0.063791461  0.063783394            3 
 3159000   0.74397164   -3.1656813     2415.277  0.063714176  0.063769858            5 
 3160000   0.73925576   -3.1940832    2415.0654  0.063688433   0.06375625            8 
 3161000   0.72199318   -3.1762714    2407.7843  0.063476333   0.06374271            6 
 3162000   0.74640663   -3.1629629    2424.4552  0.063895615   0.06372914            6 
 3163000   0.74245506   -3.1750194    2418.8258  0.063727099  0.063715754            3 
 3164000   0.74588059   -3.1802971    2415.4021  0.063616786  0.063702339            3 
 3165000   0.72718039   -3.1926906    2410.1615  0.063458702  0.063688781            7 
 3166000   0.73338783   -3.1727106    2415.9479  0.063590963  0.063675305            6 
 3167000   0.73632784   -3.1546909    2409.5983  0.063403808  0.063661888            7 
 3168000    0.7471657   -3.1665842    2422.2327  0.063716137  0.063648417            4 
 3169000   0.72971648   -3.1669279    2419.8332  0.063632933  0.063635021            3 
 3170000   0.76062384   -3.1789633    2414.6942  0.063477765  0.063621647            7 
 3171000    0.7333431   -3.1552212    2418.3891  0.063554848  0.063608213            3 
 3172000   0.73916003   -3.1779281    2421.9127  0.063627383  0.063594884            2 
 3173000   0.74779175   -3.1649816    2425.2435  0.063694808  0.063581517           10 
 3174000   0.74067183   -3.1928888    2425.9424  0.063693089  0.063568089            3 
 3175000   0.74278218   -3.1537937    2421.2233  0.063549167  0.063554744            4 
 3176000    0.7330072   -3.1888023    2425.4353  0.063639676  0.063541259            3 
 3177000   0.74975363   -3.1706713    2419.4348   0.06346225  0.063527887            3 
 3178000   0.75719284   -3.1515043    2424.6648  0.063579422  0.063514565            3 
 3179000   0.74750799   -3.1841595    2419.0458  0.063412127  0.063501129            8 
 3180000    0.7567943   -3.1860107    2426.8942  0.063597856  0.063487906            7 
 3181000   0.74116301   -3.1738901    2417.5635  0.063333424   0.06347455            4 
 3182000   0.75323347   -3.1730521    2425.8267  0.063529926  0.063461215            3 
 3183000   0.75261733   -3.1831364    2424.5742  0.063477175  0.063447924            2 
 3184000   0.74822801   -3.1736213    2418.8957  0.063308618  0.063434734            3 
 3185000   0.73152221    -3.160666    2420.8056  0.063338714  0.063421389            6 
 3186000    0.7597783    -3.169025    2433.7484  0.063657366   0.06340815            3 
 3187000   0.73515662   -3.1810031    2421.4779  0.063316545  0.063394882           13 
 3188000   0.74867725    -3.190663    2422.6336  0.063326892  0.063381455            2 
 3189000   0.75382558   -3.1847424    2431.3848  0.063535716   0.06336821            2 
 3190000   0.74374597   -3.1840088    2433.0876  0.063560282  0.063355057            2 
 3191000   0.72694211   -3.2019791    2425.1953  0.063334255  0.063341694            5 
 3192000   0.74675088   -3.1984199    2431.0357   0.06346689  0.063328296            5 
 3193000   0.72433817   -3.1685497    2427.8095  0.063362811  0.063315079            4 
 3194000   0.75169156   -3.1958859     2420.552  0.063153622  0.063301871            4 
 3195000   0.73642591   -3.1755333    2425.0916  0.063252259  0.063288642            6 
 3196000    0.7237569   -3.1851527    2427.6917  0.063300262  0.063275479            6 
 3197000   0.74480343   -3.1790656    2433.6535  0.063435864  0.063262222            3 
 3198000    0.7195852   -3.1934283    2435.6436  0.063467886  0.063248939            6 
 3199000   0.73742193   -3.1930163    2429.7491  0.063294496  0.063235532            7 
 3200000   0.73443155   -3.1745707    2428.7436  0.063248531   0.06322226            4 
 3201000   0.73821695   -3.1662277    2437.6467  0.063460551  0.063209069            3 
 3202000   0.75346632   -3.1700923    2429.8358  0.063237449  0.063195865            4 
 3203000   0.73498824   -3.1723599    2434.0284  0.063326788  0.063182709            5 
 3204000   0.73729489   -3.1641256    2430.0282   0.06320298  0.063169507            3 
 3205000   0.74887178     -3.16569    2435.9228  0.063336527  0.063156209            2 
 3206000   0.75702192   -3.1879996    2425.0967  0.063035368  0.063142936            8 
 3207000   0.74746478   -3.1653299    2427.9603  0.063090122  0.063129715            4 
 3208000   0.74040316   -3.1697266      2436.34  0.063288134  0.063116506            2 
 3209000    0.7341109   -3.1863383    2437.5105  0.063298809  0.063103198            4 
 3210000    0.7376682   -3.1777788    2423.3768  0.062912171  0.063089934            8 
 3211000   0.74711046   -3.1853404    2430.7229  0.063083227  0.063076715            3 
 3212000   0.74496022   -3.2047294    2429.0982  0.063021436  0.063063442            4 
 3213000   0.73029367   -3.1968163    2436.6643  0.063198057  0.063050259            2 
 3214000    0.7359824   -3.1940763    2426.4098  0.062912513  0.063036847            5 
 3215000   0.73695797   -3.2082663    2425.6501  0.062873254  0.063023512            7 
 3216000   0.74008332   -3.1862023    2438.0504   0.06317502  0.063010172            3 
 3217000   0.74376803   -3.1735151    2433.0501  0.063025855  0.062997054            5 
 3218000   0.73018813   -3.1737603    2436.7856  0.063103003  0.062983802            6 
 3219000   0.72425397   -3.1896374    2436.7056   0.06308133   0.06297062            7 
 3220000   0.73183133   -3.1704589    2436.7048  0.063061718  0.062957438            6 
 3221000   0.71916818   -3.2208333    2429.0585  0.062844316  0.062944083            5 
 3222000   0.71830631   -3.1831113    2438.9119  0.063079659  0.062930841            4 
 3223000   0.73382911   -3.1665858    2436.7286  0.063003634  0.062917509            5 
 3224000   0.72689677   -3.1768871    2436.8113  0.062986231  0.062904274            5 
 3225000   0.73081516   -3.1938283    2431.2259  0.062822374  0.062891077            7 
 3226000    0.7382695    -3.158749    2444.1277  0.063136177  0.062877842            4 
 3227000   0.71932476   -3.1887715    2430.0346  0.062752674   0.06286461           15 
 3228000   0.72604502   -3.1848571    2439.9031  0.062987999    0.0628514            6 
 3229000   0.72465202    -3.166453    2435.1731   0.06284642  0.062838219            5 
 3230000   0.74720417   -3.1763887     2445.266  0.063087358  0.062825045            4 
 3231000   0.71873157     -3.18004    2438.7853  0.062900684   0.06281185            6 
 3232000   0.74160709   -3.1794771    2444.7027  0.063033796  0.062798624            3 
 3233000   0.73072356   -3.1891678    2432.1637  0.062691093  0.062785388            8 
 3234000   0.73944607   -3.1638968    2439.2312  0.062853824  0.062772192           10 
 3235000     0.739869    -3.177834    2444.5427  0.062971218  0.062758969            7 
 3236000   0.73046376   -3.1919261    2432.9785  0.062653958  0.062745737            7 
 3237000   0.72420109   -3.1801541     2447.934  0.063019616  0.062732514            4 
 3238000   0.72607814   -3.2013275    2439.4915  0.062782879  0.062719254            8 
 3239000   0.74593007   -3.1871578      2446.83    0.0629523  0.062706207            6 
 3240000   0.72108672   -3.1880196    2445.7334  0.062904665  0.062693063            3 
 3241000   0.73033798   -3.1665397    2439.2594  0.062718796  0.062679919            5 
 3242000   0.73101826    -3.176265     2440.148  0.062722291  0.062666669            7 
 3243000   0.73218385   -3.1827332    2444.4391  0.062813216  0.062653473            4 
 3244000   0.72448207   -3.1962957    2439.1414  0.062657763  0.062640333            4 
 3245000   0.71809004   -3.1652422    2445.8264  0.062810127  0.062627171            2 
 3246000   0.73849768   -3.1936964    2448.7946   0.06286698  0.062614035            6 
 3247000    0.7162653    -3.187753    2444.2206  0.062730229  0.062600995            5 
 3248000   0.73680321   -3.2118756       2447.8  0.062802752  0.062587851            5 
 3249000   0.73289457   -3.2016697    2450.3473  0.062848756  0.062574657            9 
 3250000   0.72052319    -3.202181    2446.8641  0.062740104  0.062561503            4 
 3251000   0.73986601   -3.1986987    2448.3285  0.062758343  0.062548326            3 
 3252000   0.73832529    -3.187743    2450.3398  0.062790585  0.062535217            5 
 3253000   0.71277883   -3.1539102    2447.9538  0.062710159  0.062522154            6 
 3254000   0.72884667   -3.1816734    2441.8402  0.062534323  0.062509077            5 
 3255000   0.72975823   -3.1994701    2449.1538   0.06270235  0.062495879            7 
 3256000   0.72571011   -3.1784498    2452.4698  0.062767962  0.062482761            5 
 3257000   0.74338912    -3.184747    2449.3478   0.06266881  0.062469784            4 
 3258000   0.72228474   -3.1762952    2438.7046  0.062377343  0.062456781            5 
 3259000   0.73552392   -3.1975326    2446.7103   0.06256291  0.062443509            7 
 3260000   0.74037063   -3.1744149    2447.6985   0.06256898  0.062430339            3 
 3261000   0.73265872   -3.1979599    2445.3623  0.062490092  0.062417123            4 
 3262000   0.72966159   -3.1942984    2450.6783  0.062606741  0.062403887            8 
 3263000   0.74629565   -3.2159046    2447.7746  0.062513398   0.06239078            4 
 3264000   0.72238401   -3.2084263    2444.5121  0.062410951   0.06237749            3 
 3265000   0.72663736   -3.2203564    2448.0521  0.062482186  0.062364205            7 
 3266000   0.72129748    -3.191264     2451.059  0.062539778  0.062351011            5 
 3267000   0.73911034   -3.2095209    2452.7642  0.062564131  0.062337786            9 
 3268000   0.71718118   -3.1924636    2450.9632  0.062499062  0.062324586           13 
 3269000   0.73174956   -3.1900306    2454.1614  0.062561472  0.062311358            7 
 3270000   0.72866441    -3.196636    2442.5323   0.06224598  0.062298164            3 
 3271000   0.73902263   -3.1878794    2449.0617  0.062393297  0.062285122            3 
 3272000   0.74045502   -3.1959236    2450.7719  0.062417785  0.062271893            4 
 3273000   0.71873408   -3.1902021    2459.5054  0.062621076  0.062258758            7 
 3274000   0.71975207     -3.20482    2445.9059    0.0622558  0.062245501            8 
 3275000   0.73084516   -3.2027045    2453.3575    0.0624264   0.06223231            5 
 3276000   0.72083975   -3.1936943     2449.266  0.062303267  0.062219001            4 
 3277000   0.72884539   -3.1949952    2455.8669  0.062452113  0.062205725            7 
 3278000   0.73444503   -3.1933068    2452.1255  0.062337947  0.062192421            3 
 3279000   0.74268324   -3.1863754    2447.0211  0.062189211  0.062179199            3 
 3280000   0.73133747   -3.2075025    2443.2657  0.062074841  0.062165866            5 
 3281000   0.73660669   -3.1715803     2454.041  0.062329599  0.062152476            7 
 3282000   0.72385717    -3.191972     2454.369  0.062318938  0.062139222            3 
 3283000   0.71876038   -3.2026777    2451.7867  0.062234408  0.062125922            3 
 3284000   0.72171016   -3.1823957    2451.0598  0.062197011   0.06211256            7 
 3285000   0.72276131   -3.2010229    2443.4427  0.061984847  0.062099213            3 
 3286000   0.72575484   -3.1864189     2449.774  0.062126546  0.062085925           10 
 3287000   0.70889118   -3.1893172    2452.1964   0.06216906  0.062072604            7 
 3288000    0.7136164   -3.2139636     2454.368  0.062205191  0.062059301            8 
 3289000   0.73068331   -3.1921528    2451.4561  0.062112498  0.062046054            2 
 3290000   0.73575003   -3.2051968    2452.1785  0.062111916  0.062032934            5 
 3291000     0.708558    -3.226107    2451.3624   0.06207238  0.062019593            5 
 3292000   0.73031306   -3.1907723    2454.4854  0.062132578  0.062006281            3 
 3293000   0.71626886   -3.2135111    2454.8134  0.062122011  0.061993048            5 
 3294000    0.7380241   -3.2018642     2445.789  0.061874849  0.061979747            9 
 3295000   0.72869602   -3.2072099    2448.3017  0.061919617  0.061966436            8 
 3296000   0.71113895   -3.2144549    2441.2258  0.061721931  0.061952881            4 
 3297000   0.71193361   -3.2118355    2448.6147  0.061889968  0.061939496            3 
 3298000   0.73004884   -3.2059392    2452.8452  0.061978097  0.061926059            6 
 3299000   0.72255063    -3.207602    2446.2976  0.061793916   0.06191267            4 
 3300000    0.7205656   -3.2107174    2453.1368  0.061947898  0.061899294           11 
 3301000   0.70216344   -3.2082055     2454.632  0.061966879  0.061885867            3 
 3302000   0.73381289   -3.2102604    2457.0772  0.062009822   0.06187249            5 
 3303000   0.72669136   -3.1939965    2452.0122  0.061863261  0.061859233            4 
 3304000   0.72673312   -3.1951804    2453.8208  0.061890153  0.061845849            6 
 3305000   0.72324213    -3.221863    2441.5547  0.061562145  0.061832477            4 
 3306000   0.72136264   -3.2103163    2449.7037  0.061748933  0.061819171            5 
 3307000   0.72578192   -3.1877403    2453.2728  0.061820199  0.061805981            4 
 3308000   0.74340627   -3.2159986    2446.9376  0.061641918  0.061792622            6 
 3309000   0.72395536   -3.2207288    2458.3345  0.061910309  0.061779317            6 
 3310000   0.73514691   -3.2005636    2461.2461  0.061964907  0.061765992            4 
 3311000   0.72772955   -3.1944805    2460.7097  0.061932691  0.061752787            5 
 3312000   0.72116269   -3.2101267    2452.5445  0.061708547  0.061739609            6 
 3313000   0.71914257   -3.2124482    2458.7156  0.061845145  0.061726379            7 
 3314000   0.74261779   -3.2026536    2456.8176  0.061778757  0.061713264            4 
 3315000   0.72917306   -3.2017634     2463.574  0.061929965  0.061700118            5 
 3316000   0.72449816   -3.2000503    2454.9072  0.061693486  0.061686919            3 
 3317000   0.70489047   -3.2244015    2454.8815   0.06167424  0.061673778            5 
 3318000   0.73032239   -3.2242488      2451.36  0.061567209  0.061660505            4 
 3319000   0.72782669   -3.1933122    2470.3596  0.062025702  0.061647197            4 
 3320000   0.72334572   -3.2067948    2464.3763  0.061856835  0.061634023            7 
 3321000   0.72104234   -3.2071969    2459.4778  0.061715292  0.061620865            3 
 3322000   0.70491651   -3.1960086    2455.8364  0.061605369  0.061607703            6 
 3323000   0.74144708   -3.2318555    2463.5563  0.061780427  0.061594407            6 
 3324000   0.74209192   -3.2176448    2453.4029  0.061507292  0.061581187            6 
 3325000   0.71860079   -3.1916675     2455.888  0.061551077  0.061567902            4 
 3326000   0.71442249   -3.2247973     2460.514  0.061648476  0.061554598            6 
 3327000   0.71686088   -3.2179435    2457.2712  0.061548722  0.061541354            6 
 3328000   0.71381075   -3.2333373    2455.0318  0.061474155  0.061527954            5 
 3329000    0.7314221   -3.2027482    2458.4501  0.061541255  0.061514608            3 
 3330000   0.73045697   -3.2154418    2459.6322  0.061552356  0.061501344            3 
 3331000    0.7080787     -3.22812     2457.027  0.061468703  0.061488102            8 
 3332000   0.72307516   -3.2049688    2455.5523  0.061413373  0.061474843            5 
 3333000   0.71601385   -3.2128523     2463.367  0.061590333  0.061461527            6 
 3334000   0.73216416   -3.2003758    2455.7819   0.06138227  0.061448226            8 
 3335000   0.72774287   -3.2205051    2456.8769  0.061391226  0.061434937            4 
 3336000   0.72526356   -3.2299719    2463.6821  0.061542819  0.061421581            6 
 3337000   0.73118292   -3.2244967    2459.9874   0.06143211  0.061408251            5 
 3338000   0.72400829   -3.2033243    2467.6842  0.061605856  0.061395011            3 
 3339000   0.71302873    -3.196306     2467.782  0.061589848  0.061381792            5 
 3340000   0.71376782   -3.2093659    2461.2312  0.061407964  0.061368609            3 
 3341000   0.71845057   -3.2138875    2463.1055  0.061436333  0.061355345            8 
 3342000    0.7004188    -3.214592    2464.8997  0.061462689  0.061342141            5 
 3343000   0.71906726   -3.2111661    2457.7512  0.061266107   0.06132881            7 
 3344000   0.71579868    -3.224804    2469.3592  0.061537062  0.061315612            3 
 3345000   0.71446193   -3.1967054    2468.8125  0.061505045  0.061302519            8 
 3346000   0.71479274   -3.2240531    2465.1915  0.061396481  0.061289427            7 
 3347000   0.70277338   -3.2250973    2470.2276  0.061503525  0.061276295            4 
 3348000   0.72391348   -3.2149925    2473.2947  0.061561497  0.061263246            3 
 3349000   0.72779034   -3.2030635    2469.6375  0.061452113  0.061250278            8 
 3350000     0.711048   -3.2085713    2474.7896  0.061561931  0.061237152            4 
 3351000   0.69453177   -3.2121686    2467.3927  0.061359612  0.061224069            4 
 3352000   0.71235347   -3.2067915    2467.4325  0.061342295   0.06121096            4 
 3353000   0.72271838   -3.2292984    2460.8375  0.061160093  0.061197846           13 
 3354000   0.71722114   -3.2113125    2468.3194  0.061327753  0.061184742            4 
 3355000   0.71417186    -3.226858    2471.9462  0.061399557  0.061171609            4 
 3356000   0.72987456   -3.1969981    2467.4187  0.061268838  0.061158515            3 
 3357000   0.70718774   -3.2142321    2475.3986   0.06144868  0.061145586            3 
 3358000   0.72486948   -3.2103448     2473.692  0.061388029  0.061132564            3 
 3359000     0.710446    -3.231007    2473.7175  0.061370385  0.061119673            4 
 3360000   0.71109911   -3.2180439    2471.0407  0.061285732  0.061106757            7 
 3361000   0.70874232   -3.2373402    2478.2253  0.061445633  0.061093794            4 
 3362000   0.70864487   -3.2222615    2474.0201  0.061323124  0.061080886            3 
 3363000    0.7240883   -3.2231898    2472.4905  0.061266987  0.061067854            6 
 3364000   0.71066252   -3.2066698    2470.6875  0.061204109  0.061054851            4 
 3365000   0.72568706   -3.2262886    2483.5373  0.061504142  0.061041977            4 
 3366000   0.71563489   -3.2064726    2476.7944  0.061318934  0.061029034            7 
 3367000   0.71105335   -3.2424672    2469.0561  0.061109199  0.061016069           19 
 3368000   0.71274246   -3.2121412    2475.1479  0.061241782  0.061003131            9 
 3369000   0.71763646   -3.2214699     2474.677  0.061211957  0.060990292            3 
 3370000   0.70368111   -3.2263017       2478.4  0.061285857  0.060977385            4 
 3371000   0.70434403   -3.2341952    2478.8171  0.061277986  0.060964428            4 
 3372000   0.71550568   -3.2306069      2480.18  0.061293496  0.060951462            2 
 3373000   0.70765705   -3.2073951    2468.8166  0.060994579  0.060938594            4 
 3374000   0.70169629   -3.2413088    2472.5936  0.061069787  0.060925576           16 
 3375000   0.72035234   -3.2214298    2478.1414  0.061188676  0.060912476            3 
 3376000   0.71684326   -3.2268757    2485.3561   0.06134864  0.060899406            9 
 3377000   0.71073564   -3.2177867    2471.2384  0.060982095  0.060886482            5 
 3378000    0.7060146   -3.2098501    2479.2175  0.061160881  0.060873462            3 
 3379000   0.70384685   -3.2218325    2472.7642   0.06098363  0.060860396            6 
 3380000   0.72020305   -3.2222902    2480.7468  0.061162398  0.060847273            9 
 3381000   0.71416194   -3.2287097    2476.8993  0.061049475  0.060834271            8 
 3382000   0.72829438   -3.2169548    2475.2222    0.0609901  0.060821254            9 
 3383000   0.71259009   -3.2213658    2474.1661  0.060946056  0.060808175            3 
 3384000    0.7165915   -3.1952292    2485.4106   0.06120495  0.060795167            7 
 3385000   0.69826058   -3.2116371    2477.9044  0.061002077  0.060782208            3 
 3386000   0.70627788   -3.2070111    2485.7055  0.061176056  0.060769194            4 
 3387000   0.70893547   -3.2373016    2473.2959  0.060852669  0.060756108            7 
 3388000   0.70413906   -3.2059628    2473.8137  0.060847445  0.060742926            6 
 3389000   0.70928191   -3.2144083    2474.8678  0.060855411  0.060729811           14 
 3390000   0.71672434   -3.2194552    2476.8294  0.060885678  0.060716685            3 
 3391000   0.70751344   -3.2478815    2481.4579  0.060981468  0.060703649            6 
 3392000   0.70620748   -3.2217034    2475.6391  0.060820535  0.060690505            5 
 3393000   0.70561986   -3.2233002    2478.3731  0.060869758  0.060677395            7 
 3394000   0.71351703   -3.2234242    2477.1689  0.060822258  0.060664287            7 
 3395000   0.71580649    -3.213211    2475.5778  0.060765287  0.060651137            7 
 3396000   0.70407709    -3.230297    2480.9781   0.06087991   0.06063801            8 
 3397000   0.70772229   -3.2380745    2474.2892    0.0606979  0.060624826            3 
 3398000   0.70227148   -3.2051464    2479.2469  0.060801622    0.0606117            4 
 3399000    0.7079351   -3.2332985    2475.8109  0.060699494  0.060598662            6 
 3400000   0.72121855   -3.2093682    2480.6814  0.060801014  0.060585441            2 
 3401000   0.70724597   -3.2371511    2479.1052  0.060744517  0.060572333            4 
 3402000   0.68642322   -3.2178439    2481.8813  0.060794661  0.060559284            6 
 3403000   0.69294739   -3.2202427     2475.423  0.060618644  0.060546156           10 
 3404000   0.72279445   -3.2357725    2485.0159   0.06083568  0.060533005            5 
 3405000   0.70427801   -3.2646826    2474.0663  0.060549836  0.060519914            6 
 3406000   0.70404493   -3.2381786    2478.4334  0.060638908  0.060506774            4 
 3407000   0.71893832   -3.2238232    2475.4235  0.060547489  0.060493671            5 
 3408000   0.71947177   -3.2198268    2490.7523  0.060904546  0.060480563            6 
 3409000   0.70280262   -3.2186726    2483.0631  0.060698717  0.060467503            3 
 3410000   0.72890083   -3.2455675    2479.5166  0.060594247  0.060454353            5 
 3411000   0.71379215   -3.2384326    2476.2841  0.060497511  0.060441241            3 
 3412000   0.72272924   -3.2257086    2490.5118   0.06082727  0.060428235           11 
 3413000   0.70828743   -3.2181855    2480.7273  0.060570547  0.060415112            6 
 3414000    0.6934216   -3.2254742    2482.9744  0.060607656  0.060402004            5 
 3415000   0.69377125   -3.2512818    2473.9052  0.060368599  0.060388889            4 
 3416000     0.696934   -3.2342612    2485.1875  0.060626158  0.060375846            8 
 3417000   0.71000839   -3.2509981    2480.9668  0.060505483   0.06036277            3 
 3418000   0.70639991   -3.2397314    2482.8397  0.060533444  0.060349791            5 
 3419000   0.70802576   -3.2366333    2492.4552  0.060750101  0.060336863            7 
 3420000   0.71048453   -3.2319549     2483.463   0.06051323  0.060323968            4 
 3421000   0.69248495   -3.2267019     2486.885  0.060578901  0.060310951            7 
 3422000   0.70062773   -3.2447426    2477.8282  0.060340643  0.060297949            5 
 3423000   0.70611216   -3.2216325    2483.0138   0.06044926  0.060284862            5 
 3424000   0.70505369   -3.2509562    2486.7709  0.060523045  0.060271762            3 
 3425000   0.71062208    -3.234294    2486.1011  0.060489077  0.060258782            3 
 3426000   0.69884182   -3.2274305    2486.1494  0.060472598  0.060245677            3 
 3427000   0.69598189   -3.2223677    2474.8084  0.060179175  0.060232541            3 
 3428000    0.7041743   -3.2222586    2485.5098  0.060421767  0.060219372            5 
 3429000   0.71615277   -3.2565422     2478.204  0.060226597  0.060206263            3 
 3430000   0.68198416   -3.2300125    2486.8658  0.060419479  0.060193094            3 
 3431000   0.69874131   -3.2450055    2483.3936  0.060317537  0.060179992            6 
 3432000   0.71080502   -3.2410985    2480.1112  0.060220259  0.060166817            4 
 3433000   0.70338481    -3.225906    2484.7156  0.060314486   0.06015366            9 
 3434000   0.71804643   -3.2228196    2492.9244  0.060496126  0.060140668            3 
 3435000   0.68621291    -3.252378     2484.131  0.060265187  0.060127562           10 
 3436000   0.71333014   -3.2404644    2490.1198  0.060392894  0.060114521            5 
 3437000   0.70115036   -3.2511433    2494.3467  0.060477807  0.060101425            5 
 3438000   0.69849778   -3.2319972    2479.9068  0.060110209  0.060088261            9 
 3439000   0.69991786   -3.2349067    2484.6311   0.06020721  0.060075213            5 
 3440000   0.70288168   -3.2452692    2488.6277  0.060286524  0.060062082            8 
 3441000   0.69711269    -3.242885     2484.378  0.060166084  0.060048884            4 
 3442000   0.70604982   -3.2528775    2486.7383  0.060205751  0.060035714            4 
 3443000   0.69456944   -3.2309724    2489.7023  0.060260002  0.060022627            7 
 3444000   0.68105654   -3.2506537    2475.8762   0.05990796  0.060009436           15 
 3445000    0.6927138   -3.2387979    2481.8072  0.060034039  0.059996272            6 
 3446000   0.70715913   -3.2439774    2488.5636  0.060180006  0.059983156            5 
 3447000   0.69588932   -3.2252586    2490.5979  0.060211727  0.059970095           13 
 3448000   0.70427315   -3.2355347    2486.9767  0.060106745  0.059957113            5 
 3449000   0.72274127   -3.2552029    2489.0247  0.060138802  0.059944148            4 
 3450000     0.694515   -3.2404585    2488.7176  0.060113952  0.059931059           10 
 3451000   0.72122559    -3.227188    2481.7756  0.059928901  0.059918019            3 
 3452000   0.69675436   -3.2395486    2494.2914  0.060213679  0.059904845            4 
 3453000   0.70661711   -3.2431118    2488.8385  0.060064642  0.059891782            4 
 3454000   0.69105049   -3.2569735    2484.8724  0.059951563   0.05987871           12 
 3455000   0.68844823   -3.2278595     2484.742  0.059931066  0.059865611            3 
 3456000   0.68712734   -3.2673037     2485.738   0.05993774  0.059852472            9 
 3457000   0.70026719   -3.2520492    2496.0745   0.06016957  0.059839371           11 
 3458000   0.71042184   -3.2214197    2494.2486  0.060108168  0.059826336            4 
 3459000   0.70533175   -3.2347077    2484.7554  0.059862084   0.05981329            5 
 3460000   0.69782799   -3.2264174    2493.8984  0.060064991  0.059800333            5 
 3461000   0.70133906   -3.2679218    2492.3412  0.060010142  0.059787281            3 
 3462000   0.70198827    -3.249359    2491.2078  0.059965525  0.059774202            9 
 3463000    0.7011005    -3.245945    2492.1898   0.05997184  0.059761213            7 
 3464000    0.6999049   -3.2522021    2495.5074   0.06003434  0.059748387            5 
 3465000   0.69687778     -3.24125     2497.379  0.060062025  0.059735552            6 
 3466000   0.69083771   -3.2303126    2497.5251  0.060048209  0.059722638            4 
 3467000   0.69364498   -3.2314108    2496.5665  0.060007847  0.059709744            2 
 3468000   0.70211547   -3.2345353     2501.922  0.060119232  0.059696876            7 
 3469000   0.72705708   -3.2382948    2496.7072  0.059976631  0.059683957            5 
 3470000   0.69065725   -3.2698011    2491.9907  0.059846079  0.059671017            7 
 3471000    0.6982637    -3.247273    2498.9624  0.059996217  0.059658165            8 
 3472000   0.67927659   -3.2537855    2498.0838  0.059957848  0.059645374            4 
 3473000   0.69392685   -3.2394156    2493.0411  0.059819587  0.059632432           10 
 3474000   0.68936094   -3.2538397    2498.2386  0.059927044  0.059619607            5 
 3475000   0.69913354   -3.2618137    2496.9689  0.059879349  0.059606645            6 
 3476000   0.70017197   -3.2418925    2494.8006  0.059810141  0.059593735           11 
 3477000    0.6897701   -3.2325641    2505.6345  0.060052597  0.059580881           11 
 3478000   0.69778431   -3.2496798    2502.4215  0.059958346  0.059568102            5 
 3479000   0.67841639   -3.2296174     2504.896  0.060000384  0.059555314            5 
 3480000   0.70654725   -3.2499658    2494.8769   0.05974322  0.059542516            6 
 3481000   0.67777974   -3.2549798    2494.3253  0.059712853  0.059529656            4 
 3482000   0.70749076   -3.2474934    2493.5782  0.059677824  0.059516704            4 
 3483000    0.6998584   -3.2615887    2499.7682   0.05980879  0.059503883            4 
 3484000   0.68861614   -3.2568072    2506.5031  0.059952715  0.059491143           11 
 3485000   0.68358604   -3.2331664    2503.5439  0.059864752   0.05947825            4 
 3486000   0.68905611   -3.2584794    2502.9585  0.059833584  0.059465412           10 
 3487000   0.69718581   -3.2864301    2490.5222  0.059519219  0.059452482            6 
 3488000   0.69628595    -3.265609    2500.1562  0.059732325  0.059439502           13 
 3489000   0.68889243   -3.2581878    2503.1733  0.059787266  0.059426597            7 
 3490000    0.6860597   -3.2337973    2510.7066  0.059950014  0.059413766            5 
 3491000   0.69195467    -3.255729    2503.8258   0.05976859  0.059400897            9 
 3492000   0.68155018   -3.2671364    2508.1946  0.059855732   0.05938803            7 
 3493000   0.69616746   -3.2443831    2504.5136  0.059750778  0.059375205            8 
 3494000    0.6817979   -3.2492986    2497.0657  0.059556041  0.059362377            6 
 3495000   0.69812508   -3.2342479    2507.5542  0.059789085  0.059349594            6 
 3496000    0.6883912     -3.24498    2513.2017    0.0599066  0.059336814            4 
 3497000   0.69457837   -3.2458511    2499.5085  0.059563162  0.059324049            3 
 3498000   0.69534556   -3.2503853    2498.2173  0.059515373  0.059311147            4 
 3499000   0.68975752   -3.2456173    2495.9392  0.059444108  0.059298298            4 
 3500000   0.67998892   -3.2583075    2498.7031  0.059492932   0.05928539            6 
 3501000   0.70457773   -3.2549918    2505.7988  0.059644834  0.059272457           12 
 3502000   0.70612889   -3.2573716    2507.9334  0.059678599  0.059259632            7 
 3503000   0.68374653   -3.2597515    2507.4852    0.0596509  0.059246867            5 
 3504000   0.69049624   -3.2597081     2504.555  0.059564189  0.059233933            4 
 3505000   0.70000929   -3.2254297    2504.6231  0.059548814  0.059221067           12 
 3506000   0.68790087   -3.2616437    2505.6928  0.059557254  0.059208135            5 
 3507000   0.70405525   -3.2470108    2506.6175  0.059562245  0.059195276            3 
 3508000    0.6876791   -3.2841082    2500.7926  0.059406894  0.059182415            5 
 3509000   0.70465412   -3.2689199    2504.3319  0.059474017  0.059169471           12 
 3510000   0.69789342    -3.242395    2503.3308  0.059433304  0.059156617            5 
 3511000   0.69986591   -3.2402258    2509.0029  0.059551005   0.05914382            9 
 3512000   0.67821286   -3.2540597     2508.287  0.059517061  0.059131038            5 
 3513000   0.68603165   -3.2457622    2505.5668  0.059435592   0.05911823            4 
 3514000   0.68591735   -3.2696719    2499.8589  0.059283318  0.059105365            3 
 3515000   0.69627778   -3.2694559     2504.005  0.059364747   0.05909249            4 
 3516000   0.68720311    -3.251844    2510.0075  0.059490129  0.059079674           11 
 3517000   0.70565904   -3.2402028    2505.2082  0.059359497  0.059066821            7 
 3518000   0.67854811   -3.2481099    2511.1433  0.059483213  0.059054028            8 
 3519000   0.70029676   -3.2752006     2500.976  0.059225538  0.059041181            6 
 3520000   0.68611781    -3.258655    2510.8332  0.059442073  0.059028289            3 
 3521000    0.6938674   -3.2448342    2496.4644  0.059085117  0.059015464            3 
 3522000   0.68345827   -3.2567258    2507.6198  0.059332288  0.059002603            5 
 3523000   0.69134863   -3.2873006    2497.9442  0.059086579  0.058989676            4 
 3524000   0.69031016   -3.2571457    2505.7742   0.05925497  0.058976824            5 
 3525000   0.67650454    -3.269851    2498.9917  0.059077818  0.058964019            4 
 3526000   0.69220624   -3.2617509    2506.8442  0.059246649  0.058951235           12 
 3527000   0.68726961   -3.2491784    2505.1027  0.059188703  0.058938446            3 
 3528000   0.67760024   -3.2558746    2503.8862  0.059143192  0.058925612            5 
 3529000   0.68400961   -3.2512654    2515.7733  0.059407133  0.058912759            5 
 3530000   0.67002978   -3.2471278    2506.0196  0.059160047  0.058899896            5 
 3531000   0.68268942   -3.2629237     2512.946   0.05930676  0.058887068            3 
 3532000    0.6882426   -3.2674514    2511.2073  0.059248946  0.058874265            7 
 3533000   0.70484811   -3.2416855    2513.7468  0.059292076  0.058861471            3 
 3534000   0.68646676   -3.2680229    2504.8807  0.059066229  0.058848729            8 
 3535000   0.67934384   -3.2718502    2512.7091  0.059234067   0.05883592            7 
 3536000   0.69374198   -3.2570816    2516.1878  0.059299299  0.058823092            4 
 3537000    0.6775115   -3.2618485    2506.9214  0.059064212  0.058810407            4 
 3538000   0.69305018   -3.2604954    2513.3049  0.059197874  0.058797707            6 
 3539000   0.67798318   -3.2691296    2509.3901  0.059088963  0.058784868            7 
 3540000   0.68401955   -3.2714452    2507.7319  0.059033237   0.05877196            2 
 3541000   0.68848689   -3.2534087    2514.1849  0.059168429  0.058759174            3 
 3542000   0.69138207   -3.2608251    2517.4714  0.059229046  0.058746416            9 
 3543000   0.68201429   -3.2596264    2513.1027  0.059109576  0.058733705            5 
 3544000     0.685938   -3.2740557    2512.8956  0.059088026  0.058720907           12 
 3545000   0.67825383   -3.2707841    2508.7691  0.058974355  0.058708022            5 
 3546000   0.69476974   -3.2303815    2512.6351  0.059048577  0.058695206            3 
 3547000   0.68378619   -3.2622504    2511.6589  0.059008997  0.058682471            3 
 3548000   0.68711871   -3.2601379    2520.0326   0.05918904  0.058669665            4 
 3549000   0.66911473   -3.2693533    2511.3654   0.05896885  0.058657002            8 
 3550000   0.68827259   -3.2538338    2511.2158  0.058948727  0.058644218            3 
 3551000   0.68667294   -3.2589179    2516.0962  0.059046657  0.058631517           10 
 3552000   0.69101023   -3.2534422    2512.9173  0.058955454  0.058618804            6 
 3553000   0.68737322   -3.2650181    2509.3188  0.058854462   0.05860612            3 
 3554000   0.68388869   -3.2745503    2510.1941  0.058858426  0.058593436            8 
 3555000   0.68191752    -3.232908    2518.1899  0.059029298  0.058580686            5 
 3556000   0.69180404   -3.2682174    2510.4115  0.058830416  0.058568006            4 
 3557000   0.68102332   -3.2830636    2508.7444  0.058774819  0.058555141            6 
 3558000   0.67075334   -3.2653047    2514.4434   0.05889178  0.058542322            8 
 3559000   0.67007062    -3.252056    2511.9099  0.058815911  0.058529562            8 
 3560000   0.68531254   -3.2697948    2508.3816  0.058716797  0.058516741            5 
 3561000   0.69030208   -3.2748408     2517.743  0.058919381  0.058504025            5 
 3562000   0.67814273    -3.258887    2515.4902  0.058850136  0.058491287            7 
 3563000   0.66983509   -3.2811786    2513.5958  0.058789311  0.058478464            6 
 3564000   0.69329726   -3.2695188    2509.2449  0.058671082  0.058465644            8 
 3565000   0.67765961   -3.2663487    2511.2926  0.058702492  0.058452839            4 
 3566000   0.68070255   -3.2671375    2519.4425  0.058876483  0.058440051            4 
 3567000   0.68954398   -3.2647737    2515.9339  0.058778009  0.058427306            3 
 3568000    0.6923657   -3.2732819    2514.0076  0.058716545  0.058414535            6 
 3569000   0.68405981   -3.2587883    2514.0868  0.058701943  0.058401805            5 
 3570000   0.68102423   -3.2705328    2514.6223  0.058697998  0.058389054            9 
 3571000   0.67876536   -3.2622831    2517.3937  0.058746236  0.058376296            5 
 3572000   0.67805087   -3.2781083    2520.9425  0.058812581  0.058363561            6 
 3573000   0.68365672   -3.2943224    2511.5896  0.058577983  0.058350792            7 
 3574000   0.67446708   -3.2520939    2519.8791  0.058754875   0.05833799            4 
 3575000   0.68535236   -3.3065099    2512.4281  0.058564757   0.05832522            6 
 3576000   0.68200914   -3.2553405    2522.5455   0.05878415  0.058312506            4 
 3577000      0.69091   -3.2804978    2516.9638   0.05863768  0.058299784            8 
 3578000   0.67543075   -3.2746206     2519.426  0.058678637  0.058286983            5 
 3579000   0.67074505   -3.2886947    2515.1022  0.058561567  0.058274274            6 
 3580000   0.67710436    -3.287331    2521.9937  0.058705626  0.058261624            3 
 3581000   0.66791099   -3.2968395    2515.1868  0.058530829  0.058248842            4 
 3582000   0.68014529   -3.2789176    2521.0382  0.058650618  0.058236104            6 
 3583000   0.67501612   -3.2481631    2520.9285  0.058631699  0.058223366            4 
 3584000   0.68460168   -3.2945906    2515.0568  0.058478813  0.058210662            7 
 3585000   0.67594873   -3.2887467    2512.3864  0.058400427   0.05819789            2 
 3586000   0.68574071   -3.2724682    2513.0352   0.05839922  0.058185106            3 
 3587000   0.67755748   -3.2616202    2520.1664  0.058548611  0.058172434            8 
 3588000   0.67332931   -3.2869187    2524.5984  0.058635228  0.058159692            7 
 3589000   0.69247176   -3.3014105    2519.8889  0.058509542  0.058146955           11 
 3590000   0.68047242   -3.2786382    2527.7676  0.058676128  0.058134323            5 
 3591000   0.68010611   -3.2971051     2524.096  0.058574585  0.058121645            6 
 3592000   0.67837312   -3.2804935    2520.7587  0.058480852  0.058108943            3 
 3593000   0.68506662   -3.2827172    2524.7966  0.058558229  0.058096287            6 
 3594000   0.68681545   -3.2931516    2522.8808  0.058497515  0.058083566            3 
 3595000   0.68046552   -3.2819268    2522.7795  0.058478895  0.058070962            5 
 3596000   0.66702114   -3.3013189    2519.5649  0.058388136  0.058058305            5 
 3597000   0.66954746   -3.2895188    2523.0403  0.058452421  0.058045649            9 
 3598000    0.6831191   -3.2828319    2522.6372   0.05842684  0.058032998            3 
 3599000   0.68164477   -3.3122961    2516.2307  0.058262265   0.05802022            7 
 3600000   0.67946668   -3.2627169    2518.6714  0.058302579  0.058007555            3 
 3601000   0.67772064    -3.275124    2528.4934  0.058513685  0.057994916            8 
 3602000   0.65608647   -3.2823344    2527.0168  0.058463279  0.057982321            8 
 3603000   0.67535922   -3.2916238    2523.9856  0.058376945  0.057969689           11 
 3604000   0.67712194   -3.2832133    2521.3965  0.058300881  0.057956987            9 
 3605000   0.67624809   -3.2788333    2526.3167  0.058398445  0.057944314            5 
 3606000   0.65677281   -3.2952491    2526.4199  0.058384633  0.057931738            9 
 3607000   0.69103584   -3.2628089    2524.3265  0.058320084  0.057919165            3 
 3608000   0.66749877   -3.2796532    2527.9545  0.058387716  0.057906625            3 
 3609000   0.68857719   -3.2745235    2524.9999  0.058303313  0.057893963            7 
 3610000    0.6664446   -3.2702975    2535.7956  0.058536372  0.057881391            5 
 3611000   0.66896831   -3.2809262    2518.4965  0.058120938  0.057868687            8 
 3612000    0.6701409   -3.3072072    2526.9647  0.058300218  0.057855974            4 
 3613000   0.68513453   -3.2892487     2529.686   0.05834685  0.057843212            8 
 3614000   0.67357104   -3.2765197     2526.052   0.05824691  0.057830583            4 
 3615000   0.67651201   -3.3030148    2523.1039  0.058162838  0.057817977            5 
 3616000   0.67164704   -3.2922856    2528.0807  0.058261448  0.057805342            4 
 3617000   0.68349182   -3.2842679    2522.8735  0.058125368  0.057792635            7 
 3618000   0.67522241   -3.2924119    2522.0371  0.058090038  0.057780011            9 
 3619000   0.68892411   -3.2819677    2522.5872  0.058086654  0.057767335            6 
 3620000   0.67011119   -3.2895889    2526.4299  0.058159068  0.057754691            6 
 3621000     0.687364   -3.2917528    2529.1686  0.058206035   0.05774206            7 
 3622000   0.66856997   -3.3034042    2527.8194  0.058158923  0.057729437            6 
 3623000   0.67090539   -3.2803462    2532.9944  0.058261902  0.057716791           18 
 3624000   0.65884923   -3.2970085    2531.2129   0.05820486  0.057704203            4 
 3625000   0.66920028   -3.2831414    2526.8239  0.058087905  0.057691656            6 
 3626000   0.67371719   -3.2806077    2528.4847  0.058110055  0.057679242            6 
 3627000    0.6631376   -3.2963448    2530.1473  0.058132233  0.057666742            4 
 3628000   0.67918478   -3.2767821    2537.4453  0.058283841  0.057654264            4 
 3629000     0.669329   -3.2861865    2529.1117  0.058076416  0.057641829            7 
 3630000   0.66398938   -3.2819739    2543.2246  0.058384403   0.05762938            5 
 3631000   0.65383445   -3.3039957     2526.938  0.057994537   0.05761681           13 
 3632000   0.66620201   -3.2855357     2538.742  0.058249404  0.057604224           11 
 3633000   0.65729584   -3.2744519    2532.3564  0.058086898  0.057591755            8 
 3634000    0.6733854   -3.2686892    2535.7685  0.058149159  0.057579248            8 
 3635000   0.67196955   -3.2669631    2531.8671  0.058043722   0.05756686            6 
 3636000   0.67206303   -3.2726234    2532.6169  0.058044942  0.057554442            5 
 3637000   0.66543977   -3.2963102    2533.2168  0.058042729     0.057542            7 
 3638000   0.67402104   -3.2888422    2531.4607  0.057986547  0.057529496           14 
 3639000    0.6796932   -3.2885853    2528.8038  0.057909769  0.057517084            3 
 3640000   0.67276991   -3.2927472    2537.3314  0.058089089  0.057504592           10 
 3641000   0.66712164   -3.2660499     2538.278  0.058094799  0.057492103            6 
 3642000   0.65929905   -3.2767309    2539.3082  0.058102421  0.057479666           11 
 3643000   0.64788441   -3.2914377    2534.9089  0.057985838  0.057467332           10 
 3644000   0.66520133   -3.2903032    2536.1322  0.057997901  0.057454903            6 
 3645000   0.66291549   -3.2765047    2536.4613  0.057989513  0.057442473            5 
 3646000   0.67895732   -3.2895783    2542.4315  0.058110063  0.057430055            5 
 3647000   0.67838611   -3.3051699     2534.786  0.057919432  0.057417557            7 
 3648000   0.67804874   -3.2929726    2533.3238  0.057870152  0.057405141            4 
 3649000    0.6520683   -3.2916485    2537.3065  0.057945248  0.057392808            5 
 3650000   0.68237869   -3.2987987    2536.4941  0.057910823  0.057380438            8 
 3651000   0.67783102   -3.3031709    2536.2154    0.0578886  0.057368045            5 
 3652000   0.65080283   -3.2861048    2539.5373  0.057948552  0.057355667            5 
 3653000   0.67217558   -3.2801685    2543.1258   0.05801455  0.057343279           11 
 3654000   0.66346404   -3.3134264    2540.8245  0.057946189  0.057330916            6 
 3655000   0.67650258   -3.2683606    2542.3087  0.057964175  0.057318633            6 
 3656000   0.66745598   -3.2897908    2536.7128   0.05782077  0.057306273            4 
 3657000   0.66732561   -3.2956188    2547.9623  0.058061305  0.057293984            6 
 3658000   0.65686919   -3.2957612    2533.3263  0.057712009  0.057281568            5 
 3659000   0.67553068   -3.2904664    2540.9956  0.057870902  0.057269164            6 
 3660000   0.66708174   -3.3003628    2531.4356  0.057637422  0.057256777            9 
 3661000   0.66963569   -3.2965924    2545.4407  0.057940469  0.057244409            3 
 3662000   0.66400929   -3.2959318    2536.0044  0.057709913  0.057232054           11 
 3663000   0.67605167   -3.3165058    2541.9025  0.057828339  0.057219749            3 
 3664000    0.6657905    -3.282191    2541.7664  0.057809462  0.057207428            5 
 3665000   0.65654557   -3.2765639    2537.1721  0.057689226  0.057195048            8 
 3666000   0.65183605   -3.2968562    2540.1605  0.057741419  0.057182705            9 
 3667000   0.66451166   -3.2859483    2545.6016  0.057849324   0.05717035            4 
 3668000   0.65454967   -3.3068325    2543.6977  0.057790296  0.057158036           13 
 3669000   0.65885153   -3.2997144    2541.5147  0.057724963  0.057145638           10 
 3670000   0.66158731   -3.2982455    2548.9359  0.057877746  0.057133368           12 
 3671000   0.68614247   -3.3082019     2546.214  0.057800191   0.05712108            4 
 3672000   0.66825009   -3.3109862    2539.2145  0.057625602  0.057108736            7 
 3673000   0.66158368   -3.2959605    2542.1983  0.057677609  0.057096349            4 
 3674000   0.65913867   -3.2744085    2544.7547  0.057719895  0.057084026           12 
 3675000   0.66258563   -3.3135426    2546.1452  0.057735719  0.057071705            5 
 3676000   0.66692049   -3.2942475    2539.4368  0.057567935  0.057059322           11 
 3677000   0.67407549   -3.2856648     2539.797  0.057560444  0.057046846            4 
 3678000   0.67302664   -3.3117068    2545.3071  0.057669637  0.057034421            4 
 3679000   0.65134189   -3.3200249    2540.0048  0.057533858  0.057021999            3 
 3680000   0.65622047   -3.3160759    2543.2787  0.057592362  0.057009618            2 
 3681000   0.66178099   -3.2969429    2536.8624  0.057431459  0.056997085           12 
 3682000   0.66283502   -3.2999389    2538.3735  0.057450061  0.056984638            6 
 3683000   0.67961632   -3.3062425    2544.2193  0.057566732  0.056972108            4 
 3684000   0.66716749    -3.288713    2539.3779  0.057441591  0.056959631            9 
 3685000   0.65484624   -3.2989847    2545.1322  0.057556132  0.056947236            5 
 3686000   0.66418322    -3.306916    2543.5274  0.057504236  0.056934858            6 
 3687000   0.65854932   -3.2737413    2544.9208  0.057520133  0.056922574           11 
 3688000   0.65241083   -3.3080963    2543.1966  0.057465578  0.056910247            6 
 3689000   0.64689381   -3.2927342    2547.2411  0.057541365  0.056897945           13 
 3690000   0.63841724   -3.3029343    2547.2802  0.057526654  0.056885597            4 
 3691000   0.64932856   -3.3181433    2538.8115  0.057319867  0.056873193            5 
 3692000   0.66542717   -3.3107405    2546.8284  0.057485292  0.056860834            5 
 3693000   0.66207861   -3.2986309    2545.2905  0.057435022  0.056848368            3 
 3694000   0.66099056   -3.2962616    2545.3407  0.057420607  0.056836018            5 
 3695000   0.67676749    -3.296229    2542.2034  0.057334312  0.056823567            3 
 3696000   0.65256062   -3.3070056    2544.1994  0.057363804  0.056811203            8 
 3697000   0.66651223   -3.3082357    2536.8008  0.057181516  0.056798781           12 
 3698000   0.66564757   -3.3263866    2548.2467  0.057423983  0.056786347            6 
 3699000   0.65153062   -3.3040644    2550.8203  0.057466438  0.056773988            5 
 3700000   0.64351119   -3.3153995    2545.7038  0.057335671  0.056761603            6 
 3701000   0.66319852   -3.2727523     2546.101  0.057329122  0.056749214            9 
 3702000   0.64716976   -3.3056244     2544.377   0.05727483  0.056736869            7 
 3703000   0.66314443    -3.287588    2543.5301  0.057240303  0.056724479            6 
 3704000    0.6619323   -3.3175014      2546.71   0.05729639  0.056712181            5 
 3705000   0.64688226    -3.298722    2547.7388  0.057304067  0.056699775            7 
 3706000   0.66158527    -3.298829    2540.5864  0.057127774  0.056687332            5 
 3707000    0.6590667   -3.2929636    2546.0167  0.057234436  0.056674922            6 
 3708000   0.65607044   -3.2997417    2544.4897  0.057184683   0.05666245            6 
 3709000   0.66584561   -3.2962363    2554.1746  0.057386866  0.056650089            7 
 3710000   0.66235295   -3.3133764    2545.9727  0.057187167   0.05663774            7 
 3711000   0.65485507   -3.3142737     2548.706  0.057233136  0.056625343            4 
 3712000   0.65635043   -3.3087982    2543.0669  0.057091121  0.056612892            9 
 3713000    0.6583975   -3.2865325    2545.1561  0.057122635  0.056600475            5 
 3714000   0.67792016   -3.3051661    2544.8138  0.057099573  0.056588104            5 
 3715000     0.645483   -3.2915472    2542.8994  0.057041261  0.056575658            8 
 3716000   0.64711206   -3.3043351    2545.8097  0.057091175  0.056563251            5 
 3717000   0.66551951   -3.2752805    2546.9052  0.057100376  0.056550775            3 
 3718000   0.64919052   -3.3001272    2540.5164  0.056941823  0.056538376            8 
 3719000   0.65635848   -3.2948526    2556.3866  0.057282123  0.056525949            4 
 3720000   0.64920255   -3.3236156    2541.6505  0.056936616  0.056513414            5 
 3721000   0.65802137   -3.3229599     2543.922  0.056972184  0.056500939            5 
 3722000   0.65760247   -3.3052416    2540.3773  0.056877515  0.056488419            6 
 3723000   0.65791798   -3.3319287    2540.8116  0.056871959  0.056475943            7 
 3724000   0.65911311   -3.2905694    2547.1916  0.056999455  0.056463412            4 
 3725000   0.66677178   -3.3100648    2546.9579  0.056978923  0.056450991            4 
 3726000   0.66080453   -3.2924703    2538.6635  0.056778124  0.056438547            2 
 3727000   0.65116158   -3.3054704    2548.2559   0.05697737  0.056426071            7 
 3728000   0.65177836    -3.307672    2544.5689   0.05687967  0.056413599            7 
 3729000   0.64609157   -3.3014542    2546.6106  0.056910044  0.056401159            7 
 3730000   0.67364087   -3.3290687    2544.4046  0.056845501  0.056388637            6 
 3731000    0.6504807   -3.3304665    2547.8862  0.056908028  0.056376051            5 
 3732000   0.64874235   -3.3184384    2534.7442  0.056599325  0.056363448            3 
 3733000   0.67018701   -3.3151769    2550.5576  0.056937173  0.056350862            7 
 3734000   0.65852104    -3.310447    2539.1941   0.05666832  0.056338281            7 
 3735000   0.65434407   -3.3118663    2547.9891  0.056849379  0.056325789            5 
 3736000   0.64484304   -3.3491308    2543.0841  0.056724752  0.056313213            8 
 3737000    0.6686327   -3.3134041    2545.4973  0.056763386  0.056300657            8 
 3738000   0.65640599   -3.3059351    2553.3025  0.056922207  0.056288213            5 
 3739000   0.67138072   -3.3156564    2550.0784  0.056835125  0.056275711            5 
 3740000   0.67542947   -3.2928588    2554.6615  0.056922049  0.056263339           14 
 3741000   0.65271915   -3.2990115    2547.2934  0.056742703  0.056250962            5 
 3742000   0.63262942    -3.304104    2555.3138   0.05690615   0.05623858            5 
 3743000   0.63901453   -3.3408107    2541.0118  0.056572532  0.056226041           11 
 3744000    0.6582209    -3.305855    2549.2676  0.056741177  0.056213516           10 
 3745000   0.65429833   -3.3071826    2555.4457    0.0568635  0.056201077           12 
 3746000   0.65604243   -3.3277346    2546.6039  0.056651627  0.056188574            5 
 3747000   0.66193243   -3.3159417    2557.1929  0.056872007    0.0561761            6 
 3748000   0.65453147   -3.2999833     2549.056  0.056675916  0.056163728            9 
 3749000   0.65231326   -3.2953783    2556.9624  0.056836543  0.056151345            4 
 3750000   0.65803969   -3.3179088    2550.9426  0.056687612  0.056138877            8 
 3751000   0.65204377   -3.3060833    2550.9316  0.056672256  0.056126435           11 
 3752000   0.64712178   -3.3285397    2548.2897  0.056598474  0.056114033            5 
 3753000   0.65055175   -3.3512075     2555.178  0.056736344  0.056101617            6 
 3754000    0.6455249   -3.3296481     2550.729   0.05662247  0.056089127            6 
 3755000   0.65027741   -3.3362261    2545.3941  0.056488996  0.056076681            5 
 3756000   0.65639258   -3.3157367    2552.8012  0.056638295  0.056064188            7 
 3757000   0.65142703   -3.3231749    2550.6972   0.05657655  0.056051822            8 
 3758000   0.64613482   -3.3233408    2542.1745  0.056372504    0.0560393            4 
 3759000   0.64664227   -3.3114913    2555.8056  0.056659697  0.056026759            4 
 3760000    0.6698187   -3.3070196    2555.9679  0.056648225  0.056014335            7 
 3761000   0.63709804   -3.3081867    2542.9067  0.056343763  0.056001869            4 
 3762000   0.64739544   -3.3192598     2548.161  0.056445175  0.055989401            4 
 3763000   0.65890485   -3.3363829    2550.8536  0.056489805  0.055977002            8 
 3764000   0.65047595   -3.3268245    2546.4475  0.056377248  0.055964568            9 
 3765000   0.65313885   -3.3131233     2553.699  0.056522775  0.055952095            5 
 3766000     0.642168   -3.3309936    2544.9673  0.056314554    0.0559396            7 
 3767000   0.64503078   -3.3270253    2550.4572  0.056421051  0.055927226            9 
 3768000   0.65353611   -3.3094023    2553.4366   0.05647197  0.055914795            8 
 3769000   0.63718288   -3.3022574    2550.0951  0.056383106  0.055902414            6 
 3770000   0.65142433    -3.363288    2547.6962  0.056315124  0.055889975            5 
 3771000   0.64718189   -3.3269503    2556.5231  0.056495251  0.055877559            6 
 3772000   0.65397535    -3.327327    2547.9124  0.056290041  0.055865228           10 
 3773000   0.64441684   -3.3309413    2549.7934  0.056316667  0.055852856            6 
 3774000   0.63783735   -3.3469775    2549.8263  0.056302472  0.055840481            4 
 3775000   0.65120427   -3.3194639    2557.7313  0.056462059  0.055828105            7 
 3776000   0.65566309   -3.3021348    2558.1612  0.056456595   0.05581575            6 
 3777000   0.65743438   -3.3322937    2556.1808  0.056397952  0.055803421            8 
 3778000    0.6417938   -3.3409963       2558.3  0.056429768  0.055791013            5 
 3779000   0.64054269   -3.3116658    2551.2182   0.05625867   0.05577876            8 
 3780000   0.63885558   -3.3034416    2553.6012  0.056296322   0.05576645            8 
 3781000   0.66467845   -3.3270041    2557.4866  0.056367068  0.055754114            5 
 3782000   0.64183418   -3.3276016    2558.6047    0.0563768   0.05574184            7 
 3783000   0.65392699   -3.3231384    2553.3469  0.056246076  0.055729584            7 
 3784000   0.65263445   -3.3113611     2564.121  0.056468485  0.055717288            5 
 3785000   0.64536889   -3.2999075    2562.2869  0.056413185  0.055705038            4 
 3786000   0.65098625   -3.3169249    2561.9686  0.056391278  0.055692798            7 
 3787000   0.64401815   -3.3407819    2553.1055  0.056181356  0.055680474           10 
 3788000    0.6517039   -3.3248801    2563.6668  0.056398864  0.055668112            3 
 3789000   0.64691178    -3.294578    2569.9574  0.056522331  0.055655884            8 
 3790000   0.64239928   -3.3225528    2560.5757  0.056301137  0.055643591            6 
 3791000   0.65427598   -3.3412845    2561.3781  0.056303924  0.055631273            6 
 3792000   0.66521169   -3.3388012     2553.902   0.05612478  0.055618993            3 
 3793000   0.64836362   -3.3217557    2560.0121  0.056244225  0.055606657            5 
 3794000    0.6333239   -3.3169955    2558.4761  0.056195662  0.055594346            7 
 3795000   0.64043581   -3.3230415      2559.16  0.056195873  0.055582111            3 
 3796000   0.63191574   -3.3384354    2558.7206  0.056171421  0.055569875            6 
 3797000   0.63726781   -3.3314329    2564.8947  0.056292132  0.055557684            6 
 3798000   0.65088732   -3.3342198    2563.0327  0.056236455   0.05554552            6 
 3799000   0.63779999   -3.3200932    2557.5217  0.056100766  0.055533297            4 
 3800000   0.63311117   -3.3441235    2555.6013  0.056043889  0.055521039            7 
 3801000   0.63846973   -3.3415713     2558.085  0.056083596  0.055508842           17 
 3802000   0.62697756   -3.3411941    2556.6082  0.056036476  0.055496636            9 
 3803000   0.63813675   -3.3343656    2563.7588  0.056178429  0.055484503            3 
 3804000   0.64378656   -3.3422111     2562.575  0.056137727  0.055472339            4 
 3805000   0.62805845   -3.3240964    2566.1647  0.056201593  0.055460162            8 
 3806000    0.6402081   -3.3394358    2564.0083  0.056139611  0.055447945           14 
 3807000   0.63564124   -3.3635968    2561.3227  0.056066078  0.055435682           13 
 3808000    0.6391063    -3.339729    2563.6832   0.05610301  0.055423502            8 
 3809000   0.62606385    -3.318112    2566.4697  0.056149246  0.055411306            3 
 3810000   0.64770475   -3.3310216    2561.9426  0.056035491  0.055399079            5 
 3811000   0.64738698   -3.3488411    2562.0627  0.056023413  0.055386844            9 
 3812000   0.64510502   -3.3266104    2555.8312  0.055872491  0.055374583            9 
 3813000   0.64987855   -3.3483225    2559.6559  0.055941425  0.055362296           11 
 3814000   0.63725384   -3.3216581    2563.6632  0.056014315  0.055350051            8 
 3815000   0.65015731   -3.3516559    2560.4947  0.055930422  0.055337867            5 
 3816000   0.63669532   -3.3347115    2567.8358  0.056076079  0.055325581            5 
 3817000   0.64027669   -3.3433746    2566.9585  0.056042233  0.055313422            7 
 3818000   0.65351509   -3.3321523    2557.6355  0.055824068  0.055301276            6 
 3819000   0.63491382   -3.3254599    2556.8508  0.055792329  0.055289126            6 
 3820000   0.64732366   -3.3218081    2559.0507  0.055825714  0.055276934            8 
 3821000   0.64193187   -3.3520288    2561.3744  0.055861782  0.055264676            5 
 3822000   0.65671147   -3.3335772    2570.2808  0.056041356  0.055252469            3 
 3823000   0.63655415   -3.3190692    2563.1494  0.055871249  0.055240391            5 
 3824000    0.6411616   -3.3245866    2573.5813  0.056083971  0.055228166            7 
 3825000    0.6507082   -3.3443372    2561.9476  0.055815852  0.055215964            4 
 3826000   0.64363395   -3.3363345    2567.4824  0.055921815  0.055203786            3 
 3827000   0.63752758   -3.3458958    2572.4128  0.056014563  0.055191613            6 
 3828000   0.62903472   -3.3557874    2561.3292  0.055758646  0.055179408            9 
 3829000    0.6426579   -3.3209942    2566.1022  0.055847963  0.055167134            5 
 3830000   0.62800379   -3.3212997    2566.1181  0.055833726  0.055154902            6 
 3831000   0.63368149    -3.345636    2561.8906  0.055727194  0.055142728            5 
 3832000    0.6476478   -3.3377264    2563.3694  0.055744811  0.055130448            6 
 3833000   0.65023929   -3.3442699    2565.9697  0.055786801   0.05511823            4 
 3834000   0.62927679   -3.3311876    2565.7542  0.055767565  0.055106033            7 
 3835000   0.63882012   -3.3389206    2563.1266  0.055695928  0.055093749            4 
 3836000   0.63553874   -3.3567561    2573.3702   0.05590394  0.055081497            4 
 3837000   0.62430706   -3.3203912    2569.2589   0.05580008  0.055069298            8 
 3838000   0.65034821   -3.3393121    2563.6799  0.055664406  0.055057057           14 
 3839000   0.64581693   -3.3653075     2562.072  0.055615004  0.055044859            5 
 3840000   0.64210613   -3.3360964    2567.7352   0.05572342  0.055032517            4 
 3841000   0.64368483   -3.3327949    2562.4123  0.055593429  0.055020265            4 
 3842000   0.63625285   -3.3211999    2572.3796  0.055795151  0.055007909           13 
 3843000   0.64497493   -3.3316401    2556.7441  0.055441584  0.054995715            4 
 3844000   0.62742369   -3.3372986      2561.64  0.055533299  0.054983367            5 
 3845000   0.64289037   -3.3322723    2563.4338  0.055557733   0.05497108            5 
 3846000   0.64497346   -3.3621723    2562.3348  0.055519475  0.054958793            4 
 3847000   0.63667757   -3.3172462    2569.3382  0.055656749  0.054946607            5 
 3848000   0.63831441   -3.3391799    2562.7196  0.055498953  0.054934384            5 
 3849000   0.64357962   -3.3455939    2564.7603  0.055528715  0.054922068            8 
 3850000   0.64068086   -3.3582378    2571.3754  0.055657477  0.054909753            7 
 3851000   0.63783565   -3.3405165    2566.3448  0.055534165  0.054897435            7 
 3852000   0.62992596   -3.3374929    2570.7862  0.055615832  0.054885288            9 
 3853000   0.63106069   -3.3327915    2564.6069  0.055467749  0.054872988            6 
 3854000   0.63204676   -3.3455794    2566.8968  0.055502871  0.054860671            4 
 3855000   0.64685689   -3.3460188    2567.3384  0.055498019  0.054848385            4 
 3856000   0.63096911   -3.3418479    2571.9255   0.05558276  0.054836127            5 
 3857000   0.64320699    -3.358468    2560.6353  0.055324417  0.054823828            8 
 3858000   0.64287911   -3.3152161    2563.4834  0.055371596  0.054811494           10 
 3859000   0.62720488   -3.3413714    2563.0909  0.055348771  0.054799207            4 
 3860000   0.63577048   -3.3376262    2563.3065  0.055339088  0.054786902           14 
 3861000   0.62667814   -3.3491229    2569.7544  0.055463921  0.054774585           14 
 3862000   0.63561781   -3.3644368    2562.2655  0.055287966  0.054762279            6 
 3863000   0.64367015   -3.3592386    2553.3877   0.05508214  0.054749936            7 
 3864000   0.62441249   -3.3219596    2568.0113  0.055383266  0.054737599            5 
 3865000   0.63987062   -3.3430086    2565.8215  0.055321723  0.054725327            9 
 3866000   0.62619628   -3.3263457    2568.2238  0.055359195   0.05471306            5 
 3867000   0.64121514   -3.3560132    2563.8034  0.055249621  0.054700772            7 
 3868000   0.63578032   -3.3649089    2568.3646  0.055333604  0.054688456            9 
 3869000   0.62973062   -3.3444009    2565.6917  0.055261731  0.054676124            8 
 3870000   0.63482233   -3.3311606    2567.0797  0.055277341   0.05466386            6 
 3871000   0.62970031    -3.358132    2569.7847  0.055321293  0.054651584           11 
 3872000   0.64233487   -3.3537054    2562.1181  0.055142004  0.054639277            7 
 3873000   0.63202586   -3.3496025    2565.2815  0.055195833  0.054626939            5 
 3874000   0.64164515   -3.3545472    2563.6699  0.055146917  0.054614528           16 
 3875000    0.6300689   -3.3523286     2562.361  0.055104537  0.054602204           10 
 3876000   0.62405081   -3.3267258    2572.8859  0.055316604    0.0545899            9 
 3877000   0.63765618   -3.3458022    2569.8789  0.055237703  0.054577631            7 
 3878000   0.63127788   -3.3569435    2567.3469  0.055169049  0.054565368            6 
 3879000   0.62563577   -3.3406509    2567.7211  0.055162865  0.054553083            3 
 3880000   0.62741894   -3.3487738    2568.2423  0.055159843  0.054540694            6 
 3881000   0.64798319   -3.3517146    2568.9025  0.055159806  0.054528374           11 
 3882000   0.64567815   -3.3444412     2569.315  0.055154453   0.05451611            6 
 3883000   0.64265142   -3.3525579    2563.2061  0.055009144  0.054503782            9 
 3884000   0.63230075    -3.359778    2570.1706  0.055144408  0.054491494           12 
 3885000   0.63060043   -3.3554591    2567.8833  0.055081152  0.054479236            8 
 3886000   0.61989529   -3.3644847    2561.4987  0.054930064  0.054466817            6 
 3887000   0.62119574   -3.3560413    2567.9766  0.055054811  0.054454482            5 
 3888000   0.63379285   -3.3458892    2559.6589  0.054862373  0.054442163            4 
 3889000   0.63453159    -3.334164    2571.6837  0.055105934  0.054429861           13 
 3890000   0.64550658   -3.3401713    2562.7037  0.054899393  0.054417542           11 
 3891000   0.62042912   -3.3544936    2564.2653   0.05491873  0.054405214            4 
 3892000   0.63399657   -3.3554614    2561.6791  0.054849243  0.054392953           10 
 3893000   0.63273253   -3.3664308     2566.521    0.0549388  0.054380569            5 
 3894000   0.62943818   -3.3772805    2564.0912  0.054872694  0.054368215            9 
 3895000    0.6200426   -3.3452449    2571.6032  0.055019324  0.054355849            8 
 3896000   0.61749395    -3.358441    2566.4174   0.05489428   0.05434354            8 
 3897000   0.63053856   -3.3484629    2571.7764  0.054994791  0.054331166           12 
 3898000   0.62470467   -3.3776633    2569.4161  0.054930223  0.054318867            8 
 3899000   0.62668224   -3.3488662    2567.1775   0.05486829  0.054306521            8 
 3900000   0.61573227   -3.3406405    2569.1582  0.054896543   0.05429411           12 
 3901000   0.63394183    -3.358413    2561.7269  0.054723723  0.054281756            5 
 3902000   0.62538694   -3.3424064    2568.3077  0.054850242  0.054269345            8 
 3903000   0.62122722   -3.3592087    2565.9838  0.054786571  0.054256951            6 
 3904000   0.64091888   -3.3450514    2565.0762  0.054753164  0.054244589            6 
 3905000   0.62500367   -3.3679399    2568.7409  0.054817347   0.05423218            7 
 3906000   0.63758021   -3.3755859    2565.1973  0.054727712  0.054219768            8 
 3907000   0.61402195   -3.3619382    2573.5093  0.054890994   0.05420737            7 
 3908000   0.62735324   -3.3506464    2566.8263   0.05473444  0.054194983           15 
 3909000   0.62737392   -3.3731932    2565.9105  0.054700914  0.054182587            8 
 3910000   0.63910817   -3.3607044    2568.4752  0.054741586   0.05417024            8 
 3911000   0.62320013   -3.3623941    2566.3811  0.054682969  0.054157913            5 
 3912000   0.61699478   -3.3675332     2568.891  0.054722457  0.054145616            9 
 3913000   0.63030001   -3.3712352    2569.1741  0.054714501  0.054133385            6 
 3914000   0.63756276   -3.3762808    2575.3324  0.054831638  0.054121031           11 
 3915000   0.62185331   -3.3736075    2572.5584  0.054758587  0.054108717            6 
 3916000   0.63693855   -3.3538372    2567.5476  0.054637973  0.054096375            9 
 3917000   0.63110458   -3.3682752     2565.874  0.054588418  0.054084007            7 
 3918000   0.61273758   -3.3623529    2571.8972  0.054702595   0.05407166            4 
 3919000   0.63588464   -3.3428366    2571.1336    0.0546724  0.054059361            4 
 3920000   0.63333387   -3.3681795    2569.3924  0.054621438  0.054047125           11 
 3921000   0.62227267   -3.3695427    2569.1402  0.054602148  0.054034773            5 
 3922000   0.60372727   -3.3714828    2577.4253  0.054764264  0.054022556            5 
 3923000   0.61324019   -3.3602462    2571.5079  0.054624605  0.054010312           12 
 3924000   0.61628355   -3.3545802    2563.1291  0.054432744  0.053998027            7 
 3925000     0.630055   -3.3674258    2573.0763   0.05463007  0.053985639           13 
 3926000   0.63731185   -3.3696162    2569.3477  0.054537012  0.053973351            5 
 3927000   0.63254801   -3.3533404    2571.8623  0.054576486  0.053961091            9 
 3928000   0.62606008   -3.3665252    2571.2663  0.054549947  0.053948871            4 
 3929000   0.62352833   -3.3707228    2575.1304  0.054618021  0.053936644            6 
 3930000   0.63304731   -3.3686608    2570.4803  0.054505519   0.05392451            9 
 3931000     0.628105    -3.386992    2571.9463  0.054522732  0.053912259           12 
 3932000   0.61595485   -3.3537785    2576.0423  0.054595674  0.053900098            4 
 3933000   0.63054293   -3.3766903    2576.8081  0.054598019  0.053887907           16 
 3934000   0.62177546   -3.3685402    2578.2549  0.054614788  0.053875702           27 
 3935000   0.63679203   -3.3571116     2581.412  0.054667768  0.053863618            5 
 3936000   0.62099116     -3.37648    2580.7037  0.054638882  0.053851462            5 
 3937000   0.62629473   -3.3609668    2574.4394   0.05449241  0.053839303            7 
 3938000   0.63064779   -3.3597144    2568.2076  0.054346699  0.053827179            5 
 3939000   0.62542071   -3.3561468    2573.9959   0.05445536  0.053815029            3 
 3940000   0.62698746   -3.3683712    2568.0518  0.054315816  0.053802754            4 
 3941000   0.62359427   -3.3675445    2575.0911  0.054450881  0.053790582            9 
 3942000   0.61743396   -3.3598442    2577.1805  0.054481239  0.053778377            7 
 3943000   0.62036744   -3.3572125    2576.5049  0.054453143  0.053766149            6 
 3944000   0.61165652    -3.366765    2574.0258  0.054386955  0.053754001           14 
 3945000   0.64582311   -3.3460272    2576.9452  0.054434838  0.053741827            9 
 3946000   0.62206593   -3.3746302    2578.8875  0.054462061  0.053729701            7 
 3947000   0.61479831   -3.3702577    2574.2951  0.054351302  0.053717412            7 
 3948000   0.63039197   -3.3714611    2577.0858  0.054396442  0.053705235            4 
 3949000   0.62334325   -3.3382006    2578.8178  0.054419217  0.053693044            8 
 3950000   0.60291649   -3.3583358    2573.1463  0.054285786  0.053680884            5 
 3951000   0.62049592   -3.3751533    2579.7813  0.054411991  0.053668644            6 
 3952000   0.62386249   -3.3827465     2578.083  0.054362412  0.053656538            5 
 3953000      0.62159   -3.3842426    2578.3891  0.054355112  0.053644367            3 
 3954000    0.6119522   -3.3689357      2574.76  0.054264879  0.053632216            7 
 3955000   0.61390543   -3.3747488    2579.0248   0.05434102  0.053620081            8 
 3956000   0.60973577   -3.3829958    2578.0726  0.054307225  0.053607928            5 
 3957000   0.60697347   -3.3760688    2569.7336  0.054117884   0.05359575            8 
 3958000   0.61803019   -3.3718429    2577.8763   0.05427565  0.053583464            8 
 3959000   0.59450482   -3.3877175    2576.6594  0.054236327  0.053571266            6 
 3960000   0.62300458   -3.3680875    2579.0914   0.05427381  0.053559085            5 
 3961000     0.627043   -3.3602091    2579.2328  0.054263081  0.053546874           15 
 3962000    0.6181811       -3.356    2572.8908  0.054115994   0.05353471            8 
 3963000   0.61322353   -3.3494856     2577.159  0.054192089  0.053522508            5 
 3964000   0.60106756   -3.3619005    2587.7966  0.054402047  0.053510317            4 
 3965000   0.62075816   -3.3620553    2570.8798  0.054032782  0.053498193            7 
 3966000   0.60713894   -3.3792137    2576.7795  0.054143123  0.053485973            6 
 3967000   0.60578438   -3.3680841    2581.8965  0.054236964  0.053473822            9 
 3968000   0.62058281   -3.4004052    2573.1362  0.054039319  0.053461703            7 
 3969000   0.60640487   -3.3797172    2577.2985  0.054113096  0.053449507            9 
 3970000   0.61040218   -3.3904691    2584.4891  0.054250401  0.053437331            9 
 3971000   0.62221487   -3.3588947    2573.9527  0.054015628  0.053425129           20 
 3972000   0.60316796     -3.36453      2577.35  0.054073305  0.053412965            6 
 3973000    0.6186287   -3.3850984    2575.1112  0.054012736  0.053400801           12 
 3974000   0.61885782   -3.3787787    2574.2145  0.053980341  0.053388611            6 
 3975000   0.60193912    -3.356824    2577.8219  0.054042389  0.053376459           10 
 3976000   0.62901256   -3.3760854    2578.4915  0.054042829  0.053364266           11 
 3977000   0.60964009   -3.3694848    2584.8421   0.05416231  0.053352089            9 
 3978000     0.624285   -3.3832255    2583.4871  0.054120309  0.053339872           10 
 3979000   0.61853299   -3.3643719     2584.638  0.054130812  0.053327701           17 
 3980000   0.62167533   -3.3621695    2583.9019  0.054101799  0.053315504           15 
 3981000   0.60835247   -3.3797046    2574.5464  0.053892372  0.053303299            8 
 3982000   0.61645272   -3.3867837    2575.4837  0.053898454  0.053291088           12 
 3983000   0.59987947   -3.3858457    2575.5435  0.053886172  0.053278845            7 
 3984000   0.62735054   -3.3826522    2578.0987  0.053926093  0.053266654            8 
 3985000    0.6133881   -3.3610645    2583.7247  0.054030212  0.053254412            4 
 3986000   0.61901253    -3.361672    2571.7848  0.053767035   0.05324218            5 
 3987000    0.6187967   -3.3836828    2578.7606  0.053899352  0.053229873           10 
 3988000   0.61883907    -3.372305    2579.0231  0.053891321  0.053217614            5 
 3989000   0.61285452   -3.3564034    2581.6447  0.053932579  0.053205385            6 
 3990000   0.60004553   -3.3989951    2575.7088  0.053795087  0.053193167            9 
 3991000   0.60433594   -3.3698887    2576.5745  0.053799685  0.053180889           10 
 3992000   0.60015216   -3.3898193    2572.5752  0.053702723  0.053168712           16 
 3993000   0.61372704   -3.3883222    2578.8108   0.05381941   0.05315646            5 
 3994000   0.59404194   -3.3800927    2579.9755  0.053830234  0.053144225            8 
 3995000   0.61667181   -3.3667741    2581.8981  0.053856865  0.053131992            7 
 3996000   0.60882053   -3.3982798    2576.2844  0.053726317  0.053119735            9 
 3997000   0.61460001   -3.3711334    2582.8764  0.053850314  0.053107483            8 
 3998000   0.60880671    -3.380449    2573.5276  0.053641979  0.053095208            5 
 3999000   0.62517692   -3.3886293    2574.8093  0.053655274   0.05308299            8 
 4000000   0.61287002     -3.38965    2578.9583  0.053728298  0.053070745           17 
 4001000   0.61043696   -3.3935734    2581.2696  0.053763009  0.053058542           11 
 4002000   0.62483555   -3.3704805    2583.0481  0.053786608  0.053046375            6 
 4003000   0.61262657   -3.3843619    2583.1145  0.053774554  0.053034172            4 
 4004000   0.60432507   -3.3777243    2582.8968  0.053756593  0.053022008           10 
 4005000   0.61196081   -3.3839771    2578.3875  0.053649344  0.053009872            8 
 4006000   0.62183899   -3.3735886    2576.1159  0.053588698  0.052997732           15 
 4007000    0.5986066   -3.3693401    2582.2371  0.053702627  0.052985594            4 
 4008000   0.62043099    -3.397939    2575.3623  0.053546288  0.052973426            4 
 4009000   0.59633659   -3.3926495    2578.4301  0.053596701  0.052961302            8 
 4010000   0.61452053   -3.3756955    2585.7497  0.053735446   0.05294917            9 
 4011000   0.61427653   -3.3999041    2580.9622  0.053622583   0.05293702            7 
 4012000   0.61065598   -3.3768657    2575.3498  0.053492643  0.052924898            9 
 4013000    0.6176691   -3.3962195      2579.41  0.053563627   0.05291276            5 
 4014000   0.61280079    -3.384222    2580.9873  0.053583028  0.052900645            5 
 4015000   0.61428623   -3.3936986     2575.801  0.053462039  0.052888515           10 
 4016000   0.61524265   -3.3811176    2579.8511  0.053532766  0.052876348            8 
 4017000   0.58986078   -3.3936566    2585.4612  0.053635823  0.052864254            8 
 4018000   0.61600346   -3.4043757     2581.782  0.053546166  0.052852101            9 
 4019000   0.61265814   -3.4008871    2576.5287  0.053423917  0.052839915            8 
 4020000   0.59862779    -3.384162    2581.4611  0.053512875  0.052827753            9 
 4021000   0.61720641   -3.3822821    2583.2321  0.053536271  0.052815544            6 
 4022000   0.60216725   -3.3900939    2584.2148   0.05354332   0.05280345            5 
 4023000   0.61414235   -3.3840533    2583.2324  0.053509661  0.052791352            6 
 4024000   0.60196492   -3.4073428     2583.335  0.053498488  0.052779265            9 
 4025000   0.61012012   -3.3862318     2586.362  0.053547868  0.052767163           13 
 4026000   0.61829669   -3.4011922    2580.5235  0.053413717  0.052755069            9 
 4027000   0.59307939   -3.3667341    2581.8882  0.053428694  0.052742971            5 
 4028000   0.61309062   -3.3832174    2580.7202  0.053391266  0.052730878           12 
 4029000   0.59349886    -3.376678    2588.4834  0.053538583  0.052718869            7 
 4030000   0.60766164   -3.3573775    2589.6382  0.053549177  0.052706835           11 
 4031000   0.60977579   -3.3935218    2587.7798  0.053497473  0.052694741            9 
 4032000   0.61923991   -3.3991578    2586.3763  0.053455199  0.052682698           17 
 4033000   0.61087671   -3.3977676    2583.7885  0.053388472  0.052670543            7 
 4034000   0.61478586   -3.3903442    2588.2668  0.053467749  0.052658472            8 
 4035000   0.61652678   -3.3722685    2582.2508  0.053330251  0.052646428            7 
 4036000   0.60457614    -3.391494    2589.6347  0.053469498  0.052634306           11 
 4037000   0.60721623   -3.3942858    2579.6989  0.053251153  0.052622136           27 
 4038000   0.61349205   -3.3958301    2586.8307  0.053385148  0.052610064           15 
 4039000   0.60406035   -3.4039947    2584.2221  0.053318109  0.052598027            8 
 4040000    0.6099172    -3.397142    2582.4238  0.053267817  0.052585958            6 
 4041000   0.60268544   -3.4060706     2577.959  0.053162562  0.052573866           10 
 4042000   0.60062642   -3.4071402    2586.1933  0.053319175  0.052561747           12 
 4043000   0.61194946   -3.4005187    2582.2555  0.053224823  0.052549616           11 
 4044000   0.61844964   -3.3953429    2583.1682  0.053230469    0.0525376            5 
 4045000   0.60387626   -3.3914737    2583.6856  0.053227969  0.052525514            6 
 4046000   0.60541502   -3.3740972    2588.8549  0.053321283  0.052513491            5 
 4047000   0.60325548   -3.4000848    2584.0681  0.053209539  0.052501479           17 
 4048000   0.60665265   -3.3921195    2592.5919  0.053371869  0.052489468            7 
 4049000   0.60257559   -3.4090264    2581.8754  0.053138129  0.052477445           18 
 4050000   0.59787376   -3.3908865    2583.7637  0.053163862  0.052465439            5 
 4051000   0.61962647   -3.3920242     2596.047   0.05340342  0.052453545           15 
 4052000   0.58027059   -3.4016734    2587.5573  0.053215639  0.052441517            6 
 4053000   0.59482472   -3.4003559    2594.0729  0.053336476  0.052429522            6 
 4054000   0.61120121   -3.4020507    2591.4215   0.05326882  0.052417478            5 
 4055000   0.59798358   -3.4152437    2585.2496  0.053128845  0.052405508           12 
 4056000   0.60736234   -3.4109148    2586.8113  0.053147833  0.052393466           13 
 4057000   0.60038385   -3.4030144    2586.8155  0.053134817  0.052381387           21 
 4058000   0.60024909   -3.3931874    2583.9164   0.05306219  0.052369352           10 
 4059000   0.59061715   -3.4054018    2579.5687  0.052959857  0.052357281            8 
 4060000   0.59223364   -3.4135567    2583.6615  0.053030818  0.052345174            9 
 4061000   0.59925411   -3.4002323    2587.8283  0.053103264  0.052333115           10 
 4062000   0.60377204   -3.4088769    2593.0006  0.053196302  0.052321097            5 
 4063000   0.60082226    -3.403837    2589.4333  0.053110044  0.052309033           18 
 4064000   0.60029722   -3.3946674    2582.2432   0.05294954  0.052297049            9 
 4065000   0.60063577   -3.4033296    2587.2481  0.053039117   0.05228501            8 
 4066000   0.60555648   -3.4150799    2586.2986  0.053006612  0.052272981            9 
 4067000   0.60843884   -3.4079707    2588.1933  0.053032402  0.052260931            8 
 4068000   0.59968035   -3.4147701    2585.2166  0.052958387  0.052248953            5 
 4069000   0.60379238   -3.4229517    2582.0004  0.052879503  0.052236886           10 
 4070000   0.59745702   -3.3960337    2591.2684  0.053056274  0.052224753           10 
 4071000    0.5954447   -3.3843745    2590.1454  0.053020253  0.052212733           12 
 4072000   0.59242435   -3.4105348    2586.9584   0.05294201  0.052200706            6 
 4073000   0.60697457   -3.3974754    2590.8908  0.053009469  0.052188653           20 
 4074000     0.581621    -3.416953    2586.4479  0.052905578   0.05217661           11 
 4075000   0.60488167   -3.3949199    2596.1478  0.053090957  0.052164623            8 
 4076000   0.60697559   -3.4048062    2591.8506  0.052990076  0.052152652            8 
 4077000    0.5947034   -3.3956892    2590.9644  0.052958965  0.052140668            5 
 4078000   0.60102229   -3.3964175    2592.5878  0.052979152  0.052128635            9 
 4079000   0.59995814   -3.4258785    2588.1383  0.052875262  0.052116575           12 
 4080000   0.58878668   -3.3948252     2592.242  0.052946119  0.052104587           10 
 4081000   0.60448556   -3.3897193    2591.1848  0.052911558  0.052092601            7 
 4082000   0.58651855   -3.4071793    2589.3271   0.05286067  0.052080611           11 
 4083000   0.58733853   -3.3839582     2589.984  0.052861131  0.052068641            8 
 4084000   0.60016345   -3.3887592    2589.6017  0.052840388  0.052056619           12 
 4085000   0.60516428   -3.4002159     2594.002  0.052917218  0.052044658            5 
 4086000   0.59182019   -3.4121761    2588.2959  0.052787891  0.052032683            5 
 4087000   0.58904381   -3.3942256    2592.4231  0.052859129  0.052020742            6 
 4088000   0.58775373   -3.4265036    2594.2628    0.0528837  0.052008753           12 
 4089000   0.58682933   -3.3931207    2590.6099  0.052796322  0.051996773            7 
 4090000   0.60967346   -3.3967191    2589.8888  0.052768721  0.051984808            7 
 4091000   0.59175522   -3.4041519    2589.8456  0.052754942  0.051972847            7 
 4092000   0.60680902   -3.4044821    2589.8838  0.052742827  0.051960866           10 
 4093000    0.5945534   -3.3937549    2598.1748  0.052898745  0.051948919            6 
 4094000   0.60554569   -3.4023823    2595.3271  0.052827859  0.051937036            7 
 4095000   0.60034476   -3.4221544    2591.4709  0.052736485  0.051925103           11 
 4096000   0.59101644   -3.4111387    2591.0066  0.052714163  0.051913167            7 
 4097000   0.59723369   -3.3996141    2596.9822  0.052822842  0.051901235            8 
 4098000   0.60094643    -3.401851    2586.8775  0.052604471   0.05188937           10 
 4099000   0.59247159   -3.3920444    2590.9935  0.052675316  0.051877435            5 
 4100000    0.5948857   -3.4125618    2595.6685  0.052757491  0.051865584           10 
 4101000   0.58911129   -3.4067954    2584.6318  0.052520356  0.051853645            7 
 4102000   0.58722069   -3.3917383    2594.7217  0.052712533  0.051841748            6 
 4103000   0.59780631   -3.4157318    2588.5564  0.052574466  0.051829856            5 
 4104000   0.60040941   -3.4197139     2589.681  0.052584491  0.051817925           10 
 4105000   0.60730909    -3.416792    2598.9716  0.052760284  0.051806047           13 
 4106000   0.59746074   -3.3895173    2594.0348  0.052647239  0.051794191            7 
 4107000   0.61056104   -3.4088424    2588.4926  0.052521967  0.051782361           11 
 4108000    0.5981913   -3.4141623    2589.5777  0.052531193  0.051770406            4 
 4109000   0.59096749   -3.4095664    2595.8812  0.052646249  0.051758474            9 
 4110000   0.60008491   -3.4129342     2588.963  0.052493167  0.051746598            6 
 4111000    0.5918404   -3.3978001    2593.6046  0.052574487  0.051734806            5 
 4112000   0.59365301   -3.3979965     2596.777  0.052625993  0.051722944            4 
 4113000   0.59709285   -3.4211397    2590.5862  0.052487766  0.051711072           16 
 4114000   0.59869523   -3.4275125    2589.2662   0.05244827   0.05169915           11 
 4115000   0.59274207    -3.408307    2605.6633  0.052767584   0.05168728            6 
 4116000   0.59599224    -3.417495    2601.2758  0.052665933  0.051675434           13 
 4117000   0.58998372   -3.4149128     2587.395  0.052372177  0.051663506            7 
 4118000   0.58151052   -3.4041662     2595.439  0.052522239  0.051651652           15 
 4119000    0.6006196   -3.4216914    2598.8541  0.052578581  0.051639868           10 
 4120000   0.60251935   -3.4213326     2594.646  0.052480703  0.051627964            8 
 4121000   0.59293867   -3.4096457    2600.0879  0.052578014  0.051616076            7 
 4122000   0.59799748   -3.4107858    2600.7599  0.052578843  0.051604213            6 
 4123000   0.60600921   -3.4108902    2600.1546  0.052553855  0.051592332           13 
 4124000   0.57855812    -3.419733    2596.9767  0.052476898  0.051580492            8 
 4125000   0.59074062   -3.4112032    2594.9053   0.05242233  0.051568582            8 
 4126000   0.60049792   -3.4173014    2600.5586  0.052523804  0.051556815            7 
 4127000   0.58958929   -3.4092843    2598.5336  0.052470189  0.051545018           14 
 4128000   0.60120044    -3.425005    2600.6223  0.052499643  0.051533157            8 
 4129000   0.58487579   -3.4196026    2592.0237  0.052313387  0.051521348            5 
 4130000   0.58461947   -3.4148266    2597.4176  0.052409557  0.051509522            6 
 4131000   0.58903726   -3.4258048    2592.1067  0.052289734  0.051497716            9 
 4132000   0.58941853    -3.416225     2600.979  0.052456015  0.051485883           12 
 4133000   0.59255467   -3.4177464    2591.1811  0.052245768  0.051474078            5 
 4134000   0.59433234   -3.4267497    2590.4106  0.052217598  0.051462274           10 
 4135000   0.57786101   -3.4285237     2590.602  0.052208828  0.051450361           10 
 4136000   0.60165965   -3.4168012    2602.8189  0.052442353  0.051438542            6 
 4137000   0.56939142    -3.391384     2602.348  0.052420191   0.05142683            9 
 4138000   0.59656536   -3.4199606    2600.0027  0.052360293   0.05141508           15 
 4139000   0.57805898     -3.42381    2599.0769  0.052329003  0.051403301            5 
 4140000   0.57584579   -3.4200564    2596.2431  0.052259321  0.051391475           14 
 4141000   0.56645954   -3.4080962    2600.0516  0.052323345   0.05137975           14 
 4142000    0.5839078   -3.4129018    2598.2582   0.05227463  0.051367966            5 
 4143000   0.59416817   -3.4258686    2594.1634  0.052179649  0.051356165           14 
 4144000   0.59568004   -3.4308161     2591.098  0.052105413  0.051344277            9 
 4145000   0.58680636   -3.4289039    2596.4162  0.052199762  0.051332489            5 
 4146000   0.58020956   -3.4341386    2596.3833   0.05218651  0.051320682            8 
 4147000   0.59028901   -3.4232875     2596.983  0.052185978  0.051308854           23 
 4148000   0.58558135   -3.4112141    2592.4936  0.052083204  0.051297034            5 
 4149000   0.58378447   -3.4144522    2597.8013  0.052177257  0.051285301           10 
 4150000    0.5855437   -3.4366037    2599.5703  0.052200207  0.051273546           11 
 4151000   0.57391301   -3.4150756    2595.9802  0.052115558  0.051261767            6 
 4152000   0.60193907   -3.4182917    2610.7619  0.052399684  0.051249991            9 
 4153000    0.5954078   -3.4360308     2602.022  0.052211694  0.051238243            8 
 4154000   0.59306635   -3.4180439    2605.7027  0.052272963  0.051226506           12 
 4155000   0.59276067   -3.4172076    2604.6131  0.052238531  0.051214722            8 
 4156000   0.58821519   -3.4288041    2601.4336  0.052162207  0.051202939            9 
 4157000   0.59129129   -3.4447503    2595.0867  0.052022426  0.051191174           11 
 4158000   0.57592886   -3.4262105    2603.9887  0.052188326  0.051179384            6 
 4159000   0.57917796   -3.4268322    2597.4432  0.052044626  0.051167661            8 
 4160000   0.57864508   -3.4456531    2594.5238  0.051973634  0.051155892           16 
 4161000   0.58521754    -3.418966    2598.8283  0.052047351  0.051144027            6 
 4162000   0.59024241   -3.4137554     2595.615  0.051970507  0.051132283            9 
 4163000   0.58667082   -3.4280997    2600.5775  0.052057361  0.051120485           13 
 4164000   0.58277155   -3.4265344    2598.0105  0.051993486  0.051108711            4 
 4165000   0.57821757   -3.4226451     2598.406  0.051988916  0.051096954            5 
 4166000   0.57746455    -3.431049    2607.0461  0.052149265  0.051085207            8 
 4167000   0.59334546   -3.4323644    2608.8568  0.052172961  0.051073402            9 
 4168000   0.58884527   -3.4228233    2592.0293  0.051824002   0.05106166           16 
 4169000   0.58483382   -3.4257051    2597.8378  0.051927676  0.051049901           16 
 4170000   0.59493083   -3.4311322    2604.1546  0.052041459  0.051038201            5 
 4171000   0.58690514   -3.4285244    2605.8513  0.052062881  0.051026475            4 
 4172000   0.58055549   -3.4159108    2602.5164  0.051983789  0.051014751           10 
 4173000     0.584568   -3.4232857    2601.8267  0.051957559   0.05100307            7 
 4174000   0.58212566   -3.4089078    2602.4283  0.051957122  0.050991393            6 
 4175000    0.5761525   -3.4185441    2598.6784  0.051869829  0.050979694            5 
 4176000   0.57411641   -3.4286209    2602.3596  0.051930867  0.050967924           23 
 4177000   0.57517427   -3.4370295    2599.9485  0.051870333  0.050956254            4 
 4178000    0.5802219    -3.438621    2605.4753  0.051968153  0.050944542            6 
 4179000   0.58321923    -3.460388    2601.9255  0.051884931   0.05093287            7 
 4180000   0.58860487    -3.432913    2602.8354  0.051890659  0.050921148            9 
 4181000   0.57268887    -3.408747    2605.4935  0.051931227  0.050909449           13 
 4182000   0.58729494     -3.45239    2592.1379  0.051652676  0.050897716            4 
 4183000   0.58788137   -3.4409594    2608.6974  0.051970225  0.050885968            8 
 4184000   0.57991891   -3.4368481    2602.5817  0.051835996  0.050874224            6 
 4185000   0.58671018   -3.4314646    2600.8395  0.051788919   0.05086254           16 
 4186000   0.58000473   -3.4261954    2604.9904  0.051859182  0.050850826           47 
 4187000   0.58307015   -3.4388153    2606.0349  0.051867583  0.050839129            6 
 4188000    0.5743667   -3.4412251    2598.3986  0.051703251  0.050827433           21 
 4189000   0.58749602   -3.4386393     2604.988  0.051821994  0.050815711           12 
 4190000   0.57861105   -3.4166185    2600.1537  0.051713478  0.050804018            7 
 4191000   0.57891243   -3.4502909    2600.8269  0.051714526  0.050792328            6 
 4192000   0.58990577   -3.4283359    2610.7123  0.051898702  0.050780615            8 
 4193000   0.59341351   -3.4049248    2601.5766  0.051704758  0.050769011           11 
 4194000   0.57457141   -3.4441309    2607.5546   0.05181121  0.050757388           11 
 4195000   0.58836674   -3.4499739    2602.4635  0.051697725  0.050745731            8 
 4196000   0.57678383   -3.4372861    2610.0245  0.051835567  0.050734094            6 
 4197000   0.57009239   -3.4496998    2599.2688  0.051609657  0.050722448            7 
 4198000   0.56808588   -3.4431843    2602.0375  0.051652325  0.050710731           18 
 4199000   0.57912107   -3.4447495     2604.287  0.051684668  0.050699037           13 
 4200000   0.57933322   -3.4295544     2595.617  0.051500337  0.050687304            5 
 4201000   0.58447574   -3.4377607    2598.7865   0.05155095  0.050675657            7 
 4202000   0.58277827   -3.4345172     2603.233  0.051626863  0.050663897           15 
 4203000   0.58772195   -3.4450505    2602.1667  0.051593439  0.050652245           10 
 4204000   0.58626238   -3.4417197    2609.6207  0.051728923   0.05064057            8 
 4205000   0.59449918    -3.431668    2604.1626  0.051608454  0.050628972            6 
 4206000   0.59397001   -3.4348513    2608.8174   0.05168841  0.050617374           15 
 4207000   0.58041168   -3.4516392    2609.4652  0.051688954  0.050605746           11 
 4208000   0.57044207   -3.4321418    2606.8648  0.051625174  0.050594132           15 
 4209000   0.58508853   -3.4498723    2611.9941  0.051714464  0.050582508            4 
 4210000   0.57631951   -3.4309688    2605.9849  0.051583233    0.0505709            4 
 4211000   0.57298214   -3.4336142    2607.7183  0.051605286    0.0505593           10 
 4212000    0.5823526   -3.4403862    2607.2419  0.051583608  0.050547678            9 
 4213000   0.58602883   -3.4319793    2606.2227  0.051551204   0.05053607            5 
 4214000   0.57403108   -3.4478819    2609.4463  0.051602719  0.050524512           10 
 4215000   0.56470233   -3.4166992    2605.3785  0.051510054  0.050512924            6 
 4216000   0.58212034   -3.4352137    2607.0138   0.05153016  0.050501327           10 
 4217000   0.58269703   -3.4324842    2610.4153  0.051585157  0.050489768            8 
 4218000   0.56994795   -3.4394155    2609.7582  0.051559945  0.050478305           13 
 4219000   0.57378147   -3.4402884    2607.6907  0.051506887  0.050466791           14 
 4220000   0.57747529   -3.4369894    2609.1307  0.051523119  0.050455265            4 
 4221000   0.56971795   -3.4387633    2610.4807  0.051537564  0.050443718           11 
 4222000   0.57696709   -3.4391552    2609.6309  0.051508583  0.050432151           10 
 4223000   0.57682347   -3.4203434    2605.3876  0.051412652  0.050420617            7 
 4224000   0.58086013   -3.4392363    2615.1909  0.051593887  0.050409088           16 
 4225000   0.57664738   -3.4582863    2597.3769  0.051230314  0.050397509           11 
 4226000   0.56705619   -3.4417011    2605.2184   0.05137282  0.050385838           10 
 4227000   0.57630767    -3.453316    2604.7329  0.051351094  0.050374268            5 
 4228000   0.56807141   -3.4469896    2612.4225  0.051490509  0.050362693            6 
 4229000   0.57414471   -3.4120784    2605.3516     0.051339  0.050351172            7 
 4230000   0.56767245    -3.448336    2603.3046  0.051286536  0.050339623            9 
 4231000   0.56469219   -3.4310424    2610.3358    0.0514129  0.050328057            6 
 4232000    0.5799208    -3.428704     2609.571  0.051385692  0.050316532           10 
 4233000   0.56903857    -3.435796    2608.8615  0.051359585   0.05030502           16 
 4234000   0.58173079   -3.4532561    2607.7829  0.051326227   0.05029341           14 
 4235000   0.57105954   -3.4331184     2611.248   0.05138229  0.050281839           23 
 4236000   0.57480754   -3.4547304    2607.9672  0.051305619  0.050270312           17 
 4237000   0.56026351   -3.4699219    2606.6297  0.051267204  0.050258685           12 
 4238000   0.56179373   -3.4525816    2605.0908  0.051224847  0.050247151            7 
 4239000   0.57373105   -3.4542331    2607.9914  0.051269785  0.050235592           11 
 4240000   0.57825663   -3.4307297    2610.1916  0.051300935  0.050224095           13 
 4241000   0.57791574   -3.4428238    2604.3149  0.051173365  0.050212599            7 
 4242000   0.57819431   -3.4512798     2613.446  0.051340681  0.050201022            9 
 4243000   0.57773605   -3.4427242    2610.7548  0.051275724  0.050189486            7 
 4244000   0.58454432   -3.4502013    2603.1127  0.051113585  0.050177954           39 
 4245000   0.57631481   -3.4601649    2605.7564  0.051153444  0.050166349           16 
 4246000   0.58685382   -3.4505817    2608.1403  0.051188182  0.050154781           16 
 4247000   0.57009389   -3.4371882      2612.98  0.051271094   0.05014331           15 
 4248000    0.5682145   -3.4843846    2613.3781  0.051266833  0.050131733           12 
 4249000    0.5746757    -3.435897    2614.8971  0.051284559  0.050120249           10 
 4250000    0.5640533   -3.4596059    2607.4328  0.051126133  0.050108786           10 
 4251000   0.57421753   -3.4710278    2611.0436   0.05118489  0.050097253           19 
 4252000   0.57481617   -3.4315876    2609.9837  0.051152079  0.050085784           15 
 4253000   0.57216327   -3.4285554    2615.6524  0.051251124  0.050074411            7 
 4254000   0.57658345   -3.4495947    2616.1122  0.051248085  0.050063009            6 
 4255000   0.56920667   -3.4537406    2618.9796  0.051292197  0.050051592            5 
 4256000   0.54792166   -3.4518897    2604.4166  0.050994999  0.050040116            8 
 4257000   0.58709516   -3.4397415    2612.4853   0.05114097  0.050028649           11 
 4258000   0.57071196   -3.4661436    2613.7517  0.051153744  0.050017165           12 
 4259000   0.56262639   -3.4444936    2615.4197   0.05117437  0.050005664            6 
 4260000   0.57271643   -3.4580557    2609.5591  0.051047712  0.049994132            7 
 4261000   0.56976438   -3.4627028    2618.0959  0.051202688  0.049982707            5 
 4262000   0.58181659   -3.4555609    2615.6087  0.051142044  0.049971257           10 
 4263000   0.56549398   -3.4556043    2612.4758  0.051068805   0.04995979            9 
 4264000   0.55622506   -3.4361331    2608.9066  0.050987074   0.04994831           14 
 4265000   0.56502002   -3.4504127    2610.9253  0.051014563   0.04993683           11 
 4266000   0.56922981   -3.4488569    2612.9001  0.051041181  0.049925333           10 
 4267000   0.56816267   -3.4599439     2611.484  0.051001563  0.049913858           10 
 4268000   0.57168255   -3.4575716    2612.3731  0.051006973  0.049902345           11 
 4269000   0.57594555   -3.4680432    2612.6338  0.051000114  0.049890896           15 
 4270000   0.56238375   -3.4695989    2615.8029  0.051050018  0.049879348           21 
 4271000   0.55976197   -3.4422071    2611.8448  0.050960837  0.049867851            7 
 4272000   0.57025917     -3.44663    2610.4376  0.050921457  0.049856388           16 
 4273000   0.56905519   -3.4554022    2617.2782  0.051042947  0.049844986           11 
 4274000   0.57544522   -3.4598528    2619.0458   0.05106547  0.049833546            9 
 4275000   0.56721889   -3.4464315    2615.9891   0.05099394  0.049822169            8 
 4276000   0.57304152   -3.4501983    2614.0068  0.050943381   0.04981074            6 
 4277000   0.58377491    -3.440575    2624.4506  0.051134958  0.049799365            9 
 4278000   0.56839322   -3.4519714    2619.5715  0.051027964   0.04978806           13 
 4279000   0.55898907   -3.4396397    2610.3622  0.050836687  0.049776684           14 
 4280000   0.57231149   -3.4626851    2619.3809  0.051000407  0.049765268           17 
 4281000   0.56874131   -3.4610391    2616.0183  0.050923037  0.049753802            7 
 4282000   0.56527057     -3.46055    2614.5087  0.050881767  0.049742411            6 
 4283000   0.56088596   -3.4719832    2615.7283  0.050893616  0.049730955            6 
 4284000   0.56331127   -3.4629521    2612.4599  0.050818158  0.049719574           15 
 4285000    0.5540686   -3.4699478    2622.0267  0.050992351  0.049708177           11 
 4286000   0.56948595   -3.4597636    2615.1876   0.05084748   0.04969673           15 
 4287000   0.55867004   -3.4601796    2611.9779  0.050773227  0.049685268           17 
 4288000   0.57993719   -3.4585285     2616.757  0.050854264  0.049673815           20 
 4289000    0.5645959   -3.4674051    2617.3288  0.050853516   0.04966243           15 
 4290000   0.56116922   -3.4649157    2617.1216  0.050837639  0.049651029           13 
 4291000   0.58107034   -3.4477487    2620.1585  0.050884768   0.04963967           10 
 4292000   0.57251741    -3.471224    2621.2551  0.050894205  0.049628266            7 
 4293000    0.5701539   -3.4717535    2614.5637  0.050752459   0.04961683           10 
 4294000   0.57326686   -3.4498798    2617.6027  0.050799618  0.049605466            9 
 4295000   0.55843363   -3.4576011    2610.6566  0.050653019  0.049594093            5 
 4296000   0.55553764   -3.4448217     2614.865  0.050722863  0.049582692           11 
 4297000   0.57061539   -3.4730978    2621.0468  0.050830944  0.049571324            8 
 4298000      0.55851    -3.454499    2617.9889  0.050759828  0.049559932           13 
 4299000   0.56649302   -3.4738718    2620.7395  0.050801339  0.049548542           11 
 4300000    0.5630183    -3.466225    2612.5857  0.050631505   0.04953718           13 
 4301000   0.56635657   -3.4995271    2609.6677  0.050563197  0.049525789           13 
 4302000   0.55389338   -3.4558905    2616.1538  0.050677084  0.049514389           21 
 4303000   0.55734218   -3.4443219    2616.3004  0.050668147  0.049503059           13 
 4304000   0.55450998   -3.4665309    2619.2138  0.050712782   0.04949175           16 
 4305000    0.5633727   -3.4567518     2617.258  0.050663144  0.049480406            9 
 4306000   0.56555547   -3.4650741    2620.3515  0.050711246   0.04946909           11 
 4307000    0.5616056   -3.4580307    2616.8093  0.050630936  0.049457784            5 
 4308000   0.56298301   -3.4662367    2616.5473  0.050614116  0.049446518            7 
 4309000   0.55296182   -3.4783181    2615.0595  0.050573595  0.049435244           17 
 4310000   0.55828584   -3.4822029     2622.014  0.050696326  0.049423918            6 
 4311000   0.56740184   -3.4686403    2622.3463   0.05069099  0.049412565           17 
 4312000   0.55321279   -3.4683577    2616.5412  0.050567046  0.049401386           24 
 4313000   0.56564315   -3.4645176    2620.1458  0.050624968  0.049390089            9 
 4314000   0.56515586   -3.4717336    2622.4616  0.050657966  0.049378823            8 
 4315000   0.55961266   -3.4657664    2618.9658  0.050578714  0.049367588            8 
 4316000   0.57089251    -3.489637    2620.6306  0.050599138  0.049356334           10 
 4317000   0.55990023    -3.456082    2619.5744  0.050567029  0.049345085           12 
 4318000   0.54449042   -3.4656923    2627.6736  0.050711626  0.049333857           12 
 4319000   0.56291839   -3.4639991    2617.7864  0.050509115  0.049322665            7 
 4320000   0.55754056   -3.4568142    2626.2615  0.050660909  0.049311469            9 
 4321000   0.56227294   -3.4603718    2615.5466  0.050442541  0.049300211            7 
 4322000   0.56744854   -3.4563365    2620.0391   0.05051749   0.04928896           10 
 4323000   0.57459286   -3.4630066    2621.7645  0.050539064  0.049277732            8 
 4324000   0.57108017    -3.471613    2619.9414  0.050492242  0.049266527           10 
 4325000    0.5588058   -3.4881859    2620.3616  0.050488663   0.04925529           16 
 4326000   0.56271385   -3.4729596    2621.4279  0.050497533  0.049244064           13 
 4327000   0.57267071   -3.4681131    2619.4589  0.050447941  0.049232763            7 
 4328000   0.56861389   -3.4799357     2617.887  0.050406018  0.049221498           12 
 4329000   0.56401732   -3.4747302     2619.177  0.050419208  0.049210234            7 
 4330000   0.55908982   -3.4708995    2622.4303  0.050470175  0.049199053           11 
 4331000    0.5669856   -3.4687982    2618.5886  0.050384603   0.04918785           10 
 4332000   0.55791117   -3.4754364    2622.6612  0.050451316   0.04917668            7 
 4333000   0.55701577   -3.4788851    2623.2025  0.050450084  0.049165494           12 
 4334000   0.54517212   -3.4648233    2621.1994  0.050399926  0.049154344           12 
 4335000   0.56033772   -3.4667946    2615.0934  0.050270922  0.049143175           11 
 4336000    0.5518208   -3.4655904    2622.8571  0.050408539   0.04913199           10 
 4337000   0.55802021   -3.4735501    2623.7615  0.050414293  0.049120789            6 
 4338000   0.57004574   -3.4818653    2623.6952  0.050401399  0.049109622           10 
 4339000   0.56922936   -3.4585105    2623.9653  0.050394969  0.049098433            7 
 4340000   0.55627062   -3.4702459    2622.7924  0.050360837  0.049087326            8 
 4341000   0.55697161   -3.4823372    2620.7567  0.050310157  0.049076107           15 
 4342000   0.54559518   -3.4596482    2628.1843  0.050441123  0.049064923           21 
 4343000   0.55617431   -3.4715897    2622.6335  0.050323001   0.04905374            7 
 4344000   0.55485864    -3.475768    2619.5714  0.050252674  0.049042602            9 
 4345000   0.56064067   -3.4607409    2624.6711  0.050338917  0.049031496           11 
 4346000   0.57285839   -3.4705516    2626.7118  0.050366463  0.049020315           14 
 4347000   0.55276359   -3.4865527    2619.6402  0.050219311   0.04900912            4 
 4348000   0.54800877   -3.4857778    2623.7961  0.050287413  0.048997902            8 
 4349000   0.55450828   -3.4739109    2631.4075  0.050421697  0.048986661           17 
 4350000   0.54600429   -3.4594625    2621.8092   0.05022623  0.048975501            7 
 4351000   0.55315594   -3.4685918    2628.0866  0.050334916  0.048964351           16 
 4352000   0.56433783   -3.4890725    2626.7764  0.050298261  0.048953219            6 
 4353000   0.55025932   -3.4766298    2621.7934  0.050191312  0.048942058           12 
 4354000   0.56017012   -3.4811886    2620.5253  0.050155514  0.048930886            6 
 4355000   0.56049416   -3.4838065    2623.1985  0.050195149  0.048919729            9 
 4356000   0.55167741   -3.5033822    2627.5509   0.05026689  0.048908562           19 
 4357000   0.55581161   -3.4972303    2626.5733  0.050236655  0.048897343           11 
 4358000   0.53848806    -3.482458    2615.3871  0.050011227  0.048886109           16 
 4359000   0.55580786   -3.4717756    2620.5933  0.050099282  0.048874922           28 
 4360000   0.55727559   -3.4883894    2628.8744   0.05024607  0.048863759            7 
 4361000   0.56890845   -3.4864195    2616.3681  0.049995569  0.048852592           10 
 4362000   0.54476704   -3.4697518    2624.7655  0.050144535  0.048841431           15 
 4363000   0.55858072   -3.4869249     2627.224  0.050179998  0.048830256            6 
 4364000   0.55755118    -3.479695    2629.7895   0.05021749  0.048819156           20 
 4365000   0.54792083    -3.478515    2626.0929  0.050135412  0.048808043           11 
 4366000   0.56395759   -3.4515876    2623.9652  0.050083318  0.048796945            4 
 4367000   0.56007653   -3.4775977    2618.8207   0.04997368   0.04878584            9 
 4368000   0.56419915   -3.4800599    2619.9733  0.049984228  0.048774698            7 
 4369000   0.55756881   -3.4843258     2628.559  0.050136549  0.048763604           10 
 4370000   0.53991784   -3.4875603    2618.5139  0.049933522  0.048752496            8 
 4371000   0.54653724   -3.4911708    2626.9912  0.050083718  0.048741347           10 
 4372000   0.54887855   -3.4910291    2630.4754  0.050138674  0.048730211            8 
 4373000   0.55088491   -3.4801704    2628.3573  0.050086844  0.048719066           15 
 4374000   0.55040312   -3.5162883    2627.3528  0.050056257  0.048707917           10 
 4375000   0.54766061   -3.4757449    2627.6155   0.05004982  0.048696795           16 
 4376000   0.55359596   -3.4878496    2627.4135  0.050034536  0.048685638            5 
 4377000    0.5384912   -3.4863478    2626.3555   0.05000296  0.048674516            6 
 4378000   0.54434355   -3.4879007    2623.8496  0.049943841  0.048663333            4 
 4379000   0.55004492   -3.4768485    2630.0701  0.050050813  0.048652157           24 
 4380000   0.55542547   -3.4987629    2625.2723  0.049948102  0.048641021            8 
 4381000    0.5356787   -3.4871701    2625.6483  0.049943855  0.048629916           10 
 4382000   0.54240075   -3.4756267     2626.598  0.049950516  0.048618775           15 
 4383000     0.548293   -3.4962418    2619.5807  0.049805702   0.04860758           22 
 4384000   0.54388183   -3.4910398       2621.7  0.049834625  0.048596397           33 
 4385000   0.55528837   -3.4667987    2619.1238  0.049774303  0.048585185           11 
 4386000   0.54841143   -3.4989062    2622.5911  0.049828832   0.04857403           16 
 4387000   0.55588385   -3.4741783    2617.9115  0.049728583  0.048562864           11 
 4388000   0.55172175   -3.4801018    2630.3576  0.049953616  0.048551791            9 
 4389000   0.54751105   -3.4823329    2629.2712  0.049921607  0.048540692           12 
 4390000   0.54245109   -3.5007917    2626.6246  0.049859996  0.048529594            8 
 4391000   0.54461607   -3.4793994    2629.0164  0.049894033   0.04851851           10 
 4392000   0.55371444   -3.4960804    2637.2788  0.050039444   0.04850742           16 
 4393000   0.54821449   -3.4800303    2628.3143     0.049858  0.048496308            9 
 4394000   0.54557039    -3.490425    2624.1327  0.049767347  0.048485178           10 
 4395000   0.54714754   -3.4832414    2637.8392  0.050015912  0.048474055           10 
 4396000   0.55348051   -3.4897434    2624.7743  0.049756867  0.048462921           15 
 4397000   0.55291265   -3.4847683    2620.2275   0.04965938  0.048451785            4 
 4398000   0.54600684   -3.4912371    2625.6117  0.049750107  0.048440681           15 
 4399000   0.54808327   -3.4902696    2630.7998   0.04983708  0.048429564            9 
 4400000   0.54899482   -3.4857954    2622.3421  0.049665571  0.048418454           40 
 4401000   0.54288211   -3.4998876    2628.1191  0.049763673  0.048407362           11 
 4402000   0.56242633   -3.5006207    2628.6734  0.049762862  0.048396274            8 
 4403000    0.5254491   -3.5150424    2623.7858  0.049659054  0.048385146            8 
 4404000   0.54122959   -3.4972597    2629.0211  0.049746841   0.04837398            7 
 4405000   0.55707159   -3.4899053    2628.8872  0.049733015  0.048362863            4 
 4406000   0.55195326   -3.4909593    2624.1159  0.049631485  0.048351785           10 
 4407000   0.54180265   -3.4870574    2628.9889  0.049712369  0.048340767            9 
 4408000   0.54959535   -3.5123504    2627.9926  0.049682255  0.048329723            8 
 4409000   0.53515199   -3.4957825    2634.1218  0.049786834  0.048318681           12 
 4410000   0.55773683   -3.4851874    2632.9676  0.049753734  0.048307686            6 
 4411000   0.53928875   -3.4811948    2630.7745  0.049701021  0.048296647            8 
 4412000   0.55880535   -3.4790081    2626.8889  0.049616366  0.048285586           11 
 4413000   0.54275072   -3.5208173    2624.1477  0.049553359  0.048274511           13 
 4414000   0.54972408    -3.466429    2630.5801  0.049663573   0.04826344            6 
 4415000   0.54202967   -3.4895765    2626.5767  0.049576758  0.048252446            9 
 4416000   0.55531223   -3.5022162     2622.049  0.049480091  0.048241432            5 
 4417000   0.53328488   -3.4818411    2635.9227  0.049730637  0.048230387           11 
 4418000   0.54539285   -3.4944274      2628.35  0.049576543  0.048219346           19 
 4419000   0.54283916   -3.4856992    2636.9243  0.049727017  0.048208311            7 
 4420000   0.53937412     -3.51894    2625.9259  0.049508407  0.048197216           19 
 4421000   0.53415506   -3.4909803    2631.8692  0.049609236  0.048186082            7 
 4422000   0.53805753   -3.5178563    2628.7592   0.04953941  0.048175008            9 
 4423000   0.54852356   -3.5019458    2629.0917  0.049534474  0.048163928            7 
 4424000   0.54573469    -3.499732    2630.6143  0.049551958  0.048152885            6 
 4425000   0.53385833    -3.506755    2630.2994  0.049534828   0.04814183            8 
 4426000   0.54574169   -3.4989534    2631.6238  0.049548573  0.048130832           12 
 4427000   0.53694895    -3.478064    2626.5646  0.049442147  0.048119828           11 
 4428000   0.54776975   -3.4786617    2632.7672  0.049547711  0.048108846            6 
 4429000   0.54261266   -3.4894708    2625.7287  0.049404093  0.048097854           15 
 4430000   0.53851699   -3.4898058    2635.9621  0.049585443  0.048086857           11 
 4431000   0.54195194   -3.5174958    2631.1925  0.049484551  0.048075881           11 
 4432000   0.52705556   -3.5069172    2628.2118   0.04941734   0.04806485            8 
 4433000   0.53587913   -3.5034371    2634.7638  0.049529359  0.048053875           10 
 4434000    0.5435836   -3.4917427    2629.7446  0.049423857   0.04804289           10 
 4435000   0.54928016   -3.5052453    2631.0881  0.049437958    0.0480319           10 
 4436000   0.53719653   -3.5082375     2634.754   0.04949568  0.048020939           14 
 4437000   0.54120707   -3.4846852    2628.3662  0.049364553  0.048010037           12 
 4438000   0.54615249   -3.4968946    2625.7236  0.049303808  0.047999127            6 
 4439000   0.54358993   -3.4796595    2634.2173  0.049452153  0.047988191           10 
 4440000   0.54452377   -3.5110012    2632.8224  0.049414834  0.047977235           13 
 4441000    0.5375859    -3.502593    2635.0717  0.049445915  0.047966251           11 
 4442000   0.55039243   -3.5018145    2625.9155   0.04926301  0.047955234           13 
 4443000   0.53330043   -3.4945406    2629.5204  0.049319537  0.047944229           18 
 4444000   0.54157624   -3.5078075    2631.4943  0.049345452  0.047933222           13 
 4445000    0.5432893   -3.5127827    2629.2291  0.049291884  0.047922211           11 
 4446000   0.53076819   -3.5174116    2629.0557  0.049277547  0.047911124            5 
 4447000   0.53548847    -3.490991    2633.6539  0.049352634  0.047900092           13 
 4448000   0.54615426    -3.503963    2631.1953  0.049295476  0.047889073           17 
 4449000   0.54451405   -3.4831526    2629.7872  0.049258021  0.047878059           12 
 4450000   0.53806792   -3.5009339    2633.4637    0.0493158  0.047866999            9 
 4451000   0.54277707   -3.4929759    2632.7486  0.049291332  0.047855925           14 
 4452000   0.54496924   -3.5114708    2629.3239  0.049216155  0.047844924           12 
 4453000   0.54572575   -3.5173543    2630.4412  0.049226013  0.047833861           19 
 4454000   0.53671492   -3.5075887    2622.6435  0.049069067  0.047822846           35 
 4455000   0.54176078   -3.5133884    2625.0213  0.049102531   0.04781185           11 
 4456000   0.53802434   -3.5019831    2630.5409  0.049194735   0.04780086            6 
 4457000   0.53242662   -3.5256911    2628.7381  0.049149991  0.047789829            9 
 4458000    0.5403675   -3.5070909    2633.2453  0.049223218  0.047778823           11 
 4459000   0.55233484   -3.5005526    2623.8931  0.049037397  0.047767805            8 
 4460000   0.54876988   -3.5201681    2628.4376  0.049111316  0.047756764           18 
 4461000    0.5327609   -3.4832564    2631.0656  0.049149398   0.04774575           10 
 4462000     0.532146   -3.5168302    2623.4086   0.04899538  0.047734733           13 
 4463000   0.54096724   -3.5221463    2629.9834  0.049107166  0.047723667           17 
 4464000   0.53586696   -3.4898031    2633.4579  0.049161027  0.047712663           12 
 4465000   0.52799037   -3.4942618    2622.5512  0.048946457  0.047701635           10 
 4466000   0.54097519   -3.5176857    2634.6907  0.049162016  0.047690606            7 
 4467000   0.54257992     -3.51786    2632.1078  0.049102823  0.047679597            7 
 4468000   0.53808795   -3.5259696    2635.5418  0.049155883  0.047668626           11 
 4469000   0.53130398   -3.5095699    2632.6555  0.049091063  0.047657568           24 
 4470000   0.54547976   -3.5193076    2626.3351   0.04896225  0.047646536           11 
 4471000    0.5518746   -3.5185272     2621.521  0.048861572  0.047635458            5 
 4472000   0.54079033    -3.519757    2629.7441  0.049003877  0.047624465           12 
 4473000   0.54603565   -3.4951484     2625.779  0.048919052  0.047613457           10 
 4474000   0.53522765   -3.5021596    2633.4742   0.04905145  0.047602471            8 
 4475000   0.52976614   -3.5082065    2633.2616  0.049036528  0.047591474           12 
 4476000   0.53466131   -3.4925601     2626.422  0.048898235  0.047580533            7 
 4477000   0.53497057   -3.5217962     2629.617  0.048946783  0.047569527            5 
 4478000   0.54163653   -3.5113928    2637.0231  0.049073678  0.047558542           10 
 4479000   0.53529675   -3.5170466    2636.7749  0.049058103  0.047547576            7 
 4480000   0.52484268   -3.5047217    2625.6325  0.048839891  0.047536652           14 
 4481000   0.51500354   -3.5155789    2624.7652  0.048812862  0.047525636           20 
 4482000   0.53126318   -3.5060392    2629.6145  0.048892132  0.047514674            8 
 4483000   0.52587478   -3.5143904    2628.5559  0.048861548  0.047503731           17 
 4484000   0.53610895   -3.5188644    2636.8129  0.049004105   0.04749276            8 
 4485000   0.54474866   -3.5290509    2628.9871  0.048847773  0.047481775           18 
 4486000   0.53599574   -3.5269675    2626.5965  0.048792476  0.047470749           29 
 4487000   0.53823855   -3.5106479    2632.4556  0.048890416   0.04745981            4 
 4488000   0.53082828   -3.5106424    2636.7653  0.048959546   0.04744883            9 
 4489000   0.54818614   -3.5164427    2632.3816  0.048867262  0.047437866            8 
 4490000   0.52598432   -3.5218816    2630.6129  0.048823551  0.047426873            7 
 4491000   0.53929055   -3.5158638    2635.0768  0.048895509  0.047415857            9 
 4492000   0.53033266   -3.4996591    2634.0446  0.048865476  0.047404901            7 
 4493000   0.53172955    -3.518583    2632.3847  0.048823813  0.047394001            7 
 4494000   0.53861102   -3.5073513    2635.2987  0.048866984  0.047383063           15 
 4495000   0.53686482   -3.5198278    2631.8947  0.048793005  0.047372133           15 
 4496000   0.53218256    -3.509055    2630.5718  0.048757632  0.047361194           12 
 4497000   0.53395148   -3.5229884    2625.4979  0.048652767  0.047350237           10 
 4498000   0.53102283   -3.5096198    2631.9508  0.048761501  0.047339298           13 
 4499000   0.52862673   -3.5246552    2628.7874  0.048692069  0.047328356           42 
 4500000   0.53075039   -3.5211462    2635.2017  0.048800032   0.04731743           18 
 4501000   0.53848279    -3.534155    2633.2702   0.04875343  0.047306495            9 
 4502000   0.52819954   -3.5110258    2636.7138  0.048806342  0.047295565           10 
 4503000    0.5333264     -3.50727    2627.5982  0.048626808  0.047284655           12 
 4504000   0.53017111   -3.5384733    2627.7641  0.048619081  0.047273742            7 
 4505000   0.54023105   -3.5128792    2635.0368  0.048742819  0.047262823           20 
 4506000   0.54089698   -3.5111939    2638.9134  0.048803696  0.047251975           14 
 4507000   0.53686983     -3.50088    2634.4864  0.048711012  0.047241103           19 
 4508000   0.53201173    -3.525424     2639.741  0.048797342  0.047230227           13 
 4509000   0.52484729   -3.5203219    2636.8939    0.0487339  0.047219343           13 
 4510000   0.53067107   -3.5173032    2633.7223  0.048664492  0.047208448           13 
 4511000   0.53165139   -3.5305084    2631.0907  0.048605089  0.047197565           19 
 4512000   0.52920103   -3.5099065    2629.7317  0.048569217  0.047186675           19 
 4513000   0.51462698   -3.5225576    2630.4249  0.048571255  0.047175794           15 
 4514000   0.52112731   -3.5281528    2633.6604  0.048620226  0.047164879           17 
 4515000   0.52117528   -3.5110066    2637.8308  0.048686431  0.047153938           12 
 4516000   0.53353797    -3.525605    2636.8379  0.048657328  0.047143021            8 
 4517000   0.52470764   -3.5222411    2629.2134  0.048505893  0.047132121            5 
 4518000   0.53773742   -3.5337668    2629.3585  0.048497833   0.04712122           12 
 4519000   0.52149463   -3.5299634    2633.1744  0.048557468  0.047110303           21 
 4520000   0.52056227   -3.5309464    2630.1039  0.048490116  0.047099381            9 
 4521000   0.51862035   -3.5461117    2631.5173  0.048505442   0.04708843           15 
 4522000   0.53814656   -3.5311022    2633.2161  0.048526022  0.047077488           13 
 4523000   0.51982147   -3.5312634    2630.5605  0.048466367  0.047066551           10 
 4524000   0.52693963   -3.5156573    2629.4709  0.048435583  0.047055635           12 
 4525000   0.52520214     -3.53464    2631.3666  0.048459791  0.047044646            9 
 4526000    0.5108936   -3.4977118    2633.8459  0.048494732  0.047033743           13 
 4527000   0.53060984   -3.5377758    2634.9335   0.04850404  0.047022849           37 
 4528000   0.52837171   -3.5424139     2626.822  0.048344044  0.047011951           14 
 4529000   0.53218753   -3.5350461    2633.2202  0.048451098  0.047001017            7 
 4530000   0.51844169    -3.522059    2631.4806    0.0484084  0.046990056            9 
 4531000   0.53819944   -3.5368935    2635.2776  0.048467549  0.046979156            8 
 4532000   0.52625615   -3.5280717    2635.3799  0.048458736  0.046968265           10 
 4533000   0.53546937   -3.5316593    2632.0849  0.048387471  0.046957343            7 
 4534000   0.52190971   -3.5421739    2631.1951  0.048360445  0.046946397            9 
 4535000   0.52602405   -3.5494949    2634.5463  0.048411361  0.046935479            8 
 4536000   0.51221809   -3.5125593    2629.7904  0.048313315  0.046924558           10 
 4537000   0.52982565   -3.5410961    2629.0869  0.048289746  0.046913622            7 
 4538000    0.5276837   -3.5237795     2635.761  0.048401664  0.046902703            9 
 4539000   0.53015963    -3.529482    2631.7731  0.048317784  0.046891824           10 
 4540000   0.53739925   -3.5424011    2628.6206  0.048249276  0.046880923            6 
 4541000    0.5222966   -3.5226138    2634.4584  0.048345782  0.046870061           13 
 4542000   0.52618721   -3.5468933    2631.2033  0.048275417  0.046859153            9 
 4543000   0.52853509   -3.5396705    2627.4067  0.048195148  0.046848254           18 
 4544000   0.53773074   -3.5073224    2634.4589  0.048313873  0.046837398            8 
 4545000   0.52328498   -3.5375884    2636.4352  0.048339479  0.046826562            6 
 4546000   0.52673269   -3.5362767    2635.8837  0.048318737  0.046815703            6 
 4547000   0.52464695   -3.5287343    2632.6513  0.048248868  0.046804853            6 
 4548000   0.53616909   -3.5454526    2641.1896  0.048394708  0.046794096           10 
 4549000   0.52542404   -3.5501482    2634.6094  0.048263527  0.046783276           11 
 4550000   0.51570463   -3.5185674    2631.0813  0.048188302  0.046772429           10 
 4551000   0.52620467   -3.5371726    2633.6761  0.048225226  0.046761619            8 
 4552000   0.52825496   -3.5454316    2635.3444  0.048245175  0.046750824           10 
 4553000   0.53013702   -3.5381529    2631.5106  0.048164408  0.046740012           17 
 4554000   0.53622693   -3.5248041     2635.501  0.048226852  0.046729204            8 
 4555000   0.52679158   -3.5196664    2635.0795  0.048208553  0.046718397           14 
 4556000   0.52612945   -3.5319216    2632.5036  0.048150856  0.046707581            8 
 4557000    0.5168844   -3.5287421    2640.0232    0.0482778  0.046696739            4 
 4558000   0.52929946    -3.534996     2636.019     0.048194    0.0466859           24 
 4559000   0.51671134   -3.5285392    2632.1125  0.048112021  0.046675057            9 
 4560000   0.52546865   -3.5396698    2628.6661  0.048038489  0.046664191           16 
 4561000   0.51695555   -3.5317668    2636.2365  0.048166274  0.046653339           22 
 4562000   0.52180606   -3.5417766     2641.757  0.048256558   0.04664254           12 
 4563000   0.52391244   -3.5393001    2637.3742  0.048165939  0.046631739            8 
 4564000   0.52568337   -3.5343644    2640.5486  0.048213346   0.04662096           21 
 4565000   0.52313977   -3.5408563    2634.2218  0.048087291  0.046610183           26 
 4566000   0.51841641   -3.5274118    2639.0896    0.0481656  0.046599362            9 
 4567000   0.52359989   -3.5559483    2634.7962  0.048076713  0.046588547           15 
 4568000   0.53041455   -3.5304923    2633.2993  0.048038881  0.046577733           16 
 4569000   0.52721248   -3.5450816    2639.1251  0.048134623   0.04656693           10 
 4570000   0.53394841   -3.5497878     2632.456   0.04800248   0.04655611           11 
 4571000   0.52318265   -3.5347081    2634.0401  0.048020859  0.046545315           11 
 4572000   0.52106679   -3.5383771    2638.7276  0.048095793  0.046534486           11 
 4573000   0.51992935   -3.5225502    2638.7541  0.048085758  0.046523672           10 
 4574000    0.5233992   -3.5223518    2633.6338   0.04798196  0.046512834           16 
 4575000   0.52092578   -3.5379115    2632.1559  0.047944552  0.046502051           20 
 4576000   0.52641012   -3.5559433     2631.317  0.047918797  0.046491202            8 
 4577000   0.51524792   -3.5469417    2634.4305  0.047965016  0.046480383           15 
 4578000   0.52217059   -3.5434415     2632.693   0.04792291   0.04646953           14 
 4579000   0.51372453   -3.5282554    2639.6184  0.048038481  0.046458709           19 
 4580000   0.51780447   -3.5567449    2631.6065  0.047882215  0.046447904           18 
 4581000   0.51593285   -3.5366663     2633.472  0.047905697  0.046437082           10 
 4582000   0.51364603   -3.5360146    2633.4931  0.047895626   0.04642629           11 
 4583000   0.52763115   -3.5336282    2634.7109  0.047907318  0.046415522           23 
 4584000   0.51899783   -3.5301236    2633.2839  0.047870925  0.046404788            9 
 4585000   0.52196014   -3.5316852    2635.8142  0.047906474  0.046394033           12 
 4586000   0.51905604   -3.5410007    2639.4491  0.047962078  0.046383275           20 
 4587000   0.50629511   -3.5333077    2639.5899   0.04795418  0.046372506           12 
 4588000   0.52040769   -3.5473921    2636.1672  0.047881561  0.046361676            7 
 4589000    0.5229581   -3.5472958    2636.1705  0.047871187  0.046350872            8 
 4590000   0.50917621   -3.5321623    2634.7265   0.04783454   0.04634006            9 
 4591000   0.51979399   -3.5476985    2634.2644  0.047815733  0.046329342           10 
 4592000   0.50479102   -3.5382185    2634.2595  0.047805231  0.046318606           11 
 4593000   0.51394324   -3.5485667    2634.9299  0.047806986  0.046307882           14 
 4594000   0.50991104   -3.5568086    2639.1567  0.047873254  0.046297128           27 
 4595000   0.50747718   -3.5502387    2637.7401  0.047837144  0.046286372           17 
 4596000   0.52412112   -3.5361806    2636.4391  0.047803145  0.046275614            7 
 4597000   0.50389579   -3.5403745    2641.6767  0.047887693   0.04626487           14 
 4598000   0.51024232   -3.5566163    2636.2806  0.047779481   0.04625415            8 
 4599000   0.50975603   -3.5558691    2635.9283  0.047762708  0.046243381            7 
 4600000   0.51356019   -3.5293012    2627.1182  0.047592721  0.046232589            9 
 4601000    0.5131816   -3.5445899    2638.9412  0.047796515  0.046221842            7 
 4602000   0.51891727   -3.5498405    2636.7185   0.04774588   0.04621109            9 
 4603000   0.51379675   -3.5476091    2639.6809  0.047789139  0.046200351           10 
 4604000   0.50881352   -3.5658038    2642.3331  0.047826766  0.046189602           15 
 4605000   0.50756691   -3.5338282    2636.8023  0.047716293  0.046178834           20 
 4606000   0.51503796   -3.5438455    2636.6158  0.047702559  0.046168082           19 
 4607000    0.5294003   -3.5467275    2640.8132  0.047768128  0.046157359           13 
 4608000   0.52212757   -3.5369654    2640.3594  0.047749556  0.046146644           23 
 4609000   0.50759991   -3.5370523    2630.8085  0.047566509    0.0461359            8 
 4610000   0.50758634   -3.5614938    2637.3414  0.047674285  0.046125153           17 
 4611000   0.50870019   -3.5531333    2635.8241  0.047636524  0.046114413            9 
 4612000   0.50966982   -3.5430488    2641.5789  0.047730176  0.046103649           15 
 4613000   0.51127481   -3.5538227    2643.7988  0.047759932  0.046092955           14 
 4614000   0.51363932   -3.5489961    2642.4283  0.047724828  0.046082244           13 
 4615000   0.51410401   -3.5640956    2638.7048  0.047647252  0.046071508           17 
 4616000   0.51093398   -3.5645749    2632.1222  0.047518093  0.046060773           14 
 4617000   0.51278042   -3.5391149    2646.1045  0.047760171  0.046050104           10 
 4618000   0.52422202   -3.5607935    2634.8676  0.047547055  0.046039407            8 
 4619000   0.50100177   -3.5336141    2633.6202  0.047514256  0.046028693           14 
 4620000   0.51023238   -3.5527272    2634.5441  0.047520636  0.046017952           14 
 4621000   0.50005134   -3.5607369    2639.4396  0.047598637  0.046007209           17 
 4622000   0.50620958   -3.5591731    2638.8113  0.047577011  0.045996471           12 
 4623000   0.50323059   -3.5601753    2635.2658  0.047502809  0.045985739           11 
 4624000   0.51373199   -3.5568265    2638.1449  0.047544422  0.045974971           10 
 4625000   0.51884354   -3.5647209    2633.1906  0.047444876  0.045964173           14 
 4626000    0.5202078   -3.5601343    2629.6682  0.047371167  0.045953444           12 
 4627000   0.52034379   -3.5654048    2637.4513  0.047501104  0.045942678           11 
 4628000   0.52151626   -3.5544739    2633.4029  0.047417943  0.045931949           32 
 4629000    0.5099511   -3.5576872    2638.6089   0.04750142  0.045921219           39 
 4630000    0.5138203   -3.5716736    2641.6936  0.047546681  0.045910504           34 
 4631000   0.50556556   -3.5420418    2641.5674  0.047534144  0.045899767           44 
 4632000   0.49879094    -3.564139    2639.2626  0.047482415   0.04588904           25 
 4633000   0.50320484   -3.5501818    2635.5789  0.047405909  0.045878356           14 
 4634000   0.50941028   -3.5553944    2636.6713  0.047415323  0.045867673           18 
 4635000   0.50767214   -3.5549593     2633.358  0.047345523  0.045856938            9 
 4636000   0.51069027   -3.5359326    2641.7654  0.047486437  0.045846241           10 
 4637000   0.51226086   -3.5498717     2639.426  0.047434152   0.04583557           13 
 4638000   0.50521417   -3.5483455    2635.5878  0.047354962  0.045824918           25 
 4639000   0.51734494   -3.5525837    2640.1409  0.047426545  0.045814231           13 
 4640000    0.5182339   -3.5674625    2637.2664  0.047364699  0.045803554            6 
 4641000   0.51526993   -3.5600497    2635.0501  0.047314697  0.045792839           15 
 4642000   0.51294861   -3.5426245    2634.7155  0.047298498  0.045782154           18 
 4643000   0.50501572   -3.5514493    2635.5283  0.047302898  0.045771413           15 
 4644000   0.50894573   -3.5621831     2639.941  0.047371895  0.045760731            7 
 4645000   0.50866056   -3.5797043    2642.0714  0.047399918  0.045750042           10 
 4646000   0.50271318   -3.5587408    2642.6763  0.047400565  0.045739313           16 
 4647000   0.51434455   -3.5718064      2634.85  0.047250018  0.045728598           10 
 4648000   0.51594553   -3.5581633    2635.1023  0.047244376  0.045717908           10 
 4649000   0.50232342   -3.5814667    2633.7744   0.04721041  0.045707199           19 
 4650000    0.5063419   -3.5742478    2634.8604  0.047219721   0.04569647           38 
 4651000   0.50531742   -3.5495022    2643.9554  0.047372525  0.045685801            9 
 4652000   0.51398375   -3.5607168    2638.9164  0.047272076  0.045675169           10 
 4653000   0.50725153   -3.5569193    2639.2856  0.047268529  0.045664535           13 
 4654000   0.49760162   -3.5647321    2644.3627  0.047349283  0.045653887           13 
 4655000   0.49433326   -3.5524596    2635.5141  0.047180704  0.045643185           22 
 4656000    0.4969376   -3.5502973    2636.2398  0.047183559  0.045632507           23 
 4657000   0.49533644   -3.5553335    2643.9276  0.047310995  0.045621877           36 
 4658000   0.50244429   -3.5587418    2634.9436   0.04714011  0.045611158           18 
 4659000   0.51182201    -3.555807    2637.1816  0.047170022  0.045600475           12 
 4660000   0.50982386   -3.5663121    2633.2728      0.04709  0.045589773            9 
 4661000   0.52468964   -3.5612336    2633.9189  0.047091449  0.045579078           30 
 4662000   0.50743262   -3.5664752    2637.9879  0.047154082  0.045568363           11 
 4663000   0.50689048   -3.5600501    2638.7739  0.047158015  0.045557667           27 
 4664000   0.50285149    -3.563121    2633.1744  0.047047855  0.045546987           36 
 4665000   0.50823391   -3.5552486    2636.9832  0.047105808  0.045536291           11 
 4666000   0.49923824   -3.5735854    2634.0496  0.047043321  0.045525584           14 
 4667000   0.50015981   -3.5686008    2639.4847  0.047130288  0.045514917           21 
 4668000   0.50197013   -3.5709753    2635.4491  0.047048149  0.045504287           25 
 4669000   0.50014606   -3.5689502    2631.1531  0.046961396  0.045493628           35 
 4670000   0.50442912   -3.5725609    2637.5145  0.047064856  0.045482955           15 
 4671000   0.50219839   -3.5798501    2639.7077  0.047093907  0.045472263           10 
 4672000   0.50457127   -3.5597306    2641.3843  0.047113732  0.045461622           17 
 4673000   0.49639139   -3.5535528    2637.9343  0.047042127  0.045450968           44 
 4674000   0.50379739   -3.5666777    2639.9918  0.047068746  0.045440355           19 
 4675000    0.5022299   -3.5503929    2638.4345  0.047030917  0.045429767            8 
 4676000   0.50347947   -3.5534994    2639.5374  0.047040516  0.045419164            6 
 4677000   0.50243154   -3.5723176    2635.7291  0.046962603  0.045408531           25 
 4678000   0.50336927    -3.574764    2642.7656  0.047077912  0.045397896            9 
 4679000   0.49663116   -3.5687349    2644.7389  0.047102994  0.045387309           18 
 4680000   0.50039893   -3.5780882    2630.5355   0.04684002  0.045376679            9 
 4681000   0.50613491   -3.5610882    2636.4392  0.046935114  0.045365993           18 
 4682000   0.50648525   -3.5818822    2634.9171  0.046897997  0.045355308           10 
 4683000    0.5013717   -3.5636625    2638.5413  0.046952476  0.045344667           17 
 4684000    0.4965986   -3.5721612    2638.0713  0.046934089  0.045334012           15 
 4685000   0.49576776    -3.580994    2625.2816  0.046696578  0.045323343           23 
 4686000   0.49795896   -3.5652922     2632.182  0.046809325  0.045312668           25 
 4687000   0.50161318   -3.5620563    2639.8633   0.04693591  0.045302048            8 
 4688000    0.5010633   -3.5751886    2638.7899  0.046906817  0.045291447           19 
 4689000   0.50271417   -3.5718555    2634.7139  0.046824375  0.045280807           20 
 4690000   0.49912451    -3.569357    2634.9121  0.046817913  0.045270166           10 
 4691000   0.49997478   -3.5808124     2641.265  0.046920788  0.045259584           24 
 4692000   0.49494963   -3.5772731    2642.2117  0.046927602  0.045248963           18 
 4693000   0.50067392   -3.5776436    2633.7177  0.046766775  0.045238313            9 
 4694000   0.50855526    -3.575817    2633.3464   0.04675022  0.045227688           21 
 4695000   0.50349163   -3.5784568    2636.9271  0.046803817  0.045217056           13 
 4696000   0.50956059   -3.5615787    2645.2016  0.046940687   0.04520644           12 
 4697000   0.50618334    -3.574721    2637.7674  0.046798798  0.045195831           29 
 4698000   0.49381097   -3.5689591    2635.9983  0.046757455  0.045185229           18 
 4699000     0.511436   -3.5946921    2635.3519  0.046736041   0.04517463           10 
 4700000   0.49952243   -3.5714745    2636.5729  0.046747746     0.045164           13 
 4701000   0.50444874   -3.5674477    2639.4026  0.046787964   0.04515342            9 
 4702000   0.50459194   -3.5752634    2638.0573   0.04675417  0.045142811           13 
 4703000   0.51142303   -3.5713911    2635.6054  0.046700783  0.045132247           25 
 4704000   0.50233925   -3.5819654    2634.7972  0.046676537  0.045121646           24 
 4705000   0.50042353   -3.5802002    2641.9174  0.046792727  0.045111028           11 
 4706000   0.49582363   -3.5936182    2639.5576  0.046740997  0.045100376           10 
 4707000   0.50133793   -3.5804499    2635.6851  0.046662509  0.045089757           16 
 4708000   0.50614397   -3.5759392    2630.9264  0.046568366  0.045079121           13 
 4709000   0.50169523   -3.5770812    2641.2563  0.046741281  0.045068481           34 
 4710000   0.48869628   -3.5818945    2636.0287  0.046638865  0.045057851           10 
 4711000   0.49688448   -3.5757104     2640.736  0.046712234  0.045047283           11 
 4712000   0.48719665   -3.5822013    2633.2809  0.046570475  0.045036651           11 
 4713000   0.49658239   -3.5849985    2638.7802   0.04665783  0.045026024           17 
 4714000   0.49809875   -3.5704866    2639.7485  0.046665049  0.045015395           13 
 4715000   0.50712025   -3.5800702    2637.8138  0.046620959   0.04500482           22 
 4716000   0.50193479   -3.5801616    2636.6524   0.04659055  0.044994245           10 
 4717000   0.50477372   -3.5638592    2641.1262  0.046659709  0.044983642           11 
 4718000   0.48397642   -3.5915577    2633.2647  0.046510963  0.044973028           17 
 4719000   0.50863401   -3.5698066    2641.8419  0.046652572  0.044962448           12 
 4720000   0.49549821    -3.590265    2634.7593  0.046517642  0.044951821           12 
 4721000   0.50053756   -3.5951061    2635.7209  0.046524764  0.044941166           19 
 4722000    0.5006421   -3.5862334    2631.5432  0.046441184  0.044930532           15 
 4723000   0.50027477   -3.5905405    2641.9649  0.046615233   0.04491991           31 
 4724000   0.49741867   -3.5744797    2639.7075  0.046565543  0.044909324           49 
 4725000    0.4891995   -3.5882438    2633.0264  0.046437855  0.044898725            8 
 4726000   0.50887551   -3.5687234    2634.8487  0.046460162  0.044888118           21 
 4727000   0.50030759   -3.5732726    2631.4353  0.046390158  0.044877527           18 
 4728000    0.5016658   -3.5802243    2636.5765  0.046470961   0.04486689           12 
 4729000   0.48984599   -3.5715991    2633.3311  0.046403946  0.044856309           13 
 4730000   0.49022734   -3.5850264     2633.464  0.046396477  0.044845702           20 
 4731000   0.49801144    -3.586807     2633.536  0.046387937  0.044835073           29 
 4732000   0.49417778   -3.5888091    2634.5193  0.046395451  0.044824447           17 
 4733000   0.49767027   -3.5851486    2628.5114  0.046279868  0.044813842           14 
 4734000   0.49238328   -3.5817447    2637.6457  0.046430886  0.044803249            8 
 4735000   0.49441299   -3.5783504     2636.822  0.046406583  0.044792685            9 
 4736000   0.48851143   -3.5772522    2630.3237  0.046282442  0.044782061           12 
 4737000   0.49111028   -3.5845687    2638.3943  0.046414649  0.044771428           28 
 4738000    0.4926392   -3.5814725    2639.4285  0.046423043  0.044760866           13 
 4739000    0.4912425   -3.5710073    2640.1308  0.046425596  0.044750316            6 
 4740000   0.48697692   -3.5799779    2645.1725  0.046504439  0.044739772           10 
 4741000   0.49570333   -3.5789057    2639.2694  0.046390871  0.044729226           10 
 4742000   0.48456675   -3.5946842    2631.3843   0.04624252  0.044718649            8 
 4743000   0.50167462   -3.5844186    2637.1635  0.046334309  0.044708037           14 
 4744000   0.49151786   -3.5817428    2640.0223  0.046374759  0.044697503           10 
 4745000   0.48647418   -3.5835886    2640.7492  0.046377753   0.04468695            9 
 4746000   0.48006686   -3.5786946    2639.8955   0.04635299  0.044676415           31 
 4747000   0.49428185   -3.5893724    2643.5634  0.046407615  0.044665868           33 
 4748000   0.49763062   -3.5797234    2642.1416  0.046372887  0.044655297           13 
 4749000   0.49072827   -3.5845227    2635.2198  0.046241662  0.044644752           12 
 4750000   0.49803364   -3.5863102    2632.6138  0.046186207  0.044634209           16 
 4751000   0.49194842   -3.5831639     2637.321   0.04625905  0.044623635           23 
 4752000   0.48726277   -3.5837559    2635.8094  0.046222808   0.04461303           11 
 4753000   0.48527801   -3.5994508    2640.0966   0.04628825  0.044602423           18 
 4754000   0.48651334   -3.6015811    2640.2067  0.046280442  0.044591845           23 
 4755000   0.48718614   -3.6117368    2634.6683  0.046173648   0.04458126           17 
 4756000   0.49683557   -3.5780035    2638.3887  0.046229127  0.044570732           16 
 4757000   0.50076005   -3.5987447     2638.807  0.046226736  0.044560202           16 
 4758000   0.49770887   -3.5984305    2634.5045  0.046141664  0.044549647           38 
 4759000    0.4894191   -3.5867883    2639.0244  0.046211115  0.044539128           11 
 4760000   0.49121459   -3.5893436    2638.3403  0.046189431  0.044528638           16 
 4761000   0.49103711   -3.5823347    2639.0596  0.046192319  0.044518169           20 
 4762000   0.49260576   -3.5866434    2645.1595  0.046289366  0.044507629           62 
 4763000   0.48808754    -3.604055    2640.6912  0.046201469  0.044497138           12 
 4764000   0.48899641   -3.5832284    2642.2934  0.046219799  0.044486595            9 
 4765000   0.49987193   -3.5768613    2637.4983  0.046126239  0.044476091           24 
 4766000   0.48995881   -3.6065141     2640.574  0.046170339  0.044465594           17 
 4767000   0.48732639   -3.6023523    2630.5215  0.045984923  0.044455056           20 
 4768000   0.48719577   -3.5882843    2640.3648  0.046147315  0.044444506           10 
 4769000   0.49382724   -3.5889653    2642.2565  0.046170695  0.044433994           16 
 4770000   0.49078929   -3.6101812    2639.6932  0.046116233  0.044423452           18 
 4771000   0.48837128   -3.6000679    2632.9732  0.045989191  0.044412902           32 
 4772000   0.48912231    -3.612864    2637.0744  0.046051173  0.044402348           18 
 4773000   0.47908389   -3.6098884    2642.4438  0.046135271  0.044391826           17 
 4774000   0.49591642   -3.5932906    2632.5385  0.045952703  0.044381307           26 
 4775000   0.48876488    -3.612586    2631.8551  0.045931153  0.044370808           20 
 4776000   0.49225646    -3.583335    2639.8341  0.046060756  0.044360317           16 
 4777000    0.4854194   -3.5899048    2642.1269  0.046091112   0.04434983           10 
 4778000    0.4792018   -3.6145508    2639.1745  0.046029972  0.044339361           30 
 4779000   0.49775563   -3.6175925    2637.6311  0.045993428  0.044328864           15 
 4780000   0.48759953   -3.5879567    2645.6313  0.046123279  0.044318394           35 
 4781000   0.47994724   -3.5983212    2642.8595  0.046065319  0.044307922           40 
 4782000   0.48055623   -3.5969126    2641.0714  0.046024526  0.044297479           52 
 4783000   0.49212272   -3.6112053    2641.6999  0.046025854  0.044286991           43 
 4784000   0.48572751   -3.6117668    2635.7792  0.045913098  0.044276471           14 
 4785000   0.48293962   -3.6004779    2637.6025  0.045935258  0.044265957           10 
 4786000   0.48800352   -3.6016239    2636.0283   0.04589825  0.044255465           19 
 4787000   0.50606164   -3.6043411    2634.7131  0.045865767  0.044245014           13 
 4788000   0.48298555   -3.6094872    2635.1859  0.045864416  0.044234538           24 
 4789000   0.48719791   -3.5949725    2638.4473  0.045911591  0.044224093           44 
 4790000   0.48791991   -3.5970604    2636.7874  0.045873129  0.044213626           34 
 4791000   0.48796822   -3.6075207    2640.9085  0.045935234  0.044203153           10 
 4792000   0.48679879   -3.6130139    2638.5427  0.045884508  0.044192672           27 
 4793000   0.48409189   -3.5951054     2639.381  0.045889509  0.044182177           24 
 4794000   0.48921335   -3.6149976    2636.2031  0.045824695  0.044171713           32 
 4795000   0.48758785   -3.5989313    2646.9591  0.046002069  0.044161273           19 
 4796000   0.48635075    -3.609685    2633.8229  0.045764229  0.044150833           26 
 4797000   0.48215708   -3.6131751    2634.7237  0.045770337   0.04414038           21 
 4798000   0.48672309   -3.6175055    2641.2393  0.045873962  0.044129922           26 
 4799000   0.47937311   -3.6015792    2640.3949  0.045849741  0.044119447           15 
 4800000   0.48699497    -3.604201    2634.8643  0.045744173  0.044108995           13 
 4801000   0.47802707   -3.6105699    2634.1938  0.045723005  0.044098466           24 
 4802000   0.48638499   -3.6247623    2631.8639   0.04567305  0.044087937           20 
 4803000   0.47990296   -3.5930518    2646.8381  0.045923348  0.044077445           14 
 4804000   0.49307385   -3.5910069    2640.2512  0.045799528  0.044067048           28 
 4805000   0.47812795   -3.6053229    2641.4478  0.045810749  0.044056617           12 
 4806000   0.47656642   -3.6091678    2637.7016  0.045736259  0.044046169           10 
 4807000   0.47580378   -3.6286169    2641.8139  0.045798035  0.044035733           18 
 4808000    0.4822564   -3.6169447    2634.7568  0.045666195   0.04402529            6 
 4809000     0.477738   -3.6279241    2643.8263  0.045813861   0.04401485           10 
 4810000   0.48108757   -3.6076015    2645.6676  0.045836237  0.044004443           18 
 4811000   0.47694676   -3.6353479     2631.993  0.045589846  0.043994019           29 
 4812000   0.47848498   -3.6007644    2641.4921  0.045744876  0.043983614           37 
 4813000   0.47996393   -3.5949832    2647.5999  0.045841122  0.043973246           10 
 4814000   0.47352959   -3.6072905    2640.6711   0.04571166  0.043962876           21 
 4815000   0.48160547   -3.6131317    2646.2744  0.045799142  0.043952517           18 
 4816000   0.48646125   -3.6057829    2639.9243  0.045679752  0.043942149           17 
 4817000   0.47557054   -3.5943399    2636.3673  0.045608735  0.043931775            9 
 4818000   0.46696423   -3.5835597    2639.8045   0.04565872  0.043921413            9 
 4819000   0.48120073   -3.5953635    2636.3285  0.045589136   0.04391106           10 
 4820000   0.48233316   -3.5939509    2642.4453  0.045685431  0.043900714           12 
 4821000   0.47826219    -3.598506    2642.5769   0.04567823  0.043890349           13 
 4822000   0.46589853   -3.5997854    2640.0422  0.045624952  0.043879961           18 
 4823000   0.46543495   -3.6197379    2649.6793  0.045782005  0.043869598           20 
 4824000   0.47497572   -3.6167918     2645.862  0.045706571  0.043859232           19 
 4825000   0.47431292    -3.611694    2647.5359  0.045726009  0.043848856           22 
 4826000   0.48442045   -3.6043971    2641.5635  0.045613405  0.043838522            7 
 4827000   0.48323866   -3.6179226     2638.686  0.045554278  0.043828188           18 
 4828000   0.47987875   -3.6217079    2640.8339  0.045581917  0.043817825           20 
 4829000   0.47658657   -3.6235855    2643.3395  0.045615716  0.043807451           24 
 4830000   0.48335503   -3.6098211    2641.3185  0.045571403  0.043797093           14 
 4831000   0.47347116   -3.6135057    2646.6262  0.045653525  0.043786745           14 
 4832000   0.47652461   -3.6087446    2643.0239  0.045581952  0.043776437           16 
 4833000   0.47967625    -3.606829    2645.1601  0.045609354  0.043766096           23 
 4834000    0.4795286   -3.6261305    2641.5843  0.045538276  0.043755733           10 
 4835000    0.4701262   -3.6223033    2635.1792  0.045418462  0.043745338           29 
 4836000     0.469864   -3.6117857    2639.1081  0.045476773  0.043734978           20 
 4837000   0.47345043   -3.5947586    2638.5392  0.045457571  0.043724629           19 
 4838000   0.47661747    -3.606149     2643.313  0.045530401  0.043714319           10 
 4839000   0.48415994   -3.6136665    2643.1301  0.045517842  0.043704005            8 
 4840000     0.467249   -3.6046488    2644.0527  0.045524323  0.043693718            6 
 4841000   0.47740328   -3.6056783    2646.5966  0.045558711  0.043683446           13 
 4842000   0.48458658   -3.6169541    2647.9445  0.045572499  0.043673174           21 
 4843000   0.48419181   -3.6097998    2640.6893   0.04543825    0.0436629           23 
 4844000    0.4755814   -3.6053353    2646.4121  0.045527321  0.043652582           32 
 4845000   0.47798205   -3.6125413    2639.2582  0.045394877  0.043642279           33 
 4846000    0.4720981   -3.6219418    2637.1489  0.045349239  0.043631965           10 
 4847000   0.47259428   -3.5987972    2644.3467  0.045463632  0.043621683           33 
 4848000    0.4731776   -3.6215621    2637.0073  0.045328096  0.043611381           10 
 4849000   0.46428569   -3.6087209    2638.9712    0.0453525  0.043601043           19 
 4850000   0.47331595   -3.6219116    2640.3101  0.045366153  0.043590746           15 
 4851000   0.48232501   -3.6101388    2643.2055  0.045406539  0.043580442           14 
 4852000   0.47771894    -3.611265    2649.0712  0.045497926  0.043570133           15 
 4853000   0.48335506   -3.6256388    2640.9475  0.045349054  0.043559824           40 
 4854000   0.46466813   -3.6246367    2641.0798  0.045341982  0.043549478           15 
 4855000    0.4682732   -3.6147693    2639.6283  0.045307729  0.043539128           28 
 4856000   0.47040821   -3.6171377    2635.2736  0.045223669  0.043528784           44 
 4857000   0.48805818    -3.618855    2640.4275  0.045302784  0.043518468           39 
 4858000   0.46840073    -3.623148    2640.2626   0.04529063  0.043508172           15 
 4859000   0.47886615   -3.6118661    2638.2976   0.04524761  0.043497876           20 
 4860000   0.47191547   -3.6305352    2636.6488  0.045210028  0.043487549           25 
 4861000   0.47265779   -3.6091956    2642.9321  0.045308443  0.043477228           14 
 4862000   0.47166938    -3.621545      2637.38  0.045203962  0.043466899           16 
 4863000   0.47692483   -3.6273684     2640.624  0.045250256  0.043456547           19 
 4864000   0.47822883   -3.6173807    2636.1865  0.045164927  0.043446234           63 
 4865000   0.47798509   -3.6189903    2642.0838  0.045256661  0.043435888            7 
 4866000   0.46901285   -3.6104717    2643.2482    0.0452673  0.043425589           32 
 4867000   0.46411035   -3.6120327    2639.6173  0.045195831  0.043415313           12 
 4868000   0.46633591   -3.6200681    2638.1548  0.045161511  0.043404991           16 
 4869000   0.47475227   -3.6334558    2641.9098  0.045216502  0.043394693           17 
 4870000    0.4802296   -3.6515461    2642.1702  0.045211673   0.04338441           48 
 4871000   0.48167484   -3.6097407    2645.5238  0.045259765  0.043374145           14 
 4872000    0.4599683   -3.6121615    2645.2832   0.04524636  0.043363904           11 
 4873000   0.48236089   -3.6150766    2638.9049  0.045127999  0.043353646           26 
 4874000   0.47783612   -3.6201486    2644.5901  0.045215944  0.043343378           32 
 4875000   0.47126883   -3.6441616    2644.6899  0.045208374  0.043333111           16 
 4876000   0.45969471   -3.6175644     2640.364  0.045125171  0.043322861           17 
 4877000   0.47565074    -3.627967    2645.5789  0.045205024  0.043312624           18 
 4878000    0.4644399   -3.6220686    2640.3656  0.045106697  0.043302376           11 
 4879000   0.46595319   -3.6321134    2635.9357   0.04502179  0.043292092           29 
 4880000   0.47596967   -3.6120118    2641.7909   0.04511255  0.043281825           12 
 4881000   0.47072991   -3.6180833    2644.0137  0.045141257  0.043271586            5 
 4882000   0.47182079   -3.6224206    2648.5499  0.045209442  0.043261342           14 
 4883000   0.46270384   -3.6366489    2643.7194  0.045117746  0.043251077           19 
 4884000   0.46632452   -3.6253304    2642.2281  0.045083063  0.043240843           15 
 4885000   0.45968417   -3.6227054    2638.0631  0.045002782  0.043230634           22 
 4886000   0.47696027   -3.6326243    2637.1488  0.044977977  0.043220392           32 
 4887000    0.4627288   -3.6183867    2644.7449  0.045098303  0.043210123           17 
 4888000   0.47340127   -3.6400417    2640.8254  0.045022255  0.043199894           33 
 4889000   0.46330204   -3.6277954    2648.0096  0.045135501  0.043189672           29 
 4890000   0.48479942    -3.626691     2643.252  0.045045193  0.043179457           25 
 4891000   0.46461109   -3.6106674    2640.4987  0.044989073  0.043169251           13 
 4892000   0.47036281   -3.6298537    2631.1789  0.044821117  0.043159053           13 
 4893000   0.47210618   -3.6369385    2642.3556  0.045002309  0.043148821           10 
 4894000   0.47311296    -3.640575    2644.5774  0.045030945  0.043138582           49 
 4895000   0.45801175   -3.6510842    2645.3593  0.045035059  0.043128331           60 
 4896000   0.46330365   -3.6462069    2636.1882  0.044869762  0.043118079           46 
 4897000   0.46553865    -3.646458    2640.5102  0.044934147   0.04310779           43 
 4898000   0.46967059   -3.6430246     2643.258  0.044971723  0.043097541           48 
 4899000   0.47113502   -3.6446436    2641.1209  0.044926191  0.043087272           23 
 4900000    0.4695406   -3.6382192    2638.5747  0.044873719  0.043077034           18 
 4901000   0.47239412   -3.6348982    2641.4216   0.04491297  0.043066767           29 
 4902000   0.46540115   -3.6375962    2638.9168  0.044861227  0.043056498           28 
 4903000   0.46369803    -3.632634    2640.7434  0.044883122  0.043046239           21 
 4904000   0.48227101   -3.6447672    2636.8305  0.044807478  0.043035974           19 
 4905000   0.46439527   -3.6461465    2641.5555  0.044878618  0.043025727           19 
 4906000   0.46823287   -3.6418479    2639.7037  0.044838017  0.043015472           21 
 4907000   0.47187683   -3.6344126    2639.2256   0.04482076  0.043005227           24 
 4908000   0.46634652   -3.6422799    2637.9567  0.044790082  0.042994996           17 
 4909000   0.47776699   -3.6550095     2644.384  0.044890067   0.04298471           19 
 4910000   0.46078736   -3.6375179     2645.477  0.044899475   0.04297444           17 
 4911000   0.46403058   -3.6407671    2634.6994  0.044707448  0.042964208           13 
 4912000   0.46733723   -3.6260243    2642.6601  0.044833404  0.042953983           20 
 4913000   0.47015518   -3.6452645    2638.9325  0.044761051  0.042943759           13 
 4914000    0.4805063   -3.6359449    2639.5732  0.044762807  0.042933524            8 
 4915000   0.46936747   -3.6501677    2639.1851   0.04474712  0.042923293           32 
 4916000     0.468921   -3.6364364    2637.3228  0.044706448  0.042913034           19 
 4917000     0.462543   -3.6437281    2638.2206  0.044712571  0.042902783           54 
 4918000   0.47204846   -3.6369045    2642.3737  0.044773852   0.04289256           24 
 4919000    0.4627923   -3.6341615    2638.4467  0.044698222  0.042882338           13 
 4920000   0.46911141   -3.6361116    2643.5257  0.044775164  0.042872126           19 
 4921000   0.46261224   -3.6238993    2637.8288  0.044669593  0.042861937           58 
 4922000   0.46558216   -3.6344122    2634.5314   0.04460469  0.042851732           20 
 4923000   0.47014355   -3.6504428    2638.4595  0.044662122   0.04284147           16 
 4924000   0.47668351   -3.6386693    2641.4704  0.044704008  0.042831205           29 
 4925000   0.45787048   -3.6350171    2641.0114  0.044687165  0.042820956           11 
 4926000   0.46432849   -3.6414845    2641.4911  0.044686207  0.042810721           18 
 4927000   0.46179613   -3.6476385    2640.9301   0.04466765   0.04280048           25 
 4928000   0.46797682   -3.6341218    2640.6053  0.044653093  0.042790273           13 
 4929000   0.46690111   -3.6464257    2633.0806  0.044516815  0.042780045           24 
 4930000   0.46015613   -3.6320655    2638.8344  0.044605044  0.042769803           17 
 4931000   0.45600911   -3.6530507    2635.0382  0.044531843  0.042759577           13 
 4932000   0.47526996     -3.65214    2640.7256   0.04461891   0.04274931           26 
 4933000   0.46361027   -3.6295346    2642.0849  0.044632828   0.04273907           25 
 4934000   0.47317439   -3.6487378    2641.1095  0.044607308  0.042728808           13 
 4935000   0.46722758   -3.6371099    2638.3476  0.044551632  0.042718597           15 
 4936000   0.45939676   -3.6331675    2636.2535  0.044507251   0.04270841           29 
 4937000   0.47143073   -3.6441794    2642.2391   0.04459927  0.042698199           15 
 4938000   0.46100335   -3.6380841    2639.9986  0.044552426  0.042688007           32 
 4939000   0.46180671   -3.6578934     2636.722  0.044488122  0.042677778           45 
 4940000   0.46346335   -3.6537811     2642.112  0.044570041  0.042667564           21 
 4941000   0.46089395    -3.631207    2639.5277  0.044517435  0.042657356           28 
 4942000   0.46654091   -3.6336807    2641.1483  0.044535754  0.042647162           16 
 4943000   0.46053957   -3.6540573    2639.4412  0.044497963  0.042636996           41 
 4944000   0.46760461   -3.6544061    2638.0651  0.044465768  0.042626799           19 
 4945000   0.46581464   -3.6571265    2645.1543  0.044576243  0.042616639           12 
 4946000   0.45795831   -3.6583993    2639.5911  0.044473499  0.042606449           14 
 4947000   0.46294796   -3.6413242    2639.4389  0.044461945  0.042596266           48 
 4948000     0.461547   -3.6464322    2639.5354  0.044454585  0.042586081           27 
 4949000   0.46469736    -3.657239    2641.0677  0.044471403  0.042575913           50 
 4950000   0.45839406   -3.6432577    2641.4011  0.044468031  0.042565728           21 
 4951000   0.45357745   -3.6439299    2636.4863  0.044376327  0.042555545           33 
 4952000   0.46390421    -3.651089    2643.4829  0.044485106  0.042545359           67 
 4953000    0.4536991   -3.6644437    2647.2886  0.044540155   0.04253517           60 
 4954000   0.45588595   -3.6550769    2638.3843  0.044381381   0.04252498           53 
 4955000   0.47965096   -3.6592614    2634.7195  0.044310789    0.0425148           19 
 4956000   0.45536492   -3.6639371     2635.458  0.044314266  0.042504573           25 
 4957000   0.46158895   -3.6705751    2630.5908  0.044223502  0.042494346           41 
 4958000    0.4573558     -3.65694    2632.0867  0.044239726  0.042484136           56 
 4959000   0.46476296   -3.6578147     2639.555  0.044356305   0.04247393           21 
 4960000   0.46043056   -3.6642835    2637.0182  0.044304741  0.042463758           21 
 4961000   0.45799708   -3.6528041    2639.8968  0.044344164  0.042453537           30 
 4962000    0.4504431   -3.6446116    2643.1716  0.044390225  0.042443343           26 
 4963000     0.459817   -3.6533512    2637.3009  0.044282707  0.042433153           20 
 4964000   0.45376587   -3.6407757    2640.2984  0.044324106  0.042422975           14 
 4965000   0.46768281   -3.6703732    2642.7782  0.044356801  0.042412789           23 
 4966000   0.46509734   -3.6558048    2641.0503  0.044318873  0.042402621           36 
 4967000   0.46241207     -3.66245    2636.4836  0.044233333  0.042392449           42 
 4968000   0.46025683   -3.6538192    2638.7598   0.04426261  0.042382302           37 
 4969000   0.45729002   -3.6470931     2637.807  0.044237725  0.042372189           38 
 4970000   0.45866229   -3.6550661    2642.4371  0.044306457  0.042362044           52 
 4971000   0.46484843   -3.6499418      2636.49  0.044197847  0.042351914           34 
 4972000   0.45666601   -3.6516757    2636.6226  0.044191181  0.042341733           24 
 4973000   0.45492025   -3.6386786     2639.014  0.044222367  0.042331603           27 
 4974000   0.45971411    -3.653307    2641.6129  0.044257017   0.04232151           48 
 4975000   0.45750036   -3.6484497    2642.3941  0.044261208  0.042311407           30 
 4976000   0.44689441   -3.6555971    2638.3477  0.044184548  0.042301296           23 
 4977000   0.45440329   -3.6349342    2641.1305  0.044222263  0.042291152           26 
 4978000   0.44328176   -3.6527438    2639.8418  0.044191807  0.042281064           12 
 4979000    0.4600711   -3.6482437    2637.7951  0.044148677  0.042270962           20 
 4980000   0.45634418   -3.6466127    2636.8791  0.044124484  0.042260853           15 
 4981000   0.45687539   -3.6591446    2637.7278  0.044129824  0.042250764           13 
 4982000   0.46258211   -3.6627776     2635.616  0.044085642  0.042240671           21 
 4983000   0.45344003   -3.6575282    2636.9812  0.044099626  0.042230511           18 
 4984000   0.44918504   -3.6674429    2638.9489  0.044123678  0.042220413           16 
 4985000   0.46122486   -3.6754163    2642.0191   0.04416615  0.042210265           15 
 4986000   0.46105445   -3.6603354     2635.699  0.044051662  0.042200113           20 
 4987000   0.45046947   -3.6452057    2635.6382  0.044041813  0.042189957           48 
 4988000   0.46411471   -3.6476493    2634.6179  0.044015937   0.04217982           32 
 4989000   0.45363417   -3.6421236    2642.1725  0.044133302  0.042169698           27 
 4990000   0.45908082   -3.6646482    2635.0188   0.04400499  0.042159542           37 
 4991000    0.4516268    -3.657568    2637.8464  0.044043385  0.042149401           11 
 4992000   0.45404549   -3.6677753    2638.0547  0.044038039  0.042139263           36 
 4993000   0.45335189   -3.6545198    2636.6757  0.044006203  0.042129151           18 
 4994000   0.45626129   -3.6691782     2637.607  0.044012933  0.042119028           19 
 4995000   0.46092216   -3.6707307    2640.4414  0.044051408   0.04210892           24 
 4996000   0.46185291   -3.6431615    2635.5663  0.043961274  0.042098806           25 
 4997000   0.44935321   -3.6667993    2641.1299  0.044045259  0.042088689           54 
 4998000   0.45334917   -3.6613451    2638.5568  0.043993543  0.042078612           14 
 4999000   0.46027136   -3.6582674     2637.237  0.043962742  0.042068546           20 
 5000000   0.46387594     -3.65875     2639.338  0.043988966  0.042058469           14 
 5001000   0.46177919    -3.649159    2640.6802  0.044002537  0.042048402           16 
 5002000   0.44926175   -3.6571685    2645.1137  0.044067601  0.042038332           51 
 5003000   0.45167811    -3.667696    2637.6573  0.043934594  0.042028246           34 
 5004000   0.46128667   -3.6292305    2641.7407  0.043993817  0.042018202           25 
 5005000   0.45485243   -3.6501856     2641.423  0.043979737  0.042008209           40 
 5006000   0.45312888   -3.6596559    2640.1561  0.043949861  0.041998161           44 
 5007000   0.44331049   -3.6692829     2642.107  0.043973553  0.041988109           49 
 5008000    0.4409813   -3.6760082    2636.0972   0.04386477  0.041978006           23 
 5009000   0.43531093   -3.6645877    2636.7166  0.043866316   0.04196791           13 
 5010000   0.45237729   -3.6625925    2640.3442    0.0439179  0.041957845           15 
 5011000   0.46239896   -3.6671536    2641.1886  0.043923179  0.041947792           20 
 5012000   0.45141404   -3.6731634    2640.9768  0.043910894  0.041937744           28 
Loop time of 12107.5 on 48 procs for 5000000 steps with 4000 atoms

Performance: 71360.786 tau/day, 412.968 timesteps/s
99.4% CPU use with 48 MPI tasks x no OpenMP threads

MPI task timing breakdown:
Section |  min time  |  avg time  |  max time  |%varavg| %total
---------------------------------------------------------------
Pair    | 799.25     | 848.91     | 888.66     |  78.7 |  7.01
Neigh   | 81.206     | 84.478     | 87.2       |  17.6 |  0.70
Comm    | 796.5      | 836.09     | 885.29     |  77.4 |  6.91
Output  | 14.024     | 14.03      | 14.106     |   0.3 |  0.12
Modify  | 10188      | 10214      | 10234      |   8.7 | 84.36
Other   |            | 109.6      |            |       |  0.90

Nlocal:        83.3333 ave          91 max          75 min
Histogram: 1 1 2 8 8 13 8 2 4 1
Nghost:        2181.67 ave        2204 max        2165 min
Histogram: 4 2 9 9 3 8 10 1 0 2
Neighs:        14457.7 ave       16352 max       12237 min
Histogram: 1 0 4 4 7 17 7 5 2 1
FullNghs:      28914.6 ave       31486 max       25712 min
Histogram: 1 1 2 4 10 10 10 4 3 3

Total # of neighbors = 1387899
Ave neighs/atom = 346.97475
Neighbor list builds = 271317
Dangerous builds = 0

#clear
#
#next RN
#
#jump SELF
Total wall time: 3:21:50
