
units lj                  # Use reduced LJ style units
atom_style atomic         # Uncharged point particles
atom_modify map hash      # Needed for indexing of clusters etc
                          # Used to be able to find where atoms are in relation to each other.

lattice fcc 1.0 spacing 1 1 1
Lattice spacing in x,y,z = 1.5874011 1.5874011 1.5874011
region box block 0 10 0 10 0 10 units lattice
create_box 2 box
Created orthogonal box = (0.0000000 0.0000000 0.0000000) to (15.874011 15.874011 15.874011)
  3 by 4 by 4 MPI processor grid
create_atoms 1 box
Created 4000 atoms
  using lattice units in orthogonal box = (0.0000000 0.0000000 0.0000000) to (15.874011 15.874011 15.874011)
  create_atoms CPU = 0.016 seconds
set type 1 type/fraction 2 0.59 78393
Setting atom values ...
  2375 settings made for type/fraction
mass 1 1.0
mass 2 1.0
pair_style lj/cut  3.5
pair_modify tail  yes
pair_coeff 1  1  1.0  1.0   # Intearaction between 1 and 1 set with epsilon = 1 and sigma = 1
pair_coeff 1  2  1.5  0.8
pair_coeff 2  2  0.5  0.88

write_data data.0
System init for write_data ...
Neighbor list info ...
  update every 1 steps, delay 10 steps, check yes
  max neighbors/atom: 2000, page size: 100000
  master list distance cutoff = 3.8
  ghost atom cutoff = 3.8
  binsize = 1.9, bins = 9 9 9
  1 neighbor lists, perpetual/occasional/extra = 1 0 0
  (1) pair lj/cut, perpetual
      attributes: half, newton on
      pair build: half/bin/atomonly/newton
      stencil: half/bin/3d
      bin: standard
WARNING: Not all mixed pair coeffs generated from mixing. Use write_data with 'pair ij' option to store all pair coeffs. (../write_data.cpp:312)


#############################
#   M E L T   S Y S T E M   #
#############################

velocity all create 2.4 8172548 mom yes dist gaussian # Assign velocities
                                                    # Temperature 2.4, random number seed, zero linear momentum
                                                                                # Gaussian distribution

timestep 0.002   # simulation timestep
thermo 1000       # output thermodynamic data every 1000 steps bf 100

# Define a fix  in this case with index 1 applied to all
# particles in the simulation. This fix is for simulations
# in the anisotropic NPT ensemble. Note that we use the MTK
# correction.
fix 1 all npt temp 2.4 2.4 0.1 iso 5.68 5.68 0.5 mtk yes tchain 5 pchain 5 # Use NPT ensemble
                                                                         # Set temperature and pressure and damping
                                                                         # Numbers of thermostats in chain and in barostat
run 10000          # run for 10000 steps
Per MPI rank memory allocation (min/avg/max) = 3.642 | 3.644 | 3.648 Mbytes
Step Temp E_pair E_mol TotEng Press Volume 
       0          2.4   -4.7762807            0   -1.1771807   -4.0862689         4000 
    1000    2.3811314   -4.4331543            0  -0.86235007    5.9607733    3642.1245 
    2000    2.3901689   -4.5309063            0  -0.94654928    5.7172398    3607.7723 
    3000    2.4148013   -4.4974572            0  -0.87616076     5.755814     3615.818 
    4000    2.4503129    -4.558847            0  -0.88429645    5.6375162    3605.3164 
    5000    2.3928704   -4.4623519            0  -0.87394362    5.5695983    3651.6964 
    6000    2.3789511   -4.4814643            0  -0.91392977    6.0323307    3606.7384 
    7000    2.3984869   -4.5341128            0  -0.93728185    5.7497709    3609.1755 
    8000    2.4288853   -4.5248844            0  -0.88246727    5.8494112    3603.0543 
    9000    2.4279331   -4.4724673            0  -0.83147816    5.6745263    3641.7575 
   10000    2.4179174   -4.5607641            0  -0.93479474    5.5492745    3606.1739 
Loop time of 2.67288 on 48 procs for 10000 steps with 4000 atoms

Performance: 646493.807 tau/day, 3741.284 timesteps/s
99.6% CPU use with 48 MPI tasks x no OpenMP threads

MPI task timing breakdown:
Section |  min time  |  avg time  |  max time  |%varavg| %total
---------------------------------------------------------------
Pair    | 1.2058     | 1.2789     | 1.3828     |   3.3 | 47.85
Neigh   | 0.2174     | 0.22437    | 0.23622    |   0.8 |  8.39
Comm    | 0.80391    | 0.90438    | 0.99719    |   4.1 | 33.84
Output  | 0.0002468  | 0.00025176 | 0.00032565 |   0.0 |  0.01
Modify  | 0.21416    | 0.24912    | 0.28056    |   3.2 |  9.32
Other   |            | 0.01583    |            |       |  0.59

Nlocal:        83.3333 ave          92 max          73 min
Histogram: 1 0 4 5 9 12 7 5 4 1
Nghost:        1759.85 ave        1787 max        1731 min
Histogram: 1 4 3 8 5 10 6 7 3 1
Neighs:        10573.7 ave       11898 max        9185 min
Histogram: 1 3 4 3 14 8 5 6 2 2

Total # of neighbors = 507538
Ave neighs/atom = 126.88450
Neighbor list builds = 903
Dangerous builds = 189

# Equilibrate just above the melting temperature to avoid step fn in T

fix 1 all npt temp 1.25 1.25 0.1 iso 5.68 5.68 0.5 mtk yes tchain 5 pchain 5
run 2000
Per MPI rank memory allocation (min/avg/max) = 3.644 | 3.646 | 3.650 Mbytes
Step Temp E_pair E_mol TotEng Press Volume 
   10000    2.4179174   -4.5607641            0  -0.93479474    5.5492745    3606.1739 
   11000    1.2521582   -6.6062268            0   -4.7284591    5.5823166    2775.2723 
   12000    1.2243131   -6.6731492            0   -4.8371387    5.5546734    2758.5564 
Loop time of 0.667997 on 48 procs for 2000 steps with 4000 atoms

Performance: 517367.605 tau/day, 2994.025 timesteps/s
99.6% CPU use with 48 MPI tasks x no OpenMP threads

MPI task timing breakdown:
Section |  min time  |  avg time  |  max time  |%varavg| %total
---------------------------------------------------------------
Pair    | 0.29851    | 0.32744    | 0.37326    |   2.2 | 49.02
Neigh   | 0.042017   | 0.043779   | 0.049425   |   0.6 |  6.55
Comm    | 0.19742    | 0.24661    | 0.27413    |   2.7 | 36.92
Output  | 5.3016e-05 | 5.4682e-05 | 7.9087e-05 |   0.0 |  0.01
Modify  | 0.038812   | 0.045138   | 0.050808   |   1.8 |  6.76
Other   |            | 0.004981   |            |       |  0.75

Nlocal:        83.3333 ave          90 max          75 min
Histogram: 3 2 1 0 11 5 14 3 6 3
Nghost:        2108.08 ave        2135 max        2082 min
Histogram: 1 3 9 5 6 9 5 6 2 2
Neighs:        13848.9 ave       16283 max       11531 min
Histogram: 1 3 1 6 13 14 8 0 1 1

Total # of neighbors = 664748
Ave neighs/atom = 166.18700
Neighbor list builds = 142
Dangerous builds = 14

#############################
# L I N E A R  Q U E N C H  #
#############################

# Define solid atoms. This closely follows ten Wolde  Ruiz-Montero and Frenkel  Faraday Discuss  1996  104  93-110
# Compute components of the per-atom q6 vector
compute q6 all orientorder/atom degrees 1 6 components 6 nnn NULL cutoff 1.3 # compute the Q6 parameter.
                                                                             # Use all neighbours within 1.3 unit cell.

# get number of connections
compute coord_number all coord/atom orientorder q6 0.5

# An atom is solid if it has 8 or more connections (of a possible 14)
variable is_solid atom c_coord_number>=8
group solid dynamic all var is_solid    # Must be dynamic to update
dynamic group solid defined

# do clustering
compute cluster solid cluster/atom 1.3 # Create a cluster where all atoms within are solid and max 1.3 units from another member

# define chunks one chunk per cluster
compute clus_chunks solid chunk/atom c_cluster nchunk every compress yes  # Says which atoms are in which chunk

# count the size of each chunk
compute size_chunks solid property/chunk clus_chunks count


# Find the maximum entry in the vector of chunk sizes
variable max_n equal max(c_size_chunks)


# Thermo style which includes this variable
# thermo_style custom step temp pe vol v_max_n

thermo ${N}  # Print the thermo information every 100 steps
thermo 1000  

# Reset the npt fix at a lower temperature (below freezing)
fix 1  all npt temp  ${temp} ${temp}  0.1  iso  5.68  5.68  0.5  mtk yes tchain  5  pchain  5
fix 1  all npt temp  0.45 ${temp}  0.1  iso  5.68  5.68  0.5  mtk yes tchain  5  pchain  5
fix 1  all npt temp  0.45 0.45  0.1  iso  5.68  5.68  0.5  mtk yes tchain  5  pchain  5

dump dmp2 all dcd ${N} traj.dcd
dump dmp2 all dcd 1000 traj.dcd


compute msd all msd com yes
variable twopoint equal c_msd[4]/6/(step*dt+1.0e-6)
fix 9 all vector 10 c_msd[4]
variable fit equal slope(f_9)/6/(10*dt)
thermo_style custom step temp pe c_msd[4] v_twopoint v_fit v_max_n

fix 1 all npt temp 1.25 ${temp} 0.1 iso 5.68 5.68 0.5 mtk yes tchain 5 pchain 5
fix 1 all npt temp 1.25 0.45 0.1 iso 5.68 5.68 0.5 mtk yes tchain 5 pchain 5
run 5000000 # 5000000  # Run for this many steps
Neighbor list info ...
  update every 1 steps, delay 10 steps, check yes
  max neighbors/atom: 2000, page size: 100000
  master list distance cutoff = 3.8
  ghost atom cutoff = 3.8
  binsize = 1.9, bins = 8 8 8
  4 neighbor lists, perpetual/occasional/extra = 1 3 0
  (1) pair lj/cut, perpetual
      attributes: half, newton on
      pair build: half/bin/atomonly/newton
      stencil: half/bin/3d
      bin: standard
  (2) compute orientorder/atom, occasional
      attributes: full, newton on
      pair build: full/bin/atomonly
      stencil: full/bin/3d
      bin: standard
  (3) compute coord/atom, occasional
      attributes: full, newton on
      pair build: full/bin/atomonly
      stencil: full/bin/3d
      bin: standard
  (4) compute cluster/atom, occasional
      attributes: full, newton on
      pair build: full/bin/atomonly
      stencil: full/bin/3d
      bin: standard
Per MPI rank memory allocation (min/avg/max) = 9.844 | 9.850 | 9.855 Mbytes
Step Temp PotEng c_msd[4] v_twopoint v_fit v_max_n 
   12000    1.2243131   -6.6731492            0            0 8.3333333e+20            3 
   13000    1.2461587   -6.7233145   0.48136751 0.0030856891  0.039723761            2 
   14000    1.2506115   -6.7262932   0.89564654 0.0053312292  0.036783852            2 
   15000    1.2408794   -6.6688936    1.3242416 0.0073568974  0.035602313            2 
   16000    1.2633156   -6.6674333    1.7610223 0.0091719906  0.036057602            3 
   17000    1.2523858   -6.6608622    2.1876128  0.010723592  0.035780587            1 
   18000     1.244108   -6.6772544    2.6080517  0.012074313  0.035533811            3 
   19000    1.2622346   -6.7178929    3.0412987  0.013339029  0.035488605            1 
   20000     1.230863   -6.7271672    3.4439188  0.014349661  0.035420983            3 
   21000    1.2284602   -6.7137903    3.9431657  0.015647482  0.035496742            2 
   22000    1.2705359   -6.6883886    4.3879856  0.016621157  0.035848238            2 
   23000    1.2366829   -6.7333333    4.8151163  0.017446073   0.03600052            1 
   24000    1.2639424   -6.7179868    5.1879901  0.018013854  0.036085949            1 
   25000    1.2385774    -6.715198    5.5718004  0.018572667  0.035869601            3 
   26000    1.2510389   -6.6922619    5.9930935  0.019208632    0.0357216            2 
   27000    1.2311976   -6.7159218    6.4124819  0.019791611  0.035635264            3 
   28000    1.2871048   -6.7162382    6.7850567  0.020193621  0.035464027            2 
   29000    1.2094629   -6.6581585    7.2957798  0.020964884  0.035361197            1 
   30000    1.2227902    -6.681963    7.7295887  0.021471079  0.035398298            1 
   31000    1.2511155   -6.7089934    8.0912092  0.021750562  0.035372342            4 
   32000    1.2501115   -6.7031574    8.5941711  0.022380654  0.035368578            1 
   33000    1.2129401   -6.6910504    9.0557515  0.022868059  0.035422169            3 
   34000    1.2534191   -6.7227053     9.537061  0.023375149  0.035518929            6 
   35000    1.2304303   -6.7250925    9.9973085  0.023803115  0.035620405            4 
   36000     1.222151   -6.7222996    10.406241  0.024088521  0.035731204            1 
   37000    1.2254377   -6.6750077    10.864933  0.024470569  0.035796786            1 
   38000    1.2719378   -6.7033951    11.373799  0.024942541  0.035887285            1 
   39000    1.2345945   -6.6870763    11.832342  0.025282781  0.035992267            2 
   40000    1.2755265   -6.6885886    12.225233  0.025469234  0.036047539            2 
   41000     1.273385   -6.6396338    12.739485  0.025893261  0.036130261            2 
   42000    1.2590967   -6.7160252    13.085554  0.025963401  0.036201537            3 
   43000    1.2511623    -6.673434    13.442882  0.026052097  0.036218294            5 
   44000    1.2500985   -6.7038545    13.767554  0.026074913  0.036177786            2 
   45000    1.2307893   -6.7368301    14.143358  0.026191403  0.036118393            1 
   46000    1.2108234   -6.7048594    14.474866  0.026222584  0.036032376            1 
   47000    1.2471055   -6.7045193    14.791238    0.0262256  0.035927157            7 
   48000    1.2560704   -6.7246663    15.150824  0.026303514  0.035792777            3 
   49000    1.2554294   -6.7040534    15.651216  0.026617715  0.035685022            6 
   50000    1.2405669     -6.72006    16.009557  0.026682595  0.035599357            1 
   51000    1.2278499   -6.7303641    16.523852  0.026999758  0.035522113            4 
   52000    1.2240281   -6.6902973    16.922658  0.027119643   0.03545131            2 
   53000    1.2338577   -6.7302951    17.372833  0.027315776  0.035413491            1 
   54000    1.2706884   -6.6897124    17.844249  0.027537421  0.035380864            2 
   55000    1.2220385   -6.6934807    18.274693  0.027688929  0.035358006            2 
   56000    1.2470497   -6.7035347    18.879474  0.028094455  0.035364771            3 
   57000    1.2765242   -6.7150214    19.262786  0.028161967  0.035388609            3 
   58000    1.2125304   -6.7289383    19.601085  0.028162479  0.035394845            3 
   59000    1.2612862   -6.7191422    20.054871  0.028326088  0.035389381            1 
   60000    1.2502466   -6.6883676    20.507781  0.028483029  0.035390062            4 
   61000    1.2514696   -6.7453946    20.809829  0.028428728  0.035387331            3 
   62000    1.2020145   -6.7505871    21.322304   0.02865901  0.035375394            3 
   63000    1.2639001   -6.7260167    21.671916  0.028666556  0.035362993            2 
   64000    1.2302841   -6.7316383    22.066705  0.028732689  0.035341466            3 
   65000    1.2628081   -6.7112457    22.470788  0.028808703  0.035318305            2 
   66000    1.2404442   -6.7520367    22.886477  0.028897067  0.035300338            1 
   67000    1.2199096     -6.74859    23.409919  0.029116815    0.0352943            2 
   68000    1.2242575   -6.8082695    23.728893  0.029079526  0.035291623            5 
   69000    1.2222341   -6.6967725    24.270555  0.029312264  0.035280026            2 
   70000    1.2541192   -6.7407342    24.632816  0.029324781  0.035273074            1 
   71000    1.2292973   -6.7015297    25.092814  0.029451659  0.035266531            1 
   72000    1.2284231   -6.7103931    25.349022  0.029339146  0.035259782            4 
   73000      1.21694   -6.6931603    25.702986  0.029341308  0.035235105            3 
   74000    1.2422747   -6.6846865    26.158189   0.02945742   0.03520451            2 
   75000    1.2434409   -6.7618487    26.451212  0.029390235  0.035171475            3 
   76000    1.2281473   -6.7177616    26.892324  0.029487197  0.035142793            4 
   77000    1.2472117   -6.7451638    27.269722  0.029512686  0.035104731            5 
   78000    1.2564492   -6.7454766    27.747427  0.029644687  0.035071237            4 
   79000    1.2711034   -6.7430618    28.069946  0.029609648  0.035040511            2 
   80000    1.2131165   -6.7185447    28.435088  0.029619884  0.035006697            4 
   81000    1.2397029   -6.7433383      29.0858  0.029923662  0.034985462            2 
   82000    1.2644278   -6.6945514     29.45712  0.029936098  0.034968873            2 
   83000    1.2604867   -6.7096996     29.83242  0.029952228   0.03494538            2 
   84000    1.2499793   -6.6884772    30.220191  0.029980348  0.034929926            2 
   85000     1.243301   -6.7255537    30.479535  0.029881897  0.034913588            2 
   86000    1.2518134   -6.6788679    31.008953  0.030047435  0.034891747            2 
   87000    1.2430921     -6.69438    31.445917   0.03012061  0.034866697            2 
   88000    1.2583845   -6.7077892    31.969577   0.03027422  0.034849118            2 
   89000    1.2501236   -6.7120112    32.204581  0.030154102  0.034832505            4 
   90000    1.2386081   -6.6816084    32.459465   0.03005506  0.034803936            4 
   91000    1.2086521    -6.715853    32.700571  0.029945578  0.034758094            3 
   92000    1.2383868   -6.7583168    32.942631   0.02983934  0.034715791            2 
   93000    1.2184019   -6.7243192    33.632455  0.030136608  0.034676749            2 
   94000    1.2421486   -6.7499654    33.968616  0.030114021  0.034640654            3 
   95000    1.2592351   -6.7400022    34.248325  0.030042391  0.034598688            3 
   96000    1.2227229   -6.7182111    34.718816  0.030137861  0.034565658            3 
   97000    1.2318802    -6.735189    35.086958  0.030143434   0.03453704            3 
   98000    1.2146315   -6.7296583     35.44829  0.030143104   0.03450649            3 
   99000    1.2486338   -6.7110991    36.004387  0.030306723  0.034478808            5 
  100000    1.1999402   -6.7104615    36.326898  0.030272415  0.034452953            1 
  101000    1.2147476   -6.7652096    36.610236  0.030206465  0.034420094            1 
  102000    1.2237598   -6.7032623     37.08615  0.030299142  0.034385927            2 
  103000    1.2195653    -6.718436    37.385136  0.030246873  0.034356658            2 
  104000    1.2153545   -6.7750601    37.609964  0.030136189  0.034319931            2 
  105000    1.2406614   -6.7157382    38.160078  0.030285776  0.034293911            3 
  106000    1.2407596   -6.7290144    38.664034  0.030396253   0.03427178            4 
  107000    1.2510119   -6.7416967    39.412361  0.030694985  0.034260802            2 
  108000    1.2204337   -6.7405954    39.909202  0.030794137  0.034258132            3 
  109000    1.2401596   -6.7269508    40.092628  0.030651856  0.034250644            2 
  110000    1.2392891   -6.6960106    40.444914  0.030640087  0.034234321            3 
  111000    1.2285136   -6.7447783    40.582836  0.030467595  0.034214634            2 
  112000    1.2539873   -6.7621369    41.151496  0.030618672   0.03419571            2 
  113000    1.2359248   -6.7239541    41.560749   0.03064952   0.03418277            3 
  114000     1.251464    -6.685731    42.203802  0.030850733  0.034173329            4 
  115000    1.2433741   -6.7219471     42.36341  0.030698123   0.03415746            1 
  116000    1.2448828   -6.7086822    42.515207  0.030542534  0.034137556            6 
  117000    1.2419013    -6.705484    42.831308  0.030506629  0.034112569            3 
  118000    1.2344966   -6.7782009    43.191333  0.030502354  0.034085017            1 
  119000    1.2493507   -6.7517107     43.77328  0.030653557  0.034061334            4 
  120000     1.235832    -6.776708    44.054188  0.030593186  0.034036816            2 
  121000    1.2195839   -6.7081963    44.411466  0.030586409  0.034011856            2 
  122000    1.1831121   -6.7511253    44.985798  0.030728004  0.033989055            2 
  123000     1.229899   -6.7446678    45.628337  0.030913507   0.03397932            3 
  124000    1.2237143   -6.7136061    46.179928  0.031034898  0.033974385            2 
  125000    1.2263789   -6.7133056    46.809749  0.031206499  0.033973281            6 
  126000    1.2358858   -6.7507678    47.212238  0.031225025  0.033976291            5 
  127000    1.2354119   -6.7329194    47.490258  0.031161586  0.033979652            3 
  128000    1.2410681   -6.7996338     47.81938  0.031132409  0.033981703            3 
  129000    1.1972652   -6.7484334    48.655941  0.031431486  0.033986415            4 
  130000    1.2286115   -6.7297006    49.222176  0.031552677  0.033996278            1 
  131000    1.2207986   -6.7526857    49.439104  0.031449812  0.034007669            2 
  132000    1.2312436   -6.7634977    49.401304  0.031187692  0.034011469            2 
  133000    1.2136205   -6.7632144    49.914315  0.031274633   0.03401321            2 
  134000    1.2447504   -6.7184284    50.656112  0.031502557  0.034017395            2 
  135000    1.2268614   -6.7613107    50.689287  0.031289683  0.034018199            3 
  136000    1.2410494   -6.7594204    51.327238  0.031450513  0.034019612            4 
  137000    1.2474693   -6.7626816    51.640837  0.031411701  0.034022727            2 
  138000    1.2415104   -6.7351996    52.046291  0.031428919  0.034025483            2 
  139000    1.2213277   -6.7655108    52.209875  0.031300884  0.034024562            3 
  140000    1.2202423   -6.7745839    52.639613  0.031333103  0.034020905            4 
  141000    1.2501338   -6.7930731    53.119655  0.031394595  0.034016552            3 
  142000    1.2025267   -6.7474007    53.416845  0.031347913  0.034014163            3 
  143000    1.2522927   -6.7960803    53.559221  0.031211667  0.034005678            3 
  144000    1.2330861   -6.7492658    54.267765  0.031404957   0.03400105            2 
  145000    1.2418714   -6.7546497    54.745935  0.031463181  0.033995132            1 
  146000    1.2097654   -6.7054885    55.539045  0.031700368  0.033996344            1 
  147000    1.2338729   -6.7743613    55.402236  0.031407163  0.033995476            2 
  148000     1.255268   -6.7611487    55.924347  0.031488934   0.03399402            3 
  149000    1.2385642   -6.7466921    56.469878  0.031582706  0.033991059            1 
  150000     1.233442   -6.7477211    57.012298  0.031673499  0.033993235            3 
  151000    1.2137416   -6.7370154    57.429628  0.031694055   0.03399598            2 
  152000    1.2214588    -6.738844    57.909842  0.031748817  0.033996843            2 
  153000    1.2290154   -6.7198789    58.215055  0.031707546  0.034001086            2 
  154000     1.231859    -6.775713    58.470153  0.031639693  0.034002102            1 
  155000    1.2272848   -6.7424277    58.995878  0.031718214  0.034004839            2 
  156000    1.2335699   -6.7510509    59.617506  0.031846958  0.034006268            2 
  157000    1.2212114   -6.7574199    59.924688  0.031807159  0.034009336            3 
  158000    1.2290831   -6.8082293     60.13118  0.031714758  0.034011232            2 
  159000    1.2319933    -6.743796    60.953546  0.031946303  0.034017397            2 
  160000    1.2093391   -6.8137072    61.033543  0.031788304  0.034025839            1 
  161000    1.2266995   -6.7278177    61.740306   0.03195668  0.034033098            3 
  162000    1.2172921    -6.752242    62.291207  0.032042802  0.034040665            4 
  163000    1.2332885   -6.7810889    62.350053  0.031876305  0.034046227            2 
  164000    1.2107774     -6.74492     62.72076  0.031870305  0.034046809            8 
  165000    1.2376571   -6.8102248    62.998768  0.031817559  0.034049267            2 
  166000    1.2554044   -6.7549551    63.377386  0.031815957  0.034048375            2 
  167000    1.2316419   -6.7993259    63.670312  0.031771613  0.034047089            2 
  168000      1.22529    -6.755634    63.972271  0.031732277  0.034041576            3 
  169000    1.2332275   -6.7489994     64.18135  0.031647609  0.034031565            2 
  170000      1.23993   -6.7393898     64.50997  0.031622534  0.034022886            1 
  171000    1.2316899   -6.7653563    64.744072  0.031551692  0.034013078            2 
  172000    1.2077299   -6.7923815    65.352622  0.031663092  0.034003537            2 
  173000     1.251832   -6.7594202     65.57919  0.031589205  0.033991327            2 
  174000    1.2186494   -6.7684386    66.159703  0.031685682   0.03398081            1 
  175000    1.2122852   -6.7921859    66.396735  0.031617493  0.033970367            3 
  176000    1.2046936   -6.7376464     66.85827  0.031656378  0.033958627            2 
  177000    1.2162072   -6.7773823     67.42539  0.031744534  0.033949458            2 
  178000    1.2274686     -6.74955    67.915976  0.031795869  0.033940869            4 
  179000    1.2461199   -6.7372457    68.276994   0.03178631  0.033933772            3 
  180000    1.1982604   -6.7407646    68.597896  0.031758285  0.033930724            4 
  181000    1.2353174   -6.7669516     68.90906  0.031726086  0.033923768            2 
  182000    1.2222058    -6.805489    69.138778  0.031656949  0.033913515            1 
  183000    1.2076433   -6.7780772    69.716276  0.031746938  0.033903417            7 
  184000    1.2396628   -6.8243597    69.968579  0.031688668  0.033893012            1 
  185000    1.2022171   -6.7889208     70.35367  0.031690842   0.03388099            2 
  186000    1.2287176   -6.7567896    70.628364  0.031643532  0.033869604            1 
  187000    1.2324626    -6.790429    70.981984    0.0316319  0.033857884            2 
  188000    1.2205074   -6.7180378    72.094066  0.031956589  0.033851074            2 
  189000    1.2149035   -6.7641649    72.092478  0.031786807   0.03384264            1 
  190000    1.2115364   -6.6929796    72.999738  0.032017429  0.033839092            3 
  191000    1.2270962   -6.7286497    73.419926  0.032033127  0.033836173            3 
  192000     1.230102   -6.8207179     73.31887  0.031822426  0.033833496            3 
  193000    1.2357981   -6.7707487    74.147214  0.032015205  0.033830336            3 
  194000    1.2490501   -6.7704093    74.207298  0.031875987  0.033826113            2 
  195000    1.2383926   -6.7742904    74.637905  0.031896541  0.033822784            3 
  196000    1.2340303    -6.796457    74.837852  0.031818814  0.033816541            2 
  197000     1.220757   -6.7748191    75.033943  0.031740246  0.033810361            5 
  198000    1.2244499    -6.818096    75.472846  0.031764666  0.033801915            2 
  199000    1.2253564    -6.729601    76.542662  0.032053041  0.033794406            2 
  200000    1.2258933   -6.7641114    76.437304  0.031848876  0.033785906            3 
  201000    1.2672999   -6.7465433    76.746249  0.031818511  0.033778956            2 
  202000    1.2179653   -6.7795934    76.964553  0.031751053  0.033771872            2 
  203000     1.208838   -6.7754098    77.317123  0.031739377  0.033762839            1 
  204000    1.2222757   -6.8106519    77.624818  0.031709484  0.033754047            1 
  205000    1.2109061   -6.7801309    78.323137  0.031838673  0.033744971            4 
  206000    1.2190492   -6.8100085    78.417311  0.031722213  0.033735684            8 
  207000    1.2412015   -6.7539763    78.984379  0.031797254  0.033725933            4 
  208000    1.2243185   -6.8049913    79.308491  0.031774235  0.033716426            3 
  209000    1.2193384   -6.7688286    79.882906  0.031851238  0.033707172            1 
  210000    1.2204496   -6.7778823     80.06482  0.031771754  0.033698824            2 
  211000    1.2216971   -6.7897514    80.373087  0.031742925  0.033690296            2 
  212000    1.2142358   -6.8211449    80.804416  0.031762742   0.03367937            2 
  213000    1.2454621   -6.7388598     81.31564  0.031813631  0.033669656            2 
  214000    1.1946132   -6.7377043    82.123733  0.031979647  0.033662015            5 
  215000    1.2207507   -6.7715125    82.289048   0.03189498  0.033654388            3 
  216000    1.2257735   -6.7919801    82.706695  0.031908447  0.033646213            2 
  217000    1.2217899   -6.7766749    82.886415   0.03183042  0.033638197            4 
  218000    1.2231273   -6.7850833     83.20394  0.031805787  0.033631739            1 
  219000    1.2278346   -6.7873893    83.841216   0.03190305  0.033624654            4 
  220000    1.2018726   -6.7262335    84.553121  0.032027697  0.033619966            4 
  221000    1.2112552   -6.7785457    84.895621  0.032011924  0.033615771            4 
  222000    1.2408605   -6.7652787    85.207779  0.031984902  0.033612604            1 
  223000    1.2090783   -6.7776614    85.667528  0.032013277  0.033609175            2 
  224000    1.2304368   -6.7715256    86.193598  0.032066071   0.03360763            3 
  225000    1.2382102   -6.7924424    86.553485  0.032056846  0.033606686            2 
  226000    1.2004748   -6.7658564    87.025996  0.032089231  0.033603986            2 
  227000    1.2081466   -6.7820215    87.261396  0.032034286  0.033602101            2 
  228000    1.2148703   -6.8056265    87.697632  0.032053228  0.033598579            3 
  229000    1.2087091   -6.8202227    87.791783  0.031947519  0.033594519            2 
  230000    1.2172675   -6.8103404    88.280973   0.03198586  0.033591382            3 
  231000    1.1995779   -6.8130868    88.688127  0.031994274  0.033588431            1 
  232000    1.2425148   -6.8120083    89.155228  0.032024148  0.033584263            3 
  233000    1.2106542   -6.7836248     89.73133   0.03209275  0.033579913            3 
  234000    1.2216364   -6.7822695     90.02414  0.032059879  0.033575896            2 
  235000    1.2070168    -6.811957    90.256708  0.032005925  0.033570353            2 
  236000    1.2177579   -6.7858648     90.55844   0.03197685  0.033564404            3 
  237000    1.2443141   -6.7873723    90.906179  0.031964198  0.033560332            4 
  238000    1.2111189   -6.7893924    91.429895  0.032013269  0.033554886            5 
  239000    1.2284654   -6.7941293     91.44275  0.031883804  0.033548793            6 
  240000      1.22561   -6.8111407    91.584831  0.031800288  0.033540493            1 
  241000    1.2251697   -6.8022487    92.164028  0.031868613  0.033532196            6 
  242000    1.2034703   -6.7813059    92.408524  0.031821117  0.033523065            2 
  243000    1.1948678   -6.7852255     92.66063  0.031776622  0.033514554            1 
  244000    1.1892321   -6.7690173    93.103224  0.031797549  0.033504564            2 
  245000    1.2036907   -6.7763045    93.282934  0.031728889  0.033493605            3 
  246000    1.2099397   -6.8134518    93.858089  0.031794745  0.033482906            5 
  247000    1.2265822   -6.7684468    94.508953  0.031885612  0.033474091            1 
  248000    1.2181451   -6.7884625     94.76274  0.031842318  0.033466653            6 
  249000    1.2146989   -6.8173022    94.963877  0.031781753  0.033455597            2 
  250000     1.224889   -6.7647688    95.310529  0.031770176   0.03344635            4 
  251000    1.2178478   -6.7473463    95.770416  0.031796287  0.033436847            3 
  252000    1.2176572   -6.8068015    96.216411  0.031817596  0.033427346            4 
  253000    1.1893631   -6.8425985    96.298787  0.031718968  0.033417324            4 
  254000    1.2119689   -6.7688422    97.143635  0.031871271  0.033411325            3 
  255000    1.2101736   -6.7505896    97.606854  0.031897665  0.033405655            2 
  256000    1.2169257   -6.8067453    97.948613  0.031884314  0.033399059            3 
  257000     1.198088   -6.8288445    98.144076   0.03182363  0.033391101            4 
  258000    1.2207202   -6.7821175    98.747454  0.031895172  0.033383509            4 
  259000    1.1922548   -6.7712867    99.241668  0.031931038  0.033376936            3 
  260000    1.2202547   -6.8077026    99.585427  0.031918406  0.033371373            3 
  261000     1.210009   -6.8279169    99.612323  0.031804701  0.033364329            1 
  262000    1.1900081   -6.8137041    100.05777  0.031824991  0.033357323            3 
  263000    1.2192337   -6.8135319     100.3807  0.031806304  0.033349054            2 
  264000    1.2106102   -6.8149267    100.80603  0.031820085  0.033341758            1 
  265000    1.1774051   -6.7820525    101.52369  0.031925688  0.033334359            1 
  266000    1.2155327   -6.8497353    101.69669  0.031859865  0.033326591            5 
  267000    1.1996637   -6.7314239    102.80955  0.032087874    0.0333189            1 
  268000     1.223517   -6.7989956    102.46322  0.031860454  0.033311776            2 
  269000    1.2046976    -6.787249     103.2597  0.031988755  0.033304937            2 
  270000    1.2278564   -6.8230763     103.0686  0.031811296  0.033298804            2 
  271000    1.2185677   -6.8225949    103.40905  0.031798602  0.033292243            4 
  272000    1.1940425    -6.844929    103.48943  0.031706321  0.033282657            6 
  273000    1.2167032   -6.7718018    104.35256  0.031853651  0.033273872            3 
  274000     1.227225   -6.7909631    104.29347  0.031719426  0.033264913            2 
  275000    1.2225471   -6.7469634    105.00907   0.03182093  0.033255249            4 
  276000    1.2056319   -6.8152199    105.44037  0.031835861  0.033248464           10 
  277000    1.2141395   -6.8008267    106.02282  0.031896156  0.033242299            3 
  278000      1.21757   -6.8044574    106.35076  0.031879725  0.033237805            3 
  279000    1.2019834   -6.7939747    106.20133  0.031720827  0.033230836            1 
  280000    1.2015405   -6.8292825    106.99451  0.031843605  0.033225174            4 
  281000    1.2285586   -6.8257012    107.84319  0.031981966  0.033219465            6 
  282000    1.2255596   -6.7861845     107.8284  0.031864184  0.033212493            3 
  283000    1.2291072   -6.7608496    108.45399  0.031935804  0.033205872            1 
  284000    1.1928157   -6.8086256    108.79969  0.031924793  0.033201185            2 
  285000    1.1992756    -6.788639    109.10161  0.031901056  0.033195772            2 
  286000    1.1800278   -6.8349284    109.46376  0.031895036  0.033189565            2 
  287000    1.2058612   -6.8134884    109.77413  0.031874021  0.033183179            4 
  288000    1.1950195   -6.7529859      110.472  0.031965276  0.033176976            1 
  289000    1.2165593     -6.81212    110.59886  0.031891251  0.033170489            6 
  290000    1.1981896   -6.7889445    110.75018  0.031824765  0.033163933            3 
  291000    1.2328298   -6.8137535    110.83349  0.031739259  0.033156659            2 
  292000     1.190279   -6.7752481    111.79431   0.03190477  0.033147321            2 
  293000    1.2314575    -6.832544    111.47828  0.031705996  0.033138342            2 
  294000    1.2268547   -6.7702544    112.31568  0.031835509  0.033129144            8 
  295000    1.2204487   -6.8488535    112.04943   0.03165238  0.033118022            1 
  296000      1.18905   -6.8638368    112.54947  0.031686224   0.03310686            6 
  297000    1.2073803   -6.8252637    113.05852  0.031722369  0.033095874            4 
  298000    1.1774421   -6.7915805    113.25207  0.031670041  0.033085523            2 
  299000    1.1866828   -6.8027188    113.71947  0.031694388  0.033074268            2 
  300000    1.1893499   -6.8245947    113.94574  0.031651595  0.033062668            3 
  301000    1.2158395   -6.8174225    113.55159  0.031437318  0.033049601            3 
  302000    1.2129941   -6.8329919    114.26902  0.031531186  0.033035635            3 
  303000    1.2107041   -6.8336306    114.36534  0.031453613  0.033020867            2 
  304000    1.1982719   -6.8380512    114.23378  0.031314085  0.033005915            3 
  305000    1.1973373   -6.8247066    115.12754  0.031455613  0.032991052            2 
  306000    1.1832569   -6.8544189    114.94672  0.031303573  0.032976668            2 
  307000    1.2216038    -6.808415     116.0604   0.03150391  0.032961734            2 
  308000     1.183104   -6.7577464    116.42394  0.031499983  0.032948038            3 
  309000    1.2284721   -6.7993459    116.44285  0.031403143  0.032934389            1 
  310000    1.1991247   -6.8211064    116.67846  0.031365176  0.032920454            1 
  311000    1.2153638   -6.8171961    116.90175  0.031324156  0.032907008            3 
  312000    1.2112519    -6.828025    117.15609   0.03129169  0.032892486            3 
  313000    1.2022626   -6.8004772    118.00763  0.031418431  0.032878048            2 
  314000    1.1936118   -6.8630399    117.80471  0.031264519  0.032864989            5 
  315000    1.2139139   -6.8632301    118.05956  0.031232688  0.032850382            5 
  316000    1.2014378   -6.8298061    118.64976  0.031289493  0.032837504            2 
  317000    1.1950014   -6.8268477    119.57415  0.031433793  0.032824438            3 
  318000     1.203818   -6.8265007    119.86009  0.031409877   0.03281274            4 
  319000    1.1999111   -6.8129384    120.14282  0.031385273  0.032801067            1 
  320000    1.2131212   -6.8406113    120.67444  0.031425635    0.0327898            2 
  321000    1.2213401   -6.8566676    120.91971   0.03139141  0.032777563            3 
  322000    1.1974095   -6.7992548    121.61854  0.031474778  0.032765568            2 
  323000    1.1899783   -6.8335414    121.80817  0.031426256  0.032754068            4 
  324000    1.1845697   -6.7928009    122.14451  0.031415768  0.032742813            4 
  325000    1.2102915   -6.8180744    122.41459  0.031388355   0.03273172            2 
  326000     1.188525   -6.7965197    123.06425  0.031458142  0.032720513            1 
  327000    1.1951974   -6.7789645    123.86771  0.031566695  0.032712157            2 
  328000    1.1950028     -6.80949    123.64427  0.031413687   0.03270267            1 
  329000    1.1976764   -6.8325903     124.3647  0.031500683  0.032693535            3 
  330000     1.225899   -6.8175733    125.08177  0.031586306  0.032684973            3 
  331000    1.1953669   -6.8499445    125.05544   0.03148425  0.032677038            5 
  332000    1.1803374   -6.8409227    125.35327  0.031464175   0.03266867            3 
  333000     1.208644   -6.8138739    126.12819  0.031563611  0.032660712            3 
  334000    1.1906803   -6.7775353    126.86991  0.031654169  0.032653288            3 
  335000    1.2006763   -6.8257888    126.46328  0.031458527  0.032646156            6 
  336000     1.228194   -6.8231391    127.33667  0.031581514  0.032638271            6 
  337000    1.1803149   -6.8569229    126.83246  0.031363121  0.032630106            2 
  338000      1.19014   -6.7564839    128.32796  0.031639044   0.03262208            2 
  339000    1.1812324   -6.8706791    127.72571  0.031397668   0.03261253            2 
  340000    1.2151868   -6.8679536    127.82182  0.031328878  0.032601386            7 
  341000    1.2100175   -6.8636389    128.61159  0.031430007  0.032591167            2 
  342000    1.2074404   -6.7853246    129.19773  0.031480928  0.032581254            1 
  343000    1.1797171   -6.8686751    129.16279  0.031380658  0.032572239            2 
  344000    1.1826056   -6.7726392     130.0114  0.031495009  0.032563522            1 
  345000    1.1778397   -6.8328226    130.53544    0.0315303  0.032555474            2 
  346000    1.2120228   -6.8697832    130.32538  0.031388579  0.032545955            3 
  347000    1.1833715   -6.8445436    130.46906  0.031332628  0.032535577            2 
  348000    1.2023633   -6.8496608    131.39569  0.031464485  0.032525612            2 
  349000    1.1955565   -6.8593848    131.06705  0.031295857  0.032514802            2 
  350000    1.2058293   -6.8555593    131.33843  0.031271054  0.032504087            2 
  351000    1.1629209   -6.8027647    131.92733  0.031321778  0.032493474            2 
  352000    1.1640822    -6.855931    132.04843  0.031261465  0.032483027            2 
  353000    1.2050161   -6.8566174    132.34525  0.031242977  0.032472369            2 
  354000    1.1945621   -6.7945354     132.9497  0.031297011  0.032461218            3 
  355000    1.1860766   -6.8446845      133.275  0.031285211  0.032451547            1 
  356000    1.1542211   -6.8481296    134.36684  0.031452912  0.032442983            4 
  357000    1.2161686    -6.857102    134.77121  0.031459199  0.032435487            4 
  358000    1.2002017   -6.8366916    135.37082  0.031510899  0.032427651            2 
  359000    1.1911308   -6.8514646    135.15478  0.031372975  0.032421262            3 
  360000    1.2330185   -6.8307827    135.69711  0.031411368  0.032414444            4 
  361000    1.2222915   -6.8143172    136.96125  0.031616171  0.032406793            2 
  362000     1.183293   -6.8781883     135.6582  0.031228868  0.032398843            2 
  363000    1.1746539   -6.8432779    137.01536  0.031454399  0.032390441            3 
  364000    1.1954463   -6.8475368    136.82249   0.03132383  0.032382319            3 
  365000    1.1717729   -6.8150923    137.15341  0.031313564  0.032373715            1 
  366000    1.1776439   -6.8180586    137.50287  0.031307576  0.032363569            2 
  367000    1.1969625   -6.7789822    137.67187  0.031260644  0.032353248            3 
  368000    1.2093752   -6.8847534    136.90473  0.031001977   0.03234099            4 
  369000    1.1806102   -6.8523152     137.1052  0.030963234  0.032327041            1 
  370000    1.1817676   -6.8385263    137.63079  0.030997926  0.032313663            2 
  371000     1.199416    -6.862118    138.25893  0.031055465    0.0323017            3 
  372000    1.1993034   -6.8662684    138.76358  0.031085031  0.032288984            2 
  373000    1.2110811   -6.8704433    139.01804  0.031058543  0.032275843            1 
  374000    1.1749781   -6.8626985    139.36818  0.031053517    0.0322625            1 
  375000    1.1669418   -6.8151241    139.82145  0.031071433   0.03224893            3 
  376000    1.1754586    -6.812471    139.73016  0.030968563  0.032236106            7 
  377000    1.1793951   -6.8485206    140.50921  0.031058622  0.032222426            4 
  378000    1.2197004   -6.8837653    140.38757  0.030949641   0.03220844            2 
  379000      1.18033   -6.8173892    140.82731  0.030964667  0.032195132            1 
  380000    1.1704893   -6.8604235    141.16403  0.030957023  0.032182357            6 
  381000    1.1776132   -6.8355593    141.70505  0.030994106  0.032169655            3 
  382000    1.2019561    -6.825658    142.23424  0.031028412  0.032157746            1 
  383000     1.194309   -6.8262707    142.79117  0.031068575  0.032147003            2 
  384000    1.2144009   -6.8305244    142.96878  0.031026211  0.032136864            1 
  385000     1.181126   -6.8965082    142.73886  0.030895858   0.03212557            3 
  386000    1.1622888    -6.914424    144.03436  0.031095501  0.032114861            2 
  387000    1.1686487   -6.8694651    144.37716  0.031088967  0.032104236            4 
  388000    1.1805778   -6.8766244    144.39271  0.031012181  0.032093341            1 
  389000      1.19807    -6.842565    144.84822  0.031030039  0.032082908            3 
  390000    1.1660677   -6.8400532    144.91056  0.030963795  0.032071898            1 
  391000    1.1808652   -6.8902858    145.16197  0.030938187  0.032060342            2 
  392000    1.1641818   -6.8745779    145.81258  0.030997573  0.032048664            4 
  393000    1.1805702   -6.8593373     146.2989   0.03102182  0.032037607            2 
  394000    1.1840141   -6.8865092    146.36806  0.030957712  0.032026534            7 
  395000    1.1920917   -6.8531545    147.27533  0.031070746  0.032015421            2 
  396000    1.1736983   -6.8499579    147.09596  0.030954536  0.032004437            1 
  397000    1.1866417   -6.8228793    147.53772  0.030969296  0.031993373            3 
  398000    1.1876662   -6.8765085    147.91438  0.030970348  0.031983337            4 
  399000    1.1994273   -6.8587724    148.00377  0.030911396  0.031973588            2 
  400000    1.1777164   -6.8542283    148.33726  0.030903595  0.031963106            2 
  401000    1.1995023    -6.847234    148.81044  0.030924864  0.031951522            2 
  402000    1.2052873   -6.8423596    148.83895  0.030853846  0.031940163            3 
  403000    1.1743606   -6.8917395    148.73809  0.030756428  0.031927705            2 
  404000    1.1903194   -6.8090837      149.556   0.03084901   0.03191434            2 
  405000    1.1819794   -6.8405378    149.78944  0.030820872  0.031901327            2 
  406000    1.1945922   -6.8677582    149.48966  0.030683427  0.031888061            5 
  407000    1.1699141   -6.8401195     149.7393  0.030659152  0.031874851            3 
  408000    1.1907312   -6.9076792    150.37662  0.030714179  0.031861478            4 
  409000    1.1865481    -6.858751    150.76193   0.03071759  0.031848786            3 
  410000    1.1943481   -6.8619992    150.91403  0.030673583  0.031835633            2 
  411000    1.1991234    -6.846809    151.56555  0.030731052  0.031823175            4 
  412000    1.1621962   -6.8972821    151.42321  0.030627672  0.031810964            2 
  413000    1.1816099   -6.8545961    152.88518  0.030848503  0.031799206            4 
  414000    1.1716924   -6.8410972    152.61077  0.030718753  0.031788113            3 
  415000    1.1569695     -6.86686    153.29915  0.030782962   0.03177682            2 
  416000    1.2003248   -6.8814799    153.70341  0.030789946  0.031766504            1 
  417000    1.1779669   -6.8332304    154.29724  0.030834781  0.031756541            2 
  418000    1.1746971   -6.8899275    154.60262  0.030821895  0.031746718            5 
  419000    1.1733096   -6.8743726    154.93556   0.03081455  0.031737204            2 
  420000    1.2071089   -6.8741129     155.5252  0.030858175  0.031727685            1 
  421000    1.1748737   -6.8279434    155.70351  0.030820173  0.031717235            2 
  422000    1.2144163   -6.8840942    156.15009  0.030835327  0.031707408            2 
  423000    1.1755374   -6.8592088    156.52015  0.030835333  0.031697228            3 
  424000    1.1895461   -6.8978051    155.81307  0.030623638  0.031687112            1 
  425000    1.1670549   -6.8950478    156.97307  0.030779033  0.031677263            2 
  426000    1.1849302   -6.8765083    157.84756  0.030877849  0.031668619            1 
  427000    1.1870522   -6.8815205    157.63138  0.030763345  0.031659132            2 
  428000    1.2084591   -6.8582792    158.37584  0.030836417  0.031649863            1 
  429000    1.1773845   -6.8498062    159.31079  0.030946152  0.031640884            2 
  430000    1.1798012   -6.9088049    158.78351  0.030771998  0.031631347            1 
  431000    1.1837607   -6.9190315      159.052  0.030752513  0.031622255            3 
  432000    1.1784475   -6.8897515     159.8861  0.030842225  0.031614289            4 
  433000    1.2073441   -6.8782064    160.22751  0.030836703  0.031606813            3 
  434000    1.1361332   -6.8785205     160.8009  0.030875749  0.031599145            3 
  435000    1.1567772   -6.8988837    161.24488  0.030889823  0.031591759            3 
  436000    1.1739227   -6.8730041    161.27178  0.030824118  0.031583714            2 
  437000    1.1959177   -6.9125143    160.43087  0.030593224  0.031574962            2 
  438000     1.177958   -6.8153742    161.95983  0.030814275  0.031565782            3 
  439000    1.1676812   -6.8244165    162.40965  0.030829471  0.031557817            2 
  440000    1.1967306   -6.8993836    162.82247   0.03083759  0.031549386            3 
  441000     1.187557   -6.8456667    163.96918   0.03098435  0.031542242            2 
  442000      1.15723   -6.8734312    163.81372   0.03088494  0.031535576            2 
  443000    1.1600645   -6.8784632    163.79508  0.030811716  0.031528622            6 
  444000    1.1603805   -6.8815396    164.09115  0.030797889  0.031521395            2 
  445000    1.1861295   -6.8833083    164.96765  0.030892819  0.031514415            7 
  446000    1.1625232   -6.8699852    165.90874  0.030999392   0.03150811            2 
  447000    1.1783716    -6.854749    165.56736  0.030866397  0.031502771            3 
  448000    1.1970685   -6.9079955    165.94333  0.030867435  0.031497047            2 
  449000    1.2056445   -6.8872479    166.57451  0.030915833  0.031490703            4 
  450000    1.1774957   -6.8779983    166.29223  0.030794858  0.031483895            4 
  451000     1.169484   -6.8216111    167.67592  0.030982247  0.031478321            6 
  452000    1.1828896    -6.893227    167.04738   0.03079782  0.031472714            3 
  453000    1.1876346    -6.913647    167.59997  0.030831489  0.031466439            2 
  454000    1.1681405   -6.8526064    168.53189  0.030934634  0.031459533            2 
  455000    1.2148132   -6.8777088    168.58282  0.030875974  0.031453085            7 
  456000    1.1920002   -6.8901425    168.31447  0.030759224  0.031446284            4 
  457000    1.1759496   -6.9269505    168.98061  0.030813386  0.031438599            4 
  458000    1.2043253   -6.9109576    169.39485  0.030821479  0.031432133            2 
  459000     1.183307   -6.8673972    170.05239   0.03087371  0.031425652            2 
  460000    1.1851252    -6.857559    169.87488  0.030774434  0.031419679            2 
  461000    1.1889535   -6.8626678    170.67521  0.030852352  0.031413111            2 
  462000    1.1807806   -6.8655221     170.8855  0.030823503   0.03140731            3 
  463000    1.1769589   -6.8795673    171.30698   0.03083279  0.031401327            1 
  464000    1.1848083   -6.8911709    171.41591  0.030785903  0.031395583            2 
  465000    1.1666648   -6.9042607    171.86495  0.030800171  0.031389421            3 
  466000    1.1853053   -6.8618558    172.47185  0.030842606  0.031382841            2 
  467000    1.1719509   -6.8922231    171.75503   0.03064865  0.031376613            2 
  468000    1.1597054   -6.8871598    172.99466  0.030803893  0.031369553            2 
  469000    1.1779261   -6.9076395    173.33696  0.030799034  0.031363185            5 
  470000    1.1579364   -6.8819808    173.60001  0.030780143  0.031357092            1 
  471000    1.1725567   -6.8857606    174.06136  0.030796419  0.031351117            1 
  472000    1.1898656    -6.879943    174.59776  0.030825875  0.031344896            3 
  473000     1.166559   -6.9177831    174.38229  0.030722744  0.031339279            4 
  474000     1.189261     -6.92717    175.02575  0.030771053  0.031333351            4 
  475000    1.1511955   -6.9115933    174.67867   0.03064538  0.031326956            3 
  476000    1.1703286   -6.8937891    175.06227  0.030648157  0.031320681            2 
  477000    1.1732378   -6.9148603    175.47353  0.030655752  0.031313463            4 
  478000     1.168983   -6.8522923    175.90476    0.0306668  0.031306068            6 
  479000    1.1813409   -6.8964931    176.30255  0.030671981  0.031298605            3 
  480000    1.1643643   -6.9296595    175.68545  0.030500947  0.031289965            2 
  481000     1.178207   -6.9114387    176.30461  0.030544803  0.031281498            5 
  482000    1.1750015   -6.9429226    176.36902  0.030492569  0.031272946            6 
  483000    1.2141542   -6.9375932    177.22973  0.030577939   0.03126498            3 
  484000    1.1508163   -6.8659196    176.86071  0.030451224   0.03125708            4 
  485000    1.1965962   -6.8707677    177.98709  0.030581974   0.03124829            1 
  486000    1.1764474   -6.8791412    178.52829  0.030611847  0.031240411            5 
  487000      1.18434    -6.932094    177.99396  0.030457557  0.031232288            6 
  488000    1.1485062     -6.89892    178.89615  0.030549205    0.0312244            2 
  489000    1.1493521    -6.904424    179.36389  0.030566443  0.031216884            4 
  490000     1.159019   -6.9098932    179.55962   0.03053735  0.031208975            5 
  491000    1.1937237   -6.8385781    180.80968  0.030687319  0.031201332            5 
  492000    1.1779577   -6.9464124    180.33068  0.030543814  0.031194287            5 
  493000    1.1836605   -6.9454072    180.49355   0.03050939  0.031187319            1 
  494000    1.1682276   -6.9091753     180.9793  0.030529572  0.031180138            3 
  495000     1.204138   -6.8694237    181.57786  0.030568664  0.031173036            1 
  496000    1.1571814   -6.8624081    182.54614  0.030669714  0.031166223            2 
  497000    1.1956701   -6.8606248    182.41679  0.030586316  0.031159732            1 
  498000    1.1957374   -6.9150369    182.31665  0.030508141  0.031152091            3 
  499000    1.1583518   -6.9134192    183.27867  0.030607661  0.031144741            5 
  500000     1.174601    -6.844022    183.55233  0.030592055  0.031138312            3 
  501000    1.1540397   -6.8974767     183.4081  0.030507002  0.031132468            4 
  502000    1.1897331   -6.9156983    183.62987  0.030483045  0.031126029            3 
  503000    1.2012638   -6.8648188    184.69615  0.030599098  0.031119513            3 
  504000    1.1911088   -6.9262382    184.68225  0.030536085  0.031113024            1 
  505000    1.1715968   -6.9184609    185.33073  0.030582629  0.031106588            3 
  506000    1.1478088   -6.8653515    185.88182  0.030612947  0.031100196            8 
  507000     1.168213   -6.9495303     185.5088  0.030491255   0.03109415            4 
  508000    1.1457087   -6.8444294    186.50888  0.030595288  0.031088158            3 
  509000    1.1540465   -6.9050228      187.544   0.03070465  0.031082271            7 
  510000    1.1753622   -6.9032635    187.19534  0.030587473  0.031075834            1 
  511000    1.1708733    -6.914095    187.11886  0.030515143  0.031069341            2 
  512000    1.1508001   -6.8868844    187.87846  0.030579177  0.031062988            2 
  513000    1.1743402   -6.9326188    187.44712    0.0304495  0.031057106            1 
  514000    1.1917067   -6.8820812    188.49764  0.030560578  0.031050901            3 
  515000    1.1707757    -6.889588    188.90935  0.030567856  0.031044348            4 
  516000     1.179388    -6.879326    189.11138  0.030541244  0.031038047            3 
  517000    1.1671737    -6.892105    189.33284  0.030517865  0.031031308            3 
  518000    1.1745866    -6.913573    189.29159  0.030452315  0.031024289            2 
  519000    1.1546562   -6.9144027    188.77765  0.030311119  0.031016575            1 
  520000    1.1614906   -6.9172432    189.61663   0.03038728  0.031008912            3 
  521000    1.1807315   -6.9194087     189.0354  0.030235988  0.031001067            2 
  522000    1.1345426   -6.9342185    190.29663  0.030379412  0.030993196            3 
  523000     1.147465   -6.9221323    190.34641  0.030329257  0.030984497            3 
  524000    1.1892537   -6.9709251    190.18131  0.030245119  0.030975641            6 
  525000    1.1686364   -6.9423979    190.71994  0.030273007  0.030966893            1 
  526000    1.1515031   -6.8882483    191.50033  0.030339089  0.030958591            3 
  527000    1.1552617   -6.9020683     191.5848  0.030294876  0.030950914            4 
  528000     1.162928   -6.9189503    191.48808  0.030222235  0.030943435            5 
  529000    1.1646309   -6.9263735     192.7172  0.030358727  0.030936039            2 
  530000    1.1542307   -6.9128354    192.57742  0.030279468  0.030929096            3 
  531000    1.1871844   -6.9408285    193.15853  0.030313642  0.030921409            3 
  532000    1.1682609   -6.9103461    194.23848  0.030425827  0.030913827            2 
  533000    1.1622228   -6.8926838    193.88832  0.030313996  0.030905892            3 
  534000    1.1415407   -6.8920024    194.63722  0.030374098  0.030898123            2 
  535000    1.1715863   -6.9172044     194.3177  0.030267554  0.030890019            2 
  536000    1.1426296   -6.9095782    194.69029  0.030269013  0.030881991            2 
  537000    1.1729585   -6.8948446    194.27244  0.030147802  0.030873183            3 
  538000     1.163626   -6.8917037    195.62749  0.030301656  0.030864484            3 
  539000    1.1515334   -6.9018356    195.87864  0.030284267  0.030856182            1 
  540000    1.1668534   -6.9288695    195.08905  0.030106335   0.03084833            2 
  541000    1.1650865    -6.938473    196.27426   0.03023325  0.030839996            4 
  542000    1.1571319   -6.9181943     196.1498  0.030158333  0.030831213            2 
  543000    1.1715446   -6.8165772    197.51019  0.030311569  0.030823203            4 
  544000    1.1774027   -6.9436215    196.99361  0.030176718  0.030815743            3 
  545000    1.1768369   -6.9284852    197.02546  0.030126217  0.030807375            2 
  546000    1.1753172   -6.9554813    197.24082   0.03010391  0.030798616            5 
  547000    1.1613512   -7.0165725    196.57245  0.029947052  0.030789635            2 
  548000     1.146321   -6.8781328    197.66473  0.030058506  0.030780395            3 
  549000    1.1727286   -6.9250361    198.07819  0.030066513  0.030771743            2 
  550000    1.1610861   -6.9047269    199.09613  0.030166081  0.030763166            4 
  551000    1.1629819    -6.918194    199.51988   0.03017542  0.030754726            2 
  552000    1.1483942   -6.9144771     199.4324  0.030107548  0.030746096            9 
  553000    1.1673977   -6.9097652    199.82653  0.030112497  0.030738127            3 
  554000    1.1530733   -6.9882122     199.7382  0.030044855  0.030730478            7 
  555000    1.1526604   -6.8851426    202.01549  0.030332656  0.030723668            1 
  556000    1.1634553   -6.9174588    201.83284  0.030250725  0.030717051            6 
  557000    1.1793361   -6.9684828    202.13198   0.03024117  0.030710414            2 
  558000    1.1566511   -6.9391305     202.2027  0.030197536  0.030703746            2 
  559000    1.1541416   -6.9141316    202.38715  0.030171012  0.030696618            3 
  560000    1.1592488   -6.8951567    203.14702  0.030230212  0.030689778            2 
  561000    1.1586445   -6.9135843     203.2082  0.030185412  0.030683611            2 
  562000    1.1843129   -6.9112861    204.08628  0.030261904  0.030677234            1 
  563000    1.1455061   -6.8923395    204.35302  0.030247634  0.030670769            4 
  564000    1.1606944   -6.9156416    204.45209  0.030208642  0.030664924            2 
  565000    1.1909773   -6.9153618    205.29207  0.030279067  0.030658293            2 
  566000    1.1561241   -6.8885794    205.81972  0.030303257  0.030652226            3 
  567000    1.1566671   -6.9868371    205.01804  0.030131987  0.030646002            1 
  568000    1.1701947   -6.9461504     206.1351  0.030242825  0.030639078            2 
  569000    1.1595302   -6.9004234     206.5931  0.030256752  0.030632831            3 
  570000    1.1570589   -6.9204253    206.13108  0.030136123  0.030627345            2 
  571000    1.1658144   -6.9027136    208.14251  0.030376898   0.03062165            3 
  572000    1.1538277   -6.8560734    208.73703  0.030410406  0.030616463            4 
  573000    1.1637458   -6.9692903    207.32964  0.030152653  0.030610788            3 
  574000    1.1528309   -6.9274128    208.47278  0.030266083  0.030605633            8 
  575000     1.187784   -6.9314482    209.01787  0.030292445  0.030600765            4 
  576000    1.1588141   -6.9517973    209.51826  0.030312248  0.030596472            2 
  577000    1.1448494   -6.9346371    210.17733    0.0303549   0.03059202            3 
  578000    1.1565163   -6.9128115    211.26828  0.030459671  0.030588277            3 
  579000    1.1360262   -6.9244072    210.87498  0.030350458  0.030584484            3 
  580000     1.149285   -6.9012946    211.87084  0.030441212  0.030580853            3 
  581000    1.1365216   -6.9563396    211.17565  0.030289107  0.030576671            4 
  582000    1.1702415   -6.9203153    211.91626  0.030343107  0.030572806            2 
  583000     1.174754   -6.9306997    212.13733   0.03032266   0.03056908            2 
  584000    1.1672853   -6.9533944    213.15345  0.030415732  0.030565549            3 
  585000    1.1456462   -6.9859626    212.77093  0.030309249  0.030561876            2 
  586000    1.1753791   -6.9354587    213.94308  0.030424215  0.030558069            3 
  587000    1.1598524   -6.9344129    214.13133   0.03039911  0.030554733            2 
  588000    1.1633703   -6.9500211    214.34813  0.030378137  0.030551241            3 
  589000    1.1702862   -6.9206183    214.40926   0.03033521  0.030547089            2 
  590000      1.13948    -6.958065    214.56577    0.0303059  0.030543111            5 
  591000    1.1528079   -6.9244453    215.59279  0.030399435  0.030538988            2 
  592000    1.1538249   -6.9773332    215.14025  0.030284382  0.030535347            1 
  593000    1.1687409   -6.9307348    216.47484   0.03042086  0.030531322            4 
  594000    1.1690855   -6.9390043    216.19485  0.030330366  0.030527384            2 
  595000    1.1539301   -6.9100652    217.74722  0.030496809   0.03052423            1 
  596000     1.150108   -6.9792039    216.82423  0.030316587  0.030520853            2 
  597000    1.1577456   -6.9400738    217.60488  0.030374774  0.030517188            5 
  598000    1.1734364   -6.9451004    217.19617  0.030267025  0.030513257            4 
  599000    1.1564706    -6.891599    219.10269  0.030481732  0.030510287            4 
  600000    1.1331777   -6.9081971    219.87526   0.03053823  0.030507267            2 
  601000     1.153619    -6.927905    219.63589  0.030454228  0.030504323            2 
  602000    1.1632754   -6.9395937    219.16749    0.0303388  0.030501698            1 
  603000    1.1379423    -6.885468    219.85681  0.030383749  0.030498915            4 
  604000    1.1497949   -6.9369197    220.30187  0.030394849   0.03049641            2 
  605000    1.1388816   -6.9379492    220.06436  0.030311896  0.030493305            1 
  606000    1.1471669   -6.9588741    221.13587  0.030409224  0.030490166            2 
  607000    1.1477012   -6.9827966    220.08585  0.030214971   0.03048638            2 
  608000    1.1398563   -6.9654274    220.74575  0.030255722  0.030481964            2 
  609000     1.162464   -6.9380963    220.98596  0.030238911  0.030477887            2 
  610000    1.1353984     -6.94772    220.65132  0.030143622  0.030473439            5 
  611000    1.1677246   -6.9453866    221.83236  0.030255368  0.030468502            2 
  612000    1.1718132    -6.945184    221.93985  0.030220568  0.030464537            9 
  613000    1.1751846   -6.9326717    223.51344  0.030385187  0.030460964            2 
  614000    1.1346609   -6.8938884    223.92779  0.030391936   0.03045751            3 
  615000     1.156698   -6.9369539    223.92432  0.030342049    0.0304542            2 
  616000    1.1415621   -6.9411324    223.83418  0.030280598  0.030450812            2 
  617000     1.165771   -6.9294607    223.91342  0.030242223  0.030447431            2 
  618000    1.1352963   -6.9351141     224.9131  0.030328088  0.030443713            3 
  619000    1.1748163   -6.9659328    225.06307  0.030299283  0.030439929            2 
  620000    1.1437676   -6.9391515    225.41952  0.030298323  0.030436205            4 
  621000     1.160079   -6.9369196    225.14363  0.030212511  0.030432699            4 
  622000    1.1613672   -6.9519939     225.6887  0.030236964  0.030429342            2 
  623000    1.1739848   -6.9919699    224.77702  0.030066482  0.030425011            2 
  624000    1.1302563   -6.9727538    225.33286   0.03009253  0.030420718            2 
  625000    1.1381668   -6.9449729    225.85566  0.030114088  0.030416343            3 
  626000    1.1420782   -6.9330585    227.00771  0.030219344  0.030411562            2 
  627000    1.1128565    -6.952863    227.14489   0.03018938  0.030406986            2 
  628000    1.1476217   -6.9535615    227.46294  0.030183512   0.03040255            4 
  629000    1.1516422   -6.9294111    227.50339  0.030140884  0.030398326            2 
  630000    1.1282131   -7.0032555    227.35479  0.030073384  0.030393839            2 
  631000    1.1622887   -6.9932135    227.43669  0.030036542  0.030388555            2 
  632000    1.1655371    -6.905302    228.99786  0.030194866   0.03038431            3 
  633000    1.1751769   -6.9928194    228.12499  0.030032253  0.030379604            4 
  634000    1.1325264   -6.9563124    229.25967  0.030134026  0.030374765            2 
  635000    1.1729633   -6.9719029    229.22783  0.030082392  0.030369685            4 
  636000    1.1361637   -6.9413781    230.57457  0.030211552  0.030364906            3 
  637000    1.1439751     -6.97189    230.39807  0.030141035  0.030360943            2 
  638000    1.1516948   -6.9273594    231.32832  0.030215298  0.030357138            4 
  639000    1.1407763   -6.9207783    231.84342  0.030235188  0.030353448            3 
  640000     1.154228   -6.8950819    232.35673  0.030254782  0.030349827            2 
  641000    1.1642159    -6.947981    232.11171  0.030175729  0.030345743            4 
  642000    1.1654385   -7.0244542    230.87676  0.029968427  0.030341431            4 
  643000    1.1465361   -6.9417182    233.18946  0.030221548  0.030336915            1 
  644000    1.1284472   -7.0477344    231.64828  0.029975192   0.03033246            1 
  645000    1.1410338   -6.9879728    232.43804  0.030030754  0.030327884            3 
  646000     1.158565   -6.9931318    234.02118   0.03018849  0.030323281            2 
  647000    1.1508172   -6.9617548    234.19121  0.030163731  0.030319249            3 
  648000    1.1509428   -6.9802406    233.05876  0.029971548  0.030314955            2 
  649000    1.1489645    -6.950306    233.56573  0.029990463  0.030310523            6 
  650000     1.134189   -6.9373731    235.34617  0.030172586  0.030305966            3 
  651000    1.1718673   -6.9754658    234.93483  0.030073583  0.030301638            2 
  652000     1.122085   -7.0256261    234.33452  0.029950731  0.030296522            3 
  653000    1.1431791   -6.9573758    235.30145   0.03002826  0.030291761            3 
  654000    1.1422423   -6.9217588    236.15971  0.030091706  0.030286895            2 
  655000    1.1491519   -6.9582563    236.24229   0.03005627  0.030282484            4 
  656000     1.149912   -6.9275728    236.57878  0.030053198  0.030277755            2 
  657000    1.1323445   -6.9452824     236.7186  0.030025191  0.030273236            3 
  658000    1.1571762    -6.942312    236.95911  0.030010019  0.030268028            4 
  659000    1.1348789   -6.9774924     236.8256  0.029947597  0.030262693            1 
  660000    1.1295321   -6.9569236    236.42269   0.02985135  0.030257329            2 
  661000    1.1639831   -6.9630698    236.40828  0.029804372  0.030251627            2 
  662000     1.149562   -6.9534943    237.06628   0.02984218  0.030245774            2 
  663000    1.1475319   -6.9463465    237.42403  0.029842135  0.030240403            2 
  664000    1.1583538   -7.0394796    237.00469  0.029744564   0.03023501            2 
  665000    1.1420644   -6.9770511    238.17526  0.029846524  0.030229542            2 
  666000    1.1629322   -6.9794073    239.22133  0.029932598  0.030224156            2 
  667000    1.1457268    -7.023974     238.1831  0.029758008  0.030218716            1 
  668000    1.1445017   -6.9965941    239.23196  0.029844306  0.030213113            6 
  669000    1.1305741    -6.958557    240.23354  0.029924457  0.030207914            3 
  670000    1.1528172   -6.9605373    240.06687  0.029859063  0.030203047            4 
  671000    1.1207829   -6.9835927      240.131  0.029822528  0.030197986            3 
  672000    1.1251541   -6.9708634     240.6008  0.029836408  0.030192184            4 
  673000    1.1603323   -7.0121984    240.23133  0.029746326   0.03018638            7 
  674000    1.1386205   -6.9704748    241.07276  0.029806227  0.030180542            3 
  675000    1.1405708   -6.9452426    240.96676  0.029748983  0.030174482            2 
  676000    1.1327255   -6.9837775     241.3157  0.029747991   0.03016841            2 
  677000    1.1435545   -7.0212103    240.38528  0.029589522  0.030161798            2 
  678000    1.1633263   -7.0248936    241.42712  0.029673933  0.030154992            3 
  679000    1.1576164    -6.985284    241.28552  0.029612853  0.030147977            3 
  680000    1.1273658   -7.0099023    241.83395  0.029636514  0.030141001            4 
  681000    1.1544517   -7.0181354    242.02646  0.029616552  0.030133948            2 
  682000    1.1497739   -6.9597276    242.63665  0.029647684  0.030127243            1 
  683000    1.1361333   -7.0286016    242.48862  0.029586215  0.030120204            4 
  684000    1.1318311   -6.9776467    243.23705  0.029634143  0.030113026            2 
  685000    1.1434797   -6.9566156     243.4183  0.029612932  0.030106165            4 
  686000    1.1451555   -6.9703193     243.5819  0.029589638  0.030098872            5 
  687000    1.1582926   -6.9576952    244.72982   0.02968581  0.030091704            4 
  688000    1.1573257   -6.9218688    245.24428  0.029704976  0.030084867            2 
  689000    1.1557819   -6.9799486    245.19602  0.029656026  0.030077953            5 
  690000    1.1401636    -7.037587    243.91772  0.029458662  0.030070494            5 
  691000    1.1297307   -6.9806109    244.59708   0.02949796  0.030062985            2 
  692000    1.1325927   -6.9784498    245.43564  0.029556316  0.030055259            2 
  693000    1.1366458   -6.9695946     246.1602  0.029600793  0.030047807            4 
  694000    1.1265971   -6.9994846     244.5109  0.029360099  0.030040271            2 
  695000    1.1733908   -6.9814014       245.68  0.029458033  0.030033081            4 
  696000    1.1420415   -6.9747108    247.48726  0.029632095  0.030026065            2 
  697000    1.1324606   -6.9414032    247.80093  0.029627084  0.030019391            3 
  698000    1.1045916   -6.9804994    247.87587  0.029593586  0.030012852            5 
  699000     1.141015   -6.9818268     248.0107  0.029567322  0.030006074            1 
  700000    1.1610765   -6.9766389    248.13995  0.029540471     0.029999            5 
  701000    1.1724163   -6.9963881    248.35434  0.029523816  0.029991949            2 
  702000     1.137032   -6.9282824    249.19624  0.029581699  0.029984693            2 
  703000    1.1507043   -6.9862452    249.41161  0.029565151  0.029977698            6 
  704000    1.1443168   -7.0091031    249.11745  0.029488334  0.029970572            3 
  705000    1.1536895    -7.003334    249.45924  0.029486908  0.029963403            2 
  706000    1.1508335   -6.9406814    250.72334  0.029594351  0.029956532            4 
  707000    1.1499106   -6.9413275    251.24511  0.029613992  0.029949679            2 
  708000    1.1434461   -6.9953414    249.78961  0.029400849  0.029942479            5 
  709000    1.1279824   -7.0376158     249.6884  0.029347485  0.029935067            2 
  710000    1.1439379   -7.0115658     251.1458  0.029477207   0.02992792            2 
  711000     1.111095   -6.9965985    250.67277  0.029380305  0.029920506            3 
  712000     1.133526   -7.0003787    251.00523  0.029377954  0.029913035            2 
  713000    1.1229192   -7.0141233     250.5493  0.029283462  0.029905532            3 
  714000    1.1247804   -6.9563902    251.22258  0.029321029  0.029898007            6 
  715000    1.1301523   -6.9667371    252.03732  0.029374979  0.029890631            1 
  716000    1.1162136    -7.018993    251.59175  0.029282094  0.029882997            5 
  717000    1.1332371   -6.9772043    252.35448  0.029329902  0.029875176            4 
  718000    1.1352407   -7.0347027      252.218  0.029273213  0.029867384            4 
  719000    1.1567891   -6.9415876    253.67297  0.029401133  0.029859815            2 
  720000    1.1000118   -7.0066519    253.07125  0.029290654  0.029852189            2 
  721000    1.1308556   -6.9814479    253.29599  0.029276005  0.029844097            2 
  722000    1.1231061   -6.9952029    253.86691  0.029301351  0.029836425            2 
  723000    1.1368067   -6.9662304    255.11507  0.029404688  0.029828821            2 
  724000    1.1559208   -6.9935128    254.65349  0.029310945  0.029821494            3 
  725000    1.1221333   -6.9481081    255.44435  0.029361419  0.029814277            2 
  726000    1.1071607   -7.0066531    255.18747  0.029291491  0.029806859            2 
  727000    1.1426126   -6.9602132    256.54776  0.029407125  0.029799415            3 
  728000    1.1275635   -6.9725637    257.15008  0.029435678  0.029792242            2 
  729000    1.1388386   -6.9481258    256.79943  0.029355216  0.029785529            2 
  730000    1.1236377     -6.93963    258.54681  0.029514476  0.029778868            3 
  731000     1.136031   -6.9848728    257.91635  0.029402229  0.029772467            2 
  732000    1.1275742   -6.9978594    258.37288  0.029414035   0.02976577            3 
  733000    1.1400327   -6.9918394    258.21168   0.02935558  0.029759161            2 
  734000    1.1231147   -6.9904499    258.38455  0.029335213  0.029752423            2 
  735000    1.1170486   -7.0023825    258.90106  0.029353861   0.02974594            1 
  736000    1.1423402   -6.9725733    258.81347  0.029304061  0.029739545            8 
  737000    1.1297229    -6.965899     259.6062  0.029353935  0.029733293            5 
  738000    1.1276389   -7.0221618    258.64616  0.029205754  0.029726587            3 
  739000    1.1239948   -7.0495616    258.69459  0.029171695  0.029719393            4 
  740000    1.1398443   -6.9173753    261.02304  0.029394487  0.029712725            5 
  741000    1.1480021   -7.0017345    259.38771  0.029170908  0.029706179            2 
  742000     1.163375   -7.0065667    259.91692  0.029191029   0.02969886            4 
  743000    1.1497198    -7.025726    260.87204  0.029258865  0.029691934            3 
  744000    1.1377008    -7.020972    260.91896  0.029224794  0.029684486            1 
  745000    1.1618826   -6.9977228    260.93251  0.029187081  0.029676914            3 
  746000    1.1287064   -7.0535954    260.01145  0.029045068  0.029669136            3 
  747000    1.1269567   -7.0191367    261.72933  0.029197829   0.02966133            3 
  748000    1.1447106   -6.9364522    262.47614  0.029241994  0.029654136            2 
  749000    1.1182472   -7.0197038    261.86125  0.029134541  0.029646779            1 
  750000     1.137756    -6.967665    263.04315  0.029227017  0.029639427            4 
  751000    1.1491656   -7.0265792    261.92445  0.029063964  0.029632086            4 
  752000    1.0982899   -7.0046611    264.35439  0.029294591  0.029625159            3 
  753000    1.1306593   -6.9982274    263.80301  0.029194667  0.029618366            3 
  754000    1.0997152   -7.0251308    264.00499   0.02917827  0.029611546            2 
  755000    1.1403193   -7.0302858    264.10064  0.029150181  0.029604405            3 
  756000    1.1226481   -7.0274503    264.67467  0.029174898    0.0295974            2 
  757000    1.1086125   -6.9892097     265.3385  0.029209434  0.029590561            3 
  758000    1.1724082   -7.0002801    264.74302  0.029105433  0.029583709            2 
  759000    1.1284857   -7.0247398    265.29486  0.029127675  0.029576689            2 
  760000    1.1457272    -7.037463    265.03322   0.02906066  0.029569877            2 
  761000    1.1123972   -7.0303631    265.45722  0.029068902  0.029562818            1 
  762000    1.1415224   -7.0252918    265.31933  0.029015674  0.029555531            2 
  763000    1.1368278   -7.0209959    265.72802  0.029022283  0.029548475            6 
  764000    1.1360462   -6.9769067    266.84731  0.029106382  0.029541386            6 
  765000    1.1374425   -7.0226738    266.46581  0.029026777  0.029534502            2 
  766000    1.1468921   -7.0204892    267.05966  0.029053488  0.029527319            4 
  767000    1.1125782   -7.0715557    266.38368  0.028942164  0.029519693            4 
  768000    1.1327503   -7.0125827    267.99217  0.029079011  0.029512133            2 
  769000    1.1523558   -7.0516162    267.60784  0.028999549  0.029504451            2 
  770000    1.1319101   -6.9939634    269.16854  0.029130794  0.029496641            3 
  771000    1.1332292   -7.0011235    268.11998  0.028979678  0.029489342            2 
  772000    1.1294217   -7.0431899    267.85871  0.028913937   0.02948171            5 
  773000    1.1554681   -6.9944143    269.06272   0.02900633  0.029474092            3 
  774000    1.1200699   -6.9990537    268.89599  0.028950904  0.029466683            2 
  775000    1.0920586   -6.9709646    269.34373  0.028961691  0.029459032            3 
  776000    1.1468504   -7.0072377       270.52  0.029050687  0.029451307            3 
  777000    1.1227419   -7.0402608    269.56835  0.028911235  0.029443843            2 
  778000    1.1463282   -7.0222742    270.71664  0.028997069  0.029436403            3 
  779000    1.1247973    -7.030178    270.23572    0.0289084  0.029428757            3 
  780000    1.1289019   -6.9945116    271.74084  0.029032141  0.029421265            2 
  781000     1.136494   -6.9974168    271.81105   0.02900246   0.02941406            3 
  782000    1.1481029   -6.9917068    272.52224   0.02904116  0.029406798            4 
  783000    1.1021845    -7.033433    272.82392  0.029036177  0.029399753            2 
  784000    1.1366154   -7.0556681    272.97554  0.029015257  0.029392991            5 
  785000    1.0983334   -7.0303061    273.34034  0.029017021   0.02938615            4 
  786000    1.1328322   -6.9863395     274.0395   0.02905423  0.029379439            2 
  787000    1.1191909   -7.0196064    273.84783  0.028997017  0.029372355            3 
  788000    1.1105609   -7.0134005    274.00178    0.0289765  0.029365374            4 
  789000    1.1336298   -6.9904954    274.71896  0.029015522  0.029358294            4 
  790000    1.1321473   -6.9779538    275.49471  0.029060623  0.029351215            2 
  791000    1.1395229   -7.0815245      273.755  0.028840603  0.029344007            1 
  792000     1.134524   -6.9921869    276.06606  0.029047354  0.029336727            2 
  793000    1.1209508   -7.0102729    275.19238  0.028918913  0.029329725            4 
  794000    1.1179202   -7.0494974    275.02102  0.028864507  0.029322745            3 
  795000     1.127356   -7.0316809    275.00665  0.028826693  0.029315229            3 
  796000    1.0863523   -7.0617387    274.89089  0.028778359   0.02930761            3 
  797000    1.1172273   -7.0292263    276.48455  0.028908882  0.029299867            3 
  798000    1.1220013   -7.0451989    276.87476  0.028913405   0.02929256            3 
  799000    1.1416685   -7.0549569     275.7787  0.028762901  0.029284871            8 
  800000    1.1330639   -7.0415116    276.43282  0.028795086  0.029277336            3 
  801000    1.1215089   -7.0450442    276.43778  0.028759653  0.029269874            4 
  802000     1.131937   -7.0596465    277.21635  0.028804691   0.02926255            3 
  803000    1.1331499   -7.0401582    276.73411  0.028718774  0.029254961            2 
  804000    1.1146018   -7.0161927    278.34228  0.028849739   0.02924761            4 
  805000    1.1477561   -7.0903922     277.2448   0.02870029  0.029240252            4 
  806000    1.1156028   -7.0383703    278.89108  0.028834892  0.029232807            2 
  807000    1.1299694    -7.011699    279.51862  0.028863964  0.029225691            4 
  808000     1.124646   -7.0590561    278.96554  0.028771199  0.029218754            2 
  809000     1.129508   -7.0378368    279.82999  0.028824679  0.029211474            5 
  810000    1.1226729   -7.0075927    279.58155  0.028763534  0.029204194            3 
  811000    1.1433741   -7.0420742    279.49055  0.028718716  0.029196978            3 
  812000    1.1191037   -7.0116549    279.63562  0.028698237   0.02918928            1 
  813000    1.1486455   -7.0116466    280.46892  0.028748352  0.029181534            4 
  814000    1.1192315   -7.0850398    279.32444  0.028595868  0.029173721            4 
  815000    1.1308974   -7.0621983     280.5181  0.028682833  0.029166057            5 
  816000    1.1095084   -7.0008482     280.9414  0.028690911  0.029158566            2 
  817000    1.1288044   -7.0223208    280.91419  0.028653018  0.029151043            3 
  818000    1.1003796   -7.0559247    281.59058  0.028686897   0.02914357            4 
  819000    1.1533281   -7.0115203     281.8327  0.028676506  0.029135972            2 
  820000    1.1321404   -7.0389799    282.06144   0.02866478  0.029128475            3 
  821000    1.1209556   -7.0212354    283.33845  0.028759485  0.029121318            7 
  822000    1.1025303   -7.0318514    283.60514  0.028751535  0.029114277            2 
  823000    1.1373635   -7.0426325    283.10112  0.028665565  0.029107107            3 
  824000    1.1110957   -7.0414806    284.90204  0.028812909  0.029100382            3 
  825000    1.0916804   -7.0048435    284.75048  0.028762675  0.029093699            2 
  826000    1.1304387   -7.0751946    284.55737  0.028708371  0.029086815            2 
  827000    1.1245819   -7.0204262    285.55261  0.028773943  0.029079876            8 
  828000    1.1287618   -6.9998527    286.16306   0.02880063   0.02907326            6 
  829000    1.1371475   -7.0301566    285.39799  0.028688982  0.029066554            2 
  830000    1.1187181    -7.027422    286.66833  0.028781961  0.029059857            3 
  831000    1.1114014   -7.0110108    287.14966  0.028795594  0.029053137            5 
  832000    1.1111359   -7.0665944    286.01228  0.028647063  0.029046456           11 
  833000    1.1464346   -7.0550235    286.84807  0.028696286  0.029039445            3 
  834000    1.0908433   -7.0841348    285.86707  0.028563856   0.02903245            3 
  835000    1.1109492   -7.0229982    286.66772  0.028609552  0.029025199            4 
  836000    1.1088818   -7.0225783    287.26667  0.028635035  0.029018087            2 
  837000    1.1108663   -7.1187433    286.89497  0.028563816  0.029010847            3 
  838000    1.0766504    -7.063952    287.25783  0.028565815  0.029003365            2 
  839000    1.1362138   -7.0576927    287.41301  0.028547181  0.028995977            2 
  840000    1.1179401   -7.0284791    288.08079  0.028579443  0.028988638            3 
  841000    1.0964588   -7.0265854    288.13855  0.028551184  0.028981376            2 
  842000    1.1140632   -7.0032432    287.98729  0.028502305  0.028973775            2 
  843000    1.0998167    -7.016228    288.48949  0.028518139  0.028966102            4 
  844000    1.1033113   -7.0129322     288.3543  0.028471001  0.028958453            4 
  845000    1.1260642    -7.056341    288.55807  0.028457403  0.028950832            4 
  846000    1.1275083   -7.0198546    287.95563  0.028364424   0.02894313            2 
  847000    1.1342314   -7.0880873    288.73249  0.028407369  0.028935392            4 
  848000    1.1258453   -7.0481573    289.08057  0.028408075  0.028927613            2 
  849000    1.0960087   -7.0573127    289.15908  0.028382321  0.028919209            3 
  850000    1.1107674   -7.0454067    289.51787  0.028384105  0.028911243            5 
  851000    1.1058661   -7.0519419    289.42897  0.028342046  0.028903078            5 
  852000    1.1051235   -7.0331404    289.81841  0.028346871  0.028894868            2 
  853000    1.1290426   -7.0806337     289.1116  0.028244588  0.028886566            2 
  854000    1.1042448   -7.0568258    290.05385  0.028303459  0.028878251            2 
  855000    1.1285687   -7.0169315    291.00706  0.028363261  0.028870237            2 
  856000    1.1077937   -6.9963005    292.74618  0.028499433  0.028862588            3 
  857000    1.1055176   -7.0297231    292.03327  0.028396856  0.028855015            3 
  858000    1.1378711   -7.0529255    292.31451  0.028391075  0.028846939            2 
  859000    1.1236254    -7.034167    291.48209  0.028277269  0.028838734            2 
  860000    1.1213578   -7.0492426    293.57321  0.028447017  0.028830932            3 
  861000    1.1019187   -7.0117576    293.31421  0.028388909  0.028823135            5 
  862000    1.1167551   -6.9875117    293.90296  0.028412893  0.028815271            1 
  863000    1.1108162   -7.0240317    293.68879  0.028359289  0.028807632            2 
  864000    1.0956745   -7.0387572    293.27961  0.028286999  0.028799665            8 
  865000    1.1274758   -7.0756695    293.24123    0.0282506  0.028791813            7 
  866000    1.1221114   -7.0486101    293.91922   0.02828322  0.028784246            7 
  867000    1.1179384   -7.0648485    293.96073  0.028254587  0.028776763            3 
  868000    1.1044756   -7.0962189    294.76447    0.0282992  0.028769319            4 
  869000    1.0913398   -7.0575093    296.40294  0.028423757  0.028761872            3 
  870000    1.1133407   -7.0473804    296.22049  0.028373611  0.028754467            5 
  871000    1.1118612   -7.0514994    296.51117  0.028368846  0.028747248            4 
  872000    1.1076732   -7.0179177    296.72986  0.028357212   0.02874006            2 
  873000    1.1208511   -7.0332619    296.20039  0.028274188  0.028732685            3 
  874000    1.0969624   -7.0431783    297.56035  0.028371506  0.028725356            4 
  875000    1.1224996   -7.0340441    297.25305  0.028309814  0.028718162            2 
  876000    1.0877388   -7.0559854    297.97884  0.028346541  0.028710957            4 
  877000    1.1247418   -7.0645518    298.02009  0.028318139  0.028703871            2 
  878000    1.0989517   -7.0378488     298.9605  0.028375142  0.028696702            4 
  879000    1.1333052   -7.0386222    299.11357  0.028357373  0.028689448            2 
  880000    1.1369481   -7.0765775    298.09982  0.028229149  0.028682039            3 
  881000    1.1173152   -7.0696664    298.39036   0.02822459  0.028674243            4 
  882000    1.1174126   -7.0606139    298.53003  0.028205785   0.02866644            1 
  883000     1.111481   -7.0264009    299.60272  0.028275077   0.02865858            4 
  884000    1.1119905   -7.1132875    298.40374  0.028130066  0.028650754            2 
  885000    1.0788382   -7.1148686     297.9374  0.028054369   0.02864262            3 
  886000    1.1091832   -7.0723733     298.8762  0.028111005  0.028634405            3 
  887000    1.1214462   -7.0542106    299.03636   0.02809436  0.028626619            3 
  888000    1.1065647   -7.0239884    300.00496  0.028153619  0.028618325            2 
  889000    1.1270132   -7.0966487     300.3077  0.028150328  0.028610145            4 
  890000    1.1213506   -7.0879266    299.69227  0.028061074  0.028601823            2 
  891000    1.1101195   -7.0860178    299.88674  0.028047768  0.028593762            6 
  892000    1.1119659   -7.0483986    301.17846  0.028137001  0.028585636            2 
  893000    1.0669864   -7.0698396    301.06204  0.028094628  0.028577475            2 
  894000    1.0989041   -7.0976695     301.2225   0.02807816  0.028569546            7 
  895000    1.1031816   -7.0540285    301.82752  0.028103121  0.028561574            2 
  896000    1.1144556   -7.0456063    303.17105  0.028196712   0.02855375            1 
  897000     1.128482   -7.0238987     302.6102  0.028113174  0.028546107            4 
  898000    1.1210111    -7.049654    303.51635  0.028165957  0.028538228            3 
  899000    1.0899456   -7.0954356    301.69786   0.02796606  0.028530485            2 
  900000     1.116121   -7.0681594     302.8304  0.028039851  0.028522813            4 
  901000    1.1159422   -7.0197664    304.82645  0.028193345  0.028515443            3 
  902000    1.1048342   -7.0975182    303.73836  0.028061563  0.028507827            3 
  903000    1.1119203   -7.0556751    304.58617  0.028108727  0.028500435            4 
  904000     1.109976   -7.1005437    304.90278   0.02810682  0.028492833            6 
  905000    1.1031879   -7.0790698    305.28928  0.028111352  0.028485239            4 
  906000    1.1237164   -7.0591876    305.72655  0.028120544  0.028478254            2 
  907000    1.0965657   -7.0094457    306.06109  0.028120276  0.028470941            3 
  908000    1.1029509   -7.0503777    306.81218  0.028158239  0.028463516            2 
  909000    1.0763389   -7.0488196    306.41509  0.028090859  0.028456104            4 
  910000    1.1264605   -7.0967474    305.75226  0.027999291  0.028448615            3 
  911000     1.112488   -7.1118116    306.62429  0.028048325   0.02844119            4 
  912000    1.1147226   -7.1060283    306.56502  0.028012155  0.028433658            2 
  913000     1.099353   -7.0726018    307.91908  0.028105064  0.028426268            4 
  914000    1.1014462   -7.1033483    308.69192  0.028144777  0.028418931            4 
  915000    1.1117964   -7.0670323    307.09717  0.027968777  0.028411427            4 
  916000    1.1026982   -7.0726398    308.69266  0.028083393  0.028404175            3 
  917000    1.1265244   -7.1172486    308.26671  0.028014059  0.028397054            3 
  918000    1.1122568   -7.0383793     308.5823  0.028012191  0.028389869            1 
  919000    1.1268648   -7.0909066    308.92424  0.028012717  0.028383022            2 
  920000    1.0855325   -7.1144599    309.29486  0.028015838  0.028375999            7 
  921000    1.1129914   -7.1378797    308.53093  0.027916299  0.028368553            4 
  922000    1.1060546   -7.1117888    309.38512  0.027963224  0.028361258            1 
  923000    1.0781065   -7.0772447    310.28208  0.028013911   0.02835421            3 
  924000    1.1244468   -7.0819055    311.14213  0.028061159   0.02834745            3 
  925000    1.0885851   -7.0744069     310.6573  0.027987144  0.028340787            3 
  926000    1.1044509   -7.1108131    311.36866  0.028020937  0.028333719            3 
  927000    1.1066156   -7.1182229    311.10926  0.027967391  0.028326594            5 
  928000    1.0868393   -7.1286764    311.92606  0.028010602  0.028319494            7 
  929000    1.0937838   -7.1037277    312.26772  0.028011098  0.028312486            5 
  930000    1.1106911   -7.0297232    312.54887  0.028006171  0.028305787            6 
  931000    1.1319212   -7.0950729    311.86693  0.027915049  0.028298797            4 
  932000    1.1118793   -7.1277887    312.08485  0.027904582  0.028291484            3 
  933000     1.085915   -7.1085011     313.0578  0.027961576  0.028284136            2 
  934000    1.0948101   -7.0873434    312.77559  0.027906459   0.02827687            3 
  935000    1.0916386   -7.1032041    314.24605  0.028007669  0.028269625            3 
  936000    1.1020092   -7.0949368    313.68001  0.027927351  0.028262451           11 
  937000    1.1052551   -7.0997169    313.87472  0.027914863  0.028255311            3 
  938000    1.0975432   -7.0798109    314.50637   0.02794122   0.02824856            3 
  939000    1.0883832   -7.0771279    314.81071  0.027938472  0.028242125            3 
  940000    1.1152244   -7.0781525    316.46656  0.028055546   0.02823564            3 
  941000    1.1105756   -7.0938948    314.88686  0.027885836  0.028229083            6 
  942000    1.1054717   -7.0895461    316.15744  0.027968634  0.028222516            3 
  943000    1.0924528   -7.0462617    317.43419  0.028051802  0.028216196            4 
  944000    1.1078726   -7.0866435    316.60419  0.027948817  0.028209591            4 
  945000    1.1080827   -7.1102804    316.71323  0.027928856   0.02820307            4 
  946000    1.1047803   -7.0817898    318.50239   0.02805694   0.02819661            6 
  947000      1.12918   -7.0038909    319.01763  0.028072653  0.028190427            3 
  948000    1.1161471   -7.0626739    318.53837  0.028000911  0.028184187            1 
  949000    1.1261798   -7.0783594    317.67505  0.027895597  0.028177723            3 
  950000    1.1088981   -7.0566787     319.0626  0.027987948  0.028171284            4 
  951000    1.0937358   -7.0753104    318.68729   0.02792563   0.02816499            2 
  952000    1.0755299    -7.098512    319.80459    0.0279941  0.028158482            5 
  953000    1.0971903   -7.0835021    320.38818  0.028015755  0.028151819            2 
  954000    1.1014168   -7.0900269    319.55423  0.027913542   0.02814545            3 
  955000    1.0881386   -7.0740069    319.97147  0.027920722   0.02813913            3 
  956000    1.0845824   -7.1203628    319.88834   0.02788427  0.028132298            4 
  957000    1.1245816   -7.0737724    320.15657  0.027878489  0.028125542            5 
  958000    1.1093734   -7.1328222    318.90105  0.027740175  0.028118688            4 
  959000    1.0811021   -7.0898562    319.69937  0.027780619  0.028111836            2 
  960000    1.1032515   -7.0803926     320.8259  0.027849471  0.028104946            2 
  961000    1.1109049   -7.0957874    321.18089  0.027851274  0.028098099           10 
  962000    1.0837302    -7.115524    320.34047  0.027749521  0.028091153            2 
  963000    1.1180837   -7.1261785    321.69177   0.02783764  0.028084265            5 
  964000    1.1153891   -7.1067472     322.2882  0.027860321  0.028077512            2 
  965000      1.09568   -7.1070258    322.28611   0.02783127  0.028070895            4 
  966000    1.1023344   -7.1229227    322.46967  0.027818295  0.028064238            3 
  967000    1.1122134   -7.0550615    323.46441  0.027875251  0.028057538            5 
  968000    1.1085879   -7.0871869    323.44825  0.027845063   0.02805106            3 
  969000    1.0973288   -7.0908951    324.79211  0.027931898  0.028044954            4 
  970000    1.1126698     -7.11053    324.05063  0.027839401  0.028039128            4 
  971000    1.0958046   -7.0916384    324.45017   0.02784502  0.028032936            2 
  972000    1.0921459   -7.1165468    324.11194  0.027787375   0.02802659            2 
  973000    1.0816235   -7.1123491    325.03721  0.027838062  0.028020054            1 
  974000    1.0991001   -7.0664085    325.85611  0.027879544   0.02801357            2 
  975000    1.0817495   -7.0793951    325.17251  0.027792522  0.028007538            3 
  976000    1.1254202   -7.1512962    324.52859  0.027709066  0.028001041            2 
  977000    1.0822212   -7.1371729    324.66652   0.02769247   0.02799441            2 
  978000    1.0867593   -7.0764466    326.34345  0.027807042  0.027987897            4 
  979000    1.1067657   -7.1405228     326.1399  0.027761313  0.027981446            6 
  980000    1.1020498   -7.0885476    325.94351  0.027716285  0.027975012            9 
  981000    1.0697394   -7.0465861    326.60697  0.027744391  0.027968518            3 
  982000    1.1432556   -7.1167308    327.15185  0.027762377  0.027961726            2 
  983000    1.1125875   -7.1129091    327.22289  0.027740157  0.027955089            3 
  984000    1.1050663   -7.1002424    327.58782  0.027742871  0.027948264            5 
  985000    1.1139774   -7.0746781    328.05953  0.027754613  0.027941925            1 
  986000     1.102971    -7.065654    329.16984  0.027820304  0.027935773            2 
  987000    1.0874754   -7.1041682    328.27272  0.027716373  0.027929381            4 
  988000    1.1045791   -7.1036439    329.10836  0.027758802  0.027923066            2 
  989000     1.095575   -7.0925134     329.9229  0.027799368   0.02791696            3 
  990000    1.1001427   -7.1247779     328.7606  0.027673451  0.027910829            2 
  991000    1.0867628   -7.1309259     329.0239  0.027667667  0.027904564            3 
  992000    1.0880678   -7.1184387     330.8056  0.027789449  0.027898258            4 
  993000    1.0879918   -7.1084058    330.43783    0.0277306  0.027892223            5 
  994000      1.08447   -7.0851568    331.60331  0.027800412  0.027885941            6 
  995000     1.115808   -7.0657608    332.23647    0.0278255  0.027879969            5 
  996000    1.1127703   -7.0707243    331.04874  0.027698188  0.027874244            1 
  997000    1.0833896   -7.1246084    332.10489  0.027758683  0.027868302            2 
  998000    1.0562324    -7.144098    330.59392  0.027604703   0.02786217            3 
  999000    1.0764429    -7.088722    332.05812  0.027699209  0.027855879            3 
 1000000     1.092982   -7.1267361     331.4228  0.027618566   0.02784945            4 
 1001000    1.0853914   -7.1139546    332.47077  0.027678219  0.027842897            2 
 1002000      1.07386    -7.112594    332.38143  0.027643166  0.027836257            4 
 1003000    1.1059652   -7.1414564    332.46769  0.027622772  0.027829662            2 
 1004000    1.0835081    -7.170527    331.55435  0.027519452  0.027822847            4 
 1005000    1.0770379   -7.1056848    333.29354   0.02763628  0.027816037            2 
 1006000    1.0909782   -7.1651263    332.63276  0.027554072  0.027809438            2 
 1007000    1.1110323   -7.1104999    333.07606  0.027563395  0.027802893            3 
 1008000    1.1160985   -7.1649326    333.10853  0.027538734  0.027796254            3 
 1009000    1.0839488   -7.1784058    332.92423   0.02749622  0.027789466            2 
 1010000    1.0936454   -7.1119249     333.9941  0.027557269  0.027782753            4 
 1011000    1.0821725   -7.1046629     333.9379  0.027525379  0.027776092            3 
 1012000    1.0927676   -7.1186325    333.78663  0.027485724  0.027769498            4 
 1013000    1.0801602   -7.1479816    335.43964  0.027594574  0.027762853            3 
 1014000     1.079049   -7.1127249    334.10709  0.027457848  0.027756227            3 
 1015000    1.0737233   -7.1368077     334.3961  0.027454524  0.027749537            4 
 1016000    1.1129517   -7.1375422    336.04761   0.02756296  0.027742852            2 
 1017000    1.0957644   -7.0824461    336.30118  0.027556636  0.027736212            3 
 1018000    1.1007541   -7.1113181    336.48535  0.027544642  0.027729746            3 
 1019000     1.095957   -7.1464603    336.07109  0.027483733  0.027722991            4 
 1020000    1.1150736   -7.1778064    336.11114  0.027460061  0.027716307            2 
 1021000    1.0859797   -7.1251892    336.98766  0.027504706  0.027709621            5 
 1022000     1.081788    -7.090392    337.26411  0.027500335  0.027703035            2 
 1023000    1.0927197   -7.0838204    338.08617  0.027540418  0.027696526            4 
 1024000    1.0988088   -7.1562842    338.03763  0.027509573  0.027690147            2 
 1025000    1.0861431   -7.0956927    338.49875  0.027520224  0.027683586            3 
 1026000    1.1093286   -7.1559408    337.65573   0.02742493  0.027676829            2 
 1027000    1.0553107   -7.1234655    338.26422  0.027447599  0.027670237            3 
 1028000    1.0886898   -7.1157456    339.67837  0.027535536  0.027663851            5 
 1029000    1.0889686   -7.1490419    339.37264  0.027484017  0.027657672            2 
 1030000    1.0962674   -7.0844229    339.71852  0.027485317  0.027651253            2 
 1031000    1.1244729   -7.1328688    340.05745  0.027486053  0.027645119            6 
 1032000      1.05106   -7.1124021    339.94146  0.027450053  0.027638484            4 
 1033000    1.0767982    -7.130812    339.47058  0.027385494  0.027632121            3 
 1034000    1.0846717   -7.1621733    339.19317  0.027336651  0.027625516            2 
 1035000    1.0736342   -7.1392855    339.77866   0.02735738  0.027618994            3 
 1036000    1.0922756   -7.1079793     341.4905   0.02746867  0.027612459            2 
 1037000    1.1031604   -7.1347535    340.78819  0.027385743  0.027605782            6 
 1038000    1.0808447   -7.1402212    340.34497  0.027323777  0.027599095            2 
 1039000    1.0962892   -7.1205361    340.93698  0.027344962  0.027592437            3 
 1040000    1.0825094   -7.1274348    341.44698  0.027359533   0.02758578            5 
 1041000    1.1019037   -7.1700738    342.08582  0.027384392  0.027579154            3 
 1042000     1.082329    -7.135071     342.5735  0.027397113  0.027572726            4 
 1043000    1.0643925    -7.159319    342.12137  0.027334722  0.027566372            5 
 1044000    1.0942112   -7.1569699    342.51254  0.027339762  0.027559832            2 
 1045000    1.0804468   -7.1427383    343.54318  0.027395788  0.027553365            5 
 1046000    1.0698774   -7.1177744    342.75714  0.027306974  0.027546846            5 
 1047000    1.0967989   -7.1370742    342.73894  0.027279444  0.027540359            3 
 1048000    1.0727577   -7.1284945    343.38767  0.027304999  0.027533799            3 
 1049000    1.0858823   -7.1303896    344.96381   0.02740418   0.02752723            4 
 1050000    1.1068251   -7.1642811    343.15415  0.027234456  0.027520755            4 
 1051000    1.0847328   -7.1094825     345.4605  0.027391413  0.027514219            2 
 1052000    1.0704831   -7.1552264    344.38411   0.02728011  0.027507451            3 
 1053000    1.0905059   -7.1569214    345.64535  0.027354016  0.027500763            3 
 1054000    1.1031472   -7.1546779    344.53141  0.027239992  0.027494074            3 
 1055000    1.0829454   -7.1515879    344.11246  0.027181079  0.027487302            5 
 1056000    1.0745892   -7.2146164    343.44309  0.027102517  0.027480471            2 
 1057000    1.0986668   -7.0811998    346.71557  0.027334876  0.027473945            1 
 1058000    1.1152511   -7.1547435    345.30679  0.027198078  0.027467628            3 
 1059000    1.0786281    -7.200112     346.1502  0.027238763  0.027461358            7 
 1060000    1.0733562   -7.1023033    347.91804  0.027352047  0.027454949            5 
 1061000    1.0522615   -7.1112001    347.48341  0.027292131   0.02744864            2 
 1062000    1.0710526   -7.1510609     347.9737  0.027304905   0.02744221            3 
 1063000    1.0765129   -7.1504688    348.47553  0.027318558  0.027435742            4 
 1064000    1.0761825   -7.2154108    346.74741  0.027157535  0.027429351            3 
 1065000    1.0712868   -7.1823873    347.56011  0.027195627  0.027422859            2 
 1066000    1.0635456   -7.1441212    348.85976  0.027271714  0.027416549            2 
 1067000    1.0958677   -7.1131647    349.42465  0.027290273  0.027410178            3 
 1068000    1.1015296   -7.1011153    350.22235  0.027326962  0.027403897            7 
 1069000    1.0948386   -7.1581986    349.14681  0.027217556  0.027397312            5 
 1070000    1.1115326   -7.1145875    348.89977   0.02717288  0.027390532           10 
 1071000    1.0707489   -7.1527273    348.58907  0.027123333  0.027383867            5 
 1072000     1.085818   -7.1136961    350.31769  0.027232407  0.027376931            2 
 1073000    1.0726822   -7.1420058    348.95967  0.027101559  0.027370142            2 
 1074000    1.0946164   -7.1387603    349.11392  0.027088293  0.027363293            4 
 1075000    1.0744514   -7.1346133    350.48168  0.027169123  0.027356447            3 
 1076000    1.0780458   -7.1508978    349.01494  0.027030277   0.02734957            2 
 1077000     1.093921   -7.1440908    350.49747  0.027119891  0.027342628            4 
 1078000    1.0812429   -7.1686004    350.24152  0.027074948    0.0273355            5 
 1079000    1.0843216   -7.1419878    350.52959  0.027072103  0.027328396            1 
 1080000    1.0819371   -7.1608138    350.39229  0.027036442  0.027321481            2 
 1081000    1.0896375   -7.1146248     351.7805  0.027118447  0.027314681           11 
 1082000    1.0680288   -7.1302869    351.26234  0.027053477  0.027307852            5 
 1083000    1.0899588   -7.1616518    351.07744  0.027014269  0.027300983            5 
 1084000    1.0829271   -7.1538844    353.43778  0.027170801   0.02729438            4 
 1085000    1.0883186   -7.1776322    351.95083  0.027031554  0.027287787            3 
 1086000    1.0814121   -7.1617842    353.62292  0.027134969  0.027281099            6 
 1087000    1.0700611   -7.1386021    352.64897  0.027035339  0.027274594            6 
 1088000    1.0936979   -7.1218558    354.17763  0.027127575  0.027268205            2 
 1089000    1.0663974   -7.1542886    353.72887  0.027068325  0.027261758            9 
 1090000    1.0916963   -7.1284641    353.48325  0.027024714  0.027255313            3 
 1091000    1.0724687   -7.0927997     353.9705   0.02703716  0.027248647            5 
 1092000    1.0974218   -7.1294435     353.9253  0.027008951  0.027242008            3 
 1093000    1.0643194   -7.1581408    355.22475  0.027083315  0.027235434            6 
 1094000    1.0569603   -7.1214586     354.1316  0.026975289  0.027228747            1 
 1095000    1.0782954   -7.1704233    353.83789  0.026928302  0.027221894            3 
 1096000    1.0678289   -7.1706189    353.96213  0.026913179  0.027214918            3 
 1097000    1.0591142    -7.183072    353.81898  0.026877771  0.027207891            5 
 1098000    1.0764331   -7.2506671    352.86273  0.026780718  0.027200647            2 
 1099000    1.0580167   -7.1865922    353.55047  0.026808498  0.027193194            5 
 1100000    1.0843687   -7.1991454    352.50111  0.026704629  0.027185761            2 
 1101000    1.0846153   -7.1069627    354.32726  0.026818594  0.027178007            2 
 1102000    1.0838301   -7.1851109    354.23453  0.026787245  0.027170432            4 
 1103000    1.0622852   -7.1789565    354.61705  0.026791859  0.027162961            4 
 1104000    1.0511054   -7.1251848    356.42134  0.026903785  0.027155446            2 
 1105000    1.0686389   -7.1520044    354.83216   0.02675959  0.027148016            3 
 1106000    1.0574177   -7.2048391    354.06141  0.026677322  0.027140378            5 
 1107000    1.0737871   -7.2206862     355.1452  0.026734809  0.027132601            2 
 1108000    1.0749969   -7.1439189     356.0255  0.026776888  0.027125052            3 
 1109000    1.0618229   -7.1091082    356.64312  0.026799152  0.027117753           11 
 1110000    1.0618907   -7.1750111    355.80879  0.026712372  0.027110298            4 
 1111000    1.0635738   -7.1392392    358.16025  0.026864705  0.027102716            4 
 1112000    1.0635331   -7.1643139    356.49566  0.026715802  0.027095439            7 
 1113000    1.0602748   -7.1602655    355.62539  0.026626639  0.027087716            4 
 1114000    1.0583067    -7.168883    356.86343  0.026695349  0.027080072            2 
 1115000     1.097102   -7.1671746    357.51761    0.0267203  0.027072435            5 
 1116000    1.0674714   -7.1486301    358.85275  0.026796054  0.027064968            4 
 1117000    1.0842314   -7.1282716    358.07886  0.026714328  0.027057518            4 
 1118000    1.0714597   -7.1553416    357.79008  0.026668909  0.027050031            2 
 1119000    1.0803999   -7.2071264    358.28247  0.026681745  0.027042484            5 
 1120000     1.082866   -7.1268282     358.9461  0.026707299  0.027035053            2 
 1121000     1.072346   -7.1672868    359.33791  0.026712601  0.027027627            6 
 1122000    1.0898444   -7.1915582    358.70191  0.026641556  0.027020035            3 
 1123000    1.0401588   -7.1711063    359.60709  0.026685003  0.027012542            4 
 1124000    1.0667952   -7.2006293    359.20385  0.026631365  0.027005043            7 
 1125000    1.0856666   -7.1915749    358.64473  0.026566276  0.026997581            5 
 1126000    1.0660651   -7.1475801    360.48033  0.026678532  0.026989975            4 
 1127000    1.0581124   -7.1687422    360.16248  0.026631358  0.026982516            3 
 1128000    1.0850398   -7.1344483    360.53831  0.026635514  0.026974928            7 
 1129000    1.0821978   -7.1555627    360.02391  0.026573953  0.026967462            3 
 1130000    1.0830561   -7.1882392    360.13581  0.026558688  0.026959813            4 
 1131000    1.0658546   -7.1529595    360.29597  0.026547007  0.026951912            2 
 1132000    1.0891384   -7.1807125    360.21654  0.026517707  0.026944327            3 
 1133000    1.0693916    -7.203541    360.81858  0.026538583  0.026936574            2 
 1134000    1.0835758   -7.1693967    360.98567  0.026527459  0.026928809            6 
 1135000    1.0738593   -7.1933386    362.09648  0.026585644  0.026921292            3 
 1136000    1.0565241   -7.1793246    362.79912  0.026613785  0.026913918            3 
 1137000    1.0868495   -7.2179828     361.9091  0.026525147  0.026906432            3 
 1138000     1.062789   -7.1657616    363.45436  0.026614994  0.026898912            4 
 1139000    1.0795304   -7.1423564    363.73011  0.026611802  0.026891444            4 
 1140000    1.0685185   -7.1853268    362.26578  0.026481416  0.026884019            8 
 1141000    1.0690533   -7.1497198    363.62504  0.026557482  0.026876509            4 
 1142000    1.0683803   -7.1547415    363.90459  0.026554625  0.026868954            2 
 1143000    1.0671677   -7.2184988    363.07591  0.026470976  0.026861251            5 
 1144000    1.0700509   -7.1851002    362.38376  0.026397418  0.026853391            4 
 1145000    1.0653817   -7.1821321    363.89861  0.026484615  0.026845659            5 
 1146000    1.0710626    -7.156562    363.93299  0.026464004  0.026837821            7 
 1147000    1.0584755   -7.1392505    365.28629  0.026539254  0.026830303            7 
 1148000    1.0605546   -7.1411534    364.43703  0.026454488  0.026822699            6 
 1149000    1.0510643   -7.2293117    363.64533  0.026374045  0.026815115            2 
 1150000    1.0608478   -7.1476938    364.88964  0.026441278  0.026807304            3 
 1151000    1.0777331   -7.1659943    366.12237  0.026507556  0.026799866            6 
 1152000    1.0858246   -7.1936103      364.195  0.026345124  0.026792231            3 
 1153000    1.0851191   -7.1937759    365.26898  0.026399898  0.026784486            3 
 1154000    1.0575448   -7.2095999    364.61289  0.026329642  0.026776738            5 
 1155000    1.0508378   -7.1967443    364.77374  0.026318452  0.026768958            4 
 1156000    1.0848717    -7.174126    365.96411  0.026381496  0.026761362            4 
 1157000    1.0565697   -7.2016829    366.35481  0.026386834  0.026753957            2 
 1158000    1.0635562   -7.1789754    366.42812  0.026369324  0.026746273            4 
 1159000    1.0677977   -7.1716919    365.84552  0.026304682  0.026738525            7 
 1160000    1.0668887   -7.1887645    365.98725  0.026292187  0.026730588            2 
 1161000     1.077873   -7.2465799    365.82604   0.02625797   0.02672287            3 
 1162000    1.0617567   -7.2449173    366.09432  0.026254612   0.02671512            3 
 1163000    1.0533464   -7.2180097    366.76872  0.026280361   0.02670739            4 
 1164000    1.0648675   -7.2115174    367.80514  0.026331983  0.026699471            5 
 1165000    1.0607792   -7.1887309    367.36422  0.026277841  0.026691585            2 
 1166000    1.0500851   -7.1995422    367.86438  0.026291051  0.026683722            3 
 1167000    1.0745781   -7.2023157    367.88977  0.026270335  0.026675887            6 
 1168000    1.0628017   -7.1707529    368.34553  0.026280361  0.026668206            4 
 1169000    1.0707061   -7.1557728    368.90998  0.026298117  0.026660321            1 
 1170000     1.070975   -7.1866806    368.29621  0.026231923  0.026652394            3 
 1171000    1.0643204   -7.1661396     369.5936  0.026301851  0.026644532            3 
 1172000    1.0727347   -7.2161807    368.78313  0.026221781  0.026636716            9 
 1173000    1.0878487   -7.2147585    370.00474  0.026286214  0.026628877            3 
 1174000    1.0519915   -7.1888226     370.3071  0.026285285  0.026621092            4 
 1175000    1.0576741   -7.1884005    369.98183  0.026239846  0.026613429            3 
 1176000    1.0473146   -7.1723238    370.21106  0.026233777  0.026605806            2 
 1177000    1.0633113   -7.1919289     369.6773  0.026173697  0.026597979            4 
 1178000    1.0577146   -7.1939752    370.31089  0.026196299  0.026590126            4 
 1179000    1.0656525   -7.2168061    370.88309  0.026214524  0.026582297            4 
 1180000    1.0568082    -7.166106    371.79535  0.026256734  0.026574616            3 
 1181000    1.0416168   -7.1974204    372.56979  0.026289147  0.026567046            4 
 1182000    1.0655853   -7.2115836    371.03493  0.026158695  0.026559392            4 
 1183000    1.0549113   -7.1819552    371.42166  0.026163825  0.026551723            2 
 1184000    1.0422884   -7.2208467    372.88321  0.026244596  0.026544198            5 
 1185000     1.053943   -7.2113204     373.4959  0.026265534  0.026536844            4 
 1186000     1.070016   -7.2136597     372.3186  0.026160666  0.026529303            4 
 1187000    1.0718399   -7.2051847     372.7904   0.02617175  0.026521594            3 
 1188000    1.0536773   -7.1853932     373.8912  0.026226936  0.026514111            2 
 1189000    1.0843337   -7.2103818    373.23359  0.026158788  0.026506762            2 
 1190000    1.0530066   -7.1944374    373.79351  0.026176016   0.02649943            8 
 1191000    1.0920503   -7.2394141    373.10203  0.026105656  0.026491947           11 
 1192000    1.0440795   -7.2115534    374.28713  0.026166606  0.026484587            1 
 1193000    1.0606377   -7.1698566    375.10382   0.02620172  0.026477285            3 
 1194000    1.0475825   -7.1966369     375.1183  0.026180786  0.026470013            3 
 1195000    1.0775593      -7.1881    375.45794  0.026182562  0.026462536            5 
 1196000     1.063612   -7.2027066    374.96842  0.026126562  0.026455106            5 
 1197000    1.0684441   -7.2232552    374.63543  0.026081553  0.026447506            2 
 1198000    1.0480671   -7.2140626    375.19715  0.026098856  0.026439863            2 
 1199000    1.0636075   -7.2243456    375.74584  0.026115224  0.026432091            2 
 1200000    1.0764538   -7.1976423    375.35688   0.02606645  0.026424628            2 
 1201000    1.0622129   -7.2223183    374.49264   0.02598478  0.026417134            3 
 1202000    1.0626821   -7.1769433    377.30065  0.026157838  0.026409628            6 
 1203000    1.0373715   -7.1748168    377.24401   0.02613217  0.026402269            5 
 1204000    1.0363889   -7.2133018    376.70542  0.026073188  0.026394826            4 
 1205000    1.0549629    -7.189089    377.28494  0.026091628  0.026387185            4 
 1206000    1.0591409   -7.1864095    377.73453  0.026101059  0.026379651            2 
 1207000     1.054545   -7.2654391    376.11441  0.025967579  0.026372104            1 
 1208000    1.0528994   -7.2209007     377.0849  0.026013031  0.026364552            4 
 1209000    1.0689918   -7.2247597    377.08777  0.025991713  0.026356746            3 
 1210000    1.0613175   -7.2354425    376.81594  0.025951511  0.026348922            3 
 1211000    1.0661417   -7.1942494    379.23207  0.026096344  0.026341196            4 
 1212000    1.0511738   -7.2271546    377.66124  0.025966807  0.026333649            4 
 1213000    1.0384218   -7.2039882    378.90723     0.026031   0.02632609            4 
 1214000    1.0636976   -7.1965268    379.47474  0.026048513  0.026318667            3 
 1215000    1.0583471   -7.2033893    378.27473  0.025944769  0.026311169            1 
 1216000    1.0515967   -7.2347461    378.99132  0.025972541  0.026303389            4 
 1217000    1.0805111   -7.2186411    379.86285  0.026010877  0.026295719            3 
 1218000     1.055654   -7.2192929     379.9314  0.025994212  0.026287978            4 
 1219000    1.0574103   -7.1931145    379.74082  0.025959859  0.026280303            2 
 1220000    1.0560651   -7.2038063     380.5677  0.025995061  0.026272681            5 
 1221000    1.0474724   -7.1605632    381.67164  0.026049115  0.026265175            3 
 1222000    1.0301869   -7.2290019    380.25889  0.025931457  0.026257677            2 
 1223000    1.0472837   -7.1754942    381.05895  0.025964769  0.026250185            3 
 1224000    1.0540425   -7.2199288    380.58879  0.025911546   0.02624261            7 
 1225000    1.0536739   -7.2086508    380.13457  0.025859494  0.026235007            3 
 1226000    1.0494105    -7.268937     380.4421  0.025859305  0.026227348            6 
 1227000    1.0317557   -7.2457374    380.68668  0.025854841  0.026219472            6 
 1228000    1.0721127   -7.2178104    380.86586  0.025845946  0.026211885            4 
 1229000    1.0597801   -7.2382603    380.56863  0.025804762  0.026204101            2 
 1230000    1.0733839   -7.2109665     381.7529  0.025864017  0.026196436            2 
 1231000    1.0547564   -7.2129654    382.39682  0.025886598  0.026188803            3 
 1232000      1.08689   -7.2236752    382.71942  0.025887407  0.026181165            7 
 1233000    1.0741964   -7.2402383    381.50024  0.025784012  0.026173585            3 
 1234000    1.0646227   -7.2294403    382.75495  0.025847849  0.026166025            3 
 1235000    1.0730254   -7.1813762     383.4169  0.025871586  0.026158597            4 
 1236000    1.0645468   -7.2016686    383.86381  0.025880785  0.026151252            4 
 1237000    1.0454263   -7.2190648    383.86772  0.025860127  0.026143796            2 
 1238000    1.0507143   -7.2226813    382.45078  0.025743859   0.02613637            2 
 1239000    1.0517922    -7.224328    382.50453  0.025726697  0.026128651            3 
 1240000     1.071025    -7.213148    383.15656  0.025749769  0.026120954            6 
 1241000    1.0483515   -7.2453049    384.14983  0.025795718   0.02611317            3 
 1242000    1.0337693   -7.1910071    384.18794  0.025777505  0.026105426            4 
 1243000    1.0572671   -7.2049269    384.52336  0.025779254  0.026097815            9 
 1244000    1.0657785   -7.2024867    383.83906  0.025712692  0.026090147            5 
 1245000    1.0761336   -7.2345135    384.66421   0.02574727  0.026082493            4 
 1246000    1.0497788   -7.2411815    383.73785   0.02566465  0.026074595            5 
 1247000     1.052741   -7.2291591    384.25989  0.025678955  0.026066623            4 
 1248000    1.0601541    -7.213133    384.92787  0.025702983  0.026058784            3 
 1249000    1.0364277   -7.2441983    385.05315  0.025690763  0.026050938            4 
 1250000     1.064565   -7.2257086    385.83371  0.025722247  0.026043213            4 
 1251000    1.0378879   -7.1859172    386.94385  0.025775636  0.026035666            3 
 1252000     1.042698   -7.2126081    386.08414  0.025697826  0.026028194            3 
 1253000    1.0480564      -7.2284    386.63862  0.025714194  0.026020714            8 
 1254000    1.0922954    -7.282641    386.77031   0.02570244  0.026012961            3 
 1255000    1.0467207   -7.2352719    386.63735  0.025673131  0.026005378            7 
 1256000    1.0508366   -7.1959865    387.42335   0.02570484  0.025997868            2 
 1257000    1.0644085   -7.2221119    387.54794   0.02569265  0.025990416            3 
 1258000    1.0553094   -7.1849279    388.85318   0.02575869  0.025983022            4 
 1259000    1.0532627   -7.2721564    386.62661  0.025590853  0.025975449            6 
 1260000    1.0564322   -7.2287621    388.49732  0.025694267  0.025967731            2 
 1261000    1.0323613   -7.2548636    387.94537  0.025637416  0.025959895            2 
 1262000    1.0519908   -7.2537243    386.85291  0.025544962  0.025952096            2 
 1263000    1.0530562   -7.2289291    388.58057  0.025638729   0.02594443            3 
 1264000    1.0310141   -7.2274185    388.96049  0.025643492  0.025936689            3 
 1265000     1.058253   -7.2404097    388.12521  0.025568196  0.025928874            3 
 1266000    1.0380667   -7.2474906    387.35941  0.025497592   0.02592111            3 
 1267000    1.0687618   -7.2280849    389.69946  0.025631377  0.025913313            8 
 1268000    1.0400777   -7.2223857    388.86686  0.025556445  0.025905646            3 
 1269000    1.0523136   -7.2269384    389.19273  0.025557705  0.025898171            2 
 1270000    1.0510074   -7.2334764    389.51445  0.025558691  0.025890551            5 
 1271000     1.041119   -7.2161223    391.01407  0.025636905  0.025883032            3 
 1272000    1.0360109   -7.1964761    391.21465  0.025629891  0.025875527            4 
 1273000    1.0326697   -7.2480649    390.22423  0.025544922  0.025868135            5 
 1274000    1.0561267   -7.2347266    390.65694  0.025553175  0.025860668            4 
 1275000    1.0492301   -7.2355331    390.34601  0.025512811   0.02585314            5 
 1276000    1.0165637   -7.2252967    391.00236  0.025535682  0.025845699            6 
 1277000     1.077174   -7.2148111    391.38302  0.025540526  0.025838041            2 
 1278000    1.0674607   -7.2534481    390.74852  0.025479168  0.025830226            5 
 1279000    1.0281825   -7.2176838    390.37519  0.025434923  0.025822453            3 
 1280000     1.028571   -7.2145447    392.94959  0.025582656  0.025814704            1 
 1281000    1.0435386   -7.2179103    391.86772  0.025492306  0.025807057            2 
 1282000    1.0661739   -7.2215891    393.09254  0.025552037  0.025799451            9 
 1283000    1.0643663   -7.2033039     392.6496  0.025503351  0.025791783            3 
 1284000    1.0616748   -7.2050084    391.81044  0.025429027  0.025784126            4 
 1285000     1.042152    -7.175817    393.18832  0.025498594  0.025776551            6 
 1286000    1.0779976   -7.2730773    391.11297  0.025344283  0.025768818            5 
 1287000    1.0604623   -7.2464943    391.41565  0.025344189  0.025761022            6 
 1288000    1.0348318   -7.2367362    392.52348  0.025396188  0.025753276            2 
 1289000    1.0440123   -7.2235788    394.05393  0.025475429  0.025745714            2 
 1290000     1.055049   -7.1900703    394.15235  0.025462038   0.02573816            3 
 1291000    1.0664159   -7.2585904    393.75052  0.025416377  0.025730427            5 
 1292000    1.0394204   -7.2229987    392.95555   0.02534543  0.025722593            8 
 1293000    1.0486866   -7.2607442    393.83929  0.025382785  0.025715001            2 
 1294000    1.0518596   -7.2461574    394.56043   0.02540961  0.025707255            3 
 1295000    1.0311164   -7.2742765    393.30967  0.025309502  0.025699435            4 
 1296000    1.0415055   -7.2812931    393.67919  0.025313734  0.025691621            5 
 1297000    1.0284728   -7.2341825    393.87995  0.025307116  0.025683794            5 
 1298000    1.0355268   -7.2597381    394.51838  0.025328607  0.025676011            4 
 1299000    1.0336979   -7.2564702    394.59943  0.025314308  0.025668126            6 
 1300000    1.0567808   -7.2462955    396.02962  0.025386514  0.025660417            2 
 1301000    1.0592423   -7.2190845    396.24951  0.025381086  0.025652682            4 
 1302000    1.0412335    -7.241065    395.07508  0.025286424     0.025645            4 
 1303000    1.0376684   -7.2245879    396.53967  0.025360685  0.025637353            5 
 1304000    1.0149246   -7.2506453    396.39894  0.025332243    0.0256297           12 
 1305000    1.0531039   -7.2578601    395.28775  0.025241874  0.025621995            4 
 1306000    1.0490288   -7.2868287    396.16108  0.025278272  0.025614173            3 
 1307000    1.0303521   -7.2317174    398.32279  0.025396761  0.025606447            4 
 1308000    1.0448444   -7.2828675    396.65309  0.025270967  0.025598662            6 
 1309000    1.0493702   -7.2588606    396.95393  0.025270813  0.025590803            4 
 1310000    1.0251024    -7.294777    396.26803   0.02520789  0.025583033            3 
 1311000    1.0376128   -7.3029292    395.68591   0.02515166  0.025575055            7 
 1312000    1.0375366   -7.3112215    396.22303  0.025166605  0.025567165            4 
 1313000     1.051052   -7.2704007    397.38768  0.025221356  0.025559339            3 
 1314000    1.0419618   -7.2538326    397.37861  0.025201586  0.025551549            7 
 1315000    1.0239739   -7.2527194    397.79802     0.025209    0.0255437            4 
 1316000    1.0508394   -7.2555061    397.84738   0.02519297  0.025535723            3 
 1317000    1.0613774   -7.3082101    396.80654  0.025107982  0.025527549            6 
 1318000    1.0615966   -7.2619913    397.56592  0.025136945  0.025519376            4 
 1319000    1.0439171   -7.2371938     397.6074  0.025120508  0.025511311            5 
 1320000    1.0526874   -7.2507903    397.95331  0.025123315  0.025503534            4 
 1321000    1.0551867   -7.2358363    399.39628  0.025195324  0.025495778            2 
 1322000     1.080039   -7.2233997    399.68333   0.02519436  0.025488139            4 
 1323000     1.064876   -7.2490693    398.37023  0.025092607  0.025480416            1 
 1324000    1.0503092   -7.3037296     397.8528  0.025041088  0.025472503            5 
 1325000    1.0232975   -7.2770045    400.06434  0.025161279  0.025464633            4 
 1326000    1.0309168   -7.2775019    399.52761  0.025108573    0.0254568            3 
 1327000    1.0195619   -7.2622791    399.40582  0.025082003  0.025449138           12 
 1328000    1.0464432   -7.2674477    399.85157  0.025091087  0.025441495            8 
 1329000    1.0327931   -7.2897755    399.98461   0.02508055  0.025433649            3 
 1330000    1.0453059    -7.265245    399.72707  0.025045556  0.025425876            3 
 1331000     1.034749   -7.2477202    401.14209  0.025115333  0.025418014            7 
 1332000    1.0410414   -7.2943488    400.16642  0.025035436  0.025410231           11 
 1333000    1.0643687    -7.291988    401.13578  0.025077256  0.025402344            7 
 1334000    1.0265345   -7.2782872    400.11971  0.024994984  0.025394544            5 
 1335000    1.0179912   -7.2985737    401.65811  0.025072292  0.025386743            8 
 1336000    1.0364291   -7.2733971    401.30531  0.025031519  0.025379085            5 
 1337000     1.033175   -7.2544024    402.18256  0.025067474  0.025371491            6 
 1338000    1.0297438   -7.2056182    403.46135  0.025128385  0.025363875            2 
 1339000    1.0424333   -7.2622237    401.77783  0.025004844   0.02535625            3 
 1340000    1.0282287   -7.2178639    402.43189  0.025026859  0.025348536            3 
 1341000    1.0343682   -7.2744443     401.5375  0.024952616  0.025340785            7 
 1342000    1.0431845   -7.2512752    401.80265  0.024950487  0.025332917            2 
 1343000    1.0490533   -7.2807321    402.24781  0.024959532  0.025325063            3 
 1344000    1.0392086   -7.3261124    400.58069  0.024837592  0.025317009            3 
 1345000    1.0384488   -7.2847415    401.57891  0.024880973  0.025308948            7 
 1346000    1.0408213   -7.2347272    403.69481  0.024993487  0.025301068            4 
 1347000    1.0398394   -7.2725334    402.17255  0.024880756  0.025293178            4 
 1348000    1.0219457   -7.2956751    402.66798  0.024892927  0.025285127            6 
 1349000    1.0394176   -7.2845209    404.07951   0.02496167  0.025277199            2 
 1350000    1.0465447   -7.2635723    402.80354  0.024864416  0.025269279            2 
 1351000    1.0339137   -7.2553411    404.07602  0.024924501  0.025261518            4 
 1352000    1.0528033    -7.252448    404.87772  0.024955481  0.025253713            2 
 1353000    1.0505245   -7.2344085    405.11809  0.024951841  0.025245966            5 
 1354000    1.0512497   -7.2981453    405.04492   0.02492891  0.025238119            8 
 1355000    1.0354988    -7.264569    405.71806   0.02495191   0.02523035            7 
 1356000    1.0574579   -7.2431275     406.8088  0.025000541  0.025222761            8 
 1357000     1.027495   -7.2318665    407.46379   0.02502234  0.025215306            6 
 1358000    1.0245873    -7.255458    407.39998  0.024999999  0.025207813            3 
 1359000    1.0237126   -7.3202204    405.85971  0.024887154  0.025200216           13 
 1360000    1.0249114   -7.2827723    406.16698  0.024887683  0.025192618            4 
 1361000    1.0592348   -7.3173623    405.63645  0.024836912  0.025185072            4 
 1362000    1.0346535   -7.2725489    405.66612  0.024820492  0.025177502            6 
 1363000    1.0401019   -7.2835713    406.58976  0.024858753  0.025169899            2 
 1364000    1.0168181   -7.2717574     405.9638  0.024802285  0.025162137            2 
 1365000    1.0387718   -7.3076389    406.54269  0.024819456  0.025154215            3 
 1366000    1.0155468   -7.2240652    408.30228  0.024908631  0.025146388            7 
 1367000    1.0232354   -7.2752693    407.92382  0.024867339  0.025138657            4 
 1368000    1.0257656   -7.2812451    406.27015  0.024748425  0.025130816            4 
 1369000    1.0267323   -7.2734976     406.7124  0.024757268  0.025122854            5 
 1370000    1.0477616   -7.2565959    407.44512  0.024783766  0.025114846            4 
 1371000    1.0368903   -7.2569091     408.2243   0.02481305  0.025107023            4 
 1372000    1.0362704   -7.2491205    407.92123  0.024776557  0.025099106            4 
 1373000     1.035312   -7.2393145    407.08913  0.024708008  0.025091213            5 
 1374000    1.0598558    -7.244337     408.2816  0.024762348  0.025083282            6 
 1375000    1.0183707   -7.2717588    407.52666  0.024698586  0.025075456            6 
 1376000    1.0644473   -7.2467414    408.24428  0.024724096  0.025067543            4 
 1377000    1.0292233    -7.323385    406.42844   0.02459625  0.025059555            2 
 1378000    1.0143071   -7.2977983    408.25323  0.024688754   0.02505141            5 
 1379000    1.0291679   -7.3106478    407.52905  0.024627088  0.025043289            2 
 1380000    1.0303341   -7.2729401    408.91016  0.024692642  0.025035129            4 
 1381000    1.0420593   -7.2922186    407.44008  0.024586054  0.025026946            4 
 1382000    1.0224995   -7.2986316    407.85144  0.024593068  0.025018741            5 
 1383000    1.0288697   -7.2621102    409.79066  0.024692134    0.0250107            2 
 1384000   0.98683284   -7.2677008    409.23379  0.024640763  0.025002737            5 
 1385000    1.0493073   -7.2580666    409.36841  0.024631072  0.024994694            7 
 1386000    1.0394408   -7.2660472    409.97276  0.024649637  0.024986788            4 
 1387000    1.0226111   -7.3774514     408.1359  0.024521503  0.024978697            3 
 1388000    1.0601256   -7.3080547    410.25114  0.024630832  0.024970602            7 
 1389000    1.0101464   -7.3110521    410.75563  0.024643366  0.024962692            2 
 1390000    1.0135172   -7.3379938    409.20561   0.02453271  0.024954621            5 
 1391000    1.0120107   -7.2784039    411.06947  0.024626736  0.024946538            3 
 1392000    1.0257853   -7.2452776    411.26189  0.024620564  0.024938578            5 
 1393000    1.0175281   -7.2916293    410.47005  0.024555519  0.024930698            3 
 1394000    1.0446819   -7.2966167    411.26449  0.024585395  0.024922872            4 
 1395000    1.0313318   -7.3074835    411.23087  0.024565763  0.024914917            2 
 1396000    1.0250151    -7.308393    410.91752   0.02452946   0.02490696            6 
 1397000    1.0336356   -7.3047289    411.05456  0.024520077  0.024899063            2 
 1398000    1.0377635   -7.2941025    412.78558  0.024605721  0.024891245            5 
 1399000    1.0175919   -7.2996831    411.19531  0.024493407  0.024883391            5 
 1400000    1.0232139   -7.2896972    413.69228  0.024624541  0.024875694            1 
 1401000    1.0308645   -7.3235218    411.03695  0.024449022  0.024867763            4 
 1402000    1.0180349   -7.2283126    414.17063  0.024617845  0.024859891            2 
 1403000    1.0219981   -7.2931959    412.86221  0.024522583  0.024852137            2 
 1404000    1.0292642   -7.2911426    412.39733  0.024477524  0.024844422            5 
 1405000    1.0244841   -7.3603733    412.82047    0.0244852  0.024836601            6 
 1406000    1.0565982   -7.2748559    415.31538  0.024615658  0.024828699            3 
 1407000    1.0331765   -7.2536174    414.82076  0.024568868   0.02482102            1 
 1408000    1.0222631   -7.2725745    415.30125  0.024579856  0.024813406            5 
 1409000    1.0364117   -7.3361906    412.64958  0.024405582  0.024805605            4 
 1410000    1.0338913   -7.2856524    414.83454  0.024517408  0.024797772            4 
 1411000    1.0076723   -7.2748748    414.68696  0.024491316  0.024789995            6 
 1412000    1.0176242   -7.2914771    414.91022  0.024487147  0.024782087            5 
 1413000     1.016339   -7.3013285    415.41681  0.024499694  0.024774246            8 
 1414000    1.0218051   -7.3170601    414.91476  0.024452779  0.024766394            6 
 1415000    1.0358943   -7.2809561    415.72119  0.024482991  0.024758546            3 
 1416000     1.019501   -7.3168705    415.50814  0.024453162  0.024750827            8 
 1417000     1.017124   -7.3347189    414.62738  0.024384109  0.024743024           10 
 1418000    1.0391037   -7.3226334    415.21336  0.024401349  0.024735174           10 
 1419000    1.0185441   -7.3105502     415.7491  0.024415616  0.024727463            8 
 1420000    1.0012308   -7.2839307    416.53464  0.024444521  0.024719674            6 
 1421000     1.035967   -7.3156302    415.98943  0.024395345  0.024711893            3 
 1422000    1.0192687   -7.2865683    416.35445  0.024399581  0.024704032            7 
 1423000    1.0190876   -7.3274581    415.95874  0.024359261  0.024696236            5 
 1424000    1.0089369   -7.2783285    417.84886  0.024452765  0.024688372            4 
 1425000    1.0006392   -7.3117568    416.10015  0.024333342  0.024680529            2 
 1426000    1.0032049   -7.3360277    416.23157  0.024323958   0.02467256            5 
 1427000    1.0236967   -7.2930769    416.35281  0.024313992  0.024664537            8 
 1428000    1.0262372   -7.3208085    417.58749  0.024369018  0.024656693            4 
 1429000    1.0141335   -7.3139114    416.98386  0.024316763  0.024648847            3 
 1430000    1.0248615   -7.3379481    416.73476  0.024285242  0.024640945            3 
 1431000    1.0074673   -7.3052537    418.08304  0.024346788  0.024633175           12 
 1432000    1.0141106   -7.3232132    417.01074  0.024267385  0.024625332            3 
 1433000     1.028549   -7.3694105    417.90158  0.024302255  0.024617485            2 
 1434000    1.0399541   -7.3312271    418.28719  0.024307717  0.024609595            5 
 1435000    1.0128102   -7.3450532    417.48493  0.024244189  0.024601709            4 
 1436000    1.0107852   -7.3680612    417.60118  0.024234052  0.024593787            3 
 1437000    1.0141421   -7.3684166    418.13786   0.02424831  0.024585906            4 
 1438000    1.0177286   -7.3312203    417.90697  0.024218067  0.024577963            5 
 1439000    1.0199977   -7.2882197    418.61809  0.024242419   0.02457014            2 
 1440000    1.0194371   -7.3051118     419.3514  0.024268021  0.024562408            4 
 1441000    1.0118679   -7.3412752    419.68683  0.024270578  0.024554552            4 
 1442000    1.0170552    -7.282822    420.05809  0.024275202  0.024546704            3 
 1443000    1.0366266   -7.3268611    419.40343  0.024220572  0.024538963            3 
 1444000    1.0225361   -7.3368054    419.05458  0.024183667  0.024531004            3 
 1445000   0.99904145   -7.3197577    419.94077  0.024218038  0.024523159            8 
 1446000    1.0218083   -7.2829017    421.26656  0.024277695  0.024515406            7 
 1447000    1.0143579   -7.3015375    420.46489  0.024214748   0.02450771            3 
 1448000    1.0425536   -7.3242507    420.33503  0.024190552  0.024499969            3 
 1449000    1.0077142   -7.3333969    421.13149  0.024219663  0.024492163            2 
 1450000    1.0474576   -7.3000445    421.99827  0.024252774  0.024484522            4 
 1451000    1.0241159   -7.2887918    420.74722   0.02416421  0.024476863            6 
 1452000    1.0259561   -7.3236756    421.76341  0.024205889  0.024469154            3 
 1453000    1.0019929   -7.3378595    420.15868  0.024097194  0.024461374            5 
 1454000    1.0362028    -7.286075    422.34314  0.024205819  0.024453581            8 
 1455000    1.0438244   -7.2897472    422.18152  0.024179927  0.024445915            4 
 1456000    1.0397138   -7.2628819    423.22446  0.024223012  0.024438254            3 
 1457000    1.0213179   -7.3022182    422.49109  0.024164441   0.02443065            7 
 1458000    1.0252495   -7.3409078    420.98274  0.024061656  0.024422816            5 
 1459000    1.0292289   -7.3207309    422.19634  0.024114482  0.024415053            4 
 1460000    1.0280315   -7.3033764    423.53832  0.024174561  0.024407439            3 
 1461000    1.0123574   -7.3304511    422.64912  0.024107297  0.024399703            2 
 1462000    1.0063677   -7.3181214    423.09107  0.024115998  0.024391951            5 
 1463000     1.044129   -7.3137018    421.85154   0.02402891  0.024384175            3 
 1464000     1.026759   -7.3315455    424.23683  0.024148271   0.02437652            3 
 1465000    1.0177712   -7.3420829    422.96525  0.024059457  0.024368738            3 
 1466000    1.0187332   -7.3184885    423.91936  0.024097281  0.024360999            6 
 1467000    1.0088248   -7.2912353    425.50291  0.024170808    0.0243533            6 
 1468000    1.0141977   -7.3455431    424.06488  0.024072711  0.024345615            5 
 1469000    1.0474193   -7.3335681    423.68219  0.024034615  0.024337752            4 
 1470000    1.0424733    -7.305213    424.34675  0.024055938  0.024330008            3 
 1471000    1.0299167   -7.3659535    423.83683  0.024010697  0.024322271            7 
 1472000    1.0066826   -7.3466879     424.1323  0.024011113  0.024314526            5 
 1473000    1.0266861   -7.3359558    425.30956  0.024061414   0.02430682            3 
 1474000   0.98950996   -7.3517898    424.82006  0.024017416  0.024299116            2 
 1475000    1.0454367     -7.31635    425.01283  0.024012024  0.024291338            3 
 1476000    1.0472268   -7.2932418    427.09623  0.024113382  0.024283657            9 
 1477000    1.0109678   -7.3713788    423.30043  0.023882895  0.024275901            7 
 1478000   0.99884214   -7.3323209    425.62711   0.02399792  0.024268208            2 
 1479000   0.99986049   -7.3507677    425.77919  0.023990263  0.024260434            2 
 1480000    1.0156494   -7.3683294    424.69884  0.023913223  0.024252622            6 
 1481000     1.020916   -7.3304367    426.59036  0.024003509  0.024244855            2 
 1482000    1.0140047   -7.3209473    426.07825  0.023958516  0.024237161            7 
 1483000    0.9906653   -7.3780389    426.63187   0.02397347  0.024229474            5 
 1484000    1.0125526   -7.2957177    427.42723  0.024001978  0.024221818            4 
 1485000    1.0099546   -7.3438752    426.83209  0.023952418  0.024214234            4 
 1486000    1.0238385   -7.3877361    426.84185  0.023936847  0.024206654            4 
 1487000    1.0104181   -7.3378878    427.85738  0.023977661  0.024198859            6 
 1488000    1.0114325   -7.3217926    427.51037  0.023942113  0.024191095            4 
 1489000     1.008346   -7.3531502    427.48021  0.023924346  0.024183391            3 
 1490000    1.0230625   -7.3521269    427.86778  0.023929966  0.024175639            3 
 1491000    1.0392005   -7.3470015    427.83323  0.023911985  0.024168132            4 
 1492000    1.0068906   -7.3656907    427.99769  0.023905144  0.024160528            6 
 1493000    1.0312077   -7.3263569    428.44521  0.023914111  0.024152968            3 
 1494000    1.0132117   -7.3644858    428.85811  0.023921135  0.024145373           10 
 1495000    1.0022099   -7.3674389    428.43547  0.023881576  0.024137661            4 
 1496000      1.00174   -7.3783178    428.70066  0.023880384  0.024129964            8 
 1497000    1.0281507   -7.3127835    429.25073  0.023895053  0.024122274            3 
 1498000    1.0216653   -7.3249059     428.1601   0.02381843  0.024114576            9 
 1499000    1.0233256   -7.3188586    429.69609   0.02388793  0.024107017            3 
 1500000   0.98847583    -7.301482    429.47006  0.023859448  0.024099464            4 
 1501000   0.99778626   -7.3290026    430.05943  0.023876273  0.024091993            4 
 1502000   0.99722616   -7.3329404    430.65003  0.023893144  0.024084461            4 
 1503000    1.0107453   -7.3382522    430.71527  0.023880864  0.024076924            3 
 1504000    1.0223031   -7.3136823    431.09182   0.02388585  0.024069481            3 
 1505000    1.0063415    -7.328955    429.73247  0.023794711  0.024062089            6 
 1506000    1.0045533   -7.3480511    430.19535  0.023804524  0.024054541           13 
 1507000    1.0225473   -7.3263402    431.27638  0.023848506  0.024046971           12 
 1508000    1.0309657   -7.3680267    430.59243  0.023794895  0.024039358            3 
 1509000   0.98733675   -7.3313808    430.19796  0.023757343  0.024031721            3 
 1510000   0.99395836    -7.346566    430.34183  0.023749549  0.024024095            3 
 1511000    1.0190777   -7.3345331    430.12716  0.023721992  0.024016395            2 
 1512000    1.0063889   -7.3616174    430.31577  0.023716698  0.024008658            5 
 1513000    1.0221905     -7.34445    430.95537  0.023736251  0.024000905            5 
 1514000    1.0082758   -7.3661451    430.60916  0.023701517   0.02399316            3 
 1515000    1.0067866   -7.3845796    429.16074  0.023606201  0.023985397            3 
 1516000    1.0129678   -7.3460635    431.88691  0.023740485   0.02397763            2 
 1517000    1.0068959   -7.3962472    430.61076  0.023654733  0.023969862            4 
 1518000    1.0079539   -7.3818467    430.95102  0.023657829  0.023962155            8 
 1519000    1.0244796   -7.3613853    431.13657  0.023652434  0.023954475            5 
 1520000    1.0021353   -7.3245037    433.83316  0.023784713  0.023946842            4 
 1521000    1.0128371   -7.3565881    431.72749  0.023653709  0.023939274            6 
 1522000    1.0116679   -7.3217194     432.6292  0.023687538  0.023931614            4 
 1523000     1.008256   -7.3539487    432.03305  0.023639366  0.023924003            7 
 1524000    1.0032005   -7.3607225    432.76303   0.02366377  0.023916293            4 
 1525000    1.0165195   -7.3495413    432.46446  0.023631938   0.02390847            3 
 1526000    1.0096685   -7.3865455    432.14055  0.023598763  0.023900542            5 
 1527000   0.99566706   -7.3880549    431.88968  0.023569618  0.023892576            6 
 1528000    1.0029961   -7.4267255    430.89433  0.023499909  0.023884597            6 
 1529000     0.980957   -7.3514423     432.9143  0.023594632  0.023876583            2 
 1530000   0.99359272   -7.3815437    432.30589  0.023546072  0.023868718            4 
 1531000   0.99370095   -7.3143703    432.97808  0.023567281  0.023860904            6 
 1532000     1.005644   -7.3497548    434.58832  0.023639487  0.023853235            4 
 1533000   0.99758445   -7.3658659    434.15908  0.023600733   0.02384541            6 
 1534000    1.0310183   -7.3445529    434.24355  0.023589937  0.023837769            5 
 1535000    1.0161459   -7.3756744      433.307  0.023523724  0.023830077            8 
 1536000    1.0052262   -7.3430808    433.96017  0.023543846  0.023822289           12 
 1537000   0.98643989   -7.3486427    434.82744   0.02357555    0.0238146            4 
 1538000     1.010341   -7.3262031    435.28999  0.023585283  0.023806977           22 
 1539000     1.030273   -7.3671217    434.77716   0.02354219  0.023799395            4 
 1540000   0.98392489   -7.3610659    435.46882   0.02356433  0.023791741            2 
 1541000    1.0052303   -7.3835449    436.27864  0.023592832  0.023784102            4 
 1542000    1.0056761   -7.3940494    434.31074  0.023471181  0.023776342            4 
 1543000    1.0068793   -7.3397967    435.05757  0.023496304  0.023768596            4 
 1544000    0.9882486   -7.3850729    434.27569  0.023438886  0.023760933            4 
 1545000    1.0164317   -7.3639074    435.00866   0.02346325  0.023753221            3 
 1546000    1.0014632    -7.317758     435.5393  0.023476676  0.023745499            4 
 1547000   0.97589295   -7.3654461    435.41038  0.023454556  0.023737682            4 
 1548000    0.9962211   -7.3670647    436.25782  0.023485025  0.023729879            5 
 1549000     1.013007   -7.3646066    436.58633  0.023487537  0.023722228            2 
 1550000    1.0046883   -7.3449205    436.69124  0.023478024  0.023714636            5 
 1551000   0.99380118   -7.3651646    436.92786    0.0234756  0.023706925            3 
 1552000    1.0006477   -7.4004859    437.58253  0.023495625  0.023699084            4 
 1553000   0.99607656   -7.3886046     435.2719  0.023356509  0.023691122            4 
 1554000    1.0225364   -7.3676936    435.40045  0.023348373  0.023683303            5 
 1555000   0.99483234   -7.3995011    436.38034   0.02338587  0.023675566            4 
 1556000    1.0107411   -7.3661488    436.47319  0.023375814  0.023667706            7 
 1557000   0.99415651   -7.3542896    437.52016  0.023416836  0.023659971            2 
 1558000   0.99232314   -7.3528798    436.62124  0.023353725  0.023652328            8 
 1559000   0.99509526   -7.3584443    438.36233  0.023431812  0.023644665            4 
 1560000    1.0073915   -7.4113278    436.87138  0.023337146  0.023637015            5 
 1561000   0.99471433   -7.3203747    438.22057  0.023394222  0.023629382            5 
 1562000    1.0160877   -7.3397876    438.43274  0.023390564  0.023621709            4 
 1563000   0.98446564   -7.3747015    438.50929  0.023379681  0.023613988            5 
 1564000    1.0138079   -7.3794649    438.64415  0.023371918  0.023606311            4 
 1565000    1.0191392   -7.3809414    438.39122  0.023343516    0.0235988            2 
 1566000    1.0010999   -7.4171978    438.00594  0.023308106  0.023591156            4 
 1567000   0.99710458   -7.3385298    440.02377  0.023400541  0.023583462            4 
 1568000    1.0071028   -7.3814803    439.97426  0.023382986  0.023575732            2 
 1569000    1.0215004   -7.3434455    439.96944  0.023367827  0.023568287            3 
 1570000   0.99877318   -7.3481767    440.00685  0.023354928  0.023560787            8 
 1571000    1.0002315   -7.3635802     440.1061  0.023345326  0.023553205            5 
 1572000     1.017705   -7.3463367     440.1334  0.023331923  0.023545686            6 
 1573000    1.0121664   -7.3620458    440.47615  0.023335249  0.023538169            3 
 1574000   0.99782824    -7.340519    442.14133  0.023408584  0.023530673           10 
 1575000    1.0186613   -7.3967675    441.02354  0.023334579   0.02352321            5 
 1576000    1.0013919   -7.3739944    440.61235   0.02329803  0.023515761            8 
 1577000   0.99263628   -7.3683459    440.46746  0.023275601   0.02350817            2 
 1578000    1.0223291   -7.3504213    442.00209  0.023341893  0.023500465            2 
 1579000     1.008189   -7.3349364    441.31169  0.023290674  0.023493015            7 
 1580000   0.98771441   -7.3896938    441.92498  0.023308279  0.023485406            3 
 1581000   0.99131476    -7.377858    440.88972  0.023238969  0.023477814            2 
 1582000    1.0032622   -7.4021895    441.44184  0.023253363  0.023470211            4 
 1583000    1.0021481   -7.3660362    443.06794  0.023324276  0.023462631            4 
 1584000   0.99711847    -7.395274    441.10055  0.023206047  0.023455066            2 
 1585000   0.98269852   -7.3713194    441.03313  0.023187862  0.023447487            4 
 1586000    1.0033589    -7.336502    442.58427  0.023254743   0.02343983            3 
 1587000    1.0029146   -7.3839075    441.56061  0.023186338    0.0234322            2 
 1588000     1.009179   -7.3760105     441.6957  0.023178825  0.023424486            3 
 1589000   0.97854169   -7.4213414    441.45063  0.023151386  0.023416725           10 
 1590000   0.97930187   -7.3866817    441.47707  0.023138211  0.023408882            5 
 1591000   0.99812576   -7.3843185    441.80508  0.023140849  0.023401166            4 
 1592000   0.99330683   -7.3756005    441.69101  0.023120342  0.023393553            4 
 1593000   0.98795196   -7.3735691     442.1671  0.023130733   0.02338573            2 
 1594000    0.9850465    -7.391581    443.21896  0.023171213   0.02337803            3 
 1595000    1.0067448   -7.3826228    442.77005  0.023133231   0.02337029            2 
 1596000   0.97652138   -7.3943328    442.93962  0.023127591  0.023362682            4 
 1597000   0.98840095   -7.3851494     442.0593  0.023067173  0.023355068            3 
 1598000    1.0024818   -7.3917185    443.40364  0.023122843  0.023347501            5 
 1599000   0.96261573     -7.37069    442.93056  0.023083727  0.023339864            5 
 1600000    1.0130395   -7.3876299    442.94049  0.023069817  0.023332172            3 
 1601000   0.98711149   -7.4129873    442.59467  0.023037407  0.023324391            8 
 1602000   0.99502321   -7.3932142    444.43351   0.02311868  0.023316683            8 
 1603000   0.98951614   -7.3664752    443.85162  0.023074008  0.023309122            3 
 1604000    1.0081719   -7.3864059    444.70588  0.023104004  0.023301489           16 
 1605000    1.0038746   -7.3948438    444.15939  0.023061235  0.023293898            5 
 1606000    1.0059207   -7.4018443    444.15756  0.023046781  0.023286245            3 
 1607000   0.99754833   -7.4023802    444.47724  0.023049017  0.023278555            3 
 1608000   0.99038213   -7.4195844    443.87811  0.023003633  0.023270788            5 
 1609000   0.98943599   -7.3862789    446.09411  0.023104108  0.023263066            3 
 1610000   0.97528316   -7.3925804     444.9445  0.023030254  0.023255456            7 
 1611000   0.97186346   -7.4087999     445.0494  0.023021384  0.023247729            4 
 1612000   0.98404383   -7.3653668    447.00095  0.023107989    0.0232401            5 
 1613000   0.97892937   -7.3743566    445.58783  0.023020657    0.0232325            4 
 1614000   0.98897738   -7.3881926    445.50312   0.02300202  0.023224874            3 
 1615000   0.98738431   -7.3565844    446.46911  0.023037622  0.023217292            5 
 1616000   0.97867448   -7.4368947    445.54084  0.022975497   0.02320963            5 
 1617000    1.0093332    -7.401073    444.82882  0.022924594  0.023201976            4 
 1618000    1.0063978   -7.3977836    445.41843  0.022940792   0.02319434            2 
 1619000    1.0074254   -7.3917162    445.27396  0.022919187   0.02318666            3 
 1620000   0.99247385   -7.3829329    445.57222  0.022920382  0.023178918            4 
 1621000   0.98702957   -7.4047934    446.23209  0.022940165  0.023171081            3 
 1622000   0.99127822   -7.4134932     445.3118   0.02287874  0.023163246            3 
 1623000   0.96724591   -7.4071457    445.70674  0.022884922   0.02315539            5 
 1624000   0.98020031   -7.4125961    446.91432  0.022932796  0.023147579            4 
 1625000   0.98867633    -7.372745      446.983  0.022922205  0.023139797            4 
 1626000    1.0114075   -7.3960167    447.69275  0.022944483  0.023132178            5 
 1627000    1.0041477   -7.3986556    448.11426   0.02295197  0.023124536            5 
 1628000    1.0102949   -7.3785821    447.26537  0.022894419  0.023116896            4 
 1629000    0.9828392   -7.4108546    446.25259  0.022828555  0.023109124            3 
 1630000   0.95770791   -7.4065489    445.98297  0.022800765  0.023101237            7 
 1631000    1.0148755   -7.3899852    446.36298  0.022806201  0.023093424            6 
 1632000   0.98633723   -7.4225503    447.65849  0.022858379  0.023085849            3 
 1633000   0.97920236   -7.4378426    446.11151  0.022765437  0.023078181            3 
 1634000   0.99910752   -7.3862419    447.56809   0.02282579  0.023070436            2 
 1635000   0.97832309   -7.4336404    446.90916  0.022778245  0.023062799            5 
 1636000   0.98185709   -7.4097464    448.22167  0.022831177  0.023055271            6 
 1637000   0.98588026   -7.4155279    447.89748  0.022800727  0.023047581            6 
 1638000   0.98501026   -7.4006964    449.25902  0.022856075  0.023039879            7 
 1639000     1.002175   -7.3818297    448.26233  0.022791454  0.023032189            5 
 1640000   0.99522564   -7.4068189    448.47177    0.0227882  0.023024483            7 
 1641000   0.98626442   -7.4339473     447.8945  0.022744998  0.023016723            5 
 1642000   0.94999929    -7.418223    448.38668  0.022756125  0.023008906            3 
 1643000   0.99148961   -7.4295252    448.77131  0.022761783  0.023001195            5 
 1644000      1.01057    -7.403102    448.67402  0.022743006  0.022993539            4 
 1645000   0.99764382   -7.4271783    448.86441  0.022738825  0.022985965            3 
 1646000   0.99015624   -7.4172049    448.91141   0.02272739   0.02297828           10 
 1647000   0.98255376   -7.4106895    451.25761  0.022832302  0.022970648            8 
 1648000   0.97883414   -7.4465935    448.36918   0.02267239  0.022962951           10 
 1649000   0.97556978   -7.4083081     449.7057  0.022726183  0.022955417            4 
 1650000   0.97321247   -7.4154761    449.89304  0.022721871  0.022947833            3 
 1651000   0.97964037   -7.4321928    450.81453   0.02275462  0.022940227            8 
 1652000   0.99483393   -7.4342006    448.96455  0.022647526   0.02293263            5 
 1653000   0.97543872   -7.4110015    451.09788  0.022741373  0.022924994            6 
 1654000   0.98899208   -7.3916224    450.82701  0.022713977  0.022917322            3 
 1655000   0.97864066   -7.4211742    451.12157  0.022715084  0.022909787            3 
 1656000   0.99940785   -7.4161234    449.64564  0.022627095  0.022902121            4 
 1657000   0.97998574    -7.429091    451.44613  0.022703989  0.022894524            4 
 1658000   0.99204566   -7.4176892    450.99707  0.022667726  0.022886844            4 
 1659000   0.98398729   -7.4081312     450.4364  0.022625899  0.022879175            7 
 1660000   0.98679469   -7.4287801    450.74057  0.022627539  0.022871477           15 
 1661000   0.99616077   -7.4012649    451.63026  0.022658552  0.022863925            5 
 1662000   0.98358282   -7.4155851    450.64982  0.022595759  0.022856311            7 
 1663000   0.99131748   -7.4121236    452.28378   0.02266405  0.022848625            8 
 1664000   0.97656396   -7.4340433    452.04618  0.022638531  0.022841023            6 
 1665000   0.99988193   -7.4112029    452.42477  0.022643882  0.022833363            4 
 1666000   0.97086399   -7.4239488    450.98123  0.022558085  0.022825594            4 
 1667000    0.9928146   -7.4164437    451.85142  0.022588053   0.02281794            4 
 1668000    0.9928139   -7.4301317    451.82709  0.022573296  0.022810269            3 
 1669000   0.96738501   -7.4111592    453.20114  0.022628377  0.022802585            5 
 1670000    0.9988132     -7.41475    452.31536  0.022570627  0.022794818            4 
 1671000   0.97942142   -7.4412953     451.9272  0.022537762  0.022787066            3 
 1672000   0.96934388   -7.4246637     452.1304   0.02253441  0.022779265            2 
 1673000    0.9789442   -7.4062555    452.73945  0.022551277  0.022771543            4 
 1674000     0.994971   -7.4106777    453.74033  0.022587631  0.022763837            4 
 1675000   0.98800395   -7.3971332    451.26146  0.022450819  0.022756073            3 
 1676000   0.99914347   -7.3830428    452.08931  0.022478585  0.022748504            3 
 1677000   0.98095134   -7.4327414    451.92187  0.022456861  0.022740739            3 
 1678000   0.98439316   -7.4214837    451.95699  0.022445222  0.022732923            6 
 1679000   0.99355362   -7.4617737    451.99212  0.022433597  0.022724995            9 
 1680000   0.98186257   -7.4858667    451.86951  0.022414162  0.022717172            8 
 1681000   0.97609468   -7.4685486     453.0173  0.022457728  0.022709289            6 
 1682000   0.96934394   -7.4018926    453.74155  0.022480259   0.02270146           10 
 1683000   0.98636372   -7.4404492    452.77416  0.022419002  0.022693616           14 
 1684000    1.0107504   -7.4271938    453.06187  0.022419926  0.022685728            6 
 1685000   0.98764737   -7.4241152    454.06396   0.02245618  0.022677902            8 
 1686000    1.0013748   -7.4250599    452.98242  0.022389404   0.02267013            5 
 1687000   0.98914223   -7.4590864    453.84497   0.02241874  0.022662371            5 
 1688000   0.97499571   -7.3977552    455.58495  0.022491358    0.0226548           10 
 1689000   0.97732514   -7.4329821    453.57233  0.022378741  0.022647179            2 
 1690000   0.99106719   -7.4427497    453.60276     0.022367  0.022639483            5 
 1691000   0.98610684   -7.4150618    454.74546  0.022410086  0.022631738            2 
 1692000   0.99298775   -7.3802908    455.84151  0.022450823  0.022624095            3 
 1693000    0.9799691   -7.4393891    455.85817  0.022438382  0.022616466            5 
 1694000   0.97222248   -7.4792068     453.4886  0.022308569  0.022608782            5 
 1695000   0.96575148   -7.4264561    454.71208  0.022355559  0.022601014            7 
 1696000   0.99519078   -7.3941949    455.14688  0.022363742  0.022593293            4 
 1697000   0.97021615   -7.4157545    455.12674  0.022349575  0.022585609            3 
 1698000    0.9819248   -7.4262969    456.04262  0.022381361  0.022577883            4 
 1699000   0.97886905   -7.4236053    455.27915  0.022330741  0.022570186            2 
 1700000   0.98325781   -7.4162063     456.7147  0.022387976  0.022562555            4 
 1701000   0.99442609   -7.4099617    456.67144  0.022372694  0.022554849            6 
 1702000   0.98514398   -7.4500483    455.83775   0.02231873  0.022547195            6 
 1703000   0.96528145   -7.4315163     455.7025  0.022299007  0.022539511            3 
 1704000   0.98349825   -7.4331438    455.85983  0.022293615  0.022531781            8 
 1705000   0.99167792   -7.4555485    456.09465  0.022292016  0.022524019            4 
 1706000   0.95841255   -7.3991092    456.33886  0.022290878  0.022516295            4 
 1707000   0.98983651   -7.4142091    458.02375  0.022360074  0.022508595            6 
 1708000   0.98520171   -7.4068791    457.32127  0.022312708  0.022500937            5 
 1709000   0.95896115   -7.4063876    457.67935  0.022317113  0.022493265            3 
 1710000   0.97391862   -7.4261863    456.53874  0.022248477  0.022485557            3 
 1711000    0.9708736   -7.4652595    455.35516  0.022177828  0.022477746            4 
 1712000   0.97747557   -7.4427803    457.22403  0.022255842  0.022469886            2 
 1713000   0.98412839   -7.4536799    456.15535  0.022190861  0.022462132            3 
 1714000   0.97605188   -7.4483776    456.88512  0.022213395  0.022454265            8 
 1715000   0.96736854   -7.4173796    456.82577   0.02219756   0.02244647            4 
 1716000   0.97084605   -7.4670382    456.84195   0.02218541  0.022438835            8 
 1717000   0.98627934    -7.411941    458.90491  0.022272613  0.022431227            9 
 1718000    0.9871542     -7.44737    458.16922  0.022223963  0.022423677            4 
 1719000   0.99114409   -7.4787356    456.72546  0.022141044  0.022416027           14 
 1720000   0.99402418   -7.4712611    457.54865  0.022168055  0.022408271            4 
 1721000   0.96176274    -7.474153    457.34007  0.022145074  0.022400567            6 
 1722000    1.0016638   -7.4473816    457.48913  0.022139428   0.02239291            2 
 1723000   0.97058395   -7.4589544    459.09258  0.022204129  0.022385199            5 
 1724000     0.990085   -7.4927108    458.22954  0.022149533  0.022377445            4 
 1725000   0.97405671   -7.4868829     457.7281  0.022112469  0.022369755            5 
 1726000   0.97003844   -7.4639992    459.16201  0.022168888  0.022362019            5 
 1727000   0.97550874   -7.4537514    459.03497  0.022149921  0.022354379            6 
 1728000   0.97544011   -7.4678274    459.06941  0.022138764  0.022346713            4 
 1729000   0.95115256   -7.4963761     459.8267  0.022162459  0.022339044            4 
 1730000   0.97437155   -7.4780337     457.5526  0.022040106  0.022331344            2 
 1731000   0.98859912   -7.4384801    460.60886  0.022174507  0.022323679            8 
 1732000    0.9746658   -7.4268503    461.93358  0.022225442  0.022316163            7 
 1733000   0.96858282   -7.4503572     460.9596  0.022165782  0.022308687            7 
 1734000   0.98930459   -7.4450992    460.21444  0.022117188  0.022301158            3 
 1735000   0.98401247   -7.4658341     460.8805  0.022136431  0.022293603            3 
 1736000   0.96952981   -7.4414254    461.71909  0.022163935  0.022286145            5 
 1737000   0.96961471   -7.4491124    460.44788  0.022090188  0.022278704            8 
 1738000   0.97444793   -7.4204484    460.86172  0.022097321  0.022271276            3 
 1739000   0.97548668   -7.4698928    460.06192  0.022046287  0.022263809            8 
 1740000   0.98909301   -7.4581681    461.53926  0.022104371  0.022256236            4 
 1741000   0.96682908   -7.4649427    459.46317  0.021992302  0.022248672            5 
 1742000   0.95384419   -7.4377102     460.9113  0.022048952  0.022241118            2 
 1743000   0.96344844   -7.4327319    462.20432  0.022098122  0.022233607            3 
 1744000   0.98357819   -7.4436669    462.75616   0.02211182  0.022226146            4 
 1745000   0.97023472   -7.4928125    461.46785  0.022037624  0.022218656            4 
 1746000   0.96204843   -7.4516079    461.21608  0.022012986  0.022211205            3 
 1747000   0.98578378   -7.4987447    462.75007  0.022073558  0.022203688            6 
 1748000   0.95298094   -7.4693935    462.74848  0.022060855  0.022196227            3 
 1749000   0.97842018   -7.4783166    461.56628  0.021991913  0.022188692            3 
 1750000   0.98241214   -7.4512228    463.33761  0.022063696   0.02218129            4 
 1751000   0.98014943   -7.4285478    465.41998  0.022150199   0.02217397            2 
 1752000   0.96983149   -7.4253525    463.57944  0.022050012   0.02216664            5 
 1753000   0.97044272   -7.4923752    462.74475  0.021997754  0.022159241            5 
 1754000    0.9749726   -7.4860362    463.25555  0.022009481  0.022151823            4 
 1755000   0.95660135   -7.4538906    463.66154  0.022016218  0.022144408            2 
 1756000   0.95316733   -7.4767632    464.04053  0.022021665  0.022136969            3 
 1757000   0.95914173   -7.4795999    463.84007  0.021999624  0.022129576            6 
 1758000   0.99069281   -7.4474647    463.82886  0.021986579  0.022122286            4 
 1759000   0.95967812     -7.46171     464.7098  0.022015814  0.022114943            4 
 1760000   0.97362488   -7.5269321    462.88336  0.021916826  0.022107539            7 
 1761000   0.98341627   -7.4582945    465.13016  0.022010702  0.022100166            5 
 1762000   0.97564146    -7.470606    464.18519  0.021953518  0.022092844            2 
 1763000   0.97349941   -7.4835632    465.12511  0.021985494  0.022085497            2 
 1764000   0.97915199   -7.4660051    465.26908  0.021979832  0.022078115            6 
 1765000   0.97130793   -7.4862199    464.92796  0.021951273  0.022070753            4 
 1766000   0.97265045   -7.4866122    464.92093  0.021938511  0.022063501            3 
 1767000   0.96891243   -7.4510979     465.7756  0.021966403  0.022056257            3 
 1768000   0.99242801   -7.4441961    466.32269  0.021979765  0.022049041            5 
 1769000   0.95803746   -7.5023865       464.37  0.021875353  0.022041796            2 
 1770000   0.96637357   -7.4548473    466.36577  0.021956957  0.022034494            3 
 1771000     0.979226   -7.4450911    466.99265  0.021974057  0.022027291            5 
 1772000   0.97492826   -7.4572343    466.99538  0.021961784  0.022020177            7 
 1773000   0.97891056   -7.4596281    466.92972  0.021946311  0.022013012            7 
 1774000    0.9708143   -7.4695098    465.75594  0.021878802  0.022005787            8 
 1775000   0.94745682   -7.4470722    467.18986  0.021933796  0.021998644            7 
 1776000   0.98670291    -7.494667    466.54576  0.021891224  0.021991386            3 
 1777000   0.97460976   -7.4994044    466.85136  0.021893236  0.021984194            4 
 1778000   0.95980506     -7.45042    466.91682   0.02188399   0.02197703            5 
 1779000   0.97616874   -7.5003225    466.10706  0.021833758  0.021969763            4 
 1780000   0.97278406     -7.49675     467.0788  0.021866985  0.021962504           11 
 1781000   0.96715787   -7.5162561    466.77841  0.021840652   0.02195521            7 
 1782000    0.9642562   -7.4736642    467.39036  0.021857013  0.021947952           14 
 1783000   0.97085272   -7.4936587    468.31716  0.021888071  0.021940761            4 
 1784000   0.97302038   -7.4636888    468.69869  0.021893623  0.021933581            4 
 1785000   0.93871525    -7.494445    467.40278  0.021820858  0.021926335            6 
 1786000   0.96600076   -7.5418673    466.48118  0.021765639  0.021918986            6 
 1787000   0.96103453   -7.4909969    468.02164  0.021825296  0.021911676           10 
 1788000   0.98120576   -7.4715811    468.34632  0.021828221  0.021904402            4 
 1789000   0.96569238   -7.4515261    469.24507  0.021857885  0.021897139            7 
 1790000   0.95542348   -7.4741248    467.23575   0.02175213  0.021889857            4 
 1791000   0.97734302   -7.5225097    467.40935  0.021748062  0.021882509            7 
 1792000   0.96572839   -7.4737931    469.08153  0.021813687  0.021875118            7 
 1793000   0.97009655   -7.5166127    467.51975  0.021728934  0.021867724            6 
 1794000   0.95887133   -7.5224146    466.96538  0.021691071  0.021860204            7 
 1795000   0.99429955   -7.4521506    469.47517  0.021795505  0.021852752            5 
 1796000   0.97799557   -7.4805976    469.39037  0.021779434  0.021845486            9 
 1797000   0.96386099   -7.4844144    469.71156  0.021782209  0.021838143           12 
 1798000   0.97731522   -7.4893202    469.40498  0.021755885  0.021830787            5 
 1799000   0.97363191   -7.4554177    470.01292  0.021771953  0.021823521            9 
 1800000   0.95190645   -7.4830954    469.11237  0.021718165  0.021816212            8 
 1801000   0.97326221   -7.4362964    470.52549  0.021771492   0.02180886            7 
 1802000   0.95226357   -7.4701607    470.00183  0.021735194  0.021801539            4 
 1803000   0.96329809    -7.498795    469.11913  0.021682341  0.021794208            4 
 1804000   0.95329483   -7.4741895    469.20967  0.021674504  0.021786926            8 
 1805000   0.97270773   -7.5171846    468.71001  0.021639428  0.021779588            5 
 1806000   0.97218083   -7.4962763    468.02241  0.021595719   0.02177226            8 
 1807000   0.96132712   -7.5280235    469.49139  0.021651512  0.021764842            9 
 1808000   0.94506971   -7.4696813    469.53219  0.021641417  0.021757439            3 
 1809000   0.96409911   -7.4943027    470.67129  0.021681928  0.021750153            3 
 1810000   0.97824376   -7.4818273    470.40656   0.02165776  0.021742922            4 
 1811000   0.98412585   -7.5100094    470.56732  0.021653199  0.021735737            5 
 1812000   0.96858574    -7.464429    471.84398  0.021699962  0.021728552            3 
 1813000   0.94781609   -7.4747602    472.26557  0.021707371  0.021721476            6 
 1814000    0.9723001   -7.4925178    472.73745  0.021717082  0.021714415            6 
 1815000   0.96674529   -7.4807665    472.14063  0.021677715  0.021707354            3 
 1816000   0.97319459   -7.4927401    473.19109  0.021713982  0.021700282            4 
 1817000   0.96630058   -7.4789215    472.90086   0.02168872  0.021693172            7 
 1818000   0.94653465   -7.5083129    473.02439  0.021682453  0.021686102            2 
 1819000   0.93995059    -7.513302    471.34709  0.021593691  0.021679008            5 
 1820000   0.96390623   -7.4792529    472.05987  0.021614463  0.021671817            5 
 1821000   0.96938986   -7.4979369      471.836  0.021592349  0.021664589            7 
 1822000   0.96216103   -7.4746603     474.4707  0.021701001  0.021657447            4 
 1823000   0.95989525   -7.4773243    471.94035   0.02157343   0.02165028            6 
 1824000   0.96613359   -7.4923234    473.33044  0.021625111  0.021643182            8 
 1825000   0.95587804   -7.5011057    473.26717  0.021610373  0.021636014            6 
 1826000   0.96654734   -7.5183984    471.59227  0.021522101  0.021628818            5 
 1827000     0.938944    -7.508847    472.54295  0.021553683  0.021621649           10 
 1828000   0.94877742   -7.5400131    472.12018  0.021522619  0.021614407            3 
 1829000   0.96817312   -7.5047142    472.22034  0.021515415  0.021607249            6 
 1830000   0.98013587   -7.5363998    470.86447  0.021441916  0.021600123            3 
 1831000     0.966865   -7.5308784    471.95333  0.021479762  0.021592919            3 
 1832000   0.95372903   -7.5137681    474.08261  0.021564893  0.021585773            9 
 1833000   0.96535726   -7.5006017    474.77878  0.021584778  0.021578711            2 
 1834000   0.95991689   -7.5374344    474.21873  0.021547561  0.021571647            4 
 1835000   0.97385186   -7.5031053    473.79508  0.021516579  0.021564524            5 
 1836000    0.9800229   -7.5166136    473.56121  0.021494245   0.02155744            6 
 1837000   0.94773118   -7.5348556    474.18909  0.021511027   0.02155026            7 
 1838000    0.9641898   -7.5243905    473.86773  0.021484754  0.021543062            5 
 1839000   0.97488773   -7.5386651    474.48072  0.021500848  0.021535873            5 
 1840000    0.9779904    -7.473481    475.01993  0.021513584  0.021528802           17 
 1841000   0.97022973   -7.4971295    475.28219  0.021513769  0.021521781            7 
 1842000   0.96067719    -7.506387    474.60496  0.021471451  0.021514747            1 
 1843000   0.92349692    -7.503613    475.12584  0.021483353  0.021507613            5 
 1844000   0.95565374   -7.5280368    474.93745  0.021463189  0.021500563            5 
 1845000   0.97210986   -7.4864386    476.58586   0.02152601   0.02149351            6 
 1846000   0.93587047   -7.4660745    475.23001  0.021453143  0.021486487            4 
 1847000    0.9660295   -7.4722902    475.56529  0.021456654  0.021479431            5 
 1848000   0.94515465   -7.5242469    475.21344  0.021429178  0.021472275            4 
 1849000   0.93691484    -7.480577    477.65456  0.021527608  0.021465157           10 
 1850000   0.95840764   -7.4781317    475.95326  0.021439336  0.021458144            4 
 1851000   0.96479284   -7.5279987    476.23742  0.021440547  0.021451157            6 
 1852000    0.9543084   -7.4932843    476.53906  0.021442542  0.021444148            5 
 1853000   0.94235429   -7.4558579    477.35359  0.021467601  0.021437159            3 
 1854000   0.94744096   -7.4867284    475.30567  0.021363973  0.021430134            6 
 1855000   0.94347788   -7.5270571    476.08216  0.021387339  0.021423005            4 
 1856000   0.96687319   -7.5436901    475.45909   0.02134784  0.021415804            4 
 1857000   0.95405047   -7.5535255    475.48682  0.021337588  0.021408602            4 
 1858000   0.97274944   -7.4946758     476.4333  0.021368555   0.02140141            2 
 1859000   0.94572807   -7.5420286    475.34005  0.021308053  0.021394278            3 
 1860000   0.95931495    -7.535292    474.90875  0.021277274  0.021387038            7 
 1861000   0.97399114   -7.5479726    475.37247  0.021286605  0.021379799            3 
 1862000   0.93205209   -7.4867772       478.38  0.021409774  0.021372607            4 
 1863000   0.95937188   -7.5311572    476.59827  0.021318584  0.021365461            4 
 1864000   0.94325925   -7.5011897    478.05479  0.021372264  0.021358371            7 
 1865000   0.93879074   -7.5172862    478.09526  0.021362612  0.021351212            2 
 1866000   0.95104171   -7.5395088    476.93464  0.021299332  0.021344098           14 
 1867000     0.948653   -7.5021922    478.84179  0.021373049  0.021336933            5 
 1868000    0.9651192   -7.5020062    477.49088  0.021301342  0.021329823            3 
 1869000   0.95310544   -7.5363908    478.03231  0.021314086  0.021322736           12 
 1870000   0.95474488   -7.5171054    478.07917  0.021304776  0.021315638            6 
 1871000     0.944218   -7.5233929    478.55379  0.021314528   0.02130854            9 
 1872000   0.96403014   -7.5331754    478.34456  0.021293829  0.021301456            5 
 1873000   0.95211504   -7.5606273    478.02227   0.02126812  0.021294406            7 
 1874000   0.94448043   -7.5602251    477.96291  0.021254131  0.021287319            8 
 1875000   0.92766039   -7.5163153    479.02316  0.021289918  0.021280237           14 
 1876000   0.95305518    -7.527827    479.90582  0.021317778  0.021273192            4 
 1877000   0.93203837   -7.5096355    479.70379  0.021297451  0.021266244            4 
 1878000   0.94961394   -7.5610817    478.32299   0.02122484  0.021259232            4 
 1879000   0.96198472   -7.5596831    479.44772  0.021263425  0.021252189            4 
 1880000   0.92852975   -7.5411555    480.07245  0.021279807  0.021245179            5 
 1881000   0.96527629   -7.5432593    479.41145   0.02123921  0.021238192            5 
 1882000   0.97195752   -7.5192179    480.56372  0.021278946  0.021231219            6 
 1883000   0.96525145   -7.5285563    479.55917  0.021223189  0.021224274           14 
 1884000   0.96242522   -7.5410288    479.53458  0.021210836   0.02121725            4 
 1885000   0.95738797   -7.5224877    480.95318  0.021262298  0.021210306            2 
 1886000   0.95080744   -7.5304655    479.90727  0.021204811  0.021203278           18 
 1887000   0.96728356   -7.5654838    478.51456  0.021132069  0.021196208            7 
 1888000   0.92574787   -7.5482645    479.56322  0.021167162  0.021189115            5 
 1889000   0.95934842   -7.5539331    479.25861  0.021142518  0.021182059            5 
 1890000   0.94921027   -7.5575922    479.19204  0.021128397  0.021175052           10 
 1891000   0.93586485   -7.5318148    479.60647  0.021135487  0.021167997            9 
 1892000   0.95009343   -7.5620396    479.55452  0.021122028  0.021160921           16 
 1893000   0.96004082   -7.5380872    481.14288  0.021180792  0.021153836            7 
 1894000   0.95132673    -7.563094    479.98288  0.021118571  0.021146768            7 
 1895000   0.96189278   -7.5461194    479.19251   0.02107267  0.021139623            9 
 1896000   0.93380283   -7.5460789    480.86801  0.021135197   0.02113254            4 
 1897000   0.94445237   -7.5587055     481.2833  0.021142299  0.021125546            3 
 1898000   0.95783191   -7.5518402    480.34824  0.021090105    0.0211185           10 
 1899000    0.9448786   -7.5411314    482.76092  0.021184875  0.021111483            4 
 1900000   0.93053764   -7.5427804    481.17978  0.021104376  0.021104521            3 
 1901000   0.96342045   -7.5475659    482.33203  0.021143785  0.021097597            5 
 1902000   0.95957207   -7.5529007    480.30635  0.021043917  0.021090543            4 
 1903000   0.94658146   -7.5683641    480.20953  0.021028618  0.021083441            7 
 1904000   0.93844284   -7.4804107    482.61248  0.021122745  0.021076445            7 
 1905000   0.91970467   -7.5194849    483.06116  0.021131284  0.021069431            4 
 1906000   0.96513985   -7.5626574    482.24882  0.021084681  0.021062432            7 
 1907000    0.9342362   -7.5501596    482.33618  0.021077442  0.021055401            3 
 1908000    0.9457872   -7.5368842    482.32306  0.021065822  0.021048385           10 
 1909000    0.9406898   -7.5436125    481.63888  0.021024921  0.021041363           16 
 1910000    0.9523784   -7.5095093    482.18879  0.021037905  0.021034459            5 
 1911000   0.96668976   -7.5028851    483.35916  0.021077933  0.021027554            6 
 1912000   0.93199991   -7.4956391    483.29638  0.021064173  0.021020641            3 
 1913000   0.92741613   -7.5106046    483.72433  0.021071804  0.021013823            3 
 1914000   0.94984837   -7.5210231    483.67063  0.021058456   0.02100695           12 
 1915000   0.94565819   -7.5330624    482.64163  0.021002682  0.020999991            4 
 1916000   0.91751368    -7.509501    481.65143  0.020948653  0.020992927            2 
 1917000   0.94867189   -7.5358916    482.82889   0.02098891  0.020985847            8 
 1918000    0.9369554   -7.5199949    483.26809   0.02099705  0.020978862            9 
 1919000   0.94837075   -7.5587732    481.79734   0.02092224  0.020971851            3 
 1920000   0.93931748   -7.5303715    483.11419  0.020968498  0.020964854            7 
 1921000   0.96771648   -7.5630351    483.00173  0.020952704  0.020957803            5 
 1922000   0.94298079   -7.5981787     482.5757  0.020923331  0.020950717           12 
 1923000   0.91751574   -7.5687194    482.51401  0.020909777  0.020943579            7 
 1924000   0.92640545    -7.544208    481.59045  0.020858907   0.02093644            5 
 1925000   0.96260287   -7.5613847    483.24893  0.020919867  0.020929356            8 
 1926000   0.92968079   -7.5594211    484.02137  0.020942427  0.020922365            8 
 1927000   0.93721708    -7.533611    483.90722  0.020926622  0.020915457            7 
 1928000   0.93599841   -7.5512084    483.53931  0.020899867  0.020908455            5 
 1929000   0.95592438   -7.5528308    484.04912  0.020911056  0.020901378            8 
 1930000   0.93751568   -7.5677781    484.09723  0.020902298  0.020894366            3 
 1931000   0.93493241   -7.5530832    484.39731  0.020904424  0.020887297            3 
 1932000   0.95149789   -7.5698726    483.23411  0.020843431  0.020880315            3 
 1933000   0.94000811    -7.520747    484.98608  0.020908177  0.020873312            4 
 1934000   0.94511428   -7.5753966    484.03232   0.02085627  0.020866332            4 
 1935000   0.93581852   -7.5545167    484.98756   0.02088663  0.020859389            8 
 1936000   0.95923528   -7.5893108    483.67808  0.020819476  0.020852416            6 
 1937000   0.94252547   -7.5826254    483.93278  0.020819686  0.020845371           17 
 1938000   0.94331443   -7.5670133    483.99943  0.020811809  0.020838308            4 
 1939000   0.93348832   -7.5754217    484.19905  0.020809655  0.020831297            4 
 1940000   0.91575347   -7.5623094    485.86729  0.020870588  0.020824381            4 
 1941000   0.97106901   -7.5710008    484.59968  0.020805413  0.020817419            5 
 1942000      0.93323   -7.5210627    486.04193  0.020856588   0.02081047            3 
 1943000   0.93718391   -7.5849686    485.67947  0.020830308  0.020803585            5 
 1944000   0.92524397   -7.6010699    484.52069   0.02076992  0.020796642            6 
 1945000   0.93996678   -7.5606741    486.13862  0.020828561  0.020789644            6 
 1946000   0.94642345   -7.5726946    486.12095  0.020817101  0.020782615           10 
 1947000     0.938582    -7.560981    484.66281     0.020744  0.020775613           10 
 1948000   0.94536587   -7.5729763    484.91798  0.020744267  0.020768622            9 
 1949000   0.92844267   -7.5335872    487.23653  0.020832758  0.020761653           10 
 1950000   0.93702415   -7.5809617    485.22163  0.020735967  0.020754705           18 
 1951000   0.93095128   -7.5592191    486.29374  0.020771132  0.020747794           14 
 1952000   0.95089014   -7.5114583    486.76026  0.020780407  0.020740939            4 
 1953000   0.94111484   -7.5315927    487.98095  0.020821853  0.020734065            4 
 1954000   0.92334691   -7.5629963    485.91549   0.02072311  0.020727177            8 
 1955000   0.93592911   -7.5837572    485.51225  0.020695322  0.020720179            9 
 1956000   0.93078279   -7.5965043    485.07907  0.020666286  0.020713187            4 
 1957000   0.93434269   -7.5865457    487.56907  0.020761755  0.020706268            6 
 1958000   0.94387032   -7.5614969    486.73813  0.020715787  0.020699383            5 
 1959000   0.94967088   -7.5728623     486.9008  0.020712132  0.020692531            8 
 1960000   0.94701937   -7.5420857    487.44513  0.020724708  0.020685615            3 
 1961000    0.9304651   -7.5498752    488.44687  0.020756709  0.020678755            5 
 1962000   0.95279174    -7.549889    487.43244  0.020703043  0.020671903            5 
 1963000   0.93992753   -7.5864231    487.64555  0.020701543  0.020664938            3 
 1964000   0.93060565   -7.5693888    488.11947  0.020711111  0.020658117           10 
 1965000   0.92628417    -7.615597    486.28649  0.020622837  0.020651231           10 
 1966000   0.93004159   -7.5677205    487.41279  0.020660088  0.020644302            6 
 1967000   0.93950132   -7.5609659    487.18507  0.020639937  0.020637416            4 
 1968000   0.94808064   -7.5775798    487.53298  0.020644181  0.020630475           10 
 1969000   0.93734241   -7.5984737    487.48979  0.020631869  0.020623532            4 
 1970000   0.92986366   -7.5736725    488.25039   0.02065357   0.02061657            5 
 1971000   0.91811309   -7.5817457     487.2346  0.020600144  0.020609637            5 
 1972000   0.95019801   -7.5484599    488.09792   0.02062618   0.02060261            9 
 1973000    0.9461045   -7.5926771    488.12021  0.020616667  0.020595622           17 
 1974000    0.9271985   -7.5357327     487.7279  0.020589661   0.02058866            6 
 1975000   0.91966653   -7.5759156    487.02929  0.020549759  0.020581734            8 
 1976000   0.93481137    -7.571929    487.79022   0.02057145  0.020574787            3 
 1977000   0.96460162   -7.5549794    488.06146  0.020572478  0.020567793            2 
 1978000    0.9314243   -7.5598171    487.54385   0.02054027  0.020560873            4 
 1979000   0.93899141   -7.5563894    487.95787  0.020547325  0.020553805           21 
 1980000   0.92601011   -7.5881948    486.78824  0.020487721  0.020546723           10 
 1981000   0.93551017   -7.5612425    487.84159  0.020521689  0.020539668            7 
 1982000   0.93962718    -7.586086    487.79495  0.020509374  0.020532621            6 
 1983000   0.94066151    -7.596115    487.55068  0.020488766  0.020525478            5 
 1984000   0.92484138   -7.6394463    486.69927  0.020442677  0.020518351            7 
 1985000   0.92663836   -7.5735018    489.15956  0.020535666  0.020511262            3 
 1986000    0.9280807    -7.575763    490.08341  0.020564091  0.020504263            4 
 1987000   0.90559558   -7.5210741    490.37209  0.020565848  0.020497319            6 
 1988000   0.93112949   -7.5666873    488.43582  0.020474339  0.020490362            9 
 1989000   0.92814219   -7.5448346    488.75774  0.020477532  0.020483386            5 
 1990000   0.93167682   -7.5818279    488.39593  0.020452091  0.020476468            5 
 1991000   0.92367446   -7.5256598    490.32388  0.020522513  0.020469491            3 
 1992000   0.92691499   -7.5689384    491.34319  0.020554852  0.020462562            3 
 1993000   0.92388784   -7.5570404    489.99563  0.020488193  0.020455565            9 
 1994000   0.92332074   -7.6005399    489.41159   0.02045351  0.020448544            6 
 1995000   0.93618059   -7.6001355    488.40626  0.020401264  0.020441505            5 
 1996000   0.92763944   -7.5801814     489.5588  0.020439162  0.020434484            6 
 1997000   0.92689299   -7.5644259    488.24922  0.020374279  0.020427414            7 
 1998000   0.94016869   -7.6103039    489.20496  0.020403944   0.02042031            4 
 1999000    0.9281243   -7.5803022    488.22953  0.020353073  0.020413172            7 
 2000000    0.9443208   -7.5740326    488.21979  0.020342491  0.020406047            5 
 2001000   0.92166771   -7.5918294    489.83459  0.020399575  0.020398975           14 
 2002000   0.95655027    -7.600678    488.82744  0.020347463  0.020391873            5 
 2003000   0.94345119   -7.5890819     487.8699  0.020297466   0.02038479            6 
 2004000   0.91984278   -7.5647785    488.78522    0.0203254  0.020377663            3 
 2005000   0.92399533   -7.6072381    489.84913  0.020359482  0.020370581            5 
 2006000   0.93802432   -7.5917225    489.25711  0.020324739  0.020363493            6 
 2007000   0.91097158    -7.587814    489.72439  0.020334014  0.020356376            9 
 2008000   0.92672254   -7.5957312    488.84259  0.020287292  0.020349279            7 
 2009000    0.9392461   -7.6041658    489.99365   0.02032494  0.020342204            6 
 2010000   0.92172689   -7.5658637    490.96511  0.020355104  0.020335145            8 
 2011000   0.93145861   -7.5791562    490.31926  0.020318219  0.020328088           10 
 2012000   0.94297914    -7.584398    491.21467  0.020345207  0.020321056            7 
 2013000   0.93627259    -7.591476    491.11354  0.020330913  0.020313975           14 
 2014000   0.92239081   -7.5824477    490.26897  0.020285873   0.02030688           15 
 2015000   0.92744998   -7.5705278    490.51521  0.020285989  0.020299817            8 
 2016000   0.94820106   -7.5999097    489.76798  0.020245039   0.02029273            4 
 2017000   0.93236806   -7.5713415    490.59812  0.020269299  0.020285668            8 
 2018000   0.93519851   -7.6313729    488.94975  0.020191185  0.020278547            7 
 2019000     0.922249   -7.5565643     490.8705  0.020260463  0.020271397            4 
 2020000   0.92662874   -7.6025448    491.69591  0.020284485  0.020264336            6 
 2021000   0.92618299   -7.5776024    491.14603  0.020251774  0.020257272            7 
 2022000    0.9209132    -7.592844    492.00418  0.020277126  0.020250266            8 
 2023000   0.92926388   -7.5742747    491.99971  0.020266918  0.020243217            8 
 2024000   0.92737298   -7.5972277    490.60246  0.020199377  0.020236159           22 
 2025000   0.93024564   -7.6223507    491.86704  0.020241442  0.020229077            7 
 2026000   0.93699176   -7.6051276    492.53866  0.020259076  0.020222039           11 
 2027000   0.93060199   -7.5490353    493.09888  0.020272113  0.020215009            3 
 2028000   0.92706019   -7.5827865    491.93821  0.020214423  0.020207994            2 
 2029000   0.94530306   -7.6133362    491.96535  0.020205576  0.020200924            7 
 2030000    0.9045137   -7.6249766    491.41873  0.020173183  0.020193873            7 
 2031000   0.92596086   -7.6362471    491.98435  0.020186458  0.020186766            6 
 2032000   0.93149347   -7.6175022    492.30074  0.020189499  0.020179696            9 
 2033000   0.94128929   -7.6032898    491.64615  0.020152736  0.020172579            6 
 2034000   0.93506155   -7.6038682     491.7032  0.020145166  0.020165493            3 
 2035000   0.94657151   -7.5964915    492.04106  0.020149101  0.020158427           11 
 2036000   0.92698541   -7.5767216    493.52889  0.020200102  0.020151354           16 
 2037000   0.91973899    -7.630489    492.40422  0.020144175  0.020144224            6 
 2038000   0.91871687   -7.6100853    491.95948  0.020116106  0.020137118            7 
 2039000   0.93806102   -7.6311719    491.63929  0.020093154  0.020130033            5 
 2040000   0.89352774    -7.622181     491.6833  0.020085102  0.020122976            4 
 2041000    0.9481789   -7.5998293    492.14144  0.020093967  0.020115864            5 
 2042000   0.90249359   -7.5962045    492.66085  0.020105323    0.0201088            5 
 2043000   0.92467363   -7.5644668    494.10065  0.020154212  0.020101812            6 
 2044000   0.92077807   -7.5832662    492.95154  0.020097503  0.020094787            7 
 2045000   0.93538318   -7.6254233    492.81364  0.020082055  0.020087699            5 
 2046000   0.93345493   -7.6028838     492.8684  0.020074471  0.020080589            9 
 2047000   0.89625318    -7.645022    492.00815  0.020029643  0.020073472            3 
 2048000   0.91806371   -7.6205812     492.4217   0.02003669  0.020066306           10 
 2049000   0.91857648   -7.6715946    490.94274  0.019966762  0.020059159            3 
 2050000   0.91910502   -7.6080654    493.01348  0.020041199  0.020052007            4 
 2051000   0.93747489   -7.6311223     491.9776  0.019989338  0.020044923            5 
 2052000   0.94538761   -7.6492673    492.88365  0.020016392  0.020037773            6 
 2053000   0.94205553   -7.6297171    493.26158  0.020021983  0.020030568            8 
 2054000   0.89606958     -7.64245    492.59287  0.019985105   0.02002339            6 
 2055000   0.89613504   -7.6092416    492.40861  0.019967908  0.020016295            4 
 2056000   0.91767464   -7.6208672    494.15827  0.020029113  0.020009163            3 
 2057000   0.90509919   -7.6198531    493.88507  0.020008308  0.020002092           12 
 2058000   0.91585244   -7.6201269    493.61389  0.019987605  0.019995028           11 
 2059000   0.91284228   -7.5988302    493.32751  0.019966307  0.019988056            5 
 2060000   0.93329388   -7.5989625    494.62172  0.020008969  0.019981049            8 
 2061000    0.9368707    -7.618958    493.91883   0.01997084  0.019973989            5 
 2062000   0.90965033   -7.6178812    493.04338  0.019925775  0.019966896           15 
 2063000   0.92062034   -7.5727569    495.47126  0.020014189   0.01995982            5 
 2064000   0.93077063    -7.586785    494.54729  0.019967187    0.0199528            9 
 2065000   0.92037449   -7.5939686    494.94166  0.019973433  0.019945762            5 
 2066000   0.92894395   -7.6968253    491.28272  0.019816179  0.019938665            4 
 2067000   0.93430208   -7.6339138    493.08587  0.019879288  0.019931551            7 
 2068000   0.91711966   -7.6514586    492.75417  0.019856309  0.019924405            5 
 2069000   0.93531331   -7.6859701     493.0581  0.019858953   0.01991723           10 
 2070000   0.91407487   -7.6450529    493.74333  0.019876946  0.019910051            7 
 2071000   0.94284955   -7.5970349    494.22167  0.019886595  0.019902939            6 
 2072000   0.90425251   -7.5893491    495.16567  0.019914964  0.019895885            7 
 2073000   0.92958225   -7.6019797    495.81961  0.019931645  0.019888867            9 
 2074000   0.90347778   -7.5877992    495.78308  0.019920567  0.019881824           38 
 2075000   0.93039931   -7.6078212    495.03459  0.019880907  0.019874779            5 
 2076000   0.94745404   -7.6439181    494.44377  0.019847615  0.019867708            5 
 2077000   0.89807536   -7.5966393    495.89571  0.019896313  0.019860632           10 
 2078000   0.94406838   -7.6259379    495.88461  0.019886293  0.019853597            4 
 2079000   0.93373058     -7.62014     493.7222  0.019790051  0.019846569            7 
 2080000   0.91646664   -7.6591616     494.4206  0.019808518  0.019839488           19 
 2081000   0.92893651   -7.6238296    495.03696  0.019823681  0.019832421           29 
 2082000   0.90494836   -7.5961127    495.94274  0.019850414  0.019825402            9 
 2083000   0.92313575   -7.6318361    494.90816  0.019799494  0.019818395           12 
 2084000   0.91156462   -7.5919338    495.45106  0.019811703  0.019811363            8 
 2085000   0.92691438   -7.6260913    495.64781  0.019810064  0.019804378            6 
 2086000   0.91854793   -7.6366613    495.61141  0.019799114  0.019797375            3 
 2087000   0.89837437   -7.6807809    494.95782  0.019763529  0.019790362            5 
 2088000   0.91532708   -7.6087515    496.40677  0.019811892  0.019783354            3 
 2089000   0.90323325   -7.6611073    496.28657  0.019797613  0.019776345            7 
 2090000   0.92538044   -7.6518729    495.04747  0.019738735  0.019769283            8 
 2091000   0.95664871   -7.6454007    495.09172  0.019731058  0.019762202            5 
 2092000   0.91622478   -7.6439184    497.27266  0.019808503  0.019755224            4 
 2093000   0.92212893   -7.6197773    497.41228  0.019804598  0.019748273           15 
 2094000   0.92253301   -7.6179428    496.99668  0.019778601  0.019741341           13 
 2095000   0.91689361    -7.609971    497.65478  0.019795337  0.019734371           17 
 2096000   0.89550467   -7.6070079    498.46761   0.01981821  0.019727397           14 
 2097000   0.92219122   -7.5957078     497.7477   0.01978015  0.019720454           18 
 2098000   0.90760658   -7.6225139    496.68998  0.019728709  0.019713534            7 
 2099000    0.9320222   -7.6327269    497.41887  0.019748248  0.019706659            7 
 2100000   0.92742316   -7.5846535     498.2289  0.019770988  0.019699876           23 
 2101000   0.91544741   -7.6085163    498.38776  0.019767879  0.019693082            5 
 2102000     0.934063   -7.6074833    497.74444   0.01973297  0.019686278            9 
 2103000    0.9066725   -7.6328702    498.05037   0.01973571   0.01967944            8 
 2104000   0.93336735   -7.6063385    499.92947  0.019800755   0.01967255            9 
 2105000   0.93680339   -7.5989731    499.34137  0.019768067  0.019665715           10 
 2106000    0.9187556   -7.6134769    498.18102  0.019712766  0.019658858            5 
 2107000   0.88114186   -7.6097585    500.08776  0.019778823  0.019651985            8 
 2108000   0.93142481   -7.6331992    498.04053  0.019688509  0.019645173            7 
 2109000   0.88867106   -7.6608692    498.57024  0.019700104  0.019638298            7 
 2110000   0.91533478    -7.599796    500.13874  0.019752715  0.019631427            4 
 2111000   0.91340772   -7.5783577    498.85839  0.019692815  0.019624638            5 
 2112000   0.90816312   -7.6218033    498.93953  0.019686692  0.019617811            7 
 2113000   0.89826847   -7.6338142    499.40299  0.019695654  0.019610952            6 
 2114000   0.91572842   -7.6119157    498.93643  0.019667945  0.019604072            7 
 2115000   0.93819207   -7.6228439    498.49008  0.019641059  0.019597235           10 
 2116000    0.9143961   -7.6563237    499.07127  0.019654666  0.019590371            9 
 2117000   0.92890776   -7.6314383    499.60023  0.019666203  0.019583501            6 
 2118000   0.91580402   -7.6112066    499.14775  0.019639115  0.019576692            8 
 2119000   0.91475977    -7.650258     498.2456  0.019594368  0.019569754            8 
 2120000   0.89078996   -7.6522981    499.04057  0.019616374  0.019562876            5 
 2121000   0.92171225   -7.6621488    498.97101  0.019604393  0.019555968            5 
 2122000   0.91681286   -7.6614688    499.39053   0.01961163  0.019549033           13 
 2123000   0.89468591    -7.679623    499.22415  0.019595861  0.019542143            6 
 2124000   0.92041783   -7.6642789    499.54087  0.019599061  0.019535274            7 
 2125000   0.91111775   -7.6209571    498.96864  0.019567398  0.019528379           21 
 2126000   0.89582361   -7.5985142    500.71358  0.019626591  0.019521604            4 
 2127000   0.91757559   -7.6217286    500.96803  0.019627332  0.019514799           18 
 2128000   0.92081424   -7.6150533    500.35276  0.019594015  0.019508027            7 
 2129000   0.91402796   -7.6421952    500.27086  0.019581606   0.01950126            6 
 2130000    0.9121833   -7.6489571    501.47226  0.019619416  0.019494494            4 
 2131000   0.91813306   -7.6587726    501.16137  0.019598051  0.019487645            5 
 2132000   0.89667777   -7.6659492    499.79792  0.019535566  0.019480856            6 
 2133000    0.9313912   -7.6572057    500.46414  0.019552435  0.019474115            6 
 2134000   0.91659955   -7.6485776    500.63427  0.019549917  0.019467357            5 
 2135000   0.92763085   -7.6286141    501.59265  0.019578167  0.019460635           14 
 2136000   0.89753112   -7.6267295    500.37657  0.019521558  0.019453865           21 
 2137000   0.91156726   -7.6551554    501.67593  0.019563092  0.019447141            7 
 2138000   0.93054039   -7.6593706    500.56077  0.019510476  0.019440371            7 
 2139000   0.92241875   -7.6269124    502.58243  0.019580116  0.019433642           11 
 2140000   0.90981166   -7.6211241    501.82913  0.019541633  0.019426948            6 
 2141000   0.90225535   -7.6397482    502.29047  0.019550462  0.019420257           10 
 2142000   0.90067112   -7.6479575    502.55769  0.019551731  0.019413494            6 
 2143000   0.91993749   -7.6395755    501.81247  0.019513628   0.01940674           14 
 2144000   0.91661153   -7.6512628    501.40771  0.019488795  0.019399959            3 
 2145000    0.8876064   -7.6411488    501.83626  0.019496358  0.019393181            6 
 2146000   0.89930127   -7.6569945    501.80709   0.01948614  0.019386424            8 
 2147000   0.91323139   -7.6213143    502.83514  0.019516967  0.019379731            7 
 2148000   0.91575156   -7.6513234    501.62194  0.019460814  0.019373016            5 
 2149000   0.90397733   -7.6680194    502.89145  0.019500987  0.019366267            4 
 2150000   0.90015705   -7.6301147    502.98553  0.019495563   0.01935952            8 
 2151000   0.92336717   -7.6594664    502.21235  0.019456546  0.019352756           12 
 2152000   0.90579473   -7.6365642    501.60543  0.019424002  0.019345981            5 
 2153000   0.89766657   -7.6236767    502.73062  0.019458531  0.019339293            7 
 2154000   0.88250945   -7.6698736    501.56284  0.019404319  0.019332567            9 
 2155000   0.90111078   -7.6550909    502.44036  0.019429248  0.019325846            4 
 2156000   0.87980331    -7.674409    501.68602   0.01939108  0.019319147            7 
 2157000   0.92037902   -7.6391892     502.6245  0.019418347  0.019312464            4 
 2158000   0.87626228   -7.6731919    503.01969   0.01942461  0.019305753           10 
 2159000   0.89229267   -7.7052486    501.82895  0.019369652  0.019298956            4 
 2160000   0.90771305    -7.710119    501.39178  0.019343819  0.019292159            9 
 2161000   0.89563795   -7.6538925      502.541  0.019379184  0.019285295            4 
 2162000   0.89646968   -7.6390931    503.54933  0.019409086  0.019278543            6 
 2163000   0.91232658   -7.6586887    502.68767  0.019366916   0.01927179           15 
 2164000   0.90449506   -7.7032304     502.0587  0.019333745  0.019265007           16 
 2165000   0.89861833    -7.661036    502.96834  0.019359828   0.01925818           22 
 2166000   0.88792313   -7.6818341    504.14847  0.019396294  0.019251381           30 
 2167000   0.92006603    -7.659673    504.54825  0.019402717  0.019244694            4 
 2168000   0.89861197   -7.6784789    503.46025  0.019351947  0.019237953           35 
 2169000   0.93032436   -7.6613215    504.60143  0.019386869  0.019231252           12 
 2170000   0.90914402   -7.6967893     502.9089  0.019312938  0.019224569           16 
 2171000   0.89867788   -7.6950141    503.32822  0.019320137  0.019217869            3 
 2172000   0.90864306   -7.6649194    503.81262  0.019329827  0.019211146            6 
 2173000   0.90758121   -7.6668187    503.75488  0.019318718  0.019204457           14 
 2174000   0.90143807   -7.7062548     502.5163  0.019262354  0.019197746           21 
 2175000   0.90029087   -7.6775284    503.33482  0.019284859  0.019190995            8 
 2176000   0.89963475   -7.6507541    503.80099  0.019293849  0.019184301            9 
 2177000   0.90625197   -7.6754412    503.47139   0.01927237  0.019177614            7 
 2178000   0.92161988   -7.6523351    503.00286  0.019245594  0.019170945            5 
 2179000   0.89253785    -7.696129    503.13239  0.019241716  0.019164222            5 
 2180000   0.90936986   -7.6803528    503.69425  0.019254367  0.019157485            8 
 2181000   0.91879206   -7.6646187    503.26926  0.019229301   0.01915078            4 
 2182000   0.89949113   -7.6505507    504.14747  0.019254028  0.019144085            6 
 2183000   0.88867626   -7.6779377     505.1915  0.019285063  0.019137403            3 
 2184000   0.89703394   -7.6987642    503.30612  0.019204293  0.019130702            8 
 2185000    0.9058554   -7.6684672    504.69087  0.019248317  0.019124012            4 
 2186000   0.91347435   -7.7180946    504.39392  0.019228192  0.019117298            4 
 2187000   0.92077445   -7.6555635    504.30403  0.019215974  0.019110567            9 
 2188000    0.9051252   -7.6975899     503.6809  0.019183459  0.019103805            5 
 2189000   0.92030129   -7.6539409    504.11543  0.019191238  0.019097155            7 
 2190000   0.91974201   -7.6932832    504.33193  0.019190713  0.019090441            5 
 2191000   0.89301288   -7.6777343    504.02382  0.019170235  0.019083714            5 
 2192000   0.87888694   -7.6608183     503.8201  0.019153745  0.019076949           11 
 2193000   0.89091974   -7.7187641    504.02157  0.019152666  0.019070211            5 
 2194000   0.90961171   -7.6892728    504.63079  0.019167076  0.019063473            8 
 2195000   0.89592948   -7.7178521    504.47066  0.019152265   0.01905669            4 
 2196000   0.89636208   -7.6782586    503.40524  0.019103113  0.019049905            5 
 2197000   0.89088896   -7.6967156    503.97367  0.019115979  0.019043085            8 
 2198000   0.89854977   -7.6632469     506.0089  0.019184444  0.019036358            7 
 2199000   0.90226271   -7.7032738     505.0971  0.019141166  0.019029619            6 
 2200000   0.89038295   -7.6906788    505.39565  0.019143775  0.019022912            4 
 2201000   0.90500374   -7.6624693    505.34165  0.019133032  0.019016192            5 
 2202000   0.90477514   -7.6622536     504.7959   0.01910369  0.019009507            8 
 2203000   0.90153646   -7.6696333    505.74562  0.019130944  0.019002747           11 
 2204000   0.91389263   -7.6655255    504.55092  0.019077092  0.018995996            8 
 2205000   0.89710704   -7.6440041    505.88955  0.019119031  0.018989233           12 
 2206000    0.8918854   -7.6781472    505.13746  0.019081953  0.018982479           11 
 2207000   0.90794929   -7.6352317    505.32568  0.019080414  0.018975789            5 
 2208000   0.90301868   -7.6519297    505.94194  0.019095031  0.018969109            5 
 2209000   0.89367425    -7.660589    505.43272  0.019067177  0.018962365            8 
 2210000   0.90620888   -7.6917672    505.03833  0.019043678  0.018955594            6 
 2211000   0.88606282   -7.6631022    504.53898  0.019016244  0.018948788            6 
 2212000    0.8874917   -7.7179368    504.49545  0.019006007  0.018941959            5 
 2213000   0.90600351    -7.717035    504.63408  0.019002639  0.018935063            5 
 2214000   0.88730321   -7.6829447    504.94832  0.019005884   0.01892823            4 
 2215000   0.87665847   -7.7066997    505.39214  0.019014001  0.018921397           16 
 2216000   0.91013525   -7.6548417    505.50793  0.019009775  0.018914667            7 
 2217000   0.88130742   -7.6869648    505.19778  0.018989542  0.018907936            6 
 2218000   0.91015613   -7.7275745    504.44473  0.018952687  0.018901159            3 
 2219000   0.88300184   -7.6793349     505.2885  0.018975834  0.018894374            7 
 2220000    0.8939714   -7.6951231    505.72797  0.018983782  0.018887618           11 
 2221000   0.90501991   -7.6845703    505.57489  0.018969491  0.018880879           10 
 2222000   0.90194149   -7.7113607    504.99067  0.018939044  0.018874126            6 
 2223000   0.90236792     -7.71313    505.76514  0.018959557   0.01886741           12 
 2224000   0.91137148    -7.660069    505.55769  0.018943259  0.018860722            4 
 2225000   0.90793783   -7.6653315    505.53171  0.018933772  0.018854018            6 
 2226000   0.89158343   -7.6846052    505.87349  0.018938061    0.0188473            5 
 2227000   0.88698681   -7.7012428    506.59528  0.018956566  0.018840576            9 
 2228000   0.89085852   -7.6558582    507.03459   0.01896449  0.018833889            7 
 2229000    0.8913877   -7.6673248    507.51006  0.018973757  0.018827213            4 
 2230000   0.91390616   -7.6996054    504.72383   0.01886113    0.0188205            8 
 2231000   0.89176542   -7.6866169     506.6048  0.018922934  0.018813772            6 
 2232000   0.87836957   -7.7178067    505.08845  0.018857842  0.018807015            9 
 2233000   0.90041442   -7.7249535    506.75189  0.018911475  0.018800322            7 
 2234000   0.88178874   -7.6984099    507.28499  0.018922896  0.018793576           12 
 2235000    0.9067378   -7.7250081    506.56367  0.018887534  0.018786815            8 
 2236000   0.88151075   -7.6937338    507.42024  0.018911011  0.018780078            6 
 2237000   0.89560113   -7.6945328    507.23372  0.018895609  0.018773313            5 
 2238000   0.89462962   -7.6772624    507.83299   0.01890948  0.018766618            8 
 2239000   0.90335368    -7.672595    506.88165  0.018865627   0.01875992            6 
 2240000   0.89057231   -7.6913702    507.23316  0.018870281  0.018753221            5 
 2241000   0.90601582   -7.7177405    506.90519  0.018849665  0.018746487            8 
 2242000   0.89156403   -7.6993865     506.7188  0.018834329  0.018739745           10 
 2243000   0.88445332   -7.7113887    507.18824  0.018843374  0.018732956            5 
 2244000    0.8836803    -7.708903    507.18511   0.01883486  0.018726191            9 
 2245000   0.90463856   -7.6807298    508.01368  0.018857226  0.018719438            4 
 2246000   0.89711409   -7.7028345    507.73972  0.018838666  0.018712674            5 
 2247000   0.88974009   -7.6696126     507.2799  0.018813229  0.018705972           11 
 2248000   0.90345547   -7.6511247    509.28755  0.018879283  0.018699269            6 
 2249000   0.90273725   -7.6760356    507.23051  0.018794668  0.018692568            7 
 2250000   0.88939113   -7.6996361    506.73073  0.018767805  0.018685833           10 
 2251000   0.87487291   -7.6869723    507.59716  0.018791543  0.018679122            8 
 2252000    0.9244115   -7.7043371    507.63804  0.018784711  0.018672411            5 
 2253000    0.8711764   -7.7011069     507.4244  0.018768472  0.018665692            8 
 2254000   0.89585794   -7.6663352    508.75663  0.018809399  0.018658995            7 
 2255000   0.90520538    -7.689777    507.03432   0.01873741  0.018652282            6 
 2256000   0.87970256   -7.7098782    506.63798  0.018714464  0.018645538            7 
 2257000   0.89342085   -7.7016468    508.16119  0.018762413  0.018638738           10 
 2258000   0.87961655   -7.6630608    507.51299  0.018730181  0.018632004            5 
 2259000   0.88052643   -7.7040529    507.67226  0.018727765  0.018625262            8 
 2260000   0.90735296   -7.7075112    507.92941  0.018728961  0.018618527            6 
 2261000   0.89024553   -7.7193371    507.68529  0.018711679  0.018611772           11 
 2262000    0.8959006   -7.6849847     508.8893  0.018747764  0.018605063            4 
 2263000   0.88524047   -7.6949215     508.5902  0.018728465  0.018598378            7 
 2264000   0.88694167   -7.6864842    508.24741  0.018707576  0.018591738           24 
 2265000   0.90395587   -7.6712353    510.09323  0.018767227  0.018585108            9 
 2266000   0.90671877   -7.7102294    508.03061  0.018683091  0.018578436            8 
 2267000   0.88894182   -7.7461417    508.09515  0.018677222  0.018571698            7 
 2268000   0.87980054   -7.7308115    507.05324  0.018630704  0.018564974            3 
 2269000   0.90558868   -7.6979104    508.35436  0.018670279  0.018558245            5 
 2270000   0.88742498   -7.7384214    508.78756  0.018677957  0.018551496           19 
 2271000   0.87401825   -7.7170709    509.06803  0.018680024  0.018544772            4 
 2272000   0.88727546   -7.7075313     509.3669  0.018682765  0.018538044            7 
 2273000   0.90133334   -7.7174912    508.95797  0.018659553  0.018531333           15 
 2274000    0.8825034   -7.7305779    509.63306  0.018676087  0.018524653            5 
 2275000   0.89170177   -7.6930561     507.9757  0.018607168  0.018517945            5 
 2276000   0.90474654   -7.7360724    508.00181  0.018599949  0.018511205            4 
 2277000   0.87998108   -7.7075503    508.62303  0.018614516  0.018504434            6 
 2278000   0.89730873   -7.7341741    508.05446  0.018585545  0.018497698            7 
 2279000   0.88286832   -7.7432858    508.40044  0.018590041  0.018490952           10 
 2280000   0.90018871   -7.7406093    509.32922  0.018615834   0.01848421            3 
 2281000   0.89872892   -7.7311089    508.63864  0.018582443  0.018477493            9 
 2282000   0.90331893   -7.7458261    509.34775  0.018600196  0.018470783            8 
 2283000   0.90315594   -7.7165538    508.74712  0.018570124  0.018464078            3 
 2284000   0.88358784   -7.7215556    508.72161  0.018561063  0.018457404            7 
 2285000   0.87611681   -7.7421803    508.00572  0.018526832  0.018450702            4 
 2286000   0.86915028   -7.6954759    509.61754  0.018577484  0.018443957            7 
 2287000    0.8804198   -7.7532344    507.84921  0.018504927  0.018437261            3 
 2288000   0.88485375   -7.7352546    508.91702  0.018535731  0.018430488           12 
 2289000   0.89460187   -7.7327787    508.64269  0.018517646  0.018423734            5 
 2290000   0.88960952   -7.7616424    508.14378  0.018491404  0.018416974            5 
 2291000   0.89043552   -7.7595545    509.57136   0.01853526  0.018410298            8 
 2292000   0.87752639   -7.7577254    509.59662  0.018528091  0.018403619            8 
 2293000   0.91527776   -7.7260126    509.76305  0.018526059  0.018396925            8 
 2294000   0.88506427    -7.692393    510.17788  0.018533053  0.018390301           15 
 2295000    0.8882132   -7.7198953    510.86825  0.018550045  0.018383722            2 
 2296000   0.87897616   -7.7209601    511.64144  0.018570029  0.018377079            5 
 2297000   0.88489387   -7.7657738    509.51144   0.01848467  0.018370445           11 
 2298000   0.87540912   -7.7625175    509.07679  0.018460864  0.018363818            7 
 2299000   0.88479863   -7.6931758    510.71051  0.018512053  0.018357203           12 
 2300000   0.87809012   -7.7341734     510.9569  0.018512931  0.018350652            8 
 2301000   0.87141167      -7.7355    510.20185  0.018477541  0.018344058            5 
 2302000   0.89256171   -7.6958433    512.59911  0.018556296  0.018337483            5 
 2303000   0.88947393    -7.723146    510.14975  0.018459609  0.018330885            8 
 2304000    0.8640601   -7.6991854    510.76991  0.018474027  0.018324288           11 
 2305000   0.87842408   -7.7477794    510.98823  0.018473906  0.018317701            9 
 2306000   0.88591638   -7.6916647    511.28687  0.018476686  0.018311077            7 
 2307000   0.89391433   -7.7279613    510.46639   0.01843904   0.01830442           10 
 2308000   0.88357669   -7.7281454    511.83104  0.018480323  0.018297756            9 
 2309000   0.87421128    -7.689406    511.77029  0.018470128  0.018291161           14 
 2310000   0.89224926   -7.7155325    510.91869   0.01843141  0.018284549            5 
 2311000   0.88443914   -7.7423693    510.69031  0.018415199  0.018277903           11 
 2312000   0.89094264   -7.7033777    510.71394  0.018408086  0.018271235            6 
 2313000   0.88093336    -7.749069    509.75157  0.018365455  0.018264582            7 
 2314000   0.88881074   -7.7323788    510.25813  0.018375761  0.018257896           17 
 2315000   0.86423398   -7.7146586    511.30932  0.018405663  0.018251199            8 
 2316000   0.86684409   -7.7516617    511.14018   0.01839163  0.018244496           20 
 2317000   0.87976624   -7.7192214    510.45126  0.018358915  0.018237785           30 
 2318000   0.88247842   -7.7573559     509.1245  0.018303297  0.018231058            4 
 2319000   0.90009266   -7.7340044    510.95214   0.01836108  0.018224404           15 
 2320000   0.88087126   -7.7456244    509.64022  0.018306043  0.018217721           13 
 2321000   0.88697523   -7.7708776    510.26109  0.018320447  0.018210999            4 
 2322000   0.90825295   -7.7346614    511.10664  0.018342903  0.018204295            8 
 2323000   0.87736338   -7.7073574    510.27068  0.018305018  0.018197611            5 
 2324000   0.88685671   -7.7119608    511.01916   0.01832398  0.018190927            6 
 2325000   0.89106036    -7.768574    509.83976  0.018273827   0.01818422            6 
 2326000   0.88714196   -7.7547527    511.22531   0.01831561   0.01817752           10 
 2327000   0.88258798   -7.7200486    509.75126  0.018254951  0.018170836            8 
 2328000   0.87124241    -7.721754    512.20139  0.018334815  0.018164176            3 
 2329000   0.88022039   -7.7640494    511.51122  0.018302248  0.018157548            5 
 2330000   0.89461065   -7.7279381    511.00466  0.018276276  0.018150967            3 
 2331000    0.8765389   -7.7367448    511.42803  0.018283571  0.018144303           13 
 2332000   0.88472471   -7.7273723    510.59874  0.018246096  0.018137694           21 
 2333000    0.8685608   -7.7505146    510.45689  0.018233208  0.018131015            3 
 2334000   0.86624254    -7.742112    511.59368  0.018265984  0.018124352           12 
 2335000   0.88341225   -7.7053878    510.80189  0.018229903  0.018117697            3 
 2336000   0.88353419   -7.7603507    510.86489  0.018224347  0.018111009            7 
 2337000   0.88300542   -7.7414548    510.67971  0.018209946  0.018104303            8 
 2338000   0.88695005    -7.755254    509.64274  0.018165196  0.018097602            5 
 2339000   0.87241505   -7.7555907    511.28482  0.018215933   0.01809086            7 
 2340000   0.88483899   -7.7929864    510.09557  0.018165797  0.018084106           13 
 2341000   0.88375291   -7.7420087    509.50531  0.018137025  0.018077377            3 
 2342000   0.86027783   -7.7618164    511.84351  0.018212479  0.018070641            7 
 2343000   0.88042248   -7.7487934    512.39378  0.018224277  0.018063967            9 
 2344000   0.87473497   -7.7714463    509.65243  0.018119043  0.018057223           10 
 2345000   0.86642948   -7.7658632    510.25808  0.018132839  0.018050446           12 
 2346000   0.86802948   -7.7695047    510.29473  0.018126411  0.018043645           18 
 2347000   0.86685431   -7.7847417    510.25443  0.018117257  0.018036839           10 
 2348000   0.88692739   -7.7643976     509.9695  0.018099429  0.018030051            9 
 2349000   0.88972328     -7.77189    508.68517  0.018046161  0.018023235           13 
 2350000   0.87007649   -7.7933195     509.2163  0.018057316  0.018016398            7 
 2351000   0.87719973   -7.7581038    509.79463  0.018070134  0.018009597            5 
 2352000   0.88555365   -7.7697026    510.37813  0.018083125  0.018002842            6 
 2353000   0.87322847   -7.7889668    510.03938  0.018063443  0.017996103            8 
 2354000   0.88950845   -7.8027633    509.16652   0.01802487  0.017989316            7 
 2355000   0.87988599   -7.7746318    510.65459  0.018069872  0.017982505            5 
 2356000   0.86937065   -7.7526353    511.15139  0.018079775  0.017975756           10 
 2357000     0.867616   -7.7584369    510.88607  0.018062724  0.017969019           14 
 2358000   0.86536758   -7.7578691    510.88356  0.018054975   0.01796231           14 
 2359000   0.87384448   -7.7993699    510.80181  0.018044433   0.01795554           10 
 2360000   0.88777027    -7.786461    510.94516  0.018041849  0.017948731            7 
 2361000   0.87190056   -7.7609649    511.03045  0.018037217  0.017941978           11 
 2362000    0.8674459   -7.7740342     511.5381  0.018047492  0.017935215           11 
 2363000   0.86809676   -7.7709143    512.18462  0.018062654  0.017928503            6 
 2364000   0.87052659   -7.7832882    511.06627  0.018015591  0.017921824            9 
 2365000   0.86294055   -7.7616891    513.13746  0.018080954  0.017915154            5 
 2366000   0.85947473   -7.7558081    512.06431  0.018035514  0.017908517           11 
 2367000   0.86635412   -7.7559075    511.77078   0.01801756  0.017901872            7 
 2368000    0.8715926   -7.8083632     511.2507  0.017991649  0.017895219            8 
 2369000   0.85395527   -7.7440303    513.53569  0.018064433  0.017888586            8 
 2370000   0.89769169   -7.7805827     512.1103  0.018006691  0.017881932           14 
 2371000   0.87349972    -7.757745    512.84988  0.018025091   0.01787528            5 
 2372000   0.88229484   -7.7520953    513.26817  0.018032187  0.017868667           22 
 2373000   0.88794395   -7.7753085    513.47096  0.018031709  0.017862054            4 
 2374000    0.8810639   -7.7768568    512.56566  0.017992336  0.017855432            7 
 2375000   0.88936598   -7.7956966     512.1757  0.017971077  0.017848769            6 
 2376000    0.8835127   -7.8102448    512.64756  0.017980063  0.017842067            7 
 2377000   0.87803159   -7.8285224       512.65  0.017972585  0.017835369            7 
 2378000   0.86337765   -7.8409515    511.33175  0.017918831  0.017828645           13 
 2379000   0.86405607   -7.8130018     512.4669  0.017951061  0.017821961           12 
 2380000   0.86593403   -7.7525393    512.73113  0.017952771   0.01781531           12 
 2381000   0.85718425   -7.7886976     512.3575  0.017932154   0.01780871            6 
 2382000   0.86002434   -7.7943738    512.38193   0.01792548   0.01780212           10 
 2383000   0.86214793   -7.8146056    510.57096  0.017854629  0.017795475            6 
 2384000   0.86179667   -7.8049816    510.71809  0.017852282  0.017788786            7 
 2385000   0.89422566   -7.7816361    511.75834  0.017881144  0.017782073           11 
 2386000   0.88511983   -7.7938466    513.06721  0.017919363  0.017775387           13 
 2387000   0.87649595    -7.783055    512.38887  0.017888174  0.017768706            7 
 2388000    0.8786643    -7.780451    512.77749  0.017894245  0.017762051           12 
 2389000   0.87276377   -7.8112819    512.89864  0.017890981  0.017755386           11 
 2390000   0.87658056    -7.791475    511.26182  0.017826423  0.017748669           10 
 2391000   0.86385871   -7.8059697    511.70311  0.017834348  0.017741971            7 
 2392000   0.87937354   -7.7954192    512.11746  0.017841327  0.017735287            6 
 2393000    0.8608971   -7.7933637    512.13948  0.017834639  0.017728598           13 
 2394000   0.88034576   -7.7926264    512.88842  0.017853259   0.01772192           14 
 2395000   0.87659567   -7.7924727    512.67785  0.017838478  0.017715241           12 
 2396000   0.88209272   -7.7990747    513.32331  0.017853482  0.017708581           17 
 2397000   0.87483363   -7.8100551    512.64945  0.017822606   0.01770195            7 
 2398000   0.87575097   -7.7622444    514.27791  0.017871765  0.017695341            2 
 2399000   0.88957598   -7.7459869    513.32038  0.017831054  0.017688785            3 
 2400000   0.86112612   -7.7738523    514.13718  0.017851985  0.017682257           10 
 2401000   0.87131859   -7.7615495    513.75446  0.017831267  0.017675678            7 
 2402000   0.85831819   -7.7858628    513.77184  0.017824446  0.017669107            6 
 2403000   0.87223101   -7.8065661    513.07585  0.017792893  0.017662478           11 
 2404000   0.84735818   -7.8086614    512.31233  0.017759024  0.017655816           11 
 2405000   0.88421556   -7.7911521    513.87747  0.017805872  0.017649194           16 
 2406000   0.88436585   -7.7978933    514.09771    0.0178061  0.017642547           13 
 2407000   0.87309071   -7.7900416    513.80116  0.017788435  0.017635903           10 
 2408000   0.87014105   -7.8072291    512.66779  0.017741825  0.017629277           10 
 2409000   0.88174984   -7.8094267     513.4525  0.017761606  0.017622648            5 
 2410000   0.85737286   -7.7990107    512.68176  0.017727585  0.017616005            7 
 2411000   0.87337379   -7.8030365    514.30149  0.017776216  0.017609358            8 
 2412000   0.88057136   -7.7976215    512.40809   0.01770343  0.017602727           17 
 2413000    0.8547735   -7.7812857    514.07293  0.017753589  0.017596133            6 
 2414000   0.87008177   -7.7892789    513.95692   0.01774223  0.017589539            9 
 2415000   0.86941335   -7.7859347    514.58579  0.017756584  0.017582948           10 
 2416000   0.88263914   -7.8138816    512.53591  0.017678529  0.017576349           11 
 2417000   0.85986799   -7.7959762    514.42363  0.017736299  0.017569714           16 
 2418000   0.86611356   -7.8361159    512.20676  0.017652563  0.017563065            9 
 2419000   0.85929906   -7.8154442    513.69381  0.017696493  0.017556449           11 
 2420000   0.85715162   -7.8187632    514.17182  0.017705641   0.01754984            8 
 2421000   0.85961195   -7.7770206    513.89648   0.01768885  0.017543224           13 
 2422000   0.86743855   -7.7670005    515.58034  0.017739483  0.017536608            8 
 2423000    0.8529576    -7.793155    513.72897  0.017668488  0.017529977            9 
 2424000   0.83704644    -7.843892    513.27325  0.017645533  0.017523317           10 
 2425000   0.86936054   -7.8107546    513.36722  0.017641485  0.017516663           19 
 2426000   0.85722763    -7.815517     513.4114  0.017635731  0.017510001           10 
 2427000   0.87536294   -7.7829535    514.19792   0.01765547  0.017503372           11 
 2428000   0.84961799   -7.8066504    512.93291  0.017604781   0.01749678            7 
 2429000   0.86184774   -7.8335786    512.88751  0.017595976  0.017490134           15 
 2430000   0.87134511   -7.7776564    515.30927  0.017671786  0.017483546            7 
 2431000   0.88238488   -7.8045175    513.45108  0.017600818  0.017477009            7 
 2432000   0.86656758   -7.7789517    514.78917  0.017639432  0.017470456           12 
 2433000     0.855556   -7.7845691    515.11642   0.01764339    0.0174639           10 
 2434000   0.85657318   -7.8271117    513.51511  0.017581317  0.017457374           17 
 2435000   0.87237843   -7.8156462    514.77779   0.01761731  0.017450798           10 
 2436000   0.85423597    -7.794579    514.37979  0.017596462  0.017444251            6 
 2437000   0.88264353   -7.7929383    514.05963  0.017578294  0.017437708            9 
 2438000     0.857661   -7.8457595     514.7368   0.01759423  0.017431129            4 
 2439000    0.8806555   -7.8425137    514.75475   0.01758763  0.017424556            4 
 2440000    0.8657694   -7.8152954    514.40168  0.017568363  0.017417989            7 
 2441000   0.85678245   -7.8032455    514.94054  0.017579562  0.017411409            7 
 2442000   0.85096163   -7.7906298    514.27423  0.017549626  0.017404851           11 
 2443000   0.86146349   -7.8004694    514.88321  0.017563215  0.017398289            7 
 2444000   0.85256037   -7.8152179    514.67144  0.017548808  0.017391716            7 
 2445000   0.86727232   -7.8133308     516.0384  0.017588221   0.01738515           14 
 2446000   0.86691007   -7.8142161    515.77578  0.017572083  0.017378572            4 
 2447000   0.88102138   -7.7815702    516.10519   0.01757612  0.017372011            8 
 2448000   0.85628674   -7.7960472    516.04055   0.01756674  0.017365454           12 
 2449000   0.88209892   -7.8040768    513.97172   0.01748917  0.017358898           11 
 2450000   0.85315406   -7.8163319    514.37018  0.017495584   0.01735233           12 
 2451000   0.85765421   -7.8075274    515.57451  0.017529393  0.017345755           23 
 2452000   0.85620315   -7.8472992    513.57849  0.017454408  0.017339156           19 
 2453000   0.84749821   -7.8199744    515.89413  0.017525959  0.017332578           18 
 2454000   0.85402712   -7.8393281    515.15295  0.017493648  0.017325987            9 
 2455000   0.85918285   -7.8056983    515.82753   0.01750942  0.017319419            6 
 2456000   0.86357859    -7.807297    516.29546  0.017518168  0.017312868            8 
 2457000   0.87790438   -7.8325596    516.41214  0.017514996  0.017306279           16 
 2458000   0.86361481   -7.8237218    515.25259  0.017468558  0.017299735           33 
 2459000   0.87074789   -7.8246022     515.7866  0.017479551  0.017293164           14 
 2460000   0.85408282   -7.7911324    515.21417  0.017453054  0.017286619            7 
 2461000   0.85006334   -7.7742695     515.7021  0.017462485  0.017280056           12 
 2462000   0.84025825   -7.8145634    515.13024  0.017436036   0.01727355            9 
 2463000   0.85313912   -7.7754561    516.95792  0.017490794  0.017267069           13 
 2464000   0.84318615   -7.8259211    514.96026  0.017416134  0.017260561           25 
 2465000   0.85597067   -7.8037025      516.386  0.017457268  0.017254029           13 
 2466000   0.86348312    -7.830157    514.85433   0.01739843   0.01724748           28 
 2467000   0.85788674   -7.8036486    515.85781  0.017425274  0.017240956            4 
 2468000   0.85489284   -7.8242319    516.63617  0.017444495  0.017234452           32 
 2469000   0.86293395   -7.8311669    515.58834  0.017402064  0.017227911            8 
 2470000   0.84697828   -7.8133586    515.70441  0.017398934  0.017221376            7 
 2471000   0.84294651   -7.8799115    514.52503  0.017352119  0.017214805           15 
 2472000   0.86700666   -7.8580576    513.77176  0.017319706   0.01720823            8 
 2473000   0.86824482   -7.8483736    515.18689  0.017360388  0.017201646           15 
 2474000   0.84056148   -7.8443085    515.27621   0.01735638  0.017195094           27 
 2475000   0.86499095    -7.843785    515.92906  0.017371349  0.017188541           11 
 2476000   0.85468802   -7.8469564    515.86222  0.017362083  0.017181959           30 
 2477000   0.87404701   -7.8898337    514.68165  0.017315356   0.01717537           35 
 2478000   0.84880403   -7.8594145     514.5524  0.017304022  0.017168814           32 
 2479000   0.84715907   -7.8763152    515.66938   0.01733459  0.017162257           12 
 2480000    0.8493269   -7.8399106    516.28947  0.017348437  0.017155724           15 
 2481000   0.85777869   -7.8539411    515.54402  0.017316405    0.0171492           10 
 2482000   0.83584672   -7.8419395    515.02346  0.017291951  0.017142691           27 
 2483000   0.84986336   -7.8235088    516.76404  0.017343403  0.017136175            6 
 2484000   0.84006996   -7.8149267    516.32807  0.017321795  0.017129688            4 
 2485000   0.85209238   -7.8295842    516.29916  0.017313855  0.017123166           19 
 2486000   0.84536813   -7.8629495    515.04631  0.017264894  0.017116646            9 
 2487000   0.86450747   -7.8457843    515.59175  0.017276228  0.017110116            8 
 2488000   0.85133194   -7.8323417    515.60928  0.017269871   0.01710363           20 
 2489000   0.85515444   -7.8371377    515.85568  0.017271182  0.017097145           10 
 2490000    0.8413734   -7.8167002    517.23521  0.017310415  0.017090667           11 
 2491000   0.87891532   -7.8646783    515.11715  0.017232609  0.017084168            7 
 2492000   0.85149141   -7.8445552    516.49057  0.017271621  0.017077625           13 
 2493000   0.86355172   -7.8679617    516.19097  0.017254679  0.017071094           15 
 2494000   0.84726466   -7.8389287    515.87264  0.017237124  0.017064515           15 
 2495000   0.83512674   -7.8309294    517.05263  0.017269627  0.017057986            7 
 2496000   0.86866474   -7.8284339    517.03718  0.017262192  0.017051463            5 
 2497000   0.85649202   -7.8607534    516.10116  0.017224041  0.017044951            7 
 2498000   0.83881846   -7.9026956     514.1403  0.017151731   0.01703842           10 
 2499000   0.86761806   -7.9157088      514.048   0.01714179  0.017031821           17 
 2500000   0.82936529    -7.872944    514.93854  0.017164618  0.017025246            5 
 2501000   0.85731068   -7.8775082    516.02627  0.017193998  0.017018707            7 
 2502000   0.86358641   -7.8700866    516.20158  0.017192965   0.01701221            8 
 2503000   0.85201532   -7.8263761     518.1968  0.017252524  0.017005734            4 
 2504000   0.87737377   -7.8374144    515.62565  0.017160066  0.016999253            7 
 2505000   0.83857581   -7.8778176    515.90612  0.017162546  0.016992751            4 
 2506000   0.82703574    -7.885377    516.35102  0.017170492  0.016986267            7 
 2507000   0.86287142   -7.8777703    515.74608  0.017143534  0.016979773           17 
 2508000   0.84352185   -7.8517037    517.91916  0.017208903  0.016973294           18 
 2509000   0.84995597   -7.8697096    515.68879  0.017127966  0.016966786            5 
 2510000   0.86249624   -7.8532836     516.8722  0.017160432  0.016960333            6 
 2511000   0.82713922   -7.8518764    518.17969   0.01719699  0.016953874           14 
 2512000   0.83577857   -7.8209819    518.13797   0.01718876  0.016947473           13 
 2513000   0.85675021   -7.8832652    515.55818  0.017096372  0.016941066           28 
 2514000   0.84265865   -7.8540337    517.57918  0.017156563  0.016934604           12 
 2515000   0.85621992   -7.8600184     516.9994   0.01713053  0.016928141           11 
 2516000   0.83655041   -7.8670597    516.84406  0.017118576  0.016921652            8 
 2517000   0.85502304   -7.8647087    517.23573  0.017124743  0.016915169            8 
 2518000    0.8370673   -7.8794871    517.85296  0.017138369  0.016908697            8 
 2519000   0.85602846   -7.8717014    516.61516  0.017090617  0.016902233            9 
 2520000   0.84514263   -7.8440734    518.63633  0.017150672  0.016895759            6 
 2521000   0.86220789   -7.8685807    517.45596  0.017104851  0.016889307            9 
 2522000   0.87985359    -7.860242    515.95353  0.017048425  0.016882893           17 
 2523000   0.85493636   -7.8627451    516.71312  0.017066757  0.016876462           15 
 2524000   0.85457396   -7.8824768    517.20302  0.017076169  0.016870041            9 
 2525000   0.84386645   -7.9002443    517.24541  0.017070806  0.016863578           11 
 2526000   0.84631794   -7.8510692    518.07172  0.017091308  0.016857123           29 
 2527000   0.85866984   -7.8695962    517.38419  0.017061871  0.016850664           40 
 2528000     0.854175   -7.8402924     517.8608  0.017070833  0.016844216           48 
 2529000   0.85788417   -7.8541544    516.78923  0.017028774  0.016837769           18 
 2530000   0.84475931   -7.8635956    517.20348  0.017035688  0.016831341           20 
 2531000   0.82784644   -7.8611464    517.96273  0.017053955  0.016824942           18 
 2532000   0.83496596   -7.8815086    516.05739  0.016984511  0.016818512           10 
 2533000   0.85422425   -7.8196937    519.36517  0.017086629  0.016812081           13 
 2534000   0.82693395   -7.8223172    519.36401  0.017079848  0.016805721           14 
 2535000   0.85283797   -7.8399209    518.15079  0.017033228   0.01679937           25 
 2536000   0.84723111   -7.8707492    517.49334  0.017004907  0.016792972           15 
 2537000    0.8337725   -7.8442514    518.21206  0.017021812  0.016786523           14 
 2538000   0.83993102   -7.8586271    518.32678  0.017018872  0.016780111            9 
 2539000    0.8502975   -7.8582356    517.23209   0.01697624  0.016773677           11 
 2540000   0.85552869   -7.8680336     517.6995  0.016984892   0.01676724            6 
 2541000   0.84846681   -7.8487594      517.929  0.016985734  0.016760822            7 
 2542000    0.8414622   -7.8458432    518.02086  0.016982063  0.016754435           17 
 2543000    0.8615609    -7.867043    517.22517  0.016949311  0.016747983            6 
 2544000   0.84730024   -7.8859986    517.11208  0.016938944   0.01674154           17 
 2545000   0.86156915   -7.8728585    516.81237  0.016922474  0.016735093           12 
 2546000   0.87246934   -7.9048554      515.968  0.016888191    0.0167286           16 
 2547000   0.84095158   -7.8705618    517.96442  0.016946879  0.016722138            7 
 2548000   0.84109946   -7.8746704    516.32164  0.016886501  0.016715675           21 
 2549000   0.85271484   -7.8735054    517.84134  0.016929559  0.016709232           11 
 2550000   0.85077642   -7.8892632    518.40663  0.016941393  0.016702791           17 
 2551000   0.83124545   -7.8828551    516.37529  0.016868394   0.01669635            3 
 2552000   0.82472907   -7.8654141    518.28909  0.016924278   0.01668989            7 
 2553000   0.86943869   -7.8645799    517.29894  0.016885329  0.016683471           10 
 2554000   0.84722279   -7.8685574    518.31444  0.016911852  0.016677057            4 
 2555000   0.86180693   -7.8912654    517.76674  0.016887369  0.016670591           11 
 2556000   0.84784939   -7.8937206    516.86304  0.016851299  0.016664103           11 
 2557000   0.84091569   -7.8724303    517.97689  0.016881009  0.016657648            8 
 2558000   0.85301775   -7.9011088    516.60555  0.016829735  0.016651163            7 
 2559000    0.8441522   -7.8623113    516.48546  0.016819248  0.016644685           15 
 2560000   0.84142354   -7.8921341    517.29942  0.016839174  0.016638191           15 
 2561000   0.83664069   -7.8470655    516.24016  0.016798131  0.016631697            7 
 2562000   0.84042462    -7.864207    516.92065  0.016813708  0.016625258            9 
 2563000   0.85129933   -7.8679742    516.78802  0.016802836  0.016618796           15 
 2564000   0.84688734   -7.8908803    518.34888  0.016847013  0.016612341            9 
 2565000   0.87341625   -7.8889909    517.22806  0.016804031  0.016605874           14 
 2566000   0.84057358    -7.881138     517.0906  0.016793018    0.0165994           14 
 2567000   0.84190698   -7.8839104    517.70493  0.016806419  0.016592927           24 
 2568000   0.84330127   -7.8738438    517.30337  0.016786843  0.016586461           13 
 2569000   0.81662284   -7.8848671    517.98391  0.016802385  0.016580023           12 
 2570000   0.84250447   -7.8956104     516.2463  0.016739504  0.016573574            9 
 2571000   0.86370272   -7.8781812    517.58139  0.016776267  0.016567149            9 
 2572000    0.8627134   -7.8985369    516.25065  0.016726628  0.016560688           32 
 2573000   0.82172034   -7.8964102     516.8469  0.016739439  0.016554234           13 
 2574000   0.83903957   -7.9057858    518.25377  0.016778482  0.016547769           18 
 2575000   0.83650556   -7.8966916    517.15522  0.016736415  0.016541307            7 
 2576000   0.83266522   -7.8947786    517.79731  0.016750689  0.016534877           12 
 2577000   0.84811991   -7.9007971    517.55077  0.016736217  0.016528387           27 
 2578000   0.83049256   -7.9300974    516.50077  0.016695784  0.016521926           45 
 2579000   0.84472976   -7.8648013     517.6185  0.016725427  0.016515423           29 
 2580000   0.83967829   -7.8985194    517.27246  0.016707767  0.016508988           38 
 2581000   0.81297632   -7.8739133    518.59331   0.01674394  0.016502571           41 
 2582000   0.83250448   -7.8997282    517.46773  0.016701127  0.016496139           60 
 2583000   0.85241526   -7.9147779    516.25171   0.01665543  0.016489691           46 
 2584000   0.83583087   -7.8791547    518.42422  0.016719047  0.016483264           42 
 2585000   0.85066607   -7.9322839    516.90676  0.016663661  0.016476826           30 
 2586000   0.84635064   -7.9318556    516.82632  0.016654625  0.016470378           21 
 2587000   0.81564422   -7.8954188    517.54672  0.016671393  0.016463941           44 
 2588000    0.8486817    -7.866058    518.15964  0.016684687  0.016457522           16 
 2589000   0.82520629   -7.9204555    517.61685  0.016660772  0.016451125           16 
 2590000   0.84014178   -7.9193928    516.82292  0.016628794  0.016444696           14 
 2591000   0.82164036   -7.9078083    515.48401  0.016579313  0.016438238            9 
 2592000    0.8393717   -7.9061617    517.76198  0.016646154  0.016431767           36 
 2593000   0.83511058   -7.9366432    518.41408  0.016660691  0.016425294           15 
 2594000   0.83252996   -7.9150383    517.03792  0.016610059  0.016418806           30 
 2595000   0.83708668   -7.9184126    518.40849  0.016647672  0.016412348           28 
 2596000    0.8308241   -7.9031674    517.75288  0.016620213   0.01640589           24 
 2597000   0.83237079   -7.9064894    517.99165  0.016621475  0.016399415           35 
 2598000   0.84734932     -7.90482    516.64793  0.016571976   0.01639295           20 
 2599000   0.84011419   -7.9142489    518.26618  0.016617487  0.016386491           16 
 2600000   0.82624764   -7.9058018    518.26811  0.016611157  0.016380005           25 
 2601000   0.83972282   -7.8873761    517.96477  0.016595052   0.01637358           16 
 2602000   0.84341683   -7.9122209    517.24502  0.016565623  0.016367137           17 
 2603000   0.82462146   -7.8929378    518.21851  0.016590425  0.016360664           41 
 2604000   0.83616933   -7.8873541    518.58214  0.016595691  0.016354227           46 
 2605000   0.83309139    -7.924478    517.57052  0.016556958  0.016347778           43 
 2606000    0.8490784   -7.9065391    517.82769  0.016558829  0.016341316           51 
 2607000   0.84422796   -7.9503542    517.42923   0.01653974  0.016334863           71 
 2608000   0.82354822   -7.8898418    517.75918  0.016543941   0.01632844           38 
 2609000   0.83576019    -7.902819    517.03798  0.016514564  0.016321947           47 
 2610000   0.83977857    -7.916162    518.04716  0.016540459  0.016315458           76 
 2611000   0.84183235   -7.9212791    515.27898  0.016445774  0.016308965           68 
 2612000   0.84244208    -7.909062     516.3123  0.016472445  0.016302492           28 
 2613000   0.82351801    -7.920731    518.16331  0.016525173   0.01629602           42 
 2614000    0.8308328   -7.8965769    517.57846  0.016500206   0.01628955           36 
 2615000   0.81935446   -7.9344499    517.84212  0.016502298  0.016283071           35 
 2616000    0.8289017   -7.9431501    517.10002   0.01647235  0.016276585           42 
 2617000   0.83465515    -7.923037    517.11585   0.01646656  0.016270112           24 
 2618000   0.82877263   -7.9188012    515.17941  0.016398632  0.016263634           36 
 2619000   0.81631156   -7.9324106    516.56266  0.016436384  0.016257122           43 
 2620000   0.83541392   -7.9252652     516.8113  0.016438019   0.01625062           45 
 2621000   0.82182553   -7.9180243    517.84662  0.016464664  0.016244126           52 
 2622000   0.83410727   -7.8989481    516.95501  0.016430047  0.016237641           49 
 2623000   0.81340348   -7.8977698    517.70994  0.016447768  0.016231165           51 
 2624000   0.83175142    -7.909584    515.84964   0.01638242  0.016224703           48 
 2625000   0.81803426   -7.9041566    517.26628  0.016421152   0.01621823           46 
 2626000   0.82718906   -7.9391248    515.71501   0.01636567  0.016211803           22 
 2627000   0.83509579   -7.9041146    519.06375  0.016465669  0.016205382           53 
 2628000   0.83154838   -7.9268285    517.53424  0.016410903  0.016198927           63 
 2629000   0.81587481   -7.9164635    517.99153  0.016419156  0.016192506           38 
 2630000   0.81768163   -7.9083649    517.97143  0.016412276  0.016186076           77 
 2631000   0.83800418   -7.9391864    516.71474  0.016366234  0.016179626           53 
 2632000   0.83244868   -7.9453743    517.44144  0.016383024   0.01617318           40 
 2633000    0.8118553   -7.9593708    516.85475  0.016358234  0.016166698           29 
 2634000   0.83267913   -7.9313021    516.74244   0.01634847  0.016160234           45 
 2635000   0.82043191   -7.9016581    517.90971  0.016379181  0.016153793           44 
 2636000   0.81539444   -7.9417973    517.31995  0.016354323  0.016147364           55 
 2637000   0.82397237   -7.9344627    517.35683  0.016349287  0.016140908           91 
 2638000   0.83385865   -7.9222267    517.58038  0.016350151  0.016134483           49 
 2639000     0.831484   -7.9243401    517.81628  0.016351405  0.016128075           79 
 2640000   0.85034225   -7.9602044    516.96913   0.01631847   0.01612164           41 
 2641000   0.82277202   -7.9302712    518.13433  0.016349058  0.016115238           26 
 2642000   0.83002411   -7.9041538    517.68012  0.016328543  0.016108837           27 
 2643000   0.84846317   -7.9350736    518.26013  0.016340652  0.016102454           51 
 2644000   0.82484894     -7.91505    518.30415   0.01633586  0.016096065           38 
 2645000   0.82489147   -7.9195559    517.23026  0.016295849  0.016089677           37 
 2646000   0.83264085   -7.9352375    516.82206  0.016276835  0.016083254           26 
 2647000   0.83474239   -7.9436142    517.11978  0.016280059  0.016076808           26 
 2648000   0.82159743   -7.9058284    518.05877  0.016303461  0.016070379           15 
 2649000   0.85301628   -7.9287819    518.64796  0.016315841  0.016064005           40 
 2650000   0.86361028   -7.9040407    518.48208  0.016304468  0.016057639           31 
 2651000   0.83040148   -7.8927816    518.52145  0.016299555  0.016051272           28 
 2652000   0.83064111   -7.9103607    519.56088  0.016326071  0.016044904           31 
 2653000   0.83255426   -7.9437756    516.78708  0.016232789  0.016038543           21 
 2654000   0.81236674   -7.8881706    518.78496  0.016289405  0.016032187           27 
 2655000   0.83268916   -7.9058867    519.33046  0.016300391  0.016025859           43 
 2656000   0.84217017   -7.9565829    517.58993  0.016239644  0.016019519           26 
 2657000   0.83853121   -7.9412722    517.54403  0.016232092  0.016013162           36 
 2658000   0.82203027   -7.9493575    517.10041  0.016212077  0.016006763           31 
 2659000   0.83090257   -7.9580371    517.81824  0.016228477   0.01600038           25 
 2660000   0.82759895   -7.9566937    517.96806  0.016227069  0.015993981           44 
 2661000   0.83826676   -7.9616131    518.68889  0.016243545   0.01598758           42 
 2662000   0.82231676   -7.9729066    517.26101  0.016192744  0.015981186           36 
 2663000   0.81767957   -7.9433521    518.91079   0.01623829  0.015974798           37 
 2664000   0.84129248   -7.9485357    519.33379  0.016245426  0.015968446           33 
 2665000   0.82655425   -7.9581489     518.1599  0.016202623  0.015962083           54 
 2666000   0.82922008   -7.9669607    518.07558   0.01619391  0.015955718           43 
 2667000   0.82247107    -7.912648    519.70049   0.01623861  0.015949378           40 
 2668000   0.83623312   -7.9340942    519.78396  0.016235131  0.015943032           60 
 2669000   0.82393839   -7.9815603     517.5728   0.01616001  0.015936702           52 
 2670000   0.81642944   -7.9776503    516.00035   0.01610488  0.015930345           29 
 2671000   0.81143005   -7.9488423    518.61071  0.016180292  0.015924001           33 
 2672000   0.80732912   -7.9636144    517.87515  0.016151296  0.015917685           38 
 2673000   0.82063996   -7.9428474    519.23006  0.016187494  0.015911381           30 
 2674000   0.82090312   -7.9535119    519.61039  0.016193293  0.015905074           35 
 2675000   0.80325848   -7.9441476    518.01315  0.016137481  0.015898785           12 
 2676000   0.83311002   -7.9658758    518.68275  0.016152303  0.015892443           19 
 2677000   0.82202165   -7.9290249    519.29458  0.016165315   0.01588612            6 
 2678000   0.79937013   -7.9535282     518.9377  0.016148174  0.015879773           11 
 2679000   0.83106245   -7.9713921    518.49614  0.016128411  0.015873472            9 
 2680000   0.80363887   -7.9618141    518.22966  0.016114106  0.015867117           30 
 2681000   0.82449856   -7.9448215    518.72867  0.016123606  0.015860789           22 
 2682000   0.82498019   -7.9438988    518.28691  0.016103869  0.015854471            7 
 2683000   0.81745406   -7.9561127    518.76031   0.01611257  0.015848158           14 
 2684000   0.81657432   -7.9462862    519.45447  0.016128119  0.015841849           18 
 2685000   0.81680141   -7.9221741    520.14488  0.016143541  0.015835579           21 
 2686000   0.82732794   -7.9652342    518.47606  0.016085755  0.015829254           39 
 2687000   0.81765464   -7.9536658    519.18152  0.016101647  0.015822936           11 
 2688000   0.81148684    -7.949945    519.13014  0.016094064  0.015816619           27 
 2689000   0.82586384   -7.9585842    517.84569  0.016048273  0.015810327           27 
 2690000   0.82167442   -7.9519305    519.18171  0.016083696  0.015804056           17 
 2691000    0.8354162    -7.964717    518.07132  0.016043333  0.015797795           12 
 2692000   0.83836756   -7.9584326    518.80363  0.016060043  0.015791493           12 
 2693000   0.83599305    -7.923642    519.00985  0.016060461  0.015785195           14 
 2694000   0.85110217    -7.961907    518.89408  0.016050918  0.015778918           19 
 2695000   0.81981652   -7.9454757     519.1592   0.01605316  0.015772622           34 
 2696000    0.8016069   -7.9672581    519.09639  0.016045264  0.015766323           31 
 2697000   0.82352186   -7.9242544     519.1298  0.016040347  0.015760039           47 
 2698000   0.83278038   -7.9299813    518.13071  0.016003543  0.015753784           47 
 2699000    0.7895574   -7.9629249    518.67028  0.016014273  0.015747513           58 
 2700000   0.82508514   -7.9352372    520.54247  0.016066126  0.015741218           36 
 2701000   0.81127783   -7.9319013    518.66853  0.016002361  0.015734929           53 
 2702000   0.83506253   -7.9764487    518.39411  0.015987975  0.015728631           88 
 2703000   0.83684752   -7.9753458     517.8338  0.015964786  0.015722341           93 
 2704000   0.81941768   -7.9967712    517.62327  0.015952394  0.015716016           83 
 2705000   0.82436316   -7.9575569    520.24092  0.016027139  0.015709714          102 
 2706000   0.83128201   -7.9817231    518.61089  0.015971018  0.015703414          116 
 2707000   0.81601411   -7.9748404    518.68908  0.015967525  0.015697116          122 
 2708000   0.80786704   -7.9344674    519.37835  0.015982839  0.015690821          101 
 2709000   0.83281224   -7.9411677    519.14773  0.015969845  0.015684537          152 
 2710000   0.79402469   -7.9315193     517.8578  0.015924287  0.015678283           83 
 2711000   0.81469613   -7.9501228    519.55091  0.015970457  0.015672016           81 
 2712000   0.80865903   -7.9380543    518.80862  0.015941759  0.015665751          107 
 2713000   0.82315842   -7.9620526    519.17876  0.015947253  0.015659472          110 
 2714000   0.82026009   -7.9520626    520.87587  0.015993487  0.015653247          123 
 2715000    0.8138843   -7.9558453    518.69259  0.015920583  0.015647007          142 
 2716000    0.8185648   -7.9619962    519.47295  0.015938664  0.015640779          133 
 2717000   0.84126558   -7.9944824    518.54347   0.01590429  0.015634517          117 
 2718000   0.82590406   -7.9722732      520.028  0.015943954  0.015628247          131 
 2719000   0.83899679   -7.9534491    520.27771  0.015945743  0.015621992          143 
 2720000   0.80811788   -7.9684229    518.13931  0.015874366  0.015615745          110 
 2721000   0.81136627    -7.965788    518.49609  0.015879459   0.01560954          131 
 2722000   0.81676657    -7.970551     520.7137  0.015941517  0.015603305          126 
 2723000    0.8288092    -7.981834    519.53273  0.015899521  0.015597056          147 
 2724000   0.81733311   -7.9540066    519.21956  0.015884103  0.015590829          129 
 2725000   0.80255721   -7.9927079    518.20949  0.015847385  0.015584567          183 
 2726000   0.80090174   -7.9922411    518.35617  0.015846055  0.015578299          162 
 2727000   0.82773943   -7.9836243    519.87484  0.015886653  0.015572065          183 
 2728000   0.80853454    -7.969069    519.42462  0.015867077  0.015565808          167 
 2729000   0.81713691   -7.9850718    519.56694  0.015865608  0.015559557          224 
 2730000   0.81562435   -8.0046429     518.5204  0.015827851  0.015553305          193 
 2731000   0.80795806   -8.0331044    519.55762  0.015853705  0.015547035          287 
 2732000    0.8289998   -8.0047263    517.89983  0.015797335  0.015540744          268 
 2733000   0.83040479   -8.0060512    519.76241  0.015848348  0.015534497          263 
 2734000   0.80696389   -7.9920174    519.55988  0.015836378  0.015528252          229 
 2735000   0.81002803   -7.9751971    520.15354  0.015848676  0.015522038          256 
 2736000   0.81691777   -7.9926238    518.50363   0.01579263  0.015515831          276 
 2737000   0.81871875   -7.9884911    519.08041  0.015804421  0.015509602          261 
 2738000   0.80490665   -7.9695555    519.09288  0.015799028  0.015503384          287 
 2739000   0.80230682   -7.9847098    518.46702  0.015774219  0.015497168          308 
 2740000   0.80009373    -8.007166    518.48532  0.015769018  0.015490918          332 
 2741000   0.81419256   -8.0461246    518.18836  0.015754237  0.015484656          376 
 2742000   0.79712074   -8.0254685    518.05614  0.015744473  0.015478382          334 
 2743000   0.82730627   -8.0192444    519.07426  0.015769664  0.015472126          320 
 2744000    0.8319915   -8.0093996     517.8666  0.015727241  0.015465888          443 
 2745000   0.81088052   -8.0242186      518.772  0.015748998  0.015459636          409 
 2746000   0.80391647   -8.0172082    519.89105  0.015777223  0.015453416          426 
 2747000    0.8328498   -8.0212467    517.54512  0.015700313  0.015447184          443 
 2748000   0.81798625   -8.0234138     519.2064  0.015744978  0.015440919          457 
 2749000   0.82378666   -8.0361102    517.74349  0.015694904   0.01543464          500 
 2750000   0.82495791   -8.0407514      518.276  0.015705333   0.01542841          494 
 2751000   0.81078768   -8.0400401     518.3125   0.01570073  0.015422165          551 
 2752000   0.82737638   -8.0342919    518.07491   0.01568783    0.0154159          528 
 2753000   0.82400164   -8.0481483    518.83671  0.015705192  0.015409629          585 
 2754000   0.78739213   -8.0260857    518.73286  0.015696346   0.01540336          572 
 2755000   0.80048042    -8.045217     518.0277  0.015669319  0.015397089          585 
 2756000   0.80633672   -8.0611017    518.76231  0.015685846  0.015390823          522 
 2757000   0.81501601   -8.0323772    518.98526  0.015686896  0.015384562          593 
 2758000   0.80031239   -8.0792431    517.57559  0.015638615  0.015378278          646 
 2759000   0.79185075   -8.0690482    518.12515  0.015649545   0.01537201          643 
 2760000   0.82674854   -8.0809777    516.31063  0.015589089  0.015365731          677 
 2761000   0.81901898   -8.0899274    517.76318  0.015627284  0.015359466          708 
 2762000   0.80673825   -8.0562256    516.54043  0.015584734  0.015353191          683 
 2763000   0.79813711   -8.0556506    518.90187  0.015650316  0.015346921          674 
 2764000   0.82179179   -8.0849483    517.82682  0.015612241  0.015340647          783 
 2765000   0.82841714   -8.0909801    517.94205  0.015610068  0.015334336          728 
 2766000   0.81101221   -8.0710855    517.53379  0.015592124  0.015328033          718 
 2767000   0.81599607   -8.0809487    517.29443   0.01557928  0.015321728          736 
 2768000    0.8226352   -8.1021423    518.00737  0.015595116  0.015315422          749 
 2769000   0.82177927   -8.0726151    518.27965  0.015597678  0.015309124          809 
 2770000   0.81212708   -8.0832983    518.90479  0.015610854  0.015302833          850 
 2771000   0.80866449   -8.1205747    515.91166  0.015515207  0.015296514          839 
 2772000   0.77800823   -8.1280477    516.05703   0.01551398  0.015290177          820 
 2773000   0.82623417   -8.1481687    515.99232  0.015506441  0.015283849          894 
 2774000   0.81466802   -8.1591452    515.89488  0.015497924  0.015277499          885 
 2775000   0.82056683   -8.1125641    516.65147  0.015515059  0.015271153          948 
 2776000   0.80815426   -8.1629417     515.2646  0.015467838  0.015264809          939 
 2777000    0.8018903   -8.1436647     515.5615  0.015471177  0.015258443          971 
 2778000   0.80339379   -8.1837538    514.82479  0.015443508  0.015252081         1072 
 2779000   0.80801298   -8.1763104    515.29847  0.015452155  0.015245727         1050 
 2780000    0.8253729   -8.1584903     516.2816  0.015476067  0.015239353         1104 
 2781000   0.78651319   -8.1376456    516.32803  0.015471893  0.015232958         1109 
 2782000   0.80670967   -8.1649118     514.6448  0.015415912  0.015226553         1148 
 2783000   0.81493927   -8.1705282    515.97227  0.015450122  0.015220139         1194 
 2784000    0.8074981   -8.1805738    514.81125   0.01540982  0.015213756         1146 
 2785000   0.81295405   -8.1835013    514.91213  0.015407305  0.015207351         1259 
 2786000   0.80108849   -8.1793883    514.73758  0.015396554  0.015200954         1228 
 2787000   0.80351201   -8.1715063     515.2635  0.015406755  0.015194557         1276 
 2788000   0.80530539   -8.2082237    514.07945  0.015365837  0.015188125         1352 
 2789000   0.80710892   -8.1827101      514.604  0.015376001   0.01518169         1283 
 2790000   0.82071841   -8.1881858    513.82425    0.0153472  0.015175255         1366 
 2791000   0.80184692   -8.2132195    513.29702  0.015325959  0.015168793         1410 
 2792000   0.80932733   -8.2268324    513.84875  0.015336937  0.015162301         1540 
 2793000   0.80960782   -8.2467224    514.25941  0.015343699  0.015155779         1756 
 2794000   0.80149728   -8.2593051     513.0091  0.015300916  0.015149241         1727 
 2795000   0.79963959   -8.2645797    513.50775  0.015310309  0.015142694         1817 
 2796000   0.81442674    -8.293744    511.87769   0.01525625  0.015136135         1911 
 2797000    0.8192192   -8.3022292    512.68899  0.015274967  0.015129559         1946 
 2798000   0.79654002   -8.2932518    512.40938   0.01526118   0.01512295         1956 
 2799000   0.80646171   -8.3395511    511.54326  0.015229941  0.015116352         2128 
 2800000   0.82497866   -8.3320306    511.16401  0.015213215   0.01510973         2110 
 2801000   0.80557422   -8.3646461    509.52178  0.015158925  0.015103083         2156 
 2802000   0.81073013   -8.3650073    510.56754  0.015184616  0.015096439         2255 
 2803000   0.81310031   -8.3086178    511.70315  0.015212961  0.015089801         2256 
 2804000   0.80762701   -8.3231738    510.72647  0.015178509  0.015083143         2305 
 2805000   0.80313117   -8.3736254     510.8958  0.015178128  0.015076455         2415 
 2806000   0.80572531    -8.343374    510.52552  0.015161722  0.015069761         2419 
 2807000   0.80721168   -8.4133492    510.25771   0.01514837  0.015063045         2527 
 2808000   0.81544047   -8.3789965    509.58034  0.015122873  0.015056321         2501 
 2809000   0.81015389   -8.4074424    507.30217  0.015049904  0.015049598         2702 
 2810000   0.77792204   -8.3851045    509.66285  0.015114557  0.015042859         2728 
 2811000    0.7976755   -8.4003172    509.12842  0.015093336  0.015036107         2680 
 2812000   0.82034544   -8.4152443    509.97076  0.015112931  0.015029363         2763 
 2813000   0.80396503   -8.4411774     507.9674  0.015048211  0.015022606         2777 
 2814000    0.8162602   -8.4159163    508.69687  0.015064465  0.015015854         2908 
 2815000   0.79431918   -8.4406328    508.31936  0.015047939  0.015009063         2909 
 2816000    0.7746132   -8.4253577    509.19777  0.015068589  0.015002248         3002 
 2817000   0.80629834   -8.4534129    506.64704  0.014987784  0.014995422         3047 
 2818000   0.80141833   -8.4828324     507.2003  0.014998826  0.014988575         3104 
 2819000   0.80922602   -8.5057285    506.68733  0.014978341  0.014981708         3191 
 2820000    0.7978909   -8.5407503    506.18901  0.014958304   0.01497483         3277 
 2821000    0.8020512    -8.530558    505.28937  0.014926426  0.014967941         3268 
 2822000   0.81139684   -8.5270566    504.98217  0.014912065  0.014961051         3298 
 2823000   0.79542503   -8.5467854     505.9477  0.014935285  0.014954158         3296 
 2824000   0.80677954   -8.5569019    504.37965  0.014883724  0.014947246         3401 
 2825000   0.80875314   -8.5341146    506.26071  0.014933944  0.014940312         3439 
 2826000   0.78736423   -8.5454899    505.95972  0.014919784  0.014933372         3456 
 2827000   0.79153436   -8.5695374    505.21323  0.014892502  0.014926421         3509 
 2828000    0.7866863   -8.5599465    504.38492  0.014862828  0.014919478         3508 
 2829000   0.80217269   -8.5721848    504.70364  0.014866962  0.014912537         3566 
 2830000   0.78944767   -8.5839335     504.0253  0.014841734  0.014905586         3528 
 2831000   0.78723921   -8.5770992    504.23539  0.014842676  0.014898632         3635 
 2832000   0.81257945   -8.6069961    503.95863  0.014829291  0.014891685         3585 
 2833000   0.80249014   -8.6109759    504.07346  0.014827434  0.014884731         3660 
 2834000   0.80732198   -8.5712825    504.59454  0.014837525  0.014877776         3605 
 2835000   0.81129218   -8.6094149    503.74082  0.014807196  0.014870822         3678 
 2836000   0.80599615   -8.5708806    503.59226   0.01479761  0.014863876         3712 
 2837000   0.79708513   -8.5943552    505.39459  0.014845335  0.014856924         3654 
 2838000    0.8131854   -8.5981254    503.77774  0.014792628  0.014849971         3655 
 2839000   0.80663662   -8.6062298     503.3915   0.01477608     0.014843         3697 
 2840000    0.8090489   -8.6020762    503.89742  0.014785722  0.014836047         3724 
 2841000   0.79135887   -8.5970545    505.72847  0.014834227  0.014829096         3675 
 2842000   0.78855699   -8.6244753     503.6405  0.014767784  0.014822147         3737 
 2843000   0.79656924   -8.6353416    503.43436  0.014756547  0.014815192         3715 
 2844000   0.81229317      -8.6319    503.46139   0.01475215   0.01480824         3691 
 2845000   0.80105922   -8.6280961    504.29743  0.014771454  0.014801281         3746 
 2846000   0.78493941   -8.6171129    503.44933   0.01474143  0.014794326         3740 
 2847000   0.79430453   -8.6355218    502.89069  0.014719901  0.014787359         3696 
 2848000   0.81169047   -8.6122803    503.90362  0.014744371  0.014780394         3690 
 2849000    0.7849493   -8.6409368    503.05966   0.01471451  0.014773438         3734 
 2850000   0.80002585   -8.6386308    503.15627  0.014712172  0.014766485         3721 
 2851000   0.78989382   -8.6012472     502.2566  0.014680714   0.01475953         3740 
 2852000    0.8157385   -8.6228454    504.39448  0.014738034  0.014752584         3711 
 2853000   0.79476401   -8.6512172     502.8327   0.01468725  0.014745633         3762 
 2854000   0.79617731   -8.6353279    503.77841  0.014709718   0.01473869         3767 
 2855000   0.78987306   -8.6484865      503.312  0.014690951  0.014731734         3795 
 2856000     0.787301   -8.6433314     503.8743  0.014702215  0.014724785         3743 
 2857000   0.79890213   -8.6324276    504.04114  0.014701935  0.014717834         3784 
 2858000   0.77648306    -8.663278    503.90875  0.014692931  0.014710889         3754 
 2859000   0.80402008   -8.6382186     502.2806  0.014640335   0.01470394         3813 
 2860000   0.79228969    -8.652074    502.55444  0.014643195  0.014696987         3802 
 2861000   0.80439241   -8.6483996    502.70989  0.014642604  0.014690031         3842 
 2862000   0.78112238   -8.6665026    503.16422  0.014650717  0.014683084         3800 
 2863000   0.78223179    -8.667256    503.03945  0.014641968   0.01467615         3805 
 2864000    0.7861727   -8.6591484    502.49704  0.014621073  0.014669213         3754 
 2865000   0.79455229   -8.6560785    502.97827  0.014629967  0.014662284         3773 
 2866000   0.79869615   -8.6395808    503.64065  0.014644122  0.014655349         3731 
 2867000   0.80134427   -8.6530883    503.39917  0.014631995  0.014648415         3714 
 2868000   0.80047578   -8.6617112    502.75217  0.014608094  0.014641484         3799 
 2869000   0.80426532   -8.6411732    503.77029  0.014632575  0.014634548         3792 
 2870000   0.79274811   -8.6657684    502.79719  0.014599222  0.014627627         3806 
 2871000   0.78681409   -8.6744558     502.3019   0.01457976  0.014620708         3788 
 2872000   0.80102933    -8.664172    502.03419  0.014566916  0.014613779         3829 
 2873000   0.79259565   -8.6636555    502.89277  0.014586749  0.014606864         3755 
 2874000   0.79749205   -8.6543311     503.8802  0.014610305  0.014599957         3784 
 2875000   0.78894862   -8.6623023    503.11258  0.014582973  0.014593049         3707 
 2876000   0.77464704   -8.6747723    503.13673  0.014578603   0.01458614         3784 
 2877000    0.7845514    -8.672359    502.15358  0.014545058  0.014579236         3761 
 2878000   0.79973845     -8.62753    502.46183   0.01454893  0.014572334         3785 
 2879000   0.79141866   -8.6504786    502.51104  0.014545301  0.014565437         3768 
 2880000   0.79462301   -8.6370937    502.21856  0.014531787  0.014558536         3775 
 2881000   0.77323582   -8.6759208    502.39918  0.014531968  0.014551658         3805 
 2882000    0.7949309   -8.6703004     501.5165  0.014501402  0.014544766         3818 
 2883000   0.77777169   -8.6716761    503.10332   0.01454224   0.01453787         3820 
 2884000   0.78680223   -8.6607809    502.50672  0.014519958   0.01453097         3822 
 2885000   0.78770144   -8.6736242    501.33818  0.014481172  0.014524078         3826 
 2886000    0.8005855   -8.7004011    502.30018  0.014503932  0.014517196         3812 
 2887000   0.78590117   -8.6764766     502.9408    0.0145174  0.014510299         3779 
 2888000   0.78457571   -8.6582194    503.40194  0.014525679  0.014503417         3795 
 2889000   0.79818375   -8.6652081    502.27388  0.014488112  0.014496533         3818 
 2890000   0.79753004   -8.6940311    502.75332  0.014496924   0.01448965         3832 
 2891000   0.77336021    -8.676651    502.40953     0.014482  0.014482768         3790 
 2892000   0.78392814   -8.6805302      502.471  0.014478763   0.01447589         3813 
 2893000   0.81553133   -8.6603807    502.03223   0.01446112  0.014469018         3798 
 2894000   0.78842627   -8.6930429    502.09002  0.014457787  0.014462149         3782 
 2895000   0.79255959   -8.6693286    502.01044  0.014450502   0.01445527         3773 
 2896000   0.80386937    -8.700402    501.43621  0.014428989  0.014448406         3834 
 2897000   0.77966706   -8.6631973     502.8841  0.014465657  0.014441532         3798 
 2898000   0.78401679   -8.6754717    501.79652  0.014429392  0.014434672         3768 
 2899000   0.79895136    -8.697757    501.73565  0.014422665  0.014427816         3791 
 2900000   0.77614096   -8.7010608    502.55512  0.014441239  0.014420951         3864 
 2901000   0.79941751   -8.6659968    502.11523  0.014423625  0.014414105         3815 
 2902000   0.78742427   -8.7086876    502.04944  0.014416766  0.014407259         3807 
 2903000   0.79402927   -8.6955701    502.79256  0.014433131  0.014400409         3806 
 2904000   0.78320385   -8.6886188    501.69443  0.014396649  0.014393553         3816 
 2905000   0.79299307   -8.6737317    501.70617   0.01439203  0.014386713         3792 
 2906000   0.79067087   -8.6954767     500.9319  0.014364875  0.014379883         3805 
 2907000   0.76973581    -8.672283    502.30674  0.014399345  0.014373046         3773 
 2908000   0.78336223   -8.7143957    501.76314  0.014378815  0.014366202         3813 
 2909000   0.78977339   -8.6895501    501.78401   0.01437447  0.014359378         3810 
 2910000   0.77961371   -8.6739061    502.72338  0.014396431  0.014352549         3784 
 2911000   0.79487203   -8.7154687    502.38018  0.014381661  0.014345724         3796 
 2912000   0.79127204   -8.6973338    501.39096  0.014348414  0.014338899         3806 
 2913000   0.79276426   -8.6633053    502.15205  0.014365261  0.014332081         3805 
 2914000   0.77625058   -8.7110892    501.70488  0.014347543   0.01432526         3839 
 2915000   0.78639826   -8.6754918    501.60378  0.014339731  0.014318442         3770 
 2916000   0.79445402   -8.6823844    501.93505   0.01434428  0.014311624         3781 
 2917000   0.78295009   -8.7125078    500.71335  0.014304461  0.014304815         3808 
 2918000   0.77228389   -8.6928736     502.1547  0.014340721  0.014298009         3775 
 2919000   0.78591762   -8.7025852    501.99314  0.014331196   0.01429121         3813 
 2920000   0.80810992   -8.7274647    501.02821   0.01429875  0.014284418         3782 
 2921000    0.8125289   -8.6988251    501.92081   0.01431932  0.014277622         3788 
 2922000   0.76857775   -8.6851442    501.48919   0.01430211  0.014270823         3792 
 2923000   0.78336684   -8.7219063    502.04084  0.014312945  0.014264029         3811 
 2924000     0.785497   -8.7000128      501.317   0.01428742   0.01425724         3736 
 2925000   0.77652474   -8.7345838    501.46561  0.014286769  0.014250455         3749 
 2926000   0.77828387   -8.7106551    502.33573  0.014306668  0.014243665         3805 
 2927000   0.78201743   -8.6977067    501.87463  0.014288653  0.014236888         3803 
 2928000   0.78038748   -8.7100795    501.56852   0.01427506  0.014230113         3814 
 2929000    0.7856064   -8.6959132    501.44333  0.014266625  0.014223341         3816 
 2930000   0.78594437   -8.7101833    499.78165  0.014214495  0.014216569         3833 
 2931000   0.77759586   -8.7007469     501.1778   0.01424934  0.014209806         3820 
 2932000   0.77060605   -8.7132366    501.45296  0.014252301  0.014203034         3854 
 2933000   0.77954714   -8.7209306    501.37421  0.014245204  0.014196269         3808 
 2934000   0.78665229   -8.6713174    501.74995  0.014251021  0.014189509         3807 
 2935000   0.77896193   -8.6946993    501.98004  0.014252699  0.014182769         3826 
 2936000   0.77933886   -8.7187868    501.48172    0.0142337  0.014176025         3817 
 2937000   0.79729825   -8.6890205    501.72564  0.014235775  0.014169295         3802 
 2938000   0.77647782   -8.6871053    501.49514  0.014224391  0.014162559         3790 
 2939000   0.78091367   -8.7163995    501.39356  0.014216671  0.014155819         3801 
 2940000   0.77276677   -8.7338439    501.04992  0.014202095   0.01414908         3829 
 2941000   0.78662211   -8.6989096    502.26255  0.014231626  0.014142339         3787 
 2942000   0.77919017   -8.7003469    501.32722  0.014200295  0.014135609         3806 
 2943000   0.78431661   -8.7026573    500.97708  0.014185556  0.014128885         3793 
 2944000   0.77465365    -8.708685    501.08577  0.014183814  0.014122166         3847 
 2945000    0.7696312   -8.7209932     500.5343  0.014163393  0.014115442         3805 
 2946000   0.79159273   -8.7173298        502.1  0.014202874  0.014108724         3832 
 2947000   0.76887678   -8.6935708    502.00155  0.014195271  0.014102016         3844 
 2948000   0.79347884   -8.7030837    501.93028  0.014188441  0.014095311         3817 
 2949000   0.77211772   -8.7241091    501.42641  0.014169391  0.014088595         3836 
 2950000   0.77811047    -8.715015    502.17521   0.01418574  0.014081906         3859 
 2951000    0.7739566   -8.7027582    501.51526  0.014162297  0.014075212         3778 
 2952000   0.79053694   -8.7152194    501.14131  0.014146943  0.014068526         3834 
 2953000   0.78924721   -8.7002174    501.37273  0.014148683  0.014061833         3822 
 2954000   0.77437464   -8.7036863    501.60813  0.014150534  0.014055136         3816 
 2955000   0.78717311   -8.6926022    501.62341  0.014146176   0.01404845         3841 
 2956000   0.76195326   -8.7374259    500.88421  0.014120552  0.014041768         3847 
 2957000   0.77681839   -8.7278962    501.43287  0.014131239  0.014035083         3826 
 2958000   0.78395256   -8.7223609    500.35714  0.014096155  0.014028406         3831 
 2959000   0.77947234   -8.7019272    501.71058  0.014129508  0.014021734         3812 
 2960000   0.77639921   -8.7167227    501.35599  0.014114752  0.014015066         3811 
 2961000   0.79890367   -8.7067006       501.37  0.014110379  0.014008392         3827 
 2962000   0.78097334   -8.7182357    501.85841  0.014119356  0.014001725         3839 
 2963000   0.77875657    -8.736579    500.74325  0.014083228  0.013995057         3822 
 2964000   0.76632493   -8.7221559    501.90038  0.014111009  0.013988405         3869 
 2965000   0.77326609   -8.7433726    501.18251  0.014086074  0.013981753         3843 
 2966000   0.77202189   -8.7222764    500.96114  0.014075105  0.013975107         3812 
 2967000   0.78369887   -8.7005969    501.86297  0.014095691  0.013968457         3826 
 2968000   0.77135703   -8.7256355    500.65663  0.014057071  0.013961821         3809 
 2969000   0.76021903   -8.7282649    501.43927  0.014074303   0.01395518         3796 
 2970000   0.78451333   -8.7384689    501.58826  0.014073745  0.013948545         3832 
 2971000    0.7821846   -8.7217225    500.65794  0.014042913  0.013941924         3822 
 2972000   0.79002321   -8.7191258    501.04414  0.014049017  0.013935292         3833 
 2973000   0.77598554   -8.7160777    500.88871  0.014039935  0.013928676         3796 
 2974000    0.7737022   -8.7372289    501.31364  0.014047121  0.013922059         3791 
 2975000   0.77660034   -8.7267966    500.77948  0.014027436  0.013915442         3838 
 2976000    0.7715821   -8.6990129    501.55623  0.014044473  0.013908828         3812 
 2977000   0.76993091   -8.7016255    502.29719  0.014060497  0.013902213         3773 
 2978000   0.77947569   -8.7025496    501.03629  0.014020492  0.013895616         3820 
 2979000   0.77518433   -8.7109534    501.70386  0.014034459   0.01388901         3800 
 2980000   0.77338925   -8.7295111     500.1154   0.01398533  0.013882408         3822 
 2981000     0.787738   -8.7302668    501.89915  0.014030503  0.013875818         3807 
 2982000   0.77120167   -8.7028384    501.48571  0.014014244  0.013869226         3834 
 2983000   0.78125273   -8.7118158    500.69879  0.013987562  0.013862635         3856 
 2984000   0.77268642   -8.7353152    501.13747  0.013995126  0.013856049         3790 
 2985000   0.75989961   -8.7270037    500.98966  0.013986311   0.01384946         3800 
 2986000   0.78261257    -8.737711    500.89908  0.013979099  0.013842867         3835 
 2987000   0.76597263   -8.7285657    500.98677  0.013976866  0.013836287         3855 
 2988000   0.78126317   -8.7288096    500.42835  0.013956614  0.013829707         3860 
 2989000   0.79072344   -8.7453645    502.03223  0.013996661  0.013823131         3827 
 2990000     0.767525   -8.7036493    500.66956  0.013954001  0.013816559         3829 
 2991000   0.76750952   -8.7348052    500.67116   0.01394938  0.013810006         3806 
 2992000   0.76115815   -8.7134659    502.08697  0.013984151  0.013803441         3799 
 2993000   0.75951043   -8.7164837    500.85488  0.013945174  0.013796887         3820 
 2994000   0.76286639   -8.7265039    500.91623  0.013942224   0.01379034         3831 
 2995000   0.77990633   -8.7170245    500.96514   0.01393893  0.013783794         3824 
 2996000   0.77578706   -8.7516105    501.40748  0.013946581   0.01377725         3854 
 2997000   0.76638368   -8.7397244    501.29923  0.013938918  0.013770714         3847 
 2998000   0.77769569   -8.7232303    500.79829  0.013920344   0.01376417         3835 
 2999000   0.78525845   -8.7379461    499.21306  0.013871653  0.013757638         3758 
 3000000   0.75696799   -8.7431682    500.88783  0.013913551  0.013751102         3871 
 3001000    0.7755996   -8.7356697    500.36814  0.013894483  0.013744568         3830 
 3002000   0.75553053   -8.7358772    501.46184  0.013920215  0.013738046         3842 
 3003000   0.77682171   -8.7359797    500.60892  0.013891911  0.013731515         3832 
 3004000   0.75683004   -8.7149558    500.66518  0.013888848  0.013724995         3834 
 3005000   0.77034462   -8.7483281    500.24476  0.013872567  0.013718473         3832 
 3006000    0.7589176   -8.7233113    500.91918  0.013886648  0.013711951         3810 
 3007000    0.7817938   -8.7292805    500.79881  0.013878694  0.013705435         3821 
 3008000   0.76254824   -8.7486851    500.93689  0.013877906  0.013698921         3855 
 3009000   0.77076286   -8.7504628    500.44537  0.013859681  0.013692406         3832 
 3010000   0.76587275   -8.7183185    501.10847  0.013873435  0.013685914         3810 
 3011000   0.77195737   -8.7668195    500.25085  0.013845092  0.013679401         3842 
 3012000   0.75754718   -8.7527289    500.55188  0.013848824  0.013672904         3842 
 3013000   0.76724303   -8.7351564    501.62918  0.013874023  0.013666411         3849 
 3014000   0.76867718   -8.7381539    501.21866   0.01385807  0.013659911         3827 
 3015000   0.77120155   -8.7678906    500.70027  0.013839145  0.013653428         3851 
 3016000   0.77036445   -8.7418994    500.34116  0.013824634  0.013646933         3861 
 3017000   0.76493294   -8.7502767    500.09416   0.01381323  0.013640454         3842 
 3018000   0.75977944   -8.7255651    500.03669  0.013807066  0.013633964         3871 
 3019000   0.77106379   -8.7389516     500.3715  0.013811734   0.01362749         3854 
 3020000   0.77923131     -8.74244     501.3488  0.013834128  0.013621014         3841 
 3021000   0.76831043   -8.7558837    500.54986   0.01380751   0.01361454         3785 
 3022000   0.77839609   -8.7663332    500.30136  0.013796089  0.013608072         3850 
 3023000    0.7809081   -8.7035691    499.82568  0.013778412    0.0136016         3836 
 3024000   0.76184743   -8.7487957    500.10605  0.013781582  0.013595137         3835 
 3025000   0.76594706    -8.752412    501.47326   0.01381469  0.013588673         3840 
 3026000   0.77150076   -8.7770596    500.65658  0.013787634  0.013582211         3844 
 3027000   0.76360889   -8.7394763    500.58864  0.013781209  0.013575759         3853 
 3028000   0.77697557   -8.7388121    500.63555  0.013777949    0.0135693         3827 
 3029000   0.77038403   -8.7690898    498.80193  0.013722954   0.01356285         3860 
 3030000   0.78174987   -8.7491179    499.99624  0.013751272   0.01355639         3851 
 3031000   0.76127542   -8.7574159     501.1196   0.01377762  0.013549947         3853 
 3032000    0.7810871    -8.743664    500.60823  0.013759021  0.013543518         3834 
 3033000   0.75787672   -8.7655005    499.10629  0.013713218  0.013537083         3848 
 3034000   0.76264878   -8.7625307    501.21838   0.01376671  0.013530654         3811 
 3035000   0.75978384   -8.7412773    500.09904   0.01373144  0.013524217         3849 
 3036000   0.77834266   -8.7634399    499.61592  0.013713656  0.013517789         3868 
 3037000   0.76539026    -8.743665    500.61173  0.013736465  0.013511371         3824 
 3038000    0.7676109    -8.761497    499.67978   0.01370638  0.013504954         3796 
 3039000   0.76572324   -8.7407339    500.27545  0.013718204  0.013498547         3852 
 3040000   0.77120422   -8.7564364    500.65744  0.013724162  0.013492138         3867 
 3041000   0.74712934   -8.7548799    500.62666  0.013718806  0.013485735         3839 
 3042000   0.75184728   -8.7554699    500.85911  0.013720664  0.013479336         3850 
 3043000   0.77666481   -8.7578549    500.66781  0.013710916  0.013472936         3837 
 3044000   0.76337337    -8.743079    500.00135  0.013688167  0.013466535         3859 
 3045000   0.75965149   -8.7773043    499.24341  0.013662929  0.013460141         3839 
 3046000    0.7724093   -8.7489813    500.25227  0.013686044  0.013453753         3827 
 3047000   0.76839061   -8.7368233     501.0235  0.013702645  0.013447374         3856 
 3048000   0.76242475   -8.7583764    499.65039  0.013660608  0.013440986         3862 
 3049000    0.7758527   -8.7274211    499.34503  0.013647781  0.013434611         3826 
 3050000   0.75986652   -8.7574365    499.85176  0.013657152  0.013428246         3848 
 3051000   0.78282174   -8.7524558    500.55009  0.013671749  0.013421877         3803 
 3052000   0.75454469   -8.7841433    500.35307   0.01366189  0.013415505         3885 
 3053000   0.78274743   -8.7719285    499.46329  0.013633128  0.013409134         3837 
 3054000   0.78202185   -8.7380146    500.79779  0.013665078  0.013402777         3834 
 3055000    0.7529592   -8.7556349    499.55395  0.013626676  0.013396419         3874 
 3056000   0.78080187   -8.7429483    499.82218  0.013629531  0.013390072         3841 
 3057000   0.75637013   -8.7548549    499.64395  0.013620215  0.013383721         3849 
 3058000   0.75736981   -8.7571045     500.2399  0.013632001  0.013377376         3818 
 3059000   0.74804919   -8.7532694    500.64286  0.013638522  0.013371043         3868 
 3060000   0.76857597   -8.7612108     499.9894  0.013616269  0.013364702         3875 
 3061000   0.75832018   -8.7604147    499.53034  0.013599323  0.013358369         3874 
 3062000   0.75282495   -8.7672651    499.52796  0.013594817  0.013352038         3840 
 3063000   0.75752948   -8.7397247     500.2935  0.013611206  0.013345706         3827 
 3064000   0.75869271   -8.7662217     500.8194  0.013621067  0.013339373         3869 
 3065000   0.76974448    -8.766887    500.05969  0.013595968   0.01333305         3837 
 3066000    0.7676683   -8.7632957    499.04319  0.013563905  0.013326727         3870 
 3067000   0.74938364   -8.7696071    499.32299  0.013567085  0.013320409         3857 
 3068000   0.76917508   -8.7487843    501.00808  0.013608433  0.013314093         3859 
 3069000   0.75591905   -8.7808833    499.64313  0.013566936  0.013307778         3852 
 3070000   0.75495325   -8.7774096    499.52865   0.01355941  0.013301469         3872 
 3071000   0.75915723    -8.748822     500.8597  0.013591113  0.013295167         3839 
 3072000   0.74328911   -8.7397697    500.75296  0.013583793  0.013288871         3853 
 3073000   0.77673016   -8.7452288    499.70834  0.013551045  0.013282576         3821 
 3074000   0.74949722   -8.7701549    500.00088  0.013554567  0.013276286         3860 
 3075000    0.7421497   -8.7474248    500.43897  0.013562032  0.013270002         3888 
 3076000   0.77406916   -8.7479014    500.53749  0.013560292  0.013263716         3847 
 3077000   0.75121912   -8.7696081    500.12758  0.013544783  0.013257433         3836 
 3078000   0.74342611   -8.7372395    500.16742  0.013541462  0.013251162         3806 
 3079000   0.74733984   -8.7653512    499.96639  0.013531622  0.013244889         3861 
 3080000   0.76071481   -8.7754063     499.9212  0.013526007  0.013238622         3857 
 3081000   0.75844945   -8.7650414    500.34433  0.013533061  0.013232351         3839 
 3082000   0.76019542   -8.7521418    500.25908  0.013526365  0.013226083         3849 
 3083000   0.75685233   -8.7854011    500.44128  0.013526902  0.013219824         3900 
 3084000   0.74949625   -8.7383244    499.71788  0.013502969  0.013213555         3879 
 3085000   0.77012595   -8.7388154    500.30495   0.01351445  0.013207299         3862 
 3086000   0.75730304   -8.7712884     500.1182  0.013505028  0.013201052         3855 
 3087000   0.75797078   -8.7553426    500.67952  0.013515806    0.0131948         3829 
 3088000   0.73641956   -8.7700455    500.51384  0.013506958  0.013188552         3877 
 3089000   0.75730871   -8.7563413     500.6506  0.013506275  0.013182307         3860 
 3090000    0.7431687   -8.7780799    499.26943  0.013464656  0.013176067         3875 
 3091000   0.74908962   -8.7421172    500.03272  0.013480878  0.013169832         3859 
 3092000   0.77377268   -8.7517556     500.0319  0.013476496  0.013163598         3865 
 3093000   0.77244826   -8.8006306    500.61232  0.013487777  0.013157363         3893 
 3094000   0.75931615    -8.750101    500.49667  0.013480302  0.013151134         3869 
 3095000   0.74885854   -8.7749085    498.59144  0.013424648  0.013144912         3847 
 3096000   0.76657607   -8.7737939    499.31468  0.013439779  0.013138691         3857 
 3097000   0.74705382   -8.7708687    499.71204  0.013446132  0.013132469         3864 
 3098000   0.75554948   -8.7687115     500.4536  0.013461739  0.013126246         3861 
 3099000   0.77213428   -8.7840795    499.08219  0.013420517  0.013120028         3873 
 3100000   0.75323279   -8.7647687     499.3811  0.013424223  0.013113809         3876 
 3101000   0.75043305   -8.7841309    499.73908  0.013429514  0.013107595         3865 
 3102000   0.76040119   -8.7844712    499.47626  0.013418124   0.01310139         3866 
 3103000   0.73986085   -8.7771032    501.05994  0.013456331  0.013095185         3857 
 3104000   0.76259694   -8.7618037    500.53705  0.013437958  0.013088983         3869 
 3105000    0.7562512   -8.7676968    499.96732  0.013418339  0.013082787         3873 
 3106000   0.75596313   -8.7990869    499.95675  0.013413735  0.013076596         3886 
 3107000   0.76206455   -8.7566451    499.81697  0.013405669  0.013070414         3841 
 3108000   0.75173508   -8.7565202    500.14885  0.013410254  0.013064227         3852 
 3109000   0.76693938   -8.7642604    499.44968  0.013387201  0.013058054         3865 
 3110000   0.74923018   -8.7894788    499.64888  0.013388234  0.013051876         3873 
 3111000     0.750537    -8.773784    498.83492  0.013362127  0.013045692         3876 
 3112000    0.7498546   -8.7721415    499.39829  0.013372919  0.013039528         3861 
 3113000   0.73798198   -8.7724254    499.66585  0.013375786  0.013033363         3855 
 3114000   0.72984772   -8.7849251    499.51084  0.013367342  0.013027203         3866 
 3115000   0.75467535   -8.7891763    499.01084  0.013349675  0.013021045         3870 
 3116000    0.7472301   -8.7332958    499.44068  0.013356886  0.013014886         3856 
 3117000   0.74673317   -8.7700601    498.49449  0.013327304  0.013008742         3892 
 3118000   0.75747862   -8.7718232    499.59259  0.013352378  0.013002593         3872 
 3119000   0.74310431   -8.7757574    499.42958  0.013343742  0.012996456         3891 
 3120000   0.74947759   -8.7662837    500.02837  0.013355459  0.012990317         3883 
 3121000   0.75124896    -8.794566    499.02209  0.013324311  0.012984175         3896 
 3122000   0.76170664    -8.768109    500.62568  0.013362847  0.012978035         3829 
 3123000   0.75015661   -8.7743207     499.7569  0.013335385  0.012971899         3877 
 3124000   0.75979518   -8.7578289    499.50625  0.013324431  0.012965769         3868 
 3125000   0.74434969   -8.7898892    499.33204  0.013315521  0.012959645         3889 
 3126000   0.75147371   -8.7788835    499.59478  0.013318266  0.012953517         3901 
 3127000   0.74109044   -8.7755566    500.20137  0.013330172  0.012947391         3864 
 3128000   0.77145322   -8.7829196    499.56417  0.013308935  0.012941277         3862 
 3129000   0.75416406   -8.7674191    499.81158   0.01331127  0.012935155         3862 
 3130000   0.73882577   -8.7878837    499.47227  0.013297984  0.012929043         3852 
 3131000    0.7492928   -8.7637671    499.43299  0.013292691  0.012922936         3861 
 3132000   0.75590182   -8.8043105    499.06753  0.013278723  0.012916829         3880 
 3133000   0.74437905   -8.7745243    499.77937  0.013293419  0.012910732         3877 
 3134000   0.74027445   -8.7781185    499.23714  0.013274759  0.012904632         3886 
 3135000   0.75730389   -8.7980105    498.63056  0.013254401  0.012898539         3911 
 3136000   0.75366126   -8.7815014    500.16641  0.013290987  0.012892444         3868 
 3137000   0.74309189    -8.787603    498.82354  0.013251077  0.012886354         3836 
 3138000   0.74370428   -8.7535071    499.88652  0.013275083  0.012880261         3881 
 3139000   0.73627054    -8.804083    499.48153  0.013260102  0.012874178         3884 
 3140000   0.74201468    -8.792176    499.26318  0.013250084  0.012868104         3866 
 3141000   0.75121564   -8.7690377    499.54003  0.013253211  0.012862027         3849 
 3142000    0.7363894   -8.7943626    499.98465  0.013260785  0.012855958         3859 
 3143000   0.75656324    -8.785858    499.84727  0.013252924  0.012849885         3873 
 3144000   0.74679196   -8.7759087    499.26263  0.013233212   0.01284381         3865 
 3145000   0.75151354   -8.8037685    498.95427  0.013220834  0.012837752         3880 
 3146000   0.74277234   -8.7995287    498.80823  0.013212763  0.012831691         3892 
 3147000   0.76581792   -8.7961344    500.18292  0.013244967  0.012825625         3876 
 3148000   0.74347743   -8.7675787    497.80722   0.01317787  0.012819575         3894 
 3149000   0.75757805   -8.7913152    499.34983  0.013214508  0.012813522         3899 
 3150000   0.74203571   -8.8026058    499.65337  0.013218343  0.012807466         3876 
 3151000    0.7534941   -8.8012696     499.1966  0.013202068  0.012801427         3880 
 3152000   0.76168721   -8.8145821    498.34015  0.013175237  0.012795386         3872 
 3153000   0.72740376    -8.797988     499.1216  0.013191712  0.012789345         3870 
 3154000    0.7468259   -8.8079465    499.00287  0.013184392  0.012783301         3866 
 3155000   0.76019667   -8.7924923    499.99582   0.01320644  0.012777266         3878 
 3156000   0.73311938    -8.818609    498.74545   0.01316924  0.012771234         3864 
 3157000   0.74016124   -8.7781578    499.58962  0.013187351  0.012765207         3846 
 3158000    0.7400204    -8.794914     499.7751   0.01318807  0.012759183         3848 
 3159000   0.73788216   -8.7929638    499.42051  0.013174541  0.012753168         3877 
 3160000   0.76089374   -8.8188373    498.74427  0.013152539  0.012747145         3864 
 3161000   0.73690979   -8.8106385    498.06463  0.013130461  0.012741132         3887 
 3162000   0.75343582   -8.7956078    498.77692   0.01314508  0.012735123         3858 
 3163000   0.73840979   -8.7894318     499.9986  0.013173111  0.012729108         3871 
 3164000   0.74602887   -8.7893186     499.9458  0.013167557  0.012723106         3872 
 3165000   0.74009887   -8.8270494    498.23636  0.013118387  0.012717104         3890 
 3166000   0.74587436   -8.8045171    498.20993  0.013113548  0.012711106         3877 
 3167000   0.74907385   -8.7986581    499.56018  0.013144937  0.012705116         3883 
 3168000   0.75206242   -8.7872235    499.26958  0.013133144  0.012699125         3879 
 3169000   0.74568501   -8.7958323    499.12357   0.01312516  0.012693139         3877 
 3170000   0.74373472   -8.7557697    499.68387  0.013135748  0.012687166         3874 
 3171000   0.74219112   -8.8011044    499.11616  0.013116687  0.012681195         3878 
 3172000   0.72862929   -8.7907189    499.30774  0.013117585  0.012675219         3869 
 3173000   0.74766951   -8.8122942    498.53226  0.013093084  0.012669251         3872 
 3174000    0.7367605   -8.8082396    498.95873  0.013100156  0.012663281         3865 
 3175000   0.74895313   -8.8002748      498.894  0.013094331  0.012657311         3902 
 3176000    0.7464475   -8.7818367    499.81985  0.013114501  0.012651347         3846 
 3177000   0.74699932   -8.8126351    498.88439  0.013085835  0.012645385         3892 
 3178000   0.74265179   -8.8090058    498.78274  0.013079052  0.012639434         3917 
 3179000   0.73260813   -8.8199018    498.63409  0.013071041   0.01263348         3894 
 3180000   0.75345843   -8.8153939    498.68441   0.01306825  0.012627529         3891 
 3181000   0.73918686   -8.8013182    498.69013  0.013064291  0.012621572         3910 
 3182000   0.74549569   -8.8210935    498.36673  0.013051716  0.012615628         3929 
 3183000   0.75600366   -8.8245232    498.30423   0.01304598   0.01260969         3866 
 3184000   0.73014776   -8.7736814    499.82159  0.013081595  0.012603749         3915 
 3185000   0.73486546   -8.8016097    499.87943  0.013079001  0.012597823         3880 
 3186000   0.74065134   -8.8265904     499.1467  0.013055731  0.012591897         3864 
 3187000   0.74741651   -8.8140593    498.09353  0.013024096  0.012585974         3909 
 3188000   0.74992384    -8.809511    498.70325  0.013035949  0.012580048         3888 
 3189000   0.73583924   -8.8156771    498.09673  0.013016012  0.012574122         3900 
 3190000   0.74258757   -8.8137652    499.40507  0.013046109  0.012568209         3891 
 3191000   0.74022759    -8.803719    498.33571  0.013014095  0.012562296         3908 
 3192000    0.7422999   -8.8253136    498.87945  0.013024213  0.012556387         3914 
 3193000   0.77235245   -8.8026834    498.89012  0.013020412  0.012550477         3895 
 3194000   0.75683478   -8.8296012     498.5503   0.01300747  0.012544577         3906 
 3195000   0.72648521   -8.8264055    498.40698   0.01299966  0.012538679         3907 
 3196000   0.73769064   -8.7993457    498.78957  0.013005569  0.012532777         3866 
 3197000   0.74582952   -8.8102073    499.20684  0.013012377  0.012526887         3855 
 3198000   0.74159347   -8.8040368    498.96443  0.013001992  0.012520992         3887 
 3199000    0.7341817   -8.7886029     499.5162  0.013012301  0.012515103         3904 
 3200000   0.73360966   -8.7999056    499.30853  0.013002826  0.012509219         3889 
 3201000   0.73886944   -8.8053537    498.84234  0.012986628  0.012503343         3899 
 3202000    0.7260754   -8.8153105    498.28925  0.012968177  0.012497472         3872 
 3203000   0.75115746   -8.7937047    498.93864  0.012981024    0.0124916         3896 
 3204000   0.73653252   -8.8059266    499.06173  0.012980174  0.012485731         3889 
 3205000   0.73316385   -8.8185965    497.96932   0.01294772  0.012479865         3888 
 3206000   0.74495082   -8.8040279    499.47518  0.012982823  0.012474003         3872 
 3207000   0.74158289   -8.7803198    498.58136  0.012955549  0.012468148         3878 
 3208000   0.74108937   -8.7858934    498.90707  0.012959972  0.012462298         3883 
 3209000   0.73745477   -8.7952261    498.88714  0.012955416  0.012456454         3865 
 3210000    0.7358327   -8.7972833    498.80501  0.012949247  0.012450605         3874 
 3211000    0.7299536   -8.8289595    498.96844  0.012949456  0.012444769         3880 
 3212000   0.76017125    -8.799433    498.89163  0.012943432  0.012438935         3860 
 3213000   0.74992287   -8.8161713    498.25514  0.012922895  0.012433106         3893 
 3214000   0.74137882   -8.7967653    498.43849  0.012923628  0.012427273         3889 
 3215000   0.75024415   -8.8072221     499.3428  0.012943048  0.012421441         3886 
 3216000   0.72766492   -8.8008148    498.32931  0.012912762  0.012415615         3893 
 3217000   0.74198185   -8.8029683    498.37764      0.01291  0.012409791         3877 
 3218000   0.72705448   -8.8320489    499.22921  0.012928041  0.012403968         3878 
 3219000   0.72647148   -8.8301644    498.72302   0.01291092   0.01239815         3897 
 3220000   0.74281377   -8.7983749    499.34227  0.012922936   0.01239234         3846 
 3221000   0.75047916   -8.8300436    498.01527  0.012884593   0.01238653         3879 
 3222000   0.74837413   -8.8143293    500.01143  0.012932222  0.012380722         3880 
 3223000    0.7382175   -8.8068434     498.9212  0.012900021  0.012374922         3873 
 3224000   0.72851984    -8.813921    499.04481  0.012899214  0.012369129         3900 
 3225000   0.73488213   -8.8467336    498.70703  0.012886486  0.012363332         3888 
 3226000   0.74336552   -8.8385224    497.86122  0.012860643  0.012357534         3890 
 3227000    0.7295826   -8.8257925     498.7299   0.01287909  0.012351744         3884 
 3228000   0.72966831   -8.8159591    499.07598  0.012884035  0.012345961         3873 
 3229000   0.73256492   -8.7790465    499.44706  0.012889622  0.012340174         3887 
 3230000   0.72010787   -8.8310915    498.20878  0.012853684  0.012334396         3895 
 3231000   0.73832904   -8.8228744    498.93341  0.012868395  0.012328622         3874 
 3232000   0.74277359   -8.8158092    498.40199  0.012850711  0.012322852         3899 
 3233000   0.73325008   -8.8201638    498.59918  0.012851819  0.012317089         3889 
 3234000    0.7258112   -8.8402955    499.06296  0.012859796  0.012311329         3890 
 3235000   0.74541697   -8.8383778    497.71068  0.012820986  0.012305559         3879 
 3236000   0.72534861   -8.7908216    499.75039  0.012869551  0.012299802         3878 
 3237000   0.73279899   -8.8127996    498.94436  0.012844824  0.012294051         3922 
 3238000   0.73331306   -8.8083183    498.18834  0.012821401  0.012288296         3908 
 3239000   0.74356073   -8.8153804    498.42926   0.01282364  0.012282541         3910 
 3240000   0.74768973   -8.8275751    498.85093  0.012830528  0.012276794         3896 
 3241000   0.71538128   -8.8236193     497.5256  0.012792492  0.012271048         3922 
 3242000    0.7341375   -8.8208478    499.14585  0.012830194  0.012265304         3896 
 3243000   0.74493137   -8.8122396    498.81791   0.01281781  0.012259565         3891 
 3244000   0.72326871    -8.812367    498.48338  0.012805265  0.012253828         3886 
 3245000   0.74305966   -8.8259116    498.18753  0.012793722  0.012248103         3898 
 3246000   0.73387473   -8.7938884    498.73726  0.012803894  0.012242377         3885 
 3247000   0.72782116   -8.8316691    499.31221  0.012814706  0.012236662         3887 
 3248000   0.72418744   -8.8369155    498.28492  0.012784404  0.012230932         3889 
 3249000   0.74158223   -8.8258563    498.84661  0.012794876  0.012225215         3899 
 3250000   0.74068819   -8.8245291    498.20921  0.012774595  0.012219498         3917 
 3251000   0.73472338   -8.8248014    498.27947  0.012772467  0.012213794         3883 
 3252000   0.71790122   -8.8129565    498.91938  0.012784937   0.01220809         3885 
 3253000   0.74182108   -8.8347877    498.91756   0.01278096  0.012202384         3890 
 3254000   0.72306105   -8.8029236    499.62544  0.012795161  0.012196687         3877 
 3255000   0.72930989    -8.828107     498.5701  0.012764211  0.012190989         3852 
 3256000   0.74059203   -8.8384548    498.32408  0.012753995  0.012185299         3914 
 3257000   0.74705732   -8.8123279    498.78017  0.012761748  0.012179608         3897 
 3258000   0.72568233   -8.8240364    498.94178  0.012761965  0.012173923         3920 
 3259000   0.72874862   -8.8422429     498.0655  0.012735642  0.012168238         3894 
 3260000    0.7149093   -8.8325107    499.14004  0.012759204   0.01216256         3911 
 3261000   0.71682914   -8.8283175    498.23413  0.012732141   0.01215688         3885 
 3262000   0.72868153   -8.8126306    497.81565  0.012717547  0.012151201         3888 
 3263000   0.73073172    -8.837296    498.39958  0.012728562  0.012145527         3902 
 3264000   0.73784093   -8.7994332    498.73676  0.012733271  0.012139861         3915 
 3265000   0.72694342   -8.8109135    498.62593  0.012726542  0.012134204         3859 
 3266000    0.7539907   -8.8285416    497.90348  0.012704212  0.012128541         3907 
 3267000   0.72187748   -8.8438233    498.38968  0.012712725  0.012122883         3896 
 3268000   0.73065441   -8.8450143    497.15029  0.012677231  0.012117237         3908 
 3269000   0.72332473   -8.8166945    498.14002  0.012698583  0.012111593         3898 
 3270000   0.72372876   -8.8265748    499.36201  0.012725841  0.012105955         3901 
 3271000    0.7405687     -8.80718    500.21918  0.012743788  0.012100316         3900 
 3272000   0.73175629    -8.840781    497.93083  0.012681613   0.01209468         3900 
 3273000   0.72047435   -8.8432316    497.79383   0.01267425  0.012089049         3891 
 3274000    0.7224242   -8.8151222    499.54109  0.012714852  0.012083413         3895 
 3275000   0.72227201   -8.8512456     498.0975  0.012674237  0.012077785         3921 
 3276000   0.71509376   -8.8159867    498.39161  0.012677849  0.012072161         3910 
 3277000   0.73358977   -8.8291329    497.51094  0.012651585  0.012066536         3904 
 3278000   0.71831406   -8.8350066    498.02229  0.012660725  0.012060917         3897 
 3279000   0.70834522   -8.8263916    498.16976  0.012660612  0.012055305         3896 
 3280000   0.71506635   -8.8542692    498.59844  0.012667643   0.01204969         3908 
 3281000   0.71385804   -8.8260964    498.29362   0.01265604  0.012044077         3911 
 3282000   0.73600428   -8.8496697    497.48468  0.012631644  0.012038465         3898 
 3283000   0.73695368   -8.8161742     498.6584  0.012657589  0.012032865         3916 
 3284000     0.734698   -8.8201171    498.62496  0.012652887  0.012027268         3915 
 3285000   0.72318563   -8.8382863    498.41264  0.012643649  0.012021673         3897 
 3286000   0.71291076   -8.8305987    497.54424  0.012617778  0.012016078         3910 
 3287000   0.73214154   -8.8119372    499.43383  0.012661845   0.01201049         3889 
 3288000   0.72975657   -8.8366345    498.25103  0.012628017  0.012004899         3914 
 3289000   0.73598338   -8.8114854    499.26837  0.012649954  0.011999316         3934 
 3290000   0.71739616   -8.8571129    498.65535  0.012630581  0.011993728         3910 
 3291000   0.73352657   -8.8358256     497.5785  0.012599476  0.011988146         3915 
 3292000   0.72020784   -8.8138987    497.60212  0.012596246  0.011982558         3895 
 3293000   0.72481096   -8.8208818    499.67448  0.012644865   0.01197699         3912 
 3294000   0.72518239   -8.8219314    497.55519  0.012587411  0.011971414         3900 
 3295000   0.71004124   -8.8427888    498.08844  0.012597077  0.011965849         3909 
 3296000   0.73305937   -8.8420324    498.48114  0.012603184  0.011960282         3887 
 3297000   0.72471246   -8.8301489    498.04941  0.012588449  0.011954716         3910 
 3298000   0.72312246   -8.8623586    497.50086  0.012570772  0.011949154         3928 
 3299000   0.72588598    -8.828518     498.8456   0.01260093  0.011943593         3910 
 3300000   0.70540051   -8.8083278    499.11945  0.012604026  0.011938041         3900 
 3301000   0.71283436   -8.8226012     498.2706  0.012578779  0.011932493         3894 
 3302000   0.72005998   -8.8221003     498.4704  0.012580012  0.011926938         3885 
 3303000   0.72239281   -8.8529192    497.87072  0.012561074  0.011921396         3897 
 3304000   0.73960296   -8.8578894    497.88776  0.012557702  0.011915858         3880 
 3305000   0.73500008   -8.8251947    497.91169  0.012554505  0.011910324         3877 
 3306000   0.73761382   -8.8533422    496.67762  0.012519601   0.01190479         3912 
 3307000   0.71480963   -8.8082429    497.68715  0.012541255  0.011899259         3902 
 3308000   0.72654033   -8.8295853    497.47524  0.012532125  0.011893731         3880 
 3309000   0.71489836   -8.8220066     497.9822  0.012541105  0.011888208         3876 
 3310000   0.72138319   -8.8544424     497.6884  0.012529919  0.011882686         3896 
 3311000   0.72568923   -8.8134853    498.33139  0.012542318  0.011877165         3896 
 3312000    0.7154828   -8.8468911    498.56571  0.012544427  0.011871654         3906 
 3313000   0.72178247   -8.8482661    497.93453  0.012524764  0.011866145         3896 
 3314000   0.72876835   -8.8576715    498.72414   0.01254084  0.011860639         3902 
 3315000   0.71960846   -8.8489157    498.98468  0.012543607  0.011855131         3909 
 3316000   0.73802081   -8.8278559    497.64184  0.012506078  0.011849629         3889 
 3317000   0.70001832   -8.8478167    497.26752  0.012492903  0.011844128         3899 
 3318000   0.73398757   -8.8373223    497.62539  0.012498126  0.011838636         3872 
 3319000    0.7185752   -8.8322522    497.75623  0.012497646  0.011833142         3900 
 3320000   0.71415637   -8.8336333    498.22391   0.01250562  0.011827656         3897 
 3321000   0.72892008   -8.8413334    498.51333  0.012509117  0.011822172         3918 
 3322000   0.72612316    -8.812409    497.57761  0.012481879  0.011816689         3890 
 3323000   0.71542687   -8.8393507    497.64556  0.012479827  0.011811216         3924 
 3324000   0.72523666   -8.8509756    498.16502  0.012489095  0.011805738         3926 
 3325000   0.72954345   -8.8525944    497.25465  0.012462522  0.011800262         3898 
 3326000   0.72134893   -8.8501966    497.42482  0.012463039  0.011794786         3916 
 3327000   0.72023617   -8.8213912    498.35793  0.012482665  0.011789321         3914 
 3328000   0.72781336   -8.8695311    498.16091  0.012473981  0.011783859         3922 
 3329000   0.73392898   -8.8428885    498.34932   0.01247495  0.011778392         3919 
 3330000   0.72690339   -8.8311663    498.98518  0.012487117  0.011772933         3907 
 3331000   0.72935994   -8.8531169    497.59786  0.012448661  0.011767474         3918 
 3332000   0.71240537   -8.8455116    497.42025  0.012440482   0.01176203         3935 
 3333000   0.71114697   -8.8140101    498.36259  0.012460311  0.011756586         3883 
 3334000   0.72658674    -8.834134    499.17137  0.012476789  0.011751145         3882 
 3335000    0.7124993   -8.8461191    497.72955   0.01243702  0.011745707         3895 
 3336000    0.7225243    -8.846471    497.45972  0.012426552  0.011740265         3905 
 3337000   0.70546103   -8.8348143    497.76782  0.012430522  0.011734824         3903 
 3338000   0.72157162   -8.8387863    498.11967  0.012435582  0.011729388         3891 
 3339000   0.71519582   -8.8400851    498.27589  0.012435757  0.011723956         3927 
 3340000   0.71795663   -8.8527347     497.9092  0.012422884  0.011718529         3909 
 3341000   0.71882044   -8.8465852    498.44987  0.012432652  0.011713102         3905 
 3342000   0.72726997   -8.8342611    498.10093  0.012420231  0.011707679         3920 
 3343000   0.71689744   -8.8629627    497.11242  0.012391874  0.011702252         3918 
 3344000   0.70956923   -8.8548726    497.98839  0.012409998  0.011696826         3921 
 3345000   0.71319375    -8.856542    498.20964    0.0124118  0.011691419         3916 
 3346000   0.72627829   -8.8526541    497.56775  0.012392104  0.011686008         3898 
 3347000   0.70937561   -8.8478591    497.62714   0.01238988  0.011680599         3898 
 3348000   0.70790313   -8.8524519    498.02575  0.012396101   0.01167519         3914 
 3349000   0.72319452   -8.8313334    498.26953  0.012398465  0.011669791         3910 
 3350000   0.72845817   -8.8607082    497.76184  0.012382135  0.011664397         3893 
 3351000   0.70830326    -8.855676    497.86306  0.012380958  0.011658999         3885 
 3352000   0.70429954   -8.8499458    497.78201  0.012375249  0.011653606         3918 
 3353000   0.72112832   -8.8614814    498.05581  0.012378363   0.01164822         3923 
 3354000    0.7169275    -8.838455    497.58138  0.012362885  0.011642828         3886 
 3355000   0.71403793   -8.8422134    496.67928  0.012336793   0.01163745         3898 
 3356000   0.70818854   -8.8595234    497.61355  0.012356316  0.011632067         3895 
 3357000   0.72256209   -8.8617056    497.37463  0.012346704  0.011626694         3915 
 3358000   0.72795399   -8.8493424    498.19842  0.012363471  0.011621326         3903 
 3359000   0.69778041   -8.8524344    496.88153  0.012327119  0.011615956         3886 
 3360000   0.72471993   -8.8388949     498.2241  0.012356748  0.011610593         3896 
 3361000    0.7145478   -8.8506834    498.29785  0.012354901  0.011605237         3908 
 3362000   0.71883318   -8.8646754     497.0779  0.012320987  0.011599879         3921 
 3363000   0.72966553   -8.8423028    498.78402    0.0123596  0.011594528         3898 
 3364000   0.72589059   -8.8508477    497.45792  0.012323076  0.011589172         3897 
 3365000   0.69891759    -8.842733    498.15365  0.012336643  0.011583818         3904 
 3366000   0.72083961   -8.8609483    497.92588  0.012327339  0.011578468         3904 
 3367000   0.71713344   -8.8509375    497.76064  0.012319588  0.011573122         3913 
 3368000   0.71180196   -8.8654277    497.72378  0.012315018  0.011567782         3917 
 3369000   0.70207463   -8.8575275    497.38767  0.012303049  0.011562442         3908 
 3370000   0.71725309   -8.8371206    498.67843  0.012331316  0.011557106         3902 
 3371000   0.70441765   -8.8346187    499.06924  0.012337319  0.011551774         3912 
 3372000   0.71481015   -8.8709568    497.40346  0.012292494   0.01154644         3876 
 3373000   0.71031943   -8.8552028    498.02616  0.012304234  0.011541117         3898 
 3374000   0.71447231   -8.8667932    497.37816  0.012284582  0.011535792         3936 
 3375000   0.70689597   -8.8498952    498.16901  0.012300469  0.011530467         3915 
 3376000   0.72080474   -8.8721448    498.09816  0.012295077  0.011525146         3911 
 3377000   0.69615511   -8.8554366    497.45168  0.012275483   0.01151983         3896 
 3378000   0.70907254   -8.8294336    498.10208  0.012287894  0.011514514         3878 
 3379000   0.71390918   -8.8494469    497.27941  0.012263969  0.011509204         3886 
 3380000   0.72131867   -8.8479918    497.32907  0.012261565    0.0115039         3910 
 3381000   0.71910912   -8.8567807    497.46475  0.012261282  0.011498597         3911 
 3382000   0.69956434   -8.8672727    497.56626  0.012260158   0.01149329         3923 
 3383000   0.71004936   -8.8505254     497.7106   0.01226009  0.011487996         3907 
 3384000   0.69808729   -8.8598566    498.45701  0.012274848  0.011482703         3917 
 3385000   0.71275987   -8.8530055    497.16312  0.012239368  0.011477412         3905 
 3386000   0.72671406   -8.8667969    497.49348  0.012243884  0.011472119         3893 
 3387000   0.71140162   -8.8704878    497.31185    0.0122358  0.011466828         3903 
 3388000   0.71755605   -8.8236843    499.18956  0.012278374  0.011461545         3890 
 3389000   0.71812761   -8.8395776      498.622  0.012260795  0.011456272         3894 
 3390000   0.71189926   -8.8557169     497.7192  0.012234985  0.011450998         3928 
 3391000   0.72781401   -8.8457632     497.7741  0.012232726  0.011445725         3915 
 3392000   0.70664488   -8.8493686    497.33938   0.01221844  0.011440455         3905 
 3393000   0.70747538   -8.8729309    496.70324  0.012199215  0.011435194         3885 
 3394000    0.6959123   -8.8682623     496.8679  0.012199664   0.01142993         3897 
 3395000   0.71126125    -8.887862    497.09877  0.012201737  0.011424669         3916 
 3396000   0.71877177   -8.8545272    497.11353  0.012198506   0.01141941         3903 
 3397000   0.70068211   -8.8787981    497.37452  0.012201318  0.011414152         3931 
 3398000   0.70139336   -8.8834386    497.40636  0.012198508  0.011408895         3925 
 3399000   0.70557604   -8.8747543    496.12668  0.012163545  0.011403646         3911 
 3400000    0.7111788   -8.8601186    496.92101  0.012179436  0.011398399         3875 
 3401000   0.69835142   -8.8515818    496.33202  0.012161424   0.01139315         3911 
 3402000   0.70648844    -8.855176    496.66978  0.012166122  0.011387911         3912 
 3403000   0.70572254   -8.8695385    496.52899    0.0121591  0.011382666         3913 
 3404000   0.69825728   -8.8498749    497.37914   0.01217634  0.011377428         3901 
 3405000    0.7160434   -8.8694895    497.12252  0.012166484  0.011372196         3913 
 3406000   0.70739087   -8.8687839    497.30995  0.012167497  0.011366967         3900 
 3407000   0.70391761   -8.8576813    497.11668  0.012159199  0.011361742         3907 
 3408000    0.7055288   -8.8746731    497.55856  0.012166436  0.011356517         3878 
 3409000   0.70708781   -8.8399939     497.0312  0.012149976  0.011351301         3917 
 3410000   0.69570911   -8.8840363    496.77031  0.012140037  0.011346089         3902 
 3411000   0.69821437   -8.8551981    496.98949  0.012141833  0.011340873         3906 
 3412000    0.7037241   -8.8508034    497.65736  0.012154586  0.011335672         3896 
 3413000    0.6833623    -8.878648    496.53398  0.012123596  0.011330468         3920 
 3414000   0.70307177   -8.8451205    497.71315  0.012148827  0.011325269         3905 
 3415000   0.71444317   -8.8434422    497.20207  0.012132798  0.011320073         3877 
 3416000   0.69319346   -8.8599493    497.55517   0.01213786  0.011314882         3916 
 3417000   0.70286066   -8.8655723    497.25737  0.012127045  0.011309693         3914 
 3418000   0.69236691   -8.8979485    497.38805  0.012126684  0.011304502         3901 
 3419000   0.70924785   -8.8820079    497.18212  0.012118117  0.011299314         3890 
 3420000   0.69402829   -8.8614064    497.70389  0.012127288  0.011294135         3905 
 3421000   0.70643335   -8.8545832    498.73774  0.012148927  0.011288957         3888 
 3422000   0.69977418   -8.8746685    497.41254  0.012113105  0.011283781         3899 
 3423000   0.70631534   -8.8655434    497.15766  0.012103361  0.011278605         3904 
 3424000   0.68630736   -8.8584959    497.66455  0.012112163  0.011273429         3894 
 3425000    0.7059674   -8.8995853    497.18153  0.012096874  0.011268259         3933 
 3426000   0.70961357   -8.8666544    496.76195  0.012083137  0.011263087         3903 
 3427000   0.71538641   -8.8729919    497.44695  0.012096269  0.011257923         3900 
 3428000      0.70895   -8.8661869    496.97908  0.012081366  0.011252759         3906 
 3429000   0.71217019   -8.8885675    497.12959  0.012081501  0.011247596         3915 
 3430000   0.69668578   -8.8401552    498.07259  0.012100889  0.011242445         3902 
 3431000   0.68386713    -8.849345     498.1878   0.01210016  0.011237293         3886 
 3432000     0.715865   -8.8859119    497.13289   0.01207102  0.011232147         3930 
 3433000   0.70682071   -8.8666351    496.90867  0.012062061  0.011227005         3864 
 3434000   0.69357549   -8.8603141    497.49544  0.012072788  0.011221866         3900 
 3435000   0.69039807    -8.878325    497.78077  0.012076195  0.011216726         3917 
 3436000   0.69896369   -8.8750594     497.7433  0.012071772  0.011211588         3911 
 3437000   0.69690096   -8.8502021    497.25326  0.012056378  0.011206451         3884 
 3438000   0.70168524   -8.8605331    496.61077  0.012037298  0.011201322         3854 
 3439000   0.69715496   -8.8755935    496.54866  0.012032293  0.011196195         3889 
 3440000   0.67769383   -8.8720923    497.38875  0.012049146  0.011191071         3885 
 3441000   0.71753408   -8.8922061     497.9612  0.012059508  0.011185951         3918 
 3442000    0.6943145   -8.8659977     497.6945  0.012049547  0.011180834         3904 
 3443000   0.70384428   -8.8733588    496.50173  0.012017178  0.011175717         3920 
 3444000   0.68560448   -8.8496126    497.53486  0.012038687  0.011170609         3915 
 3445000   0.69847264   -8.8816906    496.49525  0.012010045  0.011165498         3916 
 3446000   0.70217624   -8.8695833    497.38228   0.01202801  0.011160393         3922 
 3447000   0.70627531   -8.8620047    497.66667  0.012031396   0.01115529         3906 
 3448000   0.69502734   -8.8580898    497.69703  0.012028641  0.011150188         3910 
 3449000   0.70745831   -8.8696265    497.25468  0.012014465  0.011145091         3932 
 3450000   0.70814797   -8.8517186    498.22218  0.012034352  0.011140001         3896 
 3451000   0.69344759   -8.8810032    497.28632  0.012008266  0.011134909         3880 
 3452000   0.69246445   -8.8418248     497.4987  0.012009914  0.011129823         3885 
 3453000   0.71699286   -8.8524398     498.5077  0.012030787  0.011124744         3908 
 3454000   0.69207935   -8.8658642    498.23282  0.012020672   0.01111966         3903 
 3455000   0.67904802   -8.8769625    496.54991  0.011976602  0.011114577         3893 
 3456000   0.68218552   -8.8718576    497.72886  0.012001564  0.011109498         3902 
 3457000   0.69690926   -8.8752907    498.16136  0.012008518  0.011104429         3895 
 3458000   0.68935635   -8.8759415    496.60568  0.011967555   0.01109936         3911 
 3459000   0.70648136   -8.8723196    498.03985  0.011998647  0.011094293         3919 
 3460000    0.6961054   -8.8801771    497.48176  0.011981738   0.01108923         3906 
 3461000   0.69453774   -8.8793234    496.75139   0.01196069   0.01108417         3880 
 3462000    0.6946392   -8.8512769    497.62744  0.011978323  0.011079109         3913 
 3463000   0.70179907   -8.8712971    496.74516  0.011953633  0.011074057         3888 
 3464000   0.70615224   -8.8739734    497.07508  0.011958119  0.011069001         3918 
 3465000   0.69012148   -8.8885692    496.25026  0.011934831  0.011063951         3893 
 3466000   0.71496619   -8.8952729    496.44716  0.011936121  0.011058903         3893 
 3467000   0.70156313   -8.8805864    497.49865  0.011957952  0.011053853         3897 
 3468000   0.69743883   -8.8787749    496.41044  0.011928355  0.011048813         3869 
 3469000   0.68572354   -8.8781223    496.91335  0.011936998   0.01104378         3911 
 3470000   0.68677828   -8.8771642    497.68198  0.011952017  0.011038738         3908 
 3471000    0.7165725   -8.8820955    497.10234  0.011934657  0.011033703         3872 
 3472000   0.68372158   -8.9052473    496.05525  0.011906088  0.011028671         3894 
 3473000   0.70347655   -8.8929143    497.50334  0.011937406   0.01102364         3881 
 3474000   0.70048205    -8.880026    496.84518  0.011918182  0.011018618         3896 
 3475000   0.70310299   -8.8804705    497.65292  0.011934123  0.011013594         3899 
 3476000   0.70533521   -8.9047528    496.50922   0.01190327   0.01100857         3911 
 3477000   0.69842832   -8.8996419    496.88222  0.011908787  0.011003553         3931 
 3478000   0.70702755    -8.889049    497.18759  0.011912679  0.010998541         3905 
 3479000   0.69880371   -8.8736444    497.27405  0.011911326  0.010993527         3900 
 3480000   0.69465454   -8.8717002    496.83713  0.011897441   0.01098852         3903 
 3481000   0.69922849   -8.8873318    496.80341  0.011893216  0.010983517         3904 
 3482000   0.70059626   -8.8895968    496.73796  0.011888234  0.010978513         3897 
 3483000   0.69089342   -8.8944287    496.65962  0.011882946  0.010973517         3926 
 3484000   0.70149042   -8.8909294    497.55086  0.011900853  0.010968519         3902 
 3485000   0.68942347    -8.864955    496.47964  0.011871823  0.010963523         3915 
 3486000   0.69487851   -8.8867122    496.58842  0.011871018   0.01095853         3903 
 3487000   0.68808794   -8.8822473    497.14736  0.011880971   0.01095354         3910 
 3488000    0.6976264   -8.8819211    496.72247  0.011867414  0.010948553         3903 
 3489000   0.69824106   -8.9112614    497.48963  0.011882336   0.01094357         3918 
 3490000   0.69431689   -8.8995734    497.54949   0.01188036  0.010938591         3897 
 3491000   0.69275776   -8.8797598      497.563   0.01187728  0.010933616         3919 
 3492000   0.68377294   -8.8834812    497.85911  0.011880945  0.010928647         3898 
 3493000   0.68030547   -8.8695616    497.00809  0.011857241  0.010923679         3892 
 3494000   0.70972275   -8.8794042     497.4212    0.0118637  0.010918713         3881 
 3495000   0.70021972   -8.8956133    496.64829  0.011841876  0.010913748         3884 
 3496000    0.6952772   -8.8665815    497.30399  0.011854119  0.010908791         3898 
 3497000   0.69185454   -8.8875701    496.69924  0.011836318   0.01090383         3900 
 3498000   0.67777055   -8.9001503    497.78305  0.011858754  0.010898874         3901 
 3499000   0.68041353   -8.8879851    496.81241  0.011832248  0.010893919         3905 
 3500000    0.6850845   -8.8884798    497.39781  0.011842805  0.010888972         3911 
 3501000   0.69004928   -8.8913614    497.54846  0.011843008  0.010884026         3901 
 3502000   0.69092453   -8.8936422    497.62368  0.011841416  0.010879082         3912 
 3503000   0.68910364   -8.8852224    496.69847  0.011816026  0.010874147         3903 
 3504000   0.70511194   -8.8877044    496.53546  0.011808777  0.010869211         3904 
 3505000   0.69317629   -8.9055842    496.36068  0.011801253  0.010864273         3913 
 3506000   0.70080049   -8.9176477    495.57228  0.011779147  0.010859342         3916 
 3507000   0.67986549   -8.9073482    496.46602  0.011797025  0.010854412         3893 
 3508000   0.69726744   -8.8938986    496.56227  0.011795949  0.010849488         3902 
 3509000   0.67416688   -8.8815169    497.60972  0.011817463  0.010844564         3906 
 3510000    0.6948579   -8.8806569    497.04461  0.011800679  0.010839644         3904 
 3511000   0.69940387   -8.8834871    496.26886  0.011778906  0.010834725         3883 
 3512000   0.69128562   -8.8992794    496.51827   0.01178147  0.010829808         3893 
 3513000   0.69431736   -8.9077024    496.88934  0.011786919  0.010824896         3915 
 3514000   0.69681565    -8.893721    496.50126  0.011774361  0.010819994         3893 
 3515000   0.68194348    -8.897574    496.97311  0.011782198  0.010815082         3917 
 3516000   0.67956909    -8.918376    496.64306  0.011771024  0.010810179         3900 
 3517000    0.6806698   -8.8959644    497.28238  0.011782826  0.010805273         3904 
 3518000   0.68112168   -8.8810041    497.08002  0.011774683  0.010800378         3888 
 3519000   0.69255701   -8.8939962    497.23348  0.011774971  0.010795483         3922 
 3520000   0.68208069    -8.911128    496.43332  0.011752683  0.010790589         3915 
 3521000    0.6944281   -8.8844899    496.44112  0.011749529    0.0107857         3889 
 3522000   0.67273163   -8.9173556    495.25037  0.011718019  0.010780808         3911 
 3523000   0.68146769    -8.908223    496.32411  0.011740091  0.010775927         3910 
 3524000   0.70735107   -8.8912134    497.67755  0.011768765  0.010771047         3891 
 3525000   0.69185156   -8.8898261     497.0285  0.011750083  0.010766173         3912 
 3526000   0.70094897   -8.8991698    496.96765  0.011745312  0.010761296         3917 
 3527000   0.69233699   -8.9176148    496.16846  0.011723099  0.010756429         3914 
 3528000   0.70193702   -8.9037544    497.17486  0.011743548  0.010751561         3922 
 3529000   0.68234309   -8.8935006    496.65179  0.011727869  0.010746692         3899 
 3530000   0.69077075   -8.8991323    496.58769  0.011723033  0.010741829         3884 
 3531000   0.68889375   -8.9038334    497.16693  0.011733384  0.010736971         3919 
 3532000   0.68700017   -8.9216189    496.15956  0.011706294  0.010732116         3898 
 3533000   0.69322158    -8.902854    496.39833  0.011708612  0.010727262         3920 
 3534000   0.68874499   -8.9101505    496.12487  0.011698851  0.010722411         3893 
 3535000   0.67847458   -8.8934397    495.89132  0.011690036  0.010717559         3908 
 3536000   0.67695703   -8.9001874    496.41767  0.011699134  0.010712711         3912 
 3537000   0.68818705   -8.8919647     496.5316  0.011698511  0.010707872         3916 
 3538000   0.68847566   -8.9157821    496.30543  0.011689877  0.010703031         3908 
 3539000    0.6886276   -8.9063835    497.85298  0.011723014  0.010698189         3904 
 3540000   0.68048057   -8.9018941    495.60854  0.011666868  0.010693352         3905 
 3541000   0.67700517   -8.8869322    496.39757  0.011682142   0.01068852         3915 
 3542000   0.69055604   -8.8929578    496.00806   0.01166968  0.010683686         3899 
 3543000   0.68048095   -8.8947944    495.80811  0.011661683  0.010678859         3907 
 3544000   0.67995055   -8.9036581    496.70814  0.011679556  0.010674038         3910 
 3545000   0.68616499   -8.8822123    496.99785  0.011683071  0.010669222         3894 
 3546000   0.69127978   -8.9013368    497.15663  0.011683508  0.010664408         3918 
 3547000   0.69984394   -8.8979738    497.20566  0.011681366  0.010659597         3901 
 3548000   0.69057992   -8.9004481    496.51385  0.011661825  0.010654789         3927 
 3549000   0.67446868   -8.8999042    496.01061  0.011646722  0.010649981         3891 
 3550000   0.67720992   -8.8913002      496.592  0.011657089  0.010645183         3899 
 3551000    0.6706417   -8.9145835    496.32885  0.011647631  0.010640382         3904 
 3552000   0.67818716   -8.9001043    496.74636  0.011654147  0.010635582         3906 
 3553000    0.6867056   -8.9011552    497.34735  0.011664963  0.010630787         3913 
 3554000   0.68696935   -8.8815865     497.5343  0.011666064  0.010625993         3902 
 3555000   0.69284685    -8.912961    497.04071  0.011651212  0.010621205         3912 
 3556000   0.68553337   -8.9040521    496.44599  0.011633999  0.010616412         3914 
 3557000   0.69485249   -8.8897357    496.18503  0.011624614  0.010611627         3902 
 3558000   0.67627692   -8.8961306    496.63651  0.011631921  0.010606841         3914 
 3559000   0.68339225   -8.9061481    496.69139  0.011629938  0.010602066         3891 
 3560000   0.69091275   -8.8985971    497.13712  0.011637105  0.010597292         3904 
 3561000   0.66035811   -8.8964602    496.87143  0.011627619  0.010592514         3893 
 3562000   0.68708468   -8.8974802    496.51272  0.011615963  0.010587746         3917 
 3563000   0.68045078   -8.8730501    496.92965  0.011622454   0.01058298         3868 
 3564000   0.68591158   -8.8929575    496.70944  0.011614044  0.010578214         3903 
 3565000   0.67717814   -8.9088194     496.1075  0.011596716  0.010573448         3908 
 3566000   0.67147702   -8.9081911    496.27298  0.011597331  0.010568692         3904 
 3567000   0.69419784   -8.9033724    496.72574  0.011604657  0.010563933         3931 
 3568000   0.67541847   -8.8939589    496.25348  0.011590375  0.010559179         3902 
 3569000    0.6875271   -8.9203438    495.36797  0.011566451  0.010554424         3913 
 3570000   0.67473166    -8.924906    495.48514  0.011565946  0.010549673         3913 
 3571000   0.69337185   -8.8950361    495.95659  0.011573709  0.010544929         3922 
 3572000   0.68169108   -8.9060349    496.64477  0.011586524  0.010540186         3886 
 3573000   0.68491846   -8.9015553    496.22618  0.011573519  0.010535445         3899 
 3574000   0.68508206   -8.9113058    496.68683  0.011581021  0.010530708         3919 
 3575000    0.6687758   -8.9009985    496.90842  0.011582947  0.010525973         3908 
 3576000   0.69165446   -8.9096982    496.69637  0.011574766  0.010521234         3903 
 3577000   0.68108415   -8.9349529     496.3375   0.01156317  0.010516501         3904 
 3578000   0.69158464   -8.8820742    496.24826   0.01155786  0.010511771         3908 
 3579000   0.67598064   -8.8965604      496.786  0.011567151  0.010507042         3908 
 3580000   0.68188638   -8.9005683     496.2004  0.011550289  0.010502317         3920 
 3581000   0.66943118   -8.8921652    497.08665  0.011567687  0.010497594         3916 
 3582000   0.67147265   -8.9044887    496.77564  0.011557222  0.010492882         3915 
 3583000   0.68000128   -8.9243026    496.36463  0.011544437  0.010488166         3929 
 3584000   0.69239868   -8.8978691    497.02495   0.01155657  0.010483451         3934 
 3585000   0.68764323   -8.8946026    496.35837  0.011537851   0.01047874         3921 
 3586000     0.678372   -8.9156576    496.83565  0.011545725  0.010474027         3919 
 3587000   0.67407848   -8.9161267    495.86756  0.011520016  0.010469324         3934 
 3588000   0.67773926   -8.9105646    496.09033  0.011521979  0.010464618         3938 
 3589000   0.69310414   -8.9057871    496.86217   0.01153669  0.010459915         3922 
 3590000   0.68122475   -8.9087601     496.1512  0.011516973  0.010455216         3944 
 3591000   0.68014384   -8.9046798    496.15984  0.011513966  0.010450522         3916 
 3592000   0.68270432   -8.8939718    496.60846  0.011521169  0.010445825         3938 
 3593000   0.68900384   -8.9064974     496.5358  0.011516277  0.010441137         3927 
 3594000   0.67029255   -8.9059377    496.38678  0.011509617   0.01043645         3902 
 3595000   0.68310253   -8.9071167    496.72136  0.011514172  0.010431762         3911 
 3596000    0.6734993   -8.9321466    494.70223  0.011464178  0.010427076         3905 
 3597000   0.68208504   -8.9065943     495.3681  0.011476418   0.01042239         3919 
 3598000   0.67814939   -8.9391533    496.08028  0.011489723  0.010417706         3915 
 3599000   0.66007589   -8.9177342    495.50237  0.011473149  0.010413028         3917 
 3600000   0.68490539   -8.9197021    496.13313  0.011484563  0.010408353         3906 
 3601000   0.68033543   -8.8989152      496.117  0.011481001   0.01040368         3898 
 3602000   0.66329789   -8.9379674     495.9333  0.011473563  0.010399008         3922 
 3603000     0.677512   -8.8947972    497.02539  0.011495638  0.010394347         3917 
 3604000   0.66492071   -8.8904128    496.80412  0.011487332  0.010389683         3895 
 3605000   0.66404164   -8.9390758    495.37235  0.011451048  0.010385024         3916 
 3606000   0.67530986   -8.9116814    496.58037   0.01147579  0.010380365         3932 
 3607000   0.67853667   -8.9161142    496.36035  0.011467525  0.010375707         3918 
 3608000   0.66516843   -8.9253587    496.18218  0.011460231  0.010371051         3928 
 3609000   0.66955212   -8.9260169    496.28292  0.011459382  0.010366403         3916 
 3610000   0.67962084   -8.8919845    496.90995  0.011470682   0.01036176         3900 
 3611000   0.67502965   -8.9145196    495.37979  0.011432193  0.010357117         3918 
 3612000   0.66343146   -8.9160863    494.93892  0.011418857  0.010352474         3917 
 3613000   0.66324502   -8.9058862    495.73181  0.011433984  0.010347836         3920 
 3614000   0.68096948   -8.9195281    495.92022  0.011435165    0.0103432         3922 
 3615000   0.68276458   -8.9147892    496.30657  0.011440908   0.01033857         3890 
 3616000   0.67391364   -8.9223631    495.24078  0.011413182  0.010333939         3909 
 3617000   0.67287364   -8.9273104    495.86779  0.011424472  0.010329308         3924 
 3618000    0.6604569   -8.9116644     496.4845  0.011435519  0.010324684         3918 
 3619000   0.66546388   -8.9175595    496.19836   0.01142577  0.010320064         3915 
 3620000   0.65903493   -8.9259603    495.61509  0.011409187  0.010315444         3912 
 3621000   0.68509454   -8.9180583    495.03002  0.011392572  0.010310825         3910 
 3622000   0.67639848   -8.9277717    496.33893  0.011419541  0.010306207         3920 
 3623000   0.68315576   -8.9218593    495.54973  0.011398237  0.010301593         3908 
 3624000   0.67645835   -8.9393046    495.89007  0.011402917  0.010296982         3931 
 3625000   0.66381278    -8.920951    495.92211  0.011400508  0.010292375         3915 
 3626000   0.66853504   -8.9200832    496.78575  0.011417212  0.010287771         3927 
 3627000    0.6810454   -8.9414737    495.77059   0.01139074   0.01028317         3912 
 3628000   0.67375979   -8.9296781    495.69611   0.01138589  0.010278565         3928 
 3629000   0.67398075   -8.9101166    496.25855  0.011395668  0.010273966         3901 
 3630000   0.67195526   -8.9090371    497.21628  0.011414515  0.010269373         3916 
 3631000   0.67576278   -8.9301652    496.25305  0.011389265  0.010264783         3890 
 3632000   0.66809875   -8.9363762    495.96059  0.011379419    0.0102602         3926 
 3633000   0.66891583   -8.9346386    495.47696  0.011365193  0.010255616         3925 
 3634000   0.67957787   -8.9270139     496.1981  0.011378603  0.010251029         3920 
 3635000   0.66624848   -8.9031068     496.6776  0.011386465  0.010246448         3935 
 3636000   0.66872608   -8.9270831    495.12352  0.011347715  0.010241871         3914 
 3637000   0.66574796   -8.9639912    494.29145  0.011325531  0.010237293         3915 
 3638000   0.67434765   -8.9331418     496.7364  0.011378422   0.01023272         3927 
 3639000   0.65588726   -8.9010755    495.83613  0.011354679  0.010228144         3927 
 3640000   0.66978805   -8.9287407    495.71506  0.011348788  0.010223577         3913 
 3641000   0.68131963   -8.9323497    496.12994  0.011355167  0.010219012         3922 
 3642000   0.66832983   -8.9291825    496.52417  0.011361069  0.010214448         3892 
 3643000   0.67702757   -8.9246888    494.42682  0.011309974   0.01020989         3918 
 3644000   0.67086534   -8.9189813    495.81849  0.011338696  0.010205335         3920 
 3645000   0.66569413   -8.8994045    494.91625  0.011314958  0.010200775         3894 
 3646000   0.65515274   -8.9267371    495.64323   0.01132847  0.010196222         3900 
 3647000   0.66871591   -8.9201458    496.20847   0.01133828  0.010191674         3921 
 3648000   0.67962021    -8.915485    495.34055  0.011315345  0.010187129         3920 
 3649000   0.67681779   -8.9364744      495.589  0.011317918  0.010182589         3924 
 3650000   0.66745247   -8.9299532     495.7771  0.011319112  0.010178048         3934 
 3651000   0.66612651   -8.9423737    495.71828  0.011314669  0.010173513         3934 
 3652000   0.66752917   -8.9393857    495.41677  0.011304691  0.010168973         3910 
 3653000   0.67395646    -8.930673    495.51759  0.011303896   0.01016444         3943 
 3654000   0.66106045   -8.9265127    495.92085  0.011309999  0.010159906         3906 
 3655000   0.66810042   -8.9241891    496.07387  0.011310394  0.010155375         3932 
 3656000   0.66541241   -8.9198625    496.65031  0.011320439  0.010150845         3924 
 3657000   0.67632138   -8.9333363    496.13137  0.011305518   0.01014632         3919 
 3658000   0.66782183   -8.9468073    496.35352  0.011307489    0.0101418         3924 
 3659000   0.67717086   -8.9337449    495.88421   0.01129371  0.010137283         3905 
 3660000   0.67175829   -8.9293775    495.83957  0.011289608  0.010132773         3907 
 3661000    0.6781603   -8.9421948    495.43116  0.011277228   0.01012826         3899 
 3662000   0.66622388   -8.9357914    495.44039  0.011274358  0.010123751         3914 
 3663000   0.66278446   -8.9502839    495.72209  0.011277689  0.010119242         3918 
 3664000   0.67422501   -8.9331423    495.64528  0.011272864  0.010114741         3917 
 3665000   0.66559933   -8.9292439    495.24714  0.011260735   0.01011024         3901 
 3666000   0.65231379   -8.9427057    494.93658  0.011250604  0.010105739         3935 
 3667000   0.66644442   -8.9395545    495.87885  0.011268949  0.010101238         3895 
 3668000   0.65870298   -8.9361599    495.44028  0.011255913  0.010096748         3917 
 3669000   0.66865533   -8.9164417    495.86711   0.01126254  0.010092261         3943 
 3670000   0.66235605   -8.9254941     495.2699  0.011245911   0.01008777         3915 
 3671000   0.66910724   -8.9255738    495.32176  0.011244024  0.010083287         3915 
 3672000   0.66887348   -8.9273118    495.84097  0.011252745  0.010078803         3912 
 3673000   0.66012895    -8.933591    496.80193  0.011271484  0.010074329         3922 
 3674000   0.65210886   -8.9471343    495.81181  0.011245958  0.010069852         3928 
 3675000   0.66650818   -8.9507216    495.23325  0.011229779  0.010065371         3941 
 3676000   0.66636959   -8.9437322     497.1569  0.011270332  0.010060902         3931 
 3677000   0.66213549   -8.9304839    496.22813  0.011246218  0.010056432         3939 
 3678000   0.65722733   -8.9501096    495.91341   0.01123603  0.010051962         3908 
 3679000   0.66514248   -8.9269498    496.34723  0.011242802  0.010047498         3915 
 3680000   0.65305549   -8.9400143    495.90256  0.011229678  0.010043036         3906 
 3681000   0.66508996    -8.921382    496.28846  0.011235363  0.010038575         3925 
 3682000   0.67226006   -8.9310523    495.80483  0.011221366  0.010034118         3916 
 3683000   0.66720698   -8.9362958    496.07657  0.011224468  0.010029663         3902 
 3684000   0.65576809   -8.9162005    495.90123  0.011217455   0.01002521         3936 
 3685000   0.65556046   -8.9101595    496.15179  0.011220077  0.010020761         3899 
 3686000   0.65730991    -8.939443    495.81081  0.011209324  0.010016317         3925 
 3687000   0.65865481    -8.933994    495.81069  0.011206281  0.010011868         3926 
 3688000   0.66166952   -8.9400397     495.4857  0.011195899  0.010007425         3928 
 3689000   0.67784443   -8.9167345    494.80216  0.011177423  0.010002986         3922 
 3690000   0.67186748   -8.9245462     495.7763  0.011196393 0.0099985487         3922 
 3691000   0.66928021   -8.9401569    495.75069  0.011192782 0.0099941112         3921 
 3692000   0.66092337   -8.9191313    496.08559  0.011197309 0.0099896778         3917 
 3693000   0.66636681   -8.9288149    495.57517   0.01118276 0.0099852481         3918 
 3694000   0.65437505   -8.9404457    496.06849  0.011190861 0.0099808174         3900 
 3695000   0.66471135   -8.9496725    495.39249  0.011172587 0.0099763972         3912 
 3696000   0.65437032   -8.9670144      494.697  0.011153883 0.0099719788         3917 
 3697000   0.65024065   -8.9282673    495.57306  0.011170613 0.0099675554         3900 
 3698000   0.65485447   -8.9476335    496.14587    0.0111805  0.009963139         3925 
 3699000    0.6605474   -8.9515795    495.19366  0.011156025 0.0099587253         3918 
 3700000   0.65121088   -8.9063645    495.16133  0.011152282 0.0099543103         3909 
 3701000   0.66268951   -8.9789882    495.49962  0.011156886 0.0099499035         3917 
 3702000   0.68510277   -8.9301308    495.08076  0.011144443 0.0099454962         3931 
 3703000   0.65353715   -8.9529325    495.08761  0.011141588 0.0099410902         3927 
 3704000   0.66627939   -8.9462368     494.3909  0.011122905  0.009936687         3935 
 3705000   0.66482378    -8.956124    495.25928  0.011139435 0.0099322894         3938 
 3706000    0.6458499   -8.9461621    495.39044  0.011139378 0.0099278931         3922 
 3707000   0.66332857   -8.9305983    494.93826  0.011126209 0.0099234958         3916 
 3708000   0.66758826   -8.9478596    495.16152  0.011128226 0.0099191111         3928 
 3709000    0.6481068   -8.9446182    495.19953  0.011126079 0.0099147163         3942 
 3710000   0.66933668   -8.9489503    495.76721  0.011135831 0.0099103305         3918 
 3711000   0.65043784   -8.9505898    495.43994  0.011125481 0.0099059457         3902 
 3712000   0.65300944   -8.9352729    495.68645  0.011128018 0.0099015648         3910 
 3713000   0.65602928   -8.9285823    495.83542  0.011128365 0.0098971824         3933 
 3714000   0.67094146   -8.9509219    495.59734  0.011120027 0.0098928049         3911 
 3715000   0.65989657    -8.929917    494.79623  0.011099063 0.0098884339         3923 
 3716000   0.65819707   -8.9413682    495.79408  0.011118453 0.0098840584         3919 
 3717000   0.64985799   -8.9577841    494.85182  0.011094337 0.0098796885         3924 
 3718000   0.65431636   -8.9441474    494.94119  0.011093356 0.0098753241         3915 
 3719000   0.64205189   -8.9458104    495.54825  0.011103976 0.0098709594         3936 
 3720000   0.64228632   -8.9572633    495.47818  0.011099422 0.0098666013         3899 
 3721000   0.64613118   -8.9513452     495.0887  0.011087716 0.0098622435         3924 
 3722000   0.65659224   -8.9571033    495.02678  0.011083351 0.0098578821         3936 
 3723000   0.65755119   -8.9463776    495.90642  0.011100063 0.0098535295         3922 
 3724000   0.64932386   -8.9372683    494.91944  0.011074996 0.0098491778         3912 
 3725000   0.63589733   -8.9507618    495.43362  0.011083526 0.0098448316         3918 
 3726000   0.64865284   -8.9219734    495.08728  0.011072806  0.009840485         3910 
 3727000   0.64712439    -8.962483    494.58961  0.011058707 0.0098361389         3917 
 3728000   0.65895984    -8.946702     495.0939  0.011067013 0.0098317992         3899 
 3729000   0.65379793   -8.9498895    494.68669  0.011054945 0.0098274629         3935 
 3730000    0.6467559   -8.9365165    495.52406  0.011070689  0.009823127         3907 
 3731000   0.64919707   -8.9695241    494.70493  0.011049427 0.0098187913         3938 
 3732000   0.66512391   -8.9553286    494.72048  0.011046813  0.009814462         3917 
 3733000   0.66085693   -8.9694692    494.46824  0.011038223 0.0098101339         3922 
 3734000   0.65350922   -8.9553532    495.07431  0.011048793  0.009805807         3920 
 3735000   0.66410069   -8.9663102    495.04061  0.011045083 0.0098014804         3931 
 3736000   0.66105554   -8.9387838    495.25412  0.011046889 0.0097971614         3928 
 3737000    0.6599395   -8.9530278    495.03739    0.0110391 0.0097928426         3913 
 3738000   0.66446509   -8.9661281    495.30852  0.011042191   0.00978853         3916 
 3739000   0.64780135   -8.9512883    495.23552  0.011037611 0.0097842143         3919 
 3740000   0.65547126    -8.962156    495.13736  0.011032472 0.0097798971         3922 
 3741000     0.658204    -8.935971    495.24384  0.011031895 0.0097755876         3945 
 3742000   0.65243702   -8.9738988    495.40739  0.011032589 0.0097712827         3947 
 3743000   0.65804582   -8.9483191    495.25452  0.011026238 0.0097669747         3917 
 3744000   0.65066181   -8.9484822    496.00299  0.011039953 0.0097626732         3920 
 3745000   0.65757207   -8.9551593    495.82232  0.011032984  0.009758376         3911 
 3746000   0.65224701     -8.95412     495.3835  0.011020277 0.0097540788         3918 
 3747000   0.64890698   -8.9448034    495.63943  0.011023028 0.0097497864         3919 
 3748000   0.66387556   -8.9441636     494.4416  0.010993454 0.0097454924         3926 
 3749000   0.65753835   -8.9582536    495.78692  0.011020426 0.0097412028         3930 
 3750000   0.65167353   -8.9535931    495.30741  0.011006831 0.0097369151         3922 
 3751000   0.63864551   -8.9584763    495.88084  0.011016636 0.0097326343         3940 
 3752000   0.65322408   -8.9543944     494.6835  0.010987107 0.0097283542         3917 
 3753000   0.65312336   -8.9479868    494.86993  0.010988319 0.0097240691         3944 
 3754000    0.6600692   -8.9583379    495.14645   0.01099153 0.0097197884         3916 
 3755000   0.65410081   -8.9282565    495.95394  0.011006523 0.0097155155         3932 
 3756000   0.65741727   -8.9546485    495.64503  0.010996739  0.009711244         3929 
 3757000   0.63892281   -8.9564878    495.37338  0.010987787 0.0097069746         3935 
 3758000   0.64649327   -8.9297096    495.48293  0.010987292 0.0097027078         3919 
 3759000   0.63524874   -8.9492919      495.052  0.010974816 0.0096984393         3910 
 3760000   0.64140283   -8.9611365    494.56751  0.010961159 0.0096941745         3936 
 3761000   0.66246602   -8.9550131    494.19133   0.01094991   0.00968991         3925 
 3762000   0.65708098   -8.9652362    494.11573  0.010945324 0.0096856516         3939 
 3763000   0.64255389    -8.972452    495.07106  0.010963572 0.0096813939         3926 
 3764000   0.65328084   -8.9651571    495.37268  0.010967337 0.0096771378         3912 
 3765000    0.6474646   -8.9649853    494.59629   0.01094724 0.0096728888         3925 
 3766000   0.65976328   -8.9658701     494.6374  0.010945242  0.009668638         3908 
 3767000   0.64276124   -8.9581719     494.5442  0.010940275 0.0096643889         3922 
 3768000   0.64389731   -8.9383918    495.98703  0.010969281 0.0096601481         3915 
 3769000   0.65326908   -8.9545224    494.93331  0.010943073  0.009655904         3926 
 3770000   0.63901362   -8.9732591    495.34235  0.010949212 0.0096516597         3923 
 3771000    0.6382632   -8.9393307    495.55992  0.010951116 0.0096474249         3926 
 3772000   0.64785304   -8.9652484      495.006  0.010935976 0.0096431886         3938 
 3773000   0.64947372    -8.957606    494.02743  0.010911464 0.0096389574         3928 
 3774000   0.63949001   -8.9551464    495.50965  0.010941301 0.0096347267         3919 
 3775000   0.66297427    -8.956478    495.53348  0.010938929 0.0096304967         3919 
 3776000   0.64529216   -8.9637481    495.03378  0.010925004 0.0096262703         3909 
 3777000   0.64951765     -8.95515    494.83324  0.010917687 0.0096220505         3919 
 3778000   0.65209046   -8.9506621    495.32472  0.010925638 0.0096178298         3916 
 3779000   0.65256391   -8.9706679    494.38436   0.01090201   0.00961361         3931 
 3780000   0.64954587   -8.9662645    495.28162  0.010918907  0.009609402         3938 
 3781000   0.64773471   -8.9586789    494.76896   0.01090472 0.0096051897         3924 
 3782000    0.6444763   -8.9553191    495.04378  0.010907892 0.0096009794         3928 
 3783000    0.6578534   -8.9710617    494.45684  0.010892079 0.0095967731         3927 
 3784000   0.64752532   -8.9665356    494.34877  0.010886821 0.0095925691         3916 
 3785000    0.6684167   -8.9584534    495.71639  0.010914055 0.0095883701         3927 
 3786000   0.64874426   -8.9480568    495.32541  0.010902567 0.0095841713         3915 
 3787000   0.63336701   -8.9610789    495.11582  0.010895076 0.0095799748         3939 
 3788000   0.64339166   -8.9810547    494.85257  0.010886408 0.0095757789         3914 
 3789000   0.63977717   -8.9866381    494.22652  0.010869766 0.0095715913         3923 
 3790000   0.63999226   -8.9820073    493.97193    0.0108613 0.0095674016         3923 
 3791000   0.64003339   -8.9556516    494.86544  0.010878076 0.0095632126         3942 
 3792000    0.6482093   -8.9321171    495.47249  0.010888548  0.009559029         3917 
 3793000   0.64952256   -8.9692385    494.79958  0.010870893 0.0095548451         3934 
 3794000   0.65376039   -8.9740626    494.81901  0.010868455 0.0095506646         3932 
 3795000   0.65769064   -8.9580818    495.05813  0.010870842   0.00954649         3923 
 3796000   0.66003679   -8.9677754    494.50341    0.0108558 0.0095423148         3954 
 3797000   0.64659148   -8.9537054    494.14874  0.010845157 0.0095381426         3933 
 3798000   0.64387367    -8.958983    494.02326  0.010839548 0.0095339742         3936 
 3799000   0.65096968   -8.9901646    494.20883  0.010840766 0.0095298059         3940 
 3800000   0.64781767   -8.9614912      493.655  0.010825768 0.0095256396         3937 
 3801000   0.64100003   -8.9594836    494.58696  0.010843352 0.0095214716         3931 
 3802000   0.64104974   -8.9476789    494.59219  0.010840614 0.0095173064         3944 
 3803000    0.6501273   -8.9938519    494.75293  0.010841286 0.0095131483         3911 
 3804000   0.64826741   -8.9474051    494.02439  0.010822476  0.009508994         3909 
 3805000   0.64472095   -8.9745683    495.06237  0.010842365 0.0095048394         3925 
 3806000   0.65172206   -8.9722813     494.9822   0.01083776 0.0095006847         3915 
 3807000     0.644659    -8.955343    494.20248  0.010817846  0.009496533         3924 
 3808000   0.64129495   -8.9653954    494.99613  0.010832373 0.0094923835         3926 
 3809000   0.63334572   -9.0000321    494.32481  0.010814842 0.0094882375         3936 
 3810000   0.64227633   -8.9577279    493.88629  0.010802412 0.0094840927         3931 
 3811000   0.64249418   -8.9744462    493.72466  0.010796043 0.0094799515         3919 
 3812000   0.63663935   -8.9666672    494.17331  0.010803019 0.0094758123         3905 
 3813000   0.64283151   -8.9746701    495.53656   0.01082998 0.0094716734         3927 
 3814000   0.63810726    -8.937801    495.21897  0.010820201 0.0094675451         3917 
 3815000   0.64837452    -8.955687     496.0293  0.010835065 0.0094634221         3899 
 3816000   0.65196582   -8.9743619     495.5486  0.010821729  0.009459293         3934 
 3817000   0.63791011   -8.9646903    494.65178  0.010799314 0.0094551643         3935 
 3818000   0.63146023    -8.967926    493.82444  0.010778428 0.0094510413         3948 
 3819000   0.64288721   -8.9648555    495.13831  0.010804275 0.0094469211         3920 
 3820000   0.64879648   -8.9600511    494.23137  0.010781662 0.0094428061         3918 
 3821000   0.63651203   -8.9733276    494.22279  0.010778653 0.0094386922         3956 
 3822000   0.62695015   -8.9935525    494.14025  0.010774033 0.0094345824         3927 
 3823000   0.62565131   -8.9828926    493.79844  0.010763764 0.0094304692         3937 
 3824000   0.64847047   -8.9689929    494.54453  0.010777208 0.0094263617         3915 
 3825000   0.63898215   -8.9638246     493.7499  0.010757078 0.0094222563         3927 
 3826000   0.65216274   -8.9748951    493.94309  0.010758475 0.0094181598         3920 
 3827000   0.65501179   -8.9937121    493.91374  0.010755024 0.0094140571         3928 
 3828000    0.6385333   -8.9669115    494.46413  0.010764196   0.00940996         3940 
 3829000   0.64244084   -8.9744943    493.98429  0.010750942 0.0094058638         3917 
 3830000   0.63163424   -8.9641067     495.8286  0.010788264 0.0094017718         3921 
 3831000   0.64921874   -8.9780074    494.17517  0.010749482 0.0093976796         3923 
 3832000   0.63427197   -8.9914073    494.32127  0.010749854 0.0093935909         3935 
 3833000   0.61706546   -8.9669106    493.95338  0.010739051 0.0093895007         3931 
 3834000   0.63827278    -8.999311    494.32701  0.010744371 0.0093854148         3908 
 3835000   0.63548147   -8.9832221    493.91466  0.010732609 0.0093813351         3929 
 3836000    0.6424362   -8.9626533    493.93507  0.010730254 0.0093772566         3922 
 3837000   0.64104007   -8.9801627    494.71324  0.010744359 0.0093731828         3918 
 3838000   0.64411311    -8.951646    494.50466   0.01073703  0.009369109         3921 
 3839000   0.64303792   -8.9657828     494.7571  0.010739713 0.0093650339         3934 
 3840000   0.62443068   -8.9744611    495.08659  0.010744067 0.0093609639         3928 
 3841000   0.62179779    -8.968938     494.5132  0.010728829 0.0093568942         3931 
 3842000   0.65111274   -8.9687376     494.6577  0.010729171  0.009352828         3915 
 3843000   0.63337063   -8.9797333    493.89959   0.01070994 0.0093487673         3923 
 3844000   0.63096815   -8.9922967    494.34127  0.010716729 0.0093447025         3947 
 3845000   0.63084002   -8.9607611    494.39934    0.0107152 0.0093406472         3928 
 3846000   0.63507138   -8.9621889    496.39176  0.010755585 0.0093365923         3933 
 3847000   0.63060606   -8.9638214    494.65465   0.01071516 0.0093325397         3927 
 3848000    0.6397774   -8.9934332     494.3034  0.010704769 0.0093284879         3925 
 3849000   0.64465349   -8.9972661    494.88709  0.010714625 0.0093244384         3933 
 3850000   0.64203344   -8.9727674    494.23555  0.010697739 0.0093203916         3916 
 3851000   0.62218182    -8.993627    493.70763  0.010683537 0.0093163455         3922 
 3852000   0.62876125   -8.9696458    494.79394  0.010704265 0.0093123058         3921 
 3853000   0.63002867   -8.9796052    493.97778  0.010683835 0.0093082626         3939 
 3854000   0.63159338   -8.9631765    494.10486   0.01068381 0.0093042271         3915 
 3855000   0.62313626   -8.9951073    494.95547  0.010699427 0.0093001902         3912 
 3856000   0.63964824   -8.9828512    494.45408  0.010685816 0.0092961536         3943 
 3857000   0.63322329   -8.9858729    494.35684  0.010680945 0.0092921182         3931 
 3858000   0.62258261   -8.9797708    494.10574  0.010672752 0.0092880933         3927 
 3859000   0.63687737   -8.9872511    494.36862  0.010675663 0.0092840665         3936 
 3860000   0.65005632   -8.9789656    494.58301  0.010677526 0.0092800404         3926 
 3861000   0.63540983   -8.9851887    494.30318  0.010668721 0.0092760211         3931 
 3862000   0.62253212   -8.9799367     494.0098  0.010659628 0.0092719988         3924 
 3863000    0.6386837   -8.9649173    494.02595  0.010657217 0.0092679785         3936 
 3864000   0.63114814   -8.9898661    494.44908  0.010663584  0.009263961         3924 
 3865000   0.64663458   -8.9683599    495.37451  0.010680779 0.0092599527         3930 
 3866000   0.63086595   -8.9754132    494.02108  0.010648842 0.0092559414         3934 
 3867000    0.6439065     -8.98195    493.50233  0.010634909 0.0092519292         3933 
 3868000   0.62277007   -8.9679813    494.23102  0.010647859 0.0092479194         3938 
 3869000   0.62689235   -8.9974773    495.25688  0.010667203 0.0092439148         3936 
 3870000   0.62909501   -8.9901387     494.5192  0.010648561 0.0092399156         3931 
 3871000    0.6310648   -8.9620589    494.78207   0.01065147 0.0092359197         3926 
 3872000   0.63097887   -8.9956877    494.39111  0.010640305 0.0092319204         3919 
 3873000   0.63843252   -9.0041649    493.22087  0.010612378 0.0092279228         3923 
 3874000   0.64865635   -8.9759191    493.58833  0.010617543 0.0092239319         3930 
 3875000   0.63425328   -8.9890438    493.47132  0.010612286 0.0092199408         3939 
 3876000   0.63306945   -8.9872525    493.20804  0.010603888 0.0092159505         3937 
 3877000   0.63147735   -8.9776778    494.67408  0.010632664 0.0092119682         3917 
 3878000   0.62826066   -8.9881414    493.79819  0.010611101 0.0092079803         3922 
 3879000   0.62896165    -8.982149    494.09864   0.01061482 0.0092040006         3908 
 3880000   0.63095131   -9.0003474    494.09781  0.010612066 0.0092000208         3899 
 3881000   0.62703014    -8.970685    494.35955  0.010614952 0.0091960422         3919 
 3882000   0.62764171    -8.969387    494.50487  0.010615337 0.0091920633         3922 
 3883000   0.64259016   -8.9777054    494.38439  0.010610018  0.009188094         3922 
 3884000   0.63025342   -8.9905802    494.55523  0.010610951 0.0091841266         3932 
 3885000   0.64399369   -8.9772232    493.77968  0.010591585 0.0091801599         3933 
 3886000   0.62953122   -8.9844316    493.94724  0.010592452 0.0091761946         3931 
 3887000   0.63317156   -8.9707189    494.16122  0.010594315 0.0091722299         3921 
 3888000   0.63286624   -8.9735396    494.25213  0.010593538 0.0091682661         3932 
 3889000    0.6296137   -8.9828547    494.65331  0.010599411 0.0091643058         3903 
 3890000   0.64035589   -8.9836126    493.82089  0.010578854 0.0091603458         3926 
 3891000   0.63441195   -9.0151477    494.01369  0.010580264 0.0091563936         3931 
 3892000   0.63272908   -8.9846081    494.59181  0.010589924 0.0091524395         3924 
 3893000   0.60876014   -8.9721897    494.25186  0.010579927 0.0091484909         3921 
 3894000    0.6170118   -8.9766371    494.64049  0.010585527 0.0091445417         3941 
 3895000   0.62183754   -8.9884368    493.68447  0.010562355  0.009140597         3929 
 3896000    0.6236089   -8.9999962    493.62243  0.010558317 0.0091366546         3920 
 3897000   0.62093002    -9.014371    493.22591  0.010547128 0.0091327104         3926 
 3898000   0.63836546   -8.9868319    494.55349  0.010572804 0.0091287708         3924 
 3899000   0.62720953   -8.9796921    494.47707  0.010568459 0.0091248299         3936 
 3900000   0.63306371   -8.9749746    493.95644  0.010554625 0.0091208912         3927 
 3901000   0.62432026   -8.9957265     493.1395  0.010534468 0.0091169582         3935 
 3902000   0.61837794   -8.9741667    495.15733  0.010574862  0.009113031         3932 
 3903000   0.62496769   -9.0049611     494.6573  0.010561476  0.009109102         3927 
 3904000   0.61925896   -9.0231216    494.12177   0.01054734 0.0091051716         3921 
 3905000   0.62467345   -9.0224343    494.74732  0.010557988 0.0091012437         3928 
 3906000   0.62655003   -8.9941773    492.48095  0.010506933 0.0090973223         3934 
 3907000   0.62792001   -8.9841723    494.24486  0.010541866 0.0090934029         3916 
 3908000    0.6212811     -8.98791    493.58694  0.010525139 0.0090894871         3927 
 3909000   0.63861418    -9.002987    494.03187  0.010531932 0.0090855712         3915 
 3910000   0.61363389    -8.988054     495.0232  0.010550366 0.0090816616         3946 
 3911000   0.61676693   -8.9781238    493.83378  0.010522326 0.0090777488         3909 
 3912000   0.63311067    -8.991694    494.29538  0.010529469 0.0090738368         3924 
 3913000   0.62304316   -9.0022711    493.49707  0.010509777 0.0090699269         3919 
 3914000   0.63055803   -8.9792436    493.82255  0.010514021 0.0090660218         3929 
 3915000   0.61824906   -9.0138739     492.8292  0.010490192 0.0090621178         3933 
 3916000   0.63539479    -9.004701    493.26803  0.010496851 0.0090582188         3949 
 3917000   0.63466663   -9.0177424    493.48719  0.010498834  0.009054322         3960 
 3918000   0.63062925   -8.9889084    493.99004   0.01050685 0.0090504248         3927 
 3919000   0.62769185   -8.9970229    494.07572   0.01050599  0.009046532         3930 
 3920000   0.62075602   -8.9972852    493.93528  0.010500325 0.0090426414         3922 
 3921000   0.61716217   -8.9921732    494.02507  0.010499555 0.0090387508         3931 
 3922000   0.63271769   -8.9947225    493.80036  0.010492104 0.0090348658         3920 
 3923000    0.6403287   -9.0022425    493.11812  0.010474937 0.0090309808         3936 
 3924000   0.63118694   -8.9963714    493.97923  0.010490555 0.0090270981         3923 
 3925000   0.62355895    -9.013379    494.54895  0.010499978 0.0090232195         3917 
 3926000   0.61492048    -9.006016    494.33072  0.010492671 0.0090193436         3940 
 3927000   0.62388954   -8.9946693     492.8005  0.010457527 0.0090154691         3937 
 3928000   0.61520379    -9.018522     493.6209   0.01047227 0.0090115951         3915 
 3929000   0.62741967   -9.0198885     493.8241  0.010473914 0.0090077225         3941 
 3930000   0.62189516   -8.9893405    494.70696  0.010489969   0.00900385         3934 
 3931000   0.62294433   -8.9992715    494.06935  0.010473784  0.008999982         3943 
 3932000   0.62971861   -9.0006899     493.6701  0.010462659 0.0089961186         3899 
 3933000   0.63673307   -9.0107725    492.91744  0.010444051  0.008992256         3934 
 3934000   0.62781009   -8.9763946    493.74407  0.010458907 0.0089883945         3936 
 3935000    0.6165391   -8.9995602    494.00261  0.010461724 0.0089845331         3941 
 3936000    0.6130497   -8.9901321    494.60712  0.010471865 0.0089806771         3923 
 3937000   0.62819478   -8.9983599    494.14446  0.010459412 0.0089768216         3938 
 3938000   0.62345637   -9.0208517    494.03419  0.010454422 0.0089729701         3926 
 3939000   0.62247542   -9.0046134    494.04097  0.010451912 0.0089691211         3922 
 3940000   0.63795332   -9.0278119    493.02421  0.010427754 0.0089652714         3911 
 3941000   0.61103043   -8.9858399    494.35143  0.010453172 0.0089614264         3922 
 3942000   0.62653455   -9.0133597    494.71679  0.010458244 0.0089575806         3938 
 3943000   0.63121835   -9.0120358    494.14664  0.010443542  0.008953743         3919 
 3944000   0.60735606   -9.0002744    494.55569  0.010449537 0.0089499022         3930 
 3945000   0.62056652   -8.9955757    494.36656  0.010442893  0.008946064         3931 
 3946000   0.61580736   -8.9973044    493.71465  0.010426479 0.0089422291         3927 
 3947000   0.63954454   -8.9974128    492.90028  0.010406644 0.0089384014         3940 
 3948000   0.62401662   -8.9976915    494.09511  0.010429228 0.0089345698         3934 
 3949000   0.60976495   -9.0054509    493.99806  0.010424539 0.0089307425         3933 
 3950000   0.62187518   -9.0193836    493.56083  0.010412676 0.0089269186         3928 
 3951000   0.61790424   -9.0112835    492.68925  0.010391657 0.0089230926         3938 
 3952000   0.62065701   -9.0219105    493.41208   0.01040427 0.0089192677         3929 
 3953000    0.6189876   -8.9919882    493.49641  0.010403415 0.0089154527         3916 
 3954000    0.6131124   -8.9976655    493.84912  0.010408218 0.0089116363         3918 
 3955000   0.62759823   -8.9946995    494.13399  0.010411588 0.0089078264         3932 
 3956000   0.61509352   -9.0274963    494.24363  0.010411266 0.0089040163         3926 
 3957000   0.62539648   -9.0005318    493.78094  0.010398891 0.0089002075         3947 
 3958000   0.61355508   -8.9985815    494.43408  0.010410015 0.0088963972         3924 
 3959000   0.61957688   -9.0116198    493.96731  0.010397561 0.0088925934         3930 
 3960000   0.62095205   -9.0024467    493.66194  0.010388509 0.0088887896         3940 
 3961000   0.60823222   -9.0164806    493.61306  0.010384858 0.0088849879         3912 
 3962000   0.61140731   -9.0060775    493.71433  0.010384367 0.0088811889         3935 
 3963000   0.61322302   -8.9941091    494.23642  0.010392725   0.00887739         3932 
 3964000   0.61928685   -9.0211938    493.94111  0.010383895 0.0088735942         3917 
 3965000   0.61946257    -9.007345    493.90833  0.010380587 0.0088698015         3923 
 3966000   0.61412648   -8.9986708     495.0701  0.010402381 0.0088660122         3918 
 3967000   0.62469085   -9.0006658    493.42813  0.010365266 0.0088622254         3917 
 3968000   0.61504715   -8.9909889     493.9044  0.010372656 0.0088584422         3919 
 3969000   0.60790621   -9.0113309    493.96198  0.010371252 0.0088546594         3917 
 3970000   0.60453233   -8.9939205    494.33496  0.010376469 0.0088508817         3935 
 3971000   0.62020243   -8.9978767    493.33926   0.01035296 0.0088471023         3938 
 3972000   0.61240499   -8.9994754    493.97767  0.010363748 0.0088433219         3934 
 3973000    0.6073381   -9.0137128    492.69003  0.010334131  0.008839545         3937 
 3974000   0.61924923   -9.0257116     493.1056  0.010340245 0.0088357728         3908 
 3975000   0.61971226   -8.9986094    493.77773  0.010351734 0.0088320043         3941 
 3976000   0.63284521    -9.013268    494.12605  0.010356431 0.0088282385         3929 
 3977000   0.61267636   -9.0124355    493.96596  0.010350473 0.0088244704         3926 
 3978000   0.62428911   -9.0301957    493.42409  0.010336519 0.0088207081         3927 
 3979000    0.6280173    -9.018787     493.6665  0.010338998 0.0088169464         3935 
 3980000   0.60351744   -9.0212397    493.72375    0.0103376 0.0088131872         3919 
 3981000   0.63121033   -9.0073435    494.64698  0.010354328 0.0088094308         3915 
 3982000   0.61063604   -9.0086104    492.73372  0.010311688 0.0088056751         3932 
 3983000   0.61407598   -9.0101031    493.24495  0.010319796 0.0088019191         3928 
 3984000   0.60166685    -9.013438    493.38229  0.010320078 0.0087981712         3934 
 3985000    0.6187733   -8.9993605    494.47321  0.010340301 0.0087944249         3926 
 3986000   0.61659675   -9.0136031    493.36939   0.01031463 0.0087906758         3940 
 3987000    0.6085089   -9.0170691    494.00695  0.010325369 0.0087869274         3940 
 3988000   0.59254049   -9.0114907    493.95167  0.010321625 0.0087831833         3933 
 3989000   0.61221487   -9.0181893    493.87454  0.010317426 0.0087794416         3927 
 3990000   0.59643869   -9.0203886    493.01279  0.010296842 0.0087757002         3914 
 3991000   0.60939367   -9.0054734    493.04354  0.010294904 0.0087719617         3936 
 3992000   0.61086898   -9.0149361    492.83357  0.010287942 0.0087682248         3934 
 3993000   0.61196522   -9.0292174    492.98758   0.01028858 0.0087644913         3933 
 3994000   0.61858829   -9.0206208    492.81179  0.010282336 0.0087607617         3926 
 3995000   0.61307196   -9.0403872    493.16261   0.01028708 0.0087570335         3935 
 3996000   0.61440783   -9.0134594    494.33481  0.010308951 0.0087533062         3936 
 3997000   0.61627883   -9.0201016    493.39169  0.010286709 0.0087495839         3921 
 3998000   0.61455183   -9.0373632    493.76979  0.010292017 0.0087458586         3945 
 3999000   0.62339498   -9.0109486    492.76806  0.010268568 0.0087421385         3934 
 4000000    0.6100837   -9.0138509    493.95248  0.010290677 0.0087384193         3939 
 4001000   0.59675232   -9.0319834    492.79269  0.010263948 0.0087347006         3930 
 4002000   0.61775638   -9.0110077    493.47085  0.010275505 0.0087309856         3926 
 4003000   0.60905065   -8.9933938    493.17084  0.010266692 0.0087272739         3918 
 4004000   0.61177154   -9.0362176    492.61647  0.010252591 0.0087235662         3933 
 4005000    0.6188987   -9.0153412    492.97047  0.010257396 0.0087198569         3925 
 4006000   0.60539814   -9.0095963    493.61026  0.010268145 0.0087161532         3930 
 4007000   0.60382479   -9.0014236    493.16873    0.0102564 0.0087124464         3924 
 4008000   0.62298328   -9.0416756    493.81879  0.010267357 0.0087087423         3930 
 4009000   0.60976326   -9.0199503    493.50052   0.01025818  0.008705045         3952 
 4010000    0.6054471   -9.0233601    493.36249  0.010252753 0.0087013462         3935 
 4011000   0.60506158   -9.0219774    492.78462  0.010238191 0.0086976506         3917 
 4012000   0.61346246   -9.0204964    493.63712  0.010253347 0.0086939583         3943 
 4013000   0.61727441   -9.0058683    493.62963  0.010250636 0.0086902703         3930 
 4014000   0.61635821   -9.0265592    493.61126  0.010247701 0.0086865809         3942 
 4015000   0.59929418   -9.0235996     493.4825  0.010242476 0.0086828927         3935 
 4016000    0.5994869   -9.0264876    492.99397  0.010229789 0.0086792073         3924 
 4017000   0.61060783   -9.0055888    493.42101  0.010236101 0.0086755217         3909 
 4018000   0.61897156    -9.033174    492.88272  0.010222389 0.0086718402         3944 
 4019000   0.61150441   -9.0247954    493.19062   0.01022623  0.008668159         3934 
 4020000   0.60386854    -9.024826    492.60469   0.01021154 0.0086644833         3920 
 4021000   0.59727253   -9.0238208    492.71767  0.010211342   0.00866081         3932 
 4022000   0.61814142   -9.0269812    493.92564  0.010233831 0.0086571377         3925 
 4023000   0.60203266   -9.0253205    492.79224   0.01020781 0.0086534674         3931 
 4024000   0.61772007   -9.0404978    492.34205   0.01019595  0.008649798         3916 
 4025000   0.60343715   -9.0252559    493.27315  0.010212695 0.0086461314         3934 
 4026000   0.60228002   -9.0216854    493.68032  0.010218586 0.0086424707         3913 
 4027000   0.60730204    -9.001216    493.96639  0.010221968 0.0086388095         3933 
 4028000   0.60559246   -9.0265448    492.95871  0.010198583  0.008635149         3940 
 4029000   0.60397744   -9.0425067    492.39343   0.01018436 0.0086314889         3928 
 4030000   0.61506374   -9.0403823    493.39383  0.010202519 0.0086278288         3924 
 4031000   0.60257357   -9.0271432    493.53043  0.010202812 0.0086241745         3932 
 4032000   0.60709968   -9.0180741    492.60558  0.010181167 0.0086205212         3899 
 4033000   0.62598285   -9.0243814    493.78696  0.010203053 0.0086168722         3921 
 4034000   0.61029153   -9.0225409    492.84086   0.01018098 0.0086132239         3925 
 4035000    0.6053224   -9.0331606    492.90004  0.010179679 0.0086095819         3916 
 4036000    0.5964763   -9.0445042    492.66097   0.01017222 0.0086059372         3936 
 4037000   0.60975816   -9.0404047    493.12626  0.010179305 0.0086022935         3913 
 4038000   0.60668732   -9.0074738    493.48576  0.010184203 0.0085986509         3919 
 4039000   0.61023591   -9.0282263    492.59371  0.010163277 0.0085950121         3922 
 4040000   0.59763734   -9.0219296    493.68104   0.01018319 0.0085913776         3917 
 4041000   0.61729095   -9.0264658    493.84581  0.010184068 0.0085877415         3938 
 4042000   0.60507666   -9.0329548    493.49941  0.010174406 0.0085841057         3908 
 4043000   0.60880212   -9.0537862    492.86262  0.010158765 0.0085804741         3912 
 4044000   0.61610183   -9.0349085    492.65072  0.010151886 0.0085768436         3942 
 4045000   0.60128663   -9.0140645     493.5963  0.010168857 0.0085732147         3928 
 4046000   0.60834788   -9.0322462    493.55196   0.01016543  0.008569589         3949 
 4047000   0.60503159     -9.03216    494.01723  0.010172499 0.0085659648         3936 
 4048000   0.60300132   -9.0323554    493.58836  0.010161157 0.0085623408         3913 
 4049000   0.61488548   -9.0316154    492.95418  0.010145595 0.0085587213         3934 
 4050000   0.59770319   -9.0066308    493.29942  0.010150194 0.0085551044         3928 
 4051000   0.60229926   -9.0330338     492.8224  0.010137875 0.0085514918         3918 
 4052000   0.60374583   -9.0340855    492.41176  0.010126928  0.008547882         3923 
 4053000   0.60758351   -9.0466739    492.26888  0.010121492 0.0085442747         3936 
 4054000   0.59787608   -9.0330278    492.60407  0.010125885 0.0085406654         3929 
 4055000   0.59125008   -9.0211997    493.46347   0.01014105 0.0085370625         3925 
 4056000   0.59306427   -9.0276489     493.3081  0.010135357 0.0085334599         3926 
 4057000   0.60842628   -9.0150439    492.61676  0.010118658 0.0085298579         3923 
 4058000   0.60664673    -9.039228    492.58135  0.010115438 0.0085262592         3918 
 4059000   0.61121551   -9.0146932    492.73172  0.010116033 0.0085226622         3928 
 4060000   0.60087904    -9.019893    493.81519   0.01013578 0.0085190674         3932 
 4061000    0.5885577   -9.0467122    493.51904  0.010127207 0.0085154731         3936 
 4062000   0.59780409    -9.039981    493.21068  0.010118387 0.0085118803         3923 
 4063000   0.58596294   -9.0334581    493.07961  0.010113209 0.0085082875         3930 
 4064000   0.59860095   -9.0374571    493.53588  0.010120076 0.0085046977         3930 
 4065000   0.60295589   -9.0419411    493.22126  0.010111137 0.0085011107         3923 
 4066000   0.59219105   -9.0312412    493.66837  0.010117814 0.0084975278         3949 
 4067000   0.58761344   -9.0450912    493.51315  0.010112146 0.0084939438         3921 
 4068000   0.60981617   -9.0152804    492.81062  0.010095268 0.0084903648         3930 
 4069000   0.59908747   -9.0369907    493.71573  0.010111324 0.0084867856         3941 
 4070000   0.60802503     -9.03951    492.51889  0.010084334 0.0084832101         3932 
 4071000   0.60931726   -9.0414192    492.69827  0.010085529 0.0084796333         3927 
 4072000   0.60720789   -9.0354481    492.80762   0.01008529 0.0084760583         3935 
 4073000   0.59745339   -9.0342215    492.37285  0.010073919   0.00847249         3933 
 4074000   0.60260328   -9.0439627     492.3866  0.010071727 0.0084689229         3919 
 4075000   0.59760627   -9.0301682    492.19758   0.01006539 0.0084653557         3924 
 4076000   0.60434068   -9.0243605    492.95487  0.010078403 0.0084617904         3913 
 4077000   0.59437817   -9.0086675    492.68181   0.01007035 0.0084582296         3937 
 4078000   0.60083251   -9.0450813    492.81125  0.010070526 0.0084546694         3935 
 4079000   0.60678689   -9.0511778    492.69965  0.010065777 0.0084511141         3915 
 4080000    0.6033972   -9.0244172    492.86677  0.010066723 0.0084475572         3914 
 4081000   0.59779277   -9.0455565    493.31042  0.010073316  0.008444004         3923 
 4082000   0.59854789   -9.0225674    492.82221  0.010060881 0.0084404508         3913 
 4083000    0.5924726   -9.0370077    493.47272  0.010071694 0.0084368996         3942 
 4084000   0.59966844   -9.0273508    492.24659  0.010044209 0.0084333544         3919 
 4085000   0.59546068    -9.042549    493.19048  0.010061005 0.0084298097         3925 
 4086000   0.59851968   -9.0313706    493.08593  0.010056411 0.0084262673         3920 
 4087000   0.59325011   -9.0361437    493.47426  0.010061868 0.0084227234         3942 
 4088000   0.59173396   -9.0482121    492.81563  0.010045981 0.0084191805         3925 
 4089000   0.60644155    -9.047286    492.67616  0.010040682 0.0084156429         3946 
 4090000   0.59464943   -9.0459389    492.36632  0.010031914 0.0084121088         3926 
 4091000   0.59347692   -9.0487184    493.05257   0.01004344 0.0084085783         3929 
 4092000   0.60705622   -9.0203807     492.6892  0.010033586 0.0084050453         3924 
 4093000   0.59872224    -9.043509     492.3556  0.010024342 0.0084015168         3915 
 4094000   0.58620549   -9.0438426    493.20404  0.010039164 0.0083979869         3926 
 4095000   0.60116715   -9.0415611     492.9427  0.010031394 0.0083944614         3931 
 4096000   0.59240644   -9.0188872    492.76407  0.010025311 0.0083909369         3914 
 4097000   0.59884702   -9.0314219    492.76004  0.010022782  0.008387413         3933 
 4098000   0.60385684   -9.0481741    492.92172  0.010023624 0.0083838933         3929 
 4099000   0.58622475   -9.0541508    492.77281  0.010018151 0.0083803754         3929 
 4100000   0.60013613   -9.0532521    493.51009  0.010030693 0.0083768569         3908 
 4101000   0.59595035   -9.0560619    492.72866  0.010012368 0.0083733402         3922 
 4102000   0.59894436    -9.052489    493.35588  0.010022669  0.008369826         3935 
 4103000   0.60252352   -9.0626527    492.03447 0.0099933885 0.0083663126         3943 
 4104000   0.58267658   -9.0326773    492.81013  0.010006703 0.0083628059         3930 
 4105000   0.59299501   -9.0454926    492.88396  0.010005764 0.0083592978         3913 
 4106000   0.59547158   -9.0411356    492.46414 0.0099948073 0.0083557904         3912 
 4107000   0.59434426    -9.070521    492.69097 0.0099969761 0.0083522873         3924 
 4108000   0.58731318   -9.0369334    493.54884  0.010011945  0.008348784         3917 
 4109000   0.59618143   -9.0384699    492.97893 0.0099979503 0.0083452817         3942 
 4110000   0.59806954   -9.0318866    492.26331 0.0099810079 0.0083417828         3912 
 4111000   0.60984787   -9.0471928    492.91808 0.0099918528 0.0083382862         3945 
 4112000   0.59547102   -9.0344927    492.72146 0.0099854381 0.0083347949         3922 
 4113000   0.58584413   -9.0435599    492.30251  0.009974522 0.0083313038         3925 
 4114000   0.60002933   -9.0469992    492.27467 0.0099715335 0.0083278151         3930 
 4115000   0.59854411   -9.0343075    492.31255 0.0099698774 0.0083243259         3927 
 4116000    0.5758237   -9.0679972    492.26333 0.0099664588 0.0083208399         3936 
 4117000   0.57822909    -9.035363    492.34806  0.009965753 0.0083173566         3941 
 4118000   0.60560463   -9.0533369    492.60848  0.009968603 0.0083138761         3941 
 4119000   0.59301227   -9.0637942      492.601 0.0099660313 0.0083103972         3908 
 4120000   0.59070371   -9.0456886     492.8125 0.0099678904 0.0083069227         3949 
 4121000   0.58657758   -9.0442177    493.81875 0.0099858196 0.0083034441         3920 
 4122000   0.61604479   -9.0629135    492.57928  0.009958339  0.008299972         3933 
 4123000   0.60569933   -9.0511222    492.16011 0.0099474514 0.0082965016         3929 
 4124000   0.58425523   -9.0556457    492.49194 0.0099517447 0.0082930343         3942 
 4125000    0.6055536   -9.0487413    492.05102 0.0099404246 0.0082895657         3944 
 4126000    0.5978966   -9.0457659    492.72575  0.009951643 0.0082860988         3928 
 4127000   0.58836564   -9.0483097    492.00075 0.0099345924 0.0082826339         3927 
 4128000   0.58279018   -9.0512829    491.66726 0.0099254535 0.0082791709         3937 
 4129000   0.60204658   -9.0695677    492.12776 0.0099323435 0.0082757111         3930 
 4130000   0.58444388   -9.0504917    493.50113   0.00995765 0.0082722539         3925 
 4131000   0.58817866   -9.0440833    492.81064 0.0099413105 0.0082687977         3920 
 4132000   0.58636843   -9.0463393    494.08846 0.0099646754  0.008265345         3934 
 4133000   0.58600984   -9.0592651    492.30297 0.0099262636 0.0082618959         3913 
 4134000   0.57520249   -9.0609969    492.14442 0.0099206665 0.0082584446         3925 
 4135000   0.58204724   -9.0542457    492.26131 0.0099206228 0.0082549952         3908 
 4136000   0.58477377   -9.0439368    492.51805 0.0099233972 0.0082515487         3935 
 4137000    0.5839359   -9.0500675    492.99382 0.0099305821 0.0082481051         3940 
 4138000   0.58619352   -9.0646233    492.24038 0.0099130091  0.008244661         3930 
 4139000   0.59594711   -9.0597588    492.03056 0.0099063896 0.0082412211         3927 
 4140000   0.57562472   -9.0247091     492.3183 0.0099097886 0.0082377793         3936 
 4141000   0.58587342   -9.0668105    493.03233 0.0099217647 0.0082343444         3932 
 4142000    0.5783256   -9.0773811    492.17645 0.0099021498 0.0082309077         3912 
 4143000   0.59615282   -9.0725347    492.22448 0.0099007257 0.0082274735         3933 
 4144000   0.59820411   -9.0476728    491.95023 0.0098928215 0.0082240428         3922 
 4145000    0.5893109   -9.0535107    492.52621 0.0099020147 0.0082206088         3925 
 4146000   0.58472476   -9.0720994    492.66267 0.0099023692 0.0082171806         3927 
 4147000   0.58362305   -9.0396763    492.19801 0.0098906441 0.0082137516         3927 
 4148000   0.59414637   -9.0440853    493.05009  0.009905378 0.0082103296         3928 
 4149000   0.57521536   -9.0579245    492.42592  0.009890454 0.0082069054         3933 
 4150000   0.58326656   -9.0498946    492.32002 0.0098859441 0.0082034849         3937 
 4151000   0.60967547   -9.0705421    493.05805 0.0098983788 0.0082000708         3922 
 4152000   0.57855462   -9.0452536    492.92057 0.0098932356 0.0081966537         3928 
 4153000   0.56916118   -9.0378915    492.40626 0.0098805333 0.0081932418         3934 
 4154000   0.59064524   -9.0528895    492.34327 0.0098768911 0.0081898328         3915 
 4155000   0.59631579   -9.0428478     493.0082 0.0098878499 0.0081864228         3929 
 4156000   0.59195702   -9.0493488    492.86433 0.0098825859 0.0081830152         3922 
 4157000   0.57880001   -9.0582055    493.06273 0.0098841859 0.0081796079         3907 
 4158000   0.58749216   -9.0615589     491.4762 0.0098500121 0.0081762008         3914 
 4159000   0.58180048   -9.0570647    491.55432 0.0098492089  0.008172798         3943 
 4160000   0.58984098    -9.041781    492.60395 0.0098678676 0.0081694005         3927 
 4161000   0.59404536   -9.0592341    492.64725 0.0098663632 0.0081660008         3927 
 4162000   0.58268116   -9.0683338    491.79091 0.0098468467  0.008162604         3930 
 4163000   0.58493573   -9.0582011    491.94828 0.0098476316 0.0081592096         3915 
 4164000   0.58541472   -9.0601596    491.38126 0.0098339189 0.0081558169         3922 
 4165000   0.57500042   -9.0591833    491.97912 0.0098435197 0.0081524225         3941 
 4166000   0.57804101   -9.0687879    492.51462 0.0098518686 0.0081490318         3923 
 4167000   0.57463598   -9.0601471    492.00409 0.0098392946 0.0081456428         3931 
 4168000   0.58392678   -9.0627515    492.86304 0.0098541076 0.0081422575         3931 
 4169000   0.59472366   -9.0816069     492.0667 0.0098358259 0.0081388758         3928 
 4170000   0.59988194   -9.0567978     492.2197 0.0098365249 0.0081354948         3927 
 4171000   0.58254254    -9.044487    492.86084  0.009846976 0.0081321141         3913 
 4172000   0.58466052   -9.0519152    492.04097 0.0098282392 0.0081287366         3924 
 4173000   0.57724968   -9.0650728    492.85433 0.0098421265 0.0081253607         3943 
 4174000   0.58639233   -9.0437129      492.297 0.0098286415 0.0081219885         3931 
 4175000   0.58931211   -9.0605687     492.3176 0.0098266987 0.0081186145         3913 
 4176000   0.60368523   -9.0704214    492.59261 0.0098298333 0.0081152426         3937 
 4177000   0.58840951   -9.0547444    492.25133 0.0098206713 0.0081118735         3932 
 4178000   0.57305351   -9.0509031    492.99466  0.009833147 0.0081085053         3923 
 4179000   0.58669978   -9.0831129     492.1899 0.0098147464 0.0081051425         3923 
 4180000   0.59068057   -9.0617671    492.40347 0.0098166561 0.0081017805         3906 
 4181000   0.57405208   -9.0610762    492.67046 0.0098196297 0.0080984197         3936 
 4182000   0.58130249   -9.0764802    492.67749 0.0098174218 0.0080950589         3928 
 4183000   0.58574915   -9.0593004    492.21086 0.0098057786 0.0080917019         3927 
 4184000   0.57550951   -9.0456379    491.43401 0.0097879623 0.0080883458         3920 
 4185000   0.57729735   -9.0735667     491.3863 0.0097846733 0.0080849912         3934 
 4186000   0.58612749   -9.0567967    492.15506 0.0097976401 0.0080816387         3919 
 4187000   0.57417373   -9.0762787    491.12511 0.0097748013 0.0080782874         3931 
 4188000   0.57638498   -9.0602919    491.92255 0.0097883346 0.0080749369         3921 
 4189000   0.58788884   -9.0565828    492.33272 0.0097941577 0.0080715915         3940 
 4190000   0.58665887   -9.0693182    491.58564 0.0097769619  0.008068244         3934 
 4191000   0.59129181   -9.0666551    493.39011 0.0098105089 0.0080649031         3927 
 4192000   0.57349158   -9.0541767    492.42723 0.0097890274 0.0080615628         3940 
 4193000   0.59385672   -9.0544539    492.39506 0.0097860533 0.0080582236         3931 
 4194000   0.58696415   -9.0725716     492.0945 0.0097777479 0.0080548867         3915 
 4195000   0.58215954   -9.0676214    491.94641 0.0097724754 0.0080515554         3929 
 4196000   0.58512618   -9.0704382    492.30729 0.0097773135 0.0080482234         3933 
 4197000   0.56907797    -9.070534    491.11104 0.0097512318 0.0080448927         3923 
 4198000   0.57695267   -9.0563628    492.00332 0.0097666214 0.0080415612         3925 
 4199000   0.57656575   -9.0655462    491.57855 0.0097558655 0.0080382357         3931 
 4200000   0.57072227   -9.0784507    492.54724 0.0097727627 0.0080349123         3929 
 4201000   0.57220655   -9.0623556    491.36915 0.0097470672 0.0080315883         3936 
 4202000    0.5808817   -9.0790514    491.03588 0.0097381382 0.0080282637         3941 
 4203000   0.58587867   -9.0846717    491.61743 0.0097473516 0.0080249424         3944 
 4204000   0.58015992   -9.0751981     491.7112 0.0097468919 0.0080216225         3924 
 4205000   0.59599157   -9.0491431    492.10748 0.0097524273 0.0080183079         3936 
 4206000    0.5802429   -9.0866264    492.15507 0.0097510515 0.0080149928         3928 
 4207000   0.58511914   -9.0812389    491.92632 0.0097442026 0.0080116811         3935 
 4208000   0.57822276   -9.0734281    491.43887 0.0097322337 0.0080083696         3921 
 4209000   0.57859178   -9.0536926    492.07684 0.0097425525 0.0080050578         3946 
 4210000    0.5754311    -9.072818    491.75338 0.0097338358 0.0080017474         3936 
 4211000   0.58606475   -9.0792834    491.64951 0.0097294687 0.0079984436         3946 
 4212000   0.58084735   -9.0682874    491.28177 0.0097198831 0.0079951387         3935 
 4213000   0.58648143   -9.0771874    492.44182 0.0097405217 0.0079918351         3937 
 4214000   0.56834996   -9.0662754    492.33547 0.0097361072 0.0079885335         3950 
 4215000   0.56510964   -9.0593789    492.79148 0.0097428129 0.0079852326         3937 
 4216000   0.59620547   -9.0736092    492.32848 0.0097313504 0.0079819369         3934 
 4217000   0.59258257   -9.0668936    492.46885 0.0097318167 0.0079786453         3932 
 4218000   0.58077266   -9.0763911    491.38302 0.0097080572 0.0079753502         3931 
 4219000   0.55934926   -9.0701197    491.53875 0.0097088321 0.0079720602         3931 
 4220000   0.56207842   -9.0811821    492.02335  0.009716101 0.0079687687         3945 
 4221000   0.56927352   -9.0720005    491.35768  0.009700657 0.0079654815         3940 
 4222000   0.57334264   -9.0660809    491.97749 0.0097105931 0.0079621979         3935 
 4223000   0.57942545   -9.0831451    491.83566 0.0097054949 0.0079589137         3931 
 4224000   0.57070477    -9.094169    492.14522 0.0097093044 0.0079556321         3916 
 4225000   0.56051166   -9.0796386    492.44657 0.0097129502 0.0079523494         3937 
 4226000   0.56582446   -9.0583019    491.41963 0.0096904012 0.0079490701         3929 
 4227000   0.56653505   -9.0734171    492.39785  0.009707394 0.0079457928         3921 
 4228000   0.57719882   -9.0768573    492.56045 0.0097083029 0.0079425156         3938 
 4229000   0.57656578   -9.0764458    492.09855 0.0096969052 0.0079392416         3933 
 4230000    0.5894365   -9.0816387    492.23064 0.0096972151 0.0079359704         3928 
 4231000   0.56634144   -9.0604698    492.44433  0.009699132 0.0079327013         3932 
 4232000   0.57620923   -9.0696324    491.77572 0.0096836743 0.0079294344         3932 
 4233000   0.57130349   -9.0728245     492.0899 0.0096875718 0.0079261696         3933 
 4234000   0.57966856   -9.0838737     492.4777 0.0096929164 0.0079229034         3940 
 4235000   0.57976255   -9.0810358    491.47856 0.0096709673 0.0079196417         3931 
 4236000   0.58085702   -9.0768936    491.61877 0.0096714427 0.0079163817         3922 
 4237000   0.57861796     -9.07646    491.51994 0.0096672162 0.0079131238         3935 
 4238000    0.5774343   -9.0517912    492.97444 0.0096935355 0.0079098659         3940 
 4239000   0.55899036   -9.0938893    491.84379 0.0096690217 0.0079066139         3900 
 4240000   0.57091785   -9.0769376    492.18111 0.0096733709 0.0079033591         3938 
 4241000   0.57817837   -9.0846123     491.6839   0.00966132 0.0079001064         3925 
 4242000   0.57827718   -9.0936975     490.9706 0.0096450299 0.0078968568         3929 
 4243000   0.57223899   -9.0825872    490.57096 0.0096349076 0.0078936066         3929 
 4244000    0.5813992   -9.0799279      492.146 0.0096635642 0.0078903586         3921 
 4245000    0.5673565   -9.0836491    492.22439 0.0096628267 0.0078871128         3927 
 4246000   0.57815329   -9.0674637    492.46101 0.0096651949 0.0078838677         3933 
 4247000   0.56914448   -9.0919857    491.96544 0.0096531952 0.0078806266         3927 
 4248000   0.57565521   -9.0812599     492.2509 0.0096565226 0.0078773862         3932 
 4249000   0.58109163    -9.076143     491.9299 0.0096479544 0.0078741497         3930 
 4250000    0.5865263    -9.085669    491.38104 0.0096349224  0.007870912         3933 
 4251000   0.57843021   -9.0842566    491.40086 0.0096330443 0.0078676766         3950 
 4252000   0.57435942   -9.0732913    492.36693 0.0096497125 0.0078644442         3940 
 4253000   0.57140612   -9.0697817    491.06076 0.0096218505 0.0078612137         3937 
 4254000   0.56409641   -9.0782647    491.96433  0.009637289 0.0078579842         3924 
 4255000   0.57971305   -9.0725064    491.88784  0.009633526 0.0078547573         3947 
 4256000   0.57385953    -9.076666     492.0088  0.009633631  0.007851532         3934 
 4257000   0.56465283   -9.0903599    490.33103 0.0095985246 0.0078483058         3924 
 4258000   0.56824904   -9.0908551    491.22992 0.0096138626 0.0078450808         3926 
 4259000   0.57039687   -9.0784952    491.95555 0.0096258033 0.0078418604         3920 
 4260000   0.57798024   -9.0782584    491.75727 0.0096196649 0.0078386424         3931 
 4261000   0.58746228   -9.0949037    491.74934 0.0096172522 0.0078354243         3930 
 4262000   0.56338335   -9.0768816    492.26947 0.0096251657 0.0078322097         3928 
 4263000   0.57441203   -9.0797641     491.8996 0.0096156775 0.0078289988         3912 
 4264000   0.57533913   -9.0809765    491.92904 0.0096139978 0.0078257872         3936 
 4265000   0.56925257   -9.0818035    492.17365  0.009616523 0.0078225753         3930 
 4266000   0.57090095     -9.08823    491.43641 0.0095998674  0.007819367         3939 
 4267000   0.57734963   -9.0955571    492.00282 0.0096086793 0.0078161615         3936 
 4268000   0.55003673   -9.0935609    491.11515 0.0095890963 0.0078129576         3897 
 4269000   0.57118359   -9.0690192    491.61592 0.0095966253 0.0078097549         3936 
 4270000   0.56888768   -9.0782698    491.99538 0.0096017834 0.0078065542         3940 
 4271000    0.5735426   -9.0937834    491.55407 0.0095909247 0.0078033578         3944 
 4272000   0.56635295   -9.0859927    491.78195 0.0095931248 0.0078001589         3946 
 4273000   0.56994489   -9.0782712    491.19218 0.0095793778 0.0077969667         3930 
 4274000   0.56062371   -9.0819296    491.95618 0.0095920329 0.0077937742         3921 
 4275000    0.5608154   -9.0833785    491.38198 0.0095785962 0.0077905832         3939 
 4276000   0.55371368   -9.1003303     491.8457 0.0095853934 0.0077873943         3943 
 4277000   0.56626429   -9.0984637    491.41705 0.0095748002 0.0077842068         3929 
 4278000   0.59126856    -9.081262     491.9408 0.0095827646 0.0077810222         3934 
 4279000   0.57538719   -9.0908952    491.84558 0.0095786707 0.0077778396         3942 
 4280000   0.57794876   -9.0860175     491.0732  0.009561394 0.0077746571         3938 
 4281000   0.57651589   -9.0939737    491.44501 0.0095663983 0.0077714773         3912 
 4282000   0.57425562   -9.0697402    491.43467  0.009563963 0.0077682997         3929 
 4283000   0.55778316   -9.0967734    492.15313 0.0095757088 0.0077651213         3934 
 4284000   0.56876346   -9.0935818    491.19297 0.0095547962 0.0077619439         3940 
 4285000   0.55996909   -9.0756361    491.79835 0.0095643398 0.0077587704         3941 
 4286000   0.56287769   -9.1017096    491.24623 0.0095513732 0.0077556001         3928 
 4287000    0.5775791   -9.0902252     491.9173   0.00956219 0.0077524311         3939 
 4288000   0.56356034   -9.0810517    491.40441 0.0095499923 0.0077492662         3936 
 4289000   0.54499197   -9.0860837    491.55319 0.0095506566 0.0077460983         3931 
 4290000   0.56838354   -9.1012121    491.38604 0.0095451835  0.007742932         3934 
 4291000   0.56155223   -9.0941392     490.9283 0.0095340693 0.0077397694         3927 
 4292000   0.56229899   -9.0905366    492.86233  0.009569399 0.0077366071         3923 
 4293000   0.56711206   -9.0754347    491.35027 0.0095378187 0.0077334473         3941 
 4294000   0.57673779   -9.0865766    492.35265 0.0095550506 0.0077302898         3938 
 4295000   0.55281498   -9.1115406    491.41354 0.0095346049  0.007727134         3935 
 4296000   0.57152808   -9.0883233    492.21276 0.0095478888 0.0077239802         3944 
 4297000   0.55440241   -9.0850675    492.11527 0.0095437761  0.007720827         3922 
 4298000   0.56057623   -9.0929883    491.46346 0.0095289177 0.0077176762         3921 
 4299000   0.55653878   -9.0955484    490.74611 0.0095127959 0.0077145269         3927 
 4300000   0.56544815   -9.1022509    491.42388 0.0095237185 0.0077113784         3922 
 4301000   0.57936894   -9.1064899    491.27474 0.0095186147 0.0077082298         3925 
 4302000   0.54302118   -9.0743259    492.27506 0.0095357791 0.0077050861         3931 
 4303000   0.55871945   -9.1118759      491.305 0.0095147764 0.0077019429         3942 
 4304000   0.54978507   -9.1007067    491.17035 0.0095099588 0.0076987997         3941 
 4305000   0.54773154   -9.0977063    491.24555 0.0095092054 0.0076956597         3931 
 4306000   0.56647534   -9.1019846    491.64494 0.0095147264 0.0076925238         3932 
 4307000   0.57230455   -9.0912575    490.98974 0.0094998402 0.0076893888         3923 
 4308000   0.56761072   -9.0979707    491.27553 0.0095031632 0.0076862552         3951 
 4309000   0.56903094   -9.0857893    491.17078  0.009498932 0.0076831277         3922 
 4310000   0.54637915   -9.1033559    491.61735 0.0095053625 0.0076799972         3939 
 4311000   0.55013688   -9.0929379    492.19374 0.0095142994 0.0076768674         3945 
 4312000   0.56467186   -9.1004169    491.03575 0.0094897138 0.0076737418         3933 
 4313000    0.5715989   -9.0880606     490.9467  0.009485793 0.0076706192         3935 
 4314000   0.56101174   -9.1127429    490.98337 0.0094843025 0.0076674929         3932 
 4315000   0.55924808   -9.0909516    491.63322 0.0094946546  0.007664371         3945 
 4316000   0.56718633   -9.0826932    491.65341 0.0094928447 0.0076612512         3936 
 4317000    0.5646909    -9.111945     492.1421 0.0095000792 0.0076581338         3934 
 4318000   0.55172064   -9.1074215     491.4727 0.0094849602 0.0076550177         3933 
 4319000   0.56381379   -9.0947088    491.76617 0.0094884266 0.0076519024         3921 
 4320000   0.56873005   -9.0982367       492.18 0.0094942129   0.00764879         3939 
 4321000   0.56806617     -9.08013    491.52673  0.009479417  0.007645678         3939 
 4322000   0.55827588   -9.0944366    491.57035 0.0094780647 0.0076425704         3929 
 4323000   0.56082288   -9.0989557    492.34208 0.0094907487 0.0076394629         3951 
 4324000   0.55997441   -9.1053687    490.84741 0.0094597482  0.007636354         3942 
 4325000   0.56907396   -9.1090692    490.91698 0.0094589013 0.0076332494         3948 
 4326000   0.55712732   -9.1058675    491.45616 0.0094671013 0.0076301465         3917 
 4327000   0.55982184   -9.1119051    490.61483 0.0094487103 0.0076270432         3935 
 4328000   0.56366174   -9.1004441    492.11761 0.0094754623 0.0076239435         3919 
 4329000   0.55491728   -9.1122617    491.57073 0.0094627461 0.0076208457         3940 
 4330000   0.55233441   -9.0993986    491.69315 0.0094629167 0.0076177488         3922 
 4331000   0.55149183   -9.1051581    490.17615 0.0094315429 0.0076146533         3932 
 4332000    0.5526388   -9.1028586     490.8833 0.0094429691 0.0076115583         3941 
 4333000   0.56268812   -9.1077377    490.33252  0.009430197 0.0076084662         3932 
 4334000   0.56090018   -9.0902766    491.17975 0.0094443114 0.0076053776         3925 
 4335000   0.55093876   -9.0910638     491.9911 0.0094577298 0.0076022885         3932 
 4336000   0.56246482   -9.1141557    491.81405 0.0094521457    0.0075992         3915 
 4337000   0.55711271   -9.1222294    491.42637 0.0094425173 0.0075961142         3934 
 4338000   0.56885263   -9.1073114    491.02548 0.0094326394 0.0075930289         3949 
 4339000   0.56959701   -9.1069729    491.47546 0.0094391078 0.0075899473         3934 
 4340000   0.55478085   -9.1088931    490.76175 0.0094232287 0.0075868667         3942 
 4341000   0.55608806   -9.1175445     491.6116 0.0094373722 0.0075837865         3947 
 4342000   0.55683194   -9.1009428    491.42253 0.0094315701 0.0075807097         3939 
 4343000   0.55309282   -9.1010725    491.00904 0.0094214645 0.0075776319         3926 
 4344000   0.56230306   -9.1011115    491.03288  0.009419753  0.007574561         3927 
 4345000   0.55779003   -9.0988607    491.21506  0.009421079 0.0075714896         3940 
 4346000   0.55414595   -9.1004342    491.48515 0.0094240902 0.0075684208         3945 
 4347000   0.55247495   -9.1006484    491.84199 0.0094287629 0.0075653506         3945 
 4348000   0.56417343   -9.1033748    491.42179 0.0094185408 0.0075622826         3941 
 4349000    0.5524578   -9.0961851    491.12093 0.0094106102 0.0075592173         3939 
 4350000   0.55523257   -9.1053243    490.93982 0.0094049774 0.0075561569         3929 
 4351000   0.54675525   -9.0935609    491.25213 0.0094087973 0.0075530961         3944 
 4352000   0.54831234   -9.1083698    491.72037 0.0094156015 0.0075500375         3951 
 4353000   0.54789617   -9.0818176    491.67675 0.0094126035  0.007546982         3947 
 4354000    0.5593784   -9.1049907    491.62836 0.0094095155 0.0075439269         3945 
 4355000   0.56208324   -9.1144395    492.17384 0.0094177926  0.007540873         3939 
 4356000   0.55619161   -9.1052705    491.40276 0.0094008793 0.0075378214         3937 
 4357000   0.55848408   -9.0984992    491.44214 0.0093994748 0.0075347677         3944 
 4358000   0.56040266   -9.1122104    491.08505 0.0093904898 0.0075317173         3939 
 4359000   0.56307133   -9.1004819    491.04001 0.0093874745 0.0075286688         3934 
 4360000   0.55849608   -9.1229375    490.76301  0.009380027 0.0075256215         3946 
 4361000   0.55201421      -9.1092    490.77018 0.0093780131  0.007522576         3912 
 4362000   0.54151318   -9.0923932    491.16785 0.0093834603 0.0075195317         3936 
 4363000   0.56452483   -9.1072361    491.52878 0.0093882034 0.0075164883         3934 
 4364000   0.55397709   -9.0927228    491.84332 0.0093920585 0.0075134485         3938 
 4365000   0.54307599   -9.1030161    491.97448 0.0093924108  0.007510411         3937 
 4366000   0.56385122   -9.1262234    491.12029 0.0093739557 0.0075073715         3938 
 4367000    0.5519421   -9.1051243     491.6873 0.0093826293 0.0075043366         3934 
 4368000   0.55865432   -9.1194725    490.39365 0.0093558008 0.0075013064         3939 
 4369000   0.53201414    -9.106098    490.88037 0.0093629428 0.0074982743         3933 
 4370000   0.56084101   -9.1011254    491.29698 0.0093687449 0.0074952453         3923 
 4371000   0.54896164   -9.0978417    491.89131 0.0093779324 0.0074922178         3940 
 4372000   0.54615085   -9.1233992    490.29387 0.0093453391 0.0074891914         3958 
 4373000    0.5531756   -9.1009704    490.65493 0.0093500826 0.0074861683         3934 
 4374000    0.5466144   -9.0990134    491.14429 0.0093572682 0.0074831433         3935 
 4375000   0.55672891   -9.1062984    491.01223 0.0093526139 0.0074801248         3935 
 4376000   0.55245362    -9.109679    490.21373 0.0093352706 0.0074771056         3944 
 4377000   0.55745657   -9.1168746    491.57155 0.0093589892 0.0074740898         3941 
 4378000   0.56584181    -9.122101    491.39463  0.009353484 0.0074710741         3924 
 4379000   0.54848571   -9.1162899    490.61712 0.0093365518 0.0074680619         3948 
 4380000   0.55182676   -9.0916754    491.97658  0.009360285 0.0074650492         3922 
 4381000   0.53842584   -9.0981184    490.20278  0.009324408 0.0074620387         3943 
 4382000   0.55082983   -9.1063057    490.93902 0.0093362813 0.0074590296         3926 
 4383000   0.55725536    -9.108392    491.40081 0.0093429311 0.0074560212         3936 
 4384000   0.54381746    -9.109924    490.63246 0.0093261949 0.0074530133         3943 
 4385000   0.55033597   -9.1029258    490.18617 0.0093155867 0.0074500084         3929 
 4386000   0.54900493   -9.1093841    491.65278  0.009341328 0.0074470046         3950 
 4387000    0.5449499   -9.1140436    491.06127 0.0093279628 0.0074440047         3933 
 4388000   0.54998337   -9.1169341    491.54269 0.0093349798 0.0074410048         3931 
 4389000   0.54405482   -9.1087246    491.81162 0.0093379588 0.0074380064         3921 
 4390000   0.55456208   -9.1005174    490.96616 0.0093197829 0.0074350076         3942 
 4391000   0.54135784    -9.104794    491.01537 0.0093185943 0.0074320133         3946 
 4392000   0.54209349   -9.1170831    489.64279 0.0092904294 0.0074290191         3929 
 4393000   0.54921138   -9.1239965    490.83405 0.0093109123 0.0074260245         3945 
 4394000   0.55014121   -9.1051135    490.62617 0.0093048507 0.0074230343         3944 
 4395000   0.55652643   -9.1204683    491.89674 0.0093268247 0.0074200465         3932 
 4396000   0.53468611   -9.0947994    491.50396 0.0093172573 0.0074170579         3917 
 4397000   0.55139844   -9.1178811    491.31951 0.0093116425 0.0074140731         3936 
 4398000   0.54760991   -9.1117201    491.29369 0.0093090362 0.0074110906         3933 
 4399000   0.54607302   -9.0992069    490.39044  0.009289809 0.0074081068         3945 
 4400000   0.56228278    -9.119004    489.78443 0.0092762202  0.007405125         3944 
 4401000   0.54638381     -9.11916     491.3535 0.0093038231 0.0074021453         3924 
 4402000   0.53997531   -9.1229688    490.77525 0.0092907628 0.0073991714         3936 
 4403000   0.54719644    -9.109487    490.95024 0.0092919646 0.0073961958         3932 
 4404000   0.53814006   -9.1250886    491.01753 0.0092911279   0.00739322         3942 
 4405000   0.54567087   -9.1218405    491.05215 0.0092896736 0.0073902474         3931 
 4406000   0.55066202   -9.1159523    490.62536 0.0092794932 0.0073872766         3941 
 4407000   0.54535527   -9.1213148     490.8081 0.0092808429 0.0073843062         3941 
 4408000   0.53461847   -9.1153399    491.25035 0.0092870982 0.0073813399         3934 
 4409000   0.53993497   -9.1250659    491.15703 0.0092832281 0.0073783734         3933 
 4410000    0.5432572    -9.110639    491.07646 0.0092796005 0.0073754104         3950 
 4411000   0.55937382   -9.1297412    491.47404 0.0092850079 0.0073724438         3959 
 4412000   0.53900268   -9.1168255    491.48037  0.009283023  0.007369482         3952 
 4413000   0.55131273   -9.1108019    490.67809 0.0092657694 0.0073665209         3924 
 4414000   0.55330295   -9.1054216    490.94826 0.0092687709 0.0073635616         3922 
 4415000   0.55428113    -9.107349    490.04737 0.0092496672 0.0073606034         3933 
 4416000   0.55033025   -9.1283724    490.96353 0.0092648614 0.0073576483         3942 
 4417000   0.54612213   -9.1244159    491.10414 0.0092654165 0.0073546968         3942 
 4418000   0.54875082   -9.1190623    490.98819 0.0092611324 0.0073517458         3945 
 4419000   0.54502913    -9.122185    490.39114 0.0092477775 0.0073487957         3911 
 4420000   0.55143682   -9.1364151    490.54499 0.0092485858 0.0073458475         3933 
 4421000   0.54528434   -9.1004554    490.46939 0.0092450688    0.0073429         3941 
 4422000   0.55357189   -9.1309502    491.23751 0.0092574535 0.0073399551         3948 
 4423000   0.52911496   -9.1113381    490.92989 0.0092495646 0.0073370116         3938 
 4424000   0.53116834   -9.1153376    490.86983 0.0092463425 0.0073340693         3938 
 4425000   0.54976906   -9.1114651    490.59281  0.009239036 0.0073311289         3930 
 4426000   0.54215313    -9.116924    490.96844 0.0092440209  0.007328188         3943 
 4427000   0.55426861   -9.1069619    491.41155 0.0092502738   0.00732525         3940 
 4428000   0.54160497   -9.1320477     491.4659 0.0092492076 0.0073223155         3941 
 4429000   0.55333641   -9.1327553    491.37438 0.0092453973 0.0073193811         3946 
 4430000   0.52934086   -9.1440689    491.65238 0.0092485399 0.0073164461         3952 
 4431000   0.54763375   -9.1140508    491.69634 0.0092472794 0.0073135151         3946 
 4432000   0.53919117   -9.1150231    490.62326 0.0092250161 0.0073105861         3948 
 4433000   0.53734315   -9.1233552    491.75518 0.0092442134 0.0073076589         3948 
 4434000   0.53811094   -9.1183665    490.47859 0.0092181362 0.0073047317         3953 
 4435000   0.54321827   -9.1387296    490.34954 0.0092136328 0.0073018068         3951 
 4436000   0.54336869   -9.1166597    491.35604 0.0092304637 0.0072988852         3931 
 4437000   0.53535006    -9.115828    490.81659 0.0092182516 0.0072959621         3943 
 4438000   0.54579688   -9.1282846    491.19319 0.0092232461 0.0072930413         3933 
 4439000   0.53356664    -9.119046    490.81799 0.0092141245 0.0072901229         3957 
 4440000   0.54452822   -9.1263497    490.66235 0.0092091282 0.0072872057         3945 
 4441000   0.53929786   -9.1261627    491.41094 0.0092211014  0.007284292         3946 
 4442000   0.54819825   -9.1174008      491.416 0.0092191206 0.0072813792         3933 
 4443000   0.55477876    -9.131563    491.09448 0.0092110151 0.0072784687         3932 
 4444000   0.53604544   -9.1097236    490.96397  0.009206495 0.0072755569         3931 
 4445000   0.53819821    -9.127146    491.02728 0.0092056109 0.0072726454         3940 
 4446000   0.54321375   -9.1225983    490.28683 0.0091896616 0.0072697389         3930 
 4447000   0.53644841   -9.1296522    490.38559 0.0091894458 0.0072668328         3940 
 4448000   0.53888276   -9.1278237     491.2404 0.0092033947 0.0072639316         3935 
 4449000    0.5516684   -9.1216434    490.97381 0.0091963327 0.0072610306         3945 
 4450000    0.5439317   -9.1256413    491.37135 0.0092017107 0.0072581332         3954 
 4451000   0.54415795    -9.127212    490.72678 0.0091875755 0.0072552341         3939 
 4452000   0.53377614   -9.1235344    490.85731 0.0091879551 0.0072523367         3942 
 4453000   0.55729555   -9.1201713    490.41868 0.0091776833 0.0072494403         3938 
 4454000   0.53315623   -9.1219924     490.8765 0.0091841884 0.0072465453         3934 
 4455000   0.53166272    -9.112855    490.29506 0.0091712507 0.0072436539         3929 
 4456000   0.54494911   -9.1467296    490.84955 0.0091795622 0.0072407638         3941 
 4457000   0.54729731    -9.119833    491.01982 0.0091806862 0.0072378745         3930 
 4458000   0.54496043   -9.1461416    490.22047 0.0091636846 0.0072349862         3943 
 4459000    0.5448863   -9.1358751    490.43477 0.0091656345 0.0072320976         3941 
 4460000   0.54000305   -9.1279467    490.19091 0.0091590229 0.0072292101         3928 
 4461000   0.54002417    -9.147375    490.93972  0.009170958 0.0072263244         3939 
 4462000   0.52760027   -9.1330105    490.72414 0.0091648763 0.0072234406         3947 
 4463000   0.54938523   -9.1325834    490.08506 0.0091508899 0.0072205602         3944 
 4464000   0.54401181    -9.140092    490.98347 0.0091656115 0.0072176799         3937 
 4465000   0.54201711   -9.1432072     490.9165 0.0091623087 0.0072148013         3957 
 4466000   0.53357804   -9.1431629    490.49203 0.0091523368  0.007211925         3935 
 4467000    0.5222839     -9.13276    490.78891 0.0091558262 0.0072090502         3932 
 4468000    0.5300291    -9.133903    490.91018 0.0091560389 0.0072061758         3937 
 4469000   0.55091762   -9.1383084    491.02069 0.0091560507 0.0072033031         3947 
 4470000   0.52838136    -9.131754    490.94401  0.009152573 0.0072004337         3945 
 4471000    0.5511914   -9.1357214    490.25617 0.0091377054 0.0071975663         3932 
 4472000   0.53595466   -9.1267492    490.40598 0.0091384537 0.0071946996         3930 
 4473000   0.53958174   -9.1182305    491.06038 0.0091486023 0.0071918373         3948 
 4474000   0.53830666   -9.1260729    491.34661 0.0091518889 0.0071889753         3939 
 4475000   0.52983459   -9.1205491    490.89436 0.0091414219 0.0071861127         3934 
 4476000   0.53070604   -9.1218987     490.3709 0.0091296339 0.0071832498         3936 
 4477000   0.54257502   -9.1287069    490.33354 0.0091268992   0.00718039         3946 
 4478000   0.54403812   -9.1436621    491.08137  0.009138778 0.0071775327         3933 
 4479000   0.53601697   -9.1219094    491.02994 0.0091357807 0.0071746775         3938 
 4480000   0.53401294   -9.1409878    490.84382 0.0091302794 0.0071718236         3947 
 4481000   0.52763741   -9.1220172    491.38889 0.0091383785 0.0071689707         3944 
 4482000   0.52474455   -9.1505482    490.48855 0.0091195997 0.0071661179         3943 
 4483000   0.54426058   -9.1365998    491.08005 0.0091285607 0.0071632661         3941 
 4484000   0.53161281   -9.1198762    489.75631 0.0091019236 0.0071604155         3940 
 4485000   0.53774919   -9.1084986    490.82648 0.0091197784 0.0071575693         3914 
 4486000   0.54200087   -9.1304948    490.42762 0.0091103363 0.0071547249         3950 
 4487000   0.53560848   -9.1268621    489.76682 0.0090960334  0.007151881         3946 
 4488000    0.5313032   -9.1206174    490.44423 0.0091065848 0.0071490372         3934 
 4489000   0.52734197   -9.1353356    490.13099 0.0090987412 0.0071461958         3937 
 4490000    0.5278815   -9.1377288    490.97014 0.0091122892 0.0071433556         3946 
 4491000   0.52526348    -9.148295    490.15991 0.0090952259  0.007140516         3945 
 4492000   0.53290822   -9.1474413    490.97501 0.0091083225 0.0071376786         3940 
 4493000   0.52780475    -9.137779    490.17424 0.0090914429 0.0071348427         3944 
 4494000   0.53606887    -9.120531    490.63292 0.0090979254 0.0071320096         3931 
 4495000   0.53937714   -9.1371016    489.77873 0.0090800654 0.0071291751         3925 
 4496000   0.52755307   -9.1383231    489.73639 0.0090772611 0.0071263437         3941 
 4497000   0.54147153   -9.1511135    489.64294 0.0090735109 0.0071235132         3943 
 4498000   0.53649149   -9.1349601    490.44198 0.0090862973 0.0071206858         3926 
 4499000   0.53074987    -9.140641    490.50225 0.0090853939 0.0071178611         3931 
 4500000   0.53685927   -9.1372444    490.34837 0.0090805254 0.0071150341         3940 
 4501000    0.5169385   -9.1445862    490.10766 0.0090740513   0.00711221         3947 
 4502000   0.52308986   -9.1459451    490.63096 0.0090817222  0.007109388         3949 
 4503000   0.53286349   -9.1419907    490.33385 0.0090742071 0.0071065679         3943 
 4504000   0.54186763   -9.1442001    490.25402 0.0090707152 0.0071037498         3932 
 4505000   0.53605725   -9.1399961     489.5516 0.0090557086  0.007100932         3954 
 4506000   0.52927223    -9.143455    490.37271 0.0090688843  0.007098114         3936 
 4507000   0.52248055   -9.1276193    490.38021 0.0090670108  0.007095299         3943 
 4508000   0.51979639   -9.1391298    489.88712 0.0090558843 0.0070924865         3943 
 4509000   0.53376608   -9.1239236    491.51154 0.0090838977 0.0070896759         3930 
 4510000   0.52809837   -9.1496318    490.42705  0.009061845 0.0070868664         3947 
 4511000   0.52870601   -9.1170961    489.68877 0.0090461976 0.0070840588         3949 
 4512000   0.52966256    -9.129498    490.44602 0.0090581785 0.0070812516         3925 
 4513000   0.53524625   -9.1460065    490.34733 0.0090543491 0.0070784452         3947 
 4514000   0.53292816   -9.1481174    490.30354 0.0090515348 0.0070756407         3936 
 4515000   0.52132155   -9.1365411      489.845 0.0090410668 0.0070728384         3941 
 4516000   0.53463478   -9.1370789    490.26073 0.0090467362 0.0070700376         3963 
 4517000   0.52738594   -9.1486425    490.06129 0.0090410541 0.0070672371         3955 
 4518000   0.52608157   -9.1464776    491.14579 0.0090590561 0.0070644399         3941 
 4519000   0.52395028   -9.1505313     490.2691 0.0090408848 0.0070616438         3939 
 4520000   0.53641792   -9.1484578    490.91932 0.0090508724 0.0070588493         3937 
 4521000   0.52537023   -9.1793519    490.01705 0.0090322394 0.0070560547         3955 
 4522000   0.54463253   -9.1450631     489.8534 0.0090272261 0.0070532622         3938 
 4523000   0.53699706   -9.1354663    490.46748 0.0090365443 0.0070504712         3933 
 4524000   0.53297447   -9.1377081    490.94744 0.0090433878 0.0070476844         3951 
 4525000   0.53068784   -9.1470904    490.89753 0.0090404701 0.0070448963         3937 
 4526000   0.51350518   -9.1413353    490.02202 0.0090223528 0.0070421086         3929 
 4527000   0.51780623   -9.1496238    490.50274 0.0090292087 0.0070393239         3939 
 4528000   0.53325828   -9.1405306    490.53007 0.0090277178 0.0070365429         3940 
 4529000   0.53439285   -9.1481636    489.99799 0.0090159342   0.00703376         3947 
 4530000   0.51889097   -9.1585973    489.32172 0.0090015034 0.0070309773         3953 
 4531000    0.5254134   -9.1364696    490.66292 0.0090241837  0.007028198         3944 
 4532000   0.53022486   -9.1407439    490.65288  0.009022008 0.0070254216         3937 
 4533000   0.52014894   -9.1359636     489.7741 0.0090038624  0.007022645         3932 
 4534000   0.52579918   -9.1719197    489.28897   0.00899296 0.0070198708         3939 
 4535000      0.51702   -9.1574128    489.84219 0.0090011427 0.0070170964         3932 
 4536000   0.51214171   -9.1554986    490.11216 0.0090041181 0.0070143256         3952 
 4537000   0.52518359   -9.1543429    490.14945 0.0090028184 0.0070115551         3944 
 4538000   0.51599877   -9.1432086    490.14601 0.0090007715 0.0070087856         3932 
 4539000   0.51226432    -9.136071     490.0586 0.0089971837 0.0070060171         3946 
 4540000   0.51883244   -9.1558548    489.82851 0.0089909786 0.0070032506         3955 
 4541000    0.5300924   -9.1618339    490.36393 0.0089988243 0.0070004863         3940 
 4542000   0.52076459   -9.1526822    491.06729 0.0090097478 0.0069977251         3943 
 4543000   0.52026374   -9.1655963    490.09295 0.0089898919 0.0069949631         3930 
 4544000   0.52144147   -9.1516222    489.82029 0.0089829132 0.0069922032         3925 
 4545000   0.52579584    -9.154333     489.9479 0.0089832764 0.0069894442         3949 
 4546000   0.52532387   -9.1397855    489.89611  0.008980351 0.0069866874         3922 
 4547000   0.52960427   -9.1333284    490.76194 0.0089942442 0.0069839337         3938 
 4548000    0.5219576   -9.1668956    489.92689 0.0089769659   0.00698118         3946 
 4549000   0.52802009   -9.1226107    490.54887 0.0089863866 0.0069784273         3939 
 4550000   0.51922965   -9.1316606    489.85272 0.0089716615 0.0069756772         3955 
 4551000   0.53452116   -9.1512452    489.93967 0.0089712823 0.0069729281         3936 
 4552000    0.5181994   -9.1494361    490.21517  0.008974355 0.0069701798         3946 
 4553000   0.52507659   -9.1375897    490.16981 0.0089715538 0.0069674327         3945 
 4554000   0.52556937   -9.1426173    490.07733 0.0089678915 0.0069646875         3950 
 4555000   0.51894059   -9.1623472    490.00527 0.0089646042 0.0069619442         3955 
 4556000   0.51637956   -9.1493978    489.15745 0.0089471292 0.0069592018         3932 
 4557000   0.52916979   -9.1564183    490.29981  0.008966056 0.0069564626         3949 
 4558000   0.52414933   -9.1593652    490.64312 0.0089703656 0.0069537241         3939 
 4559000   0.51935941   -9.1560054    489.98115  0.008956298 0.0069509853         3945 
 4560000   0.52475759   -9.1353711    489.77249 0.0089505206 0.0069482497         3941 
 4561000   0.52911071   -9.1551799    489.43405 0.0089423747 0.0069455159         3951 
 4562000   0.52263737     -9.15581    489.78421 0.0089468108 0.0069427837         3946 
 4563000   0.52299754   -9.1540354    490.24569  0.008953278 0.0069400532         3951 
 4564000   0.51884098   -9.1543996     489.5232 0.0089381244 0.0069373221         3944 
 4565000   0.52084203   -9.1559987    490.00519 0.0089449651 0.0069345946         3943 
 4566000   0.52051161   -9.1553826    490.50066 0.0089520488 0.0069318679         3949 
 4567000   0.52262574   -9.1523991    489.05313 0.0089236758 0.0069291417         3947 
 4568000   0.52602387   -9.1637963    490.05029 0.0089399133 0.0069264188         3941 
 4569000   0.51796201   -9.1589609    489.87029 0.0089346737 0.0069236959         3940 
 4570000   0.51046581   -9.1716892    489.88502 0.0089329872 0.0069209736         3951 
 4571000   0.52675314   -9.1445372    490.96296 0.0089506848 0.0069182509         3945 
 4572000   0.53083273   -9.1554063    488.88253 0.0089108073 0.0069155322         3947 
 4573000   0.51378095   -9.1592937    489.46056 0.0089193921 0.0069128151         3953 
 4574000   0.51170297   -9.1449914    489.50061 0.0089181717 0.0069101021         3942 
 4575000   0.51483851   -9.1533972    489.82988 0.0089222201 0.0069073872         3950 
 4576000   0.51769454   -9.1636476    489.93191 0.0089221284 0.0069046747         3933 
 4577000   0.51848723   -9.1605007    489.32993 0.0089092187 0.0069019614         3947 
 4578000   0.51521433   -9.1488321    490.55871 0.0089296401 0.0068992513         3945 
 4579000   0.51601876   -9.1579142    490.61673  0.008928746 0.0068965434         3945 
 4580000   0.51008395   -9.1488242    489.71506 0.0089103905 0.0068938368         3946 
 4581000   0.52188867    -9.145789    489.27305 0.0089004047 0.0068911328         3951 
 4582000   0.51581632   -9.1568589    489.85967 0.0089091312 0.0068884292         3940 
 4583000   0.52368037     -9.16784    489.94627 0.0089087619  0.006885726         3950 
 4584000   0.50566035   -9.1428454     490.3321 0.0089138326 0.0068830255         3961 
 4585000   0.50849564   -9.1523691    489.94465 0.0089048464  0.006880326         3947 
 4586000   0.52432551   -9.1506369    490.16496  0.008906908 0.0068776292         3943 
 4587000   0.51581845   -9.1617924     489.5929 0.0088945735  0.006874933         3948 
 4588000    0.5221897   -9.1476254    489.92712 0.0088987053 0.0068722378         3931 
 4589000   0.52339833   -9.1750844    490.94032 0.0089151652 0.0068695433         3943 
 4590000   0.51006152   -9.1549085    489.77974 0.0088921522 0.0068668486         3956 
 4591000   0.52294095   -9.1577545    489.71546 0.0088890484 0.0068641582         3933 
 4592000   0.52924265   -9.1629405    490.28961 0.0088975321 0.0068614686         3954 
 4593000   0.52401971   -9.1650071    490.18632 0.0088937208 0.0068587785         3939 
 4594000   0.52589832   -9.1793022    489.99974 0.0088884004 0.0068560913         3942 
 4595000   0.50832138    -9.150865     489.8374 0.0088835219 0.0068534076         3947 
 4596000   0.50549719   -9.1644327    489.98685 0.0088842988 0.0068507233         3953 
 4597000   0.51986559   -9.1658132    489.83925 0.0088796906 0.0068480428         3950 
 4598000   0.51529775   -9.1518901    490.47137 0.0088892158 0.0068453613         3955 
 4599000   0.51160137   -9.1615506     490.1754   0.00888192 0.0068426817         3961 
 4600000   0.50797426   -9.1565911    489.90247 0.0088750447 0.0068400059         3947 
 4601000   0.52031708   -9.1636645    489.97928  0.008874507 0.0068373281         3948 
 4602000   0.51244177   -9.1472791     490.7733 0.0088869568 0.0068346528         3948 
 4603000   0.51522656   -9.1654694    489.51595 0.0088622629 0.0068319799         3948 
 4604000   0.51802571     -9.16796    489.75647 0.0088646914 0.0068293073         3933 
 4605000   0.50215513    -9.165317    490.04883 0.0088680569 0.0068266362         3944 
 4606000   0.51501344   -9.1676201    489.18635 0.0088505274 0.0068239657         3940 
 4607000   0.51291574   -9.1591833    489.46593 0.0088536635 0.0068212978         3953 
 4608000   0.51754099   -9.1577498    489.90236 0.0088596347 0.0068186315         3939 
 4609000   0.50998944   -9.1723512    489.82063 0.0088562347 0.0068159664         3952 
 4610000   0.51365471   -9.1681722    488.91646 0.0088379692 0.0068133002         3953 
 4611000   0.51290926   -9.1521117    489.57773 0.0088480035 0.0068106373         3947 
 4612000   0.51486091   -9.1635192    488.74067 0.0088309603 0.0068079755         3939 
 4613000   0.51699786    -9.174785     489.2323 0.0088379272 0.0068053166         3944 
 4614000   0.53220147   -9.1581958    489.32387 0.0088376656 0.0068026575         3939 
 4615000   0.51727291   -9.1702187    489.52508 0.0088393839 0.0068000002         3957 
 4616000   0.51316928   -9.1524901    489.36644 0.0088346049 0.0067973441         3940 
 4617000   0.50977055    -9.181785    488.94532 0.0088250906  0.006794688         3942 
 4618000     0.509036   -9.1696937    490.13662  0.008844677 0.0067920348         3938 
 4619000   0.51273129   -9.1532566    490.17458  0.008843447 0.0067893828         3945 
 4620000   0.50891278    -9.153084    489.18588 0.0088236992 0.0067867307         3943 
 4621000   0.51502707    -9.179183    489.43326 0.0088262507 0.0067840829         3947 
 4622000   0.51390493   -9.1770062    489.77473 0.0088304978  0.006781435         3937 
 4623000   0.50798135   -9.1711101    488.80289 0.0088110695 0.0067787872         3958 
 4624000   0.51925415   -9.1609714    489.52132 0.0088221115 0.0067761407         3939 
 4625000    0.5021989   -9.1603245    489.32299 0.0088166304 0.0067734973         3948 
 4626000    0.5069775   -9.1794497    490.47152 0.0088354144  0.006770855         3951 
 4627000   0.50204052   -9.1803053     489.2521 0.0088115427 0.0067682129         3950 
 4628000   0.51696395   -9.1776585    489.00902 0.0088052618 0.0067655718         3928 
 4629000   0.50817478   -9.1721231    489.69693 0.0088157437 0.0067629357         3948 
 4630000   0.50481502   -9.1566575    489.56937 0.0088115437 0.0067603015         3941 
 4631000   0.51986196   -9.1776201    489.56513 0.0088095647 0.0067576656         3942 
 4632000   0.50710624   -9.1657974    489.53762  0.008807168 0.0067550314         3942 
 4633000   0.51320658   -9.1825586    489.42611 0.0088032612 0.0067523989         3940 
 4634000   0.51809634    -9.181513    489.44605 0.0088017201 0.0067497673         3937 
 4635000   0.50799077   -9.1735128    489.15229 0.0087945395 0.0067471385         3946 
 4636000   0.50138895   -9.1773264    489.55846 0.0087999436 0.0067445099         3935 
 4637000   0.51351602   -9.1730942    489.26197 0.0087927174 0.0067418833         3916 
 4638000     0.518985   -9.1723952    489.19291 0.0087895808 0.0067392573         3943 
 4639000    0.5126595    -9.160994    489.01603 0.0087845087 0.0067366343         3945 
 4640000   0.51495989    -9.178873    489.39177 0.0087893638 0.0067340133         3953 
 4641000   0.51208169   -9.1723786    489.40799 0.0087877611 0.0067313925         3950 
 4642000   0.50699996   -9.1797494    488.89132 0.0087765927 0.0067287729         3960 
 4643000   0.50554097   -9.1610658    489.04602  0.008777479 0.0067261547         3939 
 4644000   0.51108485   -9.1760688    490.13518 0.0087951331 0.0067235371         3947 
 4645000    0.5112657   -9.1841264    489.39264 0.0087799182 0.0067209207         3955 
 4646000    0.5231396   -9.1785628    489.25932 0.0087756371 0.0067183035         3941 
 4647000   0.50866018   -9.1712213    489.43901  0.008776971 0.0067156891         3952 
 4648000   0.51188464   -9.1655567    489.29567 0.0087725127 0.0067130782         3954 
 4649000   0.50934637   -9.1616422    488.93401 0.0087641429 0.0067104677         3934 
 4650000   0.50719799   -9.1902738     489.6304 0.0087747383 0.0067078589         3953 
 4651000   0.51512488   -9.1706094    489.26997 0.0087663938 0.0067052498         3945 
 4652000   0.50998855   -9.1678439    488.25438 0.0087463166 0.0067026431         3953 
 4653000   0.50761789   -9.1662979    489.37436 0.0087644953 0.0067000396         3956 
 4654000   0.50946761   -9.1672705    490.00302 0.0087738688 0.0066974356         3943 
 4655000   0.50883244   -9.1835029    489.54025 0.0087636995 0.0066948334         3954 
 4656000    0.5058427   -9.1743691    489.82725 0.0087669539 0.0066922345         3937 
 4657000   0.51597334   -9.1811037    488.88692  0.008748245 0.0066896349         3942 
 4658000   0.50193631   -9.1672478     489.8831 0.0087641888 0.0066870364         3942 
 4659000   0.50240705   -9.1711568    488.83058 0.0087434817 0.0066844395         3923 
 4660000   0.49864269   -9.1828729    489.28827 0.0087497902 0.0066818453         3935 
 4661000   0.50259405   -9.1851844    489.03266  0.008743343 0.0066792499         3938 
 4662000   0.50562656   -9.1685172    489.88159 0.0087566422  0.006676656         3942 
 4663000   0.50791348   -9.1624383    489.64596 0.0087505532 0.0066740658         3938 
 4664000   0.50863535   -9.1817746    489.56627 0.0087472532 0.0066714744         3945 
 4665000   0.50629035    -9.169904    489.27513 0.0087401774 0.0066688846         3946 
 4666000   0.50901953   -9.1851988    488.92349  0.008732024 0.0066662965         3931 
 4667000   0.49572674   -9.1671243     489.4219 0.0087390525 0.0066637103         3951 
 4668000   0.50253455   -9.1789655    489.84322 0.0087447018  0.006661124         3942 
 4669000   0.49973698   -9.1667567    489.54948 0.0087375862 0.0066585406         3935 
 4670000   0.50648979   -9.1830177    489.59968  0.008736611 0.0066559597         3946 
 4671000   0.49927998   -9.1799699    489.38978 0.0087309958 0.0066533792         3941 
 4672000   0.50072125   -9.1828632    489.05149  0.008723093    0.0066508         3943 
 4673000   0.50080732    -9.173027    489.14152 0.0087228319 0.0066482219         3938 
 4674000   0.49890263   -9.1726491    488.86136 0.0087159705 0.0066456444         3937 
 4675000   0.48927055   -9.1870769    489.03157 0.0087171403 0.0066430676         3932 
 4676000   0.50997035   -9.1799983    488.81006 0.0087113284 0.0066404929         3941 
 4677000   0.48959129   -9.1835932    488.22637 0.0086990659 0.0066379199         3935 
 4678000   0.50388182   -9.1660211    489.01589 0.0087112706 0.0066353477         3929 
 4679000   0.50389327   -9.1900286    489.49867 0.0087180072 0.0066327774         3961 
 4680000   0.50319215   -9.1667956    488.69626 0.0087018564 0.0066302086         3940 
 4681000   0.49615326   -9.1784631    489.58508 0.0087158207 0.0066276435         3949 
 4682000   0.49854812   -9.1861101    488.63737 0.0086970912 0.0066250789         3947 
 4683000    0.5134957   -9.1731512    489.09053 0.0087032978 0.0066225144         3950 
 4684000   0.50964782   -9.1679159     489.3873 0.0087067197 0.0066199524         3938 
 4685000   0.50269214   -9.1751349    489.75436 0.0087113902 0.0066173911         3953 
 4686000   0.50630679   -9.1797914    489.32896 0.0087019661 0.0066148305         3944 
 4687000   0.49986827   -9.1870133    488.62359 0.0086875682 0.0066122725         3947 
 4688000   0.50331617   -9.1785957    488.97271 0.0086919211  0.006609714         3948 
 4689000   0.50493001   -9.1764192    489.38625 0.0086974168 0.0066071584         3938 
 4690000   0.51276864   -9.1912591    488.36317  0.008677384 0.0066046036         3931 
 4691000   0.50032845   -9.1834644    489.65028  0.008698399 0.0066020495         3952 
 4692000   0.50082245    -9.198411    488.84266 0.0086822013 0.0065994955         3955 
 4693000   0.49581631   -9.1942759    489.49872 0.0086920008 0.0065969437         3938 
 4694000   0.49553511   -9.1893161    489.28289 0.0086863174 0.0065943931         3941 
 4695000   0.49218501   -9.1696613    488.73561 0.0086747534  0.006591845         3945 
 4696000   0.49779848   -9.1677952    489.97027 0.0086948159  0.006589298         3924 
 4697000   0.50822652   -9.1776747    489.06706 0.0086769403 0.0065867531         3928 
 4698000   0.49258371   -9.1853866    489.47734 0.0086823709  0.006584209         3947 
 4699000   0.49863667   -9.1973747    488.38859  0.008661215 0.0065816651         3930 
 4700000   0.49888275   -9.1674211    489.02259 0.0086706132 0.0065791232         3936 
 4701000   0.49944482   -9.1902128    489.00636 0.0086684812 0.0065765826         3930 
 4702000   0.48957061   -9.1781163    489.39966  0.008673608 0.0065740441         3933 
 4703000   0.51269098   -9.1700675    489.04541 0.0086654867 0.0065715075         3939 
 4704000   0.50113655   -9.1837044    489.66999 0.0086747094  0.006568972         3950 
 4705000   0.49632075   -9.1837004    489.71524  0.008673667 0.0065664395         3952 
 4706000   0.49044527   -9.1816143    488.69336 0.0086537286  0.006563906         3952 
 4707000   0.48354567   -9.1830305    488.77483 0.0086533325 0.0065613734         3931 
 4708000   0.51039797     -9.17973    489.87842 0.0086710284 0.0065588421         3933 
 4709000   0.48815337   -9.1787937    489.21963 0.0086575286 0.0065563135         3951 
 4710000   0.50551725   -9.1823909    489.08649 0.0086533349 0.0065537849         3958 
 4711000    0.4937254   -9.1913759    489.06087 0.0086510449 0.0065512575         3945 
 4712000   0.49450898   -9.1873595    488.50928 0.0086394539 0.0065487319         3951 
 4713000    0.5058582   -9.2019746    488.48401  0.008637174 0.0065462081         3936 
 4714000   0.49930321   -9.1870247    489.17674 0.0086475877 0.0065436862         3943 
 4715000   0.50180794    -9.191272    489.18598 0.0086459169 0.0065411633         3941 
 4716000   0.50007614   -9.1870227    488.43352 0.0086307874 0.0065386422         3951 
 4717000   0.49187427   -9.1844895    489.56844 0.0086490079 0.0065361224         3943 
 4718000   0.49797082   -9.1905768    488.97577 0.0086367064 0.0065336027         3946 
 4719000   0.50269608   -9.1936233    489.04965 0.0086361809 0.0065310864         3943 
 4720000   0.50837146   -9.1995927    489.58492 0.0086438016 0.0065285698         3945 
 4721000   0.50405167   -9.1908738    488.30976  0.008619462 0.0065260546         3946 
 4722000   0.49223082   -9.1787502    488.29736 0.0086174177 0.0065235426         3938 
 4723000   0.49344696    -9.179178    489.70452 0.0086404213 0.0065210309         3945 
 4724000   0.48882265   -9.1818569     488.9701 0.0086256369 0.0065185214         3942 
 4725000   0.49162951   -9.2059796    489.29726 0.0086295813 0.0065160127         3948 
 4726000   0.50116052   -9.1990183    488.81833 0.0086193105 0.0065135044         3943 
 4727000   0.50033972   -9.1799125    489.84697 0.0086356211 0.0065109986         3944 
 4728000   0.49213678   -9.2003879    489.00347 0.0086189275 0.0065084928         3939 
 4729000    0.4975271   -9.1913456    488.87928 0.0086149164 0.0065059895         3947 
 4730000   0.49620642   -9.1778153    488.54962 0.0086072872 0.0065034865         3948 
 4731000   0.49300717   -9.1934682    488.83932 0.0086105706  0.006500985         3949 
 4732000   0.48692239   -9.1952318    488.69997  0.008606297 0.0064984859         3954 
 4733000   0.49070138   -9.1943615    489.01069 0.0086099495 0.0064959872         3936 
 4734000   0.49354315   -9.1875221    489.28634 0.0086129831 0.0064934908         3947 
 4735000   0.49423856   -9.2037343    488.44163 0.0085962976 0.0064909944         3948 
 4736000   0.48782308   -9.1855343    489.38939 0.0086111591 0.0064884986         3946 
 4737000   0.48801387   -9.1838112    489.21978 0.0086063574 0.0064860056         3954 
 4738000   0.49221527   -9.1897256    489.07078 0.0086019204 0.0064835144         3946 
 4739000   0.49359913   -9.1831808    488.88867 0.0085969028 0.0064810226         3951 
 4740000   0.49394079   -9.1875247    489.10466 0.0085988865 0.0064785325         3957 
 4741000   0.49102049    -9.192855    489.03417 0.0085958336 0.0064760425         3946 
 4742000   0.49137647   -9.1875967    488.79714 0.0085898555 0.0064735569         3928 
 4743000   0.49485998   -9.1905029    489.09936 0.0085933544 0.0064710689         3947 
 4744000   0.48713558    -9.194634     489.3813 0.0085964955  0.006468584         3932 
 4745000   0.50811072   -9.1924958    489.29108 0.0085930994 0.0064661013         3943 
 4746000   0.49174228   -9.2030661     488.9618 0.0085855072 0.0064636208         3951 
 4747000   0.49777654   -9.2035173      488.809  0.008581016 0.0064611402         3934 
 4748000   0.49415595   -9.2057967    487.57693 0.0085575844   0.00645866         3954 
 4749000   0.49887678   -9.1813285    488.63222 0.0085743003 0.0064561812         3939 
 4750000   0.49296052   -9.1924606    488.76115  0.008574757 0.0064537031         3937 
 4751000   0.47895112   -9.2008225    488.73148 0.0085724318 0.0064512271         3957 
 4752000   0.49139155   -9.2021239    488.36939  0.008564278 0.0064487535         3951 
 4753000   0.48763765   -9.1814829    488.78978 0.0085698468 0.0064462788         3947 
 4754000   0.48795597   -9.1979813    489.21463 0.0085754914 0.0064438067         3948 
 4755000   0.48914188   -9.2077783     488.9723 0.0085694409 0.0064413359         3952 
 4756000   0.49141265   -9.2015763     488.9419 0.0085671065 0.0064388657         3947 
 4757000   0.50109256   -9.1939225    489.00335  0.008566382 0.0064363985         3942 
 4758000   0.49122675   -9.1859568    488.55848   0.00855679 0.0064339308         3941 
 4759000   0.49828751   -9.2032631     488.8056 0.0085593192 0.0064314674         3949 
 4760000   0.48720751   -9.2104444    488.19013  0.008546746 0.0064290008         3956 
 4761000   0.48592569   -9.1966048    489.07254  0.008560396 0.0064265392         3949 
 4762000   0.48536953    -9.206796    487.91375 0.0085383198 0.0064240772         3948 
 4763000   0.48741274   -9.2027218    488.44122 0.0085457558 0.0064216148         3950 
 4764000   0.50320857    -9.196942    488.24645  0.008540555 0.0064191561         3950 
 4765000    0.4891911   -9.1859382    488.66904 0.0085461533 0.0064166999         3938 
 4766000   0.48805642   -9.2064851    488.83643 0.0085472869  0.006414242         3933 
 4767000   0.49175091   -9.2076211    489.31272   0.00855382 0.0064117896         3947 
 4768000   0.49671408   -9.2071257    488.66365 0.0085406817 0.0064093349         3953 
 4769000   0.48858788   -9.2156858    488.83416 0.0085418704 0.0064068813         3943 
 4770000   0.48676269   -9.2096054    488.31004  0.008530923   0.00640443         3955 
 4771000   0.48699554    -9.176685    489.17837 0.0085443019 0.0064019798         3939 
 4772000   0.48648027     -9.19821    488.95211 0.0085385602 0.0063995307         3946 
 4773000   0.48153742   -9.1961427    488.61952 0.0085309645 0.0063970836         3947 
 4774000   0.49010364   -9.2065817    488.71892 0.0085309126 0.0063946388         3951 
 4775000   0.49137991   -9.2047671    489.29419 0.0085391656 0.0063921929         3943 
 4776000   0.48287313   -9.2067802     488.3136  0.008520268  0.006389749         3947 
 4777000   0.48573128   -9.2059335    489.17109 0.0085334431 0.0063873062         3946 
 4778000   0.47808743   -9.2022208    488.30092 0.0085164805 0.0063848635         3949 
 4779000   0.48702727   -9.2015324    488.92987 0.0085256656  0.006382424         3929 
 4780000   0.49084005   -9.2121478    488.02063 0.0085080305 0.0063799849         3936 
 4781000   0.48635261   -9.2106824    487.55262 0.0084980935 0.0063775468         3944 
 4782000   0.47731229   -9.2038933    488.58979 0.0085143906  0.006375109         3940 
 4783000   0.47911164   -9.1880189    488.42341 0.0085097116 0.0063726743         3953 
 4784000    0.4828677   -9.2084386    489.02578 0.0085184257 0.0063702402         3936 
 4785000   0.47293693   -9.2118918    488.28857 0.0085038066 0.0063678063         3947 
 4786000   0.48121055   -9.1961821    488.64331 0.0085082065 0.0063653728         3947 
 4787000   0.49254127    -9.200368    489.05892  0.008513664 0.0063629406         3932 
 4788000   0.49512678   -9.2036805     489.1914 0.0085141918 0.0063605131         3932 
 4789000   0.48491139    -9.206537    488.97512 0.0085086503  0.006358084         3947 
 4790000    0.4918109   -9.1982445    489.45419 0.0085152086  0.006355657         3941 
 4791000   0.49106886    -9.205877    488.95005 0.0085046624 0.0063532318         3951 
 4792000    0.4751482   -9.2101377    488.83245 0.0085008425 0.0063508082         3935 
 4793000     0.478823   -9.2048223    488.48199 0.0084929756 0.0063483852         3941 
 4794000    0.4801969   -9.2149248    487.92053 0.0084814444  0.006345964         3946 
 4795000    0.4800092   -9.1957244    489.33014 0.0085041735 0.0063435443         3948 
 4796000   0.48211713    -9.212385    488.56906  0.008489176  0.006341125         3946 
 4797000   0.48324727   -9.1997876    488.35501 0.0084836879 0.0063387045         3959 
 4798000   0.47886361    -9.200659    488.94221 0.0084921184 0.0063362871         3938 
 4799000    0.4947551   -9.2064892     488.5423 0.0084834045 0.0063338713         3948 
 4800000   0.49239612    -9.212009    488.58081 0.0084823057  0.006331457         3949 
 4801000   0.48459428   -9.2084954    488.94523 0.0084868644  0.006329045         3948 
 4802000   0.48563312    -9.225196    488.70172 0.0084808711 0.0063266312         3934 
 4803000   0.48595722   -9.2034657    488.84169 0.0084815339 0.0063242216         3947 
 4804000   0.48639556   -9.1866905     488.6826 0.0084770088 0.0063218126         3956 
 4805000   0.48448239   -9.1888884    489.82058 0.0084949806 0.0063194064         3951 
 4806000   0.47544866   -9.2071385     488.4033 0.0084686382 0.0063170008         3944 
 4807000   0.47601776   -9.2036845    489.77417 0.0084906416 0.0063145952         3945 
 4808000   0.47763081   -9.2072175    488.34471    0.0084641 0.0063121903         3938 
 4809000   0.48811723   -9.2102559    488.29916 0.0084615505 0.0063097874         3953 
 4810000    0.4734481   -9.2151626    488.84149 0.0084691874 0.0063073862         3928 
 4811000   0.47022513   -9.2023999    489.27476 0.0084749317 0.0063049865         3949 
 4812000   0.48987314   -9.2142112    488.44967 0.0084588817 0.0063025866         3932 
 4813000   0.48459745   -9.2165596    488.91565 0.0084651924 0.0063001873         3950 
 4814000   0.48551816   -9.1982268    488.03821 0.0084482449   0.00629779         3952 
 4815000   0.46685291   -9.2093053     488.3914 0.0084526029 0.0062953955         3956 
 4816000   0.46825831   -9.2184899    488.70087 0.0084562028     0.006293         3950 
 4817000   0.48193676   -9.2094584    489.04151 0.0084603403 0.0062906056         3936 
 4818000    0.4849953    -9.212238    488.80815 0.0084545481  0.006288213         3940 
 4819000    0.4763508   -9.2139507    488.92542 0.0084548216 0.0062858209         3964 
 4820000   0.48887769    -9.220176    488.49678 0.0084456566 0.0062834309         3955 
 4821000   0.47348614   -9.1965895    488.55482 0.0084449081 0.0062810432         3951 
 4822000   0.48061664   -9.2111484    489.47741 0.0084591009 0.0062786557         3966 
 4823000   0.47028864   -9.2034001    488.99591 0.0084490274 0.0062762704         3943 
 4824000   0.47671739   -9.2145587    489.30857  0.008452677 0.0062738856         3947 
 4825000   0.47307687   -9.2254198    488.78179 0.0084418272 0.0062715022         3962 
 4826000   0.47806035   -9.2242899    488.94314 0.0084428639  0.006269119         3947 
 4827000   0.48322882   -9.2271823    488.33021 0.0084305333 0.0062667383         3941 
 4828000   0.47795788   -9.2085844    488.52511 0.0084321512 0.0062643592         3945 
 4829000   0.47895019    -9.228961    487.88817 0.0084194134 0.0062619804         3943 
 4830000   0.47093118   -9.2223884    488.03909 0.0084202741 0.0062596013         3947 
 4831000   0.48356607   -9.2309406    488.29156 0.0084228862 0.0062572254         3947 
 4832000   0.48119407   -9.2074748    488.34521 0.0084220683 0.0062548529         3950 
 4833000   0.48325194    -9.210764    489.24499 0.0084358402 0.0062524802         3944 
 4834000   0.48375032      -9.2158    488.19443 0.0084159845 0.0062501074         3944 
 4835000   0.48261342   -9.2137858    488.06596 0.0084120296 0.0062477371         3933 
 4836000   0.48258139   -9.2266369    488.50175 0.0084177996 0.0062453672         3950 
 4837000   0.48786514   -9.2266047    487.98808 0.0084072097 0.0062430007         3960 
 4838000   0.47256264   -9.2041824    488.31886 0.0084111695 0.0062406347         3956 
 4839000   0.48492703   -9.2187156    488.24206 0.0084081088  0.006238268         3942 
 4840000   0.47385963   -9.2192377    488.85991 0.0084170094 0.0062359034         3951 
 4841000   0.48760986   -9.2259636    487.83125 0.0083975634 0.0062335404         3940 
 4842000   0.47511733   -9.2073024    487.55307 0.0083910414 0.0062311782         3937 
 4843000   0.47947943    -9.207073    488.23305 0.0084010091 0.0062288164         3954 
 4844000   0.48067748    -9.214892    487.76371 0.0083912007 0.0062264555         3949 
 4845000   0.48505939    -9.220001     488.2784 0.0083983213 0.0062240955         3945 
 4846000   0.47836724   -9.2050041    488.28799 0.0083967531 0.0062217366         3946 
 4847000   0.47572372   -9.2250554    488.11271 0.0083920073 0.0062193784         3943 
 4848000    0.4834652   -9.2181941    488.18836 0.0083915766 0.0062170211         3956 
 4849000   0.48225011   -9.2158561    488.74259 0.0083993708 0.0062146681         3953 
 4850000   0.47292428   -9.2024838    488.42643 0.0083922067 0.0062123153         3935 
 4851000   0.47405916   -9.2171656    488.90773 0.0083987447 0.0062099643         3943 
 4852000   0.46884663   -9.2278578    489.16525 0.0084014367 0.0062076134         3947 
 4853000   0.47376584   -9.2258522    488.20837 0.0083832745 0.0062052649         3949 
 4854000   0.47435084   -9.2195294    488.67184 0.0083895042 0.0062029161         3948 
 4855000   0.47295643   -9.2192072    488.32422 0.0083818095 0.0062005666         3947 
 4856000   0.46713816   -9.2140375    488.24707 0.0083787595 0.0061982211         3945 
 4857000   0.47512956   -9.2133939    488.35396 0.0083788682 0.0061958757         3943 
 4858000   0.48763687   -9.2230988    488.04677  0.008371874 0.0061935334         3947 
 4859000   0.47220078   -9.2121773    488.63516 0.0083802422 0.0061911901         3943 
 4860000   0.46610858   -9.2356832    488.17465 0.0083706217 0.0061888497         3950 
 4861000   0.48214488    -9.220468    488.85541 0.0083805701 0.0061865089         3939 
 4862000   0.47243044   -9.2340433    488.28502   0.00836907 0.0061841691         3943 
 4863000   0.48005703    -9.226624      488.903 0.0083779388 0.0061818328         3941 
 4864000   0.46956162   -9.2096623       488.18 0.0083638296 0.0061794969         3951 
 4865000   0.47941178   -9.2168488     488.2388 0.0083631175 0.0061771622         3959 
 4866000   0.47030007   -9.2211977    488.51848 0.0083661885 0.0061748288         3954 
 4867000   0.47136306   -9.2022892    488.58561  0.008365619  0.006172495         3943 
 4868000   0.46910487   -9.2294031     488.0653 0.0083549935 0.0061701626         3938 
 4869000   0.47358111   -9.2166408    487.97053 0.0083516555 0.0061678325         3943 
 4870000   0.47702138    -9.217183    488.02041 0.0083507941 0.0061655052         3948 
 4871000   0.46763758   -9.2285269    488.13296 0.0083510053 0.0061631785         3948 
 4872000   0.47239573   -9.2226357     488.0767 0.0083483288 0.0061608523         3948 
 4873000   0.47787015   -9.2286962    488.12797 0.0083474925  0.006158526         3946 
 4874000   0.47665152   -9.2247452    488.03361 0.0083441664 0.0061562018         3952 
 4875000   0.48080865   -9.2287383    488.24051 0.0083459916 0.0061538806         3932 
 4876000   0.46455723   -9.2260307    487.53575 0.0083322352 0.0061515589         3944 
 4877000   0.46937307   -9.2144689      488.216 0.0083421502 0.0061492372         3937 
 4878000   0.46835238   -9.2150341     488.2102 0.0083403409 0.0061469172         3959 
 4879000   0.47797251   -9.2208711    488.66131 0.0083463365 0.0061445992         3943 
 4880000   0.46488395   -9.2375817    488.23213 0.0083372972 0.0061422824         3936 
 4881000   0.47549608   -9.2207503    488.54827 0.0083409866 0.0061399672         3952 
 4882000   0.46802689   -9.2125624    488.30337 0.0083350978 0.0061376533         3945 
 4883000   0.47074955   -9.2313099    487.76624 0.0083242242 0.0061353397         3942 
 4884000   0.46789495   -9.2174841    488.05843 0.0083275052 0.0061330269         3956 
 4885000   0.46460529   -9.2260727    487.81291 0.0083216122 0.0061307155         3948 
 4886000   0.47637251   -9.2429947    487.61551 0.0083165423 0.0061284054         3943 
 4887000   0.46100087   -9.2194493    488.82919 0.0083355363 0.0061260958         3941 
 4888000    0.4760844   -9.2391126    488.14015 0.0083220838 0.0061237877         3935 
 4889000   0.46762493    -9.220351    487.25751 0.0083053371 0.0061214804         3945 
 4890000   0.46410679   -9.2270416    487.54112 0.0083084716 0.0061191747         3955 
 4891000   0.46664828   -9.2294268    488.27032 0.0083191971 0.0061168698         3933 
 4892000   0.46678555   -9.2452962    488.10065 0.0083146063 0.0061145661         3945 
 4893000   0.46547371    -9.232876    488.31209 0.0083165081 0.0061122646         3955 
 4894000   0.47076519   -9.2236708    488.39796 0.0083162709 0.0061099632         3936 
 4895000    0.4777259   -9.2291331    488.35216 0.0083137922  0.006107664         3949 
 4896000   0.45701786   -9.2376224    488.20104  0.008309522 0.0061053669         3943 
 4897000   0.46221205   -9.2291072    488.32651 0.0083099604 0.0061030695         3950 
 4898000   0.46468107   -9.2342277    488.02687 0.0083031658 0.0061007759         3941 
 4899000   0.47564636    -9.224901     488.1194 0.0083030448  0.006098482         3943 
 4900000    0.4773309   -9.2268195    488.00094 0.0082993357 0.0060961891         3940 
 4901000   0.46781707    -9.245619     489.0027 0.0083146756 0.0060938982         3949 
 4902000    0.4606508   -9.2495421    487.88497 0.0082939781 0.0060916074         3949 
 4903000   0.47212398    -9.243555    488.03554 0.0082948457 0.0060893176         3949 
 4904000   0.46688722   -9.2362144    487.60933 0.0082859116 0.0060870304         3956 
 4905000   0.47309509    -9.238653    487.48109 0.0082820436 0.0060847439         3944 
 4906000   0.46189443   -9.2176064    488.16928 0.0082920451 0.0060824575         3939 
 4907000     0.467063   -9.2418862    487.74336 0.0082831221 0.0060801731         3960 
 4908000   0.46857078   -9.2280531    488.22024 0.0082895313 0.0060778886         3956 
 4909000   0.46651059   -9.2420191    487.66385 0.0082783977 0.0060756049         3945 
 4910000   0.46142262   -9.2413107    487.84313 0.0082797544  0.006073324         3948 
 4911000   0.45742644    -9.241504    487.41718 0.0082708407 0.0060710433         3952 
 4912000   0.47210674   -9.2265269     488.7203 0.0082912646 0.0060687633         3943 
 4913000   0.46484546   -9.2347171    488.25117 0.0082816196 0.0060664855         3960 
 4914000   0.46181694   -9.2295083    488.55303 0.0082850534 0.0060642088         3958 
 4915000   0.46633736   -9.2176195    487.67344 0.0082684543 0.0060619324         3954 
 4916000   0.47088152   -9.2242715     488.3256 0.0082778275 0.0060596575         3959 
 4917000   0.46657974   -9.2302504    488.14826 0.0082731385 0.0060573842         3961 
 4918000   0.46591194   -9.2309925     487.8211 0.0082659127  0.006055112         3936 
 4919000    0.4597502   -9.2206726    488.13386 0.0082695307 0.0060528403         3965 
 4920000   0.45747182   -9.2429369    487.82133 0.0082625564 0.0060505692         3948 
 4921000   0.46781461     -9.22119    488.06101 0.0082649362 0.0060483012         3962 
 4922000   0.45776449   -9.2484804    487.57791 0.0082550777 0.0060460332         3966 
 4923000   0.46654809   -9.2223219    487.62827 0.0082542533  0.006043766         3953 
 4924000   0.46867956   -9.2273098      487.984 0.0082585973 0.0060415012         3942 
 4925000   0.45564943   -9.2453907    487.68301 0.0082518275  0.006039236         3951 
 4926000   0.46884196   -9.2264097    488.34131 0.0082612888 0.0060369725         3929 
 4927000   0.47009436   -9.2278455    488.08381  0.008255257 0.0060347112         3943 
 4928000   0.46886339   -9.2363178    487.73871  0.008247746 0.0060324506         3947 
 4929000   0.47015579   -9.2504046    487.03816 0.0082342286 0.0060301921         3941 
 4930000   0.46060368   -9.2451524    487.81272 0.0082456511 0.0060279331         3957 
 4931000    0.4597802   -9.2328524    487.96745 0.0082465938 0.0060256758         3953 
 4932000   0.46437771    -9.248579    488.31878  0.008250858 0.0060234184         3943 
 4933000   0.46429463   -9.2476055    487.76595 0.0082398464 0.0060211625         3936 
 4934000   0.46895805   -9.2426729    487.32443 0.0082307193 0.0060189094         3959 
 4935000    0.4588454   -9.2327118    487.36358 0.0082297125 0.0060166551         3944 
 4936000   0.46693641   -9.2443187    487.28279 0.0082266813  0.006014402         3962 
 4937000   0.45941569   -9.2368825    487.40801 0.0082271287 0.0060121521         3938 
 4938000    0.4515419   -9.2378497    487.62922 0.0082291957 0.0060099032         3947 
 4939000   0.46654761   -9.2377291    488.42497 0.0082409558 0.0060076556         3938 
 4940000   0.46572195   -9.2511534    487.33744 0.0082209419 0.0060054085         3953 
 4941000   0.46089595   -9.2381266    488.08644 0.0082319105 0.0060031627         3963 
 4942000   0.46605916   -9.2469792    488.78098 0.0082419563 0.0060009175         3952 
 4943000   0.45724736   -9.2305075    487.98104 0.0082268029 0.0059986729         3948 
 4944000   0.45481075   -9.2336159    486.97617 0.0082082013 0.0059964285         3929 
 4945000   0.46244639   -9.2342088    487.62747 0.0082175172 0.0059941869         3939 
 4946000   0.46578744   -9.2463311    488.17854 0.0082251405 0.0059919464         3941 
 4947000   0.46287216   -9.2469523    487.33633 0.0082092907 0.0059897079         3952 
 4948000   0.45258073   -9.2436812    487.46061 0.0082097246 0.0059874712         3948 
 4949000   0.45473729   -9.2523405    487.67527 0.0082116803 0.0059852331         3961 
 4950000   0.46032115   -9.2479639    488.03293 0.0082160425 0.0059829975         3948 
 4951000   0.45835219   -9.2378549    487.75014 0.0082096234 0.0059807621         3944 
 4952000   0.45534166   -9.2288933    488.15334 0.0082147506  0.005978529         3928 
 4953000   0.46353359   -9.2299501    487.39857 0.0082003932 0.0059762971         3927 
 4954000   0.45251198   -9.2501038     488.0605 0.0082098724 0.0059740656         3944 
 4955000   0.44877795   -9.2427836    487.68796 0.0082019502 0.0059718349         3954 
 4956000   0.46137809   -9.2426908    488.01472 0.0082057895 0.0059696084         3945 
 4957000   0.46615782   -9.2367116    487.54329 0.0081962089 0.0059673787         3961 
 4958000   0.46309911   -9.2416031    487.87813 0.0082001838 0.0059651516         3939 
 4959000   0.46096873   -9.2344012    488.14087 0.0082029453 0.0059629264         3943 
 4960000   0.46225618   -9.2472618    487.61026 0.0081923767 0.0059607033         3947 
 4961000   0.45513106   -9.2391917    488.33086 0.0082028297 0.0059584811         3929 
 4962000   0.45389347   -9.2376265     487.4945 0.0081871305 0.0059562594         3955 
 4963000   0.45441589   -9.2442039    487.38402 0.0081836258  0.005954037         3946 
 4964000   0.45471943   -9.2635916    487.45541 0.0081831757 0.0059518173         3954 
 4965000   0.46115336   -9.2367814    486.93772 0.0081728385 0.0059495984         3948 
 4966000   0.45251674   -9.2484624    487.23343 0.0081761551 0.0059473808         3933 
 4967000   0.44991243   -9.2574711    487.08728 0.0081720568 0.0059451645         3952 
 4968000   0.45460108    -9.249984    487.67988 0.0081803523 0.0059429483         3956 
 4969000   0.45559389   -9.2529376    487.60003 0.0081773669 0.0059407335         3943 
 4970000    0.4513099   -9.2596146    488.30986 0.0081876234 0.0059385194         3941 
 4971000   0.44943444   -9.2329898    487.37387 0.0081702854 0.0059363061         3955 
 4972000   0.45578241   -9.2517535    486.99309 0.0081622601 0.0059340947         3966 
 4973000   0.46346875   -9.2576173    487.14638 0.0081631875  0.005931885         3951 
 4974000   0.44915865   -9.2336104    487.22087 0.0081627943 0.0059296758         3943 
 4975000   0.45478736   -9.2557694    487.62686 0.0081679541 0.0059274677         3946 
 4976000   0.46126592   -9.2578228    488.15346 0.0081751317 0.0059252608         3956 
 4977000   0.45583446   -9.2435887    487.46366 0.0081619392 0.0059230559         3943 
 4978000   0.45457566   -9.2539647    486.93268 0.0081514108 0.0059208507         3946 
 4979000   0.45279158   -9.2462311    487.51554 0.0081595291 0.0059186471         3932 
 4980000   0.45845826   -9.2398203     487.9882 0.0081657999 0.0059164457         3949 
 4981000   0.44439576   -9.2461948    488.00776 0.0081644877 0.0059142436         3948 
 4982000   0.45880704   -9.2343944     487.8067 0.0081594859 0.0059120421         3947 
 4983000   0.46234018   -9.2445912     487.5444 0.0081534618 0.0059098428         3934 
 4984000   0.45515124   -9.2490395    487.60664 0.0081528666 0.0059076459         3941 
 4985000   0.44522211   -9.2466056    486.93234  0.008139959 0.0059054497         3957 
 4986000    0.4547275   -9.2547708     487.3946 0.0081460523 0.0059032513         3943 
 4987000   0.46218123   -9.2485066    487.74325 0.0081502448 0.0059010558         3943 
 4988000    0.4524726   -9.2630365    487.43855 0.0081435203 0.0058988624         3959 
 4989000   0.46472802   -9.2438154    487.63083 0.0081450996   0.00589667         3948 
 4990000   0.46110256   -9.2562076    487.06708 0.0081340528 0.0058944788         3954 
 4991000   0.46034992   -9.2527727    486.86824  0.008129103 0.0058922872         3952 
 4992000   0.45809484   -9.2553485    487.32935 0.0081351721 0.0058900975         3943 
 4993000   0.45817818   -9.2550323    487.61603 0.0081383275 0.0058879075         3945 
 4994000    0.4574733   -9.2571038    487.65409  0.008137333 0.0058857203         3955 
 4995000   0.44395468    -9.261398    487.43206 0.0081319997  0.005883535         3940 
 4996000   0.44945805   -9.2725261    487.72798 0.0081353078 0.0058813492         3950 
 4997000   0.45044447   -9.2458304    487.14324 0.0081239283 0.0058791646         3943 
 4998000   0.45503357   -9.2531713    487.69214 0.0081314549 0.0058769805         3952 
 4999000    0.4491735   -9.2546457     487.4281 0.0081254267 0.0058747972         3955 
 5000000   0.44694279    -9.260947    486.86153 0.0081143588 0.0058726147         3938 
 5001000   0.45410267   -9.2493189    487.63813 0.0081256771 0.0058704354         3949 
 5002000   0.44410323   -9.2633228    487.43221  0.008120622 0.0058682562         3948 
 5003000   0.44757913   -9.2691435    488.11539 0.0081303783 0.0058660785         3960 
 5004000    0.4540662    -9.255659    488.27939 0.0081314846 0.0058639024         3951 
 5005000   0.44325063   -9.2569596    487.39225 0.0081150891 0.0058617267         3956 
 5006000   0.45485228    -9.255997    487.30501 0.0081120158 0.0058595516         3943 
 5007000   0.45938369   -9.2499532     486.1404 0.0080910126  0.005857378         3954 
 5008000   0.45928001   -9.2452006    486.99021 0.0081035379 0.0058552072         3955 
 5009000   0.45583586   -9.2493456    487.22566 0.0081058372 0.0058530358         3935 
 5010000   0.43802866   -9.2531096    487.68842 0.0081119165 0.0058508657         3945 
 5011000   0.45460572   -9.2601236    488.25398  0.008119703 0.0058486975         3947 
 5012000   0.44798281   -9.2574427    487.60423 0.0081072796 0.0058465284         3946 
Loop time of 13428.4 on 48 procs for 5000000 steps with 4000 atoms

Performance: 64341.332 tau/day, 372.346 timesteps/s
99.4% CPU use with 48 MPI tasks x no OpenMP threads

MPI task timing breakdown:
Section |  min time  |  avg time  |  max time  |%varavg| %total
---------------------------------------------------------------
Pair    | 1019.5     | 1120.9     | 1282.3     | 185.5 |  8.35
Neigh   | 93.588     | 98.687     | 106.58     |  33.5 |  0.73
Comm    | 803.49     | 999.34     | 1119.4     | 240.9 |  7.44
Output  | 22.181     | 22.186     | 22.287     |   0.3 |  0.17
Modify  | 10958      | 11050      | 11135      |  36.0 | 82.29
Other   |            | 137.6      |            |       |  1.02

Nlocal:        83.3333 ave          96 max          72 min
Histogram: 4 7 10 2 3 2 4 7 5 4
Nghost:        2461.75 ave        2488 max        2443 min
Histogram: 3 4 9 8 8 4 5 5 1 1
Neighs:        17162.0 ave       21166 max       14071 min
Histogram: 6 3 9 4 7 6 3 5 3 2
FullNghs:      34323.7 ave       39624 max       28865 min
Histogram: 3 6 8 5 4 2 4 6 5 5

Total # of neighbors = 1647537
Ave neighs/atom = 411.88425
Neighbor list builds = 265927
Dangerous builds = 0

#clear
#
#next RN
#
#jump SELF
Total wall time: 3:43:52
