
units lj                  # Use reduced LJ style units
atom_style atomic         # Uncharged point particles
atom_modify map hash      # Needed for indexing of clusters etc
                          # Used to be able to find where atoms are in relation to each other.

lattice fcc 1.0 spacing 1 1 1
Lattice spacing in x,y,z = 1.5874011 1.5874011 1.5874011
region box block 0 10 0 10 0 10 units lattice
create_box 2 box
Created orthogonal box = (0.0000000 0.0000000 0.0000000) to (15.874011 15.874011 15.874011)
  3 by 4 by 4 MPI processor grid
create_atoms 1 box
Created 4000 atoms
  using lattice units in orthogonal box = (0.0000000 0.0000000 0.0000000) to (15.874011 15.874011 15.874011)
  create_atoms CPU = 0.003 seconds
set type 1 type/fraction 2 0.67 78393
Setting atom values ...
  2693 settings made for type/fraction
mass 1 1.0
mass 2 1.0
pair_style lj/cut  3.5
pair_modify tail  yes
pair_coeff 1  1  1.0  1.0   # Intearaction between 1 and 1 set with epsilon = 1 and sigma = 1
pair_coeff 1  2  1.5  0.8
pair_coeff 2  2  0.5  0.88

write_data data.0
System init for write_data ...
Neighbor list info ...
  update every 1 steps, delay 10 steps, check yes
  max neighbors/atom: 2000, page size: 100000
  master list distance cutoff = 3.8
  ghost atom cutoff = 3.8
  binsize = 1.9, bins = 9 9 9
  1 neighbor lists, perpetual/occasional/extra = 1 0 0
  (1) pair lj/cut, perpetual
      attributes: half, newton on
      pair build: half/bin/atomonly/newton
      stencil: half/bin/3d
      bin: standard
WARNING: Not all mixed pair coeffs generated from mixing. Use write_data with 'pair ij' option to store all pair coeffs. (../write_data.cpp:312)


#############################
#   M E L T   S Y S T E M   #
#############################

velocity all create 2.4 2750902 mom yes dist gaussian # Assign velocities
                                                    # Temperature 2.4, random number seed, zero linear momentum
                                                                                # Gaussian distribution

timestep 0.002   # simulation timestep
thermo 1000       # output thermodynamic data every 1000 steps bf 100

# Define a fix  in this case with index 1 applied to all
# particles in the simulation. This fix is for simulations
# in the anisotropic NPT ensemble. Note that we use the MTK
# correction.
fix 1 all npt temp 2.4 2.4 0.1 iso 5.68 5.68 0.5 mtk yes tchain 5 pchain 5 # Use NPT ensemble
                                                                         # Set temperature and pressure and damping
                                                                         # Numbers of thermostats in chain and in barostat
run 10000          # run for 10000 steps
Per MPI rank memory allocation (min/avg/max) = 3.642 | 3.644 | 3.648 Mbytes
Step Temp E_pair E_mol TotEng Press Volume 
       0          2.4   -4.3445498            0  -0.74544977   -3.8717164         4000 
    1000    2.4212592   -4.0428751            0  -0.41189426    5.5404114    3635.1385 
    2000    2.4397005   -4.0576487            0  -0.39901275    5.8002257    3614.1291 
    3000    2.3822194   -4.0032039            0  -0.43076811    6.0123327    3606.4759 
    4000    2.4053212   -4.0131662            0  -0.40608646    5.6529294    3638.6781 
    5000    2.3459341   -3.9816851            0  -0.46366364    5.6701313    3649.8183 
    6000    2.4330133   -3.9715919            0  -0.32298433    5.8727532    3639.8637 
    7000    2.4173872   -4.0918775            0  -0.46670312    5.8095972    3584.1399 
    8000    2.4563234   -4.0624813            0  -0.37891733    5.7641948    3607.5698 
    9000    2.4031805   -4.0419518            0  -0.43808225    5.5831412    3640.9165 
   10000    2.3393088   -4.0423238            0   -0.5342378     5.707975    3617.3875 
Loop time of 2.69121 on 48 procs for 10000 steps with 4000 atoms

Performance: 642090.635 tau/day, 3715.802 timesteps/s
99.6% CPU use with 48 MPI tasks x no OpenMP threads

MPI task timing breakdown:
Section |  min time  |  avg time  |  max time  |%varavg| %total
---------------------------------------------------------------
Pair    | 1.2364     | 1.2786     | 1.3464     |   2.4 | 47.51
Neigh   | 0.22055    | 0.2259     | 0.23313    |   0.7 |  8.39
Comm    | 0.83492    | 0.90419    | 0.9667     |   3.2 | 33.60
Output  | 0.00025509 | 0.0002724  | 0.00035205 |   0.0 |  0.01
Modify  | 0.23669    | 0.26649    | 0.29402    |   2.4 |  9.90
Other   |            | 0.01577    |            |       |  0.59

Nlocal:        83.3333 ave          92 max          76 min
Histogram: 3 4 7 8 3 6 12 0 3 2
Nghost:        1759.33 ave        1788 max        1724 min
Histogram: 2 0 3 7 6 8 11 5 4 2
Neighs:        10549.4 ave       12160 max        9428 min
Histogram: 2 9 2 9 14 6 1 3 1 1

Total # of neighbors = 506373
Ave neighs/atom = 126.59325
Neighbor list builds = 908
Dangerous builds = 204

# Equilibrate just above the melting temperature to avoid step fn in T

fix 1 all npt temp 1.25 1.25 0.1 iso 5.68 5.68 0.5 mtk yes tchain 5 pchain 5
run 2000
Per MPI rank memory allocation (min/avg/max) = 3.644 | 3.646 | 3.650 Mbytes
Step Temp E_pair E_mol TotEng Press Volume 
   10000    2.3393088   -4.0423238            0   -0.5342378     5.707975    3617.3875 
   11000    1.2322389   -5.8684335            0   -4.0205372    5.9235412    2778.1232 
   12000    1.2494242    -5.961143            0   -4.0874752    5.2989611    2774.7006 
Loop time of 0.683194 on 48 procs for 2000 steps with 4000 atoms

Performance: 505859.179 tau/day, 2927.426 timesteps/s
99.6% CPU use with 48 MPI tasks x no OpenMP threads

MPI task timing breakdown:
Section |  min time  |  avg time  |  max time  |%varavg| %total
---------------------------------------------------------------
Pair    | 0.30936    | 0.33103    | 0.38305    |   2.5 | 48.45
Neigh   | 0.042633   | 0.045269   | 0.052186   |   0.8 |  6.63
Comm    | 0.19974    | 0.25535    | 0.28397    |   3.2 | 37.38
Output  | 5.2814e-05 | 5.4749e-05 | 7.1603e-05 |   0.0 |  0.01
Modify  | 0.039278   | 0.046498   | 0.052355   |   1.9 |  6.81
Other   |            | 0.004992   |            |       |  0.73

Nlocal:        83.3333 ave          90 max          77 min
Histogram: 1 3 6 8 4 8 13 2 1 2
Nghost:        2103.04 ave        2126 max        2081 min
Histogram: 4 3 3 6 8 5 10 5 3 1
Neighs:        13764.3 ave       15219 max       12391 min
Histogram: 3 3 4 7 10 6 7 5 1 2

Total # of neighbors = 660687
Ave neighs/atom = 165.17175
Neighbor list builds = 145
Dangerous builds = 12

#############################
# L I N E A R  Q U E N C H  #
#############################

# Define solid atoms. This closely follows ten Wolde  Ruiz-Montero and Frenkel  Faraday Discuss  1996  104  93-110
# Compute components of the per-atom q6 vector
compute q6 all orientorder/atom degrees 1 6 components 6 nnn NULL cutoff 1.3 # compute the Q6 parameter.
                                                                             # Use all neighbours within 1.3 unit cell.

# get number of connections
compute coord_number all coord/atom orientorder q6 0.5

# An atom is solid if it has 8 or more connections (of a possible 14)
variable is_solid atom c_coord_number>=8
group solid dynamic all var is_solid    # Must be dynamic to update
dynamic group solid defined

# do clustering
compute cluster solid cluster/atom 1.3 # Create a cluster where all atoms within are solid and max 1.3 units from another member

# define chunks one chunk per cluster
compute clus_chunks solid chunk/atom c_cluster nchunk every compress yes  # Says which atoms are in which chunk

# count the size of each chunk
compute size_chunks solid property/chunk clus_chunks count


# Find the maximum entry in the vector of chunk sizes
variable max_n equal max(c_size_chunks)


# Thermo style which includes this variable
# thermo_style custom step temp pe vol v_max_n

thermo ${N}  # Print the thermo information every 100 steps
thermo 1000  

# Reset the npt fix at a lower temperature (below freezing)
fix 1  all npt temp  ${temp} ${temp}  0.1  iso  5.68  5.68  0.5  mtk yes tchain  5  pchain  5
fix 1  all npt temp  0.45 ${temp}  0.1  iso  5.68  5.68  0.5  mtk yes tchain  5  pchain  5
fix 1  all npt temp  0.45 0.45  0.1  iso  5.68  5.68  0.5  mtk yes tchain  5  pchain  5

dump dmp2 all dcd ${N} traj.dcd
dump dmp2 all dcd 1000 traj.dcd


compute msd all msd com yes
variable twopoint equal c_msd[4]/6/(step*dt+1.0e-6)
fix 9 all vector 10 c_msd[4]
variable fit equal slope(f_9)/6/(10*dt)
thermo_style custom step temp pe c_msd[4] v_twopoint v_fit v_max_n

fix 1 all npt temp 1.25 ${temp} 0.1 iso 5.68 5.68 0.5 mtk yes tchain 5 pchain 5
fix 1 all npt temp 1.25 0.45 0.1 iso 5.68 5.68 0.5 mtk yes tchain 5 pchain 5
run 5000000 # 5000000  # Run for this many steps
Neighbor list info ...
  update every 1 steps, delay 10 steps, check yes
  max neighbors/atom: 2000, page size: 100000
  master list distance cutoff = 3.8
  ghost atom cutoff = 3.8
  binsize = 1.9, bins = 8 8 8
  4 neighbor lists, perpetual/occasional/extra = 1 3 0
  (1) pair lj/cut, perpetual
      attributes: half, newton on
      pair build: half/bin/atomonly/newton
      stencil: half/bin/3d
      bin: standard
  (2) compute orientorder/atom, occasional
      attributes: full, newton on
      pair build: full/bin/atomonly
      stencil: full/bin/3d
      bin: standard
  (3) compute coord/atom, occasional
      attributes: full, newton on
      pair build: full/bin/atomonly
      stencil: full/bin/3d
      bin: standard
  (4) compute cluster/atom, occasional
      attributes: full, newton on
      pair build: full/bin/atomonly
      stencil: full/bin/3d
      bin: standard
Per MPI rank memory allocation (min/avg/max) = 9.844 | 9.851 | 9.856 Mbytes
Step Temp PotEng c_msd[4] v_twopoint v_fit v_max_n 
   12000    1.2494242    -5.961143 1.8039277e-30 1.2527275e-32 8.3333333e+20            1 
   13000    1.1898725   -5.9608884    0.5488148 0.0035180435  0.044874291            3 
   14000     1.227405   -5.9879686    1.0963523 0.0065259065   0.04510267            2 
   15000    1.2530017   -5.9864961    1.6272396 0.0090402196  0.044989805            1 
   16000    1.2518758   -5.9991295    2.1708301  0.011306406  0.044844916            2 
   17000    1.2568926   -6.0161259    2.7306397  0.013385488  0.045021809            3 
   18000    1.2572378   -5.9701615    3.3706383  0.015604806   0.04584905            2 
   19000    1.2710083   -6.0192162     3.806027  0.016693101  0.045930087            2 
   20000    1.2511907   -5.9680742    4.3558839  0.018149516  0.045609852            3 
   21000    1.2430631   -5.9548194    4.8566044  0.019272239   0.04534631            2 
   22000    1.2337205   -5.9912382    5.5129618  0.020882431  0.045285904            4 
   23000     1.244014   -5.9936156    6.1745443  0.022371537  0.045741584            2 
   24000     1.260069   -5.9342517    6.6869164  0.023218459   0.04619612            2 
   25000    1.2418208   -5.9776019    7.1177806  0.023725935  0.046109216            2 
   26000    1.2453482   -6.0218538    7.6785554  0.024610754  0.046077601            2 
   27000    1.2220226   -6.0160524    8.2301789  0.025401786  0.045966065            5 
   28000    1.2428877   -5.9660787    8.7681004  0.026095536  0.045916358            2 
   29000    1.2475536   -6.0129175    9.2713773  0.026641888  0.045793058            3 
   30000    1.2559588   -5.9974309    9.7835492  0.027176525  0.045692615            3 
   31000    1.2310567   -5.9684095    10.303557  0.027697734  0.045598428            1 
   32000    1.2398737   -6.0129442    10.770943  0.028049331  0.045430089            2 
   33000    1.2313867    -6.008804    11.388875  0.028759784  0.045295592            3 
   34000    1.2513641   -5.9979537    11.998057  0.029407001  0.045289262            3 
   35000    1.2492167   -6.0273442    12.523562  0.029818004  0.045296802            3 
   36000    1.2397142   -6.0052228     13.05405  0.030217707  0.045276172            1 
   37000    1.2001512   -5.9895006    13.537126  0.030489023  0.045250619            1 
   38000    1.2445125   -5.9620825    13.973718  0.030644118  0.045172806            2 
   39000    1.2301886   -5.9849056    14.509113  0.031002378  0.045049583            3 
   40000    1.2441685    -5.997576     15.02402  0.031300041  0.044970226            2 
   41000    1.2362634   -5.9935877    15.571894   0.03165019  0.044877772            1 
   42000    1.2323189   -5.9697298    16.090867  0.031926323  0.044786443            1 
   43000    1.2379302   -6.0055866    16.566026  0.032104702  0.044720635            2 
   44000    1.2545633   -6.0131213    17.079395  0.032347339  0.044623644            4 
   45000    1.2332447   -5.9606481    17.569265  0.032535676   0.04454567            4 
   46000    1.2116854   -5.9971264    18.166087  0.032909578  0.044489545            3 
   47000    1.2542453   -5.9856409    18.738702  0.033224649  0.044438367            3 
   48000    1.2425029   -6.0118294    19.398173  0.033677383  0.044426512            3 
   49000    1.2533278   -6.0150952    20.092751  0.034171344  0.044459433            3 
   50000    1.1997679   -5.9912304    20.568525  0.034280875  0.044510384            5 
   51000    1.2563536   -6.0165805     21.10235  0.034480963   0.04456176            1 
   52000    1.2338982   -5.9991813    21.616386  0.034641645  0.044613531            3 
   53000    1.2316061   -5.9976741    22.012884  0.034611452  0.044632158            2 
   54000    1.2906847   -5.9851163    22.588245  0.034858403  0.044623825            3 
   55000    1.2493174    -6.027348    23.106233  0.035009444  0.044630177            1 
   56000    1.2699888   -6.0060248    23.695033  0.035260465  0.044651153            3 
   57000    1.2591849    -5.970114    24.094652  0.035226099  0.044651063            2 
   58000     1.240686   -5.9873348    24.553623  0.035278193  0.044626398            1 
   59000    1.2690082   -6.0247499    25.026646   0.03534837  0.044571663            3 
   60000    1.2512931   -6.0117013    25.443391  0.035338042  0.044523266            5 
   61000    1.2395615   -6.0279155    26.129189  0.035695614  0.044482805            3 
   62000    1.2559496   -5.9919548    26.801158  0.036023061  0.044479527            3 
   63000    1.2462682   -6.0118067    27.326218   0.03614579   0.04447058            4 
   64000    1.2154681   -5.9737343    28.080635  0.036563326   0.04448721            1 
   65000    1.2509355   -6.0440765    28.558733  0.036613759   0.04451404            1 
   66000    1.2322869   -6.0673273    29.168023  0.036828311  0.044540928            2 
   67000    1.2403122   -6.0365096    29.798254  0.037062504  0.044576637            2 
   68000    1.2439116   -6.0011498    30.307707  0.037141797  0.044611646            1 
   69000    1.2334688   -6.0325941    30.805161  0.037204301  0.044644734            3 
   70000    1.2422932   -5.9741947     31.52758  0.037532833   0.04467482            2 
   71000    1.2818664   -6.0159513     31.83494  0.037364953  0.044701821            2 
   72000    1.2319227    -5.999893    32.639221  0.037776876  0.044737353            3 
   73000    1.2176263   -6.0374901    33.046982  0.037724865  0.044771585            3 
   74000     1.236127   -5.9511123    33.589004  0.037825455  0.044798563            2 
   75000    1.2438713   -6.0339784    34.037172  0.037819079  0.044826679            3 
   76000    1.2428624   -6.0014993    34.502132  0.037831285  0.044839314            2 
   77000    1.2412446   -6.0090587    35.232822  0.038130759  0.044861313            4 
   78000    1.2335226   -6.0164705    35.591105  0.038024685  0.044868419            2 
   79000    1.2703151   -6.0474018    36.043274  0.038020331  0.044878627            3 
   80000     1.212424   -6.0168439    36.741458  0.038272352  0.044883201            1 
   81000    1.2524657    -6.030721    37.122901  0.038192285   0.04489296            5 
   82000    1.2322957   -5.9848719    37.497403  0.038107117  0.044883883            2 
   83000    1.2331661   -5.9962621    38.061019  0.038213875  0.044869685            3 
   84000    1.2438829   -6.0258332    38.521443  0.038215717  0.044841978            2 
   85000    1.2518044   -6.0217335    39.172326  0.038404241  0.044820738            1 
   86000     1.250929   -6.0229235    39.567376  0.038340481   0.04479921            2 
   87000    1.2419823   -6.0412847    40.296555  0.038598233  0.044781972            3 
   88000    1.2254154   -6.0185736     40.90668  0.038737386  0.044785557            6 
   89000    1.2332393   -6.0192311    41.400428  0.038764445  0.044780593            4 
   90000    1.2345797   -6.0182159    41.696856    0.0386082  0.044761072            3 
   91000    1.2653122   -6.0175811    41.991106  0.038453393  0.044727409            3 
   92000    1.2407675   -5.9814524    42.520238  0.038514708  0.044692864            3 
   93000    1.2156311    -6.000805    43.037789  0.038564327  0.044657146            1 
   94000    1.2539865   -6.0112564    43.540113  0.038599391  0.044617089            1 
   95000    1.2124866   -5.9806446    44.195385  0.038767881  0.044583644            2 
   96000    1.2632043   -6.0500625    44.767846  0.038860977  0.044562773            1 
   97000    1.2628557   -5.9801818    45.419873  0.039020509  0.044548365            3 
   98000     1.208925   -5.9727645    45.890049   0.03902215  0.044538192            2 
   99000     1.231635   -6.0355801     46.13691  0.038835782  0.044514161            2 
  100000    1.2230455   -6.0250456    46.678936  0.038899113  0.044485654            4 
  101000    1.2186832   -6.0295895    47.179181  0.038926717  0.044458624            2 
  102000    1.2346774   -6.0183659    47.687849  0.038960661  0.044435022            2 
  103000    1.2444085   -6.0335438    48.516263   0.03925264  0.044413687            2 
  104000    1.2317744   -6.0253844    48.931029  0.039207555  0.044387828            3 
  105000    1.2395382   -6.0331826    49.428947  0.039229323  0.044371663            5 
  106000    1.2502132   -6.0348034    49.852525  0.039192236  0.044354381            4 
  107000    1.2309958   -5.9919282    50.455557  0.039295605  0.044338627            2 
  108000    1.2346805   -6.0341252    50.921845  0.039291547  0.044327248            2 
  109000     1.197861   -6.0174193    51.517109  0.039386169  0.044304394            3 
  110000    1.2360105   -6.0177539     51.94436  0.039351788  0.044289171            6 
  111000    1.2580771   -6.0289411    52.382302  0.039326052  0.044271734            8 
  112000    1.2225954   -6.0310818    52.804371  0.039288966  0.044249751            2 
  113000    1.2251334     -6.07006    53.125191  0.039177869  0.044218285            4 
  114000    1.2588774   -6.0237312    53.737093    0.0392815  0.044187457            2 
  115000    1.2410124   -6.0330944    54.301487  0.039348904  0.044160503            2 
  116000    1.2165901   -6.0579215    54.621622  0.039239671  0.044126011            2 
  117000    1.1961324   -6.0616548    54.975303  0.039156198  0.044086484            7 
  118000    1.2079492    -6.054616    55.546023  0.039227417  0.044049749            4 
  119000    1.2607396   -6.0268633    55.919484  0.039159302  0.044008316            2 
  120000    1.2494882   -6.0083509    56.394074  0.039162551  0.043960706            2 
  121000    1.2145157   -6.0147196    56.682519  0.039037547  0.043908124            3 
  122000    1.2271475   -6.0010481    57.027336  0.038953099  0.043860589            2 
  123000    1.2359941   -5.9949344    57.759321  0.039132331  0.043806537            2 
  124000    1.2407711    -5.993282    58.100556  0.039046072  0.043760503            2 
  125000    1.2237921   -6.0505288    58.285432  0.038856955  0.043705473            2 
  126000    1.1929175   -6.0458318    58.751082  0.038856535  0.043648977            2 
  127000    1.2286137   -6.0072979    59.391476  0.038970784  0.043593213            4 
  128000    1.2456116   -6.0337904    60.011786  0.039070173  0.043547842            3 
  129000    1.2038104   -6.0249442    60.461695  0.039057942  0.043502041            2 
  130000    1.2255596   -6.0716768    60.803401  0.038976539  0.043457744            2 
  131000    1.2453546   -6.0353401    61.546412  0.039151661  0.043415254            4 
  132000    1.2312052   -6.0603529    61.808535  0.039020539  0.043372029            4 
  133000    1.2136445   -6.0187116    62.619702  0.039235402  0.043330827            2 
  134000    1.2335473   -6.0305551    62.869922   0.03909821  0.043289799            2 
  135000     1.244771   -6.0087882    63.345881  0.039102396  0.043246775            2 
  136000    1.2583214   -6.0495944    63.816645  0.039103337  0.043205115            2 
  137000    1.2312402   -6.0416421    64.400922   0.03917331  0.043167624            2 
  138000    1.2255521   -6.0634606     65.06126    0.0392882  0.043141256            1 
  139000    1.2167725    -6.071294    65.624505  0.039343228  0.043118224            2 
  140000    1.2102678   -6.0100337     66.29528  0.039461476  0.043092859            2 
  141000    1.2352834   -6.0320674    66.760547  0.039456588  0.043069167            3 
  142000    1.2216132   -6.0058805    67.311345  0.039501963  0.043047536            3 
  143000    1.2268884   -6.0546946    68.011086    0.0396335  0.043029339            3 
  144000    1.2351415   -6.0442584    68.489258  0.039634987  0.043014802            1 
  145000    1.2446869   -6.0548375    69.026773  0.039670559  0.043000055            3 
  146000    1.2257799   -6.0389951    69.420149  0.039623373  0.042985901            3 
  147000     1.225431   -6.0551859    70.120946  0.039751103  0.042973642            2 
  148000    1.2325828   -6.0226443    70.589797  0.039746507   0.04296374            3 
  149000    1.2215503   -6.0664805    71.043815  0.039733677  0.042956391            3 
  150000    1.2245372   -6.0154804    71.430123  0.039683402  0.042943063            3 
  151000    1.1991795   -6.1026755    71.643564   0.03953839  0.042925855            6 
  152000    1.2163774   -5.9776345     72.74558  0.039882445  0.042909244            3 
  153000    1.2379677   -6.0183929     73.25433  0.039898873  0.042902175            2 
  154000    1.2235232   -6.0820981    73.170416  0.039594381   0.04288976            3 
  155000    1.2304231   -6.0284445    73.957657  0.039762181  0.042875223            2 
  156000     1.205894   -6.0500142    74.266541  0.039672297  0.042860999            2 
  157000    1.2027913   -6.0333279    74.789667  0.039697275  0.042840832            4 
  158000    1.2315032   -6.0333997    75.360624  0.039747165  0.042821412            2 
  159000    1.2352063   -6.0163924    75.728715  0.039690102  0.042805694            3 
  160000    1.2238763   -6.0447539    76.381572  0.039782069  0.042793868            4 
  161000     1.242363    -6.073532    76.428768  0.039559404   0.04277832            3 
  162000    1.2460496   -6.0200407    77.487293  0.039859718  0.042762381            1 
  163000    1.2517381   -6.0494472    77.943556  0.039848443  0.042747431            1 
  164000    1.2252071   -6.0123227    78.395012  0.039834864  0.042737147            2 
  165000    1.2504147   -6.0058773    79.060568   0.03992958   0.04272761            2 
  166000    1.2289961   -6.0885574      78.9515  0.039634287  0.042714818            2 
  167000    1.2367307   -6.0072017    80.286818  0.040063282  0.042705949            6 
  168000    1.2247452   -6.0465428    80.426246  0.039893971  0.042696301            1 
  169000    1.2445715   -6.0402455    80.771832  0.039828319  0.042684222            3 
  170000    1.2095969   -6.0675047    80.925378  0.039669303  0.042674016            2 
  171000    1.2436697   -6.0874416    81.998331    0.0399602    0.0426625            5 
  172000     1.212372   -6.0455558    82.993055  0.040209814  0.042656049            3 
  173000     1.217392   -6.0294214    83.087743  0.040022998  0.042645645            3 
  174000    1.2224015   -6.0566702    83.588076  0.040032603  0.042638847            2 
  175000    1.2081327   -6.0407712    84.213338  0.040101589   0.04263259            2 
  176000     1.189727   -6.0118884    85.221761  0.040351213  0.042629155            1 
  177000    1.2064495   -6.0641161    85.439693  0.040225844   0.04262705            2 
  178000    1.2189916   -6.0328392    86.216298  0.040363435  0.042624389            1 
  179000    1.2341145    -6.050689    86.144912  0.040104707  0.042623381            4 
  180000     1.232732   -6.0423829    86.841829   0.04020455  0.042622239            2 
  181000    1.2328549   -6.0871301     86.98818  0.040049807  0.042619087            3 
  182000     1.212805   -6.0360889    87.850393  0.040224539   0.04262032            1 
  183000    1.2624578    -6.043533    88.521045   0.04031013   0.04261851            4 
  184000    1.2484444   -6.0462041    88.844064  0.040237348  0.042612916            2 
  185000       1.2224    -6.029748    89.336417  0.040241629  0.042606589            1 
  186000    1.2154548    -6.031081    89.915944  0.040284921  0.042601989            3 
  187000    1.2144092   -6.1110943    89.804632  0.040019889  0.042597541            1 
  188000    1.2490533   -6.0612915    90.190924  0.039978246  0.042588697            1 
  189000    1.2230405   -6.1027389    90.482838  0.039895431  0.042577535            2 
  190000    1.2196088   -6.0464256    91.756458   0.04024406  0.042567332            2 
  191000    1.2303211   -6.0762146    92.258832  0.040252544  0.042560062            5 
  192000    1.2136861   -6.0415007    92.562912  0.040174875   0.04255339            2 
  193000    1.2271586   -6.0957631    93.309807  0.040289209  0.042546673            2 
  194000    1.2266922   -6.0635226    93.551989  0.040185562  0.042540631            2 
  195000    1.1875758   -6.0019618    94.291249  0.040295405  0.042535056            3 
  196000    1.2240796   -6.0593803    94.660757  0.040246921   0.04253238            1 
  197000     1.215719    -6.076227    94.990528  0.040182118  0.042526194            2 
  198000     1.223376   -6.0449237    95.612991  0.040241158  0.042522053            2 
  199000    1.1966098   -6.0411318    96.487982  0.040405352   0.04251851            1 
  200000    1.2072929   -6.0691995    96.594083  0.040247534  0.042514832            4 
  201000    1.2550676   -6.0907357     96.99054  0.040211667  0.042507466            2 
  202000    1.2039474   -6.0703619    97.338543  0.040156165  0.042500126            2 
  203000    1.2336223   -5.9983666    98.090489  0.040267031  0.042493024            2 
  204000    1.2152985   -6.0476288    98.272896  0.040144157  0.042483561            2 
  205000    1.2148792    -6.025261    99.145281   0.04030296  0.042477827            4 
  206000     1.181211   -6.0576714    99.895287  0.040410715  0.042471014            4 
  207000    1.1895722   -6.0688011    100.37952  0.040410434  0.042464012            2 
  208000    1.2161617    -6.070226    100.66319  0.040329805  0.042458669            3 
  209000    1.2325321   -6.0850801    101.30005  0.040390768  0.042454551            3 
  210000     1.223877   -6.0953594     101.2927  0.040195516  0.042450642            2 
  211000    1.2035533   -6.0302165    102.36692  0.040429273  0.042446741            2 
  212000    1.2289193    -6.072715    102.74195  0.040385988  0.042444343            3 
  213000    1.1937165   -6.0632197    103.25228  0.040396042  0.042442147            4 
  214000    1.1994703   -6.1021195    103.48781  0.040298992  0.042440823            2 
  215000    1.2210785   -6.0474869     104.4136  0.040470387  0.042436773            1 
  216000    1.2090114   -6.0921437    104.53325  0.040329186  0.042430361            2 
  217000    1.2198025   -6.0999844    104.64435  0.040186002  0.042421998            2 
  218000    1.2145255   -6.0429389    105.86871   0.04046969  0.042416848            2 
  219000     1.219962   -6.1156446    106.17763  0.040402446  0.042413874            3 
  220000     1.239017   -6.0876319     106.9043  0.040494053  0.042413637           11 
  221000    1.2084697   -6.0928864    107.36745  0.040485462  0.042415583            6 
  222000     1.217823   -6.0564538    107.87968  0.040495375  0.042413463            2 
  223000    1.2278855   -6.0759607     108.5171  0.040551982  0.042410641            2 
  224000    1.2186234     -6.07891    108.48986  0.040360811  0.042406277            3 
  225000    1.2395963   -6.0285486    109.56305  0.040578907  0.042403261            2 
  226000     1.211177   -6.0964736    109.34122  0.040317558  0.042400704            5 
  227000    1.2252252   -6.0804543    110.38659  0.040523713  0.042396624            2 
  228000     1.209639   -6.0673824    110.57287  0.040414062  0.042391841            2 
  229000    1.2072322   -6.0343139    111.50593  0.040577121  0.042386246            5 
  230000    1.2296581   -6.0032497    111.84418  0.040523254  0.042383349            4 
  231000    1.1754383   -6.0773654    111.93378  0.040380153  0.042378371            5 
  232000    1.1994516   -6.0958593    111.88671   0.04018919  0.042368107            3 
  233000    1.2203028   -6.0165199    112.81647  0.040349239  0.042357913            6 
  234000    1.2027237   -6.0725831     113.0764  0.040269373   0.04234851            2 
  235000    1.2225146   -6.0564671    114.19105   0.04049328  0.042338008            3 
  236000    1.1990986   -6.0561909    114.44793  0.040412405  0.042330804            5 
  237000    1.2031316   -6.0554027    114.39704  0.040223994  0.042322598            3 
  238000    1.2096927   -6.1085095    114.83001  0.040206585  0.042314009            2 
  239000    1.2020152   -6.0106061    115.93506  0.040423661  0.042307242            3 
  240000    1.2347526   -6.0917867    115.93965  0.040256821  0.042300879            4 
  241000    1.1903519   -6.0583943    116.67626  0.040344488   0.04229321            2 
  242000    1.2166226   -6.0624457     117.5199  0.040468284  0.042282699            3 
  243000     1.215393   -6.0589111    117.79237  0.040395187  0.042276626            3 
  244000    1.1885276   -6.0957918    117.66076  0.040184685  0.042267165            3 
  245000    1.2191125   -6.1167238    118.49313  0.040303785    0.0422574            2 
  246000    1.2084075   -6.0744959    119.23144  0.040390053  0.042249612            3 
  247000    1.2002502   -6.0997732    119.84759  0.040434411  0.042241795            2 
  248000    1.1840285    -6.084021    119.97338  0.040313637  0.042234541            2 
  249000    1.2182284   -6.0907153    120.08643  0.040189567  0.042225949            3 
  250000     1.196861   -6.0697096    120.32762  0.040109206  0.042216297            4 
  251000    1.2365399   -6.0877479    121.14335  0.040220235  0.042205879            7 
  252000    1.2100187   -6.0688692    121.79758  0.040276977  0.042196817            3 
  253000    1.2392178   -6.1080098    121.78732    0.0401144  0.042187218            1 
  254000     1.229508   -6.0244059    122.46328  0.040178242   0.04217629            2 
  255000    1.2201508   -6.0902741    123.01598  0.040201302  0.042166536            2 
  256000    1.2124469   -6.0719985    123.86948  0.040322098   0.04215644            2 
  257000    1.2102674    -6.097161    124.00195  0.040208156  0.042149678            3 
  258000    1.2255323   -6.0612843    125.04498  0.040389206  0.042142889            3 
  259000    1.2138969   -6.0440702     125.2385  0.040295527  0.042134975            5 
  260000    1.2228178   -6.0541948    125.89082  0.040349623  0.042124325            2 
  261000    1.2354905   -6.1003576     125.1939  0.039972509  0.042111914            1 
  262000    1.1878962   -6.0854604    126.06932  0.040098385  0.042099691            4 
  263000    1.1975018   -6.1049409    126.93189  0.040219231  0.042087003            4 
  264000    1.1945772   -6.1102602    126.93836  0.040068927  0.042074859            2 
  265000    1.2434668   -6.1383703      126.831  0.039883962  0.042061155            2 
  266000    1.1839776   -6.0362351    128.59394  0.040286321  0.042048055            3 
  267000    1.1982291   -6.0567159    128.87399  0.040222842  0.042035619            1 
  268000     1.195421   -6.0760883    129.05799  0.040129971  0.042023149            2 
  269000    1.1730093   -6.0857469    129.44838  0.040101729  0.042009674            7 
  270000     1.221069    -6.118688    129.90228  0.040093297  0.041995879            2 
  271000    1.1963858   -6.1025128    130.25764  0.040054626  0.041983268            4 
  272000    1.2141316   -6.0435989     130.6746  0.040035109  0.041969047            3 
  273000     1.224561   -6.1059619     130.4988  0.039834798    0.0419528            4 
  274000    1.2073439   -6.1184458    130.82745   0.03978937  0.041936833            2 
  275000    1.2222503    -6.098284    131.25482  0.039774189  0.041920669            3 
  276000    1.2072851   -6.0769692    132.11919   0.03989106  0.041903199            2 
  277000    1.1942155   -6.1135873    132.20539  0.039772981  0.041885234            2 
  278000    1.2108279   -6.1124871    132.47279   0.03971007  0.041867658            4 
  279000    1.1973977   -6.0760202    133.50026  0.039874631  0.041849303            2 
  280000    1.1735262   -6.0654653    133.69332   0.03978968  0.041832815            3 
  281000    1.1909789   -6.1187232    133.38131  0.039555549  0.041815526            4 
  282000     1.215274   -6.1063932    134.84651  0.039848261  0.041798048            2 
  283000    1.1986771   -6.0798434    135.46732   0.03989026  0.041780514            1 
  284000    1.2167184   -6.1263707    135.77467  0.039839985  0.041765577            2 
  285000    1.1995407   -6.1106531    136.41896  0.039888586  0.041751233            3 
  286000    1.2043749   -6.0838419    137.06679  0.039937875  0.041738884            3 
  287000    1.1894186   -6.1040936    137.71903  0.039988105  0.041726293            3 
  288000    1.1916588   -6.1124381    137.91132  0.039904895    0.0417133            1 
  289000    1.2160072   -6.0630909    138.43115  0.039916709  0.041700068            5 
  290000    1.2076489   -6.1379099    138.95608  0.039929909  0.041687598            2 
  291000     1.207593    -6.052588    139.86789  0.040053806  0.041675612            2 
  292000    1.2026663   -6.1008418    139.77623  0.039890477  0.041663982            2 
  293000    1.2102053   -6.1116699    140.00872  0.039820455  0.041649589            3 
  294000    1.1672286   -6.0763757    140.96058  0.039954812  0.041638087            1 
  295000    1.2252422   -6.0660401    141.58102  0.039994639  0.041625717            2 
  296000    1.1622189   -6.0823091    141.70178   0.03989352  0.041612701            7 
  297000    1.2112503   -6.1155877    142.57343  0.040003767  0.041600424            4 
  298000    1.2020263    -6.130465    142.38814  0.039817712  0.041587631            3 
  299000    1.2123256   -6.1196398    142.59807  0.039743051  0.041574238            3 
  300000    1.2107152   -6.1204134    142.97493  0.039715259   0.04155864            3 
  301000    1.2193083   -6.0861662     144.1996   0.03992237   0.04154314            2 
  302000    1.2016874   -6.0916049    144.50864  0.039875451  0.041531377            1 
  303000     1.205939   -6.1313131    144.26666  0.039677299  0.041518947            4 
  304000     1.208335   -6.0974449    144.95191  0.039734624  0.041505878            2 
  305000    1.2210238   -6.1015743    145.74537  0.039821141  0.041493148            3 
  306000     1.194262   -6.1260473    146.46163  0.039886066  0.041481197            2 
  307000    1.2207476   -6.1152117    147.06273  0.039919308  0.041470541            4 
  308000    1.2027255   -6.0779887    148.04863  0.040056449   0.04146033            2 
  309000    1.2127034   -6.0920184    147.91284  0.039890194  0.041451165            3 
  310000    1.1829237   -6.0823648    149.13507  0.040090073   0.04144168            4 
  311000    1.1936253   -6.0961686    148.81051    0.0398742  0.041433167            1 
  312000    1.1996072   -6.1318686    149.66297  0.039974084  0.041423022            1 
  313000    1.1982798   -6.1087057    149.51331  0.039806526  0.041413081            2 
  314000    1.2066704   -6.0929888    150.65299  0.039982217  0.041403161            1 
  315000    1.2252511     -6.12747    150.69176  0.039865546  0.041390402            3 
  316000    1.1961375   -6.1122643    151.91108  0.040060938  0.041377865            3 
  317000    1.1783226   -6.1014799    151.28239  0.039769292  0.041365199            2 
  318000    1.1986368   -6.1540354    151.12375  0.039602661  0.041351522            2 
  319000    1.1991093   -6.1180593    152.23843  0.039769704   0.04133747            2 
  320000    1.1873394    -6.127379    151.22744  0.039382145   0.04132389            2 
  321000     1.187234   -6.1020564    153.15121   0.03975888   0.04130787            2 
  322000    1.1549544   -6.1204535    152.62216  0.039498489  0.041292709            6 
  323000     1.195207   -6.1191886    153.49378  0.039601078  0.041275626            2 
  324000    1.2377749   -6.1084615    153.54743  0.039492651  0.041259082            3 
  325000    1.2129417   -6.1111413    154.00089  0.039487406  0.041243415            2 
  326000    1.1896231   -6.1149089    154.74263  0.039555887  0.041227852            2 
  327000    1.1969254     -6.09424    155.36685  0.039593998  0.041211508            1 
  328000    1.1957133   -6.1301803    155.83714  0.039592769  0.041195566            2 
  329000     1.194977    -6.074037     156.5187  0.039645061  0.041180432            2 
  330000    1.2131906    -6.110352    156.27736  0.039463979   0.04116652            3 
  331000    1.1831764   -6.1482737     156.6136  0.039429406  0.041150866            5 
  332000    1.1854897    -6.164525    156.88923  0.039379826  0.041136151            3 
  333000    1.1910704   -6.0713239    158.00928  0.039541862  0.041121411            3 
  334000    1.2035659    -6.102846    157.84679  0.039382932  0.041106557            3 
  335000       1.2036   -6.1157415    158.25546   0.03936703  0.041090036            1 
  336000    1.2032614   -6.1199898    158.91905  0.039414446  0.041072638            2 
  337000    1.2068776   -6.1177138    159.17919  0.039361818  0.041055125            2 
  338000    1.1840238   -6.0744014    160.09572  0.039471331  0.041038796            2 
  339000    1.2109642   -6.0768485    160.29542  0.039403988  0.041021315           10 
  340000    1.1971278   -6.1532619    160.29354  0.039287632  0.041004018            3 
  341000    1.2155448   -6.1566936     160.4581  0.039212633  0.040987311            7 
  342000    1.1721444   -6.0813344    162.41903  0.039575788  0.040970896            4 
  343000    1.1974775   -6.1262108    161.28236  0.039184246  0.040955322            3 
  344000    1.2124487   -6.1110864    162.00762  0.039246032  0.040938392            2 
  345000    1.2024232   -6.0816945    163.43305  0.039476583  0.040922749            3 
  346000    1.1965077   -6.0951777    163.63667  0.039411529  0.040907959            2 
  347000    1.2005562   -6.1068701     164.1328    0.0394171  0.040892512            4 
  348000    1.1940115    -6.116798    164.54742  0.039403118  0.040878222            1 
  349000    1.2069712   -6.1194045    164.55516  0.039292062   0.04086339            4 
  350000    1.2101115   -6.1093322    165.35929  0.039371258   0.04084941            2 
  351000    1.2019936   -6.1002334    166.15676  0.039448425  0.040835943           10 
  352000    1.2052902   -6.1262136    166.69389  0.039463517  0.040822099            5 
  353000    1.2134542   -6.0925915    167.14928  0.039459225  0.040809577            2 
  354000    1.2162143   -6.1435298    167.40923  0.039408952  0.040796371            2 
  355000    1.1870075   -6.0998438    168.54541  0.039564651  0.040783351            1 
  356000    1.1981033   -6.1144346    168.34096  0.039405657  0.040771755            2 
  357000    1.2003488   -6.1418417    169.31652  0.039522997  0.040759983            2 
  358000    1.1899173   -6.1093584    169.97513  0.039565904   0.04074885            2 
  359000    1.1910933   -6.1012487    170.34548  0.039541663   0.04073878            3 
  360000    1.1803696   -6.1521516    169.73128  0.039289649  0.040727368            3 
  361000    1.1901103   -6.1195493    171.09627  0.039495907  0.040715465            3 
  362000    1.2025004   -6.1331845    170.57817  0.039267535   0.04070359            4 
  363000    1.2142369   -6.1335429    171.52442  0.039376588  0.040690117            4 
  364000    1.1961603   -6.1280111    171.65613  0.039298564  0.040676769            3 
  365000    1.1898501   -6.0636771    171.90145  0.039246906   0.04066532            2 
  366000    1.2069832   -6.1240881    172.27484  0.039224691  0.040652917            3 
  367000    1.1799239   -6.1167221    172.66053  0.039205388   0.04063897            1 
  368000    1.2113097   -6.1198096    173.24316  0.039230788  0.040624567            2 
  369000    1.1965291   -6.1811138    173.55485  0.039194862  0.040610649            1 
  370000     1.209453   -6.1178778    174.33487   0.03926461  0.040597203            4 
  371000    1.2179584   -6.1174148    174.69715  0.039240151  0.040584485            2 
  372000    1.2046103   -6.1095195    175.19525  0.039246247  0.040571104            4 
  373000    1.1923299    -6.089718    176.03793  0.039329297  0.040558289            1 
  374000    1.1809556   -6.1475762    175.62033   0.03913109  0.040546227            5 
  375000    1.2029605   -6.1174002    177.02596  0.039339101  0.040534524            3 
  376000    1.1895742    -6.142097    176.75125  0.039173592  0.040523109            2 
  377000    1.1611476   -6.0982219    177.83675  0.039309627  0.040510804            4 
  378000     1.197292   -6.1111483    178.70153   0.03939628  0.040499714            2 
  379000    1.1950969   -6.1438821    178.42444  0.039231407  0.040489614            3 
  380000    1.1787856   -6.1373109    179.33839  0.039328595  0.040480303            3 
  381000    1.1760221   -6.1773014    179.87764  0.039343316  0.040470903            2 
  382000    1.1861733   -6.1346854    181.15424  0.039518814  0.040462533            2 
  383000    1.1751033   -6.1400586    180.77895  0.039333976  0.040453931            4 
  384000     1.196405   -6.1366541    181.82992  0.039459617  0.040445693           10 
  385000    1.1727979   -6.0997922    183.42891  0.039703228  0.040438442            3 
  386000    1.1796777   -6.0837765     183.6022   0.03963778  0.040432587            1 
  387000    1.1899507   -6.1610762    183.74221  0.039565507  0.040426904            2 
  388000    1.2177843   -6.1358227    184.05932   0.03953164  0.040420587            4 
  389000    1.1899994   -6.1516922    184.63201  0.039552701  0.040414855            5 
  390000    1.1736488   -6.1430723    184.94481  0.039518123  0.040409311            4 
  391000    1.1741983   -6.1777875    185.63444  0.039564032  0.040403437            6 
  392000    1.1838731   -6.1597794     185.9085  0.039521365   0.04039855            2 
  393000    1.2075596   -6.1151436    187.68836  0.039798209  0.040393468            3 
  394000    1.1977051   -6.0696523     188.4214  0.039852241  0.040389583            3 
  395000    1.1866612   -6.1231734    187.87157  0.039635353  0.040386146            3 
  396000    1.1971313   -6.1223433     188.7672  0.039723736  0.040381118            3 
  397000    1.1896931   -6.1431003    189.25165  0.039725367  0.040375652            2 
  398000    1.1950296   -6.1526375    189.06702  0.039586896  0.040371783            2 
  399000    1.1847235   -6.1146571    190.03468  0.039689783  0.040368574            9 
  400000    1.2024911   -6.1239872    191.26469   0.03984681  0.040365654            3 
  401000    1.1588818   -6.1869699    190.76515  0.039643631  0.040363256            4 
  402000    1.1986401   -6.1122789    191.27454  0.039650608  0.040359923            3 
  403000    1.1843843   -6.1014099    192.36636  0.039777989  0.040355662            2 
  404000    1.1782514   -6.1256538    192.37224  0.039680742  0.040351866            2 
  405000    1.1650239   -6.1468438    192.88815  0.039688919  0.040347451            2 
  406000    1.1737317   -6.1307609    193.76422  0.039770982  0.040344418            2 
  407000     1.199018   -6.1327962    193.97605  0.039716635  0.040341787            4 
  408000    1.1789183   -6.0947473    194.54534  0.039735567  0.040339869            4 
  409000     1.168596   -6.0799639     195.2748  0.039787042  0.040337074            2 
  410000    1.1968424   -6.1310902    194.76795  0.039586983  0.040334018            4 
  411000    1.1810625   -6.1400191    195.99077    0.0397386  0.040331149            5 
  412000    1.1857247    -6.118325    196.28676  0.039702014   0.04032949            1 
  413000    1.1837737   -6.1474905    196.57808  0.039664664  0.040327452            9 
  414000    1.1963793   -6.2094744    196.83526  0.039620624  0.040324891            2 
  415000    1.1677898   -6.1475939    197.31016  0.039620515   0.04032076            4 
  416000    1.2066089   -6.1359994    198.29467   0.03972249  0.040317406            2 
  417000    1.1903136   -6.1108104    198.58512  0.039685277  0.040313608            3 
  418000    1.1933014   -6.1110073    199.08998  0.039690985   0.04031058            1 
  419000    1.1680996   -6.1601819    199.54027  0.039685814  0.040307218            3 
  420000    1.1721797   -6.1406094    199.93788  0.039670214  0.040304184            2 
  421000    1.1754057   -6.1503262    200.17076  0.039622083   0.04030166            3 
  422000    1.1907959   -6.1374075    201.48972  0.039788649  0.040298841            4 
  423000    1.1785536   -6.1090695    201.22225  0.039641892  0.040295778            4 
  424000    1.1823091   -6.1201459    201.81291  0.039664488  0.040292446            4 
  425000    1.1778948   -6.1203011    202.67958  0.039741094  0.040290042            2 
  426000    1.1913775   -6.1414463     202.6393  0.039639926  0.040286775            3 
  427000    1.1707299   -6.1095454    203.40438  0.039696404  0.040284581            4 
  428000    1.1870213   -6.1282368    204.23319  0.039765028  0.040282137            2 
  429000    1.2060306   -6.1570541    203.40681  0.039511812  0.040277251            3 
  430000    1.1926159   -6.1464913    203.99342  0.039533608  0.040271767           12 
  431000    1.1667691   -6.1372141    204.86323  0.039610059    0.0402669            4 
  432000    1.1632323   -6.1623746    205.22108    0.0395874  0.040262009            3 
  433000    1.1760624   -6.1818666    205.16976  0.039486097   0.04025625            5 
  434000    1.1939271   -6.1216465    206.52076  0.039654524  0.040251122            4 
  435000    1.1704984   -6.1651013    206.36158  0.039532869  0.040246426            4 
  436000    1.1653037    -6.172442    206.09568  0.039391376  0.040241036            2 
  437000    1.2038236   -6.1446434    208.29482  0.039720598  0.040236348            3 
  438000    1.1942824   -6.1431086    208.11873  0.039596409  0.040232046            2 
  439000    1.1839733   -6.1621396    208.67937  0.039612636    0.0402273            3 
  440000    1.1737474   -6.1768084    208.79537  0.039544578  0.040223151            4 
  441000    1.1795696   -6.1255356    210.28822  0.039737003  0.040219265            3 
  442000    1.1658625   -6.1139453    210.77695  0.039739244  0.040216641            2 
  443000    1.1478959   -6.1167056    211.02572  0.039696335  0.040214414            2 
  444000    1.1823003   -6.1381286    211.68446  0.039730566  0.040212378            1 
  445000    1.1540543   -6.1310572    212.30621  0.039757718  0.040209789            3 
  446000    1.1869102   -6.1810765    211.35897  0.039491587  0.040207073            1 
  447000    1.1777202   -6.1529588    212.55899  0.039626956  0.040203962            1 
  448000    1.1848505    -6.173246    212.61322   0.03954859  0.040200304            1 
  449000    1.2110916   -6.1713709    213.53986  0.039632491  0.040195999            4 
  450000    1.2067707   -6.1335061     213.7882  0.039590407  0.040190856            2 
  451000    1.1823066   -6.1255371    214.29141  0.039595604  0.040185273            3 
  452000    1.1646042   -6.1827132    214.14258  0.039480565  0.040180414            5 
  453000    1.1902621   -6.1931357    213.99226  0.039365757  0.040174191            4 
  454000    1.1618925   -6.1195259    214.98091  0.039460519  0.040168695            4 
  455000    1.1744173   -6.1261047    215.72136  0.039509407  0.040163063            5 
  456000    1.2117734   -6.1452004     216.2583  0.039520888  0.040157201            3 
  457000      1.17297   -6.0722945     216.7716  0.039528008  0.040151682            3 
  458000     1.195145    -6.134152    216.55123  0.039401607  0.040145966            2 
  459000     1.182168   -6.1194528    218.06809  0.039591156  0.040139061            2 
  460000     1.204036   -6.1494166    217.24717   0.03935637  0.040132882            3 
  461000    1.1791673   -6.1789485    217.41929  0.039302112   0.04012618            1 
  462000    1.1894434   -6.1596445    218.45488  0.039403838  0.040118387            2 
  463000    1.1733823   -6.1370514    218.20876  0.039274434  0.040111134            4 
  464000    1.1858846    -6.169418    218.42996  0.039229519  0.040104765            7 
  465000    1.1650638   -6.1399103    218.69695  0.039193001  0.040096342            2 
  466000    1.1805729   -6.1937708    218.43708  0.039062425  0.040087899            3 
  467000    1.1813356   -6.1242461    220.71926   0.03938602  0.040080176            5 
  468000     1.190541   -6.1786242    220.18927  0.039207491  0.040071828            4 
  469000    1.1879208   -6.1738966    221.61886  0.039377907  0.040063936            5 
  470000    1.1514432   -6.1267864    221.52421  0.039277342  0.040056593            1 
  471000     1.156327   -6.1090008    221.87572  0.039256144  0.040049929            3 
  472000    1.1938661   -6.1833509     221.7221   0.03914585  0.040043253            7 
  473000    1.2033358   -6.1911512    222.21795  0.039150449  0.040035919            2 
  474000    1.1764532   -6.1230098    223.09832  0.039222631  0.040029682            3 
  475000    1.1769168   -6.1755167     223.0697  0.039135035  0.040023317            5 
  476000    1.1577252    -6.179368    223.52329  0.039132229  0.040016502            4 
  477000    1.1738165   -6.1648147    223.32599  0.039015721  0.040008672            2 
  478000    1.1469369   -6.1331951    224.77944   0.03918749  0.040001415            2 
  479000    1.1606979   -6.1404221    225.72117  0.039269515  0.039993896            2 
  480000    1.1876819   -6.1528495     225.2619  0.039107969  0.039986425            4 
  481000    1.1788139    -6.159673    226.29513   0.03920567  0.039978542            2 
  482000    1.1782742    -6.129013    225.99768  0.039072904  0.039971038            1 
  483000     1.166442   -6.1492547    227.41315  0.039236223  0.039964127            2 
  484000    1.1939396   -6.1644258      227.179  0.039114842  0.039956942            2 
  485000      1.16529   -6.1448993    227.97864  0.039171587  0.039950158            3 
  486000    1.1620128   -6.1565493    227.70148  0.039043463  0.039943563            3 
  487000    1.1877258   -6.1780356    228.34648  0.039073662  0.039935939            4 
  488000    1.1931981   -6.1950109    228.03719  0.038940776  0.039927449            2 
  489000    1.1632988   -6.1980251    229.11032  0.039044022  0.039919366            3 
  490000    1.1582748   -6.2096346    229.30429  0.038997328  0.039911076            3 
  491000     1.175922    -6.224038    228.83611  0.038838444  0.039902187            3 
  492000    1.1752169   -6.1548959    230.67615  0.039071164    0.0398933            2 
  493000    1.1590719    -6.177234    230.50365  0.038962754  0.039883933            6 
  494000    1.1602367    -6.167637    231.41664  0.039037894  0.039874764            2 
  495000    1.1763413   -6.1923835    231.20561  0.038923503  0.039866267            2 
  496000    1.1863599   -6.1968457    232.17424  0.039007769  0.039858506            3 
  497000     1.192256   -6.1721587    232.52722  0.038988468  0.039850209            1 
  498000    1.1653256   -6.1649315    233.37577  0.039052171  0.039842111            2 
  499000    1.1838191   -6.2062527     232.6666  0.038855478  0.039832947            6 
  500000    1.1864505   -6.1612086    233.56169  0.038926948  0.039823809            3 
  501000    1.1540512   -6.1819927    234.11598  0.038941448  0.039814603            4 
  502000    1.1631241   -6.1511319     235.8543   0.03915244  0.039806543            3 
  503000    1.1511404   -6.1841769    235.57875  0.039028952  0.039798282            1 
  504000    1.1676376   -6.1658515    236.10462  0.039038463  0.039790679            3 
  505000    1.1692444   -6.1794831     236.1239   0.03896434  0.039783926            1 
  506000    1.1446793   -6.1769691    236.57096  0.038960962  0.039777041            4 
  507000    1.1623283   -6.1644331    237.94406  0.039109806  0.039769994            4 
  508000    1.1744242   -6.1414952    237.57712  0.038972624  0.039762156            2 
  509000    1.1424904   -6.2117816    237.31538  0.038853205  0.039753884            5 
  510000    1.1853569    -6.220479     237.5845  0.038820996  0.039746271            2 
  511000    1.1672519   -6.1725671    238.68678  0.038924785  0.039737816            2 
  512000    1.1865403   -6.1357126    239.44852   0.03897274  0.039729441            3 
  513000    1.1522743   -6.1565862    238.75013  0.038783322  0.039720286            2 
  514000     1.193499   -6.1917107    238.55583  0.038676366  0.039710424            3 
  515000    1.1769185   -6.1974359    238.99324  0.038672045    0.0397009            3 
  516000    1.1482628    -6.213631    240.10181  0.038776133  0.039692051            4 
  517000    1.1503188   -6.1598201    241.58844  0.038940755  0.039683202            3 
  518000    1.1813375   -6.1835807    240.74278  0.038729534   0.03967432            6 
  519000    1.1631617   -6.1874399    242.23599  0.038894667  0.039665411            2 
  520000    1.1562767   -6.1578696    242.49197  0.038860893   0.03965739            2 
  521000    1.1693455   -6.2154511    241.92028  0.038694863  0.039648975            4 
  522000    1.1805093   -6.1662527     243.7968  0.038920306  0.039641464            4 
  523000    1.1818242   -6.1455834    244.43308  0.038947272  0.039634349            2 
  524000    1.1650453   -6.1610841    245.31572  0.039013314  0.039627941            4 
  525000    1.1720539   -6.2062482    244.65819  0.038834634  0.039621004            2 
  526000    1.1541147   -6.1619391    246.46209  0.039046593  0.039614069            4 
  527000    1.1632931   -6.1606022    246.40361  0.038963252  0.039607117            2 
  528000    1.1667186    -6.166989    247.29809  0.039030632  0.039600837            2 
  529000    1.1754773     -6.16597    246.90396  0.038894763  0.039594719            3 
  530000    1.1890137   -6.2016984    247.58259   0.03892808  0.039588945            6 
  531000    1.2027813    -6.183408    248.10426  0.038936639  0.039582631            3 
  532000    1.1603284   -6.1934189    248.98155  0.039000869  0.039576653            3 
  533000    1.1467228   -6.2150039    248.99334   0.03892954  0.039570201            5 
  534000     1.180614   -6.1600547    249.80512   0.03898332  0.039563455            3 
  535000    1.1497149   -6.1843729     249.9642  0.038935234  0.039556051            4 
  536000    1.1825828   -6.1661517    250.96616   0.03901837   0.03954941            3 
  537000    1.1797932   -6.1990295    249.40852  0.038703991  0.039542223            2 
  538000    1.1560693   -6.1726778    249.99535  0.038722948  0.039534046            3 
  539000    1.1946531   -6.1884341    251.07955  0.038818731  0.039525608            4 
  540000    1.1788188   -6.1903022    251.88727  0.038871492  0.039518092            3 
  541000    1.1602807   -6.0915137    252.69553  0.038924141  0.039510778            3 
  542000    1.1591042   -6.2121283    252.15149  0.038768679  0.039503456            3 
  543000    1.1939717   -6.2295138    251.67246  0.038623767  0.039495841            7 
  544000    1.1742635   -6.2188128    252.39145  0.038662906    0.0394868            3 
  545000    1.1724189    -6.151668     254.1192  0.038856147  0.039478551            2 
  546000    1.1376757   -6.1866208    253.31304  0.038661941  0.039470104            2 
  547000    1.1496134    -6.212279    253.57139  0.038630621  0.039462025            2 
  548000    1.1645947   -6.2063744    252.83353  0.038447921  0.039453448            1 
  549000     1.144968   -6.2128665    254.21139  0.038587036  0.039444598            3 
  550000    1.1651632   -6.1879266    254.43775  0.038551174  0.039435073            4 
  551000    1.1833374   -6.1945459    254.35514  0.038468715  0.039425511            1 
  552000    1.1677347    -6.170787    256.02373  0.038650925  0.039416806            3 
  553000    1.1723566    -6.187241    255.87407   0.03855848  0.039407284            5 
  554000    1.1543781   -6.1952586    256.46757  0.038578154  0.039398214            3 
  555000     1.157363    -6.237374    256.63294  0.038533475  0.039389601            2 
  556000    1.1711926   -6.2073199    257.22226  0.038552497  0.039380473            3 
  557000    1.1435692   -6.1996832    258.13766  0.038620237  0.039372047            2 
  558000    1.1585909   -6.1902896    259.24229  0.038715992  0.039363806            6 
  559000    1.1458575   -6.1807535    259.59665  0.038699561  0.039355379            2 
  560000    1.1751048   -6.2173932    259.48292   0.03861353  0.039347323            1 
  561000    1.1436504   -6.1901349    259.83471  0.038596956   0.03934014            3 
  562000    1.1563321    -6.176531    261.17223  0.038726606  0.039332564            1 
  563000      1.16469   -6.2081992    260.14936  0.038506418  0.039324632            2 
  564000    1.1837866   -6.1899429    261.08569  0.038576491  0.039316393            4 
  565000    1.1499217    -6.202026    262.14946  0.038665113  0.039308236            5 
  566000    1.1423387   -6.1334575    262.89691  0.038706848  0.039300718            3 
  567000    1.1480251   -6.2067681    263.30266  0.038698216  0.039294517            3 
  568000    1.1651584   -6.1659854    264.07227  0.038742997  0.039288083            2 
  569000    1.1382268   -6.1490909    264.33095  0.038712793  0.039281008            1 
  570000    1.1759386   -6.1599462    264.95992  0.038736831   0.03927371            5 
  571000    1.1754972   -6.1818979    264.21758  0.038560651  0.039266907            3 
  572000    1.1713686   -6.1636842    265.82442  0.038727334  0.039259941            6 
  573000    1.1728227   -6.2171277    263.92172  0.038383031  0.039251676            1 
  574000    1.1590394   -6.1936242    265.77066   0.03858459  0.039243939            2 
  575000    1.1427895   -6.2138476    265.66626  0.038502356  0.039236113            3 
  576000    1.1567826    -6.225844    266.17196  0.038508675  0.039227573            3 
  577000    1.1527221   -6.2043108    267.66863  0.038658091  0.039219521            4 
  578000    1.1479131   -6.2170383    267.80721   0.03861119  0.039211756            3 
  579000    1.1720502   -6.2643467    267.40563  0.038486706  0.039204226            3 
  580000    1.1793649    -6.161429    268.80299  0.038621119  0.039196271            4 
  581000    1.1463969   -6.1949919    268.81156  0.038555876  0.039189204            3 
  582000    1.1642546   -6.1958047    268.95494  0.038510157  0.039181837            2 
  583000    1.1702836   -6.1841394    270.14814  0.038614657  0.039174546            5 
  584000    1.1496278   -6.2129331    269.90184   0.03851339  0.039166472            5 
  585000    1.1870135   -6.1723198     270.5983  0.038546766  0.039158189            2 
  586000    1.1575327   -6.2114916    269.25419  0.038289846  0.039149604            3 
  587000    1.1393245   -6.1369791    271.91034  0.038601696  0.039141661            3 
  588000    1.1404374   -6.2129558    271.36291  0.038458462  0.039133914            3 
  589000    1.1507052   -6.2220348    272.01851  0.038485923  0.039125887            3 
  590000    1.1576982   -6.1961403    272.44836  0.038481407  0.039118496            2 
  591000      1.15825   -6.2133572    272.16058  0.038375717  0.039110955            6 
  592000    1.1609079   -6.2057487    273.57976  0.038510664   0.03910364            3 
  593000    1.1820644   -6.1568039     274.0603  0.038513252  0.039096443            2 
  594000    1.1685348   -6.2013504    274.39567  0.038495464   0.03908848            5 
  595000    1.1478263   -6.1799959    273.40463  0.038291965  0.039080306            2 
  596000    1.1487279   -6.1729928    274.73969  0.038414387  0.039071701            4 
  597000    1.1693218   -6.1835312    274.99022   0.03838501  0.039063271            3 
  598000     1.154145   -6.2076817    275.98006   0.03845876  0.039054902            2 
  599000     1.163834   -6.1814571    275.14368  0.038278196  0.039046196            7 
  600000    1.1665465   -6.1783857     275.7227   0.03829482  0.039037598            2 
  601000    1.1566527   -6.1949639    276.48276   0.03833649  0.039029217            3 
  602000    1.1689323   -6.2121153    276.95991  0.038338858  0.039021019            3 
  603000    1.1554822   -6.2192063    276.99977  0.038280787  0.039012923            2 
  604000    1.1424965   -6.1797416    279.20507  0.038521671  0.039005307            3 
  605000     1.150964   -6.1553014    279.17802  0.038454272  0.038997996            3 
  606000    1.1787538   -6.2047853    279.26643  0.038402975  0.038991112            3 
  607000    1.1421515   -6.2121119    279.16833   0.03832624  0.038983406            3 
  608000    1.1595024   -6.1932474    279.16839  0.038263211  0.038975474            3 
  609000    1.1492855   -6.2076774    279.31148  0.038219962  0.038967135            3 
  610000    1.1493671   -6.2014102    279.88556  0.038235733  0.038958749            3 
  611000    1.1801258   -6.2439429    280.02318  0.038191924   0.03895044            2 
  612000    1.1604704   -6.1884022    280.68182  0.038219202  0.038941405            3 
  613000     1.170589   -6.1842872    282.41767  0.038392832  0.038933144            2 
  614000    1.1681969   -6.2135494    281.30785  0.038179676   0.03892529            2 
  615000    1.1581244   -6.2011414    282.48115  0.038276579  0.038917219            3 
  616000    1.1544755   -6.2130064    282.53561  0.038221808  0.038908425            2 
  617000    1.1720167   -6.2087428    283.03895  0.038227843  0.038900522            3 
  618000    1.1690639   -6.1877319    283.78777  0.038266959  0.038892475            2 
  619000    1.1767168   -6.2146222    283.18774  0.038124359  0.038883213            4 
  620000    1.1434109   -6.2375714    283.32275  0.038081015  0.038874547            2 
  621000    1.1750609   -6.2513641    284.13455   0.03812863  0.038865298            3 
  622000    1.1437803    -6.255744    283.34803  0.037961954  0.038856369            6 
  623000    1.1316311   -6.1997021    286.05367  0.038262931  0.038847439            1 
  624000     1.142352   -6.2009896    285.46454  0.038122935  0.038839408            5 
  625000    1.1482364   -6.2044287    286.95941  0.038261254  0.038831254            3 
  626000    1.1386146   -6.1859351    287.28922  0.038244039   0.03882401            2 
  627000    1.1611928   -6.1840647    289.00293   0.03841081  0.038816498            1 
  628000    1.1643428   -6.2237046    287.44314  0.038142668  0.038809063            4 
  629000    1.1485445   -6.1939377    287.73903  0.038121228  0.038801285            2 
  630000    1.1209857    -6.274556    287.16195  0.037984385  0.038792105            4 
  631000    1.1849458   -6.2257669    288.67269  0.038123704  0.038783486            2 
  632000    1.1554754   -6.1890921    288.62496  0.038057088  0.038774944            3 
  633000    1.1485645   -6.2169093    288.74257  0.038012449  0.038766635            5 
  634000    1.1386303    -6.191443     289.9975  0.038117443  0.038758393            2 
  635000    1.1398537   -6.2028734    290.19666  0.038083552  0.038750109            3 
  636000    1.1443342   -6.2077842    291.61214  0.038209138  0.038741751            3 
  637000    1.1725682   -6.1934603    291.85809  0.038181331  0.038733543            3 
  638000    1.1466213    -6.240398    291.24468  0.038041364  0.038724819            8 
  639000    1.1687061   -6.2490214    291.44611    0.0380081  0.038715489            1 
  640000    1.1521568   -6.1765761    293.68774  0.038240591  0.038707056            2 
  641000    1.1800393   -6.2325198    292.85691  0.038072921   0.03869908            3 
  642000    1.1436138   -6.2189076    294.18869  0.038186487  0.038691639            4 
  643000    1.1245074   -6.2563072    292.41301  0.037896969  0.038683169            3 
  644000    1.1525742   -6.1869693    294.49059  0.038106961  0.038674257            4 
  645000    1.1411626   -6.1969232    294.22174  0.038013144  0.038665456            4 
  646000     1.183879   -6.2150837     294.0533  0.037932573  0.038656595            1 
  647000    1.1712297   -6.2020254    294.27546  0.037902558  0.038647839            2 
  648000    1.1566071    -6.223018     294.4261  0.037863439  0.038638805            2 
  649000    1.1428803   -6.2387076    294.77745  0.037850212  0.038629917            1 
  650000    1.1541467    -6.249506    295.28887  0.037857547  0.038620962            2 
  651000    1.1565726   -6.2034358    296.67354  0.037976643  0.038612121            4 
  652000    1.1478568   -6.2251573    297.55124  0.038030577  0.038603455            2 
  653000    1.1630579   -6.2362775     297.5212  0.037968504  0.038593967            2 
  654000    1.1677315   -6.2892547    295.87174  0.037700273   0.03858439            6 
  655000     1.130673   -6.2055168    297.92492  0.037903934   0.03857454            4 
  656000    1.1566199   -6.2150707    298.13528  0.037872876  0.038565052            5 
  657000    1.1456214   -6.2361222    298.03382  0.037802362  0.038555272            2 
  658000    1.1653557   -6.2511856    297.80477  0.037715903  0.038545349            3 
  659000    1.1263108   -6.2366925    299.34932  0.037853986  0.038536332            3 
  660000    1.1348125   -6.2425401    297.83154  0.037604993  0.038527113            2 
  661000    1.1649258   -6.2294564    300.02147  0.037824189  0.038517632            3 
  662000    1.1591215   -6.1743476    301.58611  0.037964011  0.038508519            3 
  663000    1.1523528   -6.1992298    300.14812  0.037726008  0.038499245            2 
  664000    1.1340804   -6.2607203    301.10788  0.037789643  0.038489619            3 
  665000     1.151902   -6.2051971     301.4819  0.037779686  0.038480431            2 
  666000    1.1312004   -6.2273622    301.87787  0.037772506  0.038470937            4 
  667000    1.1443497   -6.2385439    302.92662  0.037846904  0.038461334            4 
  668000    1.1593031   -6.2247875    302.50188   0.03773726  0.038451664            2 
  669000    1.1590594   -6.2166883    303.17265  0.037764406  0.038442594            4 
  670000    1.1288694   -6.2669018    302.72878  0.037652834  0.038433105            2 
  671000    1.1295218   -6.2285565    303.80437    0.0377303  0.038423363            6 
  672000    1.1336879   -6.2124261    305.36465   0.03786764  0.038414478            2 
  673000    1.1626529   -6.2279964    305.26124  0.037798568  0.038405445            3 
  674000    1.1574053   -6.2034839    305.76009  0.037804165   0.03839636            4 
  675000    1.1777602   -6.2293603     305.5898  0.037727136  0.038387215            6 
  676000    1.1533988   -6.2341157    305.72687  0.037688224  0.038377942            8 
  677000    1.1360843   -6.2110291    306.13987  0.037683391  0.038368626            8 
  678000    1.1297849   -6.2620162    305.89013  0.037597115   0.03835966            2 
  679000    1.1376422   -6.2342334    306.39167  0.037603298  0.038350965            2 
  680000    1.1149151   -6.2248773    306.88632  0.037608618  0.038341784            2 
  681000     1.143524    -6.246601    307.80372  0.037665654  0.038333346            4 
  682000    1.1428243   -6.2665911    308.16166  0.037654162  0.038325128            2 
  683000    1.1159329   -6.2409551    309.11559  0.037715421  0.038316637            4 
  684000    1.1377072   -6.2893878    308.37853  0.037570484  0.038308015            5 
  685000    1.1599415   -6.2498085    309.16261  0.037611023  0.038299612            2 
  686000    1.1423369   -6.2634486    309.32368  0.037575763  0.038291173            2 
  687000    1.1317354   -6.2290051    310.12198  0.037617902  0.038282917            4 
  688000    1.1448942   -6.2581656    310.64868  0.037627021  0.038274691            3 
  689000    1.1374485   -6.2454331    311.34314  0.037656403  0.038266331            2 
  690000    1.1553391   -6.2196189    312.54403  0.037746864  0.038258383            3 
  691000    1.1218424   -6.2538531    312.77223  0.037719757   0.03825014            2 
  692000    1.1413239   -6.2577136    312.63875  0.037649175  0.038241686            5 
  693000    1.1527107   -6.2150744    314.17188  0.037779206  0.038234098            4 
  694000    1.1520064   -6.2432959    314.37069  0.037748641  0.038226107            3 
  695000    1.1234354   -6.2504557    312.98375  0.037528028   0.03821793            3 
  696000    1.1286853   -6.2401573    314.46626  0.037651611  0.038209637            2 
  697000     1.146701   -6.3003106    314.38835  0.037588277   0.03820166            3 
  698000    1.1211038    -6.231718    314.58161  0.037557499  0.038193258            6 
  699000    1.1697427   -6.2131074    314.97357  0.037550497  0.038184365            3 
  700000    1.1278329   -6.2808129     315.4365  0.037551965  0.038175771            5 
  701000    1.1343368   -6.2726915    315.56233  0.037513354  0.038167209            3 
  702000    1.1452374   -6.2609284    315.73499  0.037480411  0.038158369            4 
  703000     1.115315   -6.2437219    316.90861  0.037566217  0.038149891            1 
  704000     1.113046    -6.229816    317.79311  0.037617555  0.038141522            3 
  705000    1.1325266   -6.2468371    316.87113  0.037455216  0.038133123            3 
  706000    1.1489693   -6.2154047    319.28163  0.037686689  0.038124786            3 
  707000    1.1283539   -6.2560033    318.94392  0.037593579   0.03811715            1 
  708000    1.1612803   -6.3141907    318.88428   0.03753346  0.038109107            4 
  709000    1.1509047   -6.2350379    320.78097  0.037703452  0.038100891            4 
  710000    1.1299709   -6.2586163     320.3321  0.037597665  0.038093227            3 
  711000    1.1498547   -6.2444467    320.91316  0.037612888  0.038085456            2 
  712000    1.1231951   -6.2697676    321.21916  0.037595875  0.038077469            2 
  713000    1.1193727   -6.2675999     321.9925  0.037633532  0.038069828            2 
  714000     1.143582   -6.2500024    322.19785  0.037604791  0.038062235            2 
  715000    1.1473195   -6.2709631    322.56946  0.037595508  0.038054418            4 
  716000      1.14059    -6.241751    322.62887  0.037549915  0.038046806            4 
  717000    1.1210092   -6.2628187    322.61509  0.037495943  0.038038823            4 
  718000    1.1431107   -6.1815766    324.72285  0.037688353  0.038031428            4 
  719000     1.155411   -6.2506429    323.78643  0.037527403   0.03802365            3 
  720000    1.1294824     -6.30006    322.69416  0.037348861  0.038015178            3 
  721000    1.1388031   -6.2295705    324.91538  0.037553789  0.038006892            3 
  722000    1.1301696     -6.28149    325.19054  0.037533534  0.037998595            4 
  723000    1.1365718   -6.2401243    324.78729  0.037435142  0.037990091            2 
  724000    1.1343319   -6.2704246    325.31371  0.037444027  0.037981887            2 
  725000    1.1533716   -6.2610981    326.42742  0.037520394  0.037973803            2 
  726000    1.1301139    -6.274907    325.99011  0.037418516  0.037966037            3 
  727000    1.1575589   -6.2460975    326.30773  0.037403453  0.037958047            2 
  728000    1.1310937    -6.252111    327.15936   0.03744956  0.037950007            3 
  729000     1.151943   -6.2273724    327.70269  0.037460298  0.037941323            2 
  730000    1.1197141   -6.2819027    326.01426   0.03721624  0.037932907            3 
  731000    1.1415258   -6.2306085    327.96802  0.037388055  0.037924163            2 
  732000    1.1517135   -6.2894881    327.55326   0.03728976  0.037915138            3 
  733000    1.1267016   -6.2679486      328.582  0.037355843  0.037906056            3 
  734000    1.1403867    -6.283248    328.46852  0.037292066  0.037897344            2 
  735000    1.1365516    -6.263325    328.23149  0.037214455  0.037888849            3 
  736000     1.114851   -6.3344459    326.98445  0.037022696  0.037879727            2 
  737000    1.1398285   -6.2824995    328.83601  0.037181819  0.037870342            5 
  738000     1.132299   -6.2562068     330.1642  0.037281414  0.037861501            3 
  739000    1.1579725   -6.2708717    330.56875  0.037276585  0.037852452            2 
  740000     1.125857   -6.2814401     330.5754   0.03722696  0.037843501            3 
  741000    1.1397013   -6.2816321    331.48495  0.037279009  0.037834645            5 
  742000    1.1490891   -6.2679968    333.21274  0.037422814  0.037826917            3 
  743000    1.1188926   -6.2672331    333.75431  0.037433189   0.03781923            3 
  744000    1.0891807     -6.28651    333.28399  0.037330196  0.037811742            3 
  745000    1.1352378   -6.2975771    332.50207  0.037192625  0.037803672            2 
  746000    1.1289227   -6.2580806      334.594  0.037376452  0.037795768            4 
  747000    1.1309427   -6.2742956    333.56254   0.03721135  0.037788304            3 
  748000    1.1323761   -6.2243954    337.25645  0.037573134  0.037781166            4 
  749000    1.1467675   -6.3135303    334.14572  0.037176872  0.037773291            7 
  750000    1.1292549   -6.2615131    335.96514   0.03732946   0.03776547            4 
  751000    1.1434976   -6.2433198    336.27549  0.037314191  0.037758192            4 
  752000    1.1170971   -6.2813114    336.81314  0.037324151  0.037751176            2 
  753000    1.1381108   -6.2466009    337.21123   0.03731864  0.037744023            3 
  754000    1.1168675   -6.2545698    338.06691  0.037363716  0.037737156            3 
  755000    1.1559765    -6.268888    339.42842  0.037464505  0.037730177            2 
  756000    1.1366685   -6.2862867    338.46869  0.037309159  0.037723419            2 
  757000    1.1581264   -6.2665111    339.46711  0.037369783  0.037716791            1 
  758000    1.1539669   -6.2661207    339.78611  0.037355553  0.037710275            3 
  759000    1.1269323   -6.2710438    339.67638  0.037294289  0.037703098            3 
  760000    1.1219458   -6.2439428    340.22434    0.0373053  0.037696382            4 
  761000    1.1318505   -6.3087227    340.75872  0.037314797  0.037689482            2 
  762000     1.145727   -6.2631532    340.83417  0.037274078  0.037682548            2 
  763000     1.120139   -6.2595637     342.6674  0.037425447  0.037675908            2 
  764000    1.0959577   -6.2042724    343.39161  0.037455454  0.037669403            4 
  765000    1.1211727   -6.2274328    342.55457  0.037315313  0.037662838            2 
  766000    1.1471308    -6.265628    342.20873  0.037228974  0.037655845            2 
  767000     1.130312   -6.2654277    342.75024   0.03723927  0.037648534            3 
  768000    1.1229884   -6.2969558    341.94055  0.037102924  0.037640739            5 
  769000    1.1270315   -6.2309941    342.88045  0.037156529  0.037633407            5 
  770000    1.1391338   -6.2907887    343.54026  0.037179682  0.037626447            5 
  771000    1.1043734   -6.2814737    345.86279  0.037382489  0.037619167            4 
  772000    1.1202391   -6.2487598    345.93861   0.03734225  0.037612295            2 
  773000    1.1298732   -6.2583033    345.38308  0.037234053  0.037605634            3 
  774000    1.1260314   -6.2844233    345.88266  0.037239735  0.037598535            4 
  775000    1.1300621   -6.2733829    346.78832  0.037289066  0.037591287            3 
  776000    1.1411849   -6.2586219    347.31164  0.037297212  0.037584309            5 
  777000    1.1278719    -6.297997    346.66339  0.037179686  0.037576991            3 
  778000     1.125829   -6.2719995     346.7577  0.037141999  0.037569974            4 
  779000    1.1225638   -6.2515242    349.34061  0.037370626   0.03756359            2 
  780000    1.1058035   -6.2931802    347.82727  0.037161033  0.037556508            5 
  781000    1.1386981   -6.3107711    347.63556  0.037092996  0.037549057            4 
  782000    1.1459386   -6.2881984     350.2368  0.037322762  0.037542156            3 
  783000    1.1267641   -6.2945214    349.60685  0.037208051  0.037535495            6 
  784000    1.1204188   -6.2838877    351.01216  0.037309966  0.037529218            5 
  785000    1.1118256    -6.296855    349.87611  0.037141837  0.037523076            3 
  786000     1.125473    -6.280713    351.86358  0.037305299  0.037517029            4 
  787000    1.1485545   -6.2924805    351.36084  0.037204664  0.037510866            4 
  788000    1.1170538   -6.3045862    351.09261  0.037129083  0.037505003            3 
  789000    1.1318432   -6.2604401    352.93405  0.037276516  0.037498986            3 
  790000    1.1200251   -6.2701497     353.0441  0.037240939  0.037492983            2 
  791000    1.1333957   -6.2712052    354.46214  0.037343251  0.037487267            5 
  792000    1.1245886   -6.2478715    354.10126  0.037258129  0.037481238            2 
  793000    1.1309114   -6.2586027    353.55854  0.037154113   0.03747543            3 
  794000    1.1278871   -6.3314929    354.65893  0.037222809  0.037469789            3 
  795000    1.1181232   -6.2919227    356.31475  0.037349554  0.037464193            3 
  796000    1.1263986   -6.3137213    355.86553  0.037255604    0.0374582            9 
  797000    1.1230563   -6.2627654    356.99271  0.037326716  0.037452226            2 
  798000    1.0945037   -6.3118651    355.88063  0.037163809  0.037446338            4 
  799000    1.1047367   -6.2124905    358.79476  0.037421231  0.037440629            2 
  800000    1.1370171   -6.2953208    356.08528  0.037092217  0.037434664            5 
  801000    1.1219145   -6.2491201    358.98281  0.037347358   0.03742895            4 
  802000    1.1349787   -6.2581836    359.50122  0.037354657  0.037423439            4 
  803000    1.1334942   -6.3189851    357.91124  0.037143135  0.037417294            1 
  804000    1.1159969    -6.300507     358.4918  0.037157111  0.037411329            2 
  805000    1.1143121    -6.259445    359.71051  0.037237112   0.03740527            3 
  806000    1.1579604    -6.272798    360.52061   0.03727467  0.037399265            2 
  807000     1.118983   -6.2877846    359.73525  0.037147382  0.037393331            3 
  808000    1.1357431   -6.2951051    360.05193  0.037134069  0.037387311            2 
  809000    1.1149941   -6.2837315    359.87614   0.03707006  0.037381104            2 
  810000    1.1419856   -6.2751012    360.90008  0.037129638  0.037374762            7 
  811000    1.1195481   -6.3015643    359.94355  0.036985568  0.037368426            2 
  812000     1.099078   -6.2784432    361.02906  0.037051423   0.03736179            2 
  813000    1.1167758   -6.2418515    363.21995  0.037230417  0.037355204            3 
  814000    1.1183548   -6.2706362    362.06749  0.037066696  0.037348663            2 
  815000    1.1273868   -6.2907956    361.47182  0.036960309  0.037341845            2 
  816000    1.1074606   -6.3000971    361.25644  0.036893019  0.037334818            5 
  817000    1.1264248   -6.2727943    363.56902  0.037083743  0.037327974            2 
  818000    1.1152611   -6.3103546    362.02395  0.036881005  0.037320837            3 
  819000    1.1256529   -6.2647344    364.13538  0.037050812  0.037313901            2 
  820000    1.1417356   -6.2800822    362.90783  0.036880877  0.037306838            6 
  821000    1.1132556   -6.2544477    364.13003  0.036960011  0.037299971            2 
  822000    1.1271374   -6.2894488    363.28028  0.036828901  0.037292609            5 
  823000    1.1527217   -6.2914564    364.18969  0.036876234  0.037284775            4 
  824000    1.1253616   -6.2896498    364.14259  0.036826718  0.037277022            3 
  825000    1.1160575   -6.2809199    364.84795  0.036853328  0.037269352            1 
  826000    1.1276814   -6.2438268    366.07031  0.036932033  0.037262259            6 
  827000     1.116325   -6.2643977    366.29604  0.036910121  0.037255425            3 
  828000    1.1020522   -6.2660986    368.51702  0.037089072  0.037248695            3 
  829000    1.1150469   -6.2719799    366.92546  0.036884345  0.037241407            1 
  830000     1.130476   -6.3113193    367.97272  0.036945052  0.037234361            3 
  831000    1.1124332    -6.320977    367.52167  0.036855362  0.037227344            3 
  832000    1.1277453   -6.2727721    369.99756   0.03705905  0.037220525            1 
  833000    1.1365508   -6.2791461    368.81071   0.03689583  0.037213718            3 
  834000    1.1091594   -6.2551252    370.63097   0.03703347   0.03720693            5 
  835000    1.1313762   -6.2939256    369.34918  0.036861195   0.03720099            3 
  836000    1.1313777     -6.31281    369.71766  0.036853833  0.037194316            3 
  837000    1.1476327   -6.2960757    371.08654  0.036946091  0.037187535            7 
  838000    1.1139205   -6.3031038    371.81914  0.036974854  0.037180715            3 
  839000     1.135223    -6.292759    370.60514  0.036810205  0.037174201            5 
  840000    1.1191301   -6.3087853    371.09324  0.036814805  0.037167444            2 
  841000    1.1032706   -6.3084296    372.14383  0.036875132  0.037160332            2 
  842000    1.0877725   -6.2805797    371.70018  0.036787429  0.037153597            3 
  843000    1.1168062   -6.3501924    370.51756  0.036626884  0.037146285            6 
  844000    1.1237288   -6.2908146     374.3605  0.036962924  0.037139264            4 
  845000    1.1515368   -6.2784152    373.72226  0.036856239  0.037132598            3 
  846000    1.1288152   -6.3194486    372.67259  0.036709278  0.037125551            2 
  847000    1.0957294   -6.2697949    374.81159  0.036876386  0.037118885            1 
  848000    1.1290088   -6.3143465    373.93221  0.036746483  0.037111964            2 
  849000    1.1425067   -6.3341472     373.5052  0.036661288  0.037104529            4 
  850000    1.1241182    -6.330691    373.22518  0.036590704  0.037096751            6 
  851000    1.1050137   -6.2903371     373.6781  0.036592059  0.037089132            3 
  852000     1.103762   -6.3103646    374.16337  0.036596574  0.037081299            4 
  853000    1.0795692   -6.2910476    375.53955  0.036688115  0.037073406            2 
  854000    1.1288434   -6.3091236    373.93681  0.036488759  0.037065504            4 
  855000    1.1096642   -6.2478232    377.73089  0.036815876  0.037058214            3 
  856000    1.1288185   -6.3132704    375.94135  0.036598652  0.037050766            3 
  857000    1.1425527   -6.3086982    376.65364  0.036625208  0.037043091            6 
  858000    1.1219462   -6.3294402    376.89077  0.036605552   0.03703539            3 
  859000     1.132248   -6.3334244    378.68309  0.036736815  0.037028164            3 
  860000    1.1084709    -6.273251    378.67001   0.03669283  0.037020837            4 
  861000    1.1020393   -6.2663632    379.90444   0.03676969   0.03701336            4 
  862000    1.1118444   -6.2991039    379.96129   0.03673253  0.037006117            4 
  863000    1.1130071   -6.3042368    381.28297  0.036817591  0.036999181            1 
  864000     1.129609   -6.3161258    380.55518  0.036704782  0.036992082            3 
  865000    1.1123429   -6.3037679    380.22888  0.036630913  0.036985082            2 
  866000    1.1137698    -6.296811     381.3489  0.036696392  0.036977637            4 
  867000    1.0815362    -6.308769     382.2862  0.036744156  0.036970745            3 
  868000    1.1277144   -6.3020579    381.99609  0.036673971  0.036963657            2 
  869000     1.115096   -6.3333035    382.43528  0.036673885  0.036956348            7 
  870000    1.1055834   -6.3342332    382.20554  0.036609726  0.036949222            3 
  871000    1.1121079   -6.2952912    381.43614  0.036494081   0.03694206            5 
  872000    1.1073774   -6.3048553    382.86226  0.036588518   0.03693484            2 
  873000    1.1270496   -6.2881935    383.89765  0.036645442  0.036927438            3 
  874000    1.0959294   -6.2867054    383.62138  0.036577172  0.036919806            1 
  875000     1.101289   -6.2660541    383.94571  0.036566259  0.036912801            4 
  876000    1.0982379   -6.2933873    384.87048  0.036612489   0.03690583            3 
  877000    1.1217367   -6.2928181     383.6778  0.036457411  0.036898357            5 
  878000    1.0979629   -6.3384502    383.38075  0.036387694   0.03689038           11 
  879000    1.1098831   -6.2925869    383.94956  0.036400224  0.036882896            3 
  880000    1.1042902   -6.3454719    383.92952  0.036356962  0.036875278            2 
  881000    1.1260934    -6.339915    384.36609   0.03635699  0.036867761            3 
  882000    1.1022022    -6.313392    386.62972  0.036529641  0.036860489            4 
  883000    1.1095932   -6.3393312    387.35965  0.036557159     0.036853            3 
  884000    1.1076755   -6.3432232    386.04439  0.036391817  0.036846004            4 
  885000    1.1028331   -6.3276077    386.57854  0.036400992  0.036838627            4 
  886000    1.0857639   -6.3058705    386.64277  0.036365949  0.036831243            3 
  887000    1.1096486    -6.318497    388.68921  0.036517213  0.036823516            1 
  888000    1.0954295    -6.310681    389.52789  0.036554795  0.036816191            5 
  889000    1.1226973   -6.3086049     390.8436  0.036637008   0.03680914            2 
  890000    1.1063956   -6.3243116    389.37387  0.036458227   0.03680193            3 
  891000    1.0982861   -6.3195651    390.57923  0.036530044  0.036794586            4 
  892000     1.092413   -6.3162519    389.51313  0.036389493  0.036787202            1 
  893000    1.1253556    -6.352735    389.95184  0.036389683  0.036780069            6 
  894000    1.1191409    -6.338716    391.05287  0.036451609  0.036772887            2 
  895000    1.0969811   -6.3186787    391.89618  0.036489402  0.036766078            2 
  896000    1.1093842    -6.330401    391.32427  0.036395487  0.036759242            3 
  897000    1.1044594   -6.3607759    391.33947  0.036356324  0.036751971            8 
  898000    1.1070891   -6.2706808    393.77116  0.036541496  0.036744739            2 
  899000    1.1153309   -6.3500623     392.2119  0.036356313  0.036737538            4 
  900000    1.1020063   -6.3221772    393.54403  0.036439262  0.036730065            4 
  901000    1.0977683   -6.3254665    391.99632  0.036255671  0.036722676            2 
  902000    1.1149917   -6.3049249    393.10693  0.036318083  0.036715088            9 
  903000    1.0964291   -6.3161328     393.8155  0.036343254   0.03670748            2 
  904000    1.1075381   -6.3125684    393.80104  0.036301718  0.036700022            2 
  905000     1.100818   -6.3253505    395.76204  0.036442176  0.036692979            4 
  906000     1.121932    -6.295486     395.6866  0.036395015   0.03668592            6 
  907000    1.1075015   -6.3622987    395.51652  0.036339261   0.03667841            2 
  908000    1.1230109   -6.3339323    395.39731  0.036288299  0.036670887            2 
  909000    1.1053305   -6.3119269    396.17289   0.03631948  0.036663509            2 
  910000    1.1022023   -6.3342378     396.1479   0.03627728  0.036656358            2 
  911000    1.1148121   -6.3560398    396.33777  0.036254827  0.036649125            4 
  912000    1.1131953    -6.292682    397.54743  0.036325606  0.036641957            5 
  913000    1.1164144   -6.3498025    397.90451  0.036318411  0.036634681            2 
  914000    1.1096419   -6.3312979     398.1738  0.036303228  0.036627346            4 
  915000    1.1391497   -6.3851422    397.49119  0.036201384  0.036619799            3 
  916000    1.1138787     -6.35696    397.66894  0.036178033  0.036612699            4 
  917000    1.1245725   -6.2814679    401.26308  0.036465202   0.03660573            1 
  918000    1.1067752   -6.3681428    399.55182  0.036270136  0.036599145            3 
  919000    1.1265223   -6.3524693    399.51578  0.036227401  0.036592115            3 
  920000    1.1226028   -6.2846793    400.51062  0.036278136  0.036585405            3 
  921000    1.0945639   -6.2955819    400.41665  0.036230244  0.036578529            2 
  922000    1.1112628   -6.3233934    401.15038  0.036257265  0.036571426            3 
  923000    1.1042426   -6.3502871    401.46316  0.036246223  0.036564468            4 
  924000    1.1141324   -6.3452371    402.27903  0.036280576  0.036557302            2 
  925000    1.1029619   -6.3574665    401.41721  0.036163712  0.036549611            6 
  926000     1.089818   -6.2954826    403.20026  0.036285121  0.036542068            5 
  927000    1.0770721   -6.2928026    403.22297  0.036248019  0.036534726            4 
  928000    1.0955879    -6.330903    402.08312  0.036106602  0.036527052            3 
  929000    1.0936592   -6.3376551    402.28581  0.036085918  0.036519081            3 
  930000    1.0896107   -6.3583065    402.31632   0.03604985  0.036511203            2 
  931000    1.1008384    -6.370955    403.53607  0.036120307  0.036503383            2 
  932000    1.0968583   -6.3480812    403.62678  0.036089662  0.036495532            4 
  933000    1.1009603   -6.3483801    404.16281  0.036098858  0.036487692            4 
  934000    1.0873273   -6.3226479    405.57142  0.036185887   0.03647993            2 
  935000    1.1174757   -6.3073248    403.86088  0.035994731  0.036472173            2 
  936000    1.1103596   -6.3391855     404.5843  0.036020682  0.036464195            3 
  937000    1.0974941   -6.3160439     405.5583  0.036068863  0.036456375            2 
  938000    1.0979446   -6.3518443    404.49368  0.035935828   0.03644807            4 
  939000    1.1044367   -6.3250083    405.21579  0.035961642  0.036439803            5 
  940000    1.1168726   -6.3168708    406.20429  0.036011019  0.036431684            2 
  941000    1.0882173   -6.3049912    406.08272  0.035961984  0.036423672            3 
  942000    1.0724621   -6.3719859    405.93777  0.035910985  0.036415586            3 
  943000    1.0873141   -6.3550936    407.71866  0.036030281  0.036407335            5 
  944000    1.1005603   -6.3608734    407.44042  0.035967552  0.036399138            4 
  945000    1.1045275   -6.3752204    406.85887  0.035878207  0.036391143            3 
  946000    1.1114356   -6.2665342    409.25966  0.036051767  0.036383599            2 
  947000    1.1199534   -6.3412554    408.09758  0.035911438  0.036375833            4 
  948000    1.0965557   -6.3613656    408.94748  0.035948266  0.036367887            2 
  949000    1.0986051    -6.348181     408.7803  0.035895706  0.036360136            3 
  950000    1.0949896   -6.3142839    408.87097  0.035865875  0.036352497            2 
  951000     1.096014   -6.3822926    407.31556  0.035691865  0.036344677            6 
  952000    1.1113608   -6.3015044    411.40741  0.036012554  0.036336894            3 
  953000    1.1240541   -6.3327789    410.76017  0.035918168  0.036329509            6 
  954000    1.1090227   -6.3498489    410.91733  0.035894246  0.036322388            3 
  955000    1.0832053   -6.3615519    411.63617  0.035919386  0.036314857            2 
  956000    1.1140047   -6.3321148    413.37782  0.036033632  0.036307092            4 
  957000    1.0946943   -6.3189147    412.13719  0.035887948  0.036299198            5 
  958000     1.102873   -6.3263581    412.44393  0.035877168  0.036291421            5 
  959000    1.1122308   -6.3408778    414.07749  0.035981707  0.036283499            3 
  960000    1.1052466   -6.3197898    415.17839  0.036039791  0.036276007            3 
  961000    1.0859869   -6.3488974    413.05749  0.035818374  0.036268365            3 
  962000    1.0971212   -6.3521916    414.73662  0.035926595  0.036260363            7 
  963000     1.123356   -6.3354116    414.35518  0.035856281  0.036252186            2 
  964000    1.1032808   -6.3448349    414.73091  0.035851565  0.036244032            2 
  965000    1.1040541   -6.3703481    413.88808  0.035741631  0.036236003            2 
  966000    1.1049751   -6.3976893    412.70366  0.035602455   0.03622776            3 
  967000    1.1133671   -6.3916632    414.51714  0.035721918  0.036219392            3 
  968000    1.0953429   -6.3867549    413.56421  0.035602979  0.036210965            3 
  969000    1.0790651   -6.3268509    415.28264  0.035714021  0.036202491            2 
  970000    1.0932657   -6.3351663    416.37927  0.035771415  0.036194374            2 
  971000    1.0981222   -6.3831056    416.10836  0.035711325  0.036186227            2 
  972000    1.0994147   -6.3921275    416.55343  0.035712743  0.036178224            8 
  973000    1.0860706   -6.3310981    418.17999  0.035815347  0.036170416            3 
  974000    1.0830532   -6.3282526    417.56054  0.035725576   0.03616247            2 
  975000    1.0975653   -6.3779322    418.72216  0.035788219   0.03615438            4 
  976000    1.0923069   -6.3635801    417.62897  0.035658212  0.036146184            3 
  977000    1.1194861   -6.3602043    418.29183  0.035678252  0.036137657            5 
  978000    1.0828323   -6.3764916    417.89167  0.035607675  0.036129333            2 
  979000    1.0862339   -6.3462356    419.50155  0.035708338  0.036121219            2 
  980000    1.0819204   -6.3611762    418.98808  0.035628238  0.036112832            3 
  981000    1.0858309   -6.3587227    418.51851  0.035552031  0.036104035            2 
  982000    1.0968629   -6.3745008     420.3933  0.035674924  0.036095494            3 
  983000    1.0876411   -6.3509819    419.34402  0.035549679  0.036086927            2 
  984000    1.0802367   -6.3647502    419.47298  0.035524473  0.036078095            5 
  985000    1.1114773   -6.3693085     419.2821  0.035472259  0.036069208            3 
  986000    1.1121933   -6.3828101    420.85838  0.035569504   0.03606032            3 
  987000     1.108161   -6.3568205    420.23042  0.035480447  0.036051064            3 
  988000    1.0867485    -6.308083    422.34526  0.035622913  0.036042142            2 
  989000    1.0947915   -6.3566599    420.99051  0.035472742  0.036033233            2 
  990000    1.0892642   -6.3828303    421.37945  0.035469651  0.036024414            3 
  991000     1.080123   -6.4069093    420.26117  0.035339822  0.036015348            2 
  992000    1.0991035   -6.3446319    421.89953  0.035441829  0.036006385            2 
  993000    1.0876033    -6.354018    423.90646   0.03557456  0.035997583            4 
  994000    1.1083983   -6.3479097    423.16587  0.035476682  0.035988813            3 
  995000    1.0569329   -6.3398386    424.58411  0.035559808  0.035980258            3 
  996000    1.0947624   -6.3771512    422.80602  0.035375336  0.035971968            4 
  997000    1.0709533    -6.378415    423.02426  0.035358096   0.03596299            3 
  998000    1.0629233   -6.3365368    425.14543  0.035499785  0.035954373            7 
  999000    1.1017351   -6.3428347    424.50106  0.035410499   0.03594576            3 
 1000000     1.111081   -6.3653095    424.57713  0.035381428  0.035937147            2 
 1001000     1.092595   -6.3778875    424.63512  0.035350909  0.035928605            2 
 1002000    1.0909861   -6.3281128    427.84606  0.035582673  0.035920453            2 
 1003000    1.0893878   -6.3622796    425.82022  0.035378882  0.035912275            5 
 1004000    1.1110614   -6.3512847    427.18182  0.035456658  0.035903758            2 
 1005000     1.096887   -6.3802621    426.95989  0.035402976  0.035895395            3 
 1006000    1.0948825   -6.3514252    427.59266    0.0354202  0.035886977            3 
 1007000    1.0961145   -6.3421071      427.908  0.035411122  0.035878377            2 
 1008000    1.0707373   -6.3900525    427.05208  0.035305231    0.0358698            3 
 1009000    1.0676045   -6.3836153    427.61243  0.035316521  0.035861101            5 
 1010000    1.0654201   -6.3760436    428.56516  0.035360162  0.035852468            3 
 1011000    1.0937676   -6.4053826      427.384  0.035227827  0.035843588            4 
 1012000    1.1001394   -6.3708708    429.66533  0.035380874  0.035834831            6 
 1013000    1.0918581    -6.380116    427.42953  0.035162021  0.035825911            6 
 1014000    1.0947488   -6.3993766    428.63745  0.035226615  0.035816926            4 
 1015000    1.1001689   -6.3478043    430.32879  0.035330771  0.035807649            4 
 1016000     1.075811    -6.437037    429.47975  0.035226357  0.035798534            8 
 1017000    1.0954427   -6.4015482    429.19424  0.035168325  0.035789406            5 
 1018000    1.0781693   -6.3615944    431.97745  0.035361612  0.035780535            5 
 1019000    1.0784737   -6.3737925    430.76524  0.035227776  0.035771747            3 
 1020000    1.0922056   -6.4188829    430.42009   0.03516504  0.035762562            3 
 1021000    1.0789054   -6.3660116    431.21589  0.035195551  0.035754023            3 
 1022000    1.0555819   -6.3842835    431.37333   0.03517395  0.035745232            2 
 1023000     1.072649   -6.3634551    432.29852  0.035214934  0.035736172            2 
 1024000    1.0954652   -6.3600179    434.76056  0.035380905  0.035727024            3 
 1025000    1.0822261   -6.3737457    433.29756  0.035227444  0.035718478            5 
 1026000    1.1097075   -6.3762438    433.01784   0.03517039  0.035709975            2 
 1027000    1.0788343   -6.3891921    433.02174   0.03513646  0.035701335            4 
 1028000    1.0852513   -6.3526276    434.89766   0.03525435  0.035692685            2 
 1029000    1.0890109   -6.3641935     435.0381  0.035231463  0.035684312            4 
 1030000    1.1041906   -6.3792713    434.96017  0.035190952  0.035676158            6 
 1031000    1.0824411   -6.4060385     435.8898  0.035231959  0.035667591            3 
 1032000    1.0864299   -6.3608706      436.779  0.035269622  0.035659169            3 
 1033000    1.1097067    -6.411648    436.72571   0.03523118  0.035650783            4 
 1034000    1.0839944   -6.3889014    436.57872  0.035185261  0.035642189            4 
 1035000    1.1212216   -6.3807883    436.81157  0.035170014  0.035633624            1 
 1036000    1.0837267   -6.3765182    437.49633  0.035191146  0.035625179            3 
 1037000    1.0913167   -6.3620563     438.2706  0.035219431  0.035616421            3 
 1038000    1.0801094   -6.3660608    437.98761  0.035162782  0.035607859            4 
 1039000     1.093083   -6.4115734    438.03516  0.035132753  0.035599133            9 
 1040000    1.1023289   -6.3889172    437.96285  0.035093177  0.035590335            2 
 1041000    1.1023495    -6.365309    439.12273  0.035152316  0.035581828            5 
 1042000    1.0828214   -6.3590575    441.84633  0.035336399  0.035573601            1 
 1043000     1.098153   -6.3410602    440.78595  0.035217797  0.035565328            2 
 1044000    1.0907591   -6.4042557     438.8111  0.035026429  0.035556729            2 
 1045000    1.0759869   -6.3941771    438.31479  0.034953332  0.035548108            3 
 1046000    1.1129649   -6.3782669    439.53739  0.035017319  0.035539426            2 
 1047000     1.086714   -6.3864418     439.6086  0.034989541  0.035530704            5 
 1048000    1.1055136   -6.3711206    439.99151  0.034986602   0.03552169            5 
 1049000    1.0908898   -6.3836505    440.75858  0.035014186  0.035513088            3 
 1050000    1.0732546   -6.3896845    441.40304  0.035031987  0.035504541            3 
 1051000    1.0999359   -6.3806524    442.32419  0.035071692  0.035496186            3 
 1052000    1.1084596   -6.3589516    443.78283    0.0351539  0.035487737            2 
 1053000    1.0915331    -6.414077    442.38108  0.035009582  0.035479295            3 
 1054000    1.0719418   -6.3735465    442.80649  0.035010001  0.035471098            4 
 1055000    1.0903214   -6.3718566    443.06134  0.034996947  0.035462918            4 
 1056000    1.0738536   -6.3729173    443.05736  0.034963491   0.03545463            5 
 1057000     1.085238   -6.3293477    445.34731  0.035110952  0.035446647            5 
 1058000    1.0942125   -6.3506812    446.19184  0.035144285  0.035438459            3 
 1059000    1.0794015   -6.3845931    445.24758  0.035036794  0.035430345            3 
 1060000    1.0941363    -6.367892    445.04235  0.034987606  0.035422077            6 
 1061000    1.0703858    -6.376912    445.45502  0.034987042   0.03541376            6 
 1062000    1.1038755   -6.3767087    446.01754  0.034998238  0.035405479            3 
 1063000    1.0813538   -6.3928535    446.51098  0.035003997  0.035396934            2 
 1064000    1.0601696    -6.376806    446.78727  0.034992737  0.035388657            1 
 1065000    1.0950797   -6.3853279    446.62851  0.034947458  0.035380573            2 
 1066000    1.0804511   -6.3960351    448.30318   0.03504559  0.035372639            6 
 1067000    1.0753103    -6.397707    446.91935  0.034904666  0.035364558            4 
 1068000    1.0764899   -6.3580616    450.10075  0.035120221  0.035356588            7 
 1069000    1.1010374   -6.3882225    448.54823  0.034966341  0.035348721            3 
 1070000     1.056074   -6.3730703    450.37618  0.035076026  0.035340537            7 
 1071000    1.0743832    -6.424349    448.85843  0.034925181  0.035332178            6 
 1072000    1.0980151   -6.3956931    449.55218  0.034946531   0.03532419            2 
 1073000     1.067951   -6.3971478    449.33097  0.034896782   0.03531562            3 
 1074000    1.0656392   -6.3986695    449.16593  0.034851485  0.035307431            9 
 1075000     1.083039   -6.3834609    449.12446  0.034815849   0.03529889            3 
 1076000    1.0789278   -6.3875901    450.36042  0.034879214  0.035290318            4 
 1077000    1.0826465   -6.3760995    450.79968  0.034880817  0.035281855            3 
 1078000    1.0990564   -6.3525376    450.91647  0.034857488   0.03527341            4 
 1079000     1.078043   -6.4064692    451.34923  0.034858606  0.035264746            3 
 1080000    1.0845027   -6.3751142    451.56695  0.034843129   0.03525618            7 
 1081000    1.0492353   -6.3902236    452.74453  0.034901675  0.035247589            2 
 1082000    1.0697727   -6.4114652    450.26026  0.034678085  0.035238931            8 
 1083000    1.0716866   -6.3942144     450.9099  0.034696052  0.035230036            2 
 1084000    1.0754357   -6.4129203    452.51577  0.034787498   0.03522127            2 
 1085000    1.1116117   -6.4452606    450.02242  0.034563934  0.035212212            3 
 1086000    1.0840776   -6.3758196    453.49171   0.03479832  0.035203261            3 
 1087000    1.0862791   -6.3860781    453.42827  0.034761443  0.035194171            4 
 1088000    1.0799346   -6.3788497    453.46763  0.034732508  0.035185255            8 
 1089000    1.0524517   -6.3822078    452.83113  0.034651908  0.035176079            3 
 1090000    1.0987927   -6.3776298    453.21648  0.034649578   0.03516693            1 
 1091000    1.0954832   -6.4379386    454.51512  0.034717012  0.035157718            2 
 1092000    1.0722037   -6.4526181    453.65501  0.034619583  0.035148507            4 
 1093000    1.0939034   -6.4071458    454.23277  0.034631959  0.035139334            2 
 1094000    1.1138708   -6.4251705    454.45768  0.034617435  0.035130256            3 
 1095000    1.0738584   -6.4213446    455.07717  0.034632966  0.035121403            2 
 1096000     1.062034   -6.4608045    452.77767  0.034426526  0.035112492            5 
 1097000    1.0604065   -6.4166712    454.75723   0.03454552  0.035103277            2 
 1098000    1.0690284   -6.3795136    454.56593  0.034499539   0.03509435            3 
 1099000    1.0818514   -6.3815099    456.51103  0.034615638  0.035085521            3 
 1100000    1.0467027   -6.4008905    455.99995  0.034545451  0.035076344            3 
 1101000    1.0648557   -6.4355257    455.44983  0.034472436  0.035067161            2 
 1102000    1.0665662    -6.398676     457.1391  0.034568898  0.035057974            4 
 1103000      1.06411   -6.4363682    455.96576  0.034448909  0.035048744            2 
 1104000    1.0563625   -6.4153411    456.07393  0.034425871  0.035039622            7 
 1105000     1.074286   -6.4185817    458.97824  0.034613744  0.035030851            7 
 1106000    1.0741206   -6.4117732     458.8848  0.034575407  0.035022022            3 
 1107000     1.070382   -6.3984364    458.94866  0.034548981  0.035013097            3 
 1108000    1.0743285   -6.4495324    457.53776  0.034411684  0.035004261            6 
 1109000     1.094181   -6.3771354     458.8489  0.034479178  0.034995168            5 
 1110000    1.0396883   -6.4137315    459.18412  0.034473282  0.034986452            3 
 1111000    1.1006771   -6.3897223     460.2981   0.03452581  0.034977491            2 
 1112000    1.0616045   -6.4259035    459.86918  0.034462618  0.034968503            2 
 1113000    1.0605327   -6.3748448      461.477  0.034552036  0.034959495            3 
 1114000    1.0676808   -6.4085067    460.29102  0.034432302  0.034950627            3 
 1115000    1.0776545   -6.4285152    460.38575  0.034408502  0.034941498            3 
 1116000    1.0826895   -6.4260847     461.0942  0.034430571  0.034932495            4 
 1117000    1.0801204    -6.414545    462.08468  0.034473641  0.034923398            2 
 1118000    1.0748009   -6.3796238    464.40071  0.034615438  0.034914672            6 
 1119000    1.0565125   -6.3939693    462.67298  0.034455837  0.034906066            4 
 1120000    1.0768055   -6.4277289    463.21922  0.034465716  0.034897539            5 
 1121000    1.0697903   -6.3822632    464.02902   0.03449517   0.03488899            6 
 1122000    1.0705781   -6.4356998    463.02016  0.034389495  0.034880381            3 
 1123000    1.0585258    -6.386805    465.33015  0.034530287  0.034871917            4 
 1124000    1.0525448   -6.4198952    465.47431  0.034510254  0.034863368            4 
 1125000    1.0791478   -6.3974792    464.81363  0.034430639  0.034854826            2 
 1126000    1.0876666   -6.4397256    465.44124  0.034446509  0.034846124            4 
 1127000    1.0907632   -6.4313697    464.90829  0.034376538  0.034837419            3 
 1128000     1.056569   -6.4034204    467.54249  0.034540668  0.034828483            5 
 1129000    1.0816638   -6.3961342    466.44269  0.034428897  0.034819721            2 
 1130000    1.0692623   -6.3822871    465.59585  0.034335977  0.034811116            4 
 1131000    1.0813915   -6.4202164    463.93445  0.034183204  0.034802352            6 
 1132000    1.0658378   -6.4072415    465.95022    0.0343014  0.034793263            1 
 1133000    1.0695977   -6.3676026    467.30494  0.034370766  0.034784466            3 
 1134000    1.0991742   -6.4152027    466.80343  0.034303603  0.034775366            3 
 1135000    1.0643538   -6.4425081    466.48916  0.034250305  0.034766357            4 
 1136000    1.1029762   -6.4352828    465.47975  0.034146108  0.034757419            3 
 1137000    1.0567565   -6.4499481    466.57278  0.034196187  0.034748465            2 
 1138000    1.0616895   -6.3911165    469.50839  0.034381107  0.034739607            3 
 1139000    1.0379483   -6.4393146     467.6544  0.034215277  0.034730698            7 
 1140000    1.0556281   -6.4293884     468.2604  0.034229561  0.034721643            2 
 1141000    1.0780379   -6.3917958    469.21143  0.034269021  0.034712659            2 
 1142000    1.0643159   -6.4244041    468.04651  0.034154007  0.034703626            4 
 1143000    1.0950628   -6.3952696    469.92285  0.034260925  0.034694576            4 
 1144000    1.0656391   -6.4363806    468.43012   0.03412224  0.034685615            4 
 1145000    1.0537696   -6.4420257    469.55371  0.034174215  0.034676584            4 
 1146000    1.0924074   -6.4079826    471.36306  0.034275964  0.034667882            3 
 1147000    1.0723155    -6.435783    471.24019  0.034237154  0.034659242            3 
 1148000    1.0700601    -6.390644    472.60678  0.034306532  0.034650829            3 
 1149000    1.0347596   -6.4439599    470.94945  0.034156473  0.034642141            3 
 1150000    1.0580412   -6.4684818    469.43882  0.034017306  0.034633344            3 
 1151000    1.0777285    -6.450983    470.65441  0.034075761  0.034624575            2 
 1152000    1.0615604   -6.4241579     473.8409  0.034276685  0.034616077            4 
 1153000    1.0641839   -6.4254086    472.75866  0.034168738  0.034607489            3 
 1154000    1.0681567   -6.4325834    473.43545  0.034188002  0.034598662            4 
 1155000    1.0768464   -6.4321843    473.33176  0.034150921   0.03458995            3 
 1156000    1.0750777   -6.4145127    473.20939  0.034112557  0.034581208            2 
 1157000    1.0654759   -6.4506416    472.75321  0.034050217  0.034572301            3 
 1158000     1.079524   -6.4357751    474.26196  0.034129387   0.03456322            3 
 1159000    1.0666148   -6.4606124    473.83276   0.03406908  0.034554093            3 
 1160000    1.0682858   -6.4139853    473.26489  0.033998914  0.034545094            3 
 1161000    1.0718518   -6.3914156    476.75268  0.034219974  0.034536359            2 
 1162000    1.0746925   -6.4448337    475.33184  0.034088629  0.034527638            3 
 1163000    1.0551823   -6.4072102    476.37671  0.034134186   0.03451893            4 
 1164000    1.0903125   -6.4426661    475.08633  0.034012481  0.034510105            3 
 1165000    1.0586925   -6.4307278    476.31318  0.034071043  0.034501186            4 
 1166000      1.06648   -6.3985544    476.83528  0.034079137  0.034492264            5 
 1167000    1.0668166   -6.4100355    477.49111  0.034096766  0.034483402            7 
 1168000    1.0605593   -6.4347286    476.20084  0.033975517  0.034474361            3 
 1169000    1.0768555   -6.4154057    476.42801  0.033962647  0.034465333            2 
 1170000    1.0405027   -6.4607093    476.61966   0.03394727  0.034456204            4 
 1171000     1.060827   -6.4274451    476.79235  0.033930568  0.034447206            4 
 1172000    1.0690292   -6.4111227    476.97642  0.033914706  0.034438148            4 
 1173000    1.0483676   -6.4498419    477.81376   0.03394528  0.034429125            8 
 1174000    1.1008676   -6.4841559    477.52686  0.033896001  0.034419874            5 
 1175000    1.0646198   -6.4512077     477.5138  0.033866227  0.034410685            8 
 1176000    1.0498912   -6.4439368    477.83198  0.033859976  0.034401565            2 
 1177000    1.0461673   -6.4562756    479.35396  0.033938966  0.034392035            7 
 1178000    1.0572903   -6.4416742    477.94805    0.0338107  0.034382738            3 
 1179000    1.0572869   -6.3642556    480.63879  0.033972207   0.03437366            3 
 1180000    1.0647297   -6.3912533    480.32367  0.033921163  0.034364718            5 
 1181000    1.0525593   -6.4240101    478.84206  0.033787896   0.03435586            3 
 1182000    1.0687302   -6.4231396    480.36768   0.03386687  0.034346813            3 
 1183000    1.0919096   -6.4842933    479.57672  0.033782524   0.03433755            5 
 1184000    1.0861668   -6.4467087    481.01232  0.033855034  0.034328316           10 
 1185000    1.0814921   -6.4906918     480.6711  0.033802468  0.034318949            3 
 1186000    1.0656384   -6.4474959    480.66416  0.033773479  0.034309757            3 
 1187000    1.0631087   -6.4499686    481.47325  0.033801829  0.034300398            3 
 1188000    1.0751087    -6.459365    480.73559  0.033721632  0.034291287            1 
 1189000    1.0667092   -6.4296227     483.1995  0.033865959  0.034282522            3 
 1190000    1.0652969   -6.4151612    481.72649  0.033734348  0.034273374            2 
 1191000    1.0480108   -6.4538126    482.48231  0.033758908  0.034264234            3 
 1192000    1.0639002   -6.4333267    484.13663  0.033846241  0.034255238            6 
 1193000    1.0695991   -6.4340114    483.47877  0.033771918  0.034246578            3 
 1194000    1.0703272   -6.4460576    483.86356  0.033770488  0.034237983            5 
 1195000    1.0661138    -6.411474    485.23493  0.033837861  0.034228853            4 
 1196000    1.0687309   -6.4436866    483.24623  0.033671002  0.034219696            4 
 1197000    1.0555777    -6.418251     485.5969  0.033806523  0.034210664            2 
 1198000    1.0286192   -6.4494062    483.72406  0.033648029    0.0342015            3 
 1199000    1.0692659    -6.416436    485.45554  0.033740307  0.034192295            4 
 1200000    1.0492979   -6.4511929    483.90249  0.033604339  0.034183173            4 
 1201000    1.0480962   -6.4357012    485.68582  0.033700099  0.034173907            2 
 1202000    1.0399266   -6.4377936    485.62528  0.033667864  0.034164575            5 
 1203000     1.080177   -6.4755952    486.30231  0.033686777  0.034155254            5 
 1204000    1.0669315   -6.4629893    485.76079  0.033621317  0.034146083            2 
 1205000    1.0587146   -6.4238972    488.93064  0.033812631  0.034137002           10 
 1206000    1.0541567   -6.4240504    487.52263  0.033687302  0.034127884            2 
 1207000    1.0655607    -6.423359    488.24015   0.03370893  0.034118808            3 
 1208000    1.0584015    -6.458983    487.88888  0.033656794  0.034109704            2 
 1209000    1.0756625   -6.4611715    485.71957   0.03347943  0.034100573            4 
 1210000     1.066396   -6.4222566    488.34275  0.033632421  0.034091439            3 
 1211000    1.0750246   -6.4409393    488.60001  0.033622351  0.034082649            3 
 1212000    1.0656523   -6.4272633    489.48061  0.033655157  0.034073697            5 
 1213000    1.0569856   -6.4930206    488.76741  0.033578415  0.034064823            2 
 1214000    1.0795524   -6.4608341    489.72766  0.033616671  0.034056027            5 
 1215000    1.0740498   -6.4505193    489.39612  0.033566263  0.034047023            2 
 1216000    1.0589813   -6.4747322    489.45442  0.033542655  0.034038395            4 
 1217000    1.0469609   -6.4677835    492.08519  0.033695234  0.034029355            3 
 1218000    1.0289337   -6.4918422    489.92246  0.033519599  0.034020543            5 
 1219000    1.0448295     -6.43734    492.18845  0.033647009  0.034011782            3 
 1220000    1.0585607   -6.4514713    491.34266  0.033561657   0.03400314            2 
 1221000    1.0383821   -6.4688837    493.47243  0.033679527   0.03399443            4 
 1222000    1.0400965   -6.4500895    493.58875  0.033659898   0.03398585            2 
 1223000      1.05905   -6.4808207    493.54763  0.033629574  0.033977502            2 
 1224000    1.0706796   -6.4494473    493.26356  0.033582759  0.033969152            7 
 1225000    1.0758364   -6.4557758    494.04023  0.033608179  0.033960732            3 
 1226000    1.0675847   -6.4890508    491.69708  0.033421498  0.033952284            2 
 1227000    1.0234088   -6.4353612    495.27408  0.033637197  0.033943819            6 
 1228000    1.0858938    -6.458367    494.99121  0.033590608  0.033935365            2 
 1229000    1.0638188   -6.4434571    494.77428  0.033548568  0.033926939            3 
 1230000    1.0643188   -6.4198985    496.19855  0.033617788  0.033918279            2 
 1231000    1.0678169   -6.4261238    495.31639   0.03353076  0.033909702            2 
 1232000    1.0404112   -6.4674533     492.9898  0.033346172  0.033900709            3 
 1233000     1.050003   -6.4561283    495.41327  0.033482919  0.033891799            4 
 1234000    1.0660862   -6.4407839    494.96179  0.033425297  0.033882845            4 
 1235000    1.0564715   -6.4739366    493.90391  0.033326849  0.033873789            5 
 1236000    1.0440465    -6.452338     495.0882  0.033379733  0.033864744            4 
 1237000      1.05477   -6.4533231    494.45089  0.033309815   0.03385552            5 
 1238000    1.0622166   -6.4250855    496.06423  0.033391507  0.033846328            4 
 1239000    1.0542443   -6.4730715    497.18331  0.033439825  0.033837344            7 
 1240000    1.0676606   -6.4483329    497.02364  0.033402126    0.0338284            2 
 1241000    1.0612738   -6.4783017    497.48598  0.033406257  0.033819454            2 
 1242000    1.0467196   -6.4465717    496.44359   0.03330942  0.033810281            3 
 1243000     1.033569     -6.45226     497.9243  0.033381892   0.03380109            4 
 1244000     1.058538   -6.4649459    495.48292  0.033191514  0.033791978            5 
 1245000    1.0615523   -6.4517646    496.19633  0.033212606  0.033782646           16 
 1246000    1.0494336   -6.4668515    498.77591  0.033358474  0.033773329            3 
 1247000    1.0352048   -6.4921249    496.77006  0.033197678  0.033764018            2 
 1248000    1.0591892   -6.4576416    498.24933  0.033269854  0.033754728            2 
 1249000    1.0843879   -6.4445295    498.57816  0.033265156  0.033745545            4 
 1250000    1.0459269   -6.5035713    498.19892  0.033213261  0.033736364            5 
 1251000    1.0589453    -6.472205    499.35134  0.033263478  0.033727176            3 
 1252000     1.072052   -6.4939929    500.14321  0.033289617   0.03371812            1 
 1253000    1.0500213   -6.4665608    500.76764  0.033304578  0.033709218            3 
 1254000    1.0611352   -6.4351949    502.74911  0.033409696  0.033700609            2 
 1255000    1.0772135   -6.4542795    501.68748  0.033312581  0.033691934            4 
 1256000    1.0597406   -6.4465951    501.66398    0.0332845  0.033683124            2 
 1257000     1.070076   -6.4798681    501.88816  0.033272883   0.03367434            9 
 1258000    1.0540474   -6.4278717    504.60017  0.033426085  0.033665588            5 
 1259000    1.0500789   -6.4554154    503.19664  0.033306635  0.033656793            5 
 1260000    1.0314349   -6.4885057     502.8466   0.03325705  0.033647797            2 
 1261000    1.0213441   -6.5152146    500.90733   0.03310252  0.033638777            6 
 1262000    1.0543594   -6.4359286    505.31876  0.033367588  0.033630054            3 
 1263000    1.0792066    -6.453452    504.25203  0.033270786  0.033621666            2 
 1264000     1.034417   -6.4613358    503.42357  0.033189845  0.033613184            4 
 1265000    1.0639682    -6.475398    505.42774  0.033295635  0.033604547            5 
 1266000    1.0793435   -6.4222259    506.40994  0.033333987  0.033596252            4 
 1267000    1.0459732   -6.4711372    506.23957  0.033296473   0.03358788            3 
 1268000     1.044151   -6.5045834    505.02943  0.033190683  0.033579649            4 
 1269000    1.0325724    -6.456589    505.71584  0.033209603  0.033571172            8 
 1270000    1.0581901   -6.4617033    507.32074  0.033288762  0.033562598            7 
 1271000    1.0380064   -6.4851719    505.71428  0.033157244  0.033554182            4 
 1272000    1.0251783   -6.4595215    507.29831  0.033234952  0.033545847            6 
 1273000    1.0439273   -6.4563708    507.31584  0.033209992  0.033537468            5 
 1274000    1.0599519   -6.4925809     506.4995  0.033130527  0.033529189            5 
 1275000    1.0287544   -6.4639878    509.76983   0.03331829  0.033520642            4 
 1276000    1.0520357   -6.4677767    508.22354  0.033191192  0.033512431            4 
 1277000    1.0504681   -6.4521137    509.94168  0.033277322  0.033504055            2 
 1278000    1.0347926   -6.5164166    508.11942  0.033132461  0.033495613            2 
 1279000    1.0645673   -6.4931189    508.37206  0.033123017  0.033487077            3 
 1280000    1.0410857   -6.4707225    508.49207  0.033104952   0.03347862            5 
 1281000    1.0624879   -6.4510778    510.67211  0.033220928   0.03347034            4 
 1282000    1.0337422   -6.4616342    509.99456  0.033150973  0.033462223            2 
 1283000    1.0455273   -6.5005126     509.2758  0.033078449  0.033454071            5 
 1284000     1.054138   -6.4539466    511.75559  0.033213629  0.033445726            4 
 1285000    1.0411533   -6.4407787    511.25155  0.033155094  0.033437797            3 
 1286000    1.0350387   -6.4715795    512.85693  0.033233342  0.033429646            6 
 1287000    1.0586196   -6.5161168    511.34753  0.033109786  0.033421606            5 
 1288000    1.0463458   -6.4719747    512.76871   0.03317603  0.033413541            5 
 1289000    1.0339471   -6.4937443    514.85319  0.033285052  0.033405307            3 
 1290000    1.0489749   -6.4872876    511.76565  0.033059796  0.033397023            5 
 1291000    1.0367739   -6.4597067    512.67368  0.033092802  0.033388893            3 
 1292000    1.0543325   -6.4992308    514.59081  0.033190842  0.033380738            4 
 1293000    1.0482384   -6.4463269    514.89019  0.033184467  0.033372715            6 
 1294000    1.0583459   -6.4868258    514.31165  0.033121564  0.033364674            4 
 1295000    1.0344878   -6.4897753    515.35953  0.033163419  0.033356453            4 
 1296000    1.0380168   -6.4758594    515.40245   0.03314059  0.033348476            3 
 1297000    1.0353052   -6.4878678    515.21842  0.033103214  0.033340516            3 
 1298000    1.0478991   -6.4534497     515.7701  0.033113129  0.033332586            4 
 1299000    1.0241391   -6.4719909    515.85964  0.033093382  0.033324443            2 
 1300000    1.0486648   -6.4669263    513.94969  0.032945493  0.033316205            6 
 1301000    1.0564613   -6.4769475    515.27875  0.033005301  0.033307657            2 
 1302000    1.0561207   -6.4783865    516.89604  0.033083464  0.033299313            3 
 1303000     1.064884   -6.4613445    515.24738  0.032952634  0.033291034            3 
 1304000    1.0424894    -6.489058    518.00926  0.033103864   0.03328271            3 
 1305000    1.0421148   -6.4920114    515.90913  0.032944389  0.033274538            2 
 1306000    1.0414598   -6.5005491    517.98216  0.033051439  0.033266448            3 
 1307000    1.0395976   -6.4750614    519.58345  0.033128248  0.033258425            3 
 1308000    1.0282672   -6.5011113    516.83047  0.032927528  0.033250204            6 
 1309000    1.0427975    -6.512046     518.4154  0.033003272  0.033241893            6 
 1310000    1.0364408   -6.4599448    518.10348  0.032958237  0.033233431            4 
 1311000    1.0456589   -6.5180894    516.87629  0.032855091  0.033225016            3 
 1312000    1.0275204   -6.5099961    518.98057  0.032963705  0.033216472            3 
 1313000    1.0283251   -6.4841532    520.32627  0.033024008  0.033208017            4 
 1314000    1.0604959   -6.4574896    519.14101  0.032923707  0.033199866            3 
 1315000    1.0361052   -6.4908895    520.88867  0.033009421  0.033191599            4 
 1316000    1.0287932   -6.4776023    520.85698  0.032982331  0.033183338            9 
 1317000    1.0106502   -6.5252738    518.72166  0.032822176  0.033174929            4 
 1318000    1.0436054    -6.465656     522.4034  0.033030058  0.033166625            3 
 1319000    1.0495693   -6.4535687    521.32176  0.032936679  0.033158435            5 
 1320000    1.0331698   -6.4829158    522.29924  0.032973437  0.033150119            2 
 1321000    1.0370215   -6.4917322    519.68321  0.032783447  0.033141754            3 
 1322000    1.0181712   -6.4964585    521.63052  0.032881399  0.033133323            3 
 1323000    1.0387827   -6.4731937    521.58806  0.032853871    0.0331249            2 
 1324000     1.054336    -6.500773    522.09158  0.032860749  0.033116423            3 
 1325000    1.0607426    -6.515435    520.67433  0.032746813  0.033107901            3 
 1326000    1.0337579   -6.5016671      520.927  0.032737996  0.033099419            3 
 1327000     1.041289    -6.492378    521.54784  0.032752313   0.03309088            3 
 1328000    1.0327701   -6.4936769    520.35018  0.032652496  0.033082355            3 
 1329000    1.0605058   -6.4769409    522.47229  0.032760991  0.033073771            3 
 1330000    1.0211234   -6.5100139    523.02702  0.032771117  0.033065201            2 
 1331000    1.0347229   -6.5250553    523.16662  0.032755235  0.033056696            4 
 1332000    1.0361191   -6.4755062    525.17676  0.032856404  0.033048288            4 
 1333000    1.0624884   -6.5024748    524.40475  0.032783493  0.033039686            4 
 1334000    1.0408197   -6.4838128    525.71906  0.032841021  0.033031111            5 
 1335000    1.0346119   -6.4883451     526.1368  0.032842497  0.033022527            4 
 1336000    1.0625768   -6.5383057    524.26515   0.03270117  0.033013744            5 
 1337000    1.0261426   -6.4675711     525.5458  0.032756532  0.033005169            2 
 1338000    1.0425588   -6.5032532    524.83291   0.03268765  0.032996631            2 
 1339000    1.0384696   -6.5046686    522.43408  0.032513946  0.032987928            2 
 1340000      1.03388   -6.5440255    523.03529   0.03252707  0.032979172            3 
 1341000    1.0331356   -6.5001681    527.15549  0.032758855  0.032970705            5 
 1342000    1.0274426    -6.476249    526.86006  0.032716099  0.032962178            3 
 1343000    1.0404085   -6.4720219    527.96569  0.032760343  0.032953739            3 
 1344000    1.0423918   -6.4693981    525.52387  0.032584566  0.032945418            3 
 1345000     1.046868   -6.4730313     528.4612   0.03274233  0.032937006            3 
 1346000    1.0438405   -6.4741265    526.87138  0.032619575  0.032928651            4 
 1347000    1.0586898   -6.4966046    527.28125  0.032620716  0.032920173            3 
 1348000    1.0429489   -6.4872562    528.52096  0.032673155  0.032911688            2 
 1349000     1.042566   -6.5291358    528.63985  0.032656279  0.032903424            3 
 1350000    1.0315454   -6.5070785    528.88479  0.032647209  0.032894803            5 
 1351000    1.0069605   -6.5140073    529.38556  0.032653933  0.032886347            4 
 1352000    1.0497109   -6.5025925    530.62779  0.032706348  0.032877939            2 
 1353000    1.0489563   -6.5291909    529.23514  0.032596399  0.032869599            5 
 1354000    1.0386919   -6.5706125    527.94144  0.032492703  0.032861296            4 
 1355000    1.0143056   -6.5158551    530.00597  0.032595693  0.032852961            2 
 1356000    1.0324989   -6.4985221    530.10079  0.032577482  0.032844796            3 
 1357000    1.0481905      -6.5121    529.55986  0.032520257  0.032836568            5 
 1358000    1.0437479   -6.5440272    529.25737  0.032477747  0.032828139            6 
 1359000     1.054094   -6.5211759    531.70812  0.032604128  0.032819685            5 
 1360000    1.0337619   -6.4892107    529.88365  0.032468361  0.032811275            2 
 1361000    1.0361113   -6.5363386    531.55567  0.032546882  0.032802582            3 
 1362000    1.0703674   -6.5191448    531.52858  0.032521328  0.032793953            5 
 1363000     1.069685   -6.5016049    532.10375  0.032532633  0.032785627            6 
 1364000    1.0361304   -6.5122331    530.80451  0.032429406  0.032777227            3 
 1365000     1.037892   -6.4845125    531.56493  0.032452072  0.032768711            2 
 1366000    1.0186469   -6.5092995    531.95274  0.032451973  0.032760263            2 
 1367000    1.0515047   -6.5433712    531.83633  0.032421137  0.032751706            5 
 1368000   0.99890395   -6.4985501    531.75496   0.03239248  0.032743149            1 
 1369000      1.04261   -6.5216425    532.38127  0.032406944  0.032734654            6 
 1370000     1.026387   -6.5525397    531.27951  0.032316272  0.032726206            4 
 1371000    1.0413783   -6.5345585    533.99352  0.032457666  0.032717696            5 
 1372000    1.0529242   -6.5158698    533.33953  0.032394286   0.03270884            2 
 1373000    1.0213513   -6.5251631    532.06794  0.032293514  0.032700133            4 
 1374000    1.0367756   -6.4929929    535.06405  0.032451726  0.032691577            4 
 1375000     1.022399   -6.5109769    535.07752   0.03242894   0.03268326            4 
 1376000    1.0419261   -6.5107911    533.24558  0.032294427  0.032674706            3 
 1377000    1.0329761   -6.4906329    535.81905  0.032426715  0.032666303            7 
 1378000    1.0281838   -6.5227843    534.20665  0.032305675   0.03265785            7 
 1379000    1.0393683   -6.5256171    535.49578  0.032360151  0.032649226            4 
 1380000    1.0181226   -6.5335373    536.57168  0.032401672  0.032640691            5 
 1381000     1.043353   -6.5178527    536.46388  0.032371704  0.032632083            6 
 1382000    1.0461644   -6.4959997    537.31764  0.032399761  0.032623641            5 
 1383000    1.0325569   -6.5111182    536.79478  0.032344829  0.032615358            3 
 1384000    1.0538487    -6.497128    538.82215   0.03244353  0.032607012            6 
 1385000    1.0367765   -6.5082322    537.81746  0.032359655  0.032598681            6 
 1386000    1.0080242   -6.4681492    537.67896   0.03232798  0.032590291            3 
 1387000    1.0149313   -6.5740329    537.32918  0.032283657  0.032581795            4 
 1388000    1.0383777   -6.5267899    538.50446  0.032330959  0.032573254            9 
 1389000    1.0475498   -6.5902164    535.44575  0.032124175  0.032564606            4 
 1390000    1.0220671   -6.5328521    538.13932  0.032262549  0.032556181            3 
 1391000    1.0155525   -6.5299346    538.35722   0.03225241   0.03254781            4 
 1392000    1.0340872    -6.532751    538.77595  0.032254307  0.032539287            4 
 1393000    1.0284922   -6.4901901    538.28501  0.032201783  0.032530662            2 
 1394000     1.016823   -6.5016746    536.61304  0.032078733  0.032522012            2 
 1395000    1.0275051   -6.5504043    537.53305  0.032110696  0.032513343            2 
 1396000    1.0237113   -6.5709095     538.7655  0.032161264  0.032504355            5 
 1397000    1.0257079   -6.4961846    539.63865  0.032190327  0.032495344            4 
 1398000    1.0344836    -6.500388    539.33388  0.032149135  0.032486778            3 
 1399000    1.0298065   -6.4926735    541.29266  0.032242832   0.03247816            4 
 1400000    1.0235258   -6.5025461    539.99114   0.03214233  0.032469743            3 
 1401000    1.0267728   -6.5311256    540.36242  0.032141471  0.032461186            8 
 1402000     1.028036   -6.5545145    540.37609  0.032119358  0.032452663            5 
 1403000    1.0202554   -6.5230649    540.94408  0.032130202  0.032444017            2 
 1404000    1.0182481   -6.5160535    540.90254  0.032104852  0.032435473            3 
 1405000     1.012439   -6.5801692    538.80841  0.031957794  0.032426891            5 
 1406000    1.0034348   -6.5644338    538.79295  0.031934148  0.032418068            7 
 1407000    1.0464576   -6.5659329    541.80709  0.032089972  0.032409306            5 
 1408000    1.0348882   -6.5606836    541.54838  0.032051869  0.032400591            4 
 1409000    1.0138751   -6.4985842    543.66975  0.032154586  0.032392152            4 
 1410000    1.0236189   -6.5523548    542.37984  0.032055546   0.03238355            3 
 1411000    1.0151674   -6.5373767     542.3516   0.03203116  0.032375203           13 
 1412000    1.0253098   -6.5220264    542.65702    0.0320265   0.03236661            7 
 1413000    1.0408126   -6.5024445    544.86315  0.032133944  0.032358097            4 
 1414000    1.0184767   -6.5365727    543.73329   0.03204463  0.032349504            5 
 1415000    1.0495375   -6.5503086     543.5943  0.032013798  0.032340848            8 
 1416000    1.0190339   -6.4923933    545.09529  0.032079525  0.032332363            3 
 1417000    1.0220741   -6.5738987    542.80649  0.031922282  0.032323694           12 
 1418000     1.010104   -6.5497903    545.90665  0.032081961  0.032315098            6 
 1419000     1.025162    -6.564596    544.95227  0.032003304  0.032306492            6 
 1420000    1.0294176   -6.5124038    547.23141  0.032114519  0.032298017            4 
 1421000    1.0239267   -6.5348817    544.67192   0.03194182  0.032289441            4 
 1422000      1.00425   -6.5360599    545.74405  0.031982188  0.032280958            2 
 1423000    1.0290589   -6.5378221    545.58332    0.0319503  0.032272374            5 
 1424000    1.0153342   -6.5147832    546.18773  0.031963233  0.032264014            3 
 1425000     1.016433   -6.5360797    545.22576  0.031884547  0.032255585            8 
 1426000    1.0274421   -6.5062099    546.15123  0.031916271   0.03224708            3 
 1427000    1.0328778   -6.5113253    548.39708  0.032025057  0.032238787            3 
 1428000    1.0057232   -6.5507203    546.72855  0.031905261  0.032230452            5 
 1429000     1.025294   -6.5331406     548.2415  0.031971163  0.032222074            4 
 1430000    1.0308958   -6.5215802     548.7028  0.031975687  0.032213592            3 
 1431000    1.0055045    -6.526335    548.38537  0.031934857  0.032205093            5 
 1432000    1.0269396   -6.5087817    550.53758  0.032037801  0.032196561            4 
 1433000    1.0129062   -6.5762412    547.26806  0.031825312   0.03218809            6 
 1434000     1.013644   -6.5658944    548.45541  0.031872118  0.032179437            6 
 1435000    1.0243842   -6.5261348    547.89246  0.031817216  0.032170815            3 
 1436000    1.0022292   -6.5712337    547.76905  0.031787897  0.032162214            5 
 1437000    1.0245313   -6.5575614     548.3419  0.031798997  0.032153448            4 
 1438000    1.0261418   -6.5465677    548.18757   0.03176794  0.032144728            3 
 1439000    1.0482818   -6.5456651    550.38988  0.031873401  0.032136313            5 
 1440000    1.0273161   -6.5680461    548.32988  0.031732053  0.032127921            4 
 1441000    1.0393231   -6.5216936    552.59578   0.03195673  0.032119622            2 
 1442000    1.0067754    -6.517112      553.197  0.031969314  0.032111245            2 
 1443000    1.0123042   -6.5641585    550.87583  0.031813111  0.032102651            4 
 1444000    1.0002244   -6.5676635    550.12845  0.031747948  0.032094071            5 
 1445000    1.0252998   -6.5581913    550.30735  0.031736295  0.032085402            4 
 1446000    1.0178258   -6.5298301    551.33415  0.031773522  0.032076678            8 
 1447000    1.0115116   -6.5634816    551.42704  0.031756913  0.032067961            7 
 1448000    1.0240278   -6.5887685    548.84288  0.031586261  0.032059015            2 
 1449000    1.0171458    -6.516543     551.0157  0.031689424  0.032050113            2 
 1450000    1.0031403    -6.569728    551.54121   0.03169777  0.032041159            3 
 1451000    1.0120017   -6.5549292    551.83661   0.03169289  0.032032286            8 
 1452000    1.0163411   -6.5175488     553.0608  0.031741323  0.032023406            3 
 1453000    1.0232474   -6.5949692    548.33302  0.031448327   0.03201442            3 
 1454000    1.0378718   -6.5664738    552.37304  0.031658244  0.032005462            4 
 1455000     1.001099   -6.5691561     553.2489  0.031686649  0.031996794            4 
 1456000   0.99988604   -6.5494134    552.99777  0.031650514  0.031988009            4 
 1457000    1.0297922   -6.5178693    553.39627  0.031651583  0.031979154            6 
 1458000    1.0152874   -6.5254377    554.01946  0.031665493  0.031970309            6 
 1459000    1.0160706   -6.5490291    552.33578  0.031547623  0.031961534            7 
 1460000    1.0137759    -6.555623    554.32831  0.031639744  0.031952935            4 
 1461000    1.0252827   -6.5100552    555.51288  0.031685654  0.031944203            3 
 1462000    1.0247574   -6.5701773    552.69816  0.031503543  0.031935497            3 
 1463000    1.0212755   -6.5899151    553.94127  0.031552818  0.031926672            3 
 1464000    1.0172646    -6.543367    554.04401  0.031537114  0.031917929            5 
 1465000     1.022189   -6.5452577    553.33517  0.031475266  0.031909005            3 
 1466000    1.0294086   -6.5411286    554.61578  0.031526591  0.031900129            3 
 1467000    1.0066336   -6.5113779    556.37902  0.031605261    0.0318914            5 
 1468000    1.0054968   -6.5703943     556.5792  0.031595095  0.031882714            7 
 1469000    1.0140916   -6.5529738    554.89115  0.031477828  0.031874048            7 
 1470000    1.0085677   -6.5418045    557.14934   0.03158443  0.031865274            2 
 1471000     1.036707   -6.5765916    555.40492  0.031464135  0.031856273            5 
 1472000   0.97575234   -6.5730801    556.79268  0.031521325  0.031847415            9 
 1473000    1.0188617   -6.5481811    558.51651  0.031597449  0.031838608            4 
 1474000    1.0102726   -6.5821291    556.90326  0.031484807  0.031829855            6 
 1475000     1.027673   -6.5581758    555.99161  0.031411955  0.031821115            6 
 1476000    1.0110469   -6.5468187    557.13415   0.03145518  0.031812321            6 
 1477000    1.0189136   -6.5741065    557.20533  0.031437899  0.031803708            4 
 1478000    1.0100762   -6.5766165     557.6795  0.031443364  0.031795037            5 
 1479000    1.0124275   -6.5816454    557.85469  0.031431975  0.031786337            1 
 1480000    1.0508416   -6.5526016    560.10686  0.031537548  0.031777652            3 
 1481000    1.0333421   -6.5840478    559.67256  0.031491817  0.031769034            6 
 1482000    1.0142692   -6.5753385    557.92307  0.031372192  0.031760503           11 
 1483000    1.0286652   -6.5592383    560.06444  0.031471367  0.031751939            7 
 1484000    1.0292718   -6.5722731    560.63003   0.03148192  0.031743326            6 
 1485000      1.00907   -6.5572661    560.46077  0.031451222  0.031734958            2 
 1486000   0.99987073   -6.5533075    561.44686  0.031485355  0.031726591            4 
 1487000    1.0271231   -6.5718812    561.04621  0.031441729   0.03171809            4 
 1488000    1.0127743   -6.5714473    560.68173  0.031400186  0.031709776            7 
 1489000   0.98447142   -6.5435515    563.56288  0.031540345  0.031701298            3 
 1490000    1.0108702   -6.5701226    560.83617  0.031366676  0.031692894            4 
 1491000   0.99985825   -6.5525506    561.77551  0.031398139  0.031684302            2 
 1492000    1.0188975   -6.5483539      562.438  0.031414097  0.031675693            3 
 1493000   0.97243688   -6.5992665    561.28453  0.031328674  0.031667093            3 
 1494000    1.0258953   -6.5636224    563.93409  0.031455494  0.031658482            6 
 1495000    1.0167872   -6.5577132    563.33842   0.03140125  0.031650027            2 
 1496000   0.99923449    -6.551309    564.37007  0.031437726   0.03164143            5 
 1497000   0.99490565   -6.5517729    563.18702  0.031350869  0.031632956            5 
 1498000    1.0229114   -6.5807603    563.44343  0.031344205  0.031624329            7 
 1499000   0.97568648   -6.5675321    564.30123  0.031370982  0.031615707            5 
 1500000    1.0011762    -6.586013    563.83648  0.031324249  0.031607057            2 
 1501000     1.007473   -6.5723335    562.97967  0.031255811  0.031598359            2 
 1502000    1.0032601   -6.5611793    563.74569  0.031277502  0.031589832            3 
 1503000    1.0087586   -6.5922681    563.76281  0.031257641  0.031581025            2 
 1504000    1.0073787   -6.6002087    563.30022  0.031211226  0.031572378            6 
 1505000     1.007327   -6.5757014    564.67805   0.03126678  0.031563749            5 
 1506000      1.00847   -6.5713386    565.38623  0.031285205  0.031555109            3 
 1507000    1.0011949    -6.577955    566.07552  0.031302562  0.031546743            3 
 1508000    1.0107108   -6.5622333    565.85701  0.031269728  0.031538311            3 
 1509000    1.0004454   -6.5737023    567.43744  0.031336285  0.031529789            4 
 1510000    1.0144846   -6.5816943    566.00264  0.031236349  0.031521264            2 
 1511000    1.0135326   -6.5851755    567.07191  0.031274647  0.031512964            5 
 1512000     1.005326    -6.577611    567.61334  0.031283804  0.031504749            3 
 1513000    1.0218734   -6.5713629    568.57163  0.031315908   0.03149649            3 
 1514000    1.0129765   -6.5955517    567.26062  0.031223064  0.031488331            3 
 1515000    1.0057637   -6.6076825    567.70123  0.031226691  0.031479849            6 
 1516000    1.0081986   -6.5761038    568.99787  0.031277367  0.031471383            4 
 1517000    1.0145297   -6.5554314    569.25027  0.031270614   0.03146335            7 
 1518000    1.0103554   -6.5322688     570.4492  0.031315832  0.031455143            3 
 1519000    1.0187149   -6.5678917    568.44183   0.03118509  0.031447048            2 
 1520000    1.0152505   -6.5481142    568.87544  0.031188346  0.031438801            5 
 1521000   0.98754405   -6.5982756    568.31425  0.031137094  0.031430364            8 
 1522000    1.0215464   -6.5992421    568.69615  0.031137546  0.031422032            9 
 1523000    1.0235441   -6.5965789    570.62034  0.031222387  0.031413713            6 
 1524000    1.0293409   -6.6059332     569.1677  0.031122468  0.031405335            3 
 1525000    1.0137342   -6.5695884    569.59296  0.031125298  0.031396978            4 
 1526000    1.0123632    -6.587998    572.47973  0.031262546  0.031388608            9 
 1527000    1.0031573   -6.5929339    569.26711  0.031066749  0.031380177            4 
 1528000    1.0125769    -6.560989    570.70812  0.031125007  0.031371801            2 
 1529000   0.99676172   -6.5968813     569.8383  0.031057243  0.031363273            6 
 1530000    1.0076198   -6.5501728    571.36484  0.031120089  0.031354756            5 
 1531000    1.0023595   -6.5787896    570.92391  0.031075763  0.031346332            4 
 1532000   0.98456665   -6.5585335    573.67778  0.031205275  0.031337884            2 
 1533000    1.0162784   -6.5749174    571.57739  0.031070743   0.03132949            4 
 1534000     1.010369   -6.5538185    573.33548  0.031145995  0.031321084            3 
 1535000   0.99887998   -6.5805579     572.8202   0.03109773  0.031312947            5 
 1536000    1.0020222   -6.6191652     571.2463  0.030992095  0.031304568            4 
 1537000     1.010908   -6.5952235    572.84398  0.031058555  0.031296166            2 
 1538000    1.0015891   -6.5799939     574.0564  0.031104053  0.031287792            3 
 1539000   0.96762221   -6.5525152     574.4454  0.031104906  0.031279565            2 
 1540000    1.0149761   -6.5597709    575.72849  0.031154139  0.031271331            4 
 1541000    1.0156003   -6.5729551    574.97968  0.031093428   0.03126313            3 
 1542000    1.0180698   -6.5563431    575.59827  0.031106694  0.031254786            6 
 1543000     1.008138   -6.5821395    574.76829   0.03104171  0.031246512            3 
 1544000   0.99180168    -6.578003    575.98733  0.031087399  0.031238262            4 
 1545000    0.9902015   -6.5884261    574.77277  0.031001767  0.031230051           11 
 1546000    1.0034581   -6.5556728    575.59546   0.03102606  0.031221638            2 
 1547000   0.99956145   -6.5612837     575.0738  0.030977903  0.031213325            5 
 1548000    1.0021793   -6.5573701    576.14458  0.031015535  0.031205024            4 
 1549000   0.99817471   -6.5584101    576.41823  0.031010234  0.031196785            5 
 1550000    1.0057221   -6.6052772    575.14583  0.030921819  0.031188365            3 
 1551000   0.98894946   -6.5956375    576.40589  0.030969584  0.031180011            9 
 1552000    1.0049794   -6.5633195    578.30688  0.031051701   0.03117179            5 
 1553000    1.0314206   -6.5340845    577.91328  0.031010586  0.031163747            4 
 1554000    1.0044626   -6.5796701     575.7392  0.030874045  0.031155613            2 
 1555000    1.0068534   -6.5686853    577.58368  0.030953037  0.031147312            4 
 1556000    0.9957322   -6.5561355    576.04367  0.030850668  0.031138981            9 
 1557000   0.99569392    -6.536135    578.85194  0.030981157  0.031130646           14 
 1558000    1.0052685    -6.542435    578.88861  0.030963233  0.031122502            4 
 1559000    1.0102485   -6.5724433    578.32096   0.03091303   0.03111413            4 
 1560000    1.0077225   -6.6002794    578.27834  0.030890937  0.031105884            1 
 1561000    1.0241635   -6.6019171    577.68405  0.030839422  0.031097519            9 
 1562000   0.98360558   -6.5799405    580.18148  0.030952917  0.031089105            5 
 1563000    1.0056337   -6.5698821    579.51872  0.030897778  0.031080707            3 
 1564000    1.0001785   -6.6009683     579.2424  0.030863299  0.031072358            4 
 1565000    1.0041775   -6.5704571    578.87803  0.030824176   0.03106386            4 
 1566000   0.99834631   -6.5801247      579.803  0.030853714  0.031055533            2 
 1567000   0.99490085   -6.5725051    580.77048  0.030885475  0.031046978            2 
 1568000    1.0123952   -6.5850105     578.4134  0.030740508  0.031038546            4 
 1569000    1.0061392   -6.5848015    580.11579  0.030811334  0.031030315            6 
 1570000    0.9957417   -6.5769883    581.38008  0.030858815  0.031021947            7 
 1571000     1.001027   -6.6297849    580.33272  0.030783615  0.031013467            3 
 1572000    1.0090828   -6.5575474     580.4771  0.030771687  0.031004982            3 
 1573000   0.99463192   -6.6289172    579.01195  0.030674505  0.030996534            7 
 1574000   0.97726034   -6.6032216     582.3631  0.030832438  0.030988102            6 
 1575000   0.99201117   -6.6083594    581.78953  0.030782515  0.030979739            7 
 1576000   0.97536446   -6.5674199    580.40893  0.030689981  0.030971394            4 
 1577000   0.99185997   -6.6138956    581.66077  0.030736671   0.03096305            3 
 1578000    1.0174658   -6.5566898    582.32827  0.030752444  0.030954626            4 
 1579000    1.0097738   -6.5913523    582.15923  0.030724046  0.030946098            2 
 1580000   0.99303546   -6.6104485     581.2008  0.030654051  0.030937531            6 
 1581000    1.0061749   -6.5862607    580.94381  0.030621116   0.03092894            3 
 1582000      1.01532   -6.6246901     582.2465   0.03067038   0.03092046            3 
 1583000    1.0046005    -6.633142    580.05187  0.030535474  0.030911798            5 
 1584000    1.0051107   -6.6432727    582.58927  0.030649688  0.030903275            5 
 1585000   0.98814375    -6.632151    584.00911  0.030705001  0.030894639            7 
 1586000   0.99633488   -6.5915061    584.79837  0.030727111  0.030886276            4 
 1587000   0.99443857   -6.6057057    585.28865  0.030733493  0.030877933            4 
 1588000   0.97321551   -6.6034893    584.82628  0.030689876  0.030869726            5 
 1589000   0.99810282   -6.6281918    584.65836  0.030661756  0.030861236            4 
 1590000    1.0168482   -6.5888986    585.96026  0.030710705  0.030852869            6 
 1591000    1.0067732   -6.6308187    582.96937  0.030534746  0.030844299            3 
 1592000   0.98661511   -6.5943317    584.51944  0.030596704  0.030835865            4 
 1593000   0.98898852   -6.6150951    584.51524  0.030577278  0.030827354            4 
 1594000   0.97499178   -6.6027492    585.54745  0.030612058  0.030818793            2 
 1595000    1.0010752   -6.6196454    584.88386  0.030558196    0.0308103            9 
 1596000    1.0182073   -6.6203409    584.95603  0.030542817  0.030801805            4 
 1597000   0.98183033    -6.613307    585.76849  0.030566087  0.030793464            2 
 1598000    1.0114047   -6.6050227    586.59838  0.030590237  0.030784988            6 
 1599000    1.0049329   -6.5905293    585.42616  0.030510015  0.030776613            4 
 1600000   0.98040979   -6.6067023    586.89769  0.030567588  0.030768222            6 
 1601000   0.98533311   -6.6186739    585.33282  0.030467042  0.030759649            5 
 1602000   0.98909073   -6.6432454    586.18361  0.030492281  0.030751145            7 
 1603000   0.97749823   -6.5980306    585.36065  0.030430477  0.030742816            3 
 1604000   0.96436942   -6.6025116    587.65187  0.030530542  0.030734343            3 
 1605000   0.97549064   -6.6236284    588.61785  0.030561674  0.030725895            4 
 1606000    0.9973674   -6.6190853    586.45175  0.030430249  0.030717519            9 
 1607000    1.0025948   -6.5982045    587.33562  0.030457147  0.030709165            6 
 1608000   0.99530545   -6.6291851    588.45104  0.030496011  0.030700737            5 
 1609000   0.97915102   -6.6442736    588.03725  0.030455627    0.0306923            3 
 1610000   0.98023775   -6.6639947    586.93577  0.030379698  0.030683803            6 
 1611000    1.0060866   -6.6293116    589.08637  0.030472086  0.030675265            8 
 1612000   0.98449496   -6.6192981    589.75593  0.030487796   0.03066668            3 
 1613000   0.98954029   -6.6174363     588.2854  0.030392922  0.030658072            8 
 1614000   0.98686263     -6.64156    585.99528  0.030255849  0.030649319            3 
 1615000    1.0203084   -6.6330565     588.1968  0.030350712  0.030640604            4 
 1616000   0.99493578   -6.5962812    588.09386  0.030326622  0.030631963            6 
 1617000    1.0088961   -6.6238433    588.87455  0.030348101   0.03062315            2 
 1618000     1.003475   -6.6115212    588.18905  0.030294038  0.030614312            3 
 1619000     0.977735   -6.6219389    589.76718  0.030356557  0.030605621            4 
 1620000   0.99579434   -6.6205217    588.38745  0.030266844  0.030596903            3 
 1621000   0.99575642   -6.6358436    586.84961  0.030169114  0.030588138            4 
 1622000    1.0104356   -6.5944504    590.32104  0.030328865   0.03057929            6 
 1623000   0.99650327   -6.6284034    587.76446  0.030178911  0.030570482            7 
 1624000     1.002575   -6.6017978    590.68795  0.030310342    0.0305617            3 
 1625000    0.9909317   -6.6117028    588.19392  0.030163791  0.030552868            9 
 1626000   0.99243851   -6.6441146    588.52794  0.030162359   0.03054406            5 
 1627000    0.9840403   -6.6353317      591.077   0.03027438  0.030535292            3 
 1628000   0.98484833   -6.6484344    590.22857  0.030212355  0.030526516            7 
 1629000   0.99312232   -6.6232813    590.52105  0.030208771  0.030517722            6 
 1630000   0.99197876    -6.621249    589.98625  0.030162896  0.030508992            3 
 1631000    1.0016566   -6.6080897    590.73231  0.030182521  0.030500192            6 
 1632000   0.97949429   -6.6303715    590.81327  0.030168161  0.030491363            5 
 1633000   0.98288182   -6.5984807    591.84802  0.030202491  0.030482603            2 
 1634000   0.99724527   -6.6045591    592.34105  0.030209152  0.030473783            1 
 1635000    1.0066877   -6.6028835    592.25895  0.030186491  0.030465273            3 
 1636000    0.9939017    -6.629888    592.61553  0.030186202   0.03045655            6 
 1637000   0.98232958   -6.6192648    593.42173  0.030208803  0.030447887            5 
 1638000   0.98735875   -6.6203172    593.37495  0.030187981  0.030439176            4 
 1639000   0.99558825   -6.5999374    593.88894  0.030195696   0.03043056            6 
 1640000   0.99150469   -6.6231751    592.87844  0.030125937  0.030421873            5 
 1641000   0.98832448    -6.586742    594.83163  0.030206766  0.030413248           14 
 1642000   0.99317417   -6.6141897    593.38208  0.030114803  0.030404725            4 
 1643000    1.0142328   -6.6208175    595.39174  0.030198404  0.030396115            2 
 1644000   0.99253258   -6.6546965    594.65155  0.030142516  0.030387523            3 
 1645000   0.98537917   -6.6113382    594.96627  0.030140135  0.030378779            3 
 1646000   0.98783499   -6.6201228    593.09757  0.030027216  0.030370113            2 
 1647000    1.0000672    -6.606475    594.89018  0.030099685  0.030361313            5 
 1648000   0.98541053   -6.6358941    594.84102  0.030078935   0.03035258            2 
 1649000    1.0025406    -6.635575    594.17028  0.030026798  0.030343771            4 
 1650000   0.96695842   -6.6194902    594.62246  0.030031437  0.030334969            5 
 1651000    1.0046508   -6.6193715    595.01262  0.030032941  0.030326145            4 
 1652000   0.95720025   -6.5893295    595.94371  0.030061729  0.030317431            4 
 1653000   0.98857126   -6.6153914    597.20987  0.030107374  0.030308679            4 
 1654000   0.97663797   -6.6055994    595.29826  0.029992859  0.030300025            4 
 1655000   0.98278183   -6.6441598    595.44408  0.029982079  0.030291307            1 
 1656000    0.9837242   -6.6236551    596.21372  0.030002703  0.030282625            6 
 1657000    0.9908885   -6.5996588    595.73966  0.029960755  0.030273779            3 
 1658000   0.98595321   -6.6211211    598.88209  0.030100628  0.030265055            2 
 1659000    0.9750932   -6.6088953    597.99735  0.030038042  0.030256396            4 
 1660000   0.97054424   -6.6031128      597.827  0.030011395   0.03024777            2 
 1661000   0.98401015   -6.6397166    598.31554  0.030017838  0.030239178            5 
 1662000   0.99878812   -6.6065466    597.07249  0.029937449  0.030230593            2 
 1663000   0.97405691   -6.6390467    597.48243  0.029939989  0.030221951            4 
 1664000   0.98997802    -6.641372    598.86228    0.0299911  0.030213418            2 
 1665000   0.97192646   -6.5987996    598.96688  0.029978322  0.030204812            2 
 1666000   0.96414077   -6.6657556    598.87387  0.029955676  0.030196181            3 
 1667000   0.97989389   -6.6909228    596.12188  0.029800134  0.030187415            4 
 1668000    1.0049035   -6.6532536    597.34884  0.029843567  0.030178617            4 
 1669000    1.0012378   -6.6108664    601.07697  0.030011832  0.030170035           10 
 1670000   0.96696657   -6.6311086    600.63741  0.029971927  0.030161512            4 
 1671000    1.0009549    -6.614151    598.21579  0.029833223  0.030153016            5 
 1672000   0.99214755   -6.6112292     600.4233  0.029925403  0.030144335           10 
 1673000   0.98465311   -6.6623404    598.17981  0.029795766  0.030135639            4 
 1674000   0.96594401   -6.6168936    600.92087   0.02991442  0.030127103            3 
 1675000   0.99457275    -6.651712    600.62801  0.029881991  0.030118611            7 
 1676000   0.96361049   -6.6461942    600.57726  0.029861638  0.030110088            6 
 1677000   0.98080802   -6.6191844    601.32145  0.029880812   0.03010172            4 
 1678000   0.98434058   -6.6357192    600.26138  0.029810359  0.030093287            5 
 1679000    1.0022851   -6.6237392    601.60355  0.029859219  0.030084897            3 
 1680000   0.97602607   -6.6247997    601.32973  0.029827864  0.030076315            4 
 1681000   0.99537912   -6.6424905    600.68723  0.029778268  0.030067718            5 
 1682000   0.97800063   -6.6410011    603.89215   0.02991935  0.030059287            4 
 1683000    0.9796706   -6.6472159    603.02979  0.029858873  0.030050895            3 
 1684000   0.97279942   -6.6530604    602.87966  0.029833712  0.030042315            5 
 1685000    0.9809051   -6.6251113    603.83832  0.029863419  0.030033736            3 
 1686000   0.98464133   -6.6834076    601.26826  0.029718676   0.03002522            4 
 1687000   0.96854292   -6.6387256    602.85936  0.029779656  0.030016628            3 
 1688000   0.96411889   -6.6158943    603.81877  0.029809378  0.030008195            3 
 1689000   0.99022572   -6.6301918    604.24981  0.029812996  0.029999711            7 
 1690000   0.97900793   -6.6211466    604.13599  0.029789743  0.029991173            7 
 1691000   0.97360868   -6.6492174    603.43459  0.029737561  0.029982731            3 
 1692000   0.96446375   -6.6518189    604.31639  0.029763416  0.029974193            7 
 1693000   0.96426672    -6.666974    604.17007  0.029738633  0.029965677            9 
 1694000   0.98441077   -6.6689344    605.37038  0.029780125  0.029957129            2 
 1695000    1.0040326    -6.642693    604.08165  0.029699196  0.029948671            7 
 1696000   0.97706012   -6.6116612    606.18491  0.029785029  0.029940362            3 
 1697000   0.96317152   -6.6288057    606.96367  0.029805719  0.029932029            4 
 1698000   0.97915885   -6.6751263    603.19342  0.029603132  0.029923693            4 
 1699000   0.97537772    -6.675738    604.30227  0.029640096  0.029915133            4 
 1700000   0.97908385   -6.6546607    606.40993  0.029725977  0.029906609            4 
 1701000   0.97393863   -6.6206841    604.86073  0.029632605   0.02989817            5 
 1702000   0.97958464   -6.6455479    606.60926  0.029700806  0.029889602            8 
 1703000   0.95367112   -6.6340956    606.57448  0.029681664  0.029881177            5 
 1704000   0.98900567   -6.6617617    606.51078   0.02966113  0.029872821            6 
 1705000   0.99453022   -6.6471036    605.77269  0.029607658  0.029864275            4 
 1706000    0.9614971    -6.650419    607.19554  0.029659806  0.029855764            4 
 1707000   0.96544303   -6.6745128    606.26695  0.029597098  0.029847334            5 
 1708000   0.98104035   -6.6852181    607.39187  0.029634654  0.029838851            4 
 1709000   0.96513185   -6.6350995    608.27482  0.029660368   0.02983038           10 
 1710000   0.94770481   -6.6708336     606.7382  0.029568138  0.029821959            4 
 1711000   0.99026192   -6.6386457    608.14081  0.029619171  0.029813547            5 
 1712000   0.97742061   -6.6722961    607.32872   0.02956234  0.029805204            4 
 1713000   0.99037717   -6.6461514    609.43358  0.029647479  0.029796927            3 
 1714000   0.96337281    -6.671798    608.67372  0.029593238  0.029788443            4 
 1715000   0.97140353   -6.6848966     607.5755  0.029522619  0.029779884            4 
 1716000   0.96406138   -6.6622646    608.86573  0.029568072  0.029771406            7 
 1717000   0.98759428   -6.6576835    607.21615   0.02947079   0.02976278            2 
 1718000   0.98786213   -6.6828092    608.32995  0.029507662  0.029754258            5 
 1719000   0.98254512   -6.6295447    611.11501   0.02962551  0.029745729            2 
 1720000   0.96833808   -6.6481408    610.35881  0.029571648  0.029737393           11 
 1721000   0.99323955   -6.6607157    609.01468   0.02948938     0.029729            4 
 1722000   0.96831357   -6.6625822    610.11243  0.029525379  0.029720543            6 
 1723000    0.9663505   -6.6824188    611.70948  0.029585484  0.029711901            4 
 1724000   0.97404529   -6.6738819    609.25687  0.029449771  0.029703307            8 
 1725000   0.95713177   -6.6957134    607.85034  0.029364751  0.029694721            6 
 1726000   0.98310772   -6.6769148    610.57943  0.029479501  0.029686226            6 
 1727000    1.0064987   -6.6685517    610.62271   0.02946452  0.029677774            3 
 1728000   0.96760665   -6.6972774    610.05456   0.02942007  0.029669212            4 
 1729000   0.97552321   -6.6362283    611.31757  0.029463928  0.029660821            6 
 1730000   0.99745259   -6.6768132    610.80204  0.029422064  0.029652342            3 
 1731000   0.96878775   -6.6696348    612.26409  0.029475452  0.029643797            2 
 1732000   0.97595505   -6.6697576     612.6078  0.029474971  0.029635365            3 
 1733000   0.97073659   -6.6843172    611.75925   0.02941716  0.029626901            4 
 1734000   0.97861252   -6.6416186     613.7591  0.029496304  0.029618299            5 
 1735000   0.96369608   -6.6181743    613.62655  0.029472937  0.029609902            5 
 1736000   0.95275987   -6.6710976    612.45058   0.02939951  0.029601326            4 
 1737000    1.0009524   -6.6299578    614.73434  0.029492149  0.029592799            6 
 1738000   0.99292239   -6.6370904    613.16154  0.029399767  0.029584433            6 
 1739000   0.95456293   -6.6877756     613.5088  0.029399502  0.029575935            6 
 1740000   0.98381092   -6.6155401    615.67393    0.0294863  0.029567556            4 
 1741000    0.9603243   -6.6498594    612.94959  0.029338962  0.029559137            9 
 1742000   0.95698341   -6.6793456    614.69703  0.029405713  0.029550715            4 
 1743000     1.000374   -6.6952845     613.3564  0.029324746  0.029542356            5 
 1744000   0.98810485   -6.6796196    614.67795   0.02937108  0.029533939            3 
 1745000   0.96399079   -6.7023243    614.30705  0.029336535  0.029525606            6 
 1746000   0.97875705   -6.7023214    614.43874  0.029326019  0.029517289            7 
 1747000   0.96610447   -6.6681122    616.31541  0.029398751  0.029508975            4 
 1748000   0.97786746   -6.6522825    614.58941  0.029299648  0.029500786            5 
 1749000   0.97530542    -6.678263    614.75937  0.029290993  0.029492378            3 
 1750000    0.9710247   -6.6937257    614.83609  0.029277909  0.029483901            3 
 1751000   0.96115578    -6.645076    614.58997  0.029249475  0.029475522            4 
 1752000   0.97455544   -6.6846466     614.8092  0.029243208  0.029467168            4 
 1753000   0.95370181   -6.6543948    617.98626  0.029377556  0.029458895            7 
 1754000   0.96597616   -6.7070906    615.44902  0.029240261  0.029450547            6 
 1755000   0.95923421    -6.657166    618.22988  0.029355645  0.029442135            9 
 1756000   0.98010564   -6.6856726    616.08417    0.0292371  0.029433782            7 
 1757000   0.96612776   -6.6871848    616.30317  0.029230847  0.029425255            3 
 1758000   0.94357897   -6.6972188    615.97266  0.029198552  0.029416777           17 
 1759000   0.95772349   -6.6513061    618.66748  0.029309621  0.029408249            5 
 1760000   0.94940437   -6.6614324    617.74224  0.029249159  0.029399895            5 
 1761000   0.96014694   -6.6763041     617.1974  0.029206767  0.029391619            4 
 1762000   0.98946308   -6.6870065    618.60573  0.029256798  0.029383222            3 
 1763000   0.99254653   -6.7462877    616.78508  0.029154145  0.029374749           10 
 1764000   0.97513051   -6.7114257    617.38487  0.029165952  0.029366292            4 
 1765000    0.9618106    -6.676441     617.8364  0.029170746   0.02935788            4 
 1766000   0.97791861   -6.6898278     618.2692  0.029174651  0.029349544            4 
 1767000   0.97552722   -6.6812938    621.13176  0.029293141  0.029341289            7 
 1768000    0.9713571   -6.6961636    618.12427  0.029134817  0.029332991            6 
 1769000     0.971054   -6.7027546    616.07234  0.029021686  0.029324564           16 
 1770000   0.97594516   -6.6514118    619.06064  0.029145981  0.029316311            5 
 1771000   0.95634778   -6.6802463     620.1655  0.029181512  0.029307991            5 
 1772000   0.98500708   -6.6817832    618.13136  0.029069383  0.029299593            4 
 1773000   0.97521424   -6.6785372    620.43406  0.029161218  0.029291152            3 
 1774000   0.98771379   -6.6858857    618.75943  0.029066114  0.029282731            4 
 1775000    0.9907548   -6.7038784    618.67672  0.029045855  0.029274207            4 
 1776000   0.94535653    -6.686144    619.85724  0.029084893  0.029265658            2 
 1777000   0.98101363   -6.7045087    619.59798  0.029056367  0.029257261            6 
 1778000     0.949128    -6.682643    618.83644  0.029004332  0.029248715            4 
 1779000   0.97816194   -6.6710573    620.12723  0.029048493  0.029240244            9 
 1780000   0.96426854   -6.7332435    619.27084   0.02899208  0.029231734            5 
 1781000   0.96778965   -6.6963599    620.03019  0.029011332  0.029223219            9 
 1782000   0.98730424   -6.6747856    622.03608  0.029088855  0.029214838            3 
 1783000   0.97257921    -6.702296    622.27208  0.029083571  0.029206555            6 
 1784000   0.95374889   -6.7172824     621.5343  0.029032805  0.029198189            7 
 1785000   0.97529713   -6.7357948    621.80428  0.029029145  0.029189678            4 
 1786000   0.95021334   -6.6781977    619.80772  0.028919733  0.029181173            3 
 1787000   0.97504227   -6.6766283    623.44174  0.029073015   0.02917275            4 
 1788000   0.95815955   -6.6983977     622.7348  0.029023807  0.029164337            3 
 1789000   0.96535466   -6.7196726    620.33393  0.028895749  0.029155759            9 
 1790000   0.94482381   -6.6489633    623.25704  0.029015691  0.029147281            8 
 1791000   0.95500513   -6.7013714    620.69229  0.028880155  0.029138844            8 
 1792000   0.97167177   -6.6753089    621.51257  0.028902184  0.029130435           10 
 1793000   0.95844955   -6.6945251    621.82334  0.028900508  0.029122008            7 
 1794000    0.9924798   -6.6615148    623.36937  0.028956214  0.029113581            3 
 1795000   0.94540718   -6.6844779    621.73476  0.028864195  0.029105158            6 
 1796000   0.94750017   -6.7229584    623.98685  0.028952619  0.029096657            4 
 1797000    0.9589403   -6.6982816    624.98032  0.028982578  0.029088147            4 
 1798000   0.97006745   -6.6968924    623.85903   0.02891449  0.029079706           11 
 1799000     0.962898   -6.7031668    625.02861  0.028952595  0.029071242            5 
 1800000   0.94820845   -6.6800298    624.99415  0.028934914  0.029062752           12 
 1801000   0.96625808   -6.6931999    624.52617  0.028897195  0.029054239            9 
 1802000   0.98000388   -6.7084444    622.98261  0.028809777  0.029045853            5 
 1803000   0.94138201   -6.7021295    622.98435  0.028793878  0.029037473            3 
 1804000   0.97723498   -6.6860363    625.73936  0.028905181  0.029029047            4 
 1805000   0.94516929   -6.7116504    624.22583  0.028819291  0.029020576            3 
 1806000   0.95204226   -6.7321186    622.37251  0.028717816   0.02901206            6 
 1807000   0.95624421   -6.7101469     624.2481   0.02878842  0.029003458            6 
 1808000   0.95151494   -6.7196909    625.54175  0.028832124   0.02899507            6 
 1809000   0.96847898   -6.7026196    623.62185  0.028727743  0.028986513            2 
 1810000   0.96640698   -6.7229531    624.94351  0.028772722  0.028977972            4 
 1811000   0.96575242   -6.7159792    622.42007  0.028640717  0.028969458            3 
 1812000   0.94932557   -6.7033045    625.64342  0.028773152  0.028961003            7 
 1813000   0.95816869    -6.718586    625.05885  0.028730412  0.028952444            5 
 1814000   0.96578179   -6.6912777     626.7152  0.028790665  0.028944024            6 
 1815000   0.95609978   -6.7280504    626.31916  0.028756619  0.028935549            6 
 1816000   0.97807641   -6.6781473    626.30284  0.028740035  0.028927209            6 
 1817000   0.95835799   -6.6577218    629.61929  0.028876321  0.028918905            4 
 1818000   0.95254336   -6.6979065    627.85704  0.028779659  0.028910661            6 
 1819000   0.94998296   -6.6673357    628.43719  0.028790416  0.028902369            4 
 1820000   0.96310275   -6.6895367    627.49426  0.028731422  0.028894095            7 
 1821000   0.98566602    -6.706933    626.54839  0.028672359  0.028885664            4 
 1822000   0.95405776   -6.6950186    628.57355  0.028749248  0.028877386            4 
 1823000   0.95394119   -6.7034788    627.85815  0.028700775  0.028869043           10 
 1824000   0.97533077   -6.6827675    628.29843  0.028705155  0.028860719            6 
 1825000    0.9534706   -6.7796736    625.87225  0.028578642  0.028852215            6 
 1826000   0.94798455   -6.6886516    629.53839  0.028730302  0.028843812            5 
 1827000   0.98612109   -6.7003364    627.74687  0.028632862  0.028835545            3 
 1828000   0.95546677    -6.713569    628.64148  0.028657981   0.02882743            5 
 1829000   0.95870778    -6.727374    627.65706  0.028597461   0.02881923           14 
 1830000   0.92550994   -6.7176313    627.57971  0.028578311  0.028810954            5 
 1831000   0.94071201   -6.7319622    629.74095  0.028661067  0.028802673            4 
 1832000   0.96076809    -6.669927    631.50631  0.028725724  0.028794503            8 
 1833000   0.98656381   -6.7452848    628.58902  0.028577424   0.02878636            8 
 1834000   0.95494759   -6.7269661    630.78262  0.028661515  0.028778011            4 
 1835000   0.96597169   -6.6968146     630.9078  0.028651581  0.028769763            2 
 1836000   0.94576116   -6.7094644    630.79765  0.028630975  0.028761608            5 
 1837000   0.96626215   -6.7045409    631.72704   0.02865755  0.028753399           10 
 1838000    0.9607837   -6.6915559    631.84859   0.02864747  0.028745163            9 
 1839000   0.97093324   -6.7097777    630.38607  0.028565619  0.028736897            4 
 1840000   0.94766562   -6.7293216    632.84882  0.028661632  0.028728601            4 
 1841000    0.9641369   -6.6816235    632.35054  0.028623508  0.028720246            2 
 1842000    0.9494684   -6.7168029    631.05695  0.028549446  0.028711875            8 
 1843000   0.95776868   -6.7127309     632.2138  0.028586264  0.028703494            4 
 1844000   0.96176085   -6.7453681    629.91894  0.028467053  0.028695059            3 
 1845000   0.95481015   -6.7001492    632.61153   0.02857324  0.028686691            6 
 1846000   0.97022101   -6.7444121    628.90709  0.028390533  0.028678258            4 
 1847000   0.94248401   -6.7170512     631.2074  0.028478948  0.028669832            7 
 1848000   0.94784963     -6.70573    630.85869  0.028447813  0.028661476           13 
 1849000   0.96397337   -6.7274579    632.93914  0.028526191  0.028653167            7 
 1850000   0.95501407   -6.7363869    632.82615  0.028505683  0.028644929            4 
 1851000   0.94680936   -6.7264789    631.14905  0.028414778  0.028636606            4 
 1852000   0.94501311   -6.6840163    631.79847  0.028428657  0.028628323            5 
 1853000   0.94761315    -6.728237    630.45633  0.028352956  0.028619971            6 
 1854000   0.95096752    -6.742121    632.65071  0.028436296  0.028611506            3 
 1855000   0.95865739   -6.7452309    633.12231  0.028442152  0.028603085            6 
 1856000   0.94363772   -6.7123812    631.33149  0.028346421   0.02859474           11 
 1857000   0.94443396   -6.7673153    631.99925  0.028361122  0.028586379            5 
 1858000   0.95093004   -6.6976373    634.04389  0.028437563   0.02857799            5 
 1859000   0.95882596   -6.6759206    634.12877   0.02842607  0.028569566            6 
 1860000    0.9455145    -6.695911    634.32239  0.028419462  0.028561123            4 
 1861000   0.97726193   -6.6827703     633.5513  0.028369663  0.028552836            5 
 1862000   0.96336043   -6.7170317    634.46184  0.028395177  0.028544539            5 
 1863000   0.95308857   -6.7531319    637.33679  0.028508534  0.028536162            6 
 1864000   0.95615721    -6.745692     633.0171  0.028300121  0.028527826            6 
 1865000   0.95602828   -6.7055866    634.99942  0.028373522  0.028519427            5 
 1866000   0.93616286   -6.7300421     633.4656  0.028289818  0.028511124            7 
 1867000   0.96382957   -6.7091276    636.40399   0.02840582  0.028502884            6 
 1868000   0.95843582   -6.7003809    637.14142  0.028423511  0.028494701            4 
 1869000    0.9331942   -6.7200499    635.99445  0.028357163  0.028486513            5 
 1870000   0.94691219   -6.7130302    636.36889  0.028358685  0.028478197            2 
 1871000   0.93332331   -6.7226555    636.45052  0.028347164  0.028469827            9 
 1872000   0.95289563   -6.7498059    633.97311  0.028221737  0.028461368            8 
 1873000   0.95010065   -6.7143225    637.98757  0.028385281  0.028452924            5 
 1874000   0.96681503   -6.7398455    634.86211   0.02823115  0.028444464            7 
 1875000   0.93083096   -6.7003133    637.12066  0.028316474   0.02843608            3 
 1876000   0.94722959   -6.6993585    637.54271  0.028320127  0.028427815            3 
 1877000   0.93684057   -6.7244812    637.97923   0.02832442  0.028419391           14 
 1878000   0.94146349   -6.7629246    636.31939  0.028235685  0.028411054            5 
 1879000   0.96147901   -6.7259808    638.00131  0.028295251  0.028402639            4 
 1880000   0.95532712   -6.7563105    638.72816  0.028312418  0.028394336            6 
 1881000    0.9524301   -6.7329386    636.16554  0.028183836  0.028386058            6 
 1882000   0.96045134   -6.7230565    637.53248  0.028229387  0.028377696            5 
 1883000   0.94964088   -6.7626201    637.30497  0.028204327  0.028369391            7 
 1884000   0.95549012   -6.7528312     637.3088  0.028189526  0.028361017            5 
 1885000   0.93162306   -6.7077107    639.23044  0.028259524  0.028352763            5 
 1886000   0.94736335   -6.7183268    639.96301  0.028276909  0.028344566            9 
 1887000   0.94878621    -6.714822    639.29529  0.028232437  0.028336333            3 
 1888000   0.95335594   -6.7203192    639.97478  0.028247474  0.028328039            3 
 1889000   0.95810799   -6.7089922    639.69479  0.028220169  0.028319831            2 
 1890000   0.94832883   -6.7171943     639.0976  0.028178906   0.02831148            5 
 1891000   0.96560237   -6.7399185    639.18823  0.028167999  0.028303119            8 
 1892000   0.94233787   -6.7449122    638.18824  0.028109066  0.028294757            4 
 1893000   0.94742917   -6.7035821    639.86893  0.028168204  0.028286374            8 
 1894000   0.95485599   -6.7641631    637.08527  0.028030855  0.028278006            3 
 1895000   0.95383196   -6.7207889     639.4806  0.028121398  0.028269606            6 
 1896000   0.96255528   -6.7301055    638.61799  0.028068653  0.028261265            3 
 1897000   0.93453395   -6.7619115    639.78275  0.028105023  0.028252866            5 
 1898000   0.95112551   -6.6971651    640.08324  0.028103409  0.028244618            4 
 1899000   0.94785118   -6.7368561    640.46201  0.028105231  0.028236353            5 
 1900000    0.9577679   -6.7084122    639.66221   0.02805536  0.028228152            7 
 1901000    0.9473756   -6.7467854    640.46922  0.028075978  0.028219901            6 
 1902000   0.93764582   -6.7345274    640.42703  0.028059369  0.028211553            6 
 1903000   0.95044081   -6.7255331    642.96984  0.028155975  0.028203327            6 
 1904000   0.93694094   -6.7247843    642.44352  0.028118151  0.028195085            4 
 1905000   0.93263465   -6.7662708    640.33099  0.028010979  0.028186683            7 
 1906000   0.94840394   -6.7271711    642.74816  0.028101966    0.0281783            8 
 1907000   0.94196034   -6.7822441    640.88341  0.028005742  0.028169916            6 
 1908000   0.94884586   -6.7509538     642.2701  0.028051629  0.028161646            9 
 1909000   0.94052487   -6.7412828    642.92573  0.028065555  0.028153457            7 
 1910000   0.95196453   -6.7156666    643.28659  0.028066605  0.028145306            4 
 1911000   0.95629276   -6.7148435     643.9516  0.028080918  0.028137115            5 
 1912000   0.93358277   -6.7744415    641.05855  0.027940139  0.028128864            8 
 1913000   0.94571373   -6.7338284    642.65858  0.027995234  0.028120543            9 
 1914000   0.95663523   -6.7412177    643.68516  0.028025303  0.028112202            3 
 1915000   0.93644348   -6.7380799    643.10557  0.027985447  0.028104041            5 
 1916000     0.931096   -6.7228853    643.21588  0.027975638  0.028095873            5 
 1917000   0.93845696   -6.7537232    641.91932  0.027904683  0.028087655           10 
 1918000   0.94098494   -6.7283838    643.38437  0.027953787  0.028079408            3 
 1919000   0.93839246    -6.732068    643.12056  0.027927765  0.028071147            3 
 1920000   0.92625483   -6.7392865    644.03984  0.027953118  0.028062766            6 
 1921000   0.93485172   -6.7974808    641.16447  0.027813833  0.028054394            3 
 1922000    0.9453177   -6.7772298    641.97967  0.027834707  0.028046012            6 
 1923000   0.92812841    -6.747067      642.466  0.027841307  0.028037621            6 
 1924000    0.9525174   -6.7315311    643.64223  0.027877782   0.02802933            8 
 1925000   0.95210276   -6.7244328     646.6853  0.027995035  0.028021136            9 
 1926000   0.93997759   -6.7204155    646.29351  0.027963548  0.028012973            7 
 1927000   0.93266984   -6.7511515    646.36217  0.027952005  0.028004783            5 
 1928000   0.93051688   -6.7568983    644.93261  0.027875718  0.027996471            3 
 1929000   0.93275477   -6.7606548    645.48154  0.027884981  0.027988192            5 
 1930000   0.94249693   -6.7447521    646.79563  0.027927272  0.027979849            5 
 1931000   0.93345254    -6.728563    646.60533  0.027904597  0.027971544            5 
 1932000   0.92905868    -6.788938    645.49539  0.027842279  0.027963387            4 
 1933000   0.93731999   -6.7560522     647.1857  0.027900746  0.027955123            5 
 1934000    0.9142193   -6.7406479    647.31509  0.027891895  0.027946896           13 
 1935000   0.92752161   -6.7587396    645.83386  0.027813689  0.027938756            6 
 1936000   0.92499127   -6.7700944    646.06829  0.027809413  0.027930517            6 
 1937000   0.93907252   -6.7894903    646.05605   0.02779453   0.02792228            4 
 1938000   0.94097462   -6.7126186    646.06148  0.027780421  0.027914007            6 
 1939000   0.92237315   -6.7649531    644.54865  0.027701077  0.027905806            5 
 1940000   0.94921445   -6.7779991    646.44131  0.027768097  0.027897499            9 
 1941000   0.95416124   -6.7834641    645.81999  0.027727116  0.027889093            4 
 1942000   0.92860919   -6.7759688    647.11126  0.027768249  0.027880673            5 
 1943000   0.94908473   -6.7581173    646.47245  0.027726559  0.027872327            7 
 1944000   0.94732861   -6.7187446    645.97596  0.027691013  0.027864031            9 
 1945000   0.95349623   -6.7572666    646.33058   0.02769197  0.027855714           12 
 1946000   0.91712671   -6.7768631     645.6804  0.027649897   0.02784725           10 
 1947000   0.94172606   -6.7773542    646.04901  0.027651473  0.027838753            4 
 1948000   0.91779423   -6.7365605    647.40345   0.02769522  0.027830309            7 
 1949000   0.92767267   -6.7554942     645.3501  0.027593214  0.027821772            4 
 1950000   0.93266662   -6.8112863    645.82273  0.027599262  0.027813288            6 
 1951000    0.9276216   -6.7740117    645.25715  0.027560958  0.027804687            4 
 1952000   0.93417894   -6.8022777    645.88235  0.027573529  0.027796144            6 
 1953000   0.94833659   -6.7683979    648.39909  0.027666799  0.027787581            4 
 1954000   0.95430688   -6.7673719    645.38904  0.027524268  0.027778997            6 
 1955000   0.94549833   -6.7613673    646.88964  0.027574153    0.0277705            4 
 1956000   0.93185657   -6.7685462     646.0102  0.027522589  0.027762007            5 
 1957000   0.93257077   -6.7405054    647.77893  0.027583841  0.027753546            7 
 1958000   0.93709099   -6.7423157     646.8302  0.027529375  0.027745088            6 
 1959000   0.95116165   -6.7918782    646.07915  0.027483374  0.027736622           11 
 1960000   0.90955669   -6.7552195    649.81251  0.027628083  0.027728173            6 
 1961000   0.96477408   -6.7962371    647.84834  0.027530526   0.02771961           10 
 1962000    0.9486831   -6.8083545    647.27409  0.027492104  0.027711033            9 
 1963000   0.95430971   -6.7248085    648.79946  0.027542853  0.027702545            8 
 1964000   0.93984842   -6.7583287    648.80756  0.027529174  0.027694067            7 
 1965000   0.93148644   -6.7371544    648.84817  0.027516886   0.02768562            5 
 1966000   0.93013727   -6.7186871    650.32684  0.027565566  0.027677166            5 
 1967000   0.93456136   -6.7835994    648.63517  0.027479884  0.027668608            9 
 1968000   0.94948102   -6.7530592     649.0705  0.027484354  0.027659949            3 
 1969000   0.92730015   -6.7774441    648.06595   0.02742788  0.027651486            6 
 1970000   0.94009212   -6.7703825    648.53795  0.027433924  0.027642948            6 
 1971000   0.94073253   -6.7803469    647.90435  0.027393216   0.02763439            4 
 1972000   0.93543466   -6.7851522    648.85985  0.027419703   0.02762598            4 
 1973000   0.93221816   -6.7451108    650.84301  0.027489568   0.02761759            6 
 1974000   0.93696047   -6.7674039    649.22846  0.027407483  0.027609166            3 
 1975000   0.93764848   -6.7845201    650.82724  0.027461065  0.027600835            3 
 1976000   0.93365149   -6.7541048    651.83702  0.027489753  0.027592359            5 
 1977000   0.94711455     -6.76511    652.69933  0.027512196  0.027584002            7 
 1978000   0.92002544   -6.7681271    651.02833  0.027427887   0.02757558           12 
 1979000   0.94232514   -6.7430024    652.88911  0.027492383  0.027567276            5 
 1980000   0.91904331   -6.7447082    650.52485  0.027378992  0.027558946            3 
 1981000    0.9398009    -6.791044    650.39225  0.027359593  0.027550546            3 
 1982000   0.92334272   -6.7725803    649.97749   0.02732835  0.027542104            6 
 1983000   0.92693444   -6.7550489    652.96791  0.027440238  0.027533649            6 
 1984000   0.92795996   -6.7946392     651.4994  0.027364726  0.027525206            4 
 1985000    0.9411027   -6.7940174    652.87591  0.027408728  0.027516804            5 
 1986000   0.93142482   -6.7716849    652.62556  0.027384423  0.027508524            5 
 1987000   0.92742516   -6.7913418    652.09958  0.027348582  0.027500322            6 
 1988000   0.94031772   -6.7428294    653.21539  0.027381598  0.027491995            4 
 1989000   0.91599941   -6.7400618    654.32045   0.02741413  0.027483709            4 
 1990000   0.94768607   -6.8158613    650.82369  0.027253923  0.027475301            4 
 1991000   0.91545869   -6.7687522    652.79813  0.027322875  0.027466989            5 
 1992000   0.93657606   -6.7635588    654.13341  0.027365019  0.027458708            3 
 1993000   0.93360829   -6.7980498    652.85145  0.027297685   0.02745038            2 
 1994000   0.92407723   -6.7905193    652.15197  0.027254763  0.027442134           10 
 1995000   0.90715046   -6.7557546    653.23556  0.027286364  0.027433853            2 
 1996000   0.92292056   -6.7528827    654.36308  0.027319768    0.0274256           11 
 1997000   0.93298312   -6.7754367    654.13739   0.02729667   0.02741742            7 
 1998000   0.92724589   -6.7782493    654.00141  0.027277336  0.027409185            2 
 1999000   0.93825212   -6.7895989    654.16677  0.027270584  0.027400971            5 
 2000000   0.95055589   -6.7325007    656.11627  0.027338178  0.027392711            4 
 2001000   0.93135388   -6.7648967    655.16611  0.027284945  0.027384532            3 
 2002000   0.92153136   -6.7833242    654.86791  0.027258904    0.0273762            8 
 2003000   0.93970718   -6.7918432    654.28306  0.027220963  0.027367889            4 
 2004000   0.94289223   -6.7960157    652.63656  0.027138912  0.027359591            3 
 2005000   0.94320607   -6.7565152    655.88166  0.027260252  0.027351276            4 
 2006000   0.90958235   -6.8071819    654.34866  0.027182978  0.027342923            8 
 2007000   0.90786074   -6.8070821    654.97641  0.027195499  0.027334579            7 
 2008000   0.92743057   -6.7622883    654.54221  0.027163937  0.027326203            9 
 2009000   0.91447105    -6.775931    656.90348  0.027248361  0.027317885            5 
 2010000   0.93400789   -6.7768312    657.49041  0.027259138  0.027309628           10 
 2011000   0.92439764   -6.8119436    654.13103  0.027106375  0.027301296            7 
 2012000   0.95320891   -6.8172625    654.68884  0.027116006  0.027292933            8 
 2013000   0.94271025   -6.8127513    655.32381  0.027128821  0.027284442            7 
 2014000   0.93512207   -6.7862708    655.49304  0.027122354  0.027276043            8 
 2015000   0.94874246     -6.82055    654.53097  0.027069105   0.02726773            9 
 2016000   0.92956266   -6.8040494    654.73592   0.02706415  0.027259312            3 
 2017000   0.93491218   -6.7891471    656.60385  0.027127907  0.027251058            4 
 2018000   0.93297741   -6.7881457    656.50869  0.027110534  0.027242675            2 
 2019000   0.94102936   -6.7691261    657.26075  0.027128147  0.027234392            3 
 2020000   0.94803338   -6.7834229    655.44554  0.027039832  0.027226168            4 
 2021000   0.94232385   -6.8305336    656.87273  0.027085301  0.027217761            5 
 2022000   0.93225162   -6.8001421    656.63838  0.027062248  0.027209386            3 
 2023000   0.90744999   -6.7781288    658.18045  0.027112393  0.027201124            7 
 2024000   0.91002883   -6.8149714    658.93314  0.027129988  0.027192899            7 
 2025000   0.95101326   -6.8053437    658.23446  0.027087838  0.027184675            7 
 2026000    0.9389518   -6.8268244    656.39313   0.02699873  0.027176453           11 
 2027000   0.90936621   -6.7569866     659.9357  0.027131052  0.027168259            5 
 2028000   0.93211952    -6.763438    660.26865  0.027131355  0.027160075            6 
 2029000   0.92430284   -6.7583943    660.51633  0.027128155  0.027151885            4 
 2030000   0.93450317   -6.7988977    657.99542  0.027011306  0.027143636            8 
 2031000   0.91294968   -6.7706439    658.86238  0.027033579  0.027135383            5 
 2032000   0.90830514   -6.7541181    662.10875   0.02715341  0.027127205            7 
 2033000   0.96583528   -6.7979736     657.6234  0.026956198  0.027119033            9 
 2034000   0.94387323   -6.8057451    658.93711  0.026996768  0.027110831            9 
 2035000   0.94187686   -6.8044815    659.59839  0.027010581  0.027102555            6 
 2036000   0.93995598   -6.8084331    659.04793  0.026974784  0.027094321            9 
 2037000   0.94833707   -6.8459781    660.77165  0.027032059  0.027085945            9 
 2038000   0.93373655   -6.8347128    657.69513  0.026892997  0.027077606            7 
 2039000   0.93059769   -6.7884305    658.88609  0.026928482  0.027069311            3 
 2040000   0.95840281   -6.7911367    659.83555  0.026954067  0.027061101            5 
 2041000   0.92258161   -6.8322569    657.14279  0.026830916  0.027052733            5 
 2042000   0.92558635   -6.7979569     659.9282  0.026931448  0.027044267            7 
 2043000   0.90546552   -6.8256493    658.44464  0.026857751  0.027035724            5 
 2044000   0.90992995   -6.8114582    658.89903  0.026863137  0.027027191            4 
 2045000   0.90426166   -6.7800032    660.36127  0.026909587  0.027018801            7 
 2046000   0.93369651   -6.8188873    659.14639  0.026846953   0.02701036            6 
 2047000   0.89807238   -6.8189082    661.02052  0.026910133  0.027001885            3 
 2048000   0.90651304   -6.8221546    658.98051  0.026813986  0.026993455            7 
 2049000   0.92927743   -6.8053432    659.38181   0.02681722  0.026985022            5 
 2050000   0.92320927   -6.8031078    660.25858   0.02683978  0.026976555            5 
 2051000   0.94187445   -6.7680028    659.47419  0.026794823  0.026968146            5 
 2052000   0.93469603   -6.8092461    660.74295  0.026833291  0.026959873            3 
 2053000   0.91960845    -6.802918     660.0898  0.026793708  0.026951411            3 
 2054000   0.90924192   -6.7864634    662.23411  0.026867661  0.026943079            2 
 2055000    0.9200007   -6.7908257    660.33851  0.026777717  0.026934761            4 
 2056000    0.9109071   -6.7998218    660.72943  0.026780538   0.02692646            4 
 2057000    0.8888803   -6.8234578    663.24856  0.026869574  0.026918129            4 
 2058000   0.92433124   -6.8121312    662.67786  0.026833408  0.026909855           12 
 2059000   0.90772277    -6.819355    661.97589  0.026791966  0.026901605            6 
 2060000    0.9091857   -6.8256679    661.57878  0.026762896  0.026893337            4 
 2061000   0.90843125   -6.7729599    661.98921  0.026766505  0.026885026            3 
 2062000   0.92945083   -6.8182947    663.24607  0.026804319  0.026876835            3 
 2063000   0.92375665    -6.808692    662.87485  0.026776331  0.026868593            7 
 2064000   0.92887008   -6.8014279    665.35677  0.026863565   0.02686036            4 
 2065000   0.92321466   -6.8072974    664.11984  0.026800639  0.026852075            7 
 2066000    0.9257412   -6.8141435    664.72536  0.026812091  0.026843872            7 
 2067000   0.92701509   -6.8155805    664.46213  0.026788507  0.026835635            6 
 2068000   0.93046341   -6.8319196    663.42654  0.026733823  0.026827429            6 
 2069000   0.90579348   -6.8208487    663.52262  0.026724771  0.026819088            8 
 2070000   0.93082877   -6.8147541    664.59977  0.026755224  0.026810822            3 
 2071000   0.91702987   -6.8136213    664.56612  0.026740951  0.026802562            3 
 2072000   0.92879099    -6.860786      661.766  0.026615428  0.026794272            5 
 2073000   0.93343898   -6.8228268    663.39392   0.02666803  0.026785922            5 
 2074000   0.92227583   -6.8076156     664.3056  0.026691803  0.026777652            4 
 2075000   0.91780347   -6.7880787    665.01552  0.026707451  0.026769452            5 
 2076000   0.92895766   -6.8209663    663.87457  0.026648787  0.026761156            3 
 2077000   0.91290474   -6.8133349    664.29903  0.026652986  0.026752885            6 
 2078000   0.93313688   -6.8677701    662.88145  0.026583311  0.026744629            6 
 2079000   0.90994354   -6.8201222     663.3639  0.026589863  0.026736321            3 
 2080000   0.90432446   -6.7712824    667.15677  0.026729037  0.026728077            4 
 2081000   0.91454599   -6.7952566    665.47597  0.026648886  0.026719895            2 
 2082000   0.91668521   -6.8240241    666.75256  0.026687182  0.026711709            9 
 2083000   0.92215404   -6.8410463    664.72765  0.026593361  0.026703396           10 
 2084000    0.8983173   -6.8460074    665.48179  0.026610756  0.026695098            8 
 2085000   0.91615214    -6.875654    665.78031  0.026609924  0.026686739            9 
 2086000   0.90566924   -6.8183181    666.26986  0.026616725  0.026678373            6 
 2087000   0.91154441   -6.8500237    663.62128  0.026498214  0.026670053            6 
 2088000   0.91226301   -6.8809788    663.42444  0.026477668  0.026661639            4 
 2089000   0.92552037    -6.878456    664.70236  0.026515971  0.026653239           11 
 2090000   0.91179299   -6.8253797    666.38294  0.026570293  0.026644944            6 
 2091000   0.92138413   -6.8287274    666.73516  0.026571623  0.026636691            7 
 2092000   0.92378919   -6.8386644    662.60788  0.026394514  0.026628457            5 
 2093000   0.91560302   -6.8532815    664.75855  0.026467532  0.026620087            4 
 2094000   0.89358212   -6.8523723    664.98487    0.0264639  0.026611714           10 
 2095000   0.90500222   -6.8377971    665.39076  0.026467413  0.026603256            5 
 2096000   0.90820943   -6.8566335    666.11989  0.026483774  0.026594892            4 
 2097000   0.90633659   -6.8397303    662.76319  0.026337752  0.026586487            4 
 2098000   0.92245457   -6.8229173     665.9821  0.026453055  0.026578124            5 
 2099000   0.90181738    -6.839122    665.93138  0.026438438  0.026569738            6 
 2100000   0.88866481   -6.8385905    665.97367  0.026427526  0.026561346            4 
 2101000   0.91025262   -6.8588125    665.01459  0.026376908  0.026552915            3 
 2102000   0.91658211   -6.8543416    666.04067  0.026405038  0.026544488            6 
 2103000   0.90497523   -6.8312891    666.06431  0.026393418  0.026536029            6 
 2104000   0.90961142   -6.8367066    667.03545  0.026419338  0.026527683            3 
 2105000   0.90870524   -6.7870944    667.91647  0.026441665  0.026519378            5 
 2106000   0.91765114   -6.7952078    668.41039  0.026448654  0.026511111            3 
 2107000   0.91054762   -6.8458359       667.55  0.026402073  0.026502875            8 
 2108000   0.90923835   -6.8148692    666.83062  0.026361109  0.026494581            6 
 2109000   0.92231402   -6.8337931      666.954  0.026353485  0.026486384            7 
 2110000   0.92349057   -6.8396797    668.82389  0.026414846  0.026478125            3 
 2111000     0.900036   -6.8442129    667.79786  0.026361829  0.026469873            6 
 2112000   0.91921848   -6.7945149    669.47314  0.026415449  0.026461546            8 
 2113000   0.91594398   -6.8310871    667.89878  0.026340857   0.02645326            7 
 2114000   0.90445196   -6.8636111     667.2603  0.026303228  0.026444951            4 
 2115000    0.9220289   -6.8413559    669.16119  0.026365689  0.026436697           14 
 2116000   0.88615925   -6.8442827    668.27178  0.026318202  0.026428388           14 
 2117000   0.92398335   -6.8608513    668.94541  0.026332287  0.026420087           10 
 2118000   0.93009464   -6.7995089    671.40891  0.026416781  0.026411864            4 
 2119000   0.90316831    -6.792002    670.46702  0.026367273  0.026403651            1 
 2120000   0.90649512   -6.8280527    670.45635  0.026354416  0.026395499            5 
 2121000   0.89660974   -6.8250102    669.49482  0.026304213  0.026387197           13 
 2122000   0.90746335   -6.8304121    669.82883  0.026304934  0.026379008            7 
 2123000   0.90775085   -6.8204733    670.65151  0.026324836  0.026370833            7 
 2124000   0.90247665   -6.8362152     669.4923  0.026266961  0.026362697            4 
 2125000    0.8949795   -6.8726539    670.19464  0.026282143  0.026354457           21 
 2126000   0.91805664    -6.803124    670.24627  0.026271804  0.026346235            3 
 2127000   0.88256714   -6.8076746     671.9547  0.026326387  0.026338082            3 
 2128000   0.90640658   -6.8607848     669.2517  0.026208165  0.026329968            4 
 2129000   0.89164295   -6.8359688    674.40815  0.026397689  0.026321766            9 
 2130000   0.93033273   -6.7904441     674.7783  0.026399777  0.026313616            3 
 2131000   0.90801251    -6.819245    670.54912  0.026222005  0.026305425            3 
 2132000   0.91239952   -6.8657165    671.37116  0.026241837  0.026297239           12 
 2133000   0.91651545   -6.8595647    672.67101  0.026280318  0.026289063            6 
 2134000    0.9184154   -6.7977873    673.47497  0.026299398  0.026281001            3 
 2135000   0.91672155   -6.8490224    672.74319  0.026258516  0.026272839            5 
 2136000   0.88733628   -6.8576659    671.37573  0.026192873    0.0262647            8 
 2137000   0.93096456   -6.8352664    673.16849  0.026250526  0.026256537            6 
 2138000    0.8929466   -6.8426644    672.01691  0.026193362   0.02624844            3 
 2139000   0.89896263   -6.8324964    672.79443  0.026211408  0.026240388            8 
 2140000   0.91742059   -6.8301151    673.82713  0.026239374  0.026232331            7 
 2141000   0.91242311   -6.8531646     672.2378  0.026165258  0.026224183            7 
 2142000   0.90860961   -6.8819697    671.75557  0.026134281  0.026215997            6 
 2143000   0.89866936   -6.8547084    670.13378  0.026059021  0.026207714            7 
 2144000   0.92012732   -6.8856134    670.95677  0.026078854  0.026199445            4 
 2145000   0.91663328   -6.8637425    672.13699  0.026112548  0.026191168            7 
 2146000   0.88470245   -6.8486514    672.24732  0.026104664  0.026182966            8 
 2147000   0.90709049   -6.8685684     671.0688  0.026046763  0.026174739            6 
 2148000   0.90159121   -6.8503938    673.41959  0.026125838   0.02616655            3 
 2149000   0.89701863   -6.8074528    674.94772  0.026172938  0.026158507            4 
 2150000   0.89750341   -6.8029838    674.69605   0.02615101  0.026150508            4 
 2151000   0.91486732   -6.8348549    675.84857  0.026183503  0.026142491            4 
 2152000   0.91630904   -6.8763558    671.72703  0.026011734  0.026134374            3 
 2153000   0.91184637   -6.8619949    672.83821  0.026042662  0.026126185            5 
 2154000   0.90191012   -6.9162053     671.3977  0.025974842  0.026117899            6 
 2155000   0.90227544   -6.8669484     674.2934  0.026074764   0.02610965            5 
 2156000   0.89368395   -6.8629394    674.53823  0.026072133  0.026101492            5 
 2157000   0.90705209   -6.8063853     675.3527  0.026091512   0.02609344           12 
 2158000   0.90380041   -6.8368233    673.98586   0.02602664  0.026085399           10 
 2159000   0.88926014   -6.8613822    672.99165   0.02597621  0.026077318            7 
 2160000   0.90748002   -6.8829451    671.81588  0.025918822    0.0260691            5 
 2161000   0.89087321    -6.866675    674.53182  0.026011562  0.026060806            2 
 2162000   0.90092636   -6.8399928    675.61274  0.026041194  0.026052595            4 
 2163000   0.91442658   -6.8681931    673.38042  0.025943151  0.026044401            3 
 2164000   0.91579942   -6.8697094    674.65182  0.025980123  0.026036182           12 
 2165000   0.90744677   -6.8400073    675.51377    0.0260013  0.026028038            7 
 2166000   0.88016646   -6.8321667    676.65692  0.026033276  0.026019975            7 
 2167000   0.90344705   -6.7965204     677.3413  0.026047581  0.026011944           11 
 2168000   0.90599993   -6.8771898    675.09373  0.025949175  0.026003806            9 
 2169000   0.89298784   -6.8362051     677.1912  0.026017796  0.025995609            5 
 2170000   0.90763299    -6.885289    676.30912  0.025971932  0.025987477            4 
 2171000   0.89203826   -6.8797095    676.27682  0.025958729  0.025979364           13 
 2172000   0.90158139   -6.8642795    674.91996  0.025894719  0.025971222            5 
 2173000   0.87546293   -6.8627873    674.19423  0.025854971  0.025963048            7 
 2174000   0.89087787    -6.837461    677.55393  0.025971862  0.025954902            5 
 2175000     0.908388   -6.8271549    678.54321  0.025997824  0.025946863            9 
 2176000    0.9024952   -6.8184101    677.67129  0.025952485  0.025938774            6 
 2177000   0.89709241   -6.8476296    676.07078  0.025879298  0.025930692            8 
 2178000   0.91018471   -6.8571756    674.75403  0.025817035  0.025922583           12 
 2179000   0.91115574   -6.9046341    674.67358   0.02580211  0.025914328            6 
 2180000   0.91775403   -6.8931029    676.55161  0.025862065  0.025906053            9 
 2181000   0.89227721    -6.851587    675.58408  0.025813239  0.025897911            9 
 2182000   0.90346817   -6.8458265    677.55649  0.025876737   0.02588984            5 
 2183000   0.91185855   -6.8338283    678.68882  0.025908109  0.025881773            5 
 2184000   0.89461609   -6.8772248    678.55347  0.025891082  0.025873685            3 
 2185000   0.90931728   -6.8708732    677.68431  0.025846083  0.025865636            3 
 2186000   0.89755721   -6.8137016    677.35244  0.025821609   0.02585752            7 
 2187000   0.92130925   -6.8824587    676.91075  0.025792972  0.025849331            6 
 2188000   0.90130927   -6.8840166    676.42367  0.025762632  0.025841086            8 
 2189000   0.91725672   -6.8342771    679.02053  0.025849723  0.025832921            7 
 2190000   0.90362973   -6.8418038    679.49094   0.02585582   0.02582483           11 
 2191000   0.90509315   -6.8383706    677.77622    0.0257788  0.025816746            7 
 2192000   0.91129665   -6.8362803    678.19196  0.025782845  0.025808618            4 
 2193000   0.88724512   -6.8737499    677.98237  0.025763124   0.02580057            6 
 2194000   0.91768306   -6.8638157    680.52741  0.025848048  0.025792446            5 
 2195000   0.90202293   -6.8498743    679.85718  0.025810827  0.025784336            5 
 2196000   0.90459133   -6.8638644    677.28736  0.025701554  0.025776244           10 
 2197000   0.91517471   -6.8634984    679.23623  0.025763777  0.025768202            7 
 2198000   0.87782711   -6.9097088    676.74658  0.025657665   0.02576006           12 
 2199000   0.88950527   -6.8500821    679.07442  0.025734213  0.025752015            6 
 2200000   0.89690962    -6.888701    678.37422  0.025695993   0.02574392           13 
 2201000    0.8928074   -6.8636427    678.45382  0.025687332  0.025735838            6 
 2202000   0.88422076   -6.8876857    678.77977  0.025688002  0.025727701           13 
 2203000   0.90074185   -6.8710743    678.00042  0.025646861  0.025719636            7 
 2204000   0.89572813   -6.9311733    678.89693  0.025669122  0.025711519            3 
 2205000   0.89936617   -6.8429694    679.55643  0.025682405   0.02570338            3 
 2206000   0.89131733   -6.8816735    679.40021  0.025664861  0.025695364           10 
 2207000   0.89620342   -6.8472298    681.98493  0.025750828  0.025687357            4 
 2208000    0.9025228   -6.9105004    678.74182  0.025616766  0.025679207           10 
 2209000   0.91690202   -6.8610044    681.28041  0.025700936  0.025671072            4 
 2210000   0.91416435   -6.8557406    679.74308  0.025631338   0.02566302            5 
 2211000   0.89020567   -6.8639288    678.62007  0.025577419  0.025654864            7 
 2212000     0.887871   -6.8500621    679.42714   0.02559626  0.025646721            9 
 2213000   0.88248416   -6.8743039    678.99265  0.025568333  0.025638572            7 
 2214000   0.89068535   -6.8545831    680.04978  0.025596574  0.025630447            9 
 2215000   0.91639993   -6.8871585     681.4572  0.025637968  0.025622259           13 
 2216000   0.88984149   -6.8765906    680.07489  0.025574417  0.025614072           10 
 2217000   0.89373284   -6.9160335    677.74563  0.025475328  0.025605876           14 
 2218000   0.90149558   -6.8828009    679.16128   0.02551703  0.025597645           12 
 2219000   0.89723702    -6.861948    680.80146  0.025567127  0.025589375            6 
 2220000   0.90649445   -6.8873143     680.9013  0.025559358  0.025581175           10 
 2221000   0.90387857   -6.8585814    679.66279   0.02550138   0.02557301            7 
 2222000   0.90342774   -6.9076392    677.64115  0.025414085  0.025564831            6 
 2223000   0.89631696   -6.9076911     679.1794  0.025460316  0.025556639            8 
 2224000   0.89289563   -6.8900853    681.52368  0.025536708  0.025548444            6 
 2225000    0.8989942   -6.8902512    680.26608   0.02547813  0.025540304            9 
 2226000   0.87750336   -6.8720431    681.69607  0.025520218  0.025532152            5 
 2227000   0.88447638   -6.8850074    682.61555  0.025543165  0.025523998            4 
 2228000   0.87693606   -6.8629772    683.06783  0.025548617  0.025515831            5 
 2229000   0.88013551   -6.8633701    680.86695  0.025454873  0.025507763            3 
 2230000   0.88884325   -6.8704676    680.91387  0.025445212  0.025499671            6 
 2231000   0.91230695   -6.8736514    682.54468  0.025494721  0.025491519            7 
 2232000   0.89134156   -6.8796001     681.4702  0.025443183  0.025483445            4 
 2233000   0.88659689   -6.8699699    681.88595  0.025447304  0.025475362            8 
 2234000   0.92498379   -6.8665131    684.50624  0.025533655  0.025467246            2 
 2235000   0.91359168   -6.8894157     681.3916    0.0254061  0.025459178            5 
 2236000   0.89806873   -6.9119908    680.63983   0.02536672  0.025451084            8 
 2237000   0.88607489   -6.9042974    682.75027  0.025433999  0.025442984            6 
 2238000   0.89724631   -6.8804292     682.2775   0.02540503  0.025434852            6 
 2239000   0.90713885   -6.8538397    681.98407  0.025382763  0.025426712            5 
 2240000    0.8838729   -6.8869186    680.64374  0.025321568  0.025418616            8 
 2241000   0.90186274    -6.909639    681.96398  0.025359363  0.025410467           11 
 2242000   0.89597937     -6.90833    680.96093  0.025310769  0.025402381            6 
 2243000   0.90666678   -6.8944737    682.06844  0.025340632  0.025394171            5 
 2244000   0.85772271   -6.9126275    681.87532  0.025322167  0.025385999            6 
 2245000   0.89479058   -6.8798814    681.19591  0.025285668  0.025377854           13 
 2246000   0.88229005   -6.8843036    682.95867  0.025339814  0.025369774            6 
 2247000   0.90722459   -6.8822948     682.8347  0.025323939  0.025361715            7 
 2248000   0.88394245   -6.9060817    682.52605  0.025301232  0.025353626           10 
 2249000   0.90141905   -6.8941951    684.43005  0.025360533  0.025345571            5 
 2250000   0.88305641   -6.8645458    686.33658  0.025419873   0.02533752            6 
 2251000   0.89521928   -6.8962731    684.53196  0.025341772  0.025329484            6 
 2252000   0.89637072   -6.9014979    684.58295  0.025332406  0.025321404            7 
 2253000   0.90225436   -6.9063737    683.54102  0.025282624  0.025313357           11 
 2254000   0.88045336   -6.8926199    683.56057   0.02527213  0.025305287           13 
 2255000   0.86698329   -6.8868111    683.21027  0.025247977  0.025297239            9 
 2256000    0.8805121   -6.9084463    685.65428  0.025327064  0.025289144            5 
 2257000   0.88608916   -6.8798696    686.66538  0.025353174  0.025281129            4 
 2258000   0.89406444   -6.8554661    685.01339  0.025280978  0.025273202            4 
 2259000   0.88901481   -6.8652362    686.05927  0.025308369  0.025265237           13 
 2260000    0.8880516   -6.8555894    686.62139  0.025317898  0.025257291            4 
 2261000   0.90439359   -6.8844439    687.17551  0.025327123  0.025249325           16 
 2262000   0.89211064     -6.89494    685.79672  0.025265131  0.025241401            5 
 2263000   0.87828843   -6.8834686    686.03831  0.025262863  0.025233404            9 
 2264000   0.88777508   -6.8907659    686.12007  0.025254714  0.025225446           10 
 2265000    0.8946173   -6.9154456    684.41919  0.025180986  0.025217447            6 
 2266000   0.89093938   -6.9002931    684.78728   0.02518341  0.025209414            4 
 2267000   0.88381821   -6.8864995    685.38552  0.025194292  0.025201397            5 
 2268000   0.90795803   -6.8730004    685.42055   0.02518447   0.02519339            5 
 2269000    0.8570631   -6.8760221    685.40367  0.025172751  0.025185376            5 
 2270000    0.8802118   -6.9121847    686.38213  0.025197582  0.025177376            9 
 2271000   0.88876472   -6.9169954    684.03244  0.025100266  0.025169269           11 
 2272000   0.89084406   -6.8781284    684.57675  0.025109182  0.025161188           12 
 2273000   0.89144674   -6.8865507    688.40399  0.025238451  0.025153196            9 
 2274000   0.88618368   -6.8702589    689.02875  0.025250247  0.025145195            3 
 2275000   0.87165447   -6.8887303    687.84938  0.025195948  0.025137268            6 
 2276000   0.89818633   -6.8791966    687.79087  0.025182735  0.025129274            6 
 2277000   0.90960975   -6.8547978    688.90105  0.025212306  0.025121289            4 
 2278000   0.88082208   -6.8959575    683.88768   0.02501784  0.025113285            4 
 2279000   0.88429709   -6.8926526     688.6888  0.025182419  0.025105238           10 
 2280000   0.89367902   -6.8955167      686.845  0.025103984   0.02509729            6 
 2281000   0.87182631   -6.9201682     685.2629  0.025035178  0.025089256            3 
 2282000   0.86856738   -6.8704027     687.7631  0.025115509  0.025081254            6 
 2283000   0.88703498   -6.9148494    686.99425  0.025076444  0.025073194            6 
 2284000   0.86177537   -6.9107351    686.74002  0.025056189  0.025065129           10 
 2285000   0.88035657   -6.9160063    686.02597  0.025019182  0.025057038            3 
 2286000   0.89938086   -6.9223672    685.26292  0.024980422  0.025048949            7 
 2287000   0.88465951   -6.9041375      687.768  0.025060778  0.025040977           13 
 2288000   0.87880531   -6.9143548    686.86835  0.025017058  0.025032927            5 
 2289000   0.88450471   -6.9340854    688.35013  0.025060075  0.025024872            9 
 2290000   0.87133276   -6.9036097    685.43218  0.024942947  0.025016803            4 
 2291000   0.90058406   -6.9062435    686.34158  0.024965138  0.025008683           16 
 2292000    0.8714744   -6.9143273    688.00837  0.025014848  0.025000631            7 
 2293000   0.87767441   -6.8910664    687.96612  0.025002403  0.024992592            9 
 2294000   0.89268311   -6.9362151    688.47831   0.02501011  0.024984552            9 
 2295000   0.89474799   -6.9194473    688.81707  0.025011513  0.024976499            5 
 2296000   0.88254876   -6.9323276    686.54607  0.024918194  0.024968369            5 
 2297000   0.88583006   -6.9328278    687.31825   0.02493536  0.024960273           10 
 2298000   0.87934055   -6.9179949     687.3766  0.024926624  0.024952221           11 
 2299000   0.86270307   -6.9180965    688.25895  0.024947765  0.024944194            5 
 2300000   0.88224706   -6.8893321    689.79917  0.024992724  0.024936243            8 
 2301000   0.87507763   -6.8620516      689.475  0.024970122    0.0249283            6 
 2302000   0.86097075   -6.9106589    688.05517  0.024907876  0.024920355           10 
 2303000   0.89590478   -6.9129072    690.18514  0.024974133  0.024912415            6 
 2304000   0.90190358   -6.9150336    687.87644   0.02487979  0.024904435            6 
 2305000   0.90245622   -6.8982479    689.25607  0.024918875  0.024896432            8 
 2306000   0.91001723   -6.9735669    688.61669  0.024884963  0.024888345            9 
 2307000   0.87032928    -6.905679    690.31947  0.024935684  0.024880326            6 
 2308000   0.88000784   -6.9029666    688.26929  0.024850855  0.024872376            7 
 2309000   0.86568993   -6.8845422    690.07857  0.024905391  0.024864417            7 
 2310000    0.8861506   -6.9099491    687.62912  0.024806245   0.02485638           14 
 2311000   0.87553782   -6.9100672    687.90969  0.024805629  0.024848332            7 
 2312000   0.88587736   -6.9290658    688.56548  0.024818537  0.024840291            7 
 2313000   0.90501298   -6.9262299    690.10122  0.024863137  0.024832281           14 
 2314000   0.87165227   -6.9294098    690.74674  0.024875639  0.024824282           11 
 2315000   0.87676783   -6.8891655    690.22827   0.02484623  0.024816261            8 
 2316000   0.88019933   -6.9320077    689.27787  0.024801305  0.024808214            6 
 2317000    0.8783147    -6.902086    690.20699  0.024824018  0.024800175            8 
 2318000   0.89378637   -6.9280806    690.24567  0.024814699  0.024792218            5 
 2319000    0.8766293    -6.935216    690.28815  0.024805525  0.024784274            6 
 2320000   0.86575277   -6.8950658    693.24967  0.024901209  0.024776318            4 
 2321000   0.88182644   -6.9207621    691.57893  0.024830494   0.02476835           23 
 2322000   0.88776176   -6.9545235    690.42939  0.024778545  0.024760405            9 
 2323000   0.87535356   -6.9609283    689.61513  0.024738669  0.024752432           12 
 2324000   0.87272316   -6.9252283    690.03221  0.024742979  0.024744473            6 
 2325000   0.88117977   -6.9006552     690.8769  0.024762613  0.024736554            5 
 2326000   0.89051794   -6.9320945    689.79516  0.024713212  0.024728554            9 
 2327000   0.88555363   -6.9447278    691.16621  0.024751691  0.024720566            6 
 2328000   0.87060825   -6.9523622    690.85226   0.02472982  0.024712562            3 
 2329000   0.86498462   -6.9333652    690.50899   0.02470692  0.024704562            4 
 2330000   0.89173392   -6.9406591    689.82414  0.024671822  0.024696548           20 
 2331000   0.85845113   -6.8994007    691.19362  0.024710197  0.024688583            8 
 2332000   0.86977698   -6.9131057    690.78907  0.024685144  0.024680578            7 
 2333000    0.8784666   -6.9086195    691.77248   0.02470969  0.024672609            5 
 2334000   0.89416098    -6.940233    692.23355  0.024715565  0.024664604            6 
 2335000   0.87033894   -6.9338728    691.92364   0.02469392  0.024656586           14 
 2336000   0.87165015    -6.934326    691.58601  0.024671305  0.024648606            3 
 2337000   0.88370411   -6.9213078    691.60371  0.024661379  0.024640605            8 
 2338000   0.87935166    -6.936861    690.64861  0.024616788  0.024632586            9 
 2339000   0.89922845   -6.9379063    691.12532  0.024623248  0.024624556            6 
 2340000   0.89604318   -6.9755612    690.58784  0.024593584  0.024616516            6 
 2341000   0.88015554   -6.9284294    689.83034  0.024556114  0.024608414            5 
 2342000   0.89090309   -6.9297985    692.47198  0.024639624  0.024600455            9 
 2343000   0.88185206   -6.9432579    693.42577  0.024663031   0.02459252           10 
 2344000   0.87050512   -6.9298367    693.00653  0.024637604   0.02458451            3 
 2345000   0.85982675   -6.9213247    690.65051  0.024543373  0.024576578            7 
 2346000   0.88335929   -6.9394584    693.20541  0.024623665  0.024568618            4 
 2347000   0.86022493    -6.939626    693.86083  0.024636445  0.024560646            5 
 2348000   0.89053828   -6.9150015    693.99628  0.024630759   0.02455268            3 
 2349000   0.88351834   -6.9529667    693.01118  0.024585326  0.024544777            5 
 2350000   0.88289172   -6.9350554    692.42839  0.024554198  0.024536871           15 
 2351000    0.8820349   -6.9159834    694.88392  0.024630793  0.024529025            6 
 2352000   0.87148133   -6.9393912    692.44593   0.02453394  0.024521218            7 
 2353000   0.86792539   -6.9370328     694.5798  0.024599086  0.024513319            6 
 2354000     0.890316   -6.9538122    692.68571  0.024521584  0.024505345            5 
 2355000   0.88365327   -6.9548616    692.18331  0.024493394  0.024497487            6 
 2356000   0.89111438   -6.8867309     694.0224  0.024548047  0.024489645            6 
 2357000   0.86776922   -6.9464303    694.50309  0.024554628  0.024481766            5 
 2358000   0.88045543   -6.8988226    695.81881  0.024590713  0.024473944            5 
 2359000   0.87221318   -6.9606421    694.45068  0.024531958  0.024466041            9 
 2360000   0.87000001   -6.9765947    693.99569  0.024505497  0.024458218            7 
 2361000   0.86455245   -6.9320247    695.67849  0.024554514  0.024450329           12 
 2362000   0.86870089   -6.9834132    694.37882  0.024498265  0.024442426            4 
 2363000   0.87914042   -6.9250975    696.77253  0.024572314  0.024434537            6 
 2364000   0.87576785   -6.9543734    696.53865  0.024553675   0.02442676            9 
 2365000   0.87079988   -6.9248991    696.59733   0.02454536  0.024418934            6 
 2366000   0.87523737   -6.9450996    694.81201  0.024472105  0.024411067            7 
 2367000   0.88688091   -6.9677617    693.85459  0.024428059  0.024403241            9 
 2368000   0.87281049   -6.9399328    696.39223  0.024507046  0.024395423            3 
 2369000   0.86074476   -6.9664608     696.9123  0.024514996  0.024387652           12 
 2370000   0.86616392   -6.9400337    696.24748  0.024481276  0.024379929            7 
 2371000   0.88656956   -6.9520902    695.98735  0.024461807  0.024372186            6 
 2372000   0.87276222   -6.9482409    695.93837  0.024449774  0.024364453           10 
 2373000   0.87589537   -6.9254699     697.4606  0.024492927  0.024356782            8 
 2374000   0.86672297   -6.9310028    698.29937  0.024512053  0.024349002           10 
 2375000   0.84951337   -6.9066978    696.24593  0.024429682  0.024341295            8 
 2376000   0.84624619   -6.8978732    697.31126  0.024456764  0.024333572           11 
 2377000   0.87805287   -6.9670592    694.89229  0.024361671  0.024325741           18 
 2378000   0.85759864   -6.9640296    696.79185  0.024417993  0.024317972            9 
 2379000   0.85915184   -6.9273219     696.7809  0.024407346  0.024310167           10 
 2380000   0.89118769   -6.9809741    696.34442  0.024381808  0.024302335            4 
 2381000   0.87130068   -6.9333552    696.52851   0.02437801  0.024294487            5 
 2382000   0.85402525   -6.9852385    695.78341  0.024341709  0.024286641           14 
 2383000    0.8698777   -6.9632894    695.49497  0.024321407  0.024278789            6 
 2384000   0.86821422   -6.9573039    696.88396  0.024359758   0.02427091            6 
 2385000   0.87187471   -6.9189125    697.84023  0.024382957  0.024263113            8 
 2386000   0.87336833   -6.9530394    696.17616  0.024314618   0.02425532            8 
 2387000   0.86899232   -6.9725105    696.92682  0.024330639  0.024247412            4 
 2388000   0.85703119   -6.9506719    696.31023  0.024298933  0.024239517           12 
 2389000   0.86334828   -6.9355625    696.20699  0.024285161  0.024231662           11 
 2390000      0.86214   -6.9457259     696.8718   0.02429818  0.024223763            5 
 2391000   0.87698311   -6.9659734    695.74279  0.024248668  0.024215906            7 
 2392000    0.8763926   -6.9431899     696.5555  0.024266844  0.024207991            7 
 2393000   0.86347037     -6.97502    697.12715  0.024276611  0.024200137            4 
 2394000   0.87949524   -6.9587044    694.60944   0.02417883  0.024192204            8 
 2395000   0.87883933   -6.9789734     697.3039  0.024262488  0.024184301            3 
 2396000   0.87533945   -6.9554629    697.95331  0.024274948  0.024176433            7 
 2397000   0.87131187   -6.9717286    695.21497  0.024169621  0.024168549            4 
 2398000   0.85557516   -6.9863139    695.24178  0.024160473  0.024160681            8 
 2399000   0.87643886   -6.9752523    695.61847  0.024163487  0.024152756            7 
 2400000   0.85564251   -6.9828239    695.80612  0.024159935  0.024144856            6 
 2401000   0.88853651   -6.9892451    696.69391  0.024180686  0.024136939            7 
 2402000    0.8669195   -6.9622213    697.44057  0.024196523  0.024128997            7 
 2403000   0.86124854     -6.97621    697.55209  0.024190321  0.024121087            8 
 2404000   0.85997172    -6.957944    697.86825  0.024191218  0.024113161            3 
 2405000   0.86880444   -6.9249726    699.24926  0.024229011  0.024105294           11 
 2406000   0.87338664   -6.9549158    697.96941  0.024174612  0.024097457            6 
 2407000   0.87245095   -6.9441697    699.49856   0.02421751  0.024089528           13 
 2408000    0.8556372   -6.9587749    697.30773  0.024131635  0.024081667            4 
 2409000   0.87107558   -6.9937921    697.39013  0.024124468  0.024073795            4 
 2410000    0.8603899   -6.9496401    697.45184  0.024116592  0.024065835            2 
 2411000   0.85659828   -6.9588543    697.90806  0.024122358  0.024057871            4 
 2412000   0.86492634   -6.9585237     697.2972  0.024091252    0.0240499            6 
 2413000   0.87602555   -6.9527733    699.71349  0.024164715  0.024042014            4 
 2414000   0.87149811   -6.9792521    695.37344  0.024004883  0.024034111           14 
 2415000   0.85487449   -6.9567342    697.56756  0.024070654  0.024026198           16 
 2416000   0.88775389   -6.9743755    697.35187  0.024053252   0.02401832            3 
 2417000   0.85880868   -6.9856459    698.19243  0.024072281  0.024010406            9 
 2418000   0.85565062   -6.9783802     698.7785  0.024082523  0.024002481           12 
 2419000   0.87268375   -6.9951207      696.646  0.023999104  0.023994617            9 
 2420000   0.86424233    -6.946372    700.79769  0.024132152  0.023986757            7 
 2421000   0.86704563   -6.9844156    697.82353   0.02401981  0.023978943            7 
 2422000   0.84439745   -6.9630501    699.42814  0.024065103  0.023971137            5 
 2423000   0.85756264   -6.9683207    700.22526  0.024082586  0.023963326            9 
 2424000   0.84512827   -6.9744402    699.28415  0.024040297  0.023955472            6 
 2425000   0.85483916    -6.971336    698.40943  0.024000324  0.023947632            5 
 2426000   0.85439474   -6.9474835    700.21313  0.024052388  0.023939784            3 
 2427000   0.85372711   -6.9859157    698.52514  0.023984519  0.023932029            8 
 2428000   0.87312526   -6.9485176    699.18445   0.02399727  0.023924222            7 
 2429000    0.8920157   -7.0195813    695.82086  0.023871993  0.023916423            3 
 2430000   0.87460691    -6.989355     699.4708  0.023987339  0.023908578            9 
 2431000   0.85724528   -6.9697386    702.52559  0.024082188  0.023900828            7 
 2432000    0.8468221   -6.9697382      702.791   0.02408138  0.023893125            8 
 2433000   0.85398755   -6.9819812    700.02664    0.0239768  0.023885422            8 
 2434000   0.86525681   -6.9555382    699.85734  0.023961152   0.02387768            6 
 2435000   0.86031804   -6.9754476    701.35907  0.024002706  0.023869928            7 
 2436000   0.85179981    -6.957491    700.80582  0.023973926  0.023862127            8 
 2437000   0.85044096    -6.985512    701.89224  0.024001239  0.023854378            9 
 2438000   0.87353314   -6.9422241    702.63052   0.02401663  0.023846665            7 
 2439000   0.85473091   -6.9520011    701.85465  0.023980274  0.023839006            3 
 2440000   0.87081257   -6.9461848    702.22339  0.023983039  0.023831305            6 
 2441000   0.83749804   -7.0067199     700.6889  0.023920828  0.023823544           10 
 2442000   0.84616414   -6.9793023    701.53066  0.023939758  0.023815822            8 
 2443000   0.86621931   -6.9587268    702.60888  0.023966737  0.023808061           11 
 2444000   0.86032479   -6.9715083    701.58887  0.023922152  0.023800327           10 
 2445000   0.85526922   -6.9659787    701.28755  0.023902098  0.023792594           11 
 2446000   0.87194876    -6.939855    703.46896  0.023966645  0.023784932            7 
 2447000   0.84510632   -6.9617736    702.62082  0.023927967  0.023777303           14 
 2448000      0.85133   -7.0091496    699.82164  0.023822904  0.023769562            5 
 2449000   0.85563572    -6.989466    699.73443  0.023810209   0.02376183            7 
 2450000   0.85840053   -6.9928528    702.71438   0.02390185  0.023754093            4 
 2451000   0.85927562   -6.9828561    700.68358  0.023823051  0.023746425            7 
 2452000   0.87084922   -6.9782565    702.91377   0.02388913  0.023738725            6 
 2453000   0.86444596     -7.00977    700.08564  0.023783314  0.023730997            8 
 2454000   0.84168653   -6.9695695    703.17259   0.02387845  0.023723345           10 
 2455000   0.87297502   -7.0118165    701.21247  0.023802188  0.023715702            9 
 2456000   0.84735619   -7.0072345    702.93226   0.02385085  0.023708002            4 
 2457000   0.85730006   -6.9909687    702.42169  0.023823826  0.023700341            4 
 2458000   0.86834187   -6.9786477    705.23217  0.023909417  0.023692728            5 
 2459000   0.84630963    -6.990958    703.49664  0.023840878  0.023685129            7 
 2460000   0.84882342   -7.0245159    702.39111  0.023793737  0.023677471            7 
 2461000   0.85049394   -6.9922394    703.56178  0.023823709  0.023669772            7 
 2462000   0.85908986    -7.049584     700.9649  0.023726134  0.023662011           11 
 2463000   0.86639485   -7.0141367    701.31509  0.023728349  0.023654285            9 
 2464000   0.86843184   -7.0385828    699.43275  0.023655058  0.023646509            9 
 2465000   0.84596444   -7.0237143    702.93064  0.023763713  0.023638767           11 
 2466000     0.872425   -7.0080746    703.22329  0.023763966   0.02363106           15 
 2467000   0.85685564   -6.9812102    703.72848  0.023771398  0.023623378            9 
 2468000   0.86125578   -6.9854745    703.28593  0.023746824  0.023615729            5 
 2469000   0.85600223   -7.0272385      703.823  0.023755333  0.023608071            7 
 2470000    0.8672164    -7.026585    701.75566  0.023675967  0.023600374            8 
 2471000    0.8719459   -7.0432267    702.25524  0.023683234  0.023592622            7 
 2472000   0.84651871   -6.9873693    702.64664  0.023686847  0.023584998            4 
 2473000   0.88055056   -7.0109355    704.67977   0.02374578  0.023577334            7 
 2474000   0.84996807    -6.992434    703.36915  0.023692035  0.023569626            5 
 2475000   0.84648326   -6.9988478     703.9225  0.023701094  0.023561924           11 
 2476000   0.83645434   -7.0070485    705.43153   0.02374231  0.023554233            5 
 2477000   0.85831832   -6.9817048     704.8365  0.023712707  0.023546599            5 
 2478000   0.85205578   -6.9907958    703.83078  0.023669316  0.023538941            8 
 2479000    0.8537125   -6.9838568    705.54353  0.023717344  0.023531275            5 
 2480000   0.84075992   -7.0000763    704.71298  0.023679872  0.023523614            4 
 2481000   0.85452418   -6.9919619    704.94928  0.023678264  0.023515917           10 
 2482000   0.85624822   -7.0184079    704.39482  0.023650108  0.023508224            9 
 2483000   0.86695174   -7.0248431    704.44801  0.023642368   0.02350059           14 
 2484000   0.84945026   -6.9960231    706.08319  0.023687708  0.023493002            6 
 2485000   0.84424401   -6.9923113    706.61619  0.023696049  0.023485459            7 
 2486000   0.85332628   -6.9973413    705.25555  0.023640907  0.023477835            4 
 2487000   0.84900089   -6.9713604    704.87528   0.02361866  0.023470317           21 
 2488000   0.86309111   -6.9740318    706.60818  0.023667209  0.023462777            8 
 2489000   0.83065094   -7.0220401    705.27545  0.023613079  0.023455266           10 
 2490000   0.84934565   -6.9959809    706.45712  0.023643143  0.023447686            8 
 2491000   0.86378698   -7.0119007    705.50657  0.023601852  0.023440096            5 
 2492000   0.85971889   -7.0053999    706.42823  0.023623202  0.023432519            5 
 2493000    0.8594728   -7.0183099    703.70091   0.02352256   0.02342491           13 
 2494000   0.85677724   -6.9667526    708.68434  0.023679643  0.023417332           13 
 2495000   0.85234939    -7.014792    705.44355  0.023561909  0.023409793           17 
 2496000   0.85839279   -7.0017134     705.8699  0.023566703  0.023402158           18 
 2497000   0.86033284   -6.9927816    706.41343  0.023575405  0.023394594           12 
 2498000    0.8641294   -6.9908589    707.33165  0.023596599  0.023387052            6 
 2499000   0.85374234   -6.9968896     707.4007  0.023589459  0.023379531           17 
 2500000   0.85863113   -7.0172165    707.22367  0.023574122  0.023371959            7 
 2501000   0.83568663   -7.0358046    706.77986  0.023549909  0.023364433            5 
 2502000   0.85676719   -7.0025279    707.64623  0.023569352  0.023356916           15 
 2503000   0.86907049   -7.0275462     707.5886  0.023558017  0.023349391            8 
 2504000   0.85973598   -7.0111866     709.0254  0.023596426  0.023341865            5 
 2505000   0.83275014   -6.9937147    708.35486  0.023564699  0.023334401            5 
 2506000   0.86315414   -6.9945545    707.33164   0.02352127  0.023326858            9 
 2507000   0.84276518   -7.0326881    706.16696  0.023473174  0.023319269            6 
 2508000    0.8649144   -6.9609211    708.89557  0.023554478  0.023311702           16 
 2509000   0.84813519   -7.0236294    707.18471  0.023488266  0.023304152           13 
 2510000   0.86290444   -6.9926386    707.08468  0.023475587  0.023296592            5 
 2511000   0.86933709   -7.0185727    709.06268  0.023531882  0.023289056            9 
 2512000   0.84560116   -6.9822729    707.77261  0.023479718  0.023281547            5 
 2513000   0.84222139     -7.03492    708.13722  0.023482465  0.023274042            8 
 2514000   0.84026399   -7.0061872     710.0439  0.023536327  0.023266511            5 
 2515000    0.8491407   -7.0256222    707.49885  0.023442639  0.023258953            4 
 2516000   0.85660044    -7.020237    708.31983  0.023460514  0.023251415            8 
 2517000    0.8544817   -6.9983662    708.03908  0.023441898  0.023243905           16 
 2518000   0.85219697   -7.0217043    709.54135  0.023482306  0.023236398            8 
 2519000   0.84505813   -6.9866302     709.1532  0.023460143  0.023228856           16 
 2520000   0.83146268   -6.9925638    708.03838  0.023413968   0.02322138            7 
 2521000   0.84626834    -7.020573    708.95611  0.023435016  0.023213849            7 
 2522000   0.84718349   -7.0153594    709.41261  0.023440808  0.023206326            9 
 2523000   0.83779389   -7.0222935    708.73506  0.023409138  0.023198861            5 
 2524000   0.86060768   -6.9929197    710.83643  0.023469243  0.023191468            6 
 2525000   0.84328368   -6.9881225    710.23834  0.023440209  0.023184057           12 
 2526000   0.84910173   -7.0269588    708.44717  0.023371838  0.023176594            7 
 2527000   0.83209334   -7.0246608    709.07023  0.023383137  0.023169076            9 
 2528000    0.8396592   -7.0008732    710.19525  0.023410972  0.023161586           11 
 2529000    0.8533055   -7.0060392     708.5236  0.023346632  0.023154123            9 
 2530000   0.83583315   -7.0360604    708.61824  0.023340522  0.023146689            7 
 2531000   0.83179562   -7.0107227    711.79635  0.023435939  0.023139223           17 
 2532000   0.82344869   -7.0060161    712.42486  0.023447369  0.023131729            4 
 2533000   0.84436727   -7.0435379    708.57281  0.023311383  0.023124247            8 
 2534000   0.84831356    -7.011993    710.88408  0.023378193  0.023116744            7 
 2535000   0.84438091    -7.047488    709.30328  0.023317005  0.023109271           14 
 2536000   0.84428127   -7.0473942    709.72119  0.023321543  0.023101796           14 
 2537000   0.83251951   -7.0275188    709.57353    0.0233075  0.023094318           19 
 2538000   0.83631795   -7.0477938    708.64877  0.023267953  0.023086828            8 
 2539000   0.84288747   -7.0811553    709.08538  0.023273119  0.023079353            4 
 2540000   0.84148431   -7.0488752    711.22421  0.023334128  0.023071916            6 
 2541000   0.84384113   -7.0430766    709.68369  0.023274422  0.023064504            3 
 2542000   0.85106202   -7.0343648    708.80055  0.023236315  0.023057069           11 
 2543000    0.8608294   -7.0114029     712.2001   0.02333858  0.023049637            9 
 2544000   0.85094557   -7.0385548     709.7659  0.023249669  0.023042246            7 
 2545000   0.83867927   -7.0089425    712.22618  0.023321093  0.023034819           29 
 2546000   0.85213416   -7.0319216     711.6944  0.023294527  0.023027377            9 
 2547000    0.8400804   -7.0323305    711.90051  0.023292125  0.023019932            6 
 2548000   0.84578908   -7.0404426     709.4588  0.023203127   0.02301254            9 
 2549000   0.83715919   -7.0382654    712.58854  0.023296343  0.023005146            7 
 2550000   0.83436999   -7.0477644    709.85507  0.023197878  0.022997677            6 
 2551000   0.85592807   -7.0407797    710.84664  0.023221176   0.02299018            8 
 2552000   0.83842535   -7.0270259    712.82184  0.023276575   0.02298274           17 
 2553000    0.8490802   -7.0329465    711.36037  0.023219753  0.022975362           31 
 2554000   0.84240955   -7.0188662    713.51346  0.023280914  0.022967986            8 
 2555000   0.84201213   -6.9956702    713.60903   0.02327492  0.022960639            5 
 2556000   0.84256795   -7.0162477    712.24136  0.023221223   0.02295326            5 
 2557000    0.8425709   -7.0085122    711.96066  0.023202994  0.022945871            9 
 2558000   0.82228447   -7.0595008    711.30391  0.023172528  0.022938502           12 
 2559000   0.83077062   -7.0391432    712.98928  0.023218356  0.022931072            5 
 2560000   0.84544971   -7.0752556    710.70503  0.023134929  0.022923651           10 
 2561000   0.83274056   -7.0171499    714.52436  0.023250174  0.022916321            5 
 2562000    0.8412322   -7.0541288    713.24454  0.023199471  0.022908945            3 
 2563000   0.83162263   -7.0576523    710.95182  0.023115874  0.022901562            4 
 2564000   0.83620035   -7.0255011    712.13764  0.023145399   0.02289414            9 
 2565000   0.83174374   -7.0375023    710.54788  0.023084726  0.022886706            7 
 2566000   0.83520815   -7.0194067     710.9916   0.02309014  0.022879275            6 
 2567000   0.83530329     -7.05971    712.84261  0.023141235  0.022871859           10 
 2568000   0.84613113   -7.0658103    712.99482  0.023137163  0.022864408            7 
 2569000   0.81864676    -7.048223    710.75608  0.023055537  0.022856963            6 
 2570000   0.84132251   -7.0630998     710.4159  0.023035535  0.022849531            6 
 2571000   0.85867035   -7.0185784    713.94144  0.023140848  0.022842125            6 
 2572000   0.83734105   -7.0685952    711.40665  0.023049723  0.022834658            6 
 2573000   0.85461921   -7.0601846    712.98036  0.023091734  0.022827132            9 
 2574000   0.83032032   -7.0482668    711.83415  0.023045654  0.022819727           12 
 2575000   0.85012081   -7.0312343    714.31168  0.023116883  0.022812326            7 
 2576000   0.84311603   -7.0112591    714.71578  0.023120982  0.022804951            7 
 2577000   0.85469718   -7.0348178    713.46575  0.023071587  0.022797599           11 
 2578000   0.82877168   -7.0480522    713.43537  0.023061655  0.022790244            6 
 2579000   0.83769178   -7.0636758    711.78927  0.022999524  0.022782835            6 
 2580000   0.82363852   -7.0589227    712.50898  0.023013856  0.022775412            4 
 2581000   0.83924843   -7.0221326    711.96073  0.022987238  0.022767958           20 
 2582000   0.82307916   -7.0591747    712.62581    0.0229998  0.022760551            5 
 2583000   0.83463838   -7.0483851    711.93757  0.022968692  0.022753074            7 
 2584000    0.8197979   -7.0406486    714.48666   0.02304201  0.022745668            5 
 2585000   0.83552857   -7.0279363    713.85623  0.023012773  0.022738331            3 
 2586000   0.83915153   -7.0258003    712.74922  0.022968201  0.022731027            5 
 2587000   0.83086341   -7.0683748    711.96405  0.022934031  0.022723653            8 
 2588000   0.83874036   -7.0401677    715.50387  0.023039151   0.02271633           10 
 2589000   0.83865852   -7.0294057    715.06294   0.02301606  0.022708999            6 
 2590000   0.83498095   -7.0852964    713.27731   0.02294972  0.022701639           29 
 2591000   0.83405082   -7.0639513    713.59392  0.022951046    0.0226943           27 
 2592000   0.84442024   -7.0312781    714.99364  0.022987193  0.022686939            7 
 2593000   0.82140259   -7.0577526    713.98414  0.022945885  0.022679583            3 
 2594000   0.83855082   -7.0300605    715.49657  0.022985626  0.022672259            9 
 2595000   0.84324724   -7.0586774    714.23337  0.022936203  0.022664918            6 
 2596000   0.82564335   -7.0914315    713.82445  0.022914241  0.022657602            6 
 2597000   0.85339816   -7.0809866    714.62698   0.02293117  0.022650295            7 
 2598000   0.83061096   -7.0856946    713.44424  0.022884406  0.022643018            6 
 2599000   0.86204086   -7.0573243    715.16722  0.022930846  0.022635694            5 
 2600000   0.85472112    -7.015857    715.85222  0.022943981  0.022628486            9 
 2601000   0.83353553   -7.0679804     716.6425   0.02296048  0.022621301            6 
 2602000   0.84487339   -7.0469765    718.00024   0.02299514  0.022614167           11 
 2603000   0.83091493    -7.031098    717.10178  0.022957542  0.022607013           14 
 2604000   0.85680454   -7.0192731    717.43418  0.022959363  0.022599838            8 
 2605000   0.83671455    -7.054148    718.29485  0.022978082  0.022592582           12 
 2606000   0.83538834   -7.0592724    715.31964  0.022874125  0.022585291            6 
 2607000   0.83357724   -7.0567214    715.92701  0.022884766   0.02257802            7 
 2608000   0.83235172   -7.0689165    716.17864  0.022884031  0.022570802            8 
 2609000   0.82861367   -7.0772747    714.81212  0.022831612  0.022563541           10 
 2610000   0.85150015   -7.0583043    718.13592  0.022928988  0.022556311           12 
 2611000   0.83140995   -7.0551702    718.63977  0.022936288  0.022549127            5 
 2612000   0.83768335   -7.0309746     719.5203  0.022955599  0.022542003           14 
 2613000   0.82542905   -7.0590204    717.14656  0.022871111  0.022534905            7 
 2614000   0.82282554   -7.0926033    716.04847  0.022827355  0.022527779            3 
 2615000   0.82558859   -7.1037639    715.92357  0.022814645  0.022520599            7 
 2616000   0.85040466   -7.0884308      716.758  0.022832505  0.022513405           16 
 2617000   0.80079937   -7.0793839    717.85954  0.022858857  0.022506221            4 
 2618000   0.83447964   -7.0833773    716.97519  0.022821976  0.022499028           14 
 2619000    0.8299023   -7.0717904    717.53692  0.022831135  0.022491855           20 
 2620000   0.83403297   -7.0881963    716.02499  0.022774332   0.02248469           10 
 2621000    0.8208514   -7.0476194    716.89228  0.022793217   0.02247753           11 
 2622000   0.82764532   -7.0652619    716.67632  0.022777661  0.022470363            7 
 2623000   0.85172988   -7.1086959    717.32324   0.02278953  0.022463162            8 
 2624000   0.83706412   -7.0712624    718.11037  0.022805842  0.022455918           10 
 2625000   0.81675214   -7.0628634     718.4376  0.022807543   0.02244873            9 
 2626000   0.82383262    -7.067088    718.65761  0.022805839  0.022441581            7 
 2627000   0.83184801   -7.0350074    719.04655  0.022809496  0.022434421           20 
 2628000   0.83029927   -7.0553024    719.50283  0.022815285  0.022427309           10 
 2629000   0.84075445   -7.0810826    716.79452   0.02272076  0.022420156            9 
 2630000   0.84035791   -7.0555716    719.79645  0.022807239  0.022413027           10 
 2631000   0.82860992   -7.0874447    717.53239  0.022726859  0.022405872            7 
 2632000   0.85409557   -7.0726853    716.77919  0.022694377  0.022398693            9 
 2633000   0.84020763   -7.0565444    719.42324  0.022769441  0.022391486           12 
 2634000   0.83354725    -7.070101    718.32718  0.022726119  0.022384312            6 
 2635000   0.83674799   -7.0604934    718.08318  0.022709778  0.022377129           10 
 2636000   0.82891544   -7.0473035    718.39871  0.022711138  0.022369949           13 
 2637000   0.80542194    -7.081551    718.94004  0.022719632  0.022362748           10 
 2638000   0.83436105   -7.0631885    717.67081  0.022670925  0.022355554            9 
 2639000   0.84610887   -7.0782609    718.09165  0.022675624  0.022348304            7 
 2640000   0.82161842   -7.0682376    718.40719  0.022676995  0.022341049            3 
 2641000   0.82350664   -7.0982224    717.50177  0.022639839  0.022333787           19 
 2642000   0.82911097    -7.107991    718.47462  0.022661955  0.022326525            7 
 2643000    0.8330214   -7.0813625    718.07296  0.022640716  0.022319266            9 
 2644000   0.82134671   -7.0699877     717.8487  0.022625085  0.022312038            6 
 2645000   0.83505535   -7.0804894    719.94355  0.022682531  0.022304841            5 
 2646000   0.85169487   -7.0789322    717.54997  0.022598575  0.022297675           12 
 2647000   0.82071269   -7.0730322    716.56064  0.022558892  0.022290452            7 
 2648000    0.8441538   -7.0904392    719.37462  0.022638929  0.022283221            5 
 2649000    0.8317575   -7.0631923    719.17302  0.022624041  0.022276047            8 
 2650000   0.83005422   -7.0917356    718.27488   0.02258726  0.022268842            9 
 2651000   0.83518616   -7.0751515    719.01392  0.022601972   0.02226165            5 
 2652000   0.83447929   -7.1236251    715.91573  0.022496095  0.022254397           15 
 2653000   0.82841139   -7.0759645    716.57962  0.022508469  0.022247142           12 
 2654000   0.83936428   -7.0788673    717.30181  0.022522664  0.022239907           12 
 2655000   0.82514392   -7.0681521    718.50339  0.022551896  0.022232637            7 
 2656000   0.83188961   -7.0454778    719.02542  0.022559784  0.022225421           11 
 2657000   0.83828609   -7.0527918    719.36921  0.022562075  0.022218207            9 
 2658000   0.82815313   -7.0467877    720.39236  0.022585665  0.022211037           24 
 2659000   0.82201389   -7.0696055    717.42857  0.022484285  0.022203832            6 
 2660000   0.81897741   -7.0840549    717.13189  0.022466538  0.022196611           10 
 2661000   0.83035725   -7.0607712    718.90847  0.022513731  0.022189368            7 
 2662000   0.83054899   -7.0909563    717.83827  0.022471772  0.022182156           15 
 2663000   0.82536404   -7.0864801    719.39814  0.022512146  0.022174975            7 
 2664000   0.81577608   -7.0636475    718.58085   0.02247813  0.022167736            8 
 2665000   0.80195862   -7.0760828    718.13004  0.022455598  0.022160499            7 
 2666000   0.82916276   -7.0748684    719.05215  0.022475999  0.022153263            8 
 2667000   0.81975208   -7.1003388    718.12054  0.022438462  0.022146013           10 
 2668000   0.83844928   -7.1220754    718.92446  0.022455162  0.022138774            9 
 2669000   0.81904503   -7.0765237    718.82459   0.02244363  0.022131584            8 
 2670000   0.84222912   -7.1017399    719.36885  0.022452211  0.022124324           10 
 2671000   0.82527347    -7.121647    719.00356  0.022432408  0.022117011           10 
 2672000   0.80708894   -7.1293338    718.38397   0.02240469  0.022109731            6 
 2673000   0.80964957    -7.071808    721.14862  0.022482498  0.022102511            7 
 2674000   0.83178751    -7.095481    720.03383  0.022439349  0.022095292            9 
 2675000   0.80537011   -7.0586548    720.37978  0.022441738  0.022088094           36 
 2676000   0.82044894   -7.1110973    719.78324  0.022414774  0.022080857            7 
 2677000   0.81839478   -7.0700653    719.90722  0.022410261   0.02207361           14 
 2678000   0.84342252   -7.0813163    721.25916  0.022443962  0.022066416           15 
 2679000   0.84079646   -7.0878914    721.71977  0.022449912  0.022059244            5 
 2680000   0.81899116   -7.0962916    720.36259  0.022399334   0.02205203            5 
 2681000   0.81358042   -7.0796662    721.02162  0.022411464  0.022044823            7 
 2682000   0.83112912   -7.0914744    721.33531  0.022412854  0.022037706            7 
 2683000   0.80949723   -7.0835121    720.12119  0.022366791  0.022030584            6 
 2684000   0.81435559   -7.0571259    720.22902  0.022361805  0.022023437            7 
 2685000   0.81497548   -7.0813724     722.3749  0.022420078  0.022016309            5 
 2686000   0.81888782   -7.0904807    719.28716  0.022315933  0.022009122            9 
 2687000   0.81572869   -7.0996749    719.68751  0.022320044  0.022001914           12 
 2688000   0.82661058   -7.1344693    721.22582  0.022359432  0.021994711           10 
 2689000   0.80178421   -7.0865536    718.96507  0.022281055   0.02198749            7 
 2690000   0.82291557   -7.1012293    720.41101  0.022317565  0.021980259           10 
 2691000   0.82847982   -7.0980519     720.0584  0.022298353  0.021973027            7 
 2692000   0.83624947   -7.1048875    719.56236  0.022274714  0.021965809            6 
 2693000   0.82393675   -7.0967839    719.84129  0.022275074  0.021958601            5 
 2694000   0.79966124   -7.1131985    719.72929  0.022263341  0.021951383           10 
 2695000   0.82751571   -7.0904211    722.05331  0.022326942  0.021944191           14 
 2696000   0.82360485   -7.1348126    720.12972  0.022259202  0.021936995           12 
 2697000   0.81098805   -7.1059151    721.15608  0.022282662  0.021929783            8 
 2698000   0.81441521   -7.1009643    720.31912  0.022248552   0.02192255            7 
 2699000   0.82960679    -7.117906     722.0358  0.022293312  0.021915328           10 
 2700000   0.80804954    -7.123821    719.07454  0.022193659  0.021908074            8 
 2701000   0.82884262   -7.0929419    721.51414   0.02226071  0.021900931            6 
 2702000   0.82184055   -7.0689012    722.37876  0.022279138  0.021893789           13 
 2703000   0.81938924    -7.063213    722.31917  0.022269058  0.021886674            6 
 2704000   0.81937185   -7.0793051    724.47663  0.022327312  0.021879599            8 
 2705000   0.82634141   -7.0490708    723.22923  0.022280629  0.021872449            7 
 2706000   0.81840352   -7.1173916    721.45464  0.022217746  0.021865315            5 
 2707000   0.81487289   -7.0650805    722.33097  0.022236516  0.021858187           14 
 2708000   0.80949141   -7.0771738      722.478  0.022232829  0.021851083           10 
 2709000   0.82964527   -7.0817677    721.22938  0.022186212  0.021843947           10 
 2710000   0.81349018   -7.0916678      721.657  0.022191175  0.021836788            6 
 2711000     0.807729   -7.1086724    720.17686  0.022137491  0.021829636            8 
 2712000   0.81888228   -7.1601771    719.19372  0.022099119   0.02182242            9 
 2713000   0.84175879   -7.1148664    722.84759  0.022203206  0.021815212            4 
 2714000   0.79119073   -7.1441428    720.48763  0.022122563  0.021808031           13 
 2715000   0.80599859   -7.1262125    720.27305  0.022107828  0.021800835           15 
 2716000   0.81464095   -7.1148197    720.78508  0.022115399  0.021793655           26 
 2717000   0.81993663   -7.0963194    723.04496  0.022176572   0.02178654            7 
 2718000    0.8167149   -7.1022042    722.20371  0.022142621   0.02177941           11 
 2719000   0.82332593   -7.1187173    722.13305  0.022132311  0.021772286            5 
 2720000    0.8123442   -7.0828453    722.91228  0.022148048   0.02176514           21 
 2721000   0.81248438   -7.1133676     723.0028   0.02214268  0.021758069            5 
 2722000   0.82076086   -7.0810383    722.84332  0.022129663  0.021750993           13 
 2723000   0.81282667   -7.1046957    723.52276   0.02214233  0.021743889           16 
 2724000   0.81776023   -7.1236503    721.13828  0.022061254  0.021736735            6 
 2725000   0.82168816   -7.1004883     723.0091   0.02211037  0.021729567            5 
 2726000   0.81236358   -7.1407065    722.31724  0.022081109  0.021722402           12 
 2727000   0.80678042    -7.107124    723.36373  0.022104991  0.021715271            8 
 2728000   0.80997275   -7.1433081    722.60961  0.022073852  0.021708131            6 
 2729000   0.82571555   -7.1395934    721.33518  0.022026847  0.021700989            9 
 2730000   0.83514266   -7.1136389    722.69429  0.022060265  0.021693846           19 
 2731000   0.82103175   -7.1274069     721.1801  0.022005984  0.021686729           11 
 2732000   0.82924386   -7.1118025    725.27664  0.022122884  0.021679589           21 
 2733000   0.83197866   -7.1220747      725.014  0.022106781  0.021672456            7 
 2734000   0.81107468   -7.0846485    723.44171  0.022050772  0.021665316            9 
 2735000   0.81937431   -7.0857837    723.93797   0.02205783  0.021658292            9 
 2736000   0.81624463   -7.1036477    724.53818  0.022068049  0.021651269            5 
 2737000   0.81743426   -7.1144889    723.14106  0.022017448  0.021644225            9 
 2738000   0.80099109   -7.0903394    723.28916  0.022013914   0.02163716            6 
 2739000   0.82808688   -7.1223854    723.15924  0.022001924  0.021630119           18 
 2740000   0.83099434   -7.1272875    723.28441  0.021997701  0.021623025            6 
 2741000   0.81025173   -7.1337038    722.24957  0.021958214  0.021615967           22 
 2742000   0.81872223   -7.1032275    726.75621  0.022087169  0.021608932            7 
 2743000   0.81125797   -7.1360733    722.72105  0.021956527  0.021601915           19 
 2744000   0.80914193   -7.1020663    722.60001   0.02194485  0.021594864           10 
 2745000   0.81846994   -7.0894604    725.88282  0.022036515  0.021587864            5 
 2746000   0.80833122   -7.1096225    725.64016  0.022021126  0.021580864            4 
 2747000   0.82297799    -7.101683    724.15203  0.021967966  0.021573879           12 
 2748000   0.82976153   -7.1011835    725.12392  0.021989444  0.021566888            8 
 2749000   0.80227093   -7.1261132    725.08212  0.021980178  0.021559877           16 
 2750000   0.79076832   -7.1322446    724.14586  0.021943814  0.021552822           14 
 2751000   0.80320429   -7.1058412    726.90817  0.022019513  0.021545827            7 
 2752000   0.83604564   -7.0933416    725.80216  0.021978021  0.021538881           10 
 2753000   0.81920291   -7.1234802     724.5741  0.021932864  0.021531895           11 
 2754000   0.83662225   -7.1118381    724.82368  0.021932452  0.021524903           10 
 2755000   0.80131489   -7.1341459    724.01649  0.021900075  0.021517901           10 
 2756000   0.80982702   -7.1354644    726.25018  0.021959669  0.021510888           22 
 2757000   0.81029981   -7.1098155    725.47178  0.021928176  0.021503925           10 
 2758000   0.81277141   -7.1318244    724.48627  0.021890448  0.021496999           12 
 2759000   0.80717869    -7.101037     726.1939  0.021934092  0.021490017            9 
 2760000   0.80358352   -7.1158789    725.41849  0.021902732  0.021483089            7 
 2761000   0.82525484   -7.1122352    726.44431  0.021925761   0.02147618           10 
 2762000   0.81845434   -7.0733629    727.09359  0.021937412  0.021469261            9 
 2763000   0.82895597   -7.0915729    726.48456  0.021911104  0.021462354            7 
 2764000   0.80261332    -7.116955    726.34851  0.021899075  0.021455437            8 
 2765000   0.80826693    -7.126119    725.30207  0.021859616  0.021448471           18 
 2766000   0.80794816   -7.1046958    727.34098  0.021913141  0.021441536           19 
 2767000    0.8109586    -7.143484    724.79178  0.021828448  0.021434588           15 
 2768000   0.80073047   -7.1522066     724.6788  0.021817161  0.021427577           36 
 2769000   0.80842575   -7.1307472    727.26617  0.021887148   0.02142057           16 
 2770000   0.80912938   -7.1613432    724.63347  0.021800044  0.021413552           11 
 2771000   0.81930898   -7.1610581     724.5103  0.021788473  0.021406503            9 
 2772000    0.7910014   -7.1844774    723.53403  0.021751264  0.021399444           25 
 2773000   0.80677415   -7.1718991    724.11009  0.021760731  0.021392409           20 
 2774000   0.81864942   -7.1459783    725.71122  0.021800986  0.021385417           10 
 2775000   0.80396667   -7.1413085    725.07671  0.021774075  0.021378451           10 
 2776000   0.81727799   -7.1319883    726.21848  0.021800507  0.021371451            6 
 2777000   0.80115633   -7.1345454    726.26189  0.021793959  0.021364513           27 
 2778000   0.81618988   -7.1367087    728.01754  0.021838779  0.021357508            8 
 2779000   0.79942997   -7.1381245    726.69625  0.021791299  0.021350551           16 
 2780000   0.80683883   -7.1544702    725.64378  0.021751912  0.021343558            7 
 2781000   0.78661255   -7.1507568    724.97076  0.021723923  0.021336526           15 
 2782000   0.80480425   -7.1216801    727.76107  0.021799696  0.021329525            5 
 2783000   0.79597067   -7.1413061    727.14068  0.021773287  0.021322529           13 
 2784000   0.80074509   -7.1780769    725.16252  0.021706254  0.021315512           23 
 2785000   0.81115691   -7.1515014    725.11394  0.021697006  0.021308526           17 
 2786000   0.80673279   -7.1432844     727.3225  0.021755279  0.021301555           10 
 2787000   0.78898551   -7.1295363      727.493  0.021752571  0.021294566           14 
 2788000   0.80016739   -7.1363764    727.65056  0.021749479  0.021287564            7 
 2789000   0.80864624   -7.1133306    726.67063  0.021712401  0.021280619           16 
 2790000    0.8091528   -7.1233567     727.8152  0.021738805  0.021273689            6 
 2791000    0.7997321   -7.1521675    728.07086   0.02173865  0.021266714           11 
 2792000     0.797452   -7.2011112    725.26685  0.021647172  0.021259735           11 
 2793000   0.79383439   -7.1526143    729.12947  0.021754669  0.021252729           12 
 2794000    0.7964997   -7.1177154    729.53505  0.021758979   0.02124579           20 
 2795000   0.80370463   -7.1407287    728.42366  0.021718058  0.021238861           10 
 2796000   0.80090053   -7.1372585    725.24711  0.021615615  0.021231928           13 
 2797000   0.82217195   -7.1512358    728.95863  0.021718467  0.021225048            9 
 2798000    0.8019862   -7.1600878    727.61496  0.021670686  0.021218147           13 
 2799000   0.80585825   -7.1598275    727.70652   0.02166567  0.021211224           12 
 2800000   0.79959887   -7.1142706    729.25998  0.021704166  0.021204343            8 
 2801000   0.79260673    -7.159836    727.94457  0.021657282  0.021197475            6 
 2802000   0.80374243   -7.1549097    728.34635  0.021661502  0.021190581            8 
 2803000   0.80956748   -7.1500978    729.02677  0.021674003    0.0211837           10 
 2804000   0.82845033   -7.1727859    726.02972  0.021577203  0.021176798           13 
 2805000    0.8036829   -7.1846121    728.38211  0.021639397  0.021169913           15 
 2806000   0.80067629   -7.1355188    730.46657   0.02169359  0.021163019            5 
 2807000   0.76943261   -7.1723518    729.11686  0.021645792  0.021156124           13 
 2808000   0.78020221   -7.1193578     728.9268  0.021632443  0.021149216           21 
 2809000   0.79706173   -7.1468331    728.73042  0.021618916  0.021142359            8 
 2810000   0.79865121   -7.1559272    728.25567  0.021597143  0.021135499           10 
 2811000   0.79638228   -7.1693068    728.18254  0.021587292   0.02112866           54 
 2812000   0.81286557   -7.1573033    727.93762  0.021572357  0.021121805           20 
 2813000   0.78924282     -7.14251    727.86727  0.021562604   0.02111495            7 
 2814000   0.80953604   -7.1301934    730.47876  0.021632278   0.02110814           34 
 2815000   0.80599898   -7.1545497    729.43146   0.02159359  0.021101296           17 
 2816000   0.79876182   -7.1508568    731.23894   0.02163941  0.021094423           40 
 2817000   0.77677473   -7.1743849    728.31945  0.021545363  0.021087577           48 
 2818000    0.7952403   -7.1789999    727.92684  0.021526107  0.021080702           10 
 2819000   0.79476342   -7.1789075    729.23414  0.021557117  0.021073829           40 
 2820000   0.81515139   -7.1586435    727.65749  0.021502881  0.021066989           23 
 2821000   0.81216971   -7.1834258    729.44229  0.021547982  0.021060135           15 
 2822000   0.78959917    -7.154347     727.6492  0.021487397  0.021053248           19 
 2823000   0.80071781    -7.133332    729.91516  0.021546675   0.02104636           11 
 2824000   0.80276347   -7.1664775    729.67421  0.021531935  0.021039511           10 
 2825000   0.80687423   -7.1732362    727.65174  0.021464653  0.021032682            7 
 2826000   0.78895672   -7.1660985    728.77527  0.021490188  0.021025813            4 
 2827000   0.79553369   -7.1122061    729.71266  0.021510219  0.021018967            9 
 2828000   0.80473245    -7.169635    728.06136  0.021453953  0.021012087            7 
 2829000   0.80417986    -7.162382    728.43793  0.021457462  0.021005227            6 
 2830000   0.79662367    -7.133034     730.4923  0.021510374  0.020998449           11 
 2831000   0.79727776   -7.1465114    730.96775  0.021516771   0.02099165            9 
 2832000   0.80090732   -7.1631231    732.03645   0.02154062  0.020984849           12 
 2833000    0.7844303   -7.1569009    730.16578  0.021477991  0.020978015           14 
 2834000   0.78646073   -7.1790296    730.75267   0.02148767  0.020971152           11 
 2835000   0.77924323   -7.1709841    728.01947  0.021399749  0.020964292           15 
 2836000   0.79560288   -7.1504634    729.06257  0.021422854  0.020957447           13 
 2837000   0.81242011   -7.1663836    731.29096  0.021480759  0.020950638            3 
 2838000    0.7872614   -7.1584018    729.40326  0.021417761  0.020943863            7 
 2839000   0.79359338   -7.1695181    729.80163   0.02142191  0.020937061           12 
 2840000   0.78538736    -7.179013    731.86053  0.021474781  0.020930208           10 
 2841000   0.79408601   -7.1881991    728.86558  0.021379373  0.020923367           11 
 2842000   0.81860532   -7.1551701     730.8008  0.021428595  0.020916599           16 
 2843000   0.79546364   -7.1651384    729.55293   0.02138448  0.020909802            9 
 2844000    0.7785847   -7.1801419    730.58122  0.021407092  0.020903018           28 
 2845000    0.7923936   -7.1566985    730.17306  0.021387612  0.020896213           13 
 2846000   0.79349088   -7.1660062    729.76371  0.021368111  0.020889461            7 
 2847000   0.81293053   -7.1460929    729.83462  0.021362681  0.020882687            8 
 2848000   0.78708239   -7.1684831    729.90589  0.021357265  0.020875901            9 
 2849000   0.81222521   -7.1897698    729.43676  0.021336047  0.020869075           11 
 2850000   0.82236157   -7.1759071    730.68935  0.021365186  0.020862292           14 
 2851000   0.79913633   -7.1441117    731.95175  0.021394591  0.020855559           13 
 2852000   0.78139654   -7.1602108    731.40538  0.021371125  0.020848806           10 
 2853000   0.80988786   -7.1816571    732.18449  0.021386391  0.020842011           15 
 2854000   0.76508974   -7.1968383    730.94396  0.021342676  0.020835235            7 
 2855000   0.80938325    -7.188579    729.97555  0.021306934  0.020828406           11 
 2856000   0.79405781   -7.1777537    730.02795  0.021301002    0.0208216            9 
 2857000    0.7969315   -7.2027232    729.28587  0.021271901  0.020814805           17 
 2858000   0.80250295   -7.1857335    731.51327  0.021329405  0.020808001           17 
 2859000   0.79514262   -7.1569606    732.53063  0.021351598  0.020801215           15 
 2860000   0.80125411   -7.1550943    733.13627  0.021361779  0.020794478           30 
 2861000   0.79802181   -7.1873416    731.15929  0.021296729  0.020787714            7 
 2862000   0.80642432   -7.1490655    732.16432  0.021318551  0.020780948           11 
 2863000    0.8103695   -7.1520887     732.4765  0.021320191  0.020774254            8 
 2864000   0.77967318   -7.1594491     733.0633  0.021329821  0.020767585           14 
 2865000   0.76983569   -7.2101189    730.82469  0.021257263  0.020760865           21 
 2866000   0.78008938   -7.1654379    732.32168  0.021293373  0.020754166           15 
 2867000   0.78789105   -7.1760247    731.69979   0.02126787  0.020747454           15 
 2868000   0.79236301   -7.1938899     730.2167  0.021217361  0.020740692            8 
 2869000   0.79530246    -7.206458    731.42521  0.021245068  0.020733913            8 
 2870000   0.79334568   -7.1786196    731.69179  0.021245406   0.02072719           16 
 2871000   0.78422196   -7.1937165    730.64045   0.02120749  0.020720422           12 
 2872000   0.79590519   -7.2384977     730.0563  0.021183156  0.020713613           15 
 2873000   0.78638336   -7.1897113    731.80644  0.021226547  0.020706826           16 
 2874000   0.78257542   -7.1656772    731.53041  0.021211158  0.020700071           12 
 2875000   0.80538372    -7.151913    732.17915  0.021222584  0.020693398           17 
 2876000    0.8027309   -7.1572622     731.8636  0.021206062   0.02068671           17 
 2877000   0.77503944   -7.1989391    731.02724  0.021174465  0.020679975            4 
 2878000   0.79903778   -7.1510219    731.18078  0.021171554  0.020673259            9 
 2879000   0.79343743   -7.1921304    731.43289  0.021171497  0.020666531           15 
 2880000   0.78691839   -7.2053923    730.88175  0.021148199  0.020659772            9 
 2881000   0.77255185   -7.2211867    731.20854  0.021150311  0.020652982            6 
 2882000   0.77708343   -7.2126192    730.65482  0.021126961  0.020646213           12 
 2883000   0.79200873   -7.1932243    733.69142  0.021207406  0.020639433           16 
 2884000   0.78914405   -7.1869351    733.23398  0.021186835  0.020632697            7 
 2885000   0.79231175   -7.1846178    732.30703  0.021152716  0.020625963           21 
 2886000   0.78705353   -7.1586923    732.75528   0.02115833  0.020619257            7 
 2887000   0.77908166   -7.1862687    731.59065  0.021117384   0.02061255           27 
 2888000   0.77360534   -7.1813542    733.05196  0.021152238  0.020605814           12 
 2889000   0.80393301   -7.1959095    731.89083  0.021111424  0.020599076           11 
 2890000   0.78612024   -7.1993021    735.02519  0.021194498  0.020592368           12 
 2891000   0.78076347   -7.2028089    730.54813  0.021058115  0.020585601           14 
 2892000   0.79423388   -7.2365908    731.34273   0.02107373   0.02057887            8 
 2893000   0.78929466   -7.1881884    733.00064  0.021114202  0.020572102           20 
 2894000   0.77347838   -7.1814828    732.98315  0.021106403  0.020565374           11 
 2895000   0.79809724   -7.1757568    732.46087  0.021084078  0.020558718           12 
 2896000   0.78770571   -7.2122357    732.67897  0.021083074  0.020552043           16 
 2897000    0.7939661   -7.1741323    733.43838  0.021097641  0.020545353           14 
 2898000   0.78444635   -7.1905366    733.95678  0.021105267  0.020538691           12 
 2899000   0.78108753   -7.2141524    732.04542  0.021043044  0.020532058           16 
 2900000   0.79332578   -7.1893284    733.79112  0.021085952  0.020525361           17 
 2901000   0.77084227   -7.2048715    734.13428  0.021088541  0.020518701            6 
 2902000   0.79738732   -7.2080002      730.676  0.020981966  0.020512006           11 
 2903000   0.78704137    -7.201064    733.78277  0.021063921  0.020505312           22 
 2904000   0.78536187   -7.2041369    732.00581  0.021005676  0.020498607            7 
 2905000   0.77401011   -7.2246171    731.71327  0.020990054  0.020491887            9 
 2906000   0.80057426   -7.2380866    732.58468   0.02100782  0.020485142           14 
 2907000   0.77835488    -7.236861    734.22833   0.02104771  0.020478415           20 
 2908000   0.76633663   -7.1942044    733.63173  0.021023376  0.020471675           10 
 2909000   0.79577081   -7.2187257    732.21127  0.020975458   0.02046496           13 
 2910000   0.77847914   -7.1921608     734.0426  0.021020693   0.02045828           19 
 2911000   0.77095259   -7.2108806    734.65444  0.021030987  0.020451621            7 
 2912000   0.79133034   -7.1811552    734.23936  0.021011886  0.020444954            8 
 2913000   0.78025887   -7.1794035    735.74451  0.021047732  0.020438342           12 
 2914000   0.79189567    -7.175723    736.71168  0.021068168  0.020431733           12 
 2915000   0.78239623   -7.1887906    733.35228  0.020964902   0.02042509           15 
 2916000   0.76868413   -7.2116044    734.83805  0.021000173  0.020418464           12 
 2917000   0.79066409   -7.2191665    734.56263  0.020985106  0.020411828           12 
 2918000   0.76986045   -7.2099759    734.15402  0.020966245  0.020405177           12 
 2919000   0.78022697   -7.1990281    734.33511  0.020964232  0.020398521           12 
 2920000   0.79126854   -7.1868724    732.75172  0.020911864  0.020391867            8 
 2921000   0.79822409   -7.2303435    732.41059  0.020894973  0.020385194           13 
 2922000   0.78290573   -7.2206877     733.3571  0.020914816   0.02037853            9 
 2923000   0.79009679   -7.2374723    734.71349  0.020946331  0.020371849            6 
 2924000   0.77892666   -7.1861795    734.45654  0.020931844   0.02036519           10 
 2925000   0.77012966   -7.1882446     733.6839  0.020902675  0.020358566           16 
 2926000   0.77838227   -7.2010837    735.21154  0.020939039  0.020351945            5 
 2927000   0.77875737   -7.1984173    733.77417  0.020890963  0.020345355           12 
 2928000   0.77919711   -7.2232263    733.76005  0.020883426    0.0203387            7 
 2929000   0.77991007   -7.2271466    732.85582  0.020850569   0.02033204            7 
 2930000   0.77031239   -7.2516718    733.96704  0.020875058  0.020325379           10 
 2931000   0.77803194   -7.2266061    734.35325  0.020878917  0.020318723           19 
 2932000   0.78703073   -7.2275986    731.94087  0.020803231  0.020312052           13 
 2933000   0.78891191   -7.2364771    734.30966  0.020863441  0.020305411           15 
 2934000   0.79096467   -7.2623331    733.87399  0.020843955   0.02029871           15 
 2935000   0.78268212   -7.2036306    733.37903  0.020822801  0.020292024           13 
 2936000   0.78693697   -7.2332968     734.3891  0.020844377  0.020285374            8 
 2937000   0.77459764   -7.2225272    733.84407  0.020821816  0.020278688            8 
 2938000   0.78142277    -7.205304    735.35705  0.020857643  0.020272019           16 
 2939000   0.77644321   -7.2435429    733.16742   0.02078846  0.020265371           35 
 2940000    0.7602523   -7.2063047    732.57684   0.02076465  0.020258733           10 
 2941000   0.76704486   -7.2214778    733.03154  0.020770473  0.020252085           13 
 2942000   0.78924474   -7.2262235    734.33324  0.020800284  0.020245451           16 
 2943000    0.8027201   -7.2381355     733.6181  0.020772967  0.020238806           10 
 2944000   0.78624455   -7.2104364    732.62321  0.020737749  0.020232112           10 
 2945000   0.79025879   -7.2552645    733.51488  0.020755939  0.020225419           11 
 2946000   0.78976473   -7.2435597    735.11171  0.020794063  0.020218708           18 
 2947000   0.79376648   -7.2103349    732.39355  0.020710145  0.020211996           21 
 2948000   0.78689465   -7.2425142    733.83563  0.020743884  0.020205307           18 
 2949000   0.76246442   -7.2452119    733.35628  0.020723304  0.020198626            9 
 2950000    0.7757593   -7.2494795    732.64872  0.020696292  0.020191942            7 
 2951000   0.77905347   -7.2204547    734.04189   0.02072862  0.020185257           17 
 2952000   0.77013594   -7.2250443    733.90927  0.020717854  0.020178554           32 
 2953000   0.77592167   -7.2603129    732.74451  0.020677969  0.020171869           33 
 2954000   0.79343969   -7.2610709     733.0997  0.020680989  0.020165161           24 
 2955000    0.7818781   -7.2621945    733.04864   0.02067255  0.020158411           17 
 2956000   0.76243213   -7.2580748    732.71833  0.020656245  0.020151689           37 
 2957000   0.75983407   -7.2121009     733.1903  0.020662561  0.020145015           23 
 2958000   0.79468653   -7.2570039    733.78913  0.020672446  0.020138326           15 
 2959000   0.77240127   -7.2651116    732.85895  0.020639263  0.020131595           25 
 2960000   0.78632312    -7.254065     732.3454  0.020617832  0.020124888           20 
 2961000   0.75896341   -7.2527887     735.1093  0.020688655  0.020118174           28 
 2962000   0.78917365    -7.240604    733.38402  0.020633131  0.020111511           25 
 2963000   0.77048865   -7.2686866    733.63515  0.020633231  0.020104839           46 
 2964000   0.77655012   -7.2417552     736.2944  0.020701035  0.020098179           22 
 2965000     0.788649   -7.2406604    735.11218  0.020660826  0.020091516           11 
 2966000   0.78333855   -7.2331133    734.70238  0.020642346  0.020084821           19 
 2967000   0.76478133   -7.2479691    733.61232  0.020604773  0.020078159           19 
 2968000   0.78784084   -7.2353466    733.77214  0.020602317  0.020071507           20 
 2969000   0.77011018   -7.2486782    733.46597  0.020586785  0.020064858           27 
 2970000   0.79103303   -7.2347466    734.23103   0.02060132  0.020058232           11 
 2971000   0.79165782   -7.2386689    735.33609  0.020625381  0.020051617           10 
 2972000     0.783191   -7.2462503    735.23874  0.020615712  0.020044997            7 
 2973000   0.75882883    -7.266944    734.61368  0.020591257  0.020038363           21 
 2974000    0.7682929   -7.2469679    736.15836  0.020627616   0.02003172            9 
 2975000   0.78086607   -7.2395902    736.46107  0.020629162  0.020025079            7 
 2976000    0.7796953   -7.2408064    735.01461  0.020581726  0.020018431           29 
 2977000   0.76292279   -7.2748367    733.45679  0.020531206   0.02001176           20 
 2978000    0.7658972   -7.2572351    735.15826  0.020571924  0.020005125            9 
 2979000   0.77718448   -7.2577211    734.12784  0.020536193  0.019998498           11 
 2980000    0.7617176   -7.2521478     734.5323  0.020540612   0.01999188           11 
 2981000   0.76442843   -7.2419727    735.97811  0.020574139  0.019985296           15 
 2982000   0.76253516   -7.2894006    734.65398  0.020530236  0.019978676           23 
 2983000   0.76992453   -7.2749054    733.15526  0.020481486  0.019972026           14 
 2984000   0.77816213   -7.2610312    735.43439   0.02053827  0.019965361           13 
 2985000    0.7745549   -7.2463179    735.13547  0.020523045  0.019958721           18 
 2986000   0.78663859   -7.2499109     734.7051  0.020504161  0.019952089           36 
 2987000   0.76776749   -7.2821438    733.99597  0.020477513  0.019945461           17 
 2988000   0.78572042   -7.2615754    733.91489  0.020468398  0.019938771           16 
 2989000   0.76713843   -7.2866015    733.47086  0.020449171  0.019932083            9 
 2990000   0.79485206   -7.2683284    733.64503  0.020447186  0.019925447            7 
 2991000   0.77473745   -7.2631577    733.97791  0.020449624   0.01991878           12 
 2992000   0.78713936   -7.2748535    734.28903  0.020451455  0.019912113           19 
 2993000   0.77556927   -7.2728876    734.89919   0.02046161  0.019905435           11 
 2994000     0.762751   -7.2551654    734.49994  0.020443664   0.01989876           14 
 2995000   0.77085154   -7.2618882    734.12602  0.020426434  0.019892127           10 
 2996000   0.76841761    -7.270656    735.49598  0.020457721  0.019885483           12 
 2997000   0.75839357   -7.2631407     735.7871   0.02045899  0.019878841           18 
 2998000   0.77925942     -7.24533    734.83927  0.020425819  0.019872256           44 
 2999000   0.79490353   -7.2385485    736.52817  0.020465938  0.019865673           20 
 3000000   0.76587057   -7.2384363    737.37657  0.020482682  0.019859141           26 
 3001000   0.78986043   -7.2397333    736.16354  0.020442173  0.019852569           13 
 3002000   0.76949829   -7.2597555     734.7784  0.020396913  0.019846033            9 
 3003000   0.77074546   -7.2506466    736.06758  0.020425896  0.019839469            8 
 3004000   0.75960112   -7.2126101    738.64465  0.020490586  0.019832966            5 
 3005000   0.78427742    -7.229267    736.53689  0.020425316  0.019826433            7 
 3006000   0.77233389   -7.2243654    737.00139  0.020431398  0.019819873           45 
 3007000   0.76706032   -7.2681372    737.18898  0.020429802  0.019813343           15 
 3008000   0.78786071   -7.2222209    737.86124  0.020441634  0.019806803           27 
 3009000   0.77017446   -7.2606771    735.13435  0.020359321  0.019800299           10 
 3010000    0.7593079   -7.2500802    735.75099  0.020369629  0.019793764           20 
 3011000   0.77190633   -7.2602711    735.77864  0.020363629  0.019787197           14 
 3012000   0.76223027    -7.277668    735.17323  0.020340118  0.019780619            8 
 3013000   0.75783609    -7.259608    736.84932  0.020379725  0.019774051           15 
 3014000   0.78307406   -7.3012886    735.64896  0.020339774  0.019767458           15 
 3015000   0.76906097   -7.2890153     735.7686  0.020336335   0.01976087           13 
 3016000   0.76865465   -7.2532069    735.90037  0.020333233  0.019754293            6 
 3017000   0.77733611   -7.2798815     734.1894  0.020279234  0.019747712           16 
 3018000   0.78326608   -7.2792152    735.54235  0.020309873  0.019741153           10 
 3019000   0.77529318   -7.3061324    733.76516   0.02025409  0.019734557           13 
 3020000   0.76125165   -7.2530361    735.54357  0.020296456  0.019727956           23 
 3021000    0.7762653   -7.2322442    736.99315  0.020329724   0.01972137           12 
 3022000   0.78204867   -7.2731758    736.00045  0.020295622  0.019714799           24 
 3023000   0.77771278   -7.2522101    735.73101  0.020281481  0.019708228           18 
 3024000   0.76772103   -7.2642795    736.00267   0.02028226  0.019701674           17 
 3025000   0.77561327   -7.2755742    735.03713  0.020248957   0.01969509           17 
 3026000   0.76397693    -7.248151    736.21463  0.020274692  0.019688514           19 
 3027000   0.76461648   -7.2967848    735.09639  0.020237209  0.019681913           66 
 3028000   0.76157406   -7.2761415    735.81253  0.020250235  0.019675313           46 
 3029000   0.77138996   -7.2679293    736.32903  0.020257759  0.019668715           58 
 3030000   0.77306876   -7.2522016     734.0492  0.020188372  0.019662148           41 
 3031000   0.76684458   -7.2621606    735.44706  0.020220143  0.019655568           18 
 3032000   0.76276528   -7.2477311    737.59591  0.020272535  0.019648986           16 
 3033000   0.77180105   -7.2735724    734.07552  0.020169126   0.01964241           19 
 3034000    0.7692059    -7.260514    735.39757  0.020198791  0.019635812           12 
 3035000   0.76717279   -7.2854812    735.31872   0.02018997  0.019629218           12 
 3036000   0.76405369   -7.2882879    735.36372  0.020184555  0.019622623           20 
 3037000   0.75804314   -7.2688989    733.81349  0.020135372   0.01961604           13 
 3038000   0.76721025   -7.2879392     735.2626  0.020168493  0.019609437           22 
 3039000   0.76285089   -7.3012145    733.08295  0.020102088   0.01960283           16 
 3040000    0.7521389   -7.2874416    735.66803  0.020166338  0.019596197           11 
 3041000   0.76099974   -7.2878996    735.86537  0.020165115  0.019589593           19 
 3042000   0.74945975   -7.2946032    735.13123  0.020138375  0.019582984            8 
 3043000   0.76515029   -7.2847122    735.40497  0.020139253  0.019576377           14 
 3044000   0.76019613   -7.2524462    734.76169  0.020115027  0.019569761           10 
 3045000   0.76147685   -7.2957959    734.21639  0.020093497  0.019563155            5 
 3046000   0.76597967   -7.2581345     736.4202  0.020147193  0.019556552           13 
 3047000   0.75507184   -7.2646279     735.3978  0.020112619  0.019549949           17 
 3048000   0.76575705   -7.2694765    735.01847  0.020095649  0.019543336           10 
 3049000   0.77295163   -7.2996031    734.23527  0.020067653  0.019536734           30 
 3050000   0.76786436   -7.3085887     733.9431   0.02005309  0.019530083           17 
 3051000   0.76625115   -7.3022121    734.27532  0.020055592   0.01952343            9 
 3052000   0.77207063   -7.2972683    733.62485   0.02003126  0.019516782           15 
 3053000   0.74405504   -7.3252106    733.90671  0.020032392  0.019510153           11 
 3054000   0.75815704   -7.2631845    736.16487   0.02008745  0.019503544            8 
 3055000   0.75092752   -7.2974863    733.63822  0.020011954  0.019496918            9 
 3056000   0.77179098   -7.2885038    735.14797  0.020046574  0.019490345           16 
 3057000   0.75638692   -7.2543261    735.35566  0.020045678  0.019483769           14 
 3058000    0.7696656   -7.2585869    737.04194  0.020085076  0.019477219            9 
 3059000   0.76532579   -7.2494929    737.68667  0.020096074  0.019470676            4 
 3060000   0.76733971   -7.2942317    733.84799  0.019984967  0.019464099           15 
 3061000   0.75960095   -7.2694565    736.31113  0.020045495  0.019457494           13 
 3062000   0.77851684   -7.2653997    736.40872  0.020041605  0.019450919           17 
 3063000   0.75911433   -7.2517643    736.57739   0.02003965  0.019444355           20 
 3064000      0.75269   -7.2728595    735.77445  0.020011272  0.019437812           28 
 3065000    0.7714103   -7.2639108    735.47905  0.019996712   0.01943126           10 
 3066000   0.76224956   -7.2497969    735.20012  0.019982608  0.019424678           20 
 3067000   0.76391592   -7.3010597    735.62002  0.019987502  0.019418089           12 
 3068000   0.76064513   -7.2954482    735.04912   0.01996548  0.019411479           32 
 3069000   0.75534317   -7.2994227    735.10791  0.019960571  0.019404866           30 
 3070000   0.76295307   -7.2941924    735.50199  0.019964766  0.019398248           43 
 3071000   0.76859049   -7.2930554    734.53604  0.019932054  0.019391659           26 
 3072000   0.76645926   -7.2958634    734.75715  0.019931563  0.019385092           19 
 3073000   0.77710464    -7.274599    735.81583  0.019953786  0.019378505           41 
 3074000   0.75803961   -7.2948456    736.50936  0.019966096  0.019371939           48 
 3075000   0.76431127   -7.3002823    734.73235  0.019911446  0.019365346           30 
 3076000   0.76343506   -7.2782056    736.71345  0.019958643  0.019358737           21 
 3077000   0.76687258   -7.2798304    737.23636  0.019966319  0.019352163           35 
 3078000   0.75791049   -7.2982508    733.25605   0.01985207  0.019345601           20 
 3079000   0.76194894   -7.2779554     736.8347  0.019942479  0.019339072           26 
 3080000   0.75060957   -7.2866144    735.98315  0.019912964  0.019332544           26 
 3081000   0.74535104   -7.2818369    736.14738  0.019910943  0.019325995           31 
 3082000   0.76216746   -7.3096883    734.20408  0.019851938  0.019319424           44 
 3083000   0.77168481   -7.3031528    734.72974  0.019859708  0.019312886           36 
 3084000   0.76839523   -7.2815759    737.22523  0.019920699  0.019306357           21 
 3085000    0.7654311   -7.3400758    735.44605  0.019866182  0.019299818           26 
 3086000   0.75898812   -7.3257239    735.47964  0.019860651  0.019293307           12 
 3087000   0.74426863   -7.3216214    736.52722  0.019882497  0.019286787           35 
 3088000   0.76514057   -7.2969886    736.01109   0.01986213  0.019280263           26 
 3089000    0.7451357   -7.3445675    735.82059  0.019850561  0.019273705           32 
 3090000   0.74392055   -7.3123256    735.52855  0.019836261  0.019267141           27 
 3091000   0.72627891   -7.3448881    735.64884  0.019833086  0.019260585           18 
 3092000   0.76602184   -7.3045129    737.26223  0.019870155  0.019254044           14 
 3093000   0.77068963   -7.3155086    735.46159  0.019815217  0.019247498           19 
 3094000   0.75126095   -7.3294886    734.92826  0.019794448  0.019240947           19 
 3095000    0.7507264   -7.3082165    735.32684  0.019798784   0.01923442           33 
 3096000   0.74798916   -7.2957128    737.15366  0.019841561   0.01922789           25 
 3097000    0.7753579   -7.2911652    737.36355  0.019840802  0.019221371           21 
 3098000   0.76662461    -7.302398    738.65741  0.019869201  0.019214876           34 
 3099000   0.74471276   -7.3064991    737.28667   0.01982593  0.019208367           33 
 3100000    0.7466792   -7.3084551    736.76713  0.019805568   0.01920185           18 
 3101000   0.76477293   -7.3112482    736.59276  0.019794495  0.019195376           25 
 3102000   0.74500068   -7.2918126     737.4958  0.019812374  0.019188891           13 
 3103000   0.75386705   -7.3101009    736.91445  0.019790376  0.019182394           27 
 3104000   0.74370888   -7.3090805    736.56038  0.019774495  0.019175919           36 
 3105000   0.75328318   -7.3126437    736.10386  0.019755874  0.019169447           13 
 3106000   0.75398705   -7.3117684    735.10728  0.019722775  0.019162952           10 
 3107000   0.75450649   -7.3174823    735.85334  0.019736438  0.019156462           27 
 3108000   0.74561753   -7.3402691    735.24121  0.019713675  0.019149964           16 
 3109000   0.73521832   -7.3478197    734.51425  0.019687848  0.019143474           16 
 3110000   0.76056399   -7.3185191    737.65731  0.019765737  0.019136987           22 
 3111000   0.74055002   -7.3563508    736.79137  0.019736188  0.019130473           11 
 3112000   0.77248137   -7.3222863    736.39965  0.019719356  0.019123968           22 
 3113000   0.75694877   -7.3575426    736.27425  0.019709665  0.019117471           15 
 3114000   0.76210519   -7.3446364    735.28124  0.019676762  0.019110972           20 
 3115000   0.75426883   -7.3513768    737.46545  0.019728878  0.019104456           18 
 3116000   0.75354875   -7.3579849    736.57129  0.019698633  0.019097928           57 
 3117000   0.75995639   -7.3294554    736.29675  0.019684974  0.019091465           60 
 3118000   0.73719439   -7.3127794     736.5836  0.019686327  0.019084984           63 
 3119000   0.75694884   -7.3277073    737.51981  0.019705028  0.019078481           30 
 3120000   0.74610557    -7.336335    737.21754   0.01969064  0.019071995           32 
 3121000   0.75229389   -7.3279533    736.76832  0.019672336  0.019065543           48 
 3122000   0.77219094   -7.3185763    737.34157  0.019681336  0.019059081           62 
 3123000    0.7410902   -7.3288926      737.627   0.01968265  0.019052629           55 
 3124000   0.75100061   -7.3139827    737.56139    0.0196746  0.019046181           31 
 3125000   0.74993723   -7.3327993    737.00144  0.019653372  0.019039747           56 
 3126000   0.72944326   -7.3115084    737.25502  0.019653845  0.019033303           47 
 3127000   0.74777442   -7.3358399    735.46997  0.019599989  0.019026858           42 
 3128000   0.73369615   -7.3281169    737.10205  0.019637203  0.019020405           49 
 3129000   0.74772203   -7.3482769    736.80668  0.019623061  0.019013919           56 
 3130000   0.74914006    -7.348592    737.25076  0.019628615  0.019007454           56 
 3131000   0.75374134   -7.3114872    737.59254  0.019631442  0.019001015           36 
 3132000   0.74751163   -7.3095748    738.59267  0.019651784  0.018994573           41 
 3133000   0.74273382   -7.2927213    737.78788  0.019624106  0.018988141           11 
 3134000   0.75388514   -7.3155627    738.88614  0.019647047  0.018981712           28 
 3135000   0.74553646   -7.3420711    738.86664  0.019640261  0.018975288           11 
 3136000   0.74322145   -7.3203748     739.0928  0.019640009  0.018968842           22 
 3137000   0.76548698   -7.3353958    738.24663   0.01961127  0.018962432           18 
 3138000   0.75701958   -7.3379951    737.61256  0.019588181  0.018956023           31 
 3139000    0.7528985   -7.3150448    737.38599  0.019575926  0.018949605           13 
 3140000   0.75554246   -7.3057127    739.31422  0.019620866  0.018943226           25 
 3141000   0.74483377    -7.339142    738.69239  0.019598121   0.01893683           47 
 3142000   0.74585982   -7.3400168    737.73268   0.01956643   0.01893046           34 
 3143000   0.75854186   -7.3420679    737.24439  0.019547258  0.018924047           21 
 3144000   0.74609156   -7.3414288    738.00632  0.019561236  0.018917623           50 
 3145000   0.76026482   -7.3588429    738.38807  0.019565132  0.018911202           39 
 3146000   0.73849634   -7.3370227    738.68752  0.019566845  0.018904806           12 
 3147000   0.74168759   -7.3322133    738.05638  0.019543914  0.018898414           17 
 3148000   0.75240283   -7.3309417     737.2179   0.01951551  0.018892011           12 
 3149000   0.74925136   -7.3251933    738.80867   0.01955141  0.018885636           21 
 3150000   0.73929826   -7.3111847    737.90736  0.019521359  0.018879249           14 
 3151000   0.74345747   -7.3485866    737.07756  0.019493218  0.018872842           15 
 3152000   0.75260396   -7.3346978    739.00775  0.019538064   0.01886645           17 
 3153000   0.74203118   -7.3118706    737.34797     0.019488  0.018860077           19 
 3154000   0.74746722   -7.3247966    738.90448  0.019522947  0.018853696            9 
 3155000    0.7442255   -7.3644778    738.36509  0.019502512  0.018847312           22 
 3156000   0.74166807   -7.3777891    737.63502  0.019477055  0.018840932           47 
 3157000   0.74512283   -7.3115614    738.54777  0.019494979  0.018834525           43 
 3158000    0.7544401   -7.3208616    738.12299  0.019477596  0.018828122           12 
 3159000   0.75035825   -7.3463512    738.33264  0.019476961  0.018821749           22 
 3160000   0.73896836   -7.3383221    738.26881  0.019469114  0.018815364           21 
 3161000   0.74757386   -7.3346093    739.10763  0.019485069  0.018809009           11 
 3162000   0.75511393   -7.3449417     739.2949  0.019483842   0.01880263           26 
 3163000   0.73672864    -7.327066    738.61191  0.019459688  0.018796253           65 
 3164000   0.72499126   -7.3599972    738.42551  0.019448628  0.018789852           17 
 3165000    0.7403702   -7.3308903    739.15872  0.019461788  0.018783465           11 
 3166000   0.75973083   -7.3424302    739.53486  0.019465542  0.018777101           19 
 3167000   0.74867872   -7.3470123    739.62196  0.019461687  0.018770759           17 
 3168000   0.74570308   -7.3404118    739.18252  0.019443985  0.018764436            9 
 3169000   0.73842464   -7.3233491     740.6126  0.019475455  0.018758104            8 
 3170000   0.75354056    -7.340591    739.66991   0.01944453  0.018751774           28 
 3171000   0.73654792   -7.3192091    738.48217  0.019407184  0.018745428           16 
 3172000   0.74325817   -7.3258157     740.8256  0.019462631  0.018739117           11 
 3173000   0.74417625   -7.2947103    740.62874  0.019451327  0.018732824            9 
 3174000   0.75165136   -7.3080884    738.72775  0.019395289  0.018726552           12 
 3175000   0.74676776   -7.3477984    738.73283  0.019389313  0.018720269           17 
 3176000   0.74851298   -7.3408087    740.20135   0.01942174  0.018713968           10 
 3177000   0.72948206   -7.3247536    738.88077  0.019380988  0.018707696           13 
 3178000    0.7457109   -7.3235992    739.30805  0.019386093  0.018701438           18 
 3179000   0.75217291   -7.3457421    739.49001  0.019384765  0.018695181            8 
 3180000   0.74831418   -7.3409636    739.96096   0.01939101  0.018688891           27 
 3181000   0.75134728     -7.33756    739.33708  0.019368571  0.018682627           10 
 3182000   0.74595836   -7.3332089    740.38762  0.019389996  0.018676327           31 
 3183000   0.73973037   -7.3275271    738.78248  0.019341881  0.018670015           24 
 3184000   0.73387092   -7.3449082     740.2443  0.019374066   0.01866372           38 
 3185000   0.75518755   -7.3357354    741.60932  0.019403698  0.018657441           34 
 3186000   0.74477975   -7.3118539    740.19228  0.019360543  0.018651172           23 
 3187000   0.75145247   -7.3190935    739.24375  0.019329666  0.018644889           18 
 3188000   0.74249671   -7.3232674    741.56534  0.019384288  0.018638645           13 
 3189000   0.73651956   -7.3405238    739.95544  0.019336141  0.018632379            9 
 3190000   0.74093735    -7.321266    737.32445  0.019261349  0.018626087           12 
 3191000   0.73224038   -7.3450146    740.97198  0.019350569  0.018619822           19 
 3192000   0.74956554   -7.3190215    741.42861  0.019356428  0.018613569           14 
 3193000   0.74853023   -7.3260067     741.2522  0.019345761  0.018607299           17 
 3194000   0.74653576   -7.3463248    739.38812   0.01929107     0.018601           18 
 3195000   0.74714558   -7.3389356    741.77857  0.019347381  0.018594745           21 
 3196000    0.7362716   -7.3673248    739.30987  0.019276957   0.01858848            8 
 3197000    0.7535659   -7.3479677     739.0278  0.019263575  0.018582196           20 
 3198000   0.73680226   -7.3367031    740.84289  0.019304849  0.018575939           18 
 3199000   0.72093502   -7.3260119    741.19797  0.019308064  0.018569676           18 
 3200000   0.76206393   -7.3272221    741.70318  0.019315187  0.018563415           26 
 3201000   0.74654069   -7.3744026    739.20637  0.019244152  0.018557148           35 
 3202000   0.73268846     -7.35162    739.91952  0.019256702  0.018550868           21 
 3203000   0.73129882     -7.34297    740.27048  0.019259821  0.018544608           14 
 3204000   0.74660052   -7.3656156    739.09753  0.019223302   0.01853832           17 
 3205000   0.73803155   -7.3545352    737.82688  0.019184266  0.018532033           20 
 3206000   0.74092377   -7.3608901    739.12373  0.019211991  0.018525763           17 
 3207000    0.7385072    -7.349112    738.92941  0.019200951  0.018519498           15 
 3208000    0.7505919   -7.3452504      739.066  0.019198514  0.018513218           26 
 3209000   0.74491724   -7.3541165    740.13497  0.019220291  0.018506957           14 
 3210000   0.73379593   -7.3558817    739.47705  0.019197224  0.018500682           22 
 3211000   0.73486982   -7.3489182    740.87661  0.019227567  0.018494445           27 
 3212000   0.74704801   -7.3324196    740.06961  0.019200644  0.018488184           48 
 3213000     0.743051   -7.3255656    738.93378  0.019165208  0.018481928           56 
 3214000   0.75733415   -7.3320786    739.48464  0.019173528  0.018475657           60 
 3215000   0.73337754   -7.3419987    741.27273  0.019213912  0.018469408           72 
 3216000   0.73142552   -7.3591361    741.81056  0.019221874  0.018463139           31 
 3217000     0.757586    -7.354352    740.19811   0.01917413   0.01845688           30 
 3218000   0.75351868   -7.3561196    738.87301  0.019133857  0.018450614           35 
 3219000   0.73480166   -7.3732528    737.92618  0.019103401  0.018444331           11 
 3220000   0.73996938    -7.376548    738.91374  0.019123026  0.018438057           24 
 3221000   0.73351188   -7.3669465    738.12528   0.01909669  0.018431808           13 
 3222000   0.74002017   -7.3666539    738.53937  0.019101473  0.018425561           19 
 3223000   0.73642686   -7.3313289    739.87354  0.019130043  0.018419296           13 
 3224000    0.7433931   -7.3388016    739.99993  0.019127376  0.018413068           42 
 3225000   0.73303298   -7.3540982    738.32646  0.019078203  0.018406808           28 
 3226000   0.73029705   -7.3690652    738.73942  0.019082957  0.018400524           49 
 3227000   0.73392344   -7.3547203    739.46406  0.019095756  0.018394253           32 
 3228000   0.74783996   -7.3689464    739.73933  0.019096947  0.018388019           19 
 3229000   0.74038168   -7.3763224    739.33999  0.019080726  0.018381777            9 
 3230000   0.73536074   -7.3670578    737.63356  0.019030794  0.018375524           26 
 3231000   0.72496293   -7.3767213    739.16063  0.019064289  0.018369278           14 
 3232000   0.73902642   -7.3506002    741.08612  0.019108037  0.018363054           11 
 3233000   0.72978835   -7.3599465     740.1164  0.019077132  0.018356836           12 
 3234000    0.7492893   -7.3768396    738.41082  0.019027284  0.018350585           23 
 3235000   0.73743013    -7.376029    739.71665   0.01905504  0.018344335           37 
 3236000   0.73159992   -7.3777307    739.39661   0.01904091  0.018338119           19 
 3237000   0.74042174   -7.3406875    741.17336  0.019080768  0.018331914           12 
 3238000   0.73760899   -7.3580733    740.81898  0.019065755  0.018325681           23 
 3239000   0.73931869   -7.3654469    740.68309  0.019056373  0.018319446           21 
 3240000    0.7252319   -7.3820913    740.15354  0.019036871  0.018313197           14 
 3241000   0.74296598   -7.3405029    739.51493  0.019014577  0.018306968           19 
 3242000    0.7363971   -7.3769744    740.56722   0.01903576  0.018300743           13 
 3243000   0.73014563   -7.3782962    739.73775  0.019008576  0.018294519           11 
 3244000   0.71628971   -7.3737742    739.69605  0.019001645  0.018288264            9 
 3245000   0.73567888   -7.3448581    740.11096  0.019006445  0.018282043           21 
 3246000   0.74909364   -7.3542452    740.34602  0.019006624  0.018275836           15 
 3247000   0.72473338   -7.3876782    741.06135  0.019019129  0.018269618           41 
 3248000   0.71720586   -7.3740234    739.56647   0.01897492  0.018263393           24 
 3249000     0.727538   -7.3918566    739.06921  0.018956325  0.018257168           31 
 3250000   0.74020362   -7.3944659    740.22142  0.018980036  0.018250924           70 
 3251000   0.74419173   -7.3633185    740.30381   0.01897631  0.018244708           25 
 3252000   0.72935197    -7.359649    740.17894  0.018967275  0.018238492           36 
 3253000   0.73622058   -7.3603956    741.41974   0.01899323  0.018232289           30 
 3254000   0.71733665   -7.3622977    742.01517  0.019002642  0.018226114           24 
 3255000   0.71470317   -7.3850625    740.83873  0.018966685  0.018219894           25 
 3256000   0.73594001   -7.3695045    741.10228  0.018967605  0.018213693           21 
 3257000   0.71321001   -7.3370782    743.21905  0.019015941  0.018207513           13 
 3258000   0.74007354   -7.3521969    740.80162  0.018948271  0.018201344           58 
 3259000   0.73570461   -7.4050386    739.92122  0.018919945  0.018195129           29 
 3260000   0.72315828   -7.3585255    740.87963  0.018938641   0.01818893           31 
 3261000   0.72757972   -7.3949804    740.12348   0.01891351  0.018182722           19 
 3262000   0.73062115   -7.3615205     739.1221   0.01888213  0.018176532           20 
 3263000   0.73819241   -7.3678739    740.13499  0.018902211  0.018170332           24 
 3264000   0.74308455   -7.3736818    739.24738  0.018873759  0.018164127           33 
 3265000   0.71586047   -7.4103111    739.50089  0.018874449  0.018157897           41 
 3266000   0.73194144    -7.375739    740.33277  0.018889895  0.018151683           38 
 3267000    0.7442386   -7.3945784    738.51318    0.0188377   0.01814549           21 
 3268000   0.72643146   -7.3792308    738.88123  0.018841321  0.018139301           34 
 3269000   0.74321672   -7.3739166    739.57883   0.01885334  0.018133106           20 
 3270000   0.73063527   -7.3516382    742.30013  0.018916925  0.018126914           16 
 3271000    0.7104845   -7.4031273    739.74618  0.018846076  0.018120731           17 
 3272000   0.72024539   -7.3700409     741.6089  0.018887757  0.018114542           38 
 3273000   0.75152614   -7.3887848    738.87246  0.018812314  0.018108364           26 
 3274000    0.7363302   -7.3782844    741.18944  0.018865543  0.018102227           26 
 3275000   0.71244593   -7.3643045    740.66326  0.018846393  0.018096071           24 
 3276000   0.73693056    -7.372042    739.45592  0.018809929  0.018089945           21 
 3277000   0.72759445   -7.3897967     740.8273  0.018839063  0.018083799           28 
 3278000   0.73966432   -7.3931061    739.08385  0.018788993  0.018077625           33 
 3279000   0.72400649   -7.3597296    741.46961  0.018843896  0.018071442           20 
 3280000   0.71998184   -7.3917554    740.68899  0.018818318  0.018065275           93 
 3281000   0.72869057   -7.3913763    741.15591  0.018824442  0.018059118           19 
 3282000   0.73605608    -7.372051    739.93838  0.018787791  0.018052971           43 
 3283000   0.71674069   -7.3771682    739.71396  0.018776372  0.018046825           34 
 3284000   0.73071768    -7.375828    741.42544  0.018814084  0.018040681           32 
 3285000   0.73327212   -7.3841913    740.58974  0.018787157  0.018034542           37 
 3286000   0.73318564   -7.3733566    740.61478  0.018782075  0.018028392           19 
 3287000   0.73642231   -7.4116836    739.45054  0.018746845  0.018022249           32 
 3288000    0.7301652   -7.3840821    740.31602  0.018763078  0.018016088           53 
 3289000   0.72859925   -7.4052032    739.28856  0.018731341  0.018009954           32 
 3290000   0.74016589   -7.3970888    740.92665  0.018767139  0.018003824           24 
 3291000   0.72150706   -7.3943034     741.3978  0.018773367  0.017997713           22 
 3292000   0.73088384   -7.3716895    739.94983   0.01873101  0.017991616           22 
 3293000   0.71422845   -7.3744877    742.64599  0.018793552  0.017985531           34 
 3294000   0.71949051   -7.3698039    741.97897  0.018770972  0.017979456           36 
 3295000    0.7052257   -7.3817679    741.05102  0.018741806  0.017973364           19 
 3296000   0.71854122   -7.3653101    741.04691  0.018736016  0.017967253           45 
 3297000   0.72191323   -7.3863572    741.87273  0.018751207  0.017961156           22 
 3298000   0.71432071   -7.3641107    743.12676  0.018777208   0.01795508           37 
 3299000   0.74025933   -7.3964601    742.08884  0.018745298  0.017949004           18 
 3300000   0.72385858   -7.3635301    741.73466  0.018730673   0.01794292           24 
 3301000   0.71005544    -7.390552     741.4728  0.018718388  0.017936838           15 
 3302000   0.73367365   -7.4145178    739.51134  0.018663218  0.017930744           25 
 3303000   0.74165972   -7.4017474    741.59445  0.018710123  0.017924636           19 
 3304000   0.73800729   -7.4062587    739.21728  0.018644504  0.017918509           17 
 3305000   0.72551944   -7.4172132    741.50528  0.018696553   0.01791238           28 
 3306000   0.72917467   -7.4232192    739.85083  0.018649194  0.017906242           32 
 3307000   0.71568159   -7.3650294    743.05541  0.018724307  0.017900116           18 
 3308000   0.73130901   -7.3842914    742.02071  0.018692581  0.017894002           41 
 3309000   0.71895808    -7.427918    740.86598  0.018657852  0.017887873           15 
 3310000   0.71859986   -7.4288278    740.14601  0.018634089  0.017881745           28 
 3311000   0.73118051   -7.4110494    740.33205  0.018633143  0.017875609           14 
 3312000   0.69989435    -7.401783    741.87216  0.018666268   0.01786947           24 
 3313000   0.71809391   -7.4155325    740.67482  0.018630517  0.017863314           37 
 3314000   0.71263678    -7.387982    742.22117  0.018663779  0.017857178           44 
 3315000   0.72744097   -7.3976603    741.43294  0.018638334  0.017851079           24 
 3316000   0.70716805   -7.4156695    739.86325  0.018593266  0.017844948           21 
 3317000   0.72260787   -7.4126801    740.68025  0.018608186  0.017838842           17 
 3318000   0.71616715   -7.4186578    739.36002   0.01856942  0.017832719           45 
 3319000   0.71398201   -7.3952989    740.70057  0.018597483  0.017826584           26 
 3320000   0.73461242   -7.4063609    739.76527  0.018568405  0.017820461           31 
 3321000   0.71525598   -7.4242094    741.63422  0.018609712   0.01781436           45 
 3322000   0.71572921   -7.4192615    740.38858  0.018572862  0.017808256           35 
 3323000   0.72716369   -7.4392152    740.10874  0.018560255  0.017802144           29 
 3324000   0.71838893   -7.4250058    741.69121  0.018594344  0.017796038           21 
 3325000   0.72651879   -7.4158892    740.28721  0.018553564  0.017789932           27 
 3326000   0.71770324   -7.4202956    741.39473  0.018575735  0.017783847           36 
 3327000   0.73583447   -7.4030677    741.09441  0.018562629  0.017777763           30 
 3328000   0.71881353   -7.4536228    740.09764  0.018532092  0.017771677           42 
 3329000   0.70432665   -7.4152616     740.8197    0.0185446  0.017765572           35 
 3330000   0.69917655    -7.426694     739.6033  0.018508591  0.017759464           38 
 3331000    0.7214043   -7.4071138    741.66993  0.018554736  0.017753348           14 
 3332000   0.72925807   -7.4277903    739.43592  0.018493295  0.017747239           35 
 3333000   0.71852066   -7.4402552    740.34288  0.018510423  0.017741126           45 
 3334000   0.72578014   -7.4426056    738.58294  0.018460881  0.017735017           50 
 3335000   0.72138505   -7.4365323    739.78732   0.01848544  0.017728907           40 
 3336000   0.72127422    -7.436572    740.81809  0.018505648  0.017722826           29 
 3337000   0.72700958   -7.4317013    740.29526  0.018487046  0.017716718           43 
 3338000   0.71220538   -7.4057513    741.00917   0.01849933  0.017710622           33 
 3339000   0.71151183   -7.4093013    741.03848  0.018494521  0.017704528           41 
 3340000    0.7352152   -7.4258287    739.25091  0.018444384  0.017698446           17 
 3341000   0.71036504   -7.4498983    740.05743   0.01845898  0.017692352           31 
 3342000   0.70731612   -7.4033874     739.6017  0.018442093  0.017686241           29 
 3343000    0.7349179     -7.41476     741.6545  0.018487748  0.017680157           31 
 3344000   0.70247958    -7.441286    739.52968  0.018429268  0.017674065           32 
 3345000   0.72716759   -7.4494514    739.54387  0.018424112  0.017667963           17 
 3346000   0.70544318    -7.436686    741.32296  0.018462915  0.017661864           39 
 3347000   0.71195393   -7.4390832    739.47273  0.018411332  0.017655781           44 
 3348000    0.7217812   -7.4472049    739.28514  0.018401163  0.017649691           62 
 3349000   0.72233007   -7.4220497    741.66388  0.018454859  0.017643603           58 
 3350000   0.71051614   -7.4404245    741.17976  0.018437307  0.017637531           50 
 3351000   0.70166605   -7.4264072    740.59021  0.018417144  0.017631459           48 
 3352000   0.71586284   -7.4071861    739.38121  0.018381593  0.017625368           64 
 3353000   0.70593823   -7.4084006    742.02042  0.018441705  0.017619279           64 
 3354000   0.69909706   -7.4393909    740.70922  0.018403628  0.017613206          112 
 3355000   0.68699971   -7.4282424    741.83592  0.018426128  0.017607125           78 
 3356000   0.71608679   -7.4008404    740.72739  0.018393112  0.017601066           19 
 3357000   0.71776423   -7.4376649    741.06304  0.018395965  0.017595017           84 
 3358000   0.71811018   -7.4201525    740.50213  0.018376567  0.017588963           73 
 3359000   0.71053601   -7.4678347    740.09088  0.018360893  0.017582897           53 
 3360000   0.70712301    -7.449103    739.72715  0.018346407  0.017576825           41 
 3361000   0.71670475   -7.4408479    740.58126  0.018362126  0.017570752           90 
 3362000   0.71389014    -7.443391    738.83748  0.018313441  0.017564683          116 
 3363000   0.71173026   -7.4199903     740.8993  0.018359087  0.017558615           68 
 3364000   0.71531702    -7.422801    741.88429  0.018378029  0.017552556           99 
 3365000   0.72050596   -7.4709011    739.46967   0.01831277  0.017546516           83 
 3366000   0.70428319   -7.4327962    739.85982  0.018316989  0.017540469           74 
 3367000   0.70010604   -7.4639825    741.76006   0.01835858  0.017534399          109 
 3368000   0.70692914   -7.4213607     741.8646  0.018355715  0.017528335           57 
 3369000   0.71424103   -7.4315123    740.31088  0.018311835  0.017522292           55 
 3370000   0.71299115   -7.4458509    739.36202  0.018282938  0.017516248          103 
 3371000   0.72030306   -7.4490641    740.04776  0.018294466  0.017510196           67 
 3372000   0.71656039   -7.4387307    739.99139  0.018287648  0.017504172          104 
 3373000   0.72890703   -7.4400413    740.71772  0.018300171  0.017498135          106 
 3374000   0.71169091   -7.4307806    739.08627  0.018254452   0.01749211          113 
 3375000   0.72351681   -7.4328176     741.6839  0.018313183  0.017486086          100 
 3376000   0.70421162   -7.4527092     739.9231  0.018264295  0.017480057          169 
 3377000   0.70979958   -7.4349273    741.08837  0.018287641  0.017474039          134 
 3378000   0.70827213   -7.4456208    739.61394  0.018245854  0.017468014          106 
 3379000   0.72163316   -7.4585949    740.59926  0.018264754   0.01746197           85 
 3380000   0.71160111   -7.4683368    739.54306   0.01823331   0.01745592          121 
 3381000   0.68905148   -7.4423564    740.27469   0.01824595  0.017449886           50 
 3382000   0.71416544   -7.4659416    739.25838  0.018215513  0.017443833           80 
 3383000   0.71207326   -7.4588591    740.68348  0.018245233  0.017437779           79 
 3384000   0.69787546   -7.4643742    741.09242  0.018249912  0.017431732           78 
 3385000   0.70041619   -7.4721234    738.66995  0.018184883  0.017425703           86 
 3386000   0.72019624   -7.4604491    740.67751  0.018228921  0.017419667          127 
 3387000   0.69426854   -7.4642129    741.25082  0.018237644  0.017413642           48 
 3388000   0.71269745   -7.4405842    739.38713  0.018186421  0.017407628           45 
 3389000   0.70459472   -7.4579233    738.33505  0.018155185   0.01740161           83 
 3390000   0.71200254   -7.4700723    741.25555  0.018221621  0.017395594          107 
 3391000   0.70430713   -7.4783903    740.30432  0.018192871  0.017389544           67 
 3392000   0.70242001      -7.4845    738.96736  0.018154662  0.017383477          106 
 3393000   0.72973176   -7.4520723    739.25447  0.018156363  0.017377437           63 
 3394000   0.73155111   -7.4634382    741.44508    0.0182048  0.017371395          138 
 3395000   0.72802035   -7.4807809    740.82368  0.018184185  0.017365355           96 
 3396000   0.69956204   -7.4950281    737.17204  0.018089224  0.017359323           59 
 3397000   0.70220395   -7.4823995    738.74024  0.018122369  0.017353307           53 
 3398000   0.70118394   -7.4730614     740.3961  0.018157644  0.017347286          115 
 3399000   0.71913883   -7.4742632    740.17547  0.018146893  0.017341247           59 
 3400000   0.71548142    -7.477514    738.83344  0.018108663  0.017335222           64 
 3401000   0.72958362   -7.4960145    740.06369  0.018133483  0.017329189           43 
 3402000   0.70077359   -7.4977381    738.71677  0.018095159  0.017323153           63 
 3403000   0.71061115   -7.4674819    740.98446  0.018145373  0.017317143           47 
 3404000   0.69736811    -7.470602    741.22293  0.018145881  0.017311142           75 
 3405000   0.71388926   -7.4664638    740.46405  0.018121979   0.01730515           54 
 3406000   0.71042767   -7.4446252    740.55851  0.018118969  0.017299157           47 
 3407000   0.70237094   -7.4583521    740.08352  0.018102033  0.017293169           59 
 3408000   0.72963742   -7.4608573    739.34809  0.018078738  0.017287174           70 
 3409000   0.70147606   -7.4671446    740.86391   0.01811049  0.017281183          110 
 3410000   0.71676297   -7.4672215    739.66713  0.018075932  0.017275169           89 
 3411000   0.71021211   -7.4679092    739.70835   0.01807164   0.01726916           49 
 3412000   0.69781394   -7.4773858    739.56051  0.018062732  0.017263153          111 
 3413000   0.70967468   -7.4754246    738.15913  0.018023223   0.01725713           74 
 3414000    0.7081223   -7.4856132    739.36632  0.018047411  0.017251095           54 
 3415000   0.71052515   -7.4892476    737.49321  0.017996418  0.017245077           67 
 3416000   0.70020951   -7.4591977    739.40793  0.018037859  0.017239054          154 
 3417000   0.71101739   -7.4864048    740.07207  0.018048778  0.017233031           43 
 3418000   0.69582973   -7.4929317    740.20357  0.018046703  0.017227011           90 
 3419000   0.69648626   -7.4617514    740.40669  0.018046375  0.017221003           79 
 3420000   0.70478631   -7.4853612    738.66412  0.017998638  0.017214989           62 
 3421000   0.70547373   -7.5034578     739.3391  0.018009819  0.017208978          145 
 3422000   0.70779115   -7.4943122    740.20868  0.018025732  0.017202968          109 
 3423000   0.69731864   -7.4977581    740.04324  0.018016439  0.017196959           68 
 3424000   0.70373945   -7.4921378    739.17323  0.017990003  0.017190931           47 
 3425000   0.70869713   -7.4860402    738.67516  0.017972632  0.017184928           88 
 3426000   0.71289101   -7.4860611    739.08536  0.017977363  0.017178909           50 
 3427000   0.71245739   -7.4957002    738.19002  0.017950346  0.017172869           94 
 3428000   0.70896631   -7.4895798     739.7958  0.017984145  0.017166846           96 
 3429000   0.70059647   -7.4775799    738.66531  0.017951427  0.017160834           35 
 3430000   0.69202096   -7.4705784    739.74533  0.017972433  0.017154816           43 
 3431000   0.69895642   -7.4914676    740.49747  0.017985463  0.017148818           50 
 3432000   0.69146127   -7.4918358    739.09996  0.017946289   0.01714283           43 
 3433000   0.70233127   -7.4722214    740.73453  0.017980739  0.017136858           27 
 3434000   0.70466926   -7.4531723    739.69458  0.017950266  0.017130901           45 
 3435000   0.69301146   -7.4793739    740.87345   0.01797364  0.017124941           47 
 3436000   0.68394271   -7.4541096    742.18705  0.018000268  0.017118997           41 
 3437000   0.70946949   -7.4506711    741.57887  0.017980285   0.01711308           20 
 3438000   0.70948605    -7.435503    740.48761  0.017948604  0.017107159           58 
 3439000   0.71000599   -7.4459418    742.55236  0.017993418  0.017101234           28 
 3440000   0.70578666   -7.4605491    741.89825  0.017972341  0.017095308           39 
 3441000   0.69476667    -7.474534    739.82049    0.0179168  0.017089388           86 
 3442000    0.7086641   -7.4544756    741.60834  0.017954879  0.017083463           41 
 3443000   0.70542959   -7.4647183    741.19944  0.017939768  0.017077543           66 
 3444000    0.7130918   -7.4546894    740.82461  0.017925489  0.017071636           63 
 3445000   0.70629375   -7.4571526     739.5177  0.017888672   0.01706571           56 
 3446000   0.70938757   -7.4525522    740.22811   0.01790066  0.017059792           40 
 3447000   0.70402228    -7.491931    739.17998  0.017870128  0.017053854           92 
 3448000   0.70600559   -7.5014636    740.20017  0.017889602  0.017047936           38 
 3449000   0.69013387   -7.4706559    739.69292  0.017872159  0.017042012           97 
 3450000   0.71003645   -7.4646382    740.48992   0.01788623  0.017036086           76 
 3451000   0.70133948   -7.4852162    740.84979  0.017889737   0.01703016           86 
 3452000    0.7122312   -7.4924436    738.66652  0.017831849  0.017024227          212 
 3453000   0.70405708   -7.4997201    739.30055  0.017841987  0.017018302           69 
 3454000   0.69782034   -7.4930968    739.56148  0.017843116  0.017012357          123 
 3455000   0.70579085   -7.5046089    740.69536  0.017865301  0.017006409          128 
 3456000   0.68418741   -7.5345296    737.64229  0.017786514  0.017000467           93 
 3457000   0.69950652   -7.4841017    741.76187  0.017880674  0.016994531          158 
 3458000   0.69824965   -7.4996711    739.16249  0.017812861  0.016988596          105 
 3459000   0.71516233   -7.4905493    739.82004  0.017823553  0.016982676          125 
 3460000   0.69375027   -7.5024605     739.3006  0.017805891  0.016976725          153 
 3461000   0.70645534   -7.4991622    737.42661  0.017755625  0.016970763          162 
 3462000   0.70644343   -7.5171698    737.73884  0.017758012  0.016964808          158 
 3463000   0.69283274   -7.5075486    738.27771  0.017765851  0.016958854          286 
 3464000   0.70825538   -7.5005639    739.82845  0.017798029  0.016952903          157 
 3465000   0.69077117   -7.5023066    738.92756  0.017771226  0.016946976          167 
 3466000   0.69228823   -7.5004487    739.73427  0.017785494  0.016941044          113 
 3467000   0.67848552   -7.5124933    740.46428  0.017797911  0.016935129           97 
 3468000   0.69827641   -7.5103074    739.21083  0.017762659    0.0169292          138 
 3469000   0.69206889   -7.5169028    741.09908  0.017802899  0.016923281          121 
 3470000   0.68928878   -7.5078677    739.71111  0.017764436  0.016917372          176 
 3471000   0.68383377   -7.4814831    741.40994  0.017800104  0.016911472          100 
 3472000   0.70220184   -7.5310466    738.85402  0.017733631  0.016905573          266 
 3473000   0.69262368     -7.51129    740.36448  0.017764768  0.016899668          148 
 3474000    0.6981239   -7.5035703     739.5329  0.017739707  0.016893757          142 
 3475000   0.68770895   -7.5161725    741.27742  0.017776437  0.016887854          145 
 3476000   0.69612959   -7.5195742    740.49241  0.017752503  0.016881949          144 
 3477000   0.71332832   -7.5067049    738.50528  0.017699772  0.016876035           89 
 3478000   0.70074992   -7.5149331    741.17013  0.017758533  0.016870136          219 
 3479000   0.69380575   -7.5197438    740.52196  0.017737903  0.016864239           87 
 3480000   0.68173781   -7.5032928    738.95876  0.017695373  0.016858352          231 
 3481000   0.69618583   -7.5396802    737.79609  0.017662456  0.016852469          238 
 3482000   0.68507369   -7.4989446    739.01015  0.017686439  0.016846588          111 
 3483000   0.69751912   -7.5069744    740.40112  0.017714641  0.016840705          165 
 3484000   0.69102862   -7.5429906    739.28495  0.017682858  0.016834808          104 
 3485000    0.7040069   -7.5305274     740.5324  0.017707614  0.016828915          101 
 3486000   0.69501237   -7.5383023     739.2311  0.017671426  0.016823004           99 
 3487000   0.68144692   -7.5523295    737.92119  0.017635054  0.016817098          132 
 3488000   0.69235521   -7.5300108    737.68188   0.01762428  0.016811188          156 
 3489000   0.69921515   -7.5298911    738.83296  0.017646722  0.016805289          193 
 3490000   0.68161325   -7.5212999    739.96003  0.017668578  0.016799382          360 
 3491000   0.71523892   -7.5349563     739.1188  0.017643436  0.016793482          248 
 3492000   0.69579494   -7.5184375    739.72223  0.017652783  0.016787597          134 
 3493000   0.69630071   -7.5121292    739.13979  0.017633834  0.016781709          115 
 3494000   0.69682817   -7.5372885    740.78685   0.01766807  0.016775831          195 
 3495000    0.6993789   -7.5354708    739.25612  0.017626517  0.016769942          121 
 3496000   0.69844575   -7.5489376    738.48652   0.01760313  0.016764054          131 
 3497000   0.69113157   -7.5464809    738.36001  0.017595082  0.016758173          207 
 3498000    0.6899831   -7.5115942    739.58658  0.017619272  0.016752298          105 
 3499000    0.6890149   -7.5203689    738.56575  0.017589925  0.016746421          240 
 3500000   0.69908193   -7.5588192    738.78159  0.017590038  0.016740559          133 
 3501000    0.6867958   -7.5332605    739.27705  0.017596807  0.016734678          197 
 3502000   0.70053299   -7.5174966    739.82745  0.017604879  0.016728809          267 
 3503000   0.68002637   -7.5173771    738.88508  0.017577436   0.01672294          222 
 3504000   0.69513172   -7.5421064    738.84206  0.017571396  0.016717059          272 
 3505000   0.69405658   -7.5108739    738.68397  0.017562624  0.016711189          129 
 3506000   0.69145961   -7.5336989    739.00123  0.017565156  0.016705327          268 
 3507000   0.68597996   -7.5419849    739.37569  0.017569045  0.016699454          136 
 3508000    0.7018029   -7.5269044    740.34601  0.017587087  0.016693599          336 
 3509000   0.70177284     -7.51644    739.89812  0.017571438  0.016687752          118 
 3510000   0.67632984   -7.5360203    739.87358   0.01756585  0.016681895          205 
 3511000   0.68707051   -7.5358871    738.64888  0.017531778  0.016676028          209 
 3512000   0.70560082   -7.5363489    739.07256  0.017536839  0.016670149          181 
 3513000   0.68253811   -7.5501665    739.68708  0.017546425  0.016664287          181 
 3514000   0.69394992   -7.5294214    739.45388  0.017535901  0.016658406          137 
 3515000   0.68803074    -7.537149    736.40654  0.017458666  0.016652531           92 
 3516000   0.69929228   -7.5354337    738.73142  0.017508803  0.016646654          186 
 3517000   0.68685817   -7.5323054    740.11373  0.017536578  0.016640777          133 
 3518000   0.70002939   -7.5607108    738.65124   0.01749695  0.016634911           91 
 3519000   0.69184045   -7.5508252    738.58985  0.017490524   0.01662905          348 
 3520000   0.68852764   -7.5471323    738.94826   0.01749404  0.016623193           88 
 3521000   0.70626479   -7.5655319    738.39817  0.017476052  0.016617343          345 
 3522000   0.68761911    -7.555947    738.54623  0.017474594  0.016611479          228 
 3523000   0.68624132   -7.5301429    737.73335  0.017450406  0.016605618           83 
 3524000   0.67951391   -7.5506928    737.84614  0.017448121   0.01659978           90 
 3525000   0.67628248   -7.5445731    739.54561  0.017483348  0.016593917          153 
 3526000   0.67867954   -7.5511059    738.56105   0.01745512  0.016588061          156 
 3527000    0.7001411   -7.5223677    738.84159    0.0174568  0.016582228           81 
 3528000    0.6833604   -7.5680326    737.29593  0.017415342  0.016576377           67 
 3529000   0.67357425   -7.5520372    738.49048  0.017438615  0.016570529          259 
 3530000   0.67994323   -7.5554112    739.33548  0.017453623  0.016564691          121 
 3531000   0.70028465   -7.5606417    737.79762  0.017412386   0.01655885          194 
 3532000   0.69785731    -7.558535    737.93223  0.017410632  0.016553001          111 
 3533000   0.69619124   -7.5547454    738.22909  0.017412706  0.016547165          118 
 3534000   0.67110726   -7.5757214    738.72478  0.017419468  0.016541322          122 
 3535000   0.69424255   -7.5550201    738.34439  0.017405573  0.016535478          115 
 3536000   0.67329817   -7.5665634    737.65686  0.017384447  0.016529657           81 
 3537000   0.68471774   -7.5739194    738.69292  0.017403942  0.016523838          160 
 3538000   0.67989808    -7.578184    739.09642  0.017408527   0.01651801          203 
 3539000   0.68366723   -7.5553212     737.8497  0.017374251  0.016512178          309 
 3540000   0.69124278   -7.5452961    739.43963  0.017406771  0.016506364          313 
 3541000   0.68148876   -7.5701392     738.5499  0.017380917  0.016500552          154 
 3542000   0.66557481   -7.5408118    739.88514  0.017407424  0.016494738          129 
 3543000   0.67590266   -7.5710508    737.24536  0.017340421  0.016488908          172 
 3544000   0.69543571   -7.5774613    737.70414  0.017346316   0.01648308          192 
 3545000   0.68402024   -7.5868025    737.76501  0.017342854  0.016477242          206 
 3546000   0.67187505   -7.5719677     738.1676  0.017347424   0.01647142          300 
 3547000   0.66723718   -7.5495897    738.59409  0.017352554  0.016465603          345 
 3548000   0.68233598   -7.5620132    739.15793  0.017360906  0.016459815          188 
 3549000   0.67990594    -7.552766    739.84088   0.01737205  0.016454023          377 
 3550000   0.67216976   -7.5563972    740.02566  0.017371494  0.016448239          419 
 3551000   0.68856574   -7.5389356    738.88532  0.017339841  0.016442451          369 
 3552000   0.68266923   -7.5319078    738.53967   0.01732685  0.016436658          343 
 3553000    0.6933599   -7.5538728     738.8091  0.017328293  0.016430867          356 
 3554000   0.68074922   -7.5706827    738.67369  0.017320242  0.016425085          315 
 3555000   0.67687575   -7.5518722    738.83698  0.017319198   0.01641932          236 
 3556000   0.68037837   -7.5618471    739.21436  0.017323171  0.016413555          417 
 3557000   0.67912267   -7.5631243    737.63477  0.017281294  0.016407797          253 
 3558000   0.67160801   -7.5152018    740.27931  0.017338376  0.016402034          347 
 3559000   0.68992613   -7.5510789    738.73482  0.017297341  0.016396279          366 
 3560000   0.69351208   -7.5520395    741.35384  0.017353788  0.016390519          464 
 3561000   0.67878927   -7.5393145    740.18907  0.017321658  0.016384758          380 
 3562000   0.70104894   -7.5406573    738.61114  0.017279879  0.016378996          380 
 3563000   0.69432731   -7.5708924    738.76358  0.017278594  0.016373236          367 
 3564000   0.67737059   -7.5601446    738.61846  0.017270353  0.016367481          414 
 3565000   0.67616651   -7.5474221    740.48511  0.017309142  0.016361726          390 
 3566000   0.68205618   -7.5895932    738.48536  0.017257557  0.016355963          411 
 3567000   0.68165839   -7.5876716    738.41816  0.017251149  0.016350198          428 
 3568000   0.68397593   -7.5521786    739.89186  0.017280733  0.016344415          188 
 3569000   0.69100414   -7.5654913     739.8458  0.017274816  0.016338654          414 
 3570000   0.68884722   -7.5401616    738.90803  0.017248086  0.016332907          413 
 3571000   0.67068619   -7.5386968    740.11541  0.017271432  0.016327172          314 
 3572000   0.67865171   -7.5533843    740.18819  0.017268295  0.016321435          436 
 3573000   0.67871593   -7.5552897    737.58885  0.017202837  0.016315711          392 
 3574000   0.68002227   -7.5415107    739.65585  0.017246219  0.016309979          421 
 3575000   0.66990556   -7.5473483    739.16121  0.017229865  0.016304266          394 
 3576000   0.68820225   -7.5676284    737.90462  0.017195764  0.016298544          418 
 3577000   0.68690232   -7.5768879    740.73017  0.017256783  0.016292809          460 
 3578000   0.67728388   -7.5673917    738.30001  0.017195361  0.016287074          494 
 3579000   0.67360413   -7.5752721    737.71969  0.017177044  0.016281331          504 
 3580000   0.66375758   -7.5585485    738.43477  0.017188891  0.016275591          584 
 3581000    0.6897366   -7.5751813    737.18316  0.017154965  0.016269866          413 
 3582000   0.68621249   -7.5622121    739.57059  0.017205718  0.016264134          351 
 3583000    0.6720848   -7.5713504    738.09607  0.017166622  0.016258415          493 
 3584000   0.68429322   -7.5564783     737.9558  0.017158571  0.016252692          452 
 3585000   0.69669475   -7.5580032      739.883  0.017198582  0.016246969          440 
 3586000   0.68628969   -7.5667615    738.63442  0.017164771  0.016241232          303 
 3587000    0.6823942   -7.5926037    738.41765   0.01715495  0.016235506          522 
 3588000   0.68526183   -7.5611916    738.92532  0.017161959  0.016229782          436 
 3589000   0.68820615   -7.5611343    738.17378  0.017139727  0.016224042          413 
 3590000   0.67972499   -7.5666254    740.12411  0.017180225  0.016218314          369 
 3591000   0.67830983   -7.5655173    737.22048  0.017108059  0.016212599          411 
 3592000   0.67525551   -7.5821148    740.20718  0.017172587  0.016206869          487 
 3593000   0.66775552   -7.5743401    737.74777  0.017110766  0.016201145          509 
 3594000   0.66469348   -7.5806147    736.98967  0.017088427  0.016195412          392 
 3595000   0.66829653   -7.5793986    739.71342  0.017146811  0.016189692          456 
 3596000    0.6739411   -7.5694335    737.51467  0.017091089  0.016183966          423 
 3597000   0.68093821   -7.5740905    739.19733   0.01712532  0.016178247          422 
 3598000   0.68345203   -7.5683184    739.65026  0.017131051  0.016172554          398 
 3599000   0.66557282   -7.5749434    737.93455  0.017086565  0.016166844          550 
 3600000    0.6723367   -7.5510801    738.91582  0.017104533  0.016161144          425 
 3601000   0.67546522   -7.5892168    738.47033  0.017089474  0.016155442          516 
 3602000   0.65267349   -7.5771837     739.3902   0.01710601  0.016149746          258 
 3603000   0.67130468   -7.5637417    738.70678  0.017085456  0.016144036          477 
 3604000   0.67688901   -7.5706676    738.64059  0.017079185  0.016138337          459 
 3605000    0.6706745   -7.5866749    737.74872  0.017053831  0.016132628          377 
 3606000   0.67427925   -7.5859176    739.01931  0.017078464  0.016126932          410 
 3607000   0.66743514   -7.5841743    738.09859  0.017052458  0.016121245          527 
 3608000   0.67465079   -7.5627058    738.18683   0.01704977  0.016115543          525 
 3609000   0.68527584   -7.5737899    738.96943  0.017063116  0.016109846          439 
 3610000   0.68147702    -7.588257    738.75363  0.017053408  0.016104162          525 
 3611000   0.65709144   -7.6036443    738.32409  0.017038773  0.016098474          436 
 3612000   0.69169319    -7.562253    738.54577   0.01703917  0.016092778          408 
 3613000   0.66921397   -7.5873595    738.00001  0.017021866  0.016087089          547 
 3614000   0.66945232   -7.5652559    738.91356  0.017038221  0.016081394          477 
 3615000   0.65633809   -7.5793212    737.84957   0.01700898   0.01607569          480 
 3616000   0.67619946    -7.566794    737.66871  0.017000109  0.016069987          518 
 3617000   0.66427287    -7.592497    736.92523  0.016978279  0.016064282          428 
 3618000    0.6689875   -7.5843974    737.34761  0.016983315  0.016058591          471 
 3619000   0.66132118   -7.5941742     737.4419  0.016980794  0.016052905          504 
 3620000   0.67069812   -7.5797968    737.64234  0.016980717  0.016047214          568 
 3621000    0.6681008   -7.6084215    737.57448  0.016974466   0.01604153          441 
 3622000   0.67507026   -7.5952253    738.28156  0.016986047  0.016035845          437 
 3623000   0.67754945   -7.5749033    737.90504  0.016972699  0.016030164          416 
 3624000    0.6626582    -7.579615    738.62232  0.016984509  0.016024471          469 
 3625000   0.67458279   -7.6115925    737.75533  0.016959893  0.016018779          501 
 3626000   0.67473291   -7.5938714    738.36107  0.016969137  0.016013083          488 
 3627000   0.66493643   -7.6000566    737.82631  0.016952172    0.0160074          509 
 3628000   0.67148539   -7.5643095    737.05703  0.016929829  0.016001719          389 
 3629000   0.67288449   -7.5824901    738.63679   0.01696144  0.015996051          398 
 3630000    0.6693645   -7.5882383    738.14093  0.016945384  0.015990384          473 
 3631000   0.66634798   -7.6053318    737.68232  0.016930192  0.015984698          611 
 3632000   0.66757402   -7.6093189    737.39819  0.016919011  0.015979004          461 
 3633000   0.68106073   -7.6137176    737.34419  0.016913116  0.015973319          605 
 3634000   0.67785473   -7.5889408    738.41991   0.01693313  0.015967644          436 
 3635000   0.66630866   -7.5985087    738.22098  0.016923911  0.015961956          423 
 3636000   0.66400043   -7.6229133    736.86514  0.016888182  0.015956263          447 
 3637000   0.68184335   -7.6263435    737.10116  0.016888946  0.015950577          546 
 3638000   0.66556829   -7.5924003     737.3783  0.016890652  0.015944901          504 
 3639000   0.67781229   -7.5896267    737.75536  0.016894645  0.015939224          502 
 3640000   0.68198224   -7.5874213    738.73583   0.01691245  0.015933554          540 
 3641000   0.66532734   -7.5792184    738.30867  0.016898029    0.0159279          555 
 3642000   0.67110304   -7.5852194    738.11127  0.016888872  0.015922235          474 
 3643000   0.66587577   -7.6007994    735.26514  0.016819131  0.015916563          583 
 3644000   0.68706721   -7.6126847     739.6081  0.016913833  0.015910905          601 
 3645000   0.67350828   -7.6054578    738.12529  0.016875292  0.015905236          520 
 3646000   0.66494093   -7.6000029    737.48104  0.016855939  0.015899588          555 
 3647000   0.65191136   -7.5992367    736.18278  0.016821652  0.015893923          640 
 3648000   0.66385701   -7.6062315    736.54597  0.016825337  0.015888269          656 
 3649000   0.64749566   -7.6125815    737.94273  0.016852625  0.015882615          594 
 3650000   0.66715013   -7.6239386    736.85071  0.016823076   0.01587696          648 
 3651000   0.67136034   -7.6185293    737.13473   0.01682495  0.015871294          542 
 3652000   0.66313285   -7.6091514    738.87678  0.016860094  0.015865633          576 
 3653000   0.66122862   -7.5874715    735.79221  0.016785113  0.015859981          557 
 3654000   0.66868783   -7.5960991    737.17099  0.016811964  0.015854347          473 
 3655000   0.64706155   -7.6217146    737.60761  0.016817319  0.015848703          646 
 3656000   0.66761604   -7.6022634    738.22188   0.01682672  0.015843055          712 
 3657000   0.67571073   -7.6093328    738.16853  0.016820903  0.015837412          641 
 3658000   0.67614652   -7.6294724     735.1363  0.016747227  0.015831766          675 
 3659000   0.68505936   -7.6286078    737.05637   0.01678638  0.015826114          580 
 3660000   0.66282399   -7.6353273    735.63441  0.016749417  0.015820476          751 
 3661000   0.65600358    -7.641173    737.66942  0.016791164  0.015814838          693 
 3662000   0.65979286   -7.6152258    735.75277  0.016742963   0.01580919          784 
 3663000   0.66573109   -7.6311806    736.72042  0.016760406  0.015803542          699 
 3664000   0.66559005   -7.6184735    737.75615  0.016779389  0.015797926          840 
 3665000   0.67708589   -7.6323932    737.00353  0.016757697  0.015792294          789 
 3666000   0.66643238   -7.6054703    737.57488  0.016766114  0.015786678          821 
 3667000   0.64980034   -7.6176918     735.2269  0.016708183  0.015781045          758 
 3668000   0.66243086   -7.6240643    735.96141  0.016720315  0.015775418          748 
 3669000   0.66006614   -7.6345862    735.97194  0.016715998  0.015769783          666 
 3670000    0.6562677   -7.6388468    736.46037  0.016722533  0.015764147          683 
 3671000   0.67763354   -7.6447612    736.88142  0.016727536  0.015758532          727 
 3672000   0.66130123    -7.626191    736.45178   0.01671323  0.015752899          739 
 3673000   0.67241394   -7.6188011    736.67836  0.016713821   0.01574727          709 
 3674000   0.64611098   -7.6359768    736.76034  0.016711131   0.01574164          752 
 3675000   0.66638574   -7.6244594    736.31676  0.016696525  0.015736011          668 
 3676000   0.66306258   -7.6038486    735.59963  0.016675726  0.015730382          620 
 3677000   0.65845184    -7.636246     736.9682  0.016702207  0.015724752          714 
 3678000   0.65618522   -7.6474764    735.31967  0.016660315  0.015719118          760 
 3679000   0.66083787   -7.6454557     736.7503  0.016688192  0.015713507          720 
 3680000   0.66771529   -7.6166357    734.93041  0.016642446   0.01570788          689 
 3681000   0.65396123   -7.6385211    736.23713  0.016667507  0.015702248          690 
 3682000    0.6536009   -7.6221061    736.76916  0.016675022  0.015696624          727 
 3683000    0.6637374   -7.6278013    736.40712  0.016662302  0.015691009          677 
 3684000   0.66182846   -7.6294831    735.18352  0.016630101  0.015685403          667 
 3685000   0.66862704   -7.6402408    737.57639  0.016679701  0.015679793          671 
 3686000   0.65942234   -7.6338835    736.51121  0.016651094   0.01567419          757 
 3687000   0.67346434   -7.6364583    736.48242  0.016645928  0.015668584          693 
 3688000   0.64834682   -7.6522803    735.82449  0.016626548  0.015662963          629 
 3689000   0.66049089   -7.6431423    736.46746  0.016636565  0.015657366          603 
 3690000   0.67533921   -7.6370502    735.41746  0.016608344  0.015651763          690 
 3691000   0.66500424   -7.6321136    737.26792  0.016645623  0.015646167          702 
 3692000   0.66763638   -7.6377398    735.05959  0.016591269  0.015640574          738 
 3693000   0.65681979   -7.6476813     735.9912  0.016607799  0.015634978          662 
 3694000   0.66451521   -7.6553658    734.95514   0.01657993  0.015629394          652 
 3695000   0.65341111   -7.6313056    736.28596  0.016605457  0.015623811          693 
 3696000   0.65404789   -7.6428064    737.03085  0.016617759  0.015618215          695 
 3697000   0.66638305   -7.6524044    736.31071  0.016597032  0.015612632          680 
 3698000    0.6705342    -7.660132    735.59208  0.016576349  0.015607029          708 
 3699000   0.65864665   -7.6624097    735.70297  0.016574366  0.015601445          672 
 3700000    0.6720667   -7.6331946    737.05636  0.016600369  0.015595851          637 
 3701000   0.66270128   -7.6507623    736.18097  0.016576172  0.015590258          616 
 3702000    0.6452959   -7.6432148    735.83283  0.016563858   0.01558466          675 
 3703000    0.6640808   -7.6429332    735.26563  0.016546621  0.015579082          682 
 3704000   0.66276718   -7.6274375    735.58599  0.016549361    0.0155735          607 
 3705000   0.65109017   -7.6459074    734.26651  0.016515216  0.015567921          703 
 3706000   0.66831084   -7.6614113    735.68203  0.016542589  0.015562359          676 
 3707000   0.64409954   -7.6369566    735.25253  0.016528472  0.015556784          612 
 3708000   0.65529728   -7.6386036    735.70207  0.016534117   0.01555121          685 
 3709000   0.65447764   -7.6220697    736.80625  0.016554468  0.015545637          634 
 3710000   0.66905676   -7.6530159    735.86792  0.016528929  0.015540056          632 
 3711000   0.64244617   -7.6601969    736.57808  0.016540422  0.015534466          658 
 3712000   0.65752257   -7.6755614    733.31875  0.016462795  0.015528886          727 
 3713000   0.67026904   -7.6342518    735.67874  0.016511328  0.015523308          666 
 3714000   0.65381407   -7.6288187    735.17683  0.016495621   0.01551773          688 
 3715000   0.66642166   -7.6436235    737.00093  0.016532098  0.015512161          750 
 3716000   0.65981632   -7.6446572    736.94546  0.016526405  0.015506599          675 
 3717000   0.65800849   -7.6599425    735.66055  0.016493152  0.015501037          667 
 3718000   0.64684697   -7.6422936    735.61811  0.016487765  0.015495473          649 
 3719000    0.6535862   -7.6527094    736.35873  0.016499927  0.015489899          836 
 3720000   0.65706223   -7.6414265    734.54431  0.016454846  0.015484314          726 
 3721000   0.65176678   -7.6473451    734.93217   0.01645911   0.01547875          701 
 3722000   0.66169659   -7.6568995    734.58491  0.016446913  0.015473194          607 
 3723000   0.65853762   -7.6580675    734.58225  0.016442436  0.015467625          676 
 3724000   0.65513693   -7.6445324    735.30237  0.016454135  0.015462058          662 
 3725000   0.65455536   -7.6613851    732.15442  0.016379294  0.015456495          783 
 3726000   0.66611044   -7.6438923    736.58628  0.016474018  0.015450919          686 
 3727000   0.65254219   -7.6532048    735.40639  0.016443216  0.015445367          754 
 3728000   0.65129055   -7.6537391    734.28284   0.01641369  0.015439795          725 
 3729000   0.65031406   -7.6629053    735.68521  0.016440628  0.015434245          710 
 3730000     0.650206   -7.6319431    735.03297  0.016421648  0.015428699          761 
 3731000    0.6440499   -7.6450169      734.564  0.016406772  0.015423141          708 
 3732000    0.6642906   -7.6470861     734.6812  0.016404993  0.015417585          763 
 3733000   0.64695705   -7.6604003    734.37142  0.016393683  0.015412044          772 
 3734000   0.64991043   -7.6730462    734.23068  0.016386151  0.015406502          783 
 3735000   0.66174527   -7.6648377    736.08487  0.016423134  0.015400957          861 
 3736000   0.66273889   -7.6703844    735.44858  0.016404545  0.015395413          793 
 3737000    0.6606688   -7.6788268    735.31938  0.016397275   0.01538987          808 
 3738000   0.65275551   -7.6765248    734.15205  0.016366864  0.015384319          816 
 3739000    0.6580997   -7.6713968    734.89886  0.016379131  0.015378761          802 
 3740000   0.66516144   -7.6697758    733.56926  0.016345126  0.015373226          852 
 3741000   0.64078856    -7.697563    735.24716  0.016378133  0.015367669          801 
 3742000   0.65675886   -7.6608219    734.03807   0.01634683  0.015362128          855 
 3743000    0.6606625   -7.6668971    735.22317  0.016368848  0.015356594          857 
 3744000   0.63821105   -7.6795343    734.16743  0.016340977  0.015351052          898 
 3745000   0.65648488   -7.6542818    735.59138    0.0163683  0.015345515          900 
 3746000   0.65810321   -7.6574932    735.26882  0.016356754  0.015339978          879 
 3747000   0.64373824   -7.6666866    733.69691   0.01631743  0.015334434          934 
 3748000   0.65117589   -7.7057309    733.26797  0.016303539  0.015328897          941 
 3749000   0.66312671   -7.6675615    735.24291   0.01634309  0.015323363          814 
 3750000   0.65197632   -7.6699403    733.32427  0.016296095  0.015317822          960 
 3751000   0.64450001   -7.6804921    734.78303  0.016324159  0.015312285          893 
 3752000   0.64816376   -7.6763939    733.79802   0.01629793  0.015306745          896 
 3753000   0.67530229   -7.6996971     733.3243  0.016283069  0.015301204          928 
 3754000   0.65708549    -7.692603    733.29975  0.016278187  0.015295671          906 
 3755000   0.64470886   -7.6953352    733.79544  0.016284852   0.01529012          974 
 3756000   0.64563212   -7.7044387    733.44494   0.01627274  0.015284576         1024 
 3757000   0.65357773   -7.7141717    734.51639  0.016292174  0.015279036         1030 
 3758000   0.64791996    -7.671314    734.23105  0.016281512  0.015273497         1079 
 3759000   0.64259769   -7.6898246    734.03213  0.016272771  0.015267963         1034 
 3760000   0.63452314   -7.7017744    733.65619  0.016260111  0.015262426         1088 
 3761000   0.65183632   -7.6857899     732.8698  0.016238363  0.015256878         1042 
 3762000   0.65292099   -7.7084914    733.92302  0.016257377  0.015251348         1030 
 3763000   0.65625088   -7.7000842    734.16819  0.016258486  0.015245822         1088 
 3764000   0.67275315    -7.678238    732.71347   0.01622196  0.015240293         1107 
 3765000   0.64740399   -7.6978577    734.07474  0.016247781  0.015234765          999 
 3766000   0.65629065   -7.7033215     734.9732  0.016263347  0.015229239         1038 
 3767000   0.64830721   -7.6908236    735.13868  0.016262691  0.015223716         1088 
 3768000   0.64943084   -7.6901565    733.70779  0.016226729  0.015218198         1063 
 3769000   0.63809914   -7.7231749    732.44913  0.016194595   0.01521267         1048 
 3770000   0.65511602   -7.6725768    734.51137  0.016235884   0.01520715         1054 
 3771000   0.62277736   -7.7121965    732.88212  0.016195574  0.015201633         1065 
 3772000   0.65386877   -7.6977144    733.44217  0.016203653  0.015196112         1087 
 3773000    0.6555705   -7.6697485    735.42138  0.016243073  0.015190609          998 
 3774000   0.64592307   -7.6600233    733.53216  0.016197053  0.015185114          984 
 3775000   0.64335355   -7.6839061    735.50953  0.016236414  0.015179615         1166 
 3776000   0.65237998   -7.6979104    733.43955  0.016186431  0.015174102          980 
 3777000   0.65936607    -7.685701    733.43885   0.01618213  0.015168607         1053 
 3778000   0.64266305   -7.6928483    732.73388  0.016162297  0.015163109         1075 
 3779000   0.64779556   -7.6949249    734.17931  0.016189894  0.015157622         1086 
 3780000   0.64971268   -7.6944318    733.94359  0.016180414  0.015152127         1082 
 3781000   0.64939678   -7.7140649    731.73366  0.016127428  0.015146627         1074 
 3782000   0.65036842   -7.6931823    735.11911  0.016197759  0.015141136         1146 
 3783000   0.64469854   -7.6920272    733.13381  0.016149745  0.015135649         1040 
 3784000   0.66158267   -7.6841785    733.64296   0.01615669   0.01513017         1101 
 3785000   0.63136389   -7.7076979    731.89274  0.016113887  0.015124685         1061 
 3786000   0.64178836   -7.7025833    733.55613  0.016146243  0.015119201         1000 
 3787000   0.64670641   -7.7116505    732.71822  0.016123541  0.015113715         1134 
 3788000   0.64960944     -7.69789    733.34055  0.016132976  0.015108241         1179 
 3789000   0.64516742   -7.7230597    732.02029  0.016099681  0.015102756         1081 
 3790000   0.64541095   -7.6998414    733.75691  0.016133617  0.015097273         1174 
 3791000   0.64979774   -7.7057913    731.33601  0.016076146  0.015091789         1214 
 3792000   0.63367486   -7.7136363    732.67013  0.016101225  0.015086309         1129 
 3793000   0.64404114   -7.7055212    733.38591  0.016112706  0.015080833         1166 
 3794000   0.64202385     -7.70805    733.54289  0.016111907   0.01507536         1146 
 3795000   0.65261637    -7.710679    732.67475  0.016088598  0.015069888         1176 
 3796000   0.63662978   -7.7127912     733.5117  0.016102733   0.01506442         1240 
 3797000   0.63862796   -7.7123017    734.01931  0.016109633  0.015058958         1158 
 3798000   0.63345825   -7.6956031    735.35403  0.016134677  0.015053481         1124 
 3799000   0.64697012   -7.7217465    732.39532  0.016065529  0.015048017         1253 
 3800000   0.64504025    -7.723184    732.75987  0.016069295  0.015042547         1241 
 3801000   0.63526859   -7.6879878    733.78589  0.016087562  0.015037081         1219 
 3802000   0.63706543   -7.7234135    732.12028  0.016046824  0.015031612         1186 
 3803000   0.64906843    -7.706571    732.89724  0.016059629  0.015026149         1218 
 3804000   0.64905676   -7.7398356    732.32163  0.016042798  0.015020683         1207 
 3805000   0.63316992     -7.71861    732.54141  0.016043395  0.015015213         1085 
 3806000   0.63734165   -7.7320697    732.28816  0.016033635  0.015009746         1178 
 3807000   0.63974542   -7.7051086    732.62114  0.016036712  0.015004283         1192 
 3808000   0.63345194   -7.7335651    733.89905  0.016060466  0.014998819         1184 
 3809000   0.65002079   -7.7188126    731.61162  0.016006205  0.014993358         1205 
 3810000   0.63592396   -7.7438152    733.02881  0.016033001  0.014987897         1242 
 3811000   0.63563685   -7.7375674    732.27836  0.016012384  0.014982443         1270 
 3812000   0.62431453   -7.7195738    732.57516  0.016014672  0.014976987         1290 
 3813000   0.62848475   -7.7482351    731.89658  0.015995642  0.014971536         1269 
 3814000   0.63928464   -7.7302606    731.63619  0.015985758  0.014966082         1329 
 3815000   0.63485116   -7.7432788     733.2093  0.016015931  0.014960634         1329 
 3816000   0.64780167   -7.7386855    731.43353  0.015972954  0.014955178         1320 
 3817000   0.63793868   -7.7241454    734.68526  0.016039762  0.014949739         1158 
 3818000   0.63648959   -7.7503299    733.25455  0.016004334    0.0149443         1317 
 3819000   0.65003037   -7.7343731    731.56696  0.015963319  0.014938847         1298 
 3820000    0.6464656   -7.7509943    732.31227  0.015975399  0.014933398         1357 
 3821000   0.63676452   -7.7480649    732.43488  0.015973892  0.014927959         1283 
 3822000   0.64007601   -7.7311021    732.79047  0.015977465  0.014922528         1238 
 3823000   0.63762879   -7.7137063    733.69368  0.015992974  0.014917101         1240 
 3824000   0.63247716   -7.7499247    732.20423  0.015956333  0.014911669         1290 
 3825000    0.6351076   -7.7701346    732.48662  0.015958314  0.014906229         1278 
 3826000    0.6426944   -7.7359524    730.80452  0.015917506  0.014900787         1299 
 3827000   0.64977428   -7.7488663    731.85371  0.015936193  0.014895356         1381 
 3828000   0.65475901   -7.7468851    730.75314  0.015908071  0.014889921         1342 
 3829000   0.63750785   -7.7386245    732.91379   0.01595094  0.014884485         1392 
 3830000    0.6348191   -7.7425042    731.32274  0.015912157  0.014879057         1378 
 3831000   0.63398966   -7.7368132    732.04405  0.015923694  0.014873629         1444 
 3832000   0.64329811    -7.761726    731.22773  0.015901786    0.0148682         1500 
 3833000   0.63012895   -7.7287928    733.06739  0.015937633  0.014862769         1336 
 3834000   0.62745673   -7.7549589    731.51681  0.015899774  0.014857346         1335 
 3835000   0.64479191   -7.7799029    731.83114  0.015902459  0.014851914         1476 
 3836000   0.63242882   -7.7373037    729.92934  0.015856998  0.014846482         1396 
 3837000   0.65340688   -7.7413407    732.43568  0.015907299  0.014841051         1355 
 3838000   0.63824202   -7.7519464    731.84166  0.015890257  0.014835627         1385 
 3839000   0.64531268   -7.7579825    731.22334  0.015872696  0.014830199         1371 
 3840000    0.6196985   -7.7518151    731.73005  0.015879558  0.014824785         1413 
 3841000   0.63762618   -7.7372201    729.72536  0.015831931  0.014819364         1370 
 3842000   0.64278382   -7.7557021    732.15537  0.015880517   0.01481395         1367 
 3843000   0.63814468   -7.7726769    731.57217  0.015863739  0.014808531         1444 
 3844000   0.64475297   -7.7565802    731.71415   0.01586269  0.014803117         1368 
 3845000   0.62072362   -7.7314154    731.73351  0.015858984  0.014797713         1405 
 3846000   0.62584105   -7.7486904    732.82477  0.015878505   0.01479231         1372 
 3847000   0.62552194   -7.7471242    731.46206  0.015844859  0.014786898         1412 
 3848000   0.63646264    -7.754672     731.7427  0.015846819  0.014781497         1431 
 3849000   0.64070644   -7.7434754    733.35262  0.015877557  0.014776098         1329 
 3850000   0.62387161   -7.7453984    731.23387  0.015827573  0.014770686         1392 
 3851000   0.63964388   -7.7675288    729.86524  0.015793847  0.014765281         1445 
 3852000   0.62782042   -7.7689746    731.21051   0.01581885  0.014759873         1469 
 3853000   0.62468028   -7.7585487    730.84572  0.015806854  0.014754466         1337 
 3854000   0.64452896   -7.7757296    730.87772  0.015803445  0.014749068         1464 
 3855000   0.65328623   -7.7669036    731.81595  0.015819627  0.014743675         1509 
 3856000   0.64963708   -7.7688832    731.04596  0.015798884   0.01473829         1412 
 3857000   0.64539171   -7.7381887    731.22398  0.015798634  0.014732904         1383 
 3858000   0.64525092   -7.7675328    731.20946  0.015794225  0.014727523         1434 
 3859000   0.63166985    -7.758476    729.59118  0.015755187  0.014722141         1507 
 3860000   0.63736093   -7.7468301    731.22808  0.015786444  0.014716767         1420 
 3861000     0.644923   -7.7400995    731.65808  0.015791636  0.014711386         1538 
 3862000   0.63632468    -7.731663    732.14156   0.01579798   0.01470601         1431 
 3863000   0.61295591   -7.7489339    731.56845  0.015781527  0.014700642         1500 
 3864000   0.64031451   -7.7691222    731.21176   0.01576975  0.014695268         1503 
 3865000   0.63473622   -7.7672422    730.68389  0.015754288  0.014689901         1410 
 3866000   0.63743376    -7.739507    731.90055  0.015776439  0.014684527         1399 
 3867000   0.64977845   -7.7492886    731.55735  0.015764963  0.014679162         1340 
 3868000   0.64013497   -7.7552033    731.67287  0.015763376  0.014673794         1466 
 3869000    0.6272789   -7.7534848    730.97804  0.015744336  0.014668429         1440 
 3870000   0.63779406    -7.777481    729.36649  0.015705566  0.014663066         1482 
 3871000   0.63264749   -7.7585448    731.27817  0.015742663  0.014657712         1492 
 3872000   0.61155552   -7.7553919    730.97642  0.015732103   0.01465235         1424 
 3873000   0.64855964   -7.7551274    731.24084   0.01573373  0.014647002         1481 
 3874000   0.62744625   -7.7886238    730.77523  0.015719653  0.014641644         1551 
 3875000    0.6198083   -7.7744943    731.05527  0.015721619  0.014636293         1518 
 3876000   0.62178442   -7.7903369    730.60465  0.015707874  0.014630938         1454 
 3877000   0.62267099    -7.763042    730.56672  0.015703008  0.014625596         1480 
 3878000   0.63541187   -7.7421845    731.18379  0.015712218  0.014620265         1459 
 3879000   0.64377535   -7.7668743    730.98058  0.015703802   0.01461493         1586 
 3880000   0.63185402   -7.7501094    730.88922  0.015697793  0.014609598         1421 
 3881000   0.64739617    -7.761153    731.88108  0.015715045  0.014604263         1637 
 3882000   0.63303021   -7.7702754    729.65824   0.01566328   0.01459893         1552 
 3883000   0.63844388   -7.7488223    731.00707  0.015688194  0.014593605         1493 
 3884000   0.63162097   -7.7810868    730.20872  0.015667025   0.01458828         1444 
 3885000   0.62553744   -7.7606765    730.84292  0.015676596  0.014582951         1469 
 3886000   0.62370779   -7.7728878    730.26384  0.015660144  0.014577624         1649 
 3887000   0.63550075    -7.763462    731.21649  0.015676539  0.014572295         1494 
 3888000   0.61569168   -7.7482263    730.73738  0.015662238  0.014566976         1457 
 3889000   0.62797108   -7.7403242    731.94189  0.015684021  0.014561663         1350 
 3890000   0.63432349   -7.7727587     732.5385   0.01569277  0.014556346         1502 
 3891000    0.6229844   -7.7585181     730.7613  0.015650675  0.014551037         1555 
 3892000   0.62706449   -7.7894423    731.04734  0.015652778   0.01454573         1600 
 3893000    0.6277822   -7.7571332    732.27983   0.01567514  0.014540414         1522 
 3894000   0.62887306   -7.7772307    731.67102  0.015658085  0.014535093         1639 
 3895000   0.63510823   -7.7769949    729.61766  0.015610134  0.014529771         1626 
 3896000   0.61568257   -7.7901842    730.44569  0.015623838  0.014524453         1687 
 3897000   0.62606859   -7.7720906    730.11255  0.015612705  0.014519138         1560 
 3898000   0.64183519   -7.7805182    731.02565  0.015628221  0.014513825         1633 
 3899000   0.63416602   -7.7609371     730.4098   0.01561105  0.014508517         1581 
 3900000   0.63500749   -7.7983397    730.25117  0.015603658  0.014503211         1675 
 3901000    0.6320039    -7.790555    729.81281  0.015590293  0.014497907         1669 
 3902000   0.60443532   -7.7947999    730.67857  0.015604788  0.014492599         1621 
 3903000    0.6303074   -7.7749585     730.2751  0.015592175  0.014487297         1662 
 3904000   0.63339951   -7.7705701    731.24813  0.015608951  0.014481991         1593 
 3905000    0.6254061   -7.7865958    730.26029  0.015583873  0.014476688         1644 
 3906000   0.63649206    -7.796139    730.03592  0.015575097  0.014471388         1661 
 3907000   0.63637552   -7.7846396    730.43053  0.015579527  0.014466093         1602 
 3908000   0.62927559   -7.7817752     729.4564  0.015554768  0.014460803         1614 
 3909000   0.62133722   -7.7824708    728.84685  0.015537794  0.014455507         1593 
 3910000   0.63530994   -7.8057734    729.88525  0.015555952  0.014450214         1639 
 3911000   0.61613472    -7.803431    729.60809  0.015546068  0.014444926         1633 
 3912000   0.63741012   -7.7805873    730.53409   0.01556182  0.014439645         1478 
 3913000   0.62911076   -7.7672348    729.29761  0.015531511  0.014434369         1554 
 3914000    0.6291498   -7.7703885    732.91911  0.015604648  0.014429103         1576 
 3915000   0.62297852   -7.7769817    730.24517  0.015543746  0.014423824         1591 
 3916000   0.62272739   -7.7773831    730.49614  0.015545117  0.014418552         1525 
 3917000   0.62868327    -7.766372    730.57008  0.015542722  0.014413274         1548 
 3918000   0.62683303   -7.7672005     730.7992  0.015543628  0.014408002         1567 
 3919000   0.63792892   -7.7670481    729.94302  0.015521456  0.014402738         1614 
 3920000   0.61727426    -7.785112    730.79223  0.015535549  0.014397468         1526 
 3921000    0.6248688    -7.780664    730.14704  0.015517875  0.014392209         1612 
 3922000   0.63253862   -7.7534356    730.62559  0.015524086  0.014386957         1569 
 3923000    0.6388251   -7.7899541    729.08929  0.015487495  0.014381693         1559 
 3924000   0.62833334    -7.787086    730.88804  0.015521747  0.014376433         1598 
 3925000   0.62962519   -7.7729644    731.09122  0.015522107  0.014371179         1691 
 3926000   0.62391538   -7.7820055    729.67016   0.01548799  0.014365918         1666 
 3927000   0.61623862   -7.7754706    730.09913  0.015493149  0.014360664         1651 
 3928000   0.60983327   -7.7877377     729.8356  0.015483613  0.014355417         1600 
 3929000   0.63068806   -7.7898155    728.82709  0.015458282  0.014350171         1713 
 3930000   0.63170255   -7.8015796    728.15251  0.015440045  0.014344917         1647 
 3931000   0.62704059    -7.800843    730.84226  0.015493137  0.014339664         1675 
 3932000   0.61988749   -7.7936925    730.12391  0.015473972  0.014334421         1587 
 3933000   0.62779483   -7.7968671    730.62404  0.015480635  0.014329172         1655 
 3934000   0.62606342   -7.8094575    728.63458  0.015434557  0.014323926         1749 
 3935000   0.60543499   -7.7865721    731.53797  0.015492121  0.014318684         1610 
 3936000   0.62515757   -7.7888177    730.40547  0.015464208  0.014313453         1610 
 3937000   0.61868342   -7.8116766    729.82149  0.015447919  0.014308215         1597 
 3938000   0.62401662    -7.781734    730.71587  0.015462923  0.014302988         1611 
 3939000   0.61529983    -7.801398    729.58042  0.015434975  0.014297758         1625 
 3940000   0.63634894   -7.7921772    729.23887  0.015423834  0.014292528         1727 
 3941000   0.62869194   -7.8007754    728.48761  0.015404035   0.01428729         1747 
 3942000   0.62271173   -7.7905769    727.91853  0.015388097  0.014282057         1636 
 3943000   0.61971332   -7.8070323    728.61871  0.015398992  0.014276832         1624 
 3944000   0.61820717   -7.7991443    729.79051  0.015419847  0.014271603         1698 
 3945000   0.60076137   -7.7883817    729.80605  0.015416266  0.014266381         1606 
 3946000    0.6129262   -7.7850343    729.57725  0.015407528  0.014261162         1678 
 3947000   0.62657264   -7.7815899    730.36882  0.015420336  0.014255941         1727 
 3948000   0.61545317   -7.7916413    729.65699  0.015401406  0.014250725         1634 
 3949000   0.62328601   -7.8005961    731.71782  0.015440994   0.01424551         1616 
 3950000   0.61249189   -7.7793913    728.08122  0.015360363  0.014240298         1605 
 3951000    0.6259476   -7.7931062    730.83013  0.015414455   0.01423509         1632 
 3952000   0.62019311    -7.812155    730.57976  0.015405275  0.014229886         1738 
 3953000   0.61102446   -7.8041941    729.66961  0.015382191   0.01422467         1857 
 3954000   0.61989851   -7.7985994    729.81368  0.015381337  0.014219461         1712 
 3955000   0.63014252   -7.7935478    730.75333  0.015397247  0.014214251         1744 
 3956000   0.61435838   -7.8081907    729.43674  0.015365621  0.014209048         1658 
 3957000   0.62484711   -7.8000992    729.10295  0.015354708  0.014203852         1717 
 3958000   0.61755846   -7.7761848    729.49095  0.015358998  0.014198644         1810 
 3959000   0.60763851   -7.8033244    729.58995  0.015357202   0.01419345         1785 
 3960000    0.6208854   -7.7828507    729.42542  0.015349862  0.014188264         1742 
 3961000   0.62140141   -7.8122558    729.17743  0.015340769  0.014183083         1792 
 3962000   0.61361559   -7.7996134    730.37136  0.015362009  0.014177902         1754 
 3963000    0.6273336   -7.7808364    729.68108  0.015343618  0.014172726         1753 
 3964000   0.62455664   -7.7815103    729.90061  0.015344362  0.014167544         1794 
 3965000   0.60493369   -7.7929349    730.15019  0.015345737  0.014162362         1731 
 3966000   0.62932304   -7.7972149    729.21729  0.015322266   0.01415718         1744 
 3967000   0.61114559   -7.7946132    728.48831   0.01530309   0.01415199         1743 
 3968000    0.6120112   -7.8153475    728.62087  0.015302018  0.014146807         1801 
 3969000   0.61635177   -7.7954809    730.70932  0.015342011  0.014141617         1865 
 3970000    0.6292926   -7.8045605    729.13552  0.015305112  0.014136433         1777 
 3971000   0.61381284   -7.7779078    729.94137  0.015318169  0.014131248         1838 
 3972000   0.62431434   -7.8197685    729.37198  0.015302366  0.014126066         1738 
 3973000    0.6116986   -7.8011583    728.65805   0.01528354  0.014120884         1721 
 3974000   0.61294297   -7.8075163    728.04059  0.015266746  0.014115704         1805 
 3975000   0.62649509   -7.8048923    728.93671  0.015281692  0.014110537         1779 
 3976000   0.62102213   -7.8024789    728.61865  0.015271182  0.014105368         1704 
 3977000   0.61951523   -7.8029193    730.56177  0.015308058  0.014100201         1844 
 3978000   0.62175596   -7.8052867    728.28483  0.015256511  0.014095039         1791 
 3979000   0.61416987   -7.8016847    729.33824  0.015274739  0.014089869         1757 
 3980000   0.61549802    -7.805663    728.57552  0.015254931  0.014084692         1866 
 3981000   0.61592471   -7.8166697    728.47552  0.015249006  0.014079514         1880 
 3982000   0.61257926   -7.8101281    729.29902  0.015262411  0.014074356         1825 
 3983000   0.61900063   -7.8156048    727.45405  0.015219978  0.014069194         1777 
 3984000   0.60695337   -7.8219837    729.59962  0.015261036  0.014064031         1885 
 3985000   0.60754863   -7.8136157    727.31114  0.015209351  0.014058867         1876 
 3986000   0.61293967   -7.7983329    729.88362  0.015259316  0.014053701         1786 
 3987000   0.61699751   -7.8094995    729.17427  0.015240663  0.014048542         1814 
 3988000   0.61901966   -7.8009351    730.81667  0.015271161  0.014043392         1928 
 3989000   0.61390656   -7.8275559    729.34773  0.015236645  0.014038244         1763 
 3990000   0.61646173    -7.814547     727.9636  0.015203918  0.014033097         1843 
 3991000   0.60262785   -7.7818917    729.62818  0.015234865  0.014027955         1807 
 3992000   0.61823737   -7.8030904    729.29373  0.015224068  0.014022817         1831 
 3993000   0.62370207    -7.818505    728.74331  0.015208768  0.014017672         1823 
 3994000   0.61695409   -7.8164621    728.38207  0.015197423  0.014012526         1910 
 3995000   0.62152318   -7.8235257    726.45577  0.015153437  0.014007387         1937 
 3996000   0.61812524   -7.8311496    728.16909  0.015185375  0.014002245         1886 
 3997000   0.60277037   -7.8213471     727.8555  0.015175038  0.013997104         1764 
 3998000   0.62334961   -7.7989897    728.67267  0.015188275  0.013991971         1821 
 3999000   0.62045957   -7.8241623    727.34188  0.015156745   0.01398684         1838 
 4000000   0.60720339   -7.8021362    728.64279  0.015180058  0.013981713         1914 
 4001000   0.61156536   -7.8176676    729.29079  0.015189761  0.013976589         1896 
 4002000    0.6062216   -7.8215267    728.39001  0.015167208  0.013971462         1964 
 4003000   0.61944167    -7.816656     729.3381  0.015183156  0.013966339         1875 
 4004000   0.62052727    -7.848169    726.76674  0.015125848  0.013961216         1918 
 4005000   0.60437444   -7.8259345     727.1528  0.015130104  0.013956094         1885 
 4006000   0.61810806    -7.803197    729.63413  0.015177944  0.013950978         1912 
 4007000   0.62290501   -7.8313351    729.66853  0.015174872  0.013945861         1965 
 4008000   0.60071565   -7.8276502       727.76  0.015131404  0.013940749         1918 
 4009000   0.61103876   -7.8177025    728.47844  0.015142563  0.013935632         1956 
 4010000   0.60593004   -7.8137666     729.8063  0.015166382  0.013930532         1773 
 4011000   0.61507651   -7.8113171    728.62369  0.015138031  0.013925432         1988 
 4012000   0.60807451   -7.8205404    728.45157  0.015130682  0.013920331         1910 
 4013000   0.62310721   -7.8365329    728.84694  0.015135122   0.01391523         1836 
 4014000   0.61337772    -7.828443    727.83142  0.015110269  0.013910133         1971 
 4015000   0.61633645   -7.8189616    727.50059  0.015099639  0.013905031         1807 
 4016000   0.60419502   -7.8262964    728.11601  0.015108649  0.013899939         1923 
 4017000    0.6171567   -7.8292963    727.48944  0.015091889   0.01389484         1883 
 4018000   0.61533076   -7.8294462    728.62742  0.015111735   0.01388974         1929 
 4019000   0.60487068   -7.8545809    729.18365  0.015119508  0.013884646         1903 
 4020000   0.60925642    -7.837388    728.56545  0.015102932  0.013879549         1924 
 4021000   0.61367786   -7.8332779    729.47494  0.015118025  0.013874459         1974 
 4022000   0.61363814   -7.8311931    727.55364  0.015074458   0.01386937         1947 
 4023000   0.60742377   -7.8324943     729.1738  0.015104271  0.013864282         1874 
 4024000   0.59927973   -7.8231668    729.99788  0.015117584   0.01385919         1991 
 4025000   0.60565726   -7.8513858    727.20031  0.015055907  0.013854097         2047 
 4026000   0.61077675   -7.8290055    728.65305  0.015082237  0.013849012         1991 
 4027000   0.60860237   -7.8240857    728.67675  0.015078982  0.013843931         2019 
 4028000   0.60174555   -7.8305618    728.58238  0.015073287  0.013838855         1971 
 4029000   0.61067528   -7.8320949    727.17979  0.015040535  0.013833778         2050 
 4030000   0.60518331   -7.8527748    728.31889  0.015060358  0.013828692         2006 
 4031000   0.60097333   -7.8269996    728.03621  0.015050778   0.01382361         2020 
 4032000   0.60275909   -7.8371673    727.49634  0.015035887  0.013818533         2042 
 4033000   0.58986364   -7.8430886    728.03552    0.0150433   0.01381346         2171 
 4034000   0.60432039   -7.8650669    726.44295  0.015006671  0.013808381         2090 
 4035000   0.60829179   -7.8412527    727.08788  0.015016272  0.013803303         2112 
 4036000   0.61347711   -7.8327204    729.16857  0.015055512  0.013798232         2048 
 4037000   0.61491388   -7.8478804    727.13866  0.015009881  0.013793165         2111 
 4038000   0.60078122   -7.8362477    727.56231  0.015014907    0.0137881         2062 
 4039000   0.60432917   -7.8374901    728.03322  0.015020905  0.013783037         2078 
 4040000   0.59478493   -7.8163813    727.77328  0.015011825  0.013777974         2014 
 4041000   0.60445982   -7.8337282    727.50889  0.015002658  0.013772922         2057 
 4042000   0.58785507   -7.8435973    728.00225  0.015009118  0.013767864         2099 
 4043000   0.59719139   -7.8644747     727.9109  0.015003522  0.013762807         2025 
 4044000   0.59620888   -7.8497761    727.05599  0.014982196  0.013757753         2108 
 4045000   0.60565457   -7.8632665    728.12757  0.015000568  0.013752691         2112 
 4046000   0.60974977   -7.8500944    725.99558  0.014952949  0.013747632         2085 
 4047000   0.59837721    -7.847666    728.30664  0.014996842  0.013742584         2115 
 4048000   0.60979156   -7.8204539    726.82409  0.014962617  0.013737537         2181 
 4049000   0.59562688   -7.8698122    727.61142  0.014975126  0.013732484         2034 
 4050000   0.59282079   -7.8618815    726.59285   0.01495047  0.013727434         2208 
 4051000   0.60097125   -7.8489773    726.77096  0.014950444  0.013722393         2117 
 4052000   0.59282369   -7.8588919     727.1859  0.014955288  0.013717354         2074 
 4053000   0.59703092   -7.8643573    727.58792  0.014959863   0.01371232         2050 
 4054000    0.5878555   -7.8562539    727.53467  0.014955079  0.013707286         2074 
 4055000   0.58941318    -7.858501     726.4852  0.014929823  0.013702255         2082 
 4056000   0.60168954   -7.8376967    727.61174  0.014949288   0.01369722         2016 
 4057000   0.59932699   -7.8557734    726.63648  0.014925571  0.013692185         2075 
 4058000   0.58745158   -7.8499094    726.57455  0.014920621  0.013687158         2054 
 4059000   0.59598741    -7.862296    727.32891  0.014932432  0.013682131         2088 
 4060000   0.59978519   -7.8764279     725.9087  0.014899604  0.013677104         2149 
 4061000   0.61842292   -7.8715624    727.16121  0.014921637  0.013672079         2017 
 4062000   0.60040298   -7.8473121    728.43176  0.014944029   0.01366705         2036 
 4063000   0.59628901   -7.8624491    727.15621  0.014914189  0.013662029         2091 
 4064000   0.59768238   -7.8666103    726.12722   0.01488942  0.013657004         2038 
 4065000   0.61154323   -7.8588889    726.49622  0.014893321  0.013651979         2030 
 4066000   0.60191218   -7.8694953    726.49072  0.014889546  0.013646958         2042 
 4067000   0.58353641   -7.8403334    727.30166  0.014902501  0.013641943         2073 
 4068000   0.60417719   -7.8517921    728.15963  0.014916413  0.013636932         2022 
 4069000   0.60126546     -7.85877    726.45831  0.014877904  0.013631917         2027 
 4070000    0.5983111   -7.8431272    726.25367  0.014870059    0.0136269         2073 
 4071000   0.59195197   -7.8682296    725.92412   0.01485966  0.013621893         2110 
 4072000   0.60307503   -7.8708198    725.98775  0.014857313   0.01361688         2107 
 4073000   0.59169359   -7.8712524    725.60442  0.014845822  0.013611868         2069 
 4074000   0.60156594   -7.8643417    726.07814  0.014851868  0.013606867         2024 
 4075000   0.59202823   -7.8550635    727.26683  0.014872532  0.013601863         2060 
 4076000   0.59158514   -7.8727666    727.66631  0.014877051  0.013596863         2088 
 4077000   0.60658437   -7.8607612    725.53965  0.014829933  0.013591869         2015 
 4078000   0.60623133   -7.8541484    726.12553  0.014838269  0.013586875         2122 
 4079000   0.59702149   -7.8526953    727.81841  0.014869216  0.013581894         2041 
 4080000   0.59574645   -7.8802951    728.11717  0.014871674  0.013576908         2077 
 4081000   0.59904604    -7.871509    726.63911  0.014837848  0.013571929         2032 
 4082000    0.6041173   -7.8677058    726.29337  0.014827155   0.01356695         1994 
 4083000   0.59369214   -7.8727465    727.21671  0.014842369  0.013561967         2073 
 4084000   0.60128412   -7.8777595    728.01924   0.01485511  0.013556991         1967 
 4085000   0.60331658   -7.8661666     726.3243  0.014816897  0.013552011         2084 
 4086000   0.59424824   -7.8598056    727.17542  0.014830629  0.013547035         2026 
 4087000   0.59672646   -7.8571315    725.98813  0.014802792  0.013542056         2054 
 4088000   0.60340137   -7.8705392    726.09727  0.014801396  0.013537079         1982 
 4089000   0.59277805   -7.8698075    726.63249  0.014808684    0.0135321         2035 
 4090000    0.6114331   -7.8848881    724.77448  0.014767206  0.013527125         2097 
 4091000   0.60535484   -7.8970351    727.06647  0.014810284  0.013522152         2029 
 4092000   0.60553093   -7.8818441    727.16172  0.014808605  0.013517181         2114 
 4093000    0.5932214   -7.8870877    725.82452  0.014777761  0.013512206         2062 
 4094000   0.58652937   -7.8617968    726.77032  0.014793403  0.013507244         2019 
 4095000   0.59883708   -7.8717882    726.12218  0.014776601  0.013502289         2026 
 4096000   0.59556259   -7.8572537     727.0025  0.014790904  0.013497338         2057 
 4097000   0.60398505   -7.8841679    725.23325  0.014751307  0.013492388         2151 
 4098000   0.59506609   -7.8577006    727.41379  0.014792049  0.013487436         2080 
 4099000   0.60376464   -7.8693451    725.00825  0.014739535  0.013482478         2130 
 4100000   0.58065765   -7.8705719    726.61049  0.014768506   0.01347753         1996 
 4101000   0.58252593   -7.8554329    726.42218  0.014761078  0.013472581         2001 
 4102000     0.586245    -7.872756    726.78443  0.014764839  0.013467627         2101 
 4103000    0.5847466   -7.8660821     726.9609  0.014764825  0.013462682         2120 
 4104000   0.60393415   -7.8530889    727.12806  0.014764621  0.013457738         1992 
 4105000   0.59616807   -7.8759611    726.82011  0.014754773  0.013452802         2139 
 4106000    0.6019929    -7.869898    726.15216  0.014737623  0.013447867         2040 
 4107000   0.60163395   -7.8841457    727.32942  0.014757922   0.01344293         2053 
 4108000   0.58681653    -7.887388    727.78686  0.014763609  0.013438003         2052 
 4109000   0.60606056    -7.882561    725.64956   0.01471667  0.013433063         2077 
 4110000   0.59822405   -7.8866259    726.04476  0.014721102   0.01342813         2173 
 4111000   0.60337782    -7.868224    726.25699  0.014721823  0.013423204         2079 
 4112000   0.58780795   -7.8733352    724.55437  0.014683738  0.013418283         2070 
 4113000   0.59563808   -7.8564296     727.8767  0.014747482   0.01341336         2061 
 4114000   0.58598798   -7.8839541    727.02339  0.014726612  0.013408439         2050 
 4115000   0.59837512   -7.8866337    726.93957  0.014721336  0.013403521         2066 
 4116000   0.59618282    -7.885042    725.70669  0.014692798  0.013398606         2111 
 4117000   0.60076774    -7.894334    724.17455  0.014658217  0.013393685         2064 
 4118000   0.59571119    -7.870229    725.22692  0.014675954  0.013388773         2065 
 4119000   0.59814566   -7.8943415    727.76587  0.014723757  0.013383858         2088 
 4120000   0.59003513    -7.868807    726.64838   0.01469758   0.01337895         2059 
 4121000   0.60788012   -7.8865309    726.34909  0.014687962   0.01337405         2101 
 4122000    0.5906413   -7.8620694    727.84536  0.014714648  0.013369147         2096 
 4123000    0.5810401   -7.8789484    726.01558  0.014674096  0.013364243         2100 
 4124000   0.59314419   -7.8865986    725.32754  0.014656635  0.013359345         2132 
 4125000   0.58427698   -7.8531067     727.9307  0.014705671  0.013354457         2112 
 4126000   0.58396676   -7.8835857    725.70294  0.014657112  0.013349567         2169 
 4127000   0.59569087   -7.8922362    725.06218  0.014640622  0.013344674         2108 
 4128000    0.5988733   -7.8757648    726.55967  0.014667306  0.013339789         2123 
 4129000   0.58665709   -7.8898497    725.88093  0.014650055  0.013334893         2101 
 4130000   0.57971249   -7.8739322    725.80543  0.014644985  0.013330006         2123 
 4131000   0.58838952   -7.8962682    726.56642  0.014656791  0.013325123         2166 
 4132000   0.59942306   -7.8623355    726.70466  0.014656031  0.013320244         2088 
 4133000   0.60913221   -7.8638662    725.66708  0.014631565  0.013315366         2069 
 4134000   0.58433564   -7.8775246    727.08414  0.014656591  0.013310495         2078 
 4135000   0.59929509    -7.889513    725.75271  0.014626213  0.013305615         2122 
 4136000   0.58030861   -7.8667181    726.01367  0.014627935  0.013300739         2100 
 4137000   0.59673913   -7.8727527    726.55134   0.01463523  0.013295863         2135 
 4138000   0.58696368   -7.8789703    726.66213  0.014633924   0.01329099         2149 
 4139000   0.59634565   -7.8928221    725.44048  0.014605792  0.013286112         2207 
 4140000   0.59934691   -7.8894423    724.97465  0.014592887  0.013281244         2169 
 4141000   0.59711782   -7.8964172     726.3639  0.014617321  0.013276373         2110 
 4142000   0.58527247   -7.8626494    727.22589  0.014631134  0.013271507         2027 
 4143000   0.58821966   -7.8993174    724.19811  0.014566701  0.013266642         2128 
 4144000   0.58097131   -7.8976091    726.29456  0.014605344  0.013261778         2143 
 4145000   0.58706212   -7.8919495    725.16339  0.014579079  0.013256922         2158 
 4146000   0.60704842   -7.8965852    726.18044  0.014596005  0.013252066         2227 
 4147000   0.57290403   -7.8849705    725.63802  0.014581585  0.013247213         2089 
 4148000   0.57587252   -7.8685575    726.52702   0.01459593  0.013242356         2225 
 4149000   0.59196034   -7.9010172    726.17615  0.014585365  0.013237508         2215 
 4150000   0.58876989   -7.8852265    726.44362  0.014587221  0.013232658         2211 
 4151000   0.58192549   -7.8804536    724.94049  0.014553531  0.013227806         2181 
 4152000   0.58380042   -7.8742044    726.58214  0.014582975  0.013222964         2126 
 4153000   0.58867652   -7.8760901    726.34133  0.014574631  0.013218125         2222 
 4154000   0.57952477   -7.8814557     724.6268  0.014536728  0.013213284         2321 
 4155000   0.58985097   -7.8860377    726.04258  0.014561624  0.013208446         2162 
 4156000   0.58666202   -7.8942403    726.85496   0.01457441  0.013203603         2200 
 4157000   0.58182176   -7.8836423     726.1974  0.014557722  0.013198765         2178 
 4158000     0.578414   -7.9012672    724.69113  0.014524033  0.013193928         2242 
 4159000   0.57920004   -7.8951279    724.62111  0.014519137  0.013189093         2131 
 4160000   0.59116367   -7.9064499    725.65319  0.014536322  0.013184262         2255 
 4161000   0.58149869   -7.8766562     726.4806  0.014549399  0.013179439         2163 
 4162000   0.57384533   -7.9019451    725.20679  0.014520399   0.01317461         2178 
 4163000   0.58257805   -7.9003308    725.45115  0.014521802  0.013169787         2221 
 4164000   0.58468426   -7.9000843    725.02987  0.014509884   0.01316497         2259 
 4165000   0.58366918   -7.8905871    725.27467  0.014511298  0.013160152         2204 
 4166000   0.58689182   -7.8894183    725.56149  0.014513552  0.013155337         2111 
 4167000   0.59502075   -7.8853845    724.51289  0.014489099  0.013150521         2181 
 4168000   0.57666601   -7.8683961    726.24716  0.014520297   0.01314571         2095 
 4169000   0.59560444   -7.9110638    725.19421  0.014495767  0.013140897         2248 
 4170000   0.59220882   -7.8718887    725.15062  0.014491419  0.013136099         2112 
 4171000   0.59192588   -7.8921795    725.08396  0.014486613  0.013131297         2249 
 4172000   0.57080633    -7.911733    726.70142  0.014515449  0.013126494         2272 
 4173000   0.57750116   -7.9084573    724.63002  0.014470605  0.013121689         2267 
 4174000   0.58533279   -7.8864926    725.60252  0.014486554  0.013116897         2256 
 4175000   0.58963084    -7.894279    726.82972  0.014507579  0.013112106         2232 
 4176000   0.59471359   -7.8958804    725.62736  0.014480112  0.013107315         2224 
 4177000   0.57565628   -7.8983574    724.70636  0.014458271  0.013102527         2286 
 4178000   0.56761581   -7.8676344    725.22775   0.01446521   0.01309774         2218 
 4179000   0.59960042   -7.8997152    725.61064  0.014469383  0.013092948         2230 
 4180000    0.5824251   -7.9054812    725.49802  0.014463677   0.01308816         2223 
 4181000   0.58117283    -7.885592    726.73598  0.014484892  0.013083374         2142 
 4182000   0.56972285   -7.9027085     723.7004  0.014420939  0.013078593         2219 
 4183000   0.59141806   -7.8978969    724.56504  0.014434717  0.013073812         2180 
 4184000   0.57538535    -7.901377    725.53343  0.014450554  0.013069036         2170 
 4185000   0.57958323   -7.9094479    725.24219  0.014441302  0.013064264         2183 
 4186000   0.56384982    -7.900372    724.42448  0.014421573  0.013059485         2285 
 4187000   0.58028446   -7.9105507     724.4841  0.014419316  0.013054714         2128 
 4188000   0.59263997   -7.8769788     725.7925  0.014441907  0.013049941         2209 
 4189000   0.56732752   -7.8691194    726.61913  0.014454904  0.013045178         2126 
 4190000   0.58314466   -7.8949054    724.39802   0.01440728  0.013040415         2228 
 4191000   0.56294064   -7.8855318    725.99979  0.014435691  0.013035644         2222 
 4192000    0.5839453   -7.9093041    724.88442  0.014410075  0.013030878         2289 
 4193000   0.58019087   -7.8996271    725.92539  0.014427327  0.013026112         2261 
 4194000   0.57718496   -7.8930714     725.7662  0.014420724  0.013021348         2133 
 4195000   0.57282334   -7.8990507    724.11873   0.01438456  0.013016594         2166 
 4196000   0.58138943   -7.8632035    726.51202  0.014428663  0.013011839         2197 
 4197000   0.58195621   -7.9007554    725.50325  0.014405195  0.013007083         2209 
 4198000   0.57511879   -7.8757394    727.06462  0.014432758  0.013002335         2198 
 4199000   0.58899639    -7.902211    725.22323  0.014392777  0.012997584         2152 
 4200000   0.56739732   -7.8836884    723.65396  0.014358213  0.012992831         2215 
 4201000   0.57388939    -7.917341    725.25583  0.014386571  0.012988076         2233 
 4202000   0.57256546   -7.9021168    725.05503  0.014379165  0.012983323         2237 
 4203000   0.57675459   -7.8903857    726.22635  0.014398968  0.012978578         2140 
 4204000   0.58444995    -7.919725    724.92226  0.014369693  0.012973834         2213 
 4205000   0.57884267   -7.9187129    724.30111  0.014353966  0.012969094         2181 
 4206000   0.55967051   -7.9015229    725.09397  0.014366262  0.012964352         2128 
 4207000   0.57145457   -7.9141566    723.36269  0.014328553  0.012959612         2159 
 4208000   0.58432028   -7.9009899     725.7519  0.014372463  0.012954883         2136 
 4209000   0.58358914   -7.9097217    725.52182  0.014364493  0.012950153         2108 
 4210000   0.57046893   -7.8972287    725.70744  0.014364755  0.012945426         2132 
 4211000   0.57055962   -7.9323424    725.00162  0.014347376  0.012940699         2241 
 4212000   0.56841865   -7.8952445    725.28432  0.014349563  0.012935979         2177 
 4213000   0.58469637   -7.8895077    725.06791  0.014341876  0.012931253         2120 
 4214000   0.56109695   -7.9032235    725.30337  0.014343129  0.012926536         2246 
 4215000   0.56144458   -7.9221675    724.83026  0.014330373  0.012921817         2232 
 4216000   0.58204228   -7.9254939    723.95158  0.014309606  0.012917094         2252 
 4217000   0.57849554   -7.8939914    724.37391  0.014314558  0.012912376         2143 
 4218000   0.57328407   -7.9042669    724.02382  0.014304248  0.012907662         2180 
 4219000   0.57162316   -7.8949719    725.38016  0.014327648  0.012902956         2235 
 4220000   0.58070454   -7.8916531    725.01428  0.014317028  0.012898245         2251 
 4221000   0.56003892   -7.9037193    725.55288  0.014324269   0.01289354         2201 
 4222000   0.58279919   -7.9210898    725.19051  0.014313724  0.012888847         2293 
 4223000   0.58675381   -7.8880702    725.14032  0.014309344  0.012884155         2241 
 4224000   0.57821875   -7.9116716    724.26433  0.014288675  0.012879456         2293 
 4225000   0.55795971   -7.8920165    725.99921  0.014319511  0.012874766         2267 
 4226000     0.579689   -7.9239252    724.26859  0.014281996  0.012870075         2286 
 4227000   0.58598907   -7.9064053    725.99097  0.014312573  0.012865384         2246 
 4228000    0.5891711   -7.8862512     725.2259  0.014294109  0.012860697         2232 
 4229000   0.57328179   -7.9128559     723.9877   0.01426633  0.012856011         2386 
 4230000   0.58291566   -7.9267278    723.68706  0.014257034  0.012851319         2345 
 4231000   0.57278553   -7.9147369    725.00373  0.014279598  0.012846635         2224 
 4232000   0.55589763   -7.9146931    726.12591  0.014298321  0.012841957         2186 
 4233000   0.57177451   -7.9287319    725.82299  0.014288979  0.012837277         2262 
 4234000   0.57949103   -7.9173558    725.52485  0.014279737  0.012832593         2260 
 4235000   0.57909034   -7.9318904    725.38376  0.014273588  0.012827916         2323 
 4236000   0.58757978   -7.9101582    725.98509  0.014282048  0.012823245         2304 
 4237000   0.55965199   -7.9226657    725.06285  0.014260539  0.012818569         2243 
 4238000   0.58478421   -7.8933286    726.00303  0.014275661  0.012813895         2264 
 4239000   0.57127651   -7.9158473    723.21135  0.014217413  0.012809218         2331 
 4240000   0.56689689   -7.9176727    723.90994   0.01422779   0.01280455         2240 
 4241000    0.5773934     -7.89434    725.01182  0.014246086  0.012799884         2225 
 4242000   0.58582351   -7.8952177    724.33597  0.014229451  0.012795216         2288 
 4243000   0.56319808   -7.9085137    725.02593  0.014239648  0.012790551         2330 
 4244000   0.56568826   -7.9128725    726.03272  0.014256062  0.012785888         2255 
 4245000   0.56550301   -7.9135833    724.24302   0.01421757   0.01278123         2290 
 4246000   0.56123563   -7.9225528    723.81724  0.014205865  0.012776565         2295 
 4247000   0.56878184   -7.9238688    723.95195  0.014205164  0.012771905         2310 
 4248000   0.57707388   -7.9249957    725.78409  0.014237761  0.012767247         2248 
 4249000   0.57589276   -7.9285585    724.88112    0.0142167  0.012762596         2253 
 4250000   0.57461144    -7.916362    723.47416  0.014185768  0.012757949         2271 
 4251000   0.56546335   -7.9127516    723.66594   0.01418619  0.012753302         2309 
 4252000   0.57426461    -7.916096    725.00433  0.014209085  0.012748656         2313 
 4253000    0.5668481   -7.9136581    723.97705  0.014185615  0.012744013         2240 
 4254000   0.56639182   -7.9160827    725.48656  0.014211851  0.012739369         2217 
 4255000    0.5570347    -7.918728    723.71911  0.014173896  0.012734728         2228 
 4256000   0.58039652    -7.931133    723.30925   0.01416254  0.012730095         2294 
 4257000   0.58421207   -7.9055602    723.99506  0.014172638  0.012725459         2177 
 4258000   0.56732491   -7.9315507    723.31939  0.014156086  0.012720825         2258 
 4259000    0.5791824   -7.9178504    724.50826  0.014176024  0.012716193         2227 
 4260000   0.58074637   -7.9397392    725.05228  0.014183339  0.012711565         2242 
 4261000   0.58100247   -7.9223758    723.39584  0.014147615  0.012706938         2302 
 4262000   0.56964415   -7.9238449     725.0499  0.014176637   0.01270231         2327 
 4263000   0.56314038   -7.9342215    722.86815  0.014130662  0.012697687         2371 
 4264000   0.56260203   -7.9250395    723.37981  0.014137348  0.012693061         2202 
 4265000   0.57224877    -7.926031    725.86877  0.014182664  0.012688446         2234 
 4266000   0.58120968   -7.9204375    724.27298  0.014148167  0.012683827         2332 
 4267000   0.56583358   -7.9271884     723.3483  0.014126793  0.012679207         2311 
 4268000   0.56511554   -7.9227432    724.13339  0.014138812  0.012674593         2215 
 4269000   0.56395814   -7.9314169    724.19347  0.014136673  0.012669979         2293 
 4270000    0.5506539   -7.9298768    722.98747  0.014109826  0.012665369         2238 
 4271000   0.55686826   -7.9193065    723.24786  0.014111603  0.012660758         2315 
 4272000    0.5608713   -7.9025457    725.55089  0.014153224  0.012656149         2305 
 4273000   0.58080964   -7.9116064    723.30507  0.014106113  0.012651547         2273 
 4274000   0.55278332   -7.9028093    723.96314  0.014115644  0.012646943         2317 
 4275000   0.57142745   -7.9065456    724.71415  0.014126981  0.012642341         2259 
 4276000   0.56335928   -7.9275462     724.4166  0.014117879  0.012637743         2227 
 4277000     0.563087   -7.9424214    724.97944  0.014125544  0.012633146         2354 
 4278000   0.56203331   -7.9084815    724.48935  0.014112696  0.012628554         2255 
 4279000   0.54922548   -7.9081651    724.96891  0.014118737  0.012623963         2242 
 4280000   0.57527485   -7.9444986    724.24317  0.014101308  0.012619374         2393 
 4281000   0.56681422   -7.9393013    723.64467  0.014086364  0.012614785         2306 
 4282000   0.56369672   -7.9205063    724.10933  0.014092117  0.012610199         2262 
 4283000   0.56787129   -7.9457816    725.15446  0.014109161  0.012605614         2218 
 4284000   0.55938285   -7.9231524    723.64361  0.014076478  0.012601032         2199 
 4285000   0.58188345   -7.9320591    724.08923   0.01408186  0.012596455         2231 
 4286000   0.56827764   -7.9314901    725.35058  0.014103099  0.012591879         2278 
 4287000   0.56797976   -7.9347597    723.05594  0.014055204  0.012587306         2313 
 4288000   0.56487612   -7.9395893    723.93462  0.014069003   0.01258273         2255 
 4289000   0.57372696   -7.9320143    723.03119   0.01404817  0.012578153         2234 
 4290000   0.55891061   -7.9140574    725.25676  0.014088127  0.012573588         2170 
 4291000   0.56554462   -7.9233303    722.75104  0.014036181  0.012569023         2221 
 4292000   0.56675546   -7.9343836    723.27329  0.014043051  0.012564462         2210 
 4293000   0.57111383   -7.9312403    724.03929  0.014054649  0.012559903         2135 
 4294000   0.57610876   -7.9508484    724.86282  0.014067358  0.012555345         2236 
 4295000   0.55634383   -7.9192856    722.82237  0.014024493  0.012550786         2220 
 4296000     0.561232   -7.9327493    724.26399  0.014049193  0.012546229         2164 
 4297000   0.54948435   -7.9409575     724.7947  0.014056216  0.012541671         2183 
 4298000    0.5688552   -7.9473599    724.26532  0.014042681  0.012537123         2287 
 4299000   0.55767984   -7.9309048    725.86898  0.014070501  0.012532567         2155 
 4300000   0.57494458   -7.9331563     723.7651  0.014026455  0.012528018         2166 
 4301000   0.56380812   -7.9364976    723.25902  0.014013389  0.012523473         2217 
 4302000   0.55641631   -7.9212421    725.07671  0.014045342  0.012518931         2287 
 4303000    0.5566852   -7.9199624     724.2603  0.014026267  0.012514384         2304 
 4304000   0.56484653    -7.931592    723.29849  0.014004385  0.012509839         2332 
 4305000   0.57383357   -7.9307931    722.74254   0.01399037  0.012505301         2340 
 4306000   0.56240698   -7.9622216    723.95084  0.014010505  0.012500767         2282 
 4307000   0.57415285    -7.922753     724.0414  0.014009005  0.012496239         2232 
 4308000   0.56735522   -7.9343954    724.73314  0.014019134  0.012491706         2315 
 4309000   0.56912658    -7.932528    723.61379  0.013994233  0.012487176         2311 
 4310000   0.55692266   -7.9365221    723.98364  0.013998137  0.012482649         2301 
 4311000   0.57261075   -7.9346587    724.48007  0.014004486  0.012478124         2226 
 4312000   0.54927526   -7.9434043    724.06724   0.01399326  0.012473598         2353 
 4313000   0.55569687   -7.9381704    723.85161  0.013985849   0.01246908         2230 
 4314000   0.55835106   -7.9608037     723.7095  0.013979862  0.012464555         2221 
 4315000   0.56891725   -7.9268528    723.61239  0.013974747  0.012460031         2333 
 4316000   0.56587099   -7.9434078    722.98336  0.013959364  0.012455513         2226 
 4317000   0.55181517   -7.9399437    724.09782  0.013977643  0.012450992         2271 
 4318000   0.55246243     -7.91648    722.91111  0.013951504  0.012446471         2284 
 4319000   0.54684555   -7.9195283    722.94404  0.013948909  0.012441953         2297 
 4320000    0.5692922   -7.9364337    721.85907  0.013924751  0.012437436         2288 
 4321000   0.56464226   -7.9332121    723.70994  0.013957223  0.012432922         2227 
 4322000   0.56690055   -7.9563534    724.21116  0.013963658   0.01242841         2325 
 4323000    0.5525188   -7.9334409    723.70507  0.013950672  0.012423906         2212 
 4324000   0.55806687   -7.9631368    723.51322  0.013943748  0.012419399         2348 
 4325000    0.5478212   -7.9504061    723.81627  0.013946364  0.012414895         2197 
 4326000   0.56589581   -7.9483793    722.85426  0.013924608  0.012410386         2258 
 4327000   0.55889031   -7.9354778    723.74241  0.013938495  0.012405883         2275 
 4328000   0.57159115   -7.9242827    722.62234  0.013913708  0.012401375         2193 
 4329000   0.54776024   -7.9414716    722.92392  0.013916299  0.012396874         2220 
 4330000   0.56479226   -7.9436795    724.02092  0.013934198  0.012392376         2304 
 4331000    0.5668788   -7.9322957    722.56506  0.013902968  0.012387883         2238 
 4332000   0.55903062   -7.9415912    723.53432  0.013918404  0.012383389         2282 
 4333000   0.55592801    -7.936376     724.5101  0.013933958  0.012378896         2278 
 4334000   0.56565963   -7.9374615     723.9906  0.013920754  0.012374411         2271 
 4335000   0.55061063   -7.9444049    723.55798  0.013909227  0.012369927         2303 
 4336000   0.55394267   -7.9171019     723.5035  0.013904972  0.012365437         2303 
 4337000   0.54865514   -7.9490856    723.65388  0.013904655  0.012360952         2232 
 4338000   0.56152411   -7.9321879    724.04989  0.013909057  0.012356468         2272 
 4339000   0.55985389   -7.9545311    723.84329  0.013901884  0.012351987         2206 
 4340000   0.54780948   -7.9452245    723.64068   0.01389479  0.012347506         2318 
 4341000   0.56688716   -7.9444352    722.68081  0.013873163  0.012343025         2204 
 4342000   0.55497966   -7.9561609    723.69609  0.013889454  0.012338549         2216 
 4343000   0.55577859    -7.957232    722.76112  0.013868315  0.012334078         2258 
 4344000   0.55245602   -7.9526186    723.21588  0.013873847  0.012329605         2223 
 4345000    0.5603118   -7.9317669    724.38716  0.013893118  0.012325138         2278 
 4346000   0.55555362    -7.952327    723.14944  0.013866188   0.01232067         2318 
 4347000   0.55638904   -7.9519996    723.27936  0.013865489  0.012316205         2265 
 4348000   0.55436129   -7.9556379    722.62961  0.013849847  0.012311735         2280 
 4349000   0.55267601   -7.9509064    722.55875  0.013845304  0.012307266         2262 
 4350000   0.55038993   -7.9518378    724.22106  0.013873967  0.012302807         2270 
 4351000   0.55320224   -7.9555261    721.76294  0.013823698  0.012298346         2264 
 4352000   0.56040945   -7.9509743    723.68063  0.013857242   0.01229389         2232 
 4353000   0.54744328   -7.9598989    723.20176  0.013844892   0.01228943         2290 
 4354000   0.56607649   -7.9652674     722.2625  0.013823735  0.012284973         2324 
 4355000   0.56450662   -7.9425853    724.13582  0.013856407  0.012280519         2322 
 4356000   0.55081787   -7.9553653    722.48807  0.013821703  0.012276071         2246 
 4357000    0.5484303   -7.9535409    722.75438  0.013823624  0.012271628         2331 
 4358000   0.56095833   -7.9541461    723.02654  0.013825657  0.012267181         2263 
 4359000   0.54145591   -7.9592465    722.75887  0.013817368   0.01226274         2324 
 4360000   0.55320727   -7.9689795    722.35885  0.013806553  0.012258296         2325 
 4361000    0.5599209   -7.9606164    722.65462  0.013809039   0.01225386         2281 
 4362000   0.55108218   -7.9580201    723.75933  0.013826978  0.012249429         2245 
 4363000   0.54490786   -7.9525843     723.6166  0.013821083  0.012244994         2221 
 4364000   0.55035663   -7.9368331    723.30981  0.013812057  0.012240559         2289 
 4365000    0.5513345   -7.9704888     722.5143  0.013793706  0.012236123         2259 
 4366000   0.56019989   -7.9492369    723.50065  0.013809373  0.012231688         2284 
 4367000    0.5475766   -7.9466311    722.09824  0.013779449  0.012227255         2304 
 4368000   0.55936785   -7.9470264    721.95608  0.013773582  0.012222827         2309 
 4369000   0.55034462   -7.9782758    722.72967  0.013785185  0.012218398         2285 
 4370000   0.55616556   -7.9497698    722.58864  0.013779341  0.012213977         2182 
 4371000   0.56037684   -7.9532892    722.42012  0.013772976  0.012209559         2207 
 4372000   0.54682023   -7.9593708    723.24831  0.013785611  0.012205147         2224 
 4373000   0.56224926   -7.9676418     723.1945  0.013781433  0.012200737         2248 
 4374000    0.5457936     -7.94753    722.73281  0.013769487  0.012196326         2242 
 4375000   0.55613481   -7.9606851    725.37341  0.013816636   0.01219192         2303 
 4376000   0.55598039   -7.9644017    722.18453  0.013752752  0.012187509         2300 
 4377000   0.54368168   -7.9530648    721.91551  0.013744488  0.012183104         2221 
 4378000   0.55043745   -7.9467498    723.18095  0.013765436  0.012178694         2278 
 4379000   0.56568635   -7.9419607    722.99704  0.013758793  0.012174292         2218 
 4380000   0.55893248   -7.9547724    722.25926  0.013741615  0.012169892         2221 
 4381000   0.54723686   -7.9671071     723.3936  0.013760055  0.012165495         2283 
 4382000   0.55527878   -7.9577755    721.20191  0.013715235  0.012161094         2213 
 4383000   0.54872272   -7.9642232    723.37227   0.01375337  0.012156699         2204 
 4384000   0.55648098   -7.9437497    723.30486  0.013748952  0.012152309         2219 
 4385000   0.55537521   -7.9664521    722.65183  0.013733406  0.012147919         2202 
 4386000   0.56385418   -7.9650142    722.17364  0.013721189  0.012143532         2242 
 4387000   0.56472521   -7.9459163      722.976  0.013733303  0.012139147         2266 
 4388000   0.54544942   -7.9595102    722.98334  0.013730313  0.012134758         2218 
 4389000   0.55965432   -7.9649315    722.40191  0.013716145   0.01213037         2195 
 4390000   0.55381287   -7.9546199    722.46596  0.013714236  0.012125985         2197 
 4391000   0.55442994    -7.966634    722.20721  0.013706202  0.012121608         2220 
 4392000   0.53540602   -7.9565745    723.32038  0.013724203  0.012117232         2276 
 4393000   0.55195137   -7.9680413    722.52355  0.013705963  0.012112859         2204 
 4394000   0.55939145   -7.9598081     722.2875  0.013698367  0.012108483         2235 
 4395000   0.54204997   -7.9704111    722.62747  0.013701696  0.012104112         2245 
 4396000   0.55598889   -7.9595822    722.97373  0.013705144  0.012099739         2272 
 4397000   0.55672293    -7.960899    723.22892  0.013706863  0.012095372         2203 
 4398000   0.55760697   -7.9581745    722.52277  0.013690366  0.012091003         2242 
 4399000   0.53736794   -7.9719771    723.40786  0.013704021  0.012086642         2246 
 4400000   0.55238856   -7.9744224    721.41007  0.013663069  0.012082279         2239 
 4401000   0.54821816   -7.9952658    722.12986  0.013673594  0.012077918         2266 
 4402000   0.54745042   -7.9668694    722.53251   0.01367811  0.012073559         2153 
 4403000   0.55314964    -7.948004    721.44042  0.013654335  0.012069199         2199 
 4404000    0.5400238   -7.9595629     722.9267  0.013679358  0.012064841         2289 
 4405000   0.54604722   -7.9641499    722.73737  0.013672671  0.012060489         2199 
 4406000   0.54030136   -7.9653033    722.81126  0.013670965  0.012056137         2242 
 4407000   0.54070939   -7.9659498    721.33534  0.013639954   0.01205178         2256 
 4408000   0.54851543   -7.9598165    722.11356  0.013651572  0.012047434         2179 
 4409000   0.53714479   -7.9565504    722.38884  0.013653679  0.012043085         2255 
 4410000   0.54457496    -7.953348    722.29996  0.013648903   0.01203874         2286 
 4411000    0.5471813   -7.9704079     720.9047   0.01361945    0.0120344         2156 
 4412000   0.54863382   -7.9482341    723.35904   0.01366272  0.012030062         2283 
 4413000   0.55304187   -7.9778476    722.35744   0.01364071  0.012025727         2283 
 4414000   0.52953706   -7.9670961    722.54585  0.013641177  0.012021394         2253 
 4415000   0.54388472   -7.9634488    721.74114  0.013622898  0.012017059         2288 
 4416000   0.54422917   -7.9598272    722.40176   0.01363228  0.012012725         2283 
 4417000   0.53715613   -7.9498691    721.88936  0.013619526  0.012008395         2294 
 4418000   0.54986117   -7.9646095     722.2828  0.013623864  0.012004064         2201 
 4419000   0.55884471   -7.9695476    721.78102  0.013611319  0.011999737         2261 
 4420000   0.54810034   -7.9675997    721.71248  0.013606947  0.011995414         2264 
 4421000   0.52907613   -7.9385372    722.34954  0.013615878  0.011991091         2269 
 4422000    0.5393052   -7.9682449     722.9734  0.013624555  0.011986773         2323 
 4423000   0.53916087    -7.965797    722.89507  0.013619999  0.011982451         2214 
 4424000   0.53966991   -7.9594642    723.42329   0.01362687  0.011978131         2223 
 4425000   0.55285181    -7.964918     722.6294   0.01360884  0.011973816         2225 
 4426000   0.54349232   -7.9737042    722.95205   0.01361184  0.011969504         2270 
 4427000   0.53561776   -7.9740854    721.18074  0.013575422  0.011965191         2289 
 4428000   0.53741643   -7.9692599    721.69503  0.013582035  0.011960877         2251 
 4429000    0.5502156   -7.9784519    721.83146  0.013581536  0.011956569         2289 
 4430000   0.54461715   -7.9892898    721.71284  0.013576239  0.011952256         2260 
 4431000   0.53499536   -7.9610367    723.24272  0.013601947  0.011947949         2263 
 4432000   0.53815146    -7.975733    721.96203  0.013574798  0.011943642         2299 
 4433000   0.53645321   -7.9874784    723.54103  0.013601418  0.011939338         2267 
 4434000   0.53116066    -7.985361    722.09136  0.013571105  0.011935038         2304 
 4435000   0.54046492   -7.9726149     722.2884  0.013571747  0.011930738         2235 
 4436000   0.53696241   -7.9548992    721.81206   0.01355974  0.011926444         2169 
 4437000   0.54838838   -7.9768005    721.42064  0.013549332  0.011922144         2238 
 4438000   0.55031138   -7.9725804    721.28179  0.013543672   0.01191785         2294 
 4439000   0.53363979   -7.9659843    722.69676  0.013567184  0.011913563         2141 
 4440000   0.53987734   -7.9705317     722.1076  0.013553071  0.011909277         2230 
 4441000   0.53948514   -7.9943392     721.3295  0.013535418   0.01190499         2243 
 4442000   0.53815021    -7.980351    721.47125   0.01353503  0.011900705         2259 
 4443000   0.54387653   -7.9915971    722.34386  0.013548351  0.011896423         2214 
 4444000   0.54036307    -7.996424    721.42157  0.013528007  0.011892137         2257 
 4445000   0.54718416   -7.9901316    722.21563  0.013539851  0.011887861         2249 
 4446000   0.53789436   -7.9693297     721.2104  0.013517964  0.011883585         2205 
 4447000   0.53656716   -7.9817015    722.34931  0.013536266  0.011879311         2165 
 4448000   0.53765074   -7.9858197    722.78851  0.013541451   0.01187504         2270 
 4449000   0.54398589   -7.9765877    721.79881   0.01351987  0.011870767         2164 
 4450000   0.54314282   -7.9848594    722.23641  0.013525026    0.0118665         2317 
 4451000   0.54080273    -7.996457    721.90966   0.01351587  0.011862228         2312 
 4452000   0.54083698   -7.9820923    721.57094  0.013506494  0.011857959         2298 
 4453000   0.54426839   -7.9727902    722.14444  0.013514193   0.01185369         2300 
 4454000   0.54229857   -7.9807763    722.56924  0.013519107  0.011849423         2309 
 4455000   0.52785838    -7.987316    721.97454  0.013504948  0.011845162         2315 
 4456000   0.52615198   -8.0005518    721.78749   0.01349842    0.0118409         2250 
 4457000   0.54014093   -7.9651686    721.37395  0.013487659  0.011836638         2323 
 4458000   0.53492964   -8.0015976    721.07422  0.013479031  0.011832379         2249 
 4459000   0.53482814   -7.9718501    722.59157  0.013504365  0.011828124         2295 
 4460000   0.53304298   -7.9778692    721.67277   0.01348417   0.01182387         2249 
 4461000   0.54263953   -7.9856486    721.62982  0.013480345   0.01181962         2202 
 4462000   0.53965973   -7.9940552    721.88065  0.013482008  0.011815372         2230 
 4463000   0.53597031   -7.9996305    721.00174  0.013462576  0.011811124         2305 
 4464000   0.54179385   -7.9743194    722.13657  0.013480745  0.011806876         2270 
 4465000   0.53941566   -7.9928717    721.84597  0.013472303  0.011802634         2211 
 4466000   0.54042103   -7.9864386    721.64745  0.013465582   0.01179839         2309 
 4467000   0.52934806   -7.9713662    721.71129  0.013463758  0.011794149         2302 
 4468000   0.54953502    -7.973276     723.1768  0.013488078  0.011789912         2315 
 4469000   0.53239166   -7.9938896    721.62295  0.013456085  0.011785675         2314 
 4470000   0.54292212   -7.9990643    720.27959  0.013428031  0.011781439         2275 
 4471000   0.53289657   -7.9854324    722.32825  0.013463212  0.011777201         2225 
 4472000   0.54007556   -7.9861345    723.27691  0.013477879  0.011772973         2216 
 4473000   0.53732625   -7.9992887    720.75606  0.013427902   0.01176874         2254 
 4474000   0.53564344   -7.9891646     720.2018  0.013414577  0.011764508         2227 
 4475000   0.52596271   -7.9756391     721.5049  0.013435845  0.011760281         2194 
 4476000   0.52093077   -7.9981382    721.08584  0.013425042  0.011756055         2226 
 4477000   0.53276359   -7.9845692    721.65797  0.013432692  0.011751831         2207 
 4478000   0.53752282   -7.9872942    721.55022  0.013427688   0.01174761         2196 
 4479000   0.52698764   -7.9802017    722.69981  0.013446078  0.011743396         2217 
 4480000   0.53964331   -7.9902761    721.89687  0.013428141  0.011739177         2244 
 4481000   0.54139888   -7.9970508     721.7904  0.013423164   0.01173496         2260 
 4482000   0.53621696   -7.9908244    723.02989  0.013443215  0.011730745         2256 
 4483000   0.54536889   -8.0031712    720.47352  0.013392697  0.011726535         2235 
 4484000   0.53298283   -8.0020592     722.3259  0.013424136  0.011722322         2243 
 4485000   0.53553621   -7.9944499     721.5785  0.013407256  0.011718112         2244 
 4486000   0.53428292   -7.9863923     720.1796  0.013378281  0.011713905         2255 
 4487000   0.51819377   -7.9959599    721.24892  0.013395159  0.011709697         2235 
 4488000   0.54411775   -7.9923289    721.92302  0.013404691  0.011705497         2201 
 4489000   0.53313882   -7.9910523     722.1195  0.013405352  0.011701298         2324 
 4490000    0.5294344   -8.0077906    721.46118  0.013390148  0.011697105         2242 
 4491000   0.52933052   -7.9856578    721.22217  0.013382732  0.011692911         2306 
 4492000   0.54005752   -7.9919465    721.14408  0.013378304  0.011688716         2285 
 4493000   0.53813581    -7.986333    720.79321  0.013368818  0.011684524         2260 
 4494000    0.5257609     -7.98455    721.76636  0.013383889  0.011680333         2223 
 4495000   0.54378638   -7.9725336    722.59824  0.013396334  0.011676147         2252 
 4496000   0.53592434   -7.9998594    721.25192    0.0133684  0.011671967         2290 
 4497000   0.52930743   -7.9923506    722.40885  0.013386866  0.011667781         2299 
 4498000   0.53488541   -7.9867314    721.44813  0.013366091  0.011663602         2276 
 4499000   0.52579709   -7.9787142    721.23773  0.013359223  0.011659427         2210 
 4500000   0.52471043   -7.9870068    721.69211  0.013364669   0.01165525         2223 
 4501000   0.51976809   -7.9871097    721.75786  0.013362917   0.01165108         2243 
 4502000   0.52603206   -7.9919892    720.82811  0.013342739  0.011646905         2253 
 4503000    0.5364192    -8.005309    721.49974  0.013352205  0.011642739         2248 
 4504000   0.52124358   -7.9982796    721.12035  0.013342221  0.011638567         2307 
 4505000    0.5219162   -7.9831206    721.42665  0.013344925  0.011634405         2219 
 4506000   0.53079945   -7.9738495    721.59762  0.013345125  0.011630235         2326 
 4507000   0.53573435   -8.0035173    721.45539  0.013339535  0.011626073         2298 
 4508000   0.53547269   -7.9996217    721.69414  0.013340989  0.011621911         2289 
 4509000   0.52903231   -7.9843375    722.30592  0.013349337  0.011617751         2204 
 4510000   0.53026066   -7.9947625    720.07989  0.013305245  0.011613584         2253 
 4511000   0.53747254   -8.0021409    720.61343  0.013312152  0.011609424         2278 
 4512000   0.52470431    -8.000414    721.32921  0.013322422  0.011605266         2241 
 4513000   0.52699847   -7.9974866    720.83547  0.013310353  0.011601112         2301 
 4514000   0.52273706   -7.9889821     722.2128  0.013332831  0.011596956         2302 
 4515000   0.52583621   -7.9969972    721.49691  0.013316665  0.011592805         2289 
 4516000   0.51561626   -8.0161997     721.5581  0.013314845  0.011588656         2347 
 4517000   0.52133674   -7.9982798    720.98226  0.013301274  0.011584508         2311 
 4518000   0.53677123    -8.011484    720.07936  0.013281676  0.011580366         2293 
 4519000   0.52236129   -8.0090029    720.61519  0.013288618  0.011576217         2296 
 4520000   0.52320977   -8.0229699     721.7754  0.013307069  0.011572075         2316 
 4521000   0.52435908   -7.9791115    721.51264  0.013299282  0.011567935         2256 
 4522000     0.523201   -8.0039913     720.9978  0.013286853  0.011563801         2234 
 4523000   0.53600181   -7.9942173    720.78389  0.013279974   0.01155966         2306 
 4524000   0.52443947   -7.9882064    720.66836  0.013274911  0.011555525         2281 
 4525000   0.52385382   -8.0069925    721.33273  0.013284212  0.011551393         2275 
 4526000   0.51955937   -7.9909717    722.94125  0.013310894   0.01154726         2276 
 4527000   0.52358959   -8.0043885    720.64211  0.013265631  0.011543129         2340 
 4528000   0.53211051    -7.998711    720.23479  0.013255204  0.011539002         2308 
 4529000   0.53353994   -7.9832625    720.27776  0.013253068  0.011534877         2293 
 4530000   0.53513913   -8.0009982    721.09887  0.013265248  0.011530753         2289 
 4531000   0.52768914   -8.0173311    719.51719   0.01323323  0.011526632         2292 
 4532000   0.52770949   -8.0222937    720.08311  0.013240716  0.011522513         2284 
 4533000   0.52190965   -7.9875357    720.97788  0.013254244  0.011518393         2284 
 4534000   0.52327297   -7.9972174    721.99795   0.01327007  0.011514276         2281 
 4535000   0.51711423   -8.0073983    721.80328  0.013263566  0.011510158         2244 
 4536000   0.52144158   -8.0100544    720.41879  0.013235207  0.011506049         2278 
 4537000   0.52794065   -7.9966115    721.51563  0.013252436  0.011501939         2291 
 4538000   0.51205147   -8.0143553    721.35698  0.013246602   0.01149783         2267 
 4539000   0.53602655   -7.9868973    720.01745  0.013219091  0.011493726         2306 
 4540000   0.51901662   -7.9879953    720.19831  0.013219499  0.011489622         2270 
 4541000   0.52463618   -8.0172738    721.25639  0.013236005  0.011485519         2266 
 4542000   0.53017189   -8.0035089    720.35817  0.013216611  0.011481413         2325 
 4543000   0.52151614   -7.9995711    719.28362  0.013193991  0.011477315         2285 
 4544000   0.52125223   -7.9979665    721.72874  0.013235929  0.011473221         2260 
 4545000   0.53275935   -8.0088117    720.87979  0.013217451  0.011469123         2243 
 4546000   0.52768749   -8.0099868    720.35796  0.013204978  0.011465032         2288 
 4547000   0.52904979   -7.9956759    719.93074  0.013194244  0.011460944         2310 
 4548000   0.52623649   -8.0103294    721.76416  0.013224937  0.011456861         2241 
 4549000   0.52408945   -7.9981549    720.93099  0.013206767  0.011452771         2279 
 4550000   0.51420999   -8.0213466    719.23704   0.01317284  0.011448683         2350 
 4551000   0.52296059   -8.0181839    721.51556  0.013211667  0.011444596         2333 
 4552000   0.52629858    -8.013538     721.9339  0.013216423  0.011440511         2215 
 4553000   0.52200102   -8.0118235    720.10881  0.013180116  0.011436433         2280 
 4554000   0.52710683   -8.0029317    720.89094  0.013191534  0.011432351         2199 
 4555000   0.52409258   -7.9890458    720.90317  0.013188862  0.011428274         2317 
 4556000    0.5168127   -8.0141267    720.98794  0.013187517  0.011424199         2251 
 4557000   0.51966446   -8.0041749    721.31987  0.013190693  0.011420128         2247 
 4558000    0.5294917   -8.0087952    722.18418  0.013203601  0.011416056         2265 
 4559000   0.53637267   -8.0054376    720.42983  0.013168638  0.011411986         2180 
 4560000   0.52302788   -8.0218648    720.53584  0.013167687  0.011407914         2298 
 4561000   0.53274217   -8.0244804    721.21077  0.013177132  0.011403852         2276 
 4562000   0.51507596   -7.9908319    720.75873  0.013165986  0.011399784         2302 
 4563000   0.51229454   -8.0242081    719.57377   0.01314146  0.011395719         2202 
 4564000   0.51435705   -8.0108579    720.28731  0.013151609  0.011391654         2248 
 4565000   0.52034702   -8.0373479    719.85979  0.013140924  0.011387587         2283 
 4566000   0.52584497   -8.0234638    720.41095  0.013148105  0.011383526         2304 
 4567000   0.52590094   -8.0071765    720.46043  0.013146128  0.011379468         2256 
 4568000   0.52998934   -8.0210583    719.84766  0.013132072  0.011375416         2291 
 4569000   0.51453937   -8.0093498    721.30356  0.013155752  0.011371363         2228 
 4570000    0.5214096   -8.0207607    720.42429   0.01313684  0.011367313         2263 
 4571000   0.52414341   -8.0220244    720.51104  0.013135547  0.011363264         2252 
 4572000   0.51338115   -8.0207013    719.78854  0.013119505  0.011359219         2278 
 4573000   0.52104967   -8.0164249    720.70901   0.01313341  0.011355174         2341 
 4574000   0.52274593   -8.0072089    720.35599  0.013124107   0.01135113         2291 
 4575000   0.51370473   -8.0267544    721.62998  0.013144444  0.011347089         2369 
 4576000    0.5200375   -8.0211166    720.67163  0.013124119  0.011343047         2279 
 4577000   0.52735318   -8.0194467    721.33985  0.013133418  0.011339005         2290 
 4578000   0.52250475   -8.0056523    719.92229  0.013104745  0.011334968         2379 
 4579000   0.53619509   -8.0234932    720.45265  0.013111535  0.011330931         2299 
 4580000   0.51025908    -8.017832    720.91658  0.013117114  0.011326895         2293 
 4581000   0.52211535   -8.0358014    720.68411  0.013110022  0.011322863         2261 
 4582000   0.52664701   -8.0119675    720.93691  0.013111758  0.011318834         2271 
 4583000   0.51143405   -8.0285899    721.53442  0.013119762  0.011314802         2313 
 4584000   0.52248504    -8.023808    721.07084  0.013108472  0.011310776         2372 
 4585000    0.5097082   -8.0036519    721.42323  0.013112018  0.011306749         2338 
 4586000   0.52028814   -8.0172044    719.42788  0.013072901  0.011302726         2254 
 4587000    0.5080265   -8.0289263    719.67526  0.013074545  0.011298704         2344 
 4588000   0.51316713   -8.0065357    720.14623   0.01308025  0.011294684         2289 
 4589000   0.51923573   -7.9992718    720.17575  0.013077935  0.011290666         2226 
 4590000   0.50757409   -8.0179343    719.96258  0.013071216  0.011286653         2263 
 4591000   0.52231765   -8.0203626    719.88449  0.013066951  0.011282637         2362 
 4592000   0.52912933   -8.0351192    720.76702  0.013080122  0.011278624         2243 
 4593000   0.53258691   -8.0338614    719.87469  0.013061084  0.011274613         2331 
 4594000   0.52244079    -8.041169    720.17307  0.013063653  0.011270604         2252 
 4595000   0.52500115   -8.0341459    720.12751  0.013059984  0.011266597         2334 
 4596000   0.51088392   -7.9993929     721.5974  0.013083794  0.011262594         2284 
 4597000   0.51506675   -8.0104442     721.3476  0.013076419  0.011258593         2355 
 4598000   0.50956861   -8.0227293    720.96108   0.01306657  0.011254594         2310 
 4599000   0.51233376   -8.0155622    719.09072  0.013029838  0.011250599         2315 
 4600000   0.50986805   -8.0103169    721.87441  0.013077435  0.011246604         2229 
 4601000   0.50934687   -8.0285696    719.88762  0.013038608   0.01124261         2360 
 4602000     0.516143   -8.0243947    719.89483  0.013035905  0.011238622         2231 
 4603000   0.52034528   -8.0310888    719.64601  0.013028569  0.011234635         2241 
 4604000   0.52761684   -8.0173332    719.71627   0.01302701  0.011230648         2379 
 4605000   0.51273927   -8.0125837     720.1035  0.013031189   0.01122666         2276 
 4606000   0.51328543   -8.0294559    719.91706  0.013024987  0.011222675         2338 
 4607000   0.51354426   -8.0315984    719.80975  0.013020218  0.011218691         2348 
 4608000   0.51392229   -8.0245287    719.65915  0.013014669  0.011214708         2397 
 4609000   0.51588517   -8.0406978    719.24821  0.013004415  0.011210724         2301 
 4610000   0.50485695   -8.0190417    720.49404  0.013024115  0.011206742         2274 
 4611000   0.50732026   -8.0254394    719.70652  0.013007058  0.011202761         2276 
 4612000   0.51019739   -8.0303826    721.23864  0.013031921   0.01119878         2296 
 4613000    0.5064367   -8.0369575    719.10721  0.012990592  0.011194801         2391 
 4614000   0.50657693   -8.0268312    719.92328  0.013002515  0.011190824         2344 
 4615000   0.50977489   -8.0373788    720.37243  0.013007808  0.011186851         2268 
 4616000   0.51797727   -8.0275403    720.64682  0.013009944  0.011182878         2301 
 4617000   0.50999804   -8.0357499    718.80061  0.012973804  0.011178908         2326 
 4618000   0.51343263   -8.0370884    720.95054   0.01300979  0.011174938         2308 
 4619000   0.51798667   -8.0267701    719.25634  0.012976408  0.011170973         2320 
 4620000   0.51561641   -8.0194628     720.6962  0.012999571  0.011167006         2320 
 4621000   0.50862693   -8.0410197    719.90505   0.01298249   0.01116304         2341 
 4622000   0.50800115   -8.0286974    721.07436  0.013000764  0.011159079         2358 
 4623000   0.51996169   -8.0383834    719.83309  0.012975577  0.011155114         2392 
 4624000   0.50216429   -8.0216099    719.21659   0.01296166  0.011151153         2402 
 4625000   0.51532116   -8.0205116    718.66799  0.012948973  0.011147194         2398 
 4626000   0.50441881   -8.0495472    719.39065  0.012959192  0.011143241         2330 
 4627000   0.50797191    -8.023506    720.87583  0.012983139   0.01113929         2304 
 4628000   0.50812522   -8.0342036    720.80048  0.012978977  0.011135338         2319 
 4629000   0.51425063   -8.0325538    720.54528  0.012971579  0.011131383         2342 
 4630000   0.50704022   -8.0281932    719.30462  0.012946448  0.011127434         2277 
 4631000   0.50593793   -8.0298161    719.64687  0.012949811  0.011123485         2320 
 4632000   0.50867519   -8.0496913    720.84927  0.012968647  0.011119538         2284 
 4633000    0.5282354   -8.0289037    720.04801  0.012951436  0.011115593         2271 
 4634000    0.5020267   -8.0272901    720.57805  0.012958172   0.01111165         2274 
 4635000   0.50216816   -8.0365603    718.95974  0.012926281  0.011107707         2260 
 4636000   0.50288912    -8.048901    718.70768  0.012918962  0.011103768         2314 
 4637000   0.50608225     -8.02571    720.12068  0.012941569   0.01109983         2236 
 4638000   0.51004615   -8.0425162    719.46916  0.012927073  0.011095896         2326 
 4639000   0.50555583     -8.02144    721.19255  0.012955245  0.011091967         2251 
 4640000   0.50961138   -8.0321087     719.5542  0.012923028  0.011088033         2298 
 4641000   0.51938078   -8.0537013    719.82521   0.01292511  0.011084107         2313 
 4642000   0.50599814   -8.0217129    720.08907  0.012927062  0.011080176         2283 
 4643000   0.51510957    -8.036333    718.95925     0.012904  0.011076244         2298 
 4644000   0.50357107   -8.0416824    720.72454  0.012932898   0.01107232         2173 
 4645000   0.50500722   -8.0356008    719.85844  0.012914576  0.011068402         2221 
 4646000   0.50210598   -8.0408937    719.85217  0.012911683  0.011064482         2282 
 4647000   0.51360556   -8.0281273    719.27997  0.012898644   0.01106057         2270 
 4648000   0.51534465   -8.0307562    721.26121   0.01293139  0.011056654         2297 
 4649000   0.51806658   -8.0348818    719.91231  0.012904429  0.011052741         2219 
 4650000   0.50359806   -8.0408316    718.25477  0.012871949   0.01104883         2172 
 4651000   0.50000549    -8.024612    719.35073  0.012888818  0.011044917         2269 
 4652000   0.50528243    -8.040067    720.62262  0.012908832  0.011041011         2303 
 4653000   0.49991298   -8.0450384     719.6934  0.012889415  0.011037102         2259 
 4654000   0.50421838   -8.0416784     720.1415   0.01289467  0.011033196         2286 
 4655000   0.49525081   -8.0147823    718.86551  0.012869057  0.011029291         2221 
 4656000   0.50548579   -8.0354278    719.81178  0.012883229   0.01102539         2294 
 4657000   0.50869297   -8.0172491    718.94223  0.012864903  0.011021495         2214 
 4658000   0.50842345    -8.033696    720.34927  0.012887313  0.011017598         2183 
 4659000   0.51393814   -8.0411034    719.92695  0.012876993  0.011013702         2320 
 4660000    0.5024111   -8.0269027    719.42611  0.012865274   0.01100981         2235 
 4661000   0.50130522   -8.0509444    719.55468  0.012864812  0.011005919         2232 
 4662000   0.50283232   -8.0333528     720.0902  0.012871625  0.011002032         2244 
 4663000   0.50603649   -8.0212686    720.89969  0.012883331  0.010998147         2166 
 4664000   0.50942794   -8.0425893    719.97549  0.012864056  0.010994264         2278 
 4665000   0.50091079   -8.0290395    718.75256  0.012839453   0.01099038         2247 
 4666000   0.50871806   -8.0325558     719.1406  0.012843631  0.010986497         2202 
 4667000    0.5027813   -8.0313759    720.95962  0.012873359  0.010982613         2290 
 4668000   0.50286175   -8.0369045    719.57672  0.012845914  0.010978731         2289 
 4669000   0.50448942   -8.0405522    720.09728  0.012852454  0.010974853         2255 
 4670000    0.5077087   -8.0514076    718.15696  0.012815078  0.010970976         2331 
 4671000   0.49203416   -8.0473383    720.37368  0.012851882    0.0109671         2305 
 4672000   0.51098097   -8.0329039    718.70607  0.012819386  0.010963226         2321 
 4673000   0.50348168   -8.0537821    719.01505  0.012822153  0.010959353         2272 
 4674000   0.50997548   -8.0368896    720.53214  0.012846458  0.010955481         2280 
 4675000    0.5024506    -8.052131    718.98529  0.012816137  0.010951608         2293 
 4676000   0.50509895   -8.0505583    720.02664  0.012831955  0.010947739         2339 
 4677000    0.5055844   -8.0480602    720.82217  0.012843385  0.010943875         2294 
 4678000   0.49559774   -8.0415135    719.26999   0.01281299  0.010940011         2237 
 4679000   0.50105172    -8.045228    719.35965  0.012811848  0.010936151         2242 
 4680000   0.49337418   -8.0419169    719.88581  0.012818479  0.010932287         2207 
 4681000   0.51091672   -8.0305656    718.89067  0.012798025  0.010928426         2285 
 4682000   0.50091686   -8.0505925    720.52086  0.012824307  0.010924568         2282 
 4683000   0.51012921   -8.0557068    719.43233  0.012802198  0.010920712         2327 
 4684000   0.50554419   -8.0668316    718.79249  0.012788082  0.010916855         2257 
 4685000   0.50587297   -8.0518729    718.37569  0.012777938  0.010913003         2258 
 4686000   0.51507422   -8.0433962    719.86083  0.012801622  0.010909155         2312 
 4687000   0.50132236   -8.0543667    718.53272  0.012775278  0.010905304         2309 
 4688000   0.49135793   -8.0574629    719.06131  0.012781949  0.010901455         2356 
 4689000   0.50268702   -8.0602343    718.81035  0.012774763  0.010897606         2309 
 4690000   0.49811375   -8.0435951    719.72693  0.012788325  0.010893761         2306 
 4691000    0.4912368   -8.0570339    718.27694   0.01275984  0.010889919         2314 
 4692000   0.49314573   -8.0578211    718.18562  0.012755499  0.010886078         2316 
 4693000   0.49551659   -8.0474535    718.28138  0.012754481   0.01088224         2276 
 4694000   0.50206279   -8.0439392    718.20915  0.012750482  0.010878399         2307 
 4695000   0.51314553   -8.0449119    717.74418  0.012739513   0.01087456         2290 
 4696000   0.50574033   -8.0503229    719.69518  0.012771422  0.010870725         2268 
 4697000   0.50588527   -8.0507723    718.78167  0.012752496  0.010866889         2326 
 4698000   0.50303507   -8.0746786    718.20663  0.012739581  0.010863059         2281 
 4699000   0.50066734   -8.0476565     719.6942  0.012763251  0.010859225         2313 
 4700000    0.4989984   -8.0653372    718.97341  0.012747755  0.010855395         2357 
 4701000    0.5015619   -8.0683692     718.1601  0.012730626  0.010851568         2264 
 4702000   0.49881145   -8.0700959    718.71573  0.012737766  0.010847743         2394 
 4703000   0.49912804    -8.048524    718.39482  0.012729372  0.010843922         2260 
 4704000   0.50496422   -8.0317895    720.96897  0.012772268  0.010840103         2299 
 4705000   0.49307794   -8.0446542    718.60274  0.012727643  0.010836282         2290 
 4706000    0.5032949   -8.0552624    718.22102  0.012718179  0.010832457         2332 
 4707000   0.48995345   -8.0634862    717.41227  0.012701159  0.010828635         2322 
 4708000   0.49977496   -8.0416583    719.62028  0.012737544  0.010824817         2266 
 4709000   0.49452885   -8.0635302    718.68009  0.012718201  0.010821003         2456 
 4710000    0.4994438    -8.050054    717.92541  0.012702148  0.010817188         2365 
 4711000   0.50148253   -8.0415195    718.91874  0.012717023  0.010813378         2324 
 4712000   0.50789531   -8.0659657    720.11329   0.01273545  0.010809568         2334 
 4713000   0.49571809   -8.0442455    718.80816  0.012709671  0.010805757         2321 
 4714000   0.49930869   -8.0533948    719.96012  0.012727339   0.01080195         2341 
 4715000   0.49006545   -8.0636508    717.32032  0.012677984  0.010798145         2301 
 4716000   0.48860688   -8.0503239    718.66144  0.012698993  0.010794343         2274 
 4717000   0.49702933    -8.055957    718.49838  0.012693421  0.010790542         2285 
 4718000   0.48634237   -8.0445276    719.50495  0.012708509  0.010786741         2353 
 4719000   0.50039372   -8.0565426    719.66905  0.012708714  0.010782943         2367 
 4720000   0.49146121   -8.0457329    719.44021  0.012701981  0.010779151         2277 
 4721000   0.50650124   -8.0660596    717.96766  0.012673298  0.010775357         2214 
 4722000   0.48894459   -8.0693763    717.96593  0.012670583  0.010771565         2383 
 4723000   0.49476454   -8.0580407     717.7887  0.012664773  0.010767772         2273 
 4724000    0.4988892   -8.0507298    718.72918  0.012678683  0.010763985         2336 
 4725000   0.48510285   -8.0526031    719.03493  0.012681392  0.010760195         2320 
 4726000   0.50444393   -8.0482239    720.26378  0.012700377  0.010756409         2295 
 4727000     0.489555   -8.0452417    718.32152   0.01266345  0.010752627         2337 
 4728000   0.49917714   -8.0536057    719.85702  0.012687835  0.010748848         2275 
 4729000    0.4977823   -8.0770164    718.53101  0.012661786  0.010745067         2346 
 4730000    0.4926459    -8.049596    719.20708   0.01267102   0.01074129         2363 
 4731000   0.48766906   -8.0645418    718.55505  0.012656856  0.010737511         2284 
 4732000   0.49758836   -8.0666169    719.76564  0.012675501  0.010733739         2283 
 4733000   0.49825478   -8.0623627    718.73915  0.012654749  0.010729965         2255 
 4734000   0.49587644    -8.064515    718.34017  0.012645053  0.010726194         2257 
 4735000   0.50023098   -8.0714617     717.7118  0.012631324  0.010722427         2275 
 4736000    0.5060626   -8.0579031    718.98745  0.012651102  0.010718661         2249 
 4737000   0.49587894   -8.0496982    718.42578  0.012638551  0.010714894         2242 
 4738000   0.48793627   -8.0631865     718.8507  0.012643357  0.010711132         2268 
 4739000   0.48522075   -8.0580327    718.69716  0.012637989  0.010707373         2314 
 4740000   0.49437068   -8.0525441     720.0889  0.012659791  0.010703608         2286 
 4741000    0.4956457   -8.0669324     718.5649  0.012630333  0.010699848         2330 
 4742000   0.47564482   -8.0701777    717.86561   0.01261538  0.010696089         2315 
 4743000   0.49480328   -8.0438421    719.34976  0.012638797   0.01069233         2348 
 4744000   0.49671513   -8.0622474    719.14189  0.012632481  0.010688574         2289 
 4745000   0.47896377   -8.0621367     718.5926  0.012620172  0.010684824         2275 
 4746000   0.49847809   -8.0619448    718.64221  0.012618384  0.010681071         2301 
 4747000   0.48507133   -8.0478799    719.34221  0.012628014   0.01067732         2248 
 4748000   0.49462501   -8.0571378    718.66246  0.012613424  0.010673571         2366 
 4749000   0.50682592   -8.0595826    718.58246  0.012609364  0.010669826         2245 
 4750000   0.49400953   -8.0510462    719.18369  0.012617258  0.010666084         2280 
 4751000   0.48500335   -8.0520506    719.61357  0.012622142   0.01066234         2392 
 4752000   0.48937867   -8.0599944    717.95686  0.012590433    0.0106586         2358 
 4753000   0.48375332   -8.0564366     719.0118   0.01260628  0.010654864         2286 
 4754000   0.48518222   -8.0546724    718.33283  0.012591727  0.010651125         2288 
 4755000    0.5009992   -8.0723087    718.61957  0.012594104  0.010647389         2350 
 4756000   0.50242989    -8.046593     718.8354  0.012595238  0.010643657         2278 
 4757000   0.49950959   -8.0619992    719.00805  0.012595614  0.010639927         2314 
 4758000   0.50298685   -8.0682172     717.8752  0.012573126  0.010636198         2300 
 4759000   0.49640453   -8.0736487    718.78612  0.012586435  0.010632469         2325 
 4760000   0.49576704   -8.0684153    718.86257  0.012585129  0.010628741         2302 
 4761000   0.47983993   -8.0658031    717.41696  0.012557183  0.010625015         2318 
 4762000   0.49708217   -8.0606271    719.39273  0.012589121  0.010621291         2342 
 4763000   0.48697629   -8.0786752    718.22198  0.012565995   0.01061757         2286 
 4764000   0.48681754   -8.0681051    718.45989  0.012567518  0.010613851         2338 
 4765000    0.4963753   -8.0667916    717.13806  0.012541764  0.010610132         2419 
 4766000   0.48414132   -8.0691589      717.878   0.01255207  0.010606417         2298 
 4767000   0.48929684   -8.0793106     718.1596   0.01255436  0.010602701         2327 
 4768000   0.48110807   -8.0664655    718.95586  0.012565644  0.010598988         2181 
 4769000   0.48110992   -8.0835368    718.47532  0.012554612  0.010595278         2328 
 4770000   0.47664931   -8.0765243    718.70001  0.012555905  0.010591563         2278 
 4771000   0.49149719   -8.0628947    718.54421  0.012550552  0.010587853         2286 
 4772000   0.49442609   -8.0717483    718.08865  0.012539967  0.010584146         2264 
 4773000   0.49364226   -8.0624328    717.58409   0.01252853  0.010580439         2315 
 4774000   0.49669108   -8.0594719    719.13345  0.012552951  0.010576739         2311 
 4775000   0.48074745   -8.0554998    718.59011   0.01254084  0.010573039         2350 
 4776000    0.4730621    -8.081535    718.25916  0.012532439  0.010569339         2284 
 4777000   0.48972609   -8.0556021    719.42768    0.0125502   0.01056564         2297 
 4778000   0.47400846   -8.0700694    718.41895   0.01252998  0.010561946         2330 
 4779000   0.49455801   -8.0823009    718.21481  0.012523799  0.010558251         2288 
 4780000   0.49694365   -8.0769079    718.34186  0.012523394  0.010554556         2301 
 4781000   0.48044941   -8.0637227    717.88533  0.012512817  0.010550862         2344 
 4782000   0.47977888   -8.0637167     718.4408   0.01251988  0.010547171         2313 
 4783000   0.47459448    -8.066098     718.8994  0.012525253  0.010543482         2297 
 4784000   0.49332787   -8.0795514      718.673  0.012518691  0.010539794         2349 
 4785000   0.48554327   -8.0897471    717.81813  0.012501186  0.010536103         2317 
 4786000   0.49399195   -8.0619133    718.24544  0.012506015  0.010532415         2244 
 4787000   0.48432576   -8.0800933    717.83604  0.012496275  0.010528732         2339 
 4788000   0.48508576   -8.0686726    717.69054  0.012491133   0.01052505         2218 
 4789000   0.47904232   -8.0836507    718.18065  0.012497053  0.010521367         2295 
 4790000   0.47283662    -8.070994    718.31105  0.012496713  0.010517687         2336 
 4791000   0.49094511   -8.0741318    718.24317  0.012492924  0.010514012         2276 
 4792000   0.48732624   -8.0848898     718.3825   0.01249274  0.010510334         2267 
 4793000   0.49408173   -8.0832997    718.18533  0.012486705  0.010506662         2323 
 4794000   0.48088684   -8.0757089      717.539  0.012472865  0.010502989         2289 
 4795000   0.46739809   -8.0747381    718.00872  0.012478427  0.010499316         2275 
 4796000   0.49536725   -8.0675385    717.23019  0.012462298  0.010495649         2324 
 4797000   0.48401237   -8.0656284    718.10872  0.012474962  0.010491983         2321 
 4798000   0.47424381   -8.0611385     719.1821  0.012491005  0.010488319         2302 
 4799000   0.49187192   -8.0816525    717.45645  0.012458437  0.010484655         2377 
 4800000    0.4805454   -8.0847286    717.16466  0.012450775  0.010480991         2368 
 4801000    0.4827175   -8.0660606    719.13867  0.012482446  0.010477331         2343 
 4802000   0.48379284   -8.0653273    718.46486  0.012468153   0.01047367         2392 
 4803000   0.47844437   -8.0786804    719.42827  0.012482273  0.010470014         2332 
 4804000   0.47575423    -8.089451    718.53724  0.012464218  0.010466357         2353 
 4805000   0.48330191   -8.0790912    717.78712  0.012448615  0.010462699         2367 
 4806000   0.47673991   -8.0804114    718.51782  0.012458694  0.010459046         2324 
 4807000     0.485176   -8.0882466    718.81746  0.012461297  0.010455396         2316 
 4808000   0.48189189   -8.0753827    717.09884  0.012428918  0.010451746         2337 
 4809000   0.47137628   -8.0816119    717.73743  0.012437399  0.010448094         2297 
 4810000   0.46813102     -8.07989     718.2167  0.012443117  0.010444445         2357 
 4811000   0.49136244   -8.0767043    717.38708   0.01242616  0.010440799         2333 
 4812000   0.47824009   -8.0804414    717.70509  0.012429085  0.010437152         2316 
 4813000   0.48112172   -8.0793489    717.61606  0.012424961  0.010433508         2339 
 4814000   0.48887836   -8.0752896    717.90172  0.012427325  0.010429865         2437 
 4815000   0.48587891   -8.0843334    718.01662  0.012426733  0.010426226         2280 
 4816000   0.48459449    -8.079983    716.60452  0.012399718  0.010422589         2326 
 4817000   0.47420132   -8.0811481    719.18241  0.012441741  0.010418954         2270 
 4818000   0.48650725   -8.0778706    717.97908  0.012418346  0.010415318         2308 
 4819000   0.47690169   -8.0761647    718.36578  0.012422456  0.010411682         2286 
 4820000   0.47961104   -8.0782957    717.80275  0.012410144   0.01040805         2328 
 4821000     0.484082   -8.0634287    717.20392  0.012397219  0.010404417         2240 
 4822000   0.48089107      -8.0821    716.74118  0.012386651  0.010400784         2374 
 4823000   0.48085068   -8.0803801    718.30585  0.012411118  0.010397158         2278 
 4824000   0.49426581   -8.0906764    718.14525  0.012405771  0.010393532         2322 
 4825000   0.47622826   -8.0737757    718.14207  0.012403145  0.010389907         2281 
 4826000   0.47589883   -8.0855985     717.4073  0.012387887  0.010386281         2247 
 4827000   0.48090482   -8.0744368    717.78119  0.012391775  0.010382661         2301 
 4828000   0.48789552   -8.0840544     717.0055   0.01237582  0.010379039         2261 
 4829000   0.47038467   -8.0943071    717.22616  0.012377065   0.01037542         2416 
 4830000   0.48731148   -8.0836949    716.52614  0.012362425  0.010371806         2296 
 4831000   0.47455366   -8.0816873    717.88489  0.012383304  0.010368194         2297 
 4832000   0.47029345   -8.0753053    716.21986  0.012352026  0.010364582         2318 
 4833000   0.47145836   -8.0757087    718.12592  0.012382335  0.010360971         2305 
 4834000   0.47845252   -8.0868467    719.34753  0.012400833  0.010357361         2276 
 4835000   0.47842469   -8.0919961    717.32735   0.01236345  0.010353753         2350 
 4836000   0.47550383   -8.0763365    717.61173  0.012365794  0.010350148         2348 
 4837000    0.4708305   -8.0922294    717.61373  0.012363271  0.010346544         2383 
 4838000   0.47943684   -8.0848081    718.52106  0.012376345  0.010342944         2320 
 4839000    0.4737436   -8.1022853    717.03298   0.01234816  0.010339346         2355 
 4840000   0.47731751   -8.0887955    717.88965  0.012360359  0.010335747         2314 
 4841000   0.47930743   -8.0971987    717.52556  0.012351538  0.010332149         2364 
 4842000   0.47279807    -8.084627    718.55374  0.012366683  0.010328555         2326 
 4843000   0.47268508   -8.0915741    718.61032  0.012365103  0.010324962         2355 
 4844000   0.48125706   -8.0780057    717.02801  0.012335329  0.010321367         2333 
 4845000   0.47764311   -8.0841244    717.60119  0.012342642  0.010317774         2275 
 4846000   0.47385933   -8.0934029    718.08944  0.012348491  0.010314188         2296 
 4847000   0.48894912   -8.0895457     717.2152  0.012330913    0.0103106         2310 
 4848000   0.48070706   -8.0792966    717.30142  0.012329851  0.010307015         2268 
 4849000   0.47484824   -8.0818051    718.41405   0.01234643   0.01030343         2249 
 4850000   0.47359141   -8.1035995    718.30828  0.012342067  0.010299848         2410 
 4851000   0.48688025   -8.0896024    716.93928  0.012316005  0.010296263         2321 
 4852000   0.47358586   -8.0855405    717.70313  0.012326586  0.010292685         2332 
 4853000   0.47637079   -8.0906602    717.75326  0.012324907  0.010289105         2332 
 4854000   0.47857482   -8.0960978    718.27286  0.012331288  0.010285527         2331 
 4855000   0.48105786   -8.1083437    719.24084  0.012345363  0.010281953         2287 
 4856000   0.47264826   -8.0941004    717.45354  0.012312149  0.010278377         2226 
 4857000   0.46591318   -8.0933546     717.7004  0.012313849  0.010274804         2305 
 4858000   0.48107119    -8.093412     717.9617  0.012315797  0.010271232         2402 
 4859000   0.46702822   -8.0910266    718.98456  0.012330805  0.010267664         2320 
 4860000   0.48786646   -8.1056366    717.31446  0.012299631  0.010264092         2319 
 4861000   0.47489901   -8.0867878    717.29597  0.012296783  0.010260527         2352 
 4862000   0.48149388   -8.0821995    716.47099  0.012280114  0.010256965         2352 
 4863000   0.47339738    -8.079109    716.84546  0.012284006  0.010253402         2321 
 4864000   0.48316303   -8.0819846     717.5703  0.012293899  0.010249845         2302 
 4865000   0.47092709   -8.0901798    717.23012  0.012285545  0.010246285         2365 
 4866000   0.47292074   -8.0923283      716.965   0.01227848  0.010242731         2247 
 4867000   0.46679632   -8.0843632    717.74357  0.012289288  0.010239177         2347 
 4868000   0.45568365   -8.0964965    718.14986  0.012293718  0.010235621         2296 
 4869000   0.46958696   -8.1058023    718.30061  0.012293774  0.010232069         2329 
 4870000   0.46626595   -8.0994177    717.85067   0.01228355  0.010228517         2353 
 4871000   0.46879183   -8.0945222     717.0015  0.012266501  0.010224966         2386 
 4872000   0.47444131   -8.1004988    716.46943  0.012254882  0.010221418         2349 
 4873000   0.46673546   -8.0997318     717.6599  0.012272725  0.010217869         2423 
 4874000   0.47365923   -8.0764672    716.98299  0.012258634  0.010214324         2361 
 4875000   0.46080985   -8.0902239    717.34993  0.012262392   0.01021078         2318 
 4876000   0.48463275   -8.1027962    717.47871  0.012262078  0.010207237         2323 
 4877000   0.47137135   -8.1031789    716.34134   0.01224013  0.010203695         2369 
 4878000   0.47756437   -8.1024921    717.57277  0.012258657  0.010200153         2350 
 4879000   0.46500956   -8.0908931    717.24138  0.012250485  0.010196614         2431 
 4880000   0.47155693   -8.0944367    715.94219  0.012225789  0.010193077         2346 
 4881000   0.47336165    -8.100167    717.19014   0.01224459  0.010189542         2375 
 4882000    0.4669794    -8.089344    716.60008   0.01223201  0.010186011         2326 
 4883000   0.46727497   -8.0948284    717.56429   0.01224596  0.010182482         2405 
 4884000   0.47231585   -8.1080619    717.70038  0.012245775  0.010178951         2400 
 4885000   0.46369886   -8.0856475    717.19237  0.012234602  0.010175425         2361 
 4886000   0.47958498   -8.0822208    716.63042  0.012222514  0.010171901         2376 
 4887000   0.46305723   -8.0920504    716.25798  0.012213662   0.01016838         2390 
 4888000   0.46985094   -8.1068959    718.61254  0.012251305  0.010164858         2378 
 4889000   0.46001505   -8.0948999    716.87081  0.012219111  0.010161337         2423 
 4890000   0.47965682   -8.1080075    718.13437  0.012238145  0.010157819         2357 
 4891000    0.4653733   -8.0829828     716.3598  0.012205408  0.010154301         2347 
 4892000   0.48010314   -8.0956663    717.97568  0.012230439  0.010150785         2354 
 4893000   0.47028574   -8.0795555    717.84581  0.012225727  0.010147271         2387 
 4894000   0.47196912   -8.1103792    716.86022  0.012206447  0.010143759         2357 
 4895000     0.464285   -8.0770809    717.86499  0.012221059  0.010140249         2331 
 4896000   0.47314812   -8.0929475    717.64968  0.012214898  0.010136739         2383 
 4897000   0.46530001   -8.0933932    716.91681  0.012199932   0.01013323         2353 
 4898000   0.47343423   -8.1032233    717.18035  0.012201925  0.010129725         2337 
 4899000   0.46509936   -8.0969476    718.85479  0.012227917  0.010126217         2326 
 4900000   0.46338259   -8.0922743    716.51039  0.012185551  0.010122713         2286 
 4901000   0.47105588   -8.1073398    717.30853  0.012196635  0.010119212         2364 
 4902000   0.46749656   -8.1097871    717.32206  0.012194377  0.010115709         2333 
 4903000   0.47853577   -8.1092058    716.74182  0.012182028   0.01011221         2342 
 4904000   0.46085148   -8.0936297    717.33927  0.012189697   0.01010871         2330 
 4905000   0.46187974   -8.0999896    717.01553  0.012181711  0.010105217         2289 
 4906000   0.45140228   -8.1083646    716.55605  0.012171424  0.010101723         2374 
 4907000   0.46790915   -8.1066869    716.42019  0.012166636  0.010098229         2368 
 4908000   0.46324248   -8.0930295    716.99283   0.01217388  0.010094736         2385 
 4909000   0.46272789   -8.0951149    717.09331  0.012173106  0.010091246         2378 
 4910000   0.47088543   -8.1143149    717.69888  0.012180904  0.010087756         2394 
 4911000    0.4610953   -8.1205116    716.42155  0.012156749  0.010084269         2364 
 4912000   0.46053886   -8.1041546    717.54379  0.012173313  0.010080784         2339 
 4913000   0.46642768   -8.1108782    716.04232  0.012145368  0.010077298         2371 
 4914000     0.473773   -8.1081307      716.424  0.012149369  0.010073819         2331 
 4915000   0.46488647   -8.1059045    716.87809  0.012154596  0.010070336         2354 
 4916000   0.45877732    -8.096756     718.3047  0.012176307  0.010066857         2305 
 4917000   0.45661631    -8.102446    716.31614  0.012140129  0.010063381         2299 
 4918000   0.46000222   -8.1076282     717.1951  0.012152554  0.010059906         2322 
 4919000   0.44453952   -8.1101804    715.51556   0.01212163  0.010056429         2393 
 4920000   0.47089597   -8.1156169    715.79334  0.012123871  0.010052956         2346 
 4921000   0.46617302   -8.1036889    716.98839  0.012141644  0.010049483         2287 
 4922000   0.45597224   -8.1049388     717.2127  0.012142975  0.010046016         2339 
 4923000   0.46174403   -8.0970568    716.43671  0.012127373  0.010042551         2269 
 4924000    0.4605631   -8.1068429    716.35863  0.012123589  0.010039083         2352 
 4925000   0.47518545   -8.1095445    717.95485  0.012148136  0.010035617         2353 
 4926000   0.46173854   -8.1123899    717.42897  0.012136774  0.010032155         2314 
 4927000   0.45918047   -8.1190239    717.77385  0.012140144  0.010028694         2350 
 4928000   0.46184698   -8.1015828       716.08  0.012109037   0.01002523         2384 
 4929000   0.46208163    -8.094731    716.36843  0.012111457  0.010021771         2294 
 4930000   0.47734573   -8.1148344     716.9718  0.012119199  0.010018311         2346 
 4931000   0.46799371   -8.1111371    716.55582  0.012109711  0.010014852         2336 
 4932000   0.47076232    -8.114681    716.38883  0.012104434  0.010011393         2370 
 4933000   0.46161732   -8.1159526    716.68698  0.012107017  0.010007936         2370 
 4934000   0.45904675   -8.1107275    716.50682   0.01210152  0.010004483         2362 
 4935000   0.46488791   -8.1124125    716.53185  0.012099491  0.010001032         2380 
 4936000   0.45495877   -8.1077252     716.2336  0.012092004 0.0099975856         2320 
 4937000   0.47393273   -8.1127301    716.39428  0.012092267 0.0099941397         2371 
 4938000   0.44941483   -8.1115104    716.55147  0.012092471  0.009990693         2297 
 4939000   0.45774945   -8.1201537    717.61565  0.012107978 0.0099872466         2293 
 4940000   0.46128543   -8.1154115    715.21127  0.012064967 0.0099838058         2339 
 4941000   0.46990349   -8.1204144    717.79059  0.012106028 0.0099803617         2337 
 4942000   0.47342072   -8.1155489    716.81061  0.012087053 0.0099769229         2288 
 4943000   0.44561543    -8.098609    717.87449  0.012102544 0.0099734846         2358 
 4944000   0.46513466    -8.115621    717.15972  0.012088048 0.0099700478         2372 
 4945000   0.46792678   -8.1130058    717.73336  0.012095271 0.0099666108         2366 
 4946000   0.46269433    -8.112918     717.4571  0.012088171 0.0099631783         2313 
 4947000   0.47326749   -8.1234815    717.21182  0.012081595 0.0099597476         2300 
 4948000    0.4584625   -8.1256348    716.87735   0.01207352  0.009956318         2267 
 4949000   0.47831446   -8.0951803     716.7015   0.01206812 0.0099528881         2344 
 4950000   0.45019998    -8.103662    716.72282  0.012066041 0.0099494647         2284 
 4951000   0.46430748   -8.1058447    716.71385  0.012063453 0.0099460399         2315 
 4952000   0.46030162   -8.1051919    716.78539   0.01206222 0.0099426186         2283 
 4953000   0.45955505   -8.1006851    717.25789  0.012067735 0.0099391967         2264 
 4954000   0.46648697      -8.1061    716.83089  0.012058116 0.0099357767         2391 
 4955000   0.45900752   -8.1082115    715.83159  0.012038876 0.0099323591         2298 
 4956000    0.4571668   -8.1009565    716.59308  0.012049251 0.0099289426         2314 
 4957000   0.45464769    -8.106664    717.81528  0.012067367 0.0099255268         2243 
 4958000   0.46127396   -8.1142414    716.39576  0.012041074 0.0099221145         2311 
 4959000   0.45431714    -8.110689    716.57929   0.01204173 0.0099187028         2421 
 4960000   0.45589609   -8.1236797    716.68955  0.012041155 0.0099152893         2327 
 4961000   0.44438775   -8.1294985    716.84834  0.012041395 0.0099118786         2312 
 4962000   0.45482105   -8.1210589    715.35976  0.012013969  0.009908468         2263 
 4963000   0.45164181   -8.1346296    716.14792  0.012024782 0.0099050617         2319 
 4964000   0.45967629   -8.0939738    716.16897  0.012022713 0.0099016565         2311 
 4965000   0.45790838   -8.1192661     715.5596  0.012010064 0.0098982534         2322 
 4966000   0.44846994   -8.1148591    715.66107  0.012009348 0.0098948506         2308 
 4967000   0.45414147   -8.1071577    715.90958    0.0120111 0.0098914476         2343 
 4968000   0.45599905   -8.1144989     715.8119  0.012007043 0.0098880484         2317 
 4969000    0.4524887   -8.1176135    717.66639  0.012035728 0.0098846515         2298 
 4970000    0.4608903   -8.1172402    715.91927  0.012004012 0.0098812538         2399 
 4971000   0.46362544   -8.1093751    717.37519  0.012026004 0.0098778615         2286 
 4972000    0.4643448   -8.1234404     715.4343  0.011991055 0.0098744702         2297 
 4973000   0.45305444   -8.1106943    715.52487  0.011990161  0.009871081         2346 
 4974000   0.46291031   -8.1133686    716.20178  0.011999092 0.0098676907         2322 
 4975000   0.45964603   -8.1153028    716.96196  0.012009413 0.0098643022         2382 
 4976000   0.45042524   -8.1213209    717.44647  0.012015114 0.0098609143         2348 
 4977000   0.44149082   -8.1030727     716.4158  0.011995442 0.0098575273         2367 
 4978000   0.45560363   -8.1240716    715.89021  0.011984234 0.0098541422         2391 
 4979000    0.4398727   -8.1298738    716.76976  0.011996548 0.0098507588         2333 
 4980000    0.4555854   -8.1206001    716.80819  0.011994782 0.0098473777         2327 
 4981000   0.45531491   -8.1158926    716.34809  0.011984677     0.009844         2339 
 4982000   0.45473011   -8.1264495    716.59143  0.011986341  0.009840623         2391 
 4983000   0.45371367   -8.1190031    716.26124  0.011978414 0.0098372437         2338 
 4984000   0.45086625   -8.1200615    715.87293  0.011969518 0.0098338693         2381 
 4985000   0.45545894   -8.1073761    715.82086  0.011966246 0.0098304961         2356 
 4986000   0.44896104   -8.1295033    717.08309  0.011984943 0.0098271213         2329 
 4987000   0.45064903   -8.1218321    716.05792  0.011965409 0.0098237492         2380 
 4988000   0.45091637   -8.1258073    715.96589  0.011961472 0.0098203786         2334 
 4989000   0.45937432   -8.1185751    715.46644  0.011950732 0.0098170101         2393 
 4990000   0.45953082   -8.1264358     716.3404  0.011962932 0.0098136423         2367 
 4991000   0.45449927    -8.113326    716.39816    0.0119615 0.0098102773         2340 
 4992000   0.45522702   -8.1224704    717.31316  0.011974378 0.0098069159         2315 
 4993000   0.44983354   -8.1339758    715.64942  0.011944212 0.0098035494         2316 
 4994000   0.45348579   -8.1296127    715.15477  0.011933566 0.0098001882         2390 
 4995000   0.45105226   -8.1162124    714.97722  0.011928215 0.0097968287         2379 
 4996000   0.45587794    -8.124523    716.17677  0.011945836 0.0097934755         2364 
 4997000   0.45927361   -8.1216064    716.28026  0.011945171  0.009790116         2427 
 4998000   0.46298063    -8.102577    716.22149  0.011941802 0.0097867619         2345 
 4999000   0.43944355   -8.1174592    716.20162  0.011939081 0.0097834129         2405 
 5000000   0.45222385   -8.1153041    715.69136  0.011928189 0.0097800622         2336 
 5001000   0.45511505   -8.1340558    716.62799  0.011941412  0.009776713         2383 
 5002000   0.44435271   -8.1188049    716.74375  0.011940953  0.009773363         2346 
 5003000   0.43916364   -8.1269839    717.45055  0.011950339 0.0097700173         2353 
 5004000   0.44621868    -8.128786    716.62505  0.011934203 0.0097666686         2373 
 5005000   0.44651767   -8.1346695    715.82336  0.011918471 0.0097633251         2346 
 5006000   0.45626522   -8.1332907    716.87834  0.011933652 0.0097599807         2349 
 5007000   0.44613888   -8.1401625    716.77326   0.01192952 0.0097566395         2362 
 5008000    0.4510674   -8.1264069    715.61961  0.011907941 0.0097532997         2356 
 5009000   0.45358547    -8.144382    717.03908  0.011929179 0.0097499608         2325 
 5010000   0.45341498    -8.111283    716.01969  0.011909842 0.0097466236         2317 
 5011000   0.45628839   -8.1222845    716.20867  0.011910608 0.0097432889         2263 
 5012000   0.45943464    -8.126823      715.295   0.01189304 0.0097399537         2390 
Loop time of 13099.6 on 48 procs for 5000000 steps with 4000 atoms

Performance: 65956.419 tau/day, 381.692 timesteps/s
99.4% CPU use with 48 MPI tasks x no OpenMP threads

MPI task timing breakdown:
Section |  min time  |  avg time  |  max time  |%varavg| %total
---------------------------------------------------------------
Pair    | 992.68     | 1065.6     | 1152.1     | 127.0 |  8.13
Neigh   | 91.797     | 95.424     | 99.665     |  20.3 |  0.73
Comm    | 831.17     | 921.66     | 996.62     | 137.4 |  7.04
Output  | 21.009     | 21.017     | 21.106     |   0.4 |  0.16
Modify  | 10844      | 10877      | 10905      |  12.6 | 83.03
Other   |            | 119        |            |       |  0.91

Nlocal:        83.3333 ave          91 max          77 min
Histogram: 2 5 8 5 7 9 5 4 1 2
Nghost:        2443.52 ave        2457 max        2428 min
Histogram: 2 1 6 4 9 9 4 4 5 4
Neighs:        17015.3 ave       19929 max       14629 min
Histogram: 3 3 9 7 6 9 4 1 4 2
FullNghs:      34030.5 ave       37530 max       31281 min
Histogram: 3 4 4 11 8 6 5 4 1 2

Total # of neighbors = 1633465
Ave neighs/atom = 408.36625
Neighbor list builds = 266828
Dangerous builds = 0

#clear
#
#next RN
#
#jump SELF
Total wall time: 3:38:23
