
units lj                  # Use reduced LJ style units
atom_style atomic         # Uncharged point particles
atom_modify map hash      # Needed for indexing of clusters etc
                          # Used to be able to find where atoms are in relation to each other.

lattice fcc 1.0 spacing 1 1 1
Lattice spacing in x,y,z = 1.5874011 1.5874011 1.5874011
region box block 0 10 0 10 0 10 units lattice
create_box 2 box
Created orthogonal box = (0.0000000 0.0000000 0.0000000) to (15.874011 15.874011 15.874011)
  3 by 4 by 4 MPI processor grid
create_atoms 1 box
Created 4000 atoms
  using lattice units in orthogonal box = (0.0000000 0.0000000 0.0000000) to (15.874011 15.874011 15.874011)
  create_atoms CPU = 0.002 seconds
set type 1 type/fraction 2 0.76 78393
Setting atom values ...
  3028 settings made for type/fraction
mass 1 1.0
mass 2 1.0
pair_style lj/cut  3.5
pair_modify tail  yes
pair_coeff 1  1  1.0  1.0   # Intearaction between 1 and 1 set with epsilon = 1 and sigma = 1
pair_coeff 1  2  1.5  0.8
pair_coeff 2  2  0.5  0.88

write_data data.0
System init for write_data ...
Neighbor list info ...
  update every 1 steps, delay 10 steps, check yes
  max neighbors/atom: 2000, page size: 100000
  master list distance cutoff = 3.8
  ghost atom cutoff = 3.8
  binsize = 1.9, bins = 9 9 9
  1 neighbor lists, perpetual/occasional/extra = 1 0 0
  (1) pair lj/cut, perpetual
      attributes: half, newton on
      pair build: half/bin/atomonly/newton
      stencil: half/bin/3d
      bin: standard
WARNING: Not all mixed pair coeffs generated from mixing. Use write_data with 'pair ij' option to store all pair coeffs. (../write_data.cpp:312)


#############################
#   M E L T   S Y S T E M   #
#############################

velocity all create 2.4 8172548 mom yes dist gaussian # Assign velocities
                                                    # Temperature 2.4, random number seed, zero linear momentum
                                                                                # Gaussian distribution

timestep 0.002   # simulation timestep
thermo 1000       # output thermodynamic data every 1000 steps bf 100

# Define a fix  in this case with index 1 applied to all
# particles in the simulation. This fix is for simulations
# in the anisotropic NPT ensemble. Note that we use the MTK
# correction.
fix 1 all npt temp 2.4 2.4 0.1 iso 5.68 5.68 0.5 mtk yes tchain 5 pchain 5 # Use NPT ensemble
                                                                         # Set temperature and pressure and damping
                                                                         # Numbers of thermostats in chain and in barostat
run 10000          # run for 10000 steps
Per MPI rank memory allocation (min/avg/max) = 3.642 | 3.644 | 3.648 Mbytes
Step Temp E_pair E_mol TotEng Press Volume 
       0          2.4   -3.9031684            0  -0.30406845   -3.4881309         4000 
    1000     2.398242   -3.4056729            0   0.19079069    5.6114687    3726.3526 
    2000    2.3908015    -3.365053            0    0.2202527    5.5453526    3740.7412 
    3000    2.4068919    -3.387943            0   0.22149224    5.7308262    3719.6017 
    4000    2.3672032   -3.3823451            0   0.16757195    5.6001138    3732.7447 
    5000    2.3874684   -3.3603903            0   0.21991697    5.7407883      3723.62 
    6000    2.4217676   -3.3341807            0    0.2975626    5.5456954    3765.6158 
    7000    2.3172529   -3.3992077            0  0.075802708    5.8551133    3687.6258 
    8000    2.4265358   -3.3958514            0   0.24304238    5.7039693      3730.45 
    9000    2.4080381   -3.4308102            0   0.18034383    5.7350245    3676.9326 
   10000    2.3415429   -3.3971929            0   0.11424336    5.6956751    3707.8522 
Loop time of 2.63041 on 48 procs for 10000 steps with 4000 atoms

Performance: 656931.912 tau/day, 3801.689 timesteps/s
99.6% CPU use with 48 MPI tasks x no OpenMP threads

MPI task timing breakdown:
Section |  min time  |  avg time  |  max time  |%varavg| %total
---------------------------------------------------------------
Pair    | 1.1459     | 1.2379     | 1.3283     |   3.2 | 47.06
Neigh   | 0.21212    | 0.22127    | 0.2385     |   1.0 |  8.41
Comm    | 0.82041    | 0.89802    | 0.9719     |   3.7 | 34.14
Output  | 0.00024363 | 0.000249   | 0.00031219 |   0.0 |  0.01
Modify  | 0.19202    | 0.25768    | 0.31254    |   7.8 |  9.80
Other   |            | 0.0153     |            |       |  0.58

Nlocal:        83.3333 ave          93 max          74 min
Histogram: 3 2 3 6 11 7 7 6 1 2
Nghost:        1726.77 ave        1774 max        1706 min
Histogram: 7 10 9 10 5 2 2 2 0 1
Neighs:        10291.7 ave       11506 max        8871 min
Histogram: 2 3 4 6 6 7 6 5 4 5

Total # of neighbors = 494003
Ave neighs/atom = 123.50075
Neighbor list builds = 905
Dangerous builds = 204

# Equilibrate just above the melting temperature to avoid step fn in T

fix 1 all npt temp 1.25 1.25 0.1 iso 5.68 5.68 0.5 mtk yes tchain 5 pchain 5
run 2000
Per MPI rank memory allocation (min/avg/max) = 3.644 | 3.646 | 3.649 Mbytes
Step Temp E_pair E_mol TotEng Press Volume 
   10000    2.3415429   -3.3971929            0   0.11424336    5.6956751    3707.8522 
   11000    1.2560443   -5.0324578            0   -3.1488623    5.6078842    2844.1188 
   12000    1.2441006   -5.0568279            0   -3.1911435    5.3299019    2845.6035 
Loop time of 0.645796 on 48 procs for 2000 steps with 4000 atoms

Performance: 535153.603 tau/day, 3096.954 timesteps/s
99.6% CPU use with 48 MPI tasks x no OpenMP threads

MPI task timing breakdown:
Section |  min time  |  avg time  |  max time  |%varavg| %total
---------------------------------------------------------------
Pair    | 0.28828    | 0.31609    | 0.35926    |   2.7 | 48.95
Neigh   | 0.040538   | 0.043311   | 0.048663   |   0.7 |  6.71
Comm    | 0.1903     | 0.2374     | 0.26659    |   3.4 | 36.76
Output  | 5.169e-05  | 5.2784e-05 | 6.6549e-05 |   0.0 |  0.01
Modify  | 0.039498   | 0.044054   | 0.048071   |   1.1 |  6.82
Other   |            | 0.004884   |            |       |  0.76

Nlocal:        83.3333 ave          90 max          75 min
Histogram: 2 0 5 5 5 5 14 5 4 3
Nghost:        2067.81 ave        2090 max        2052 min
Histogram: 4 4 9 7 6 8 4 3 2 1
Neighs:        13420.9 ave       14705 max       11863 min
Histogram: 3 1 5 4 5 7 9 7 4 3

Total # of neighbors = 644201
Ave neighs/atom = 161.05025
Neighbor list builds = 143
Dangerous builds = 17

#############################
# L I N E A R  Q U E N C H  #
#############################

# Define solid atoms. This closely follows ten Wolde  Ruiz-Montero and Frenkel  Faraday Discuss  1996  104  93-110
# Compute components of the per-atom q6 vector
compute q6 all orientorder/atom degrees 1 6 components 6 nnn NULL cutoff 1.3 # compute the Q6 parameter.
                                                                             # Use all neighbours within 1.3 unit cell.

# get number of connections
compute coord_number all coord/atom orientorder q6 0.5

# An atom is solid if it has 8 or more connections (of a possible 14)
variable is_solid atom c_coord_number>=8
group solid dynamic all var is_solid    # Must be dynamic to update
dynamic group solid defined

# do clustering
compute cluster solid cluster/atom 1.3 # Create a cluster where all atoms within are solid and max 1.3 units from another member

# define chunks one chunk per cluster
compute clus_chunks solid chunk/atom c_cluster nchunk every compress yes  # Says which atoms are in which chunk

# count the size of each chunk
compute size_chunks solid property/chunk clus_chunks count


# Find the maximum entry in the vector of chunk sizes
variable max_n equal max(c_size_chunks)


# Thermo style which includes this variable
# thermo_style custom step temp pe vol v_max_n

thermo ${N}  # Print the thermo information every 100 steps
thermo 1000  

# Reset the npt fix at a lower temperature (below freezing)
fix 1  all npt temp  ${temp} ${temp}  0.1  iso  5.68  5.68  0.5  mtk yes tchain  5  pchain  5
fix 1  all npt temp  0.45 ${temp}  0.1  iso  5.68  5.68  0.5  mtk yes tchain  5  pchain  5
fix 1  all npt temp  0.45 0.45  0.1  iso  5.68  5.68  0.5  mtk yes tchain  5  pchain  5

dump dmp2 all dcd ${N} traj.dcd
dump dmp2 all dcd 1000 traj.dcd


compute msd all msd com yes
variable twopoint equal c_msd[4]/6/(step*dt+1.0e-6)
fix 9 all vector 10 c_msd[4]
variable fit equal slope(f_9)/6/(10*dt)
thermo_style custom step temp pe c_msd[4] v_twopoint v_fit v_max_n

fix 1 all npt temp 1.25 ${temp} 0.1 iso 5.68 5.68 0.5 mtk yes tchain 5 pchain 5
fix 1 all npt temp 1.25 0.45 0.1 iso 5.68 5.68 0.5 mtk yes tchain 5 pchain 5
run 5000000 # 5000000  # Run for this many steps
Neighbor list info ...
  update every 1 steps, delay 10 steps, check yes
  max neighbors/atom: 2000, page size: 100000
  master list distance cutoff = 3.8
  ghost atom cutoff = 3.8
  binsize = 1.9, bins = 8 8 8
  4 neighbor lists, perpetual/occasional/extra = 1 3 0
  (1) pair lj/cut, perpetual
      attributes: half, newton on
      pair build: half/bin/atomonly/newton
      stencil: half/bin/3d
      bin: standard
  (2) compute orientorder/atom, occasional
      attributes: full, newton on
      pair build: full/bin/atomonly
      stencil: full/bin/3d
      bin: standard
  (3) compute coord/atom, occasional
      attributes: full, newton on
      pair build: full/bin/atomonly
      stencil: full/bin/3d
      bin: standard
  (4) compute cluster/atom, occasional
      attributes: full, newton on
      pair build: full/bin/atomonly
      stencil: full/bin/3d
      bin: standard
Per MPI rank memory allocation (min/avg/max) = 9.838 | 9.844 | 9.848 Mbytes
Step Temp PotEng c_msd[4] v_twopoint v_fit v_max_n 
   12000    1.2441006   -5.0568279 1.9721523e-34 1.3695501e-36 8.3333333e+20            3 
   13000     1.271209   -5.0458587   0.69269365 0.0044403437  0.058448762            2 
   14000    1.2488958   -5.0294851    1.4361908 0.0085487545  0.059381414            1 
   15000    1.2540148   -4.9815879    2.1268502  0.011815834  0.059232195            2 
   16000    1.2285991   -5.0058028     2.791384  0.014538458   0.05881061            1 
   17000     1.263737   -5.0262991    3.4715391  0.017017348  0.058139273            2 
   18000    1.3021097   -5.0597281    4.1427349  0.019179328  0.057756195            2 
   19000    1.2270366   -5.0304715    4.9676101  0.021787763  0.058020459            7 
   20000     1.256821   -4.9746974     5.691153  0.023713137  0.058764899            2 
   21000    1.2262737   -5.0079193    6.2833165  0.024933795  0.058595644            2 
   22000     1.242624   -5.0381951    7.0090826  0.026549555  0.058538973            2 
   23000    1.2257637   -4.9854527    7.6570554  0.027742954  0.058303909            3 
   24000    1.2624496   -5.0626581    8.2399376  0.028610894  0.057900157            1 
   25000    1.2390288    -5.032163    8.9680676  0.029893558   0.05755745            1 
   26000    1.2409001    -5.031939    9.6688039  0.030989756  0.057477327            5 
   27000    1.2737929   -5.0288008    10.486847  0.032366812  0.057536737            3 
   28000    1.2351261   -5.0641492     11.27081  0.033544078  0.057871213            1 
   29000    1.2318449   -5.0177552    11.999077  0.034480105  0.058136067            2 
   30000    1.2458489   -5.0051576    12.787263  0.035520176  0.058387538            1 
   31000    1.2216683   -4.9983269    13.607871  0.036580298  0.058733682            2 
   32000    1.2124421   -5.0455709    14.200672  0.036980915  0.058936941            2 
   33000    1.2485855   -5.0635931    14.937673  0.037721396  0.059062392            4 
   34000     1.238422   -5.0549533     15.73193   0.03855865  0.059198712            2 
   35000    1.2296498   -5.0319237    16.406817  0.039063849  0.059299334            1 
   36000    1.2540426   -5.0378046    17.026558  0.039413327  0.059335233            2 
   37000    1.2390944   -5.0350773    17.547387  0.039521142  0.059272519            3 
   38000    1.2485721   -5.0548285    18.099332  0.039691517  0.059154357            2 
   39000    1.2605216   -4.9956585    18.941369   0.04047301  0.059022265            2 
   40000    1.2383974   -5.0398646      19.7281  0.041100208  0.058957127            4 
   41000    1.2385337   -5.0510849    20.473228  0.041612252  0.058925232            2 
   42000    1.2787781   -5.0187504    21.392263  0.042444965  0.058942785            1 
   43000    1.2739621   -5.0672434    21.810485  0.042268382  0.058961566            2 
   44000    1.2249112   -5.0498545    22.503784  0.042620803  0.058922859            2 
   45000    1.2569825   -5.0356418    23.330677  0.043204958  0.058911558            3 
   46000    1.2459802   -5.0442345    24.093139   0.04364699  0.058929744            2 
   47000    1.2463721   -5.0460257    24.863293  0.044083853  0.059002246            6 
   48000    1.2461412   -5.0377138    25.429682  0.044148753  0.059053128            3 
   49000    1.2634164   -5.0335677     26.03306  0.044273912  0.059038334            2 
   50000    1.2342865   -5.0494842    26.984894  0.044974823  0.059035231            2 
   51000    1.2635397   -5.0262863    27.651829  0.045182727  0.059021101            2 
   52000    1.2468673   -5.0465196    28.172997  0.045149034  0.059020233            2 
   53000    1.2336522   -5.0122196      29.1767  0.045875314  0.059036533            3 
   54000    1.2487233   -5.0415163    29.868382  0.046093182  0.059063579            4 
   55000    1.2540922   -5.0327617    30.589283  0.046347398  0.059081373            2 
   56000    1.2369601   -5.0353238    31.283331  0.046552576  0.059123376            3 
   57000    1.2302228   -5.0235741      31.9924  0.046772514  0.059175914            3 
   58000    1.2467533   -5.0227021    32.749196  0.047053443  0.059205232            3 
   59000    1.2504093   -5.0307683    33.463515  0.047264852  0.059234081            1 
   60000    1.2319624   -5.0138345    34.316626   0.04766198   0.05927226            3 
   61000     1.244246   -5.0107159    35.056934  0.047891986  0.059311888            2 
   62000    1.2355273   -5.0229774    35.681406  0.047958878  0.059338405            1 
   63000    1.2340522   -5.0322699    36.119903  0.047777648  0.059367321            4 
   64000    1.2278032   -5.0514928    36.933951  0.048091081  0.059376394            1 
   65000    1.2310233   -5.0693146    37.847999  0.048523075  0.059397897            1 
   66000    1.2308584   -5.0236428    38.463623   0.04856518  0.059412292            2 
   67000    1.2650201    -5.050391    39.048403  0.048567665  0.059419596            1 
   68000    1.2511619   -5.0345076     39.96522  0.048976985  0.059439667            2 
   69000    1.2170555   -5.0242983    40.769049  0.049237982  0.059447964            2 
   70000    1.2386353   -5.0248934    41.286992   0.04915118  0.059471787            3 
   71000     1.221878   -5.0560902    42.032322   0.04933371   0.05947206            2 
   72000    1.2298868   -5.0468329     42.56353  0.049263345  0.059461592            2 
   73000    1.2501552   -5.0007911    43.372264  0.049511717  0.059451787            3 
   74000    1.2467087   -5.0421609    44.142488  0.049710008  0.059454994            3 
   75000     1.241432   -5.0674416    44.946607  0.049940674  0.059468286            2 
   76000    1.2477315   -5.0442578    45.692033  0.050100913  0.059489805            2 
   77000    1.2352231   -5.0463588    46.292085  0.050099659  0.059516629            1 
   78000    1.2636238   -4.9976771    47.151226  0.050375241   0.05953101            2 
   79000    1.2508863   -5.0220644    48.046102  0.050681542  0.059550984            4 
   80000    1.2355145    -5.041164    48.935243  0.050974212  0.059589596            3 
   81000     1.225632   -5.0016076    49.736087  0.051168814  0.059628852            2 
   82000    1.2264887   -5.0215441      50.2677   0.05108506   0.05965888            1 
   83000    1.2188553    -5.060846    50.383148   0.05058549  0.059660786            3 
   84000    1.2329837   -5.0080101    51.149166   0.05074322  0.059649589            2 
   85000    1.2304895   -5.0448801    51.720333  0.050706209  0.059629539            1 
   86000    1.2214399   -5.0209931    52.553686  0.050924114  0.059609044            4 
   87000    1.2568405   -5.0901137    52.830859  0.050604271  0.059577361            3 
   88000     1.241657   -5.0752517    53.573638  0.050732612  0.059551026            2 
   89000    1.2625456   -5.0549507    54.447303  0.050980621  0.059529055            3 
   90000    1.2602708   -5.0604488     55.35965  0.051258935  0.059506136            3 
   91000    1.2493804   -5.0558344    56.082841  0.051357913  0.059493377            2 
   92000    1.2447357    -5.063462    56.606458  0.051273965  0.059466171            2 
   93000    1.2233006   -5.0561646    57.346528  0.051385777  0.059447871            1 
   94000    1.2494908   -5.0426441    57.936908  0.051362507  0.059431433            1 
   95000    1.2705442   -5.0653093    58.882198  0.051651051  0.059408194            4 
   96000    1.2065749   -5.0807714     59.13546  0.051332865  0.059372257            3 
   97000    1.2334142   -5.0312651    59.859717  0.051425874  0.059320395            2 
   98000    1.2582936   -5.0495843    60.401494  0.051361814  0.059276897            3 
   99000    1.2054897   -5.0833098    60.931747  0.051289349  0.059229441            1 
  100000    1.2313072   -5.0473386     61.81651  0.051513758   0.05917215            3 
  101000    1.2362962   -5.0481779    62.326571  0.051424563  0.059125654            2 
  102000    1.2235682   -5.0379312    63.461178  0.051847367  0.059087042            3 
  103000     1.229917   -5.0470468    63.706145  0.051542188  0.059037083            2 
  104000    1.2156282   -5.0433023    64.748262   0.05188162  0.058991971            1 
  105000    1.2080997   -5.0449567    64.841017  0.051461124  0.058944685            1 
  106000    1.2358182    -5.043358    65.464948  0.051466154  0.058888865            3 
  107000    1.2559219   -5.0772781    65.867564  0.051298725  0.058829087            1 
  108000    1.2517744   -4.9941375    67.119751  0.051789931  0.058770909            3 
  109000    1.2048318   -5.0771433    67.526558  0.051625809  0.058716913            2 
  110000    1.2368635   -5.0889307    68.242664  0.051698987  0.058658074            3 
  111000    1.2478769    -5.040089    68.933118   0.05175159  0.058605844            1 
  112000    1.2200821   -5.0591592    69.147619  0.051449121   0.05855466            1 
  113000    1.2549086   -5.0198884    70.430524  0.051939914   0.05850645            1 
  114000    1.2568289   -5.0806192    71.149502   0.05200987  0.058471757            2 
  115000    1.2329948   -5.0333028    71.892064  0.052095699  0.058444676            2 
  116000    1.2348278   -5.0522337    72.493156  0.052078417  0.058417543            2 
  117000    1.2375482   -5.0913926    73.529003  0.052371085  0.058403381            1 
  118000    1.2468466   -5.0659411    74.319163  0.052485284  0.058389796            1 
  119000    1.2279419    -5.083525    75.092355  0.052585682  0.058387798            3 
  120000    1.2400849   -5.0255128    76.157592  0.052887216  0.058391812            4 
  121000     1.224518   -5.0794702    76.082784  0.052398612  0.058393756            2 
  122000    1.2259338   -5.0308315    77.375253  0.052851949  0.058383816            2 
  123000     1.232694   -5.0559744    78.025813  0.052863017  0.058387402            1 
  124000    1.2508033     -5.04584    78.746995  0.052921367  0.058387172            2 
  125000     1.247937   -5.0213371    79.953993  0.053302662  0.058397023            2 
  126000     1.240803   -5.0589813    80.160445  0.053016167  0.058398726            3 
  127000    1.2552706   -5.0777965    80.909153  0.053089995  0.058397987            3 
  128000    1.2037882   -5.0588566    81.876189  0.053304811  0.058399305            4 
  129000    1.2237278   -5.0938866     82.05435  0.053006686  0.058404353            1 
  130000    1.2181216   -5.0391856    83.208212  0.053338597  0.058415023            2 
  131000    1.2328777    -5.012806    83.765877  0.053286181  0.058420608            8 
  132000    1.2312698   -5.0430677    84.546121  0.053375076  0.058421834            6 
  133000    1.2452753   -5.0417793    85.174648  0.053367574  0.058418922            1 
  134000    1.2041387   -5.0526841    86.037831  0.053506114  0.058422274            1 
  135000    1.2528862   -5.0585155    86.163047  0.053187066  0.058424374            5 
  136000    1.2419443   -5.0401574    87.309864  0.053498691  0.058421769            4 
  137000    1.2453936   -5.0592316    87.650516  0.053315399  0.058419896            3 
  138000    1.2377889   -5.0208603    88.687757  0.053555409   0.05841502            2 
  139000    1.2148536   -5.0230632    89.326288   0.05355293  0.058406529            2 
  140000    1.2131425   -5.0467582    89.818661  0.053463488  0.058407017            1 
  141000    1.2176725   -5.1134916    90.786792  0.053656496  0.058407383            1 
  142000    1.2263612   -5.0526776    91.742288   0.05383937  0.058418491            2 
  143000    1.2333098   -5.0922651    92.541367  0.053928535  0.058431586            2 
  144000    1.2345509   -5.0737454    93.465675  0.054088932  0.058445874            2 
  145000    1.2590314   -5.0360659    94.515823  0.054319438  0.058463184            2 
  146000     1.209984   -5.0341441    94.841407  0.054133223  0.058482931            2 
  147000    1.2298498   -5.0959589    95.540229  0.054161127  0.058497272            3 
  148000    1.1847711   -5.0743788    95.542989  0.053796728  0.058505527            2 
  149000    1.2459435    -5.014196    96.678845  0.054070942  0.058508176            2 
  150000    1.2260396   -5.0275625    97.408076  0.054115598  0.058512175            3 
  151000    1.2282141   -5.0807256    97.561624  0.053841956  0.058513377            3 
  152000    1.2309492   -5.0716272    98.206104  0.053841066  0.058506875            1 
  153000     1.236654   -5.0385615    99.154303  0.054005612  0.058497881            2 
  154000    1.2380475   -5.0833234    98.985875  0.053563785   0.05848412            2 
  155000    1.2543019   -5.0778185    99.822737  0.053668138  0.058469308            2 
  156000    1.2195751   -5.0996965    100.41795  0.053642069  0.058455412            2 
  157000     1.210613   -5.0810675     100.9984  0.053608493  0.058434738            2 
  158000     1.246351   -5.0370652    101.94173  0.053766736   0.05841024            3 
  159000    1.2421756    -5.112647    102.07638   0.05349915  0.058384796            2 
  160000    1.2438656   -5.0449376     102.5981   0.05343651  0.058355639            4 
  161000     1.232543    -5.047649    103.29797  0.053466857  0.058326274            2 
  162000    1.2189787   -5.0797061    104.18816  0.053594734   0.05829774            2 
  163000    1.2361684   -5.0645513    104.13178  0.053237106  0.058266543            3 
  164000    1.2309627   -5.0748465     104.9348  0.053320527  0.058231818            2 
  165000    1.2235514   -5.0610249    105.09076  0.053076141  0.058195285            2 
  166000    1.2405989   -5.0639328    106.46717  0.053447374  0.058161682            3 
  167000    1.1815418   -5.0984547    107.25484  0.053520378  0.058127471            1 
  168000    1.2216772   -5.0751087     107.5382  0.053342361  0.058095729            3 
  169000    1.1860158   -5.0655056     108.6314  0.053565777   0.05806492            3 
  170000    1.2550926   -5.0592064    108.79435  0.053330565  0.058035408            2 
  171000    1.2465923   -5.0754221    109.00593  0.053121799  0.058002536            3 
  172000    1.2258391   -5.0976839    109.80138  0.053198344  0.057970609            2 
  173000    1.2532982   -5.0731287      111.029  0.053482179   0.05794201            1 
  174000    1.2174208   -5.0516742    112.01966  0.053649263  0.057917999            2 
  175000    1.2606751    -5.108759     112.5944   0.05361638  0.057894197            1 
  176000    1.2184021   -5.0904864    113.02017   0.05351334  0.057869418            3 
  177000    1.2337179   -5.0504915    114.36898  0.053846035  0.057845192            3 
  178000    1.2229555   -5.0566573    115.20483  0.053934844  0.057827825            2 
  179000    1.2035299   -5.0696419    115.43624  0.053741265  0.057810068            1 
  180000    1.2414912   -5.0627566    116.58318  0.053973694  0.057790269            2 
  181000    1.2430402   -5.0445061     116.9129  0.053827303   0.05776588            3 
  182000    1.2019717   -5.0680961    116.97088  0.053558096  0.057741218            2 
  183000    1.2041763   -5.0645854     117.8787  0.053678826  0.057715948            2 
  184000    1.2412602   -5.0929445    117.95095  0.053419815  0.057685326            3 
  185000    1.1901856   -5.0764252    119.39757  0.053782688  0.057652666            3 
  186000    1.2179852   -5.0750735    119.40725  0.053497874  0.057626598            3 
  187000    1.2560332   -5.0628933    120.58536  0.053736793  0.057607525            2 
  188000    1.2270973    -5.112025    120.89115  0.053586503  0.057584739            3 
  189000      1.21338   -5.0707105    121.56396  0.053599629  0.057562168            2 
  190000    1.2110833   -5.0791438    122.21412  0.053602683  0.057537538            2 
  191000    1.2272889   -5.0586681    123.26554  0.053780778  0.057516805            2 
  192000    1.2231984   -5.1215583     123.2028  0.053473437  0.057495828            2 
  193000    1.2219985   -5.0483236    124.93931  0.053946163  0.057480041            3 
  194000    1.2414566   -5.0956106     125.4802  0.053900431   0.05746892            3 
  195000    1.2122996    -5.059643    126.44972  0.054038343  0.057462716            2 
  196000    1.2261649   -5.0671791    127.44156  0.054184338  0.057451066            2 
  197000    1.1957475   -5.0673352      127.847  0.054080794  0.057444707            1 
  198000    1.2201782   -5.1161602    128.42837  0.054052344  0.057434462            2 
  199000    1.2352772   -5.0691259    128.90909  0.053982031  0.057426551            1 
  200000    1.2152733   -5.0546197    129.97347   0.05415561  0.057418946            4 
  201000    1.2299099   -5.0368868    130.64382  0.054164103  0.057409751            1 
  202000    1.2285386   -5.0567833    131.47307  0.054238066  0.057396322            4 
  203000     1.195802   -5.0923049    131.88252  0.054138966  0.057385914            2 
  204000    1.2174635   -5.0604182    132.86825  0.054276246  0.057377453            3 
  205000    1.2222534   -5.0718346    134.06085  0.054496281  0.057370982            2 
  206000      1.23259   -5.0437603    133.75365  0.054107462  0.057361073            2 
  207000    1.2308923   -5.0927376    134.22528   0.05403594  0.057349955            4 
  208000    1.2089975   -5.0716586    135.15503   0.05414865  0.057333331            2 
  209000    1.1918361   -5.0622321     135.8943   0.05418433  0.057322321            2 
  210000      1.18191   -5.0619097      136.418  0.054134129  0.057316346            5 
  211000    1.2064339   -5.0759884     137.9984  0.054501737  0.057308542            2 
  212000    1.2295508   -5.0867626    137.98523  0.054239478  0.057305289            2 
  213000    1.2241055   -5.0831377    139.64104  0.054632645  0.057300428            2 
  214000    1.2205009   -5.0711353     139.0339  0.054140927  0.057294103            2 
  215000    1.2146441   -5.1051948    139.49105  0.054066298  0.057279834            2 
  216000    1.1884462   -5.0289459    140.70226  0.054283281  0.057266559            2 
  217000    1.2115986   -5.0550528    140.73354  0.054045138  0.057251535            3 
  218000    1.1961979   -5.1031278    140.63343  0.053758955  0.057232659            2 
  219000    1.2068862   -5.0401515    141.87949  0.053987628   0.05721461            2 
  220000     1.230195   -5.0937228    142.53108  0.053989045  0.057200504            3 
  221000    1.1963928   -5.0840661     142.9142  0.053889216  0.057182779            5 
  222000    1.2470924   -5.0321216    143.78109   0.05397188  0.057167569            3 
  223000    1.2161147    -5.100167    144.55321  0.054018389  0.057150207            4 
  224000    1.2332669   -5.0607445      144.788  0.053864584  0.057130339            5 
  225000    1.2215223   -5.0832793     145.0289  0.053714407  0.057111196            1 
  226000    1.1998972   -5.0938067    145.89694  0.053796806  0.057090747            2 
  227000    1.2145304    -5.085608    146.89938   0.05392782  0.057071454            2 
  228000    1.2133302   -5.0865863    147.20605   0.05380338   0.05704993            1 
  229000    1.1914877   -5.1319981    147.75629  0.053768663  0.057029673            2 
  230000     1.220442   -5.1332097     148.8024  0.053913914  0.057012122            2 
  231000     1.201615   -5.1358581    149.73559   0.05401717  0.056997937            2 
  232000     1.231606   -5.0727784    150.87312   0.05419293  0.056987389            2 
  233000    1.2190337   -5.0632116    151.27667  0.054104675  0.056974774            4 
  234000    1.2030844   -5.1202916    151.26838  0.053870504  0.056961447            3 
  235000    1.2154552   -5.0673618    152.94021  0.054234117  0.056947491            3 
  236000    1.1954351   -5.1020142    153.84188  0.054322696  0.056939973            2 
  237000    1.1793685   -5.0725378    155.04808  0.054517607  0.056935518            3 
  238000    1.2187201   -5.0649825    155.97489  0.054613057  0.056934209            4 
  239000     1.225356   -5.0742589    156.89347  0.054704837  0.056934916            3 
  240000    1.2120544   -5.0712307    157.17088  0.054573222  0.056932427            2 
  241000    1.2535395   -5.0666787    158.31888  0.054743736   0.05693374            3 
  242000    1.1743709   -5.1009904    158.95816  0.054737659   0.05693851            2 
  243000     1.224748   -5.0616761    159.84897  0.054817892  0.056942871            2 
  244000    1.2272277   -5.0662356    159.68442   0.05453703  0.056943347            2 
  245000    1.2022988   -5.0898685    159.67864  0.054312463  0.056944962            2 
  246000    1.2467447    -5.100009    160.96554  0.054527622  0.056943644            1 
  247000    1.2207264   -5.0846351    161.97158  0.054646282  0.056940309            1 
  248000    1.2219002   -5.1063942    162.34658  0.054551941  0.056936011            5 
  249000    1.1935918    -5.110733    162.36143  0.054337827  0.056930598            3 
  250000    1.1889754   -5.1072547    163.18613  0.054395378  0.056926467            2 
  251000    1.1941639   -5.0796768    164.23998  0.054528547  0.056924549            3 
  252000    1.2129319   -5.0631789    164.93803  0.054543001  0.056921035            2 
  253000    1.2139638   -5.0873549    165.74263  0.054592434  0.056917182            2 
  254000    1.2013579   -5.1335524    165.85486  0.054414323  0.056915215            3 
  255000    1.2034795   -5.0934483    167.00509  0.054576826  0.056912234            3 
  256000    1.2192478    -5.106628    167.66673  0.054579014  0.056912497            2 
  257000    1.2078305   -5.0849265    168.02239  0.054481967  0.056910211            1 
  258000    1.2365273   -5.1167674    168.24394  0.054342357   0.05690648            2 
  259000    1.1691491   -5.0809283    169.85161   0.05464981  0.056901659            3 
  260000    1.2145569   -5.0992821    170.47702   0.05464007  0.056897202            2 
  261000    1.2218487   -5.1291389    171.66996   0.05481161    0.0568967            3 
  262000    1.2203788   -5.0865269    172.10866  0.054741939   0.05689642            2 
  263000    1.1971214   -5.0754588    172.98222  0.054810589  0.056896954            2 
  264000    1.2095378    -5.106417    173.56502  0.054786938  0.056899754            2 
  265000    1.2086024   -5.0544509    174.33774  0.054823188  0.056901573            3 
  266000    1.1923672   -5.0584729    175.23375  0.054897791    0.0569038            2 
  267000    1.2033612    -5.126921     175.2213  0.054688294  0.056905085            2 
  268000    1.2315839   -5.0910436    176.40546  0.054852444   0.05690486            3 
  269000    1.1776596   -5.0951627     177.7039  0.055050775  0.056908391            3 
  270000    1.2213505   -5.0804708    178.35682    0.0550484  0.056909683            3 
  271000    1.2082022   -5.0901548    178.86395  0.055001215  0.056911374            3 
  272000    1.2050125   -5.1283186    178.28351  0.054621172  0.056912454            2 
  273000    1.1928285   -5.0931778    179.40475  0.054763356  0.056912426            2 
  274000    1.1935835    -5.093103    180.82035  0.054994024  0.056914581            1 
  275000    1.2425982   -5.0789508    181.25632  0.054926159  0.056915904            2 
  276000    1.2089241   -5.1218153    182.19231  0.055009757  0.056917635            5 
  277000    1.1966599   -5.0999237    182.44405  0.054886898  0.056918207            3 
  278000    1.2071342   -5.1057358    183.48183  0.055000548  0.056920805            2 
  279000    1.1932677   -5.1128004    183.69493  0.054867065  0.056921596            4 
  280000    1.2072347   -5.1241541    183.96898  0.054752674  0.056919728            2 
  281000    1.1968737   -5.0705841    184.41227  0.054689287  0.056917495            1 
  282000    1.2114775   -5.1015597    185.65024  0.054861183  0.056915428            3 
  283000      1.21624   -5.1325569    185.68611  0.054677889  0.056915597            2 
  284000    1.1986549   -5.0962629    187.17586  0.054922495  0.056915811            3 
  285000    1.2223719     -5.09993    187.46886  0.054815455  0.056916316            3 
  286000    1.2279489   -5.1164608     189.1725  0.055120192  0.056917557            3 
  287000    1.2087679   -5.1270351     187.9705  0.054579123  0.056918822            2 
  288000    1.2125668   -5.1253076    189.81811  0.054924222   0.05691782            2 
  289000    1.2016488   -5.1050009    190.96713  0.055065493  0.056920674            4 
  290000    1.2139168   -5.1042994    192.09925  0.055200933    0.0569232            2 
  291000    1.2105488   -5.1342859    191.65071  0.054882793   0.05692763            2 
  292000    1.1903965   -5.1066514    194.07228  0.055385925  0.056930675            7 
  293000    1.1935741   -5.0861585    193.40763  0.055007858  0.056933896            2 
  294000    1.1933511   -5.1354156    193.28922  0.054787193  0.056932825            2 
  295000    1.1938705   -5.1200114    194.65586   0.05498753  0.056931981            4 
  296000    1.2094564   -5.1492613    194.58584  0.054782049  0.056930978            2 
  297000    1.2119223   -5.1270021    196.29452  0.055077027  0.056932254            4 
  298000     1.189939   -5.1731808    196.08264  0.054832953   0.05693326            2 
  299000    1.2136779   -5.1238759    197.71223  0.055103742  0.056932183            2 
  300000    1.1998292   -5.1044715    198.05879  0.055016331  0.056930986            3 
  301000    1.2105777   -5.1119551    198.39332  0.054926167   0.05692868            2 
  302000    1.2068115   -5.0889082    198.84301  0.054868379  0.056926169            3 
  303000    1.2042318   -5.1056325    200.45249  0.055129949   0.05692446            2 
  304000     1.179054   -5.1096946    200.32112  0.054912587  0.056921938            6 
  305000    1.2179085   -5.0978073    200.72771  0.054843636  0.056919927            1 
  306000    1.2223293   -5.1161634    202.33681  0.055102616  0.056916888            1 
  307000    1.1946773   -5.1011096    202.08123  0.054853755  0.056913071            2 
  308000    1.1891435   -5.0734009    203.14025  0.054962188  0.056910082            2 
  309000    1.2098334   -5.0736844    204.03651  0.055026027  0.056907319            5 
  310000    1.2229597   -5.0814167    204.85457  0.055068433  0.056902219            7 
  311000    1.1862086   -5.0924273    204.65017  0.054836593   0.05689727            3 
  312000    1.1896062    -5.124113    205.63439  0.054923716  0.056891946            6 
  313000    1.2170404   -5.0958634    206.84508  0.055070575  0.056887545            2 
  314000    1.2190161   -5.1027433    206.53647  0.054813288   0.05688122            2 
  315000    1.2301735   -5.1007358    207.01812  0.054766698  0.056877163            2 
  316000    1.2341249   -5.1449884     207.6634  0.054763556  0.056872015            4 
  317000    1.2227447   -5.1271047    207.94596  0.054665078  0.056865794            1 
  318000    1.1906615   -5.0958348    209.39373   0.05487257  0.056857199            2 
  319000    1.1828639   -5.1303725    209.17958  0.054644612   0.05684984            4 
  320000     1.245205   -5.1149671     210.7555  0.054884245  0.056844586            2 
  321000    1.1862263   -5.1251638    211.93846  0.055020368  0.056839463            2 
  322000    1.2164524   -5.1843623    211.43225  0.054718492  0.056835226            4 
  323000    1.2207552   -5.1259299    212.85752    0.0549168  0.056827981            2 
  324000    1.2219837   -5.1184715    212.53891  0.054665357   0.05682506            1 
  325000    1.1806415   -5.1295156    213.07443  0.054634468  0.056818969            6 
  326000    1.1907912   -5.0773612    215.17663   0.05500425  0.056812763            4 
  327000     1.185892   -5.1013776    214.50443  0.054664736  0.056806639            2 
  328000    1.1817442   -5.1107345     215.2881   0.05469718  0.056799966            1 
  329000     1.223491   -5.1001782    215.77312   0.05465378  0.056792766            4 
  330000    1.2104352   -5.1176951    216.66737  0.054713983   0.05678494            3 
  331000    1.2028622   -5.0930564    216.69156  0.054554773   0.05677598            3 
  332000    1.2160226    -5.121876     217.7113  0.054646411  0.056766916            2 
  333000    1.2070328    -5.141261    218.15705  0.054593857  0.056756796            2 
  334000    1.1757213   -5.1056246    218.78555  0.054587212  0.056744556            3 
  335000    1.1932513   -5.1031293    219.86301  0.054692291  0.056735903            2 
  336000    1.2262883   -5.0980402    221.20148  0.054861478  0.056730833            6 
  337000    1.1736109   -5.1121479    222.15235  0.054933814  0.056724071            2 
  338000    1.1917805   -5.1190555    222.15618  0.054772234  0.056718343            1 
  339000    1.2124676   -5.1224635    222.90986  0.054795934  0.056714916            3 
  340000    1.1896331   -5.1400779    223.51432  0.054782921  0.056712883            2 
  341000    1.1819962   -5.1506026    224.35183  0.054826939  0.056711169            2 
  342000    1.1849408   -5.0972672    225.66208  0.054985887  0.056708534            2 
  343000    1.2089278   -5.1291828    224.94784  0.054652051  0.056704321            4 
  344000    1.2084228     -5.16865    226.64764  0.054904951  0.056702116            4 
  345000    1.1987755   -5.1349734     227.6661  0.054991811  0.056699113            3 
  346000    1.2075224   -5.1282317    227.65427  0.054830025  0.056695956            5 
  347000    1.1800442   -5.1456008    228.42927  0.054858134   0.05669311            1 
  348000    1.1867286   -5.1251373    228.51849   0.05472186   0.05668968            2 
  349000    1.1957955   -5.1154528    230.20796  0.054968471  0.056684302            1 
  350000    1.1735627   -5.1240542    231.17649  0.055042022  0.056680206            4 
  351000    1.1870742   -5.1478686    230.70521  0.054773317  0.056674996            2 
  352000    1.1743019   -5.0883846    232.50301  0.055043326  0.056671627            2 
  353000    1.1724872   -5.0983731    233.02534  0.055010703  0.056669179            2 
  354000    1.2005707   -5.1151729    233.77835  0.055032568  0.056667405            4 
  355000    1.1962792   -5.1097138    234.86802  0.055133339  0.056664253            3 
  356000    1.1824443   -5.1446711    233.98943  0.054772806  0.056660696            3 
  357000    1.1948524   -5.1413897    235.13446  0.054886662  0.056656154            2 
  358000    1.1989821   -5.1441028    234.91449  0.054682144  0.056652712            1 
  359000     1.191746   -5.1254522    236.77607  0.054961948  0.056648052            4 
  360000    1.1959765   -5.1667585    236.59822  0.054768107  0.056643015            2 
  361000    1.1855446    -5.158246    236.76464  0.054654811  0.056637291            4 
  362000    1.1820964   -5.1534755    238.01589  0.054791872  0.056632099            1 
  363000    1.1767217   -5.0682284     238.4945  0.054750803  0.056625069            4 
  364000    1.2149892   -5.1704526    238.64155  0.054634054  0.056617828            3 
  365000    1.1932813   -5.1617491    240.18592  0.054836968  0.056611045            4 
  366000    1.2066783   -5.1495512    240.13091  0.054674616  0.056604269            4 
  367000    1.2033704   -5.1268066    240.89166  0.054698379  0.056598212            2 
  368000    1.1731352   -5.1390528    242.46761  0.054906615  0.056592489            3 
  369000    1.1880061   -5.1328371    242.51387  0.054768263  0.056586195            6 
  370000    1.1647943    -5.150725    242.67842  0.054657301  0.056579814            2 
  371000    1.1873811   -5.1280193    243.13894  0.054613419  0.056572134            3 
  372000    1.1826256   -5.1630241    243.48133  0.054543309  0.056563773            5 
  373000     1.203054   -5.1377795    244.24381  0.054567429  0.056557041            3 
  374000    1.1872747   -5.0930285      245.792  0.054766488  0.056549833            2 
  375000    1.1933652   -5.1193735    246.02052  0.054671228  0.056544812            2 
  376000    1.2142363   -5.0666305    247.87483  0.054936797  0.056541661            2 
  377000    1.1653358   -5.1485362    247.34795  0.054674614  0.056536452            3 
  378000    1.1894755   -5.0907545    248.98918  0.054891795  0.056529773            2 
  379000    1.2098728   -5.1187594    249.30406  0.054816195  0.056523106            1 
  380000    1.1931716   -5.1054501    249.68699  0.054755918  0.056514301            2 
  381000    1.1783582   -5.1336754     249.8954  0.054657786  0.056507655            2 
  382000    1.1910694   -5.1204555    250.91523  0.054737179  0.056500883            1 
  383000    1.1628668    -5.129265    250.53254  0.054510996   0.05649579            2 
  384000    1.1872121   -5.1377891    252.48642  0.054793059  0.056487561            7 
  385000    1.1920418   -5.1344841    252.35011  0.054621235  0.056479875            2 
  386000    1.1879246    -5.165186    252.92544  0.054603938   0.05647374            2 
  387000    1.1898106   -5.1058206    254.72248  0.054849802  0.056467054            2 
  388000    1.1822471   -5.0982766    254.79577  0.054724177  0.056460575            3 
  389000    1.1694241   -5.1479094    256.36069  0.054918743  0.056454604            2 
  390000    1.2028042    -5.158029    256.50338  0.054808414  0.056448416            4 
  391000    1.1910447   -5.1047946    256.46251  0.054659529   0.05644203            2 
  392000    1.1813173   -5.1539347    257.29696  0.054697483  0.056436017            1 
  393000    1.2000145   -5.1516678      258.265  0.054763571  0.056430362            4 
  394000     1.196689   -5.1306398    259.53368  0.054892911  0.056425556            3 
  395000    1.2168629   -5.1321509    259.63659  0.054775653  0.056418791            6 
  396000    1.1782277   -5.1152888    260.19976  0.054755841  0.056411545            3 
  397000    1.1718149   -5.1331215     261.8458  0.054963435  0.056408198            1 
  398000    1.1805035   -5.1609363    261.64108   0.05478247  0.056404961            2 
  399000    1.1895076   -5.1460114    262.81268  0.054889867  0.056401208            2 
  400000    1.1894953   -5.1253431    264.54845   0.05511426  0.056396597            2 
  401000    1.1949086   -5.1419271    262.91079  0.054636489  0.056391325            1 
  402000    1.2005688   -5.1456275    263.57381   0.05463802   0.05638446            2 
  403000    1.2103016   -5.1017565    265.01343   0.05480013  0.056377521            3 
  404000    1.1646094   -5.1255155    266.36218  0.054942694   0.05637098            2 
  405000    1.1795313   -5.1204929    266.80063  0.054897249  0.056365603            4 
  406000    1.1770552   -5.1401793    266.13415  0.054625236  0.056358157            2 
  407000     1.206781   -5.1467612    266.71108  0.054609148  0.056348632            3 
  408000    1.1939722   -5.1506303    267.73585   0.05468461  0.056340185            2 
  409000    1.1696033   -5.1896251     266.7507  0.054350183  0.056332893            2 
  410000    1.1901177   -5.1556151    269.72535  0.054822227  0.056325286            1 
  411000    1.2017388   -5.1061231    269.76371  0.054696615   0.05631876            3 
  412000    1.1859846   -5.1441545    271.02516  0.054819005  0.056310956            2 
  413000    1.1863693   -5.1934198    271.25744   0.05473314  0.056304468            5 
  414000    1.2034581   -5.1361469    270.41548  0.054431458  0.056297021            3 
  415000    1.2057271    -5.166066    272.08317  0.054635175  0.056290582            4 
  416000    1.1767922   -5.1543537    273.37623  0.054762866  0.056282826            2 
  417000    1.2072053   -5.1618989    272.13725  0.054383943  0.056274664            3 
  418000    1.1697244   -5.1549992    273.19963  0.054465637  0.056265519            4 
  419000    1.1496685   -5.1586525     272.2903  0.054154793  0.056254647            2 
  420000    1.1610839   -5.1214418    274.95466  0.054554496  0.056243977            3 
  421000    1.1651991    -5.151771    274.74944  0.054384291  0.056234435            2 
  422000    1.1677858     -5.11925    275.62404  0.054428127  0.056223634            2 
  423000    1.1679257   -5.1518399    277.31345   0.05463228  0.056214349            4 
  424000    1.1743216   -5.1586374    276.74745  0.054392187  0.056205317            4 
  425000    1.1960502   -5.1415216    278.01525  0.054512795  0.056195173            3 
  426000    1.2075131   -5.1742002    277.15049  0.054215666   0.05618505            1 
  427000    1.1737635   -5.1193117    278.79078  0.054408816   0.05617489            2 
  428000     1.176739   -5.1032507    279.11952  0.054345702  0.056165372            3 
  429000    1.2003925   -5.1434725    280.03704  0.054397249   0.05615648            3 
  430000     1.176427   -5.1536909    279.95218  0.054254298   0.05614737            1 
  431000    1.1843184   -5.1739047    280.60041  0.054253753  0.056138555            3 
  432000    1.2075442    -5.146724    281.74584  0.054349121  0.056129739            1 
  433000    1.1940207   -5.1638129    282.06285  0.054284613  0.056119482            3 
  434000    1.1524174   -5.1208999    283.46047  0.054427893  0.056108594            1 
  435000    1.2012408   -5.1442134    283.47999  0.054306512  0.056098367            2 
  436000     1.190883   -5.1569985    283.71598  0.054227059  0.056088198            1 
  437000    1.1810907   -5.1593328     284.5056  0.054253547  0.056077358            3 
  438000    1.1930562   -5.1309915    284.76867  0.054179732  0.056065969            2 
  439000    1.1930876   -5.1433342    285.83007  0.054257796  0.056055091            3 
  440000    1.1716031   -5.1754532    286.78377  0.054315108  0.056043041            3 
  441000    1.1960903   -5.1563823    287.24693  0.054279465  0.056032324            4 
  442000    1.1756198   -5.1464114    288.83448  0.054455973   0.05602215            2 
  443000    1.1909615   -5.1563858    288.00027  0.054176123  0.056012197            2 
  444000    1.1623908   -5.1934049    288.15235  0.054082648   0.05600198            3 
  445000    1.1731155   -5.1643083    289.65045  0.054241657  0.055992099            4 
  446000    1.1673361   -5.1273541    291.35132   0.05443784  0.055981579            4 
  447000    1.1734898   -5.1437227    291.72419  0.054385568  0.055970864            1 
  448000    1.1975886   -5.1849074    291.18441  0.054163766  0.055960563            2 
  449000    1.1740219   -5.1633827    291.59762  0.054119825  0.055949244            1 
  450000    1.2013714   -5.1773703    291.98223  0.054070783  0.055938854            3 
  451000    1.1824929   -5.1812773    291.87643  0.053931344  0.055927355            3 
  452000    1.1863059   -5.1786023    292.25459  0.053881745  0.055915961            7 
  453000    1.1518834   -5.1561205    294.91875  0.054252898  0.055904691            2 
  454000    1.1942859   -5.1299005    295.55545  0.054250265  0.055894121            4 
  455000    1.1820204   -5.1694751    294.68698  0.053971975  0.055884071            5 
  456000    1.1879601   -5.1350211    296.98074  0.054272796  0.055873421            1 
  457000    1.1714163    -5.177644    296.54043  0.054073748  0.055862024            2 
  458000    1.1896218   -5.1378603    297.61394  0.054151009  0.055850774            2 
  459000    1.1653827    -5.151052     297.7759  0.054062437  0.055839563            1 
  460000    1.1806837   -5.1363076    299.13181  0.054190546  0.055827645            1 
  461000    1.1657115   -5.1629766    298.09756  0.053886037  0.055814284            2 
  462000    1.1659497   -5.1523443    298.98727  0.053929882  0.055801736            2 
  463000    1.1762363   -5.1380282    301.73895  0.054308667  0.055790509            2 
  464000    1.1772655   -5.1845542    301.28127  0.054109424  0.055779922            2 
  465000    1.1816275   -5.1435294    302.79952  0.054265147  0.055768983            2 
  466000    1.1763531   -5.1731194    302.26036  0.054052282  0.055759294            3 
  467000    1.1635118   -5.1711255    302.49242  0.053977947  0.055746826            6 
  468000    1.1618204   -5.1721196    304.02078  0.054134755  0.055735921            1 
  469000    1.2079741   -5.1826614    303.21395  0.053875969  0.055724409            4 
  470000     1.171358   -5.1183978    305.09682   0.05409518  0.055712591            6 
  471000    1.1808952   -5.1672369    305.26945  0.054010873  0.055700988            2 
  472000      1.16948   -5.2017002     305.3454  0.053909852  0.055689106            3 
  473000    1.1860205   -5.1856788    304.89373  0.053716301   0.05567608            3 
  474000    1.1882174   -5.1902824    306.29886  0.053850011  0.055663534            2 
  475000    1.1815947   -5.1548238    308.60456   0.05414115  0.055651658            3 
  476000    1.1536324   -5.1554345    307.23899  0.053788339  0.055639745            5 
  477000    1.1621676   -5.1354289    309.62673   0.05409272  0.055628754            3 
  478000    1.1811784   -5.1735999     309.0528  0.053879498  0.055617661            4 
  479000      1.20114    -5.191458    308.86396  0.053734161  0.055605502            3 
  480000    1.1672003   -5.1393101    310.88825  0.053973655  0.055593526            1 
  481000    1.1562854   -5.1298819    310.62646  0.053816088  0.055580301            5 
  482000    1.1789727   -5.1041793    312.36396  0.054004834  0.055567318            2 
  483000    1.1607204   -5.1512061    311.25511   0.05370171  0.055554163            1 
  484000    1.1723435   -5.1653184    311.59875  0.053649922  0.055541323            4 
  485000    1.1842385   -5.2070489    312.05704  0.053618048  0.055527561            2 
  486000    1.1895543   -5.1719464    312.17989  0.053528787  0.055513696            1 
  487000    1.1651892    -5.203071    314.02697  0.053734937    0.0554998            1 
  488000    1.1621727   -5.1945059    313.96252  0.053613819  0.055486632            5 
  489000    1.1847458   -5.1815246     314.5939  0.053611775  0.055473854            3 
  490000    1.1906081   -5.1286225    317.74616  0.054038462  0.055462384            3 
  491000    1.1494031   -5.1287938    318.61603   0.05407604  0.055450814            2 
  492000    1.1718151   -5.1794446    317.30466  0.053744014  0.055438833            5 
  493000    1.1678446    -5.160649    317.58845  0.053682969  0.055427446            4 
  494000    1.1606356    -5.160385    320.01448   0.05398355  0.055416976            1 
  495000     1.164321   -5.1673078    319.98747  0.053869944  0.055406218            3 
  496000    1.1994357   -5.1764138    320.38902  0.053828801   0.05539494            1 
  497000    1.1754712   -5.1814224    319.80577  0.053622698  0.055384663            2 
  498000    1.1816578   -5.2058547     319.4864  0.053461579  0.055372584            3 
  499000    1.1666198   -5.1737695    322.70315  0.053891641  0.055360402            2 
  500000     1.208086   -5.1446664    322.19348  0.053698913  0.055349095            1 
  501000    1.1796082   -5.1935237    322.02364   0.05356348  0.055336272            2 
  502000    1.1526059   -5.1491936    324.66414   0.05389511  0.055324181            2 
  503000    1.1586638   -5.1628051    324.57311  0.053772881  0.055313559            2 
  504000    1.1928053   -5.1658456    323.70714  0.053523007  0.055301261            4 
  505000    1.1889266   -5.1292101    326.58135  0.053891312  0.055288448            4 
  506000    1.1827455    -5.149606    326.09722  0.053705075   0.05527753            2 
  507000    1.1736759   -5.1744771    324.41758  0.053323073  0.055264968            4 
  508000    1.1625128   -5.1816871    326.70253  0.053592935  0.055250797            2 
  509000    1.1800537   -5.1883727    325.64462  0.053314444  0.055236518            3 
  510000    1.1656498   -5.1689895    327.87665  0.053574616  0.055223788            2 
  511000     1.169108   -5.1957805    326.78446  0.053291659  0.055210691            4 
  512000    1.1843438   -5.1460041    330.19537  0.053742735  0.055196614            1 
  513000    1.1816911   -5.1913268    329.04215  0.053450641  0.055183784            2 
  514000    1.1783416   -5.1848662    330.00922  0.053503441  0.055170938            3 
  515000    1.1716944   -5.2110744    330.13568  0.053420013  0.055157486            2 
  516000    1.1620515   -5.1628117    330.91331  0.053442071  0.055144401            1 
  517000    1.1778526   -5.2236915    330.20099  0.053223887  0.055131464            2 
  518000     1.159166   -5.1823421     332.8123  0.053541233  0.055118172            3 
  519000    1.1557576   -5.1955557    333.26258  0.053510369  0.055105938            2 
  520000     1.138955   -5.2015391    333.76013    0.0534872  0.055092811            1 
  521000    1.1534057   -5.2257341    333.70264  0.053375342  0.055079016            4 
  522000    1.1507653   -5.1781316    336.36754  0.053698522  0.055066722            1 
  523000    1.1643884   -5.1699451    336.25011  0.053577136  0.055054852            2 
  524000     1.178174    -5.152202    337.43125   0.05366273  0.055043129            2 
  525000    1.1776973   -5.2108315     336.3846   0.05339438  0.055031638            2 
  526000    1.1835118   -5.1918391    337.49737  0.053469165  0.055020053            3 
  527000     1.160642   -5.1726591    337.82034  0.053418775  0.055008737            2 
  528000    1.1549045   -5.1657766     340.1666   0.05368791   0.05499792            2 
  529000    1.1637043   -5.1814844    340.27065  0.053602812  0.054987549            2 
  530000    1.1885302   -5.2301595    340.34508  0.053513377  0.054977252            2 
  531000    1.1587608   -5.2028765    342.77149  0.053793391  0.054967999            3 
  532000    1.1925271   -5.1547872    344.03651   0.05389043   0.05495885            2 
  533000    1.1857338   -5.2274473     344.3041   0.05383116  0.054950957            8 
  534000    1.1769731   -5.2003794    343.93537   0.05367281  0.054943113            2 
  535000    1.1686596   -5.1982198    344.71606   0.05369409  0.054934753            3 
  536000    1.1591728   -5.1876368    344.79838  0.053606713  0.054925801            1 
  537000    1.1675642   -5.1919849     345.5818   0.05362846  0.054916692            1 
  538000    1.1453915   -5.2092052    343.70665  0.053238329  0.054906031            1 
  539000    1.1743225   -5.1990502    345.87831  0.053475311  0.054894517            1 
  540000    1.1619377   -5.1618997    345.72165  0.053352107  0.054882835            4 
  541000    1.1608997   -5.1869544     348.2219  0.053638617  0.054870916            6 
  542000    1.1682369   -5.1830427    347.77106  0.053470335   0.05485971            2 
  543000    1.1726902    -5.176399    348.34378  0.053459757  0.054848453            2 
  544000    1.1800186     -5.20429    348.72085  0.053419248  0.054837141            3 
  545000    1.1588211   -5.1747279    348.68131  0.053315184   0.05482697            5 
  546000    1.1752671   -5.1558092     351.0566  0.053580068  0.054818279            1 
  547000    1.1492711   -5.2350618    350.25836  0.053360506  0.054809107            7 
  548000    1.1405125   -5.1656149    353.15806  0.053704084  0.054798673            2 
  549000    1.1550735    -5.158382    352.67317   0.05353266  0.054788718            2 
  550000    1.1726044   -5.1356324    354.90626  0.053773675  0.054779084            4 
  551000    1.1590883   -5.2085635    354.80803  0.053661226  0.054771328            2 
  552000    1.1632942   -5.2057011    356.12962   0.05376353  0.054764046            5 
  553000    1.1544327   -5.1725322    356.76664  0.053762303  0.054755482            2 
  554000    1.1310794   -5.1979018    355.92461    0.0535386  0.054748068            3 
  555000    1.1546659   -5.1988947    357.20746  0.053634754  0.054739415            2 
  556000    1.1525759   -5.2064529     357.7884  0.053625359  0.054730451            2 
  557000    1.1568154   -5.1871056    359.10367  0.053725863  0.054722621            2 
  558000    1.1648735   -5.1923686    359.29459  0.053658093  0.054714327            2 
  559000    1.1602065   -5.1992587    359.61832  0.053610364  0.054705694           12 
  560000    1.1781926   -5.2002362    360.43217  0.053635739  0.054698041            2 
  561000    1.1408138   -5.1905789    361.29172  0.053667813  0.054688861            5 
  562000    1.1466751   -5.2175199    359.36489  0.053286609   0.05468011            2 
  563000    1.1727154   -5.2116786    361.43204  0.053497934  0.054671842            4 
  564000    1.1560519   -5.1726051     361.5526  0.053420892  0.054663414            3 
  565000    1.1513795   -5.1877247     363.3525  0.053591815  0.054655958            2 
  566000    1.1655309   -5.2135755    362.12127  0.053315852  0.054647277            4 
  567000     1.149994   -5.1847126    364.58629   0.05358411  0.054638827            1 
  568000    1.1571815   -5.2195873    363.54068  0.053336367  0.054630614            2 
  569000    1.1723308   -5.1615486     365.7661  0.053568556  0.054621254            4 
  570000    1.1489382   -5.1955307    364.55276  0.053297187  0.054612102            2 
  571000    1.1411409    -5.191818     365.4015  0.053327714  0.054603114            3 
  572000    1.1436434   -5.1896228    366.85365  0.053446045  0.054594989            2 
  573000    1.1715832   -5.1731469    366.66196  0.053324892  0.054585493            3 
  574000    1.1516548   -5.2096428    365.74278  0.053098545  0.054575544            3 
  575000    1.1958664   -5.1709239    368.47613  0.053402338  0.054566168            2 
  576000    1.1522045   -5.2198927    366.72857  0.053056795  0.054556827            4 
  577000    1.1566387   -5.1924204    369.46991   0.05336076  0.054546435            4 
  578000    1.1813209   -5.2038406    369.57877  0.053284137  0.054535632            3 
  579000    1.1874481   -5.2058134    369.17967  0.053134667  0.054525884            2 
  580000    1.1514645   -5.1826294    370.84158  0.053281836     0.054515            2 
  581000    1.1381138   -5.2304689     370.1289  0.053087909  0.054505528            6 
  582000    1.1505493   -5.1864484    370.46617  0.053044984  0.054494428            2 
  583000    1.1368722    -5.208747    371.62726  0.053119962  0.054483597            8 
  584000    1.1602732   -5.2198982    371.91483  0.053070039  0.054472117            3 
  585000    1.1853895   -5.1943188    372.78448  0.053103202  0.054460311            2 
  586000    1.1317056   -5.2116551    373.56743  0.053123924  0.054448236            4 
  587000    1.1412685   -5.1840762    373.18306  0.052978856  0.054436288            5 
  588000    1.1581837   -5.2291863    372.77682  0.052831182  0.054424903            2 
  589000    1.1812186    -5.187876     374.1767  0.052939544  0.054412814            3 
  590000    1.1518013   -5.1875669     375.2172  0.052996779  0.054400144            3 
  591000    1.1389409   -5.1884941    375.53371  0.052951736  0.054388341            3 
  592000    1.1529021   -5.2508555    375.61754  0.052874091  0.054376433            5 
  593000     1.164407   -5.2035501    378.78176   0.05322959  0.054364576            3 
  594000     1.170004   -5.1985962    377.76516  0.052997357  0.054353945            2 
  595000    1.1537984   -5.1535661    379.10935  0.053096548  0.054342108            5 
  596000    1.1615736   -5.2127141    378.51798  0.052924773  0.054330805            4 
  597000    1.1687008   -5.1841598    379.82393  0.053018415  0.054319962            1 
  598000    1.1502151   -5.2222305    379.10703  0.052829854  0.054308776            5 
  599000    1.1589431   -5.1761655    381.37709  0.053057469  0.054297707            3 
  600000    1.1664157   -5.2294004    381.83869  0.053033151  0.054287533            2 
  601000    1.1278039   -5.1604888    382.95948  0.053100316  0.054277596            6 
  602000    1.1628987   -5.1503157    384.14705  0.053176501  0.054267453            4 
  603000    1.1578731   -5.2172488    383.33606  0.052976238  0.054257821            3 
  604000    1.1259657   -5.1974786    386.08028  0.053267146  0.054248654            2 
  605000    1.1579125    -5.218003    385.51504  0.053101246  0.054239906            4 
  606000    1.1696163   -5.2017421    385.95942  0.053074728  0.054229807            3 
  607000    1.1645953   -5.2011233    386.04566   0.05299913  0.054220134            2 
  608000    1.1453823   -5.1708373    387.22179  0.053073161  0.054209846            1 
  609000    1.1532022   -5.1932414    387.32719  0.053000437  0.054200031            1 
  610000    1.1328249   -5.2054704    387.91425   0.05299375  0.054189546            2 
  611000    1.1572693   -5.1909628    389.14955  0.053075498  0.054179923            2 
  612000    1.1352362   -5.1639577    389.51068  0.053037946  0.054171033            2 
  613000    1.1593721    -5.196546    390.87618  0.053137055   0.05416079            3 
  614000    1.1391656   -5.2343921    389.40129  0.052850338  0.054151331            4 
  615000    1.1617418   -5.1837254    393.25465  0.053286538   0.05414117            4 
  616000    1.1533768   -5.2476665    389.67336  0.052715551  0.054132047            1 
  617000    1.1569681   -5.2085018    392.26615  0.052980302  0.054122908            3 
  618000    1.1520376   -5.2206882     391.5644  0.052799946  0.054113002            3 
  619000    1.1782274   -5.2004916    394.16471  0.053064716  0.054103047            3 
  620000    1.1417572   -5.2367949    391.66206   0.05264275  0.054093156            2 
  621000     1.166791   -5.1770518    395.83686  0.053118204  0.054082584            1 
  622000     1.165606    -5.216268    395.41154  0.052975823  0.054073437            3 
  623000    1.1470973   -5.2051538    395.46275  0.052897638  0.054063618            3 
  624000    1.1761502   -5.2509442    394.48474  0.052682257  0.054052742            3 
  625000    1.1373611   -5.1946591    396.03048  0.052804064  0.054041926            3 
  626000    1.1430686    -5.229482    396.87717  0.052832424  0.054031694            4 
  627000     1.160208   -5.1814966    398.24501  0.052929959  0.054020745            2 
  628000    1.1437571   -5.2436744    396.39301  0.052599921  0.054009795            4 
  629000    1.1670174   -5.2017985      398.783  0.052832936  0.053998124            5 
  630000     1.179275   -5.1876295    399.64231  0.052862739  0.053987087            3 
  631000    1.1306658   -5.2091096    399.36189  0.052741929  0.053976737            1 
  632000    1.1465892   -5.1763048    401.57344  0.052950084  0.053966008            2 
  633000    1.1515074   -5.1899073    401.85553  0.052903572  0.053955291            2 
  634000    1.1507137   -5.2089942    400.60621  0.052655917   0.05394473            6 
  635000    1.1313209   -5.1948563    402.24177  0.052787634  0.053933496            1 
  636000    1.1396095   -5.1914671     402.6464  0.052757652  0.053922778            5 
  637000    1.1389677   -5.2125099    403.08515  0.052732228  0.053912638            2 
  638000    1.1311863   -5.2191769    405.48098  0.052962511  0.053902338            3 
  639000    1.1747383   -5.1922958    405.23654  0.052847749   0.05389215            3 
  640000    1.1391864    -5.225738    404.83519  0.052712915  0.053882248            1 
  641000    1.1493272   -5.2388043    405.48474  0.052715124  0.053872398            3 
  642000    1.1445115   -5.2138104    406.90464  0.052817321  0.053862126            2 
  643000    1.1445196   -5.2189194    405.60577  0.052566844    0.0538511            2 
  644000    1.1351094   -5.1841247    407.96412  0.052790388  0.053840559            4 
  645000     1.168818    -5.218942    407.97681  0.052710182  0.053830761            4 
  646000    1.1488872   -5.2178256    407.95509  0.052625786  0.053820171            4 
  647000    1.1533131   -5.2373122    408.08056  0.052560608  0.053809381            2 
  648000    1.1286718   -5.2293182    408.49251  0.052532473   0.05379904            3 
  649000    1.1316595   -5.2341564    408.29254  0.052425853  0.053787792            3 
  650000    1.1722495   -5.2132517    410.67541  0.052650693  0.053776817            2 
  651000    1.1389536   -5.2203897    411.92864   0.05273024  0.053765993            2 
  652000    1.1190059   -5.2099499    411.74087  0.052625367  0.053755442            2 
  653000    1.1523006      -5.2267    412.03739  0.052582617  0.053745037            3 
  654000    1.1501402   -5.2007924    412.71898  0.052589065  0.053734276            2 
  655000    1.1349862   -5.2155648    413.82215  0.052649129  0.053723715            4 
  656000    1.1314118   -5.2475108    412.53386  0.052405216  0.053712991            2 
  657000    1.1640526   -5.2151392    413.01194  0.052386091  0.053702306            4 
  658000    1.1458618   -5.2485661    413.30869  0.052344058  0.053691608            2 
  659000    1.1620274   -5.2504488    415.22787  0.052507318  0.053680263            5 
  660000    1.1492176   -5.2419586     414.8544  0.052380606  0.053668373            3 
  661000     1.174493   -5.2398316     415.4079  0.052371142  0.053657052            2 
  662000    1.1529724   -5.2340158    416.08336  0.052377059  0.053645051            1 
  663000    1.1676816   -5.2070741     418.6728  0.052623529  0.053634025            4 
  664000    1.1597653   -5.2476616    416.90681  0.052322642  0.053623002            3 
  665000    1.1380812   -5.2188488    418.81895  0.052483578    0.0536123            4 
  666000    1.1203618    -5.206825    419.24838  0.052458506  0.053601648            2 
  667000    1.1326887   -5.2047044    421.30929  0.052637342  0.053590576            3 
  668000    1.1469345   -5.2161573    420.71427  0.052484316  0.053580453            1 
  669000    1.1583838   -5.2100509    421.26142  0.052474019  0.053569419            3 
  670000    1.1318737   -5.2336432    420.65183   0.05231988  0.053558881            3 
  671000    1.1361813   -5.2255976    421.42593  0.052338044  0.053547641            5 
  672000    1.1396777   -5.2523098    423.54489  0.052522928  0.053536655            6 
  673000    1.1511222   -5.2200625     424.1208  0.052516196  0.053525899            3 
  674000    1.1431834   -5.2730257    423.10062  0.052312144  0.053514906            3 
  675000    1.1392091    -5.202782    424.89515  0.052456191  0.053504246            5 
  676000    1.1389845   -5.2214877    424.38542  0.052315756  0.053493546            3 
  677000    1.1441964   -5.2306481     424.1433  0.052208679  0.053482524            4 
  678000     1.150129   -5.2202213    424.65333  0.052194362  0.053470744            3 
  679000    1.1272656   -5.2194349    427.61585  0.052481081  0.053459222            2 
  680000    1.1401797   -5.2423345    426.39226  0.052253953  0.053447812            2 
  681000     1.164523   -5.2493722    425.28491  0.052041717  0.053435153            2 
  682000     1.156001   -5.2355354    427.96514  0.052292905  0.053423069            7 
  683000    1.1371514   -5.2645843    426.61733  0.052051895  0.053410656            4 
  684000    1.1310304   -5.2103758    430.21578  0.052414204  0.053399238            2 
  685000    1.1606277   -5.1634343    429.23122  0.052217911  0.053388388            3 
  686000    1.1328193   -5.2333724      428.798  0.052089164  0.053377827            2 
  687000    1.1376594   -5.2160622    430.90252  0.052268622  0.053366452            4 
  688000    1.1622629   -5.2434414    431.99035  0.052324412  0.053355664            2 
  689000    1.1519223   -5.2284507    432.06512  0.052257513  0.053345021            2 
  690000    1.1473109   -5.2402048    431.48312  0.052111488  0.053333711            4 
  691000    1.1222237   -5.2459037    432.95179  0.052213193  0.053322963            1 
  692000    1.1390057   -5.2455882      433.281  0.052177385  0.053311884            2 
  693000      1.15845   -5.2426166    433.64161  0.052145456  0.053300616            2 
  694000    1.1321294   -5.1906743    435.17956   0.05225499  0.053289418            3 
  695000    1.1500018   -5.1926546    435.90558  0.052266856  0.053278243            2 
  696000    1.1343958   -5.2891999    434.29066  0.051998402  0.053266864            3 
  697000    1.1028699   -5.2356466    437.15629  0.052266414  0.053255566            3 
  698000    1.1296525   -5.2373018    439.17686  0.052432767  0.053244998            1 
  699000    1.1462944   -5.2203516    437.39997  0.052145919  0.053233637            3 
  700000     1.116563   -5.2490897    437.28781  0.052058073  0.053223429            2 
  701000    1.1659656   -5.2335393    437.95758  0.052063431  0.053212258            2 
  702000    1.1262112    -5.234381    438.16394  0.052013763  0.053201317            2 
  703000    1.1496224   -5.2195331    441.39566  0.052322862  0.053190286            2 
  704000    1.1278491   -5.2305866    439.80151  0.052059837  0.053179622            2 
  705000    1.1302148   -5.2390408    439.96604  0.052005442  0.053168871            1 
  706000    1.1462814   -5.2304846    442.04879  0.052177619  0.053157933            3 
  707000    1.1255478   -5.2118327    441.14682  0.051997504  0.053147367            3 
  708000    1.1573894   -5.1856391    443.73182  0.052228322  0.053136937            2 
  709000    1.1570843   -5.2595403    441.00395  0.051834033  0.053125635            3 
  710000    1.1489553    -5.254034    443.42043  0.052044652  0.053113335            1 
  711000    1.1462359   -5.2327451    443.44238  0.051974025  0.053101611            2 
  712000    1.1383662   -5.2331414    443.21607  0.051874539  0.053090419            3 
  713000    1.1027222   -5.2468064    443.96179  0.051888942  0.053078195            2 
  714000    1.1328361   -5.2177228    444.19957  0.051844021  0.053066227            3 
  715000    1.1388442   -5.2398078    444.07911  0.051757471  0.053053681            4 
  716000    1.1410427   -5.2466618     443.9628  0.051671648  0.053040387            3 
  717000    1.1591103   -5.2668824    443.55873  0.051552619  0.053027057            2 
  718000    1.1331017     -5.20447    446.37677  0.051807888  0.053013773            3 
  719000    1.1116938   -5.2494014    444.51206  0.051519711  0.053000113            2 
  720000    1.1347377   -5.2711497     445.4005  0.051550984  0.052986379            1 
  721000    1.1441906   -5.2300062    447.85222  0.051762855  0.052973155            2 
  722000    1.1459063   -5.2154744    447.65608  0.051668522  0.052960147            4 
  723000    1.1316661    -5.250065     448.7877  0.051727489  0.052946702            1 
  724000    1.1466218   -5.2536334    447.37892   0.05149389  0.052933551            5 
  725000    1.1414645   -5.2164774    449.52869  0.051669964   0.05291991            4 
  726000    1.1542076   -5.2252311    450.98783   0.05176628  0.052906869            3 
  727000    1.1493144   -5.2530289    448.68591  0.051431214  0.052892634            5 
  728000    1.1367297   -5.2457656    447.95455  0.051276849  0.052878008            2 
  729000    1.1468791   -5.2748484    450.22061  0.051465547  0.052863564            2 
  730000    1.1476982   -5.2379297    450.76552  0.051457251  0.052849725            1 
  731000    1.1414496   -5.2450513    451.82194  0.051507289  0.052836772            2 
  732000    1.1226904   -5.2733377    452.19733   0.05147966  0.052823964            4 
  733000    1.1626591   -5.2390455    453.22564  0.051526335  0.052810952            3 
  734000    1.1316993    -5.264023    454.10978  0.051556514  0.052797963            2 
  735000    1.1469902   -5.2465754    455.27384  0.051618349  0.052785573            2 
  736000     1.112743   -5.2156584    455.45759   0.05156902  0.052772907            4 
  737000    1.1001227   -5.2351311    455.45694  0.051498975  0.052759826            1 
  738000    1.1550303   -5.2439911    454.23544  0.051291265  0.052745978            2 
  739000    1.1251424   -5.2871091    454.60804  0.051263875   0.05273201            2 
  740000    1.1530622    -5.246387    455.82401  0.051331533  0.052717784            4 
  741000    1.1609671   -5.2660085    456.46598  0.051334455  0.052703608            4 
  742000    1.1214818   -5.2581885    456.30417  0.051247099  0.052689358            2 
  743000    1.1263593   -5.2365753    457.85577   0.05135215  0.052674489            4 
  744000    1.1068867   -5.2467813    456.90417  0.051176542  0.052659491            3 
  745000    1.1477029   -5.2656547    456.85321  0.051102149  0.052644224            4 
  746000    1.1459216   -5.2748777    456.87673  0.051036274  0.052629073            3 
  747000    1.1480795   -5.2092536    459.15288  0.051221875  0.052614562            3 
  748000    1.1110894    -5.231747    460.61382  0.051316156   0.05260064            6 
  749000     1.134293   -5.2281267    461.86666  0.051387033  0.052587272            2 
  750000    1.1103787   -5.2172009    461.31564  0.051257293  0.052573852            3 
  751000    1.1490144   -5.2676585    461.17529  0.051173467  0.052559992            5 
  752000    1.1552011    -5.267388     461.5337  0.051145135  0.052545808            2 
  753000    1.1633387   -5.2757495    462.42577  0.051175938  0.052531755            2 
  754000    1.1455918   -5.2182947    463.35493  0.051210757  0.052518678            3 
  755000    1.1573983   -5.2591806    464.12196   0.05122759  0.052505274            2 
  756000    1.1162429   -5.2763837    462.63611  0.050996044  0.052491511            3 
  757000    1.1275062     -5.22508     463.8945  0.051067206  0.052477646            3 
  758000    1.1368602   -5.2459889    464.91252  0.051111755  0.052464119            5 
  759000    1.1267456   -5.2296874    467.55568  0.051334616  0.052450111            2 
  760000    1.1373292   -5.2597879    465.05979  0.050993398   0.05243565            3 
  761000    1.1138704   -5.2947864    464.59392  0.050875375  0.052421207            1 
  762000    1.1495998    -5.254071    467.25928  0.051100097  0.052406811            4 
  763000    1.1511361   -5.2889393    465.24286  0.050812894  0.052392683            4 
  764000     1.126395   -5.2444598    469.53873  0.051214958  0.052378988            1 
  765000    1.1311484   -5.2573193    470.34125   0.05123543  0.052365206            2 
  766000    1.1308181   -5.2921609    470.03274   0.05113498  0.052351865            3 
  767000    1.1189383   -5.2616106    469.62723  0.051024253   0.05233805            3 
  768000    1.1429568   -5.2770873    470.53648  0.051056476  0.052324251            1 
  769000    1.1273063   -5.2579618     469.3064  0.050856783    0.0523102            5 
  770000    1.1112572   -5.2664889    470.65201  0.050936364  0.052296112            3 
  771000    1.1223644   -5.2413544    472.51189  0.051071324  0.052282202            2 
  772000    1.1101074   -5.2365378    474.54941  0.051225109    0.0522685            3 
  773000    1.1237447   -5.2656481    473.53961   0.05104998  0.052254451            2 
  774000    1.1161983   -5.2599638    473.55098  0.050985247  0.052241773            3 
  775000    1.1059674   -5.2349362    477.01958  0.051292428  0.052229291            2 
  776000    1.1375261   -5.2682992    476.41223  0.051161107  0.052216877            3 
  777000    1.1403947   -5.2402551    479.87287  0.051466417  0.052205431            1 
  778000    1.1331119   -5.2346589    478.19639  0.051220693  0.052194028            3 
  779000    1.1318898   -5.2536586    479.42681  0.051286565  0.052182019            2 
  780000    1.1364377     -5.27605    476.83586  0.050944002  0.052169941            2 
  781000    1.1254593   -5.2453248    480.81253  0.051303087  0.052158039            2 
  782000     1.146541    -5.254933    481.30781  0.051290261  0.052146484            3 
  783000    1.1364095   -5.2593133    480.25688  0.051112908  0.052135088            4 
  784000    1.1486196   -5.2833864    479.90607  0.051010425  0.052123354            1 
  785000    1.1325223   -5.2267363    483.19357  0.051294435  0.052112108            5 
  786000    1.1104134   -5.2503611    482.56797  0.051162847  0.052100673            2 
  787000    1.1518234   -5.2822464    483.47209  0.051193571  0.052089627            2 
  788000    1.1597245   -5.2913185    482.36983  0.051012038  0.052077944            3 
  789000     1.146781    -5.262716    483.84964   0.05110368  0.052066399            2 
  790000    1.1015624    -5.273003    482.64212  0.050911616  0.052054566            3 
  791000     1.109357   -5.2421263    483.75987  0.050965009  0.052042603            3 
  792000    1.1584264   -5.2925016    483.89582  0.050914964  0.052030467            6 
  793000    1.1482752   -5.2329487    486.70176  0.051145624  0.052018932            2 
  794000    1.1445831   -5.2440194    486.59118  0.051069603  0.052007362            2 
  795000    1.1450331   -5.2938833    487.48722  0.051099289  0.051996264            6 
  796000    1.1450928   -5.2648231    488.26221  0.051116228  0.051985313            4 
  797000    1.1280844    -5.279761    488.92498  0.051121391  0.051974211            2 
  798000    1.1451525   -5.2634819    489.21411  0.051087522  0.051962905            4 
  799000    1.1205539   -5.2886694    488.58243    0.0509577  0.051951222            4 
  800000    1.1216738   -5.2625165    488.88043  0.050925045  0.051939475            2 
  801000    1.1195012   -5.2650555    489.00378  0.050874301  0.051927517            4 
  802000    1.1107488   -5.2633294    490.23392  0.050938687  0.051916046            3 
  803000    1.1085311   -5.2738469    492.31838  0.051091572  0.051905015            4 
  804000    1.1287393   -5.2435916    492.42044  0.051038603  0.051894414            3 
  805000    1.1121228   -5.2432604    493.32588  0.051068931  0.051883554            3 
  806000    1.1394571   -5.2671687    492.05294   0.05087396  0.051872173            2 
  807000    1.1446282   -5.2617844    494.73213   0.05108758   0.05186155            3 
  808000    1.1118547   -5.2973602    493.46389  0.050893553  0.051850622            3 
  809000    1.1081924    -5.242888    493.74403    0.0508595  0.051839181            2 
  810000    1.1333445   -5.2668886    494.40724  0.050864943  0.051827245            1 
  811000    1.1350894   -5.3076729    493.73782  0.050733438  0.051815618            8 
  812000    1.1159054   -5.2480422    497.02339  0.051008148  0.051804501            3 
  813000    1.1229109   -5.2888315    497.19246  0.050962737  0.051793553            4 
  814000    1.1116593   -5.2671187    497.77623  0.050959893  0.051782572            3 
  815000    1.1342833   -5.2453508    497.21858  0.050840346  0.051771796            4 
  816000    1.1162884   -5.2859368    497.73045  0.050830315  0.051760769            2 
  817000    1.1094497   -5.2986276    498.70325  0.050867324  0.051749002            3 
  818000    1.1296859   -5.2637323    498.28769  0.050762804  0.051737651            2 
  819000    1.1157291   -5.2854132    498.95814  0.050769042  0.051726697            3 
  820000    1.1362631    -5.275863    501.71252  0.050987044  0.051715698            2 
  821000     1.090545   -5.2641433    501.06249  0.050858961  0.051704442            2 
  822000    1.1195437   -5.2969271    503.11605  0.051005277  0.051693987            3 
  823000    1.1489451   -5.3032289    502.06796  0.050837177  0.051683375            1 
  824000    1.1423366   -5.2617699    502.85846  0.050855426  0.051672423            2 
  825000    1.1116791   -5.2853283    502.11569  0.050718757  0.051660671            5 
  826000    1.1172481   -5.3278203    500.67557  0.050512063  0.051649168            4 
  827000     1.114085   -5.2153012     503.6524  0.050750947  0.051637611            3 
  828000     1.100159   -5.2990959    503.10979  0.050635044  0.051625795            2 
  829000    1.1056029   -5.3136864    503.17565  0.050580584  0.051614026            1 
  830000    1.1300141   -5.2869354    504.77101  0.050679821  0.051602066            3 
  831000    1.1036458   -5.2737526    503.74747  0.050516193   0.05158959            4 
  832000     1.130091   -5.2677284    505.22978  0.050603944  0.051577902            2 
  833000     1.108658   -5.2676744    506.77625  0.050697904  0.051565865            4 
  834000    1.0894349   -5.2842967    507.45934   0.05070537     0.051554            3 
  835000    1.1339426   -5.3047624    506.82282   0.05058112  0.051541983            1 
  836000    1.1328988   -5.2658438    507.62401   0.05060048   0.05152998            2 
  837000    1.1261855   -5.2571058    509.81342  0.050758007  0.051518498            2 
  838000     1.103758   -5.2666385    508.79021  0.050595685  0.051507049            2 
  839000    1.1355544   -5.2882244    509.63203  0.050618994  0.051495831            5 
  840000    1.1338451   -5.2686408    506.88997  0.050286704  0.051484762            5 
  841000    1.1230716   -5.2554304    512.19072  0.050752152  0.051472939            4 
  842000    1.1267961   -5.2841597     508.8006  0.050356354  0.051460976            2 
  843000    1.1326284    -5.289786    510.03445  0.050418589  0.051449159            2 
  844000    1.1188611   -5.2482229    513.30678  0.050681949  0.051437676            4 
  845000    1.1050505    -5.268648    514.33892  0.050723759  0.051426677            1 
  846000    1.1146717   -5.2814805    513.27956  0.050559453  0.051415202            3 
  847000    1.1193998   -5.2712269    514.21663  0.050591955  0.051404346            6 
  848000     1.088839    -5.265066    513.48251  0.050460152  0.051393242            3 
  849000    1.1000673   -5.2958153    513.13593  0.050366699   0.05138196            7 
  850000    1.0942587   -5.3070278    513.72068  0.050364773  0.051370425            2 
  851000    1.1087065   -5.2725992    516.69464  0.050596812  0.051359461            5 
  852000    1.1278679    -5.244983    517.91037  0.050656335  0.051348553            5 
  853000    1.1166124   -5.2468174    517.43543   0.05055055  0.051338081            3 
  854000    1.1480916   -5.2542883    518.09831  0.050556041  0.051327134            6 
  855000     1.124322   -5.2598016    519.96225  0.050678582  0.051315939            7 
  856000    1.1342531   -5.2691541     519.3513  0.050559901  0.051304684            4 
  857000    1.1126015   -5.2829301    518.45964    0.0504142  0.051293066            1 
  858000    1.1249007   -5.2483831    521.58779  0.050659265   0.05128172            2 
  859000    1.1047305   -5.2909367    518.49288  0.050300046  0.051270323            2 
  860000     1.121298     -5.30538     519.2133  0.050311366  0.051259124            2 
  861000    1.1302146   -5.2983017    520.41124  0.050368877  0.051247136            3 
  862000     1.129274   -5.2781977    520.39533  0.050308907  0.051235081            2 
  863000    1.1162743   -5.3228342    521.51666  0.050358889  0.051223746            2 
  864000    1.1161525   -5.2944721    521.64676  0.050313152  0.051212218            3 
  865000    1.1248713   -5.2763338    522.25847  0.050313918  0.051201009            2 
  866000    1.1382122   -5.3050289    522.90014  0.050317566  0.051189741            2 
  867000    1.1030793   -5.3011033    522.86003  0.050255674  0.051178351            1 
  868000    1.1176909    -5.301638    522.37216  0.050150937   0.05116747            2 
  869000    1.1302962   -5.2917932    524.19318  0.050267854  0.051156536            3 
  870000    1.1007379   -5.3271303    524.16107  0.050206999  0.051145308            4 
  871000    1.1242315   -5.2844214     527.8053   0.05049802   0.05113417            4 
  872000    1.0962132    -5.284068    526.74176  0.050338471  0.051122857            3 
  873000    1.1094696   -5.3076184     528.0012  0.050401031  0.051112028            5 
  874000    1.1246691   -5.3074328    526.00065  0.050152617  0.051100323            2 
  875000     1.098493   -5.3063988    526.75268  0.050166922  0.051088613            2 
  876000    1.1041985   -5.3063213     526.6863  0.050103339  0.051076615            3 
  877000    1.1479405    -5.284933    529.47655  0.050311341  0.051065357            4 
  878000    1.0953256   -5.2830933    529.79793  0.050284541  0.051054078            2 
  879000    1.0973549   -5.2691176    531.03778  0.050344878  0.051043121            8 
  880000    1.0873026   -5.2977127    529.89441  0.050179395  0.051032007            5 
  881000    1.1395235   -5.3030088    531.92344  0.050314363   0.05102097            4 
  882000    1.1115839   -5.3052925    531.40594  0.050208422  0.051010037            4 
  883000    1.1078998   -5.2554586    533.55953  0.050354806  0.050999864            2 
  884000    1.0982171   -5.2582916    532.51832  0.050199691  0.050988719            5 
  885000    1.1131604   -5.3224561    531.69506  0.050065448  0.050977536            3 
  886000    1.1019825   -5.3130691    535.58814  0.050375107   0.05096727            2 
  887000     1.107426   -5.2752472    534.34007  0.050201058  0.050957341            2 
  888000    1.0979382   -5.3054432    534.02151  0.050114631  0.050946705            2 
  889000    1.1071677    -5.296544    537.64319  0.050397749  0.050935712            4 
  890000    1.1334132   -5.2591285      535.574  0.050147378  0.050925197            1 
  891000    1.1045504   -5.3193334    535.46831  0.050081211  0.050913906            4 
  892000    1.1214061   -5.3079414     537.1747  0.050184483  0.050903247            3 
  893000    1.0931723   -5.2954179    537.00151  0.050112123   0.05089228            2 
  894000    1.0982432   -5.2780851    539.12097  0.050253632  0.050881374            2 
  895000    1.1088262   -5.2994978    538.61123  0.050150021  0.050870228            3 
  896000    1.0989922   -5.2807895     539.2662  0.050154967  0.050859264            2 
  897000      1.09656   -5.2881813    538.69632   0.05004611  0.050847989            3 
  898000    1.1124811   -5.2756229    541.18368  0.050221203  0.050837248            3 
  899000    1.0904349    -5.289476    538.57347  0.049923384  0.050826724            3 
  900000    1.1238918   -5.2857957    538.75839  0.049885037  0.050815499            4 
  901000    1.0938296    -5.280534    541.17207   0.05005291  0.050804306            2 
  902000    1.1164457   -5.2970862     542.3582  0.050107003  0.050793054            1 
  903000    1.1382282   -5.3375901    539.43587  0.049781827    0.0507821            1 
  904000    1.1005765   -5.3044508    541.94519  0.049958074  0.050770932            3 
  905000    1.0835656   -5.3154864    543.45418  0.050041821  0.050759481            2 
  906000    1.1046356   -5.2691935    544.01469  0.050038143  0.050748245            1 
  907000    1.0982201   -5.3264846    542.63383  0.049856103  0.050736913            4 
  908000    1.0703518   -5.2931235    545.23869  0.050040262  0.050726235            3 
  909000    1.1237297   -5.3223211    543.65891  0.049840384  0.050714673            3 
  910000    1.0946642   -5.3478872    543.55434  0.049776038  0.050703588            3 
  911000    1.1081437   -5.2819065    547.19451  0.050054383   0.05069268            6 
  912000    1.1071087   -5.3352433    544.30881  0.049735819  0.050681816            5 
  913000    1.1050173   -5.2780986     546.5329  0.049884347  0.050670792            1 
  914000    1.0957471   -5.2926334    548.35608  0.049995995   0.05066035            4 
  915000    1.1123521   -5.3195479    547.48665  0.049862172  0.050649296            2 
  916000    1.0922274   -5.2979398     550.4289  0.050075409  0.050639093            3 
  917000    1.0769955   -5.3233036    549.70941  0.049955417  0.050628061            2 
  918000     1.089823   -5.2901522    552.37745  0.050143196  0.050617678            2 
  919000    1.1054321   -5.2794015    551.88113  0.050043628  0.050607405            4 
  920000    1.1083382   -5.3050205    551.38945  0.049944697  0.050597225            4 
  921000    1.1111065   -5.2995632    553.27295  0.050060889   0.05058754            5 
  922000    1.1091413   -5.3148686    552.54427  0.049940733  0.050577069            1 
  923000    1.0939355   -5.3320882    551.71832  0.049812055  0.050566541            2 
  924000    1.1185791   -5.3050755    551.95255   0.04977927  0.050555422            3 
  925000    1.0986163   -5.2945103    551.26034  0.049663094  0.050544225            4 
  926000    1.1103581   -5.2958027    552.17838  0.049692079  0.050532747            1 
  927000     1.132087   -5.2516948    555.09726  0.049900868  0.050521461            2 
  928000    1.1168173   -5.2975161    553.55833  0.049708901  0.050510136            5 
  929000    1.0814302   -5.2954122    555.43952  0.049824141     0.050499            2 
  930000    1.1142937   -5.3199061    555.01541  0.049732564  0.050487943            2 
  931000    1.1024321   -5.2840073    557.01817  0.049858411  0.050477049            6 
  932000    1.1043121   -5.3146604    555.04044   0.04962808  0.050466175            4 
  933000    1.1028979   -5.2820387    557.68948  0.049811493  0.050455096            1 
  934000    1.0921952    -5.314395    557.58776  0.049749086  0.050444811            3 
  935000    1.0868044   -5.3170105    558.25287  0.049755158  0.050433992            2 
  936000    1.0795563   -5.2986234    557.37738  0.049624055  0.050422907            2 
  937000    1.0877066   -5.3496602    558.30852  0.049653906  0.050411684            4 
  938000    1.1224719   -5.3139424    561.56535  0.049890312  0.050400655            6 
  939000     1.125108   -5.2792344    559.64858  0.049667073  0.050390421            2 
  940000    1.1217056   -5.3208777    560.90045  0.049725218  0.050380097            3 
  941000     1.091003   -5.2986282    561.94241  0.049764649  0.050369484            4 
  942000    1.1095076   -5.3244914    560.89576  0.049619228  0.050358871            2 
  943000     1.113099   -5.3198082    560.34213  0.049517685  0.050347836            2 
  944000    1.0875393   -5.3088995    561.34332  0.049553612  0.050337004            3 
  945000    1.0939233   -5.3093529    563.13153  0.049658865  0.050326335            4 
  946000    1.0881377   -5.2897102    563.11962  0.049605322  0.050315305            3 
  947000    1.0954472   -5.3029275    562.70282  0.049516264  0.050304326            2 
  948000    1.1237568   -5.2953027    561.75184  0.049380436  0.050292456            4 
  949000    1.0843313   -5.2978127      562.224  0.049369863  0.050280283            2 
  950000    1.0887789   -5.2890361     566.9694  0.049734158  0.050268466            5 
  951000    1.0947724   -5.3101602     563.8347  0.049407177  0.050256927            2 
  952000    1.0849393   -5.3026792    565.84069  0.049530872   0.05024531            3 
  953000    1.0831114   -5.3112675    564.43442   0.04935593  0.050233495            4 
  954000    1.0946328   -5.3070993     566.1634  0.049455224  0.050221883            4 
  955000    1.1042052   -5.3440643    563.73617  0.049191637  0.050209747            6 
  956000    1.1026374   -5.2564827    567.37126  0.049457048  0.050198073            2 
  957000    1.1101722   -5.3162803    564.68415  0.049171382  0.050185972            4 
  958000    1.1057368   -5.3069961    566.43144  0.049272046     0.050174            3 
  959000    1.0871375   -5.3275319    566.85655  0.049257608  0.050161894            4 
  960000    1.0802379   -5.3011909    568.52068  0.049350754  0.050149661            2 
  961000    1.0902909   -5.3386014    564.82283   0.04897874  0.050137474            2 
  962000    1.1046545   -5.3356222    566.59384   0.04908124   0.05012457            5 
  963000    1.0885316   -5.3115353    569.04384  0.049242284  0.050111717            3 
  964000    1.1029592   -5.2865424    569.76034  0.049253142  0.050099063            2 
  965000    1.0920741   -5.3137564    568.94151  0.049131391  0.050086331            7 
  966000    1.1125154   -5.3780011    566.65255   0.04888307  0.050073341            3 
  967000    1.1070669    -5.304241    569.24049   0.04905554  0.050060294            3 
  968000     1.116739   -5.3490859    570.15151  0.049083291  0.050047469            4 
  969000     1.105608   -5.3088193    570.58424  0.049069852  0.050034684            4 
  970000    1.1013485   -5.2835516    569.37286  0.048915194  0.050021719            5 
  971000    1.1029115   -5.3015432    571.48422   0.04904602  0.050008835            5 
  972000    1.0897556   -5.3003226       571.99  0.049038923   0.04999621            3 
  973000    1.0856612   -5.3284687    573.13358  0.049086466  0.049983452            3 
  974000     1.083322   -5.3551293    570.66285   0.04882468  0.049970674            4 
  975000     1.104311   -5.3478209    573.66561  0.049031249  0.049957929            3 
  976000    1.1056569   -5.3523905    571.69467  0.048812728  0.049945047            2 
  977000    1.0927525   -5.3552032    574.77814  0.049025771    0.0499323            3 
  978000    1.0933975   -5.3149649     575.5255  0.049039323   0.04991944            4 
  979000    1.0842506   -5.3555752    573.99387  0.048858858  0.049906326            3 
  980000    1.0806119   -5.3312236    573.42367  0.048760516  0.049893513            9 
  981000     1.090328   -5.3265185    575.21127  0.048862663  0.049880946            2 
  982000    1.0919041   -5.3219595    576.67229  0.048936888  0.049868201            5 
  983000    1.0974256   -5.3486299    575.97591   0.04882807  0.049855116            3 
  984000    1.0996091   -5.3238985    576.66475  0.048836785   0.04984231            5 
  985000    1.1085643   -5.3269835    577.23438  0.048835396  0.049829572            2 
  986000    1.0896625   -5.2971505    578.97926  0.048933338  0.049816879            2 
  987000    1.1110932   -5.3192292    578.62604  0.048853937  0.049804381            3 
  988000    1.0982378   -5.3071506    578.47196  0.048791495   0.04979167            3 
  989000    1.0777453   -5.3728242    577.16413  0.048631962  0.049778378            2 
  990000    1.0917617   -5.3431592    580.38569  0.048854014  0.049765168            2 
  991000    1.0749159   -5.3086468    579.33352   0.04871624  0.049751889            2 
  992000    1.0955459   -5.3524649    579.69764  0.048697718  0.049738986            2 
  993000    1.0974448   -5.3330946    582.10452  0.048850665  0.049725774            3 
  994000    1.1005132   -5.3592696    580.46482  0.048664052  0.049712903            2 
  995000    1.1008205   -5.2807935    583.66203  0.048882917  0.049700704            7 
  996000    1.0889292   -5.3174269    584.36199  0.048892402   0.04968791            5 
  997000    1.1156649    -5.361081    582.58559  0.048694884  0.049675263            4 
  998000     1.104286   -5.3385428    582.87092  0.048669917  0.049662214            5 
  999000    1.0865233   -5.3633382    583.88663  0.048705925  0.049649666            5 
 1000000    1.0743404    -5.296594    584.99094  0.048749245  0.049637201            4 
 1001000    1.1099259   -5.3232698    584.01631  0.048619406  0.049624417            3 
 1002000    1.0815451   -5.3274041    586.74284  0.048797641  0.049612541            3 
 1003000    1.0969323    -5.326484    586.31051   0.04871307   0.04960012            5 
 1004000    1.0976816   -5.3328628    585.26331  0.048577632  0.049587776            1 
 1005000    1.0960557    -5.292194    589.31904  0.048865592  0.049575427            4 
 1006000     1.060693   -5.3079455    591.51526  0.048998945  0.049563636            4 
 1007000    1.0940551   -5.3494357    589.31562  0.048768257  0.049551696            1 
 1008000    1.0932671   -5.3145705    590.80386  0.048842912  0.049540079            3 
 1009000     1.094784   -5.3662206     588.5491  0.048608284  0.049528171            5 
 1010000    1.0746828   -5.3032007     592.9276  0.048921419  0.049516627            6 
 1011000    1.0866259   -5.3244671    592.71837  0.048855784  0.049504958            5 
 1012000    1.0653375   -5.3510035    592.20903  0.048765566  0.049492976            3 
 1013000    1.0639463   -5.3379448    591.54871  0.048663106  0.049480327            1 
 1014000    1.1127888   -5.3588946    590.30581   0.04851297  0.049468032            2 
 1015000    1.0648028   -5.3372235    592.00055  0.048604315  0.049455675            2 
 1016000    1.0845307   -5.3059243    593.24267  0.048658356  0.049443448            1 
 1017000    1.1081733   -5.3665533    591.47867  0.048465967  0.049431053            3 
 1018000    1.0884883   -5.3157526    595.14962  0.048718862  0.049418729            3 
 1019000    1.0723147   -5.3373909    594.99767  0.048658626  0.049407131            3 
 1020000    1.1247314   -5.3849326    593.92549  0.048523325  0.049395029            5 
 1021000    1.0886714   -5.2939036    596.65581  0.048698646  0.049383281            5 
 1022000    1.0987599   -5.3511475    596.09159  0.048604989  0.049370958            2 
 1023000    1.1150763   -5.3448512    595.43502  0.048503993  0.049359046            6 
 1024000    1.0787441   -5.3866052    596.20334  0.048519152  0.049347457            3 
 1025000     1.101338   -5.3216654    597.98035  0.048616289  0.049335949            3 
 1026000    1.1052988   -5.3490402    598.02312  0.048572378  0.049324412            7 
 1027000    1.0919273   -5.3354698    598.26024  0.048544323  0.049312242            2 
 1028000     1.089683   -5.3013734    600.75097  0.048699008  0.049300537            3 
 1029000    1.0836034    -5.277511    601.01008  0.048672666  0.049288871            2 
 1030000    1.0975072   -5.3068684    600.06394  0.048548863  0.049277639            2 
 1031000     1.073821   -5.3548486    600.73299  0.048555851  0.049265936            3 
 1032000    1.0903833   -5.3264215    600.40133   0.04848202  0.049253903            3 
 1033000    1.0534452   -5.3282805    600.27087  0.048424562  0.049241536            2 
 1034000    1.0694367   -5.3603542      599.773  0.048337605  0.049228963            3 
 1035000    1.1056135   -5.3408656    600.73542  0.048368391  0.049216603            2 
 1036000    1.0746088   -5.3467675    600.85842  0.048331597   0.04920435            4 
 1037000    1.0867206   -5.3146918    605.38138  0.048648455  0.049192158            2 
 1038000    1.0788931   -5.3185985    603.53007   0.04845296  0.049180473            5 
 1039000    1.0992669   -5.3438583    604.24233  0.048463453  0.049168616            2 
 1040000    1.0778998   -5.3729286    602.44864  0.048273128  0.049156365            4 
 1041000    1.1019505   -5.3306798    606.23514   0.04852987  0.049144382            5 
 1042000    1.0875277   -5.3392643    602.78957  0.048207739  0.049132506            2 
 1043000    1.0837332   -5.3481301     605.2475  0.048357902  0.049120063            2 
 1044000    1.0697016   -5.3593987    604.80373   0.04827616  0.049108242            2 
 1045000    1.0832073    -5.348057    603.45356  0.048122293  0.049095941            3 
 1046000    1.0801693   -5.3525302    605.80357  0.048263509  0.049083461            4 
 1047000    1.0701615   -5.3250215    607.77363  0.048374215  0.049071675            4 
 1048000    1.0657134   -5.3151624    606.81368  0.048251724  0.049060022            5 
 1049000    1.0745855   -5.3472302    607.87695  0.048290193  0.049048284            4 
 1050000    1.0950683   -5.3033001    610.80656  0.048476711  0.049036366            2 
 1051000    1.0901722   -5.3521835    608.13227  0.048218543  0.049024427            3 
 1052000    1.1022327   -5.3409104    612.28067  0.048501321  0.049012435            4 
 1053000     1.090041   -5.3571932    608.28323  0.048138907  0.049000463            3 
 1054000    1.0677177    -5.402015    608.48829  0.048109447  0.048988386            2 
 1055000    1.0904241   -5.3231408    611.52624  0.048303811  0.048976477            3 
 1056000    1.0810254   -5.3275689    612.44848  0.048330846  0.048965363            4 
 1057000    1.0610805    -5.360761    612.01991  0.048251333   0.04895388            2 
 1058000    1.0769242   -5.3696497    612.95817  0.048279629  0.048941917            2 
 1059000    1.0710098   -5.3993458    609.68008  0.047976084  0.048930431            2 
 1060000     1.078266   -5.3956674    609.54296  0.047920044  0.048918684            3 
 1061000    1.0642081   -5.3508976    613.00985  0.048147177  0.048906891            4 
 1062000    1.0723995   -5.3482796    613.23019   0.04811913  0.048894993            8 
 1063000    1.0936428   -5.3420801    613.29743  0.048079134  0.048883288            4 
 1064000    1.0824282   -5.3249463    616.20245   0.04826147  0.048871705            2 
 1065000    1.1076327   -5.3425149    616.43057  0.048234004  0.048859885            2 
 1066000    1.0600638    -5.339691    617.22874  0.048251152  0.048848549            2 
 1067000    1.0757594   -5.3630336    616.02687  0.048112064  0.048836525            8 
 1068000    1.0404466    -5.340005    617.97683  0.048219166  0.048824651            5 
 1069000    1.0470391   -5.3565756    613.43846  0.047820273  0.048813004            3 
 1070000    1.0752232   -5.3822824    618.54352  0.048173171  0.048801129            5 
 1071000    1.0985267   -5.3373051    619.05172  0.048167734  0.048789401            5 
 1072000     1.080623   -5.3450529    618.77818  0.048101538  0.048777325            2 
 1073000      1.09123   -5.3427164    620.13315  0.048161941  0.048765529            2 
 1074000    1.0700198    -5.370094    619.62673  0.048077804  0.048753848            2 
 1075000    1.0835438   -5.3778986    619.17032  0.047997699  0.048742127            2 
 1076000    1.0895653   -5.3504849    621.29279  0.048117471  0.048730706            2 
 1077000    1.0669022   -5.3692922    621.54161  0.048092047  0.048719117            2 
 1078000    1.0794722   -5.3399482    620.87914  0.047996223  0.048707452            4 
 1079000     1.088823   -5.3783516    622.19467  0.048053342  0.048695658            3 
 1080000    1.0797734   -5.3410096    619.19137  0.047777112  0.048683663            3 
 1081000     1.068447   -5.3817759    621.92316  0.047943506  0.048672018            3 
 1082000    1.0858524   -5.3474809    624.48188  0.048096263  0.048660252            2 
 1083000    1.0876925   -5.3617919    623.35362  0.047965037  0.048648746            3 
 1084000    1.0818303   -5.3839103    625.54655  0.048089372  0.048636812            4 
 1085000    1.0688846   -5.3609789    624.40989  0.047957749  0.048624956            2 
 1086000    1.0475906   -5.3169503    624.88183  0.047949803  0.048613175            4 
 1087000    1.0774245   -5.3770625    624.25327  0.047857503  0.048601693            2 
 1088000    1.0622922   -5.3828765    625.41467  0.047902471  0.048590304            2 
 1089000    1.0625454   -5.3681951    628.72523  0.048111818  0.048578927            2 
 1090000    1.0827594   -5.3035896    628.83906  0.048076381   0.04856744            2 
 1091000    1.0804515   -5.3713665    624.78476  0.047722637  0.048555946            3 
 1092000    1.0735166   -5.3458981    627.40981  0.047879259   0.04854423            7 
 1093000    1.0688734   -5.3662022    626.84498   0.04779239  0.048533032            3 
 1094000    1.0712471   -5.3309842    629.39565  0.047942996  0.048521703            3 
 1095000    1.0712474    -5.334965    631.86457  0.048087106  0.048510097            4 
 1096000     1.083843   -5.3446816    629.22541  0.047842565   0.04849857            2 
 1097000    1.1071692   -5.3848551    628.59928  0.047751389  0.048487127            3 
 1098000     1.070069   -5.4114713     629.1578  0.047750288  0.048475684            3 
 1099000    1.0951298   -5.3617083     629.5453  0.047736222  0.048463552            3 
 1100000    1.0904078   -5.3401239    630.37495  0.047755678  0.048452016           11 
 1101000    1.0732569   -5.3613053    629.89573  0.047676031  0.048440289            4 
 1102000     1.102466    -5.394221    627.58559  0.047458075  0.048427989            1 
 1103000    1.0943601   -5.3428271    632.49446  0.047785922  0.048415727            2 
 1104000    1.0604276   -5.3683393    630.49713  0.047591873  0.048403744            2 
 1105000    1.0850889   -5.3796882    632.32028  0.047686296   0.04839164            5 
 1106000    1.0806561   -5.3695721    632.94323  0.047690117   0.04837996            3 
 1107000    1.0430442   -5.3563527    631.95535   0.04757267  0.048367985            1 
 1108000    1.0899871   -5.3629039    635.36472  0.047786155  0.048355946            4 
 1109000    1.0338047   -5.3677547    633.87678  0.047631258   0.04834426            2 
 1110000    1.0560019   -5.3838179    634.04197  0.047600748  0.048332778            6 
 1111000    1.0746622   -5.3573151    637.66767  0.047829858  0.048321396            4 
 1112000    1.0690764   -5.3602103    635.39096  0.047616229  0.048309538            6 
 1113000    1.0667385   -5.3536873    637.81924  0.047755259   0.04829797            2 
 1114000    1.0496172   -5.3949454    639.25649  0.047819905  0.048286453            2 
 1115000    1.0786455   -5.3765611    638.11924  0.047692021  0.048274923            2 
 1116000     1.045991   -5.3411926    636.80979  0.047551507  0.048263581            4 
 1117000    1.0464953    -5.374915    636.88939  0.047514875  0.048252247            5 
 1118000    1.0613386   -5.3990804    638.46186  0.047589584   0.04824079            3 
 1119000    1.0689687   -5.3292952    641.19844  0.047750852  0.048229146            6 
 1120000    1.0890863   -5.3841167    640.34809  0.047644947  0.048217756            4 
 1121000    1.0728947   -5.3527016    641.07704  0.047656634  0.048206296            5 
 1122000    1.0737154    -5.374157    639.98693  0.047533194  0.048194697            3 
 1123000    1.0722071   -5.3619548    640.25795  0.047510979  0.048183428            4 
 1124000    1.0788047   -5.3798855    642.60756  0.047642909  0.048172374            3 
 1125000    1.0642439   -5.3233829    641.25792  0.047500587  0.048160853            4 
 1126000    1.0830842   -5.4053919    640.29363  0.047387036  0.048149069            4 
 1127000    1.0948495   -5.3368377    643.29035  0.047566575  0.048137409            3 
 1128000    1.0875146   -5.3688455    645.42248  0.047681921  0.048125285            5 
 1129000    1.0623296   -5.4005945    643.64427  0.047508434  0.048113742            4 
 1130000    1.0666955   -5.4045186    642.57306  0.047387394  0.048101853            3 
 1131000    1.0825736   -5.3280475     645.2154  0.047540185  0.048090436            3 
 1132000    1.0623675   -5.3672254    645.37469  0.047509915  0.048078848            3 
 1133000    1.0898051   -5.3451903    647.29244  0.047609035  0.048067554            2 
 1134000    1.0738072   -5.3778032    646.76288  0.047528136  0.048056432            3 
 1135000    1.0680605   -5.4066647    646.58144   0.04747294  0.048044854            5 
 1136000    1.0980829   -5.3682111     647.7924  0.047519982  0.048033898            4 
 1137000    1.0609916   -5.3597575    647.92257  0.047487729  0.048023017            2 
 1138000    1.0669679   -5.3269313    650.18242  0.047611483  0.048012301            3 
 1139000    1.0671031   -5.4152942    649.17712  0.047496131  0.048001597            4 
 1140000    1.0750625   -5.3938915    648.55465  0.047408966  0.047990503            2 
 1141000    1.0548075   -5.3418174    650.75556   0.04752816  0.047979786            3 
 1142000    1.0630448   -5.3992009    650.37132  0.047458503  0.047968994            2 
 1143000    1.0516704   -5.3710511    652.25034  0.047553976  0.047958427            3 
 1144000    1.0495495   -5.4016075    650.77201  0.047404721  0.047947432            4 
 1145000    1.0785986   -5.4103043    650.06868  0.047312131  0.047936744            3 
 1146000    1.0625966   -5.3460068    653.33298  0.047508216   0.04792592            2 
 1147000    1.0523773   -5.3790059    652.45871  0.047403277  0.047915151            3 
 1148000    1.0734037   -5.3837175    652.59279  0.047371718  0.047904337            4 
 1149000    1.0655725   -5.3901944    653.37965  0.047387558  0.047893664            2 
 1150000    1.0624167   -5.3854897    652.39735  0.047275171  0.047882587            3 
 1151000    1.0709254   -5.3605147    651.51879  0.047170489  0.047871434            1 
 1152000    1.0823227   -5.3885215    653.39368  0.047265168  0.047860034            3 
 1153000    1.0605926   -5.3596848    656.46849  0.047446407  0.047848627            3 
 1154000    1.0648422   -5.3872397    656.06408  0.047376089  0.047837813            2 
 1155000    1.0689783    -5.392108    653.68036  0.047163085  0.047826556            2 
 1156000    1.0675887   -5.4036387    656.43618  0.047320947  0.047814994           11 
 1157000     1.070731   -5.3856953    655.32066  0.047199702  0.047803699            2 
 1158000    1.0539875   -5.3854389    655.48832  0.047171008  0.047792445            5 
 1159000    1.0604221   -5.3832602    656.01841  0.047168421  0.047780891            1 
 1160000    1.0915906   -5.3736111    657.75209  0.047252305  0.047769652            2 
 1161000    1.0681665   -5.4139386    657.78616  0.047214051  0.047758498            3 
 1162000    1.0558926   -5.4125299    655.50402  0.047009754  0.047747151            3 
 1163000    1.0598999   -5.3768989    656.66282  0.047052366  0.047735772            3 
 1164000    1.0642834   -5.3864031    658.13236  0.047117151   0.04772436            3 
 1165000    1.0758953   -5.3909683    658.27871  0.047087175  0.047713469            4 
 1166000     1.067458    -5.395527    659.82902  0.047157591   0.04770204            5 
 1167000    1.0461506   -5.3944636     660.4883   0.04716426  0.047690988            3 
 1168000    1.0862242    -5.412811    659.79794  0.047074625  0.047679906            3 
 1169000    1.0663195   -5.4312382    660.07871  0.047054371  0.047668805            2 
 1170000    1.0782898   -5.3950806    661.09503   0.04708654  0.047657804            4 
 1171000    1.0467836    -5.359301    664.94764  0.047320498   0.04764673            5 
 1172000    1.0731816    -5.363854    664.01019  0.047213466  0.047635957            4 
 1173000    1.0699604   -5.3969005    663.35658  0.047126781  0.047625449            3 
 1174000    1.0723943   -5.3899562    664.53396  0.047170213  0.047614683            5 
 1175000     1.043364   -5.3826629    664.48888  0.047126871  0.047604043            2 
 1176000    1.0419879   -5.3839614    667.70732  0.047314861  0.047593044            4 
 1177000    1.0714582   -5.3608259    669.04929  0.047369675  0.047582324            3 
 1178000    1.0682566   -5.3745909     665.7695  0.047097446  0.047571807            3 
 1179000    1.0634504   -5.3628368    668.13622  0.047224783   0.04756143            2 
 1180000    1.0718828   -5.3802544    667.21467   0.04711968  0.047550745            4 
 1181000    1.0457929   -5.4003016    665.65968   0.04697006  0.047540163            2 
 1182000      1.07476   -5.3548614    668.02368  0.047096988  0.047529437            4 
 1183000    1.0759631   -5.4106206    669.03591  0.047128481  0.047519096            3 
 1184000     1.051048   -5.4007106    667.99604  0.047015487   0.04750865            5 
 1185000    1.0561731   -5.3820307    669.27068  0.047065448  0.047498356            5 
 1186000    1.0625446   -5.3926021    671.10972  0.047154983  0.047487542            3 
 1187000    1.0650239   -5.3951794    670.86764  0.047098262  0.047476932            3 
 1188000    1.0733507   -5.3727066    670.90148  0.047060991  0.047466486            4 
 1189000    1.0648641   -5.3921258    671.85209  0.047088035  0.047455577            3 
 1190000    1.0741108   -5.3898079    673.55521  0.047167732  0.047445204            2 
 1191000    1.0651185   -5.3929561    672.89011  0.047081592  0.047434753            3 
 1192000    1.0546956   -5.3909769    674.02124  0.047121171  0.047424625            3 
 1193000    1.0728435   -5.3968448    672.49713  0.046975212  0.047414478            2 
 1194000    1.1012507   -5.4210506    673.79863  0.047026705  0.047403922            4 
 1195000    1.0589801   -5.3901288    674.20513  0.047015699  0.047393263            2 
 1196000    1.0605591   -5.4052471    675.43823  0.047062307  0.047382703            3 
 1197000     1.064507   -5.3909072    675.41905  0.047021655  0.047372359            4 
 1198000    1.0582326   -5.4162765    676.22159   0.04703823  0.047362167            6 
 1199000    1.0624124   -5.3781402    678.83473  0.047180618  0.047351946            2 
 1200000    1.0518064   -5.4218078    676.43069  0.046974354   0.04734157            3 
 1201000     1.074593   -5.4051654    674.71855  0.046816441  0.047331049            3 
 1202000    1.0788114    -5.323051    678.93163  0.047069581  0.047320526            2 
 1203000    1.0689251   -5.3625235    677.23548  0.046912959  0.047310427            1 
 1204000    1.0794161   -5.4054331    678.52652  0.046963353  0.047300008            4 
 1205000    1.0317534   -5.3959142    678.36703  0.046913349   0.04728987            2 
 1206000    1.0478066   -5.4213699    677.40806  0.046808185  0.047279697            6 
 1207000    1.0457902    -5.379471      680.184  0.046961061  0.047269428            3 
 1208000    1.0510799   -5.3810619    682.40088  0.047075116  0.047259375            4 
 1209000    1.0727377   -5.3610615    680.09901  0.046877517  0.047249312            5 
 1210000     1.053511    -5.361307    680.82894  0.046889046  0.047239331            3 
 1211000     1.039734    -5.417841    679.91647  0.046787536  0.047229395            5 
 1212000    1.0451796   -5.4116066    680.74895  0.046806171  0.047218628            1 
 1213000    1.0629715   -5.3916004    683.52107  0.046958029  0.047208132            3 
 1214000    1.0562725    -5.398819    682.11423  0.046822778  0.047197704            3 
 1215000    1.0511261    -5.401144    682.71196  0.046825237   0.04718734            5 
 1216000    1.0170823   -5.3899535    683.37819  0.046832387  0.047176799            5 
 1217000    1.0518084   -5.4173257    684.81578  0.046892343  0.047166387            4 
 1218000    1.0657169   -5.4036054    683.99991  0.046798024  0.047155966            5 
 1219000    1.0652105   -5.3920662    684.16662   0.04677103  0.047145402            4 
 1220000    1.0629889   -5.4228342    684.04097   0.04672411   0.04713448            5 
 1221000     1.055516   -5.4057533    686.08832  0.046825575  0.047123916            6 
 1222000    1.0626077   -5.4205977    683.86422  0.046635585  0.047113591            2 
 1223000    1.0588657   -5.4066111    684.39078  0.046633332  0.047103032            4 
 1224000    1.0783101   -5.3950236    684.04103  0.046571421  0.047092002            5 
 1225000    1.0536228   -5.4045204    684.84109  0.046587829  0.047081353            2 
 1226000     1.070297   -5.4178566    683.40766  0.046452397  0.047069995            9 
 1227000    1.0673832   -5.4070496    685.94614  0.046586942  0.047058971            2 
 1228000     1.040893   -5.4389835    686.89429  0.046613348  0.047048081            3 
 1229000    1.0484214   -5.4195623    687.36428  0.046607288  0.047037098            2 
 1230000    1.0434665   -5.4188622    688.82892  0.046668626  0.047026242            4 
 1231000    1.0567682   -5.3871195     687.6158  0.046548592  0.047015509            3 
 1232000    1.0612594   -5.4365253     687.6811  0.046515226  0.047004652            9 
 1233000    1.0379065   -5.4270044     687.2229  0.046446533   0.04699362            3 
 1234000    1.0673586   -5.4160976    689.95555  0.046593433   0.04698302            5 
 1235000    1.0419114   -5.4647254    685.56142  0.046259205  0.046972087            8 
 1236000    1.0482026   -5.3983199    689.91483  0.046515293  0.046960932            3 
 1237000    1.0296654   -5.4181757    686.40839   0.04624147    0.0469497            1 
 1238000    1.0540232   -5.4311342     689.0845  0.046384256  0.046938348            5 
 1239000    1.0540382   -5.4006218    694.85614  0.046735011  0.046927271            3 
 1240000    1.0575846   -5.4132793    690.41554  0.046398894  0.046916582            2 
 1241000    1.0451744   -5.4087388    692.75497  0.046518599  0.046905698            3 
 1242000    1.0314219   -5.3954496    693.44059  0.046527147  0.046894915           10 
 1243000    1.0569633   -5.3688894    692.01985  0.046394465  0.046884546            5 
 1244000    1.0645121   -5.4236645    692.83007  0.046411446  0.046873692            5 
 1245000    1.0706018   -5.4103079    692.18811  0.046331199  0.046863025            2 
 1246000    1.0521617   -5.3920047    698.78456   0.04673519  0.046852622            4 
 1247000    1.0343268   -5.4337302    695.71391  0.046492509   0.04684219            2 
 1248000    1.0624926   -5.4120726    696.15805  0.046484913   0.04683153            3 
 1249000    1.0357955   -5.3714118    696.09288  0.046443347  0.046821027            3 
 1250000    1.0709793   -5.3585139    696.23332  0.046415555  0.046810712            2 
 1251000    1.0719776   -5.4233561    695.65978  0.046340246  0.046800338            1 
 1252000    1.0504831   -5.4260587     696.2749  0.046344176  0.046789453            3 
 1253000    1.0648239   -5.4176171    695.21196  0.046236496  0.046778831            3 
 1254000    1.0770562   -5.4313727    695.96376  0.046249585  0.046768311            3 
 1255000    1.0329477    -5.406754     700.5301  0.046515943  0.046757776            3 
 1256000    1.0626467   -5.4176356    698.91787  0.046371939   0.04674727            3 
 1257000    1.0460314    -5.406208    700.16712  0.046417868  0.046736573            3 
 1258000    1.0761384   -5.4184871    699.52305  0.046338305  0.046726067            2 
 1259000    1.0490007   -5.3798678    701.61062  0.046439676  0.046715683            3 
 1260000    1.0712212   -5.4127448    699.64303  0.046272687  0.046704846            2 
 1261000    1.0340196    -5.439901    701.00465  0.046325975  0.046693996            4 
 1262000    1.0673638   -5.3648945    700.37789   0.04624788  0.046683174            2 
 1263000    1.0448702   -5.4140088    701.19294   0.04626504  0.046672547            2 
 1264000    1.0673879   -5.4354458    700.57085  0.046187424  0.046661741            5 
 1265000    1.0566182   -5.3856502    703.23497  0.046326414   0.04665106            3 
 1266000    1.0501301   -5.4034511    703.11497  0.046281923  0.046640357            6 
 1267000     1.049869   -5.4138515    704.55533  0.046340129  0.046629641            4 
 1268000    1.0400515   -5.4149421    705.32743  0.046354327  0.046619158            3 
 1269000    1.0392691   -5.4257522    703.34996  0.046187941  0.046608446            4 
 1270000    1.0445892   -5.4335064    704.56694  0.046231427   0.04659781            9 
 1271000    1.0567059   -5.4122383    704.78622   0.04620943  0.046587285            5 
 1272000    1.0589519   -5.4130421    706.92325  0.046313106    0.0465767            4 
 1273000    1.0451778   -5.4178501    705.47679  0.046182037   0.04656596            2 
 1274000    1.0301673   -5.4194432    707.10117  0.046252039  0.046555462            2 
 1275000    1.0439825   -5.4301274    706.43977  0.046172534     0.046545            3 
 1276000    1.0632828   -5.4651687    704.21835  0.045991271  0.046534454            5 
 1277000    1.0548263   -5.4644368    706.29255  0.046090613  0.046523886            8 
 1278000    1.0300044   -5.4451637    708.89019   0.04622393  0.046513179            6 
 1279000    1.0288181   -5.4027248    709.66151  0.046238045  0.046502905            2 
 1280000    1.0498683   -5.3872207    711.18834  0.046301324  0.046492648            2 
 1281000    1.0313472   -5.4299264     706.3205   0.04594851  0.046482659            2 
 1282000    1.0584796   -5.4753493    707.65595  0.045999477  0.046472629            3 
 1283000    1.0496298   -5.4050877    715.33522  0.046462407  0.046462418            3 
 1284000     1.022842   -5.4419978    711.23355  0.046160018  0.046452354            4 
 1285000    1.0279584   -5.4311886    711.09236  0.046114939  0.046442574            4 
 1286000    1.0334086   -5.4132209    713.92226  0.046262458  0.046432574            2 
 1287000    1.0574904   -5.3967146    714.57825  0.046268988  0.046422484           15 
 1288000    1.0596395   -5.4439744    711.76753  0.046051212  0.046412657            4 
 1289000      1.04105   -5.4507299    713.78228  0.046145739  0.046402432            6 
 1290000    1.0432801   -5.4155773    715.45959   0.04621832  0.046392229            3 
 1291000     1.060039   -5.4518079    712.83644  0.046013197  0.046381732            3 
 1292000    1.0437568   -5.4164352     713.9066  0.046046608  0.046371483            2 
 1293000    1.0571367   -5.4237288    715.90635  0.046139878  0.046361546            3 
 1294000    1.0496393   -5.4297875    715.43792  0.046074055  0.046351589            5 
 1295000    1.0432113   -5.4218978    718.13684  0.046212152   0.04634192            3 
 1296000    1.0396697   -5.4248316    714.21978  0.045924626  0.046331699            6 
 1297000     1.036472   -5.4115888    715.91917  0.045998404  0.046321435            3 
 1298000    1.0487757   -5.3949102    718.43328  0.046124376  0.046311167            3 
 1299000    1.0330056   -5.3933313    717.00889  0.045997491  0.046301066            2 
 1300000    1.0472776   -5.3934534    719.77996  0.046139741  0.046290968            3 
 1301000    1.0359064   -5.4553721    718.92216  0.046049331  0.046280655            2 
 1302000    1.0625149   -5.4201406    721.46176  0.046176508  0.046270415            3 
 1303000    1.0582797   -5.4385494    718.87028  0.045975331  0.046260572            4 
 1304000    1.0414142   -5.4451972    719.58486   0.04598574  0.046250322            3 
 1305000    1.0524827   -5.4551069    721.17329  0.046051934  0.046240112            5 
 1306000    1.0389385   -5.4374123    720.32666   0.04596265  0.046230046            2 
 1307000     1.045747   -5.4696834    723.00655  0.046098352  0.046220123            4 
 1308000    1.0505567   -5.4435749    719.25055  0.045823812  0.046209961            6 
 1309000    1.0295005   -5.4300888    721.95844  0.045961195  0.046199962            3 
 1310000     1.044672   -5.4194006     722.7874  0.045978842  0.046189801            3 
 1311000    1.0511701   -5.4584585    719.27964  0.045720801  0.046179618            3 
 1312000    1.0513492   -5.4099173    725.71952   0.04609499  0.046169482            9 
 1313000    1.0306453   -5.4545951    723.47241  0.045917264  0.046159538            3 
 1314000    1.0409377   -5.4314582    720.27622  0.045679618  0.046149641            4 
 1315000    1.0607188   -5.4351573    721.31419  0.045710658  0.046139255            2 
 1316000     1.020348   -5.4500613    722.15019  0.045728862    0.0461289            3 
 1317000    1.0316368    -5.459644    720.88457  0.045614058  0.046118021            6 
 1318000    1.0334401   -5.4271985       722.59  0.045687279  0.046107613           12 
 1319000    1.0362873   -5.4496642    721.76581  0.045600569  0.046096761            2 
 1320000    1.0421664   -5.4377729    722.85325  0.045634675  0.046085773            3 
 1321000    1.0479489   -5.4275014     726.2846  0.045816591  0.046074658            4 
 1322000    1.0503255   -5.4375554    725.44539  0.045729034  0.046064007            3 
 1323000    1.0326103   -5.4492983      722.263  0.045494016  0.046053286            6 
 1324000     1.037919   -5.4695085     725.1518  0.045641478  0.046042207            2 
 1325000    1.0519413   -5.4448631    725.09019  0.045603156  0.046031621            3 
 1326000    1.0325266   -5.4504542    726.75086  0.045673131  0.046020947            3 
 1327000    1.0327563   -5.4595679    726.70735   0.04563598  0.046010518            6 
 1328000    1.0523868   -5.4586593    725.57582  0.045530611  0.045999428            3 
 1329000    1.0305862   -5.4351948    728.55927  0.045683426  0.045988616            7 
 1330000    1.0505706    -5.436868    726.69059  0.045531992  0.045977815            3 
 1331000    1.0171287   -5.4349325     726.6722  0.045496632  0.045967166            4 
 1332000    1.0298707   -5.4147395     733.6443  0.045898667  0.045956525            3 
 1333000    1.0434607   -5.4496777    728.07703  0.045516194  0.045946032            8 
 1334000    1.0363765     -5.48918    728.53155  0.045510467  0.045935197            3 
 1335000    1.0533992   -5.4743507    729.64073  0.045545614  0.045924348            3 
 1336000    1.0349235   -5.4430233    730.72816  0.045579351  0.045913792            4 
 1337000    1.0300537    -5.425068    731.75912  0.045609519  0.045902993            2 
 1338000     1.025203   -5.4140534    731.49102  0.045558733  0.045892091            4 
 1339000    1.0407117    -5.455796    729.67264  0.045411541  0.045881198            5 
 1340000    1.0242485   -5.4315643    732.80235  0.045572285  0.045870337            4 
 1341000     1.029589   -5.4429363    731.54401  0.045460105   0.04585967            3 
 1342000    1.0380363   -5.4347347    731.89743  0.045448176  0.045848982            4 
 1343000    1.0259564   -5.4515079    733.37133  0.045505791   0.04583801            2 
 1344000    1.0262302    -5.479203    730.14214   0.04527171  0.045827017            3 
 1345000    1.0430298   -5.3992515    735.03269  0.045541059  0.045816255            3 
 1346000    1.0514728   -5.4605897    733.52505  0.045413884  0.045805701            2 
 1347000    1.0227208   -5.4690975    733.00732  0.045348139  0.045794992            3 
 1348000    1.0463985   -5.4344275    735.42476  0.045463944  0.045784466            5 
 1349000    1.0359585   -5.4550362    735.40733  0.045429166  0.045773854            8 
 1350000    1.0465275   -5.4333497    738.53382  0.045588507  0.045763451            4 
 1351000    1.0224701   -5.4448351    738.24708  0.045537076  0.045753001            6 
 1352000    1.0122839   -5.4528265    736.77182  0.045412464  0.045742469            3 
 1353000    1.0376902   -5.4663341    736.61804  0.045369429  0.045731862            3 
 1354000    1.0263445   -5.4372277    737.42548  0.045385615   0.04572122            2 
 1355000    1.0409938   -5.4513236    736.30308  0.045283092  0.045710459           16 
 1356000    1.0418995    -5.457495    738.39769  0.045378423  0.045699899            3 
 1357000    1.0312185   -5.4129091    738.59454  0.045357071  0.045688978            1 
 1358000    1.0336619   -5.4965542     734.6846  0.045083738  0.045677921            2 
 1359000    1.0374298   -5.4368224    736.54814  0.045164835  0.045667015            4 
 1360000    1.0565112   -5.4721748    738.51144  0.045251926  0.045656273            4 
 1361000    1.0172697   -5.4660414    738.78713  0.045235558  0.045645444            5 
 1362000    1.0576599   -5.4569359    740.22434   0.04529028  0.045634651            5 
 1363000    1.0516025   -5.4251604    742.04885  0.045368602  0.045624079            4 
 1364000    1.0362825   -5.4631847    738.98941  0.045148424  0.045613699            2 
 1365000    1.0268321   -5.4573944    738.95154  0.045113036  0.045602818            2 
 1366000    1.0296392   -5.4153454    740.73957   0.04518909  0.045592162            8 
 1367000    1.0445783   -5.4344141    743.39379  0.045317836  0.045581623            3 
 1368000    1.0221258    -5.467035    740.39648  0.045102125   0.04557107            4 
 1369000      1.03798   -5.4496847    743.01788  0.045228748  0.045560625            6 
 1370000      1.05198   -5.4887255    744.02496  0.045256993  0.045549985            3 
 1371000    1.0228542   -5.4557222    742.89025  0.045155011  0.045539659            6 
 1372000    1.0049995   -5.4366822    742.66499  0.045108418  0.045529002            5 
 1373000     1.039273   -5.4400216    744.89478  0.045210899   0.04551848            5 
 1374000    1.0295979   -5.4704219    743.49923  0.045093354  0.045508124            3 
 1375000    1.0432007   -5.4476233    746.99039  0.045272145  0.045497873            1 
 1376000    1.0484814   -5.4531751    745.50661  0.045149383  0.045487205            2 
 1377000    1.0335446   -5.4647225    747.66342  0.045247121  0.045476954            2 
 1378000    1.0328774   -5.4762852     746.2936  0.045131446  0.045466563            3 
 1379000    1.0300774   -5.4239743    748.02436  0.045203309  0.045456334            4 
 1380000    1.0462605   -5.4512812    747.50951  0.045139463  0.045445697            5 
 1381000    1.0213019   -5.4509327    750.08069  0.045261929  0.045435315            3 
 1382000    1.0271727   -5.4783705    747.91501   0.04509859  0.045424955            3 
 1383000    1.0246446   -5.4025726    751.14864  0.045260824  0.045414661            3 
 1384000    1.0360462   -5.4231294    748.66609  0.045078642   0.04540434            2 
 1385000    1.0281051   -5.4529534    750.92749  0.045182159  0.045393773            5 
 1386000    1.0155448   -5.4861225    750.45074  0.045120896  0.045383126            3 
 1387000     1.037771   -5.4620662    750.82903  0.045111093  0.045372477            4 
 1388000    1.0417633   -5.4502194    750.83381  0.045078879  0.045362149            4 
 1389000     1.033678   -5.4393849    752.54414  0.045149037  0.045351147            7 
 1390000    1.0134693   -5.4655144     749.1409  0.044912524  0.045340317            6 
 1391000    1.0312449    -5.458131    749.58536  0.044906863  0.045329579            2 
 1392000    1.0365049   -5.4644967     749.9818  0.044898336  0.045318511            3 
 1393000    1.0316522   -5.4667377    751.05427  0.044930262  0.045307756            6 
 1394000     1.030331   -5.4443591    750.77623   0.04488141  0.045296931            3 
 1395000    1.0197696   -5.4754646    751.50536  0.044892793  0.045286355            2 
 1396000    1.0439832   -5.4877687    751.94928  0.044887135  0.045275809            4 
 1397000    1.0299775   -5.4410228    753.67573  0.044957989  0.045265184            4 
 1398000    1.0279433   -5.4737091    754.01806  0.044946236  0.045254519            5 
 1399000    1.0234553   -5.4614963    752.85375  0.044844755   0.04524377            3 
 1400000    1.0166234   -5.4919806    754.55702  0.044914109  0.045232862            6 
 1401000   0.99906372   -5.4136314    755.78918   0.04495534  0.045222127            4 
 1402000    1.0428094   -5.4626404    755.45182  0.044903223   0.04521163            3 
 1403000    1.0470871   -5.4809739    754.90573  0.044838782   0.04520099            4 
 1404000    1.0307352    -5.440384    754.56666   0.04478672  0.045190217            3 
 1405000    1.0254187   -5.4617282    755.06466  0.044784381  0.045179598            2 
 1406000    0.9897206   -5.4768799     756.4119  0.044832379  0.045168882            2 
 1407000    1.0443493   -5.4720962     757.5742  0.044869355  0.045158297            3 
 1408000    1.0430706   -5.4585487    757.46607  0.044831088  0.045147902            5 
 1409000    1.0033578   -5.4801058    753.29403  0.044552521  0.045137349            3 
 1410000    1.0282833   -5.4973796    754.48382  0.044591242  0.045126526            2 
 1411000    1.0440609   -5.4858718    759.41247  0.044850725  0.045115872            3 
 1412000    1.0359674   -5.4442568    759.97727  0.044852294  0.045105174            6 
 1413000    1.0247422   -5.4983447    758.12453  0.044711284  0.045094372            3 
 1414000    1.0238055   -5.4516538    759.92061  0.044785515  0.045083775            3 
 1415000    1.0269449   -5.4752908    759.52437  0.044730528  0.045073361            3 
 1416000    1.0272877   -5.4724383     761.6039  0.044821322  0.045062957            4 
 1417000    1.0294064    -5.484065    759.09731  0.044642279  0.045052415            4 
 1418000    1.0062745   -5.4770402    761.23494  0.044736421  0.045041816            4 
 1419000    1.0001361   -5.4310814    763.92128  0.044862655  0.045031523            4 
 1420000     1.026427   -5.4626456    763.96339  0.044833533  0.045021142           10 
 1421000    1.0330161   -5.4813358    763.58119  0.044779568  0.045011122            2 
 1422000    1.0044332   -5.4573961    764.87182  0.044823712  0.045000861            4 
 1423000     1.004572   -5.4573355    765.97565  0.044856855  0.044990392            4 
 1424000    1.0353218   -5.4877499    761.86156  0.044584595  0.044980018            2 
 1425000    1.0190357   -5.4990219    762.64451  0.044599094  0.044969299            2 
 1426000    1.0353067   -5.4549963    764.58914   0.04468146  0.044958872            4 
 1427000    1.0453837   -5.4815667    764.42541  0.044640587  0.044948197            3 
 1428000    1.0085948   -5.4872774    763.95819  0.044582061    0.0449377            7 
 1429000    1.0166279   -5.4497716     764.3055  0.044571116  0.044927212            5 
 1430000    1.0374014   -5.4402663    767.70454  0.044738027  0.044916983            8 
 1431000   0.99952211   -5.4640821    767.58897  0.044700033  0.044906808            3 
 1432000    1.0358524   -5.4689557     768.5134  0.044722614  0.044896465            7 
 1433000    1.0425013   -5.4586566    768.62329  0.044697795  0.044886046            3 
 1434000    1.0036452   -5.4745214    768.81227  0.044677608  0.044875614            4 
 1435000    1.0240912   -5.4457961    769.97559  0.044714029  0.044865584            2 
 1436000     1.021872   -5.4832573    770.16798  0.044694056  0.044855462            5 
 1437000    1.0201486    -5.466321    768.96027  0.044592918  0.044845614            3 
 1438000    1.0326691   -5.4815248     770.9631  0.044677973   0.04483569            3 
 1439000    1.0393891   -5.4730736    768.52001  0.044505444   0.04482554            5 
 1440000    1.0297043   -5.4889925    768.69145  0.044484459  0.044815427            3 
 1441000    1.0371697   -5.4672218    770.30584  0.044546949  0.044805315            3 
 1442000     1.028029   -5.4615755    774.58658  0.044763441  0.044795233            5 
 1443000    1.0396711   -5.4970547    771.00088  0.044525345   0.04478537            4 
 1444000    1.0390037   -5.4820008     770.8422  0.044485353  0.044775172            3 
 1445000    1.0110458   -5.4640526    773.80897  0.044625662  0.044765057            2 
 1446000    1.0176551   -5.4889448     770.1248   0.04438248  0.044755063            3 
 1447000    1.0133354   -5.4854565     773.2464  0.044531583  0.044744906            3 
 1448000    1.0156309   -5.4619988     775.0303  0.044603493   0.04473491            2 
 1449000    1.0027677   -5.5401652    771.81995  0.044388081  0.044724733            3 
 1450000    1.0018939   -5.4869761    774.64474  0.044519813  0.044714615            5 
 1451000    1.0131058   -5.4585884    777.59744  0.044658709  0.044704541            2 
 1452000     1.027326   -5.4776316    775.58859   0.04451266  0.044694669            6 
 1453000    1.0191155   -5.4490919     777.7702  0.044607146  0.044684609            2 
 1454000    1.0101746   -5.5046802    776.61069  0.044510012  0.044674576            5 
 1455000    1.0330021   -5.4933765    777.65604  0.044539292  0.044664655            2 
 1456000    1.0258544   -5.4643417    776.66031  0.044451712  0.044654535            3 
 1457000    1.0217918   -5.4563643    779.10243   0.04456088   0.04464446            3 
 1458000    1.0324148    -5.515261     775.3944  0.044318381  0.044634263            2 
 1459000   0.99875445   -5.5070717    778.59565   0.04447085  0.044624039            3 
 1460000    1.0431034    -5.442619    777.90128  0.044400758  0.044614058            3 
 1461000    1.0277665    -5.487539    776.79131  0.044307056  0.044603902            3 
 1462000    1.0210314   -5.4903926    777.25322  0.044303079  0.044593605            3 
 1463000   0.99399758   -5.5098886     777.6455  0.044295141  0.044583556            3 
 1464000    1.0197338   -5.4944136    780.33794  0.044418143  0.044573594            2 
 1465000    1.0468228   -5.4827225    779.72069  0.044352713  0.044563497            7 
 1466000    1.0158088   -5.5028487    782.46093  0.044478225  0.044553434            5 
 1467000    1.0042556   -5.5149141    782.84057  0.044469471  0.044543214            3 
 1468000     1.020798   -5.4859901     781.2445  0.044348575  0.044533319            5 
 1469000    1.0251051   -5.4658063    784.60825  0.044509204   0.04452359            2 
 1470000    1.0223221   -5.5012479     781.8696  0.044323673  0.044513571            2 
 1471000    1.0003757   -5.5077104    779.93033  0.044183681   0.04450353           10 
 1472000    1.0015194   -5.4818177    782.41338  0.044294236  0.044493515            2 
 1473000    1.0344388   -5.5075235    780.28779  0.044143912  0.044483602            4 
 1474000    1.0222785    -5.474728    784.32266  0.044342077  0.044473527            3 
 1475000    1.0130344   -5.4990602    786.03553  0.044408787  0.044463382            7 
 1476000    1.0035321   -5.5279905    784.00381  0.044263991  0.044453132            2 
 1477000    1.0087626   -5.5347259    779.48249  0.043978927  0.044442834            5 
 1478000    1.0214464   -5.4628303    783.32287  0.044165701  0.044432418            5 
 1479000    1.0011956   -5.4553941    785.44276  0.044255283  0.044422305            1 
 1480000    1.0196754   -5.4807564    784.55905  0.044175622   0.04441208            3 
 1481000    1.0175967   -5.4863446    784.52031  0.044143614   0.04440194            5 
 1482000    1.0362992   -5.5468754    783.55184   0.04405937  0.044391766            4 
 1483000    1.0057693   -5.4851111    787.38986  0.044245328  0.044381537            3 
 1484000    1.0271211   -5.4995149    788.63732  0.044285564  0.044371525            9 
 1485000    1.0243504   -5.4961708    787.42119  0.044187497  0.044361549            2 
 1486000    0.9911936   -5.5066613    788.55363  0.044221267  0.044351563            7 
 1487000    1.0161619   -5.4998901     789.8145  0.044262189  0.044341873            4 
 1488000    1.0124257   -5.4849635    787.36987  0.044095535  0.044332186            1 
 1489000    1.0107491   -5.5005817     790.1519   0.04422162  0.044322079            4 
 1490000      1.00606   -5.5124156    787.90172  0.044066092  0.044311821            2 
 1491000    1.0140843    -5.503512    785.83691  0.043921133   0.04430163            3 
 1492000    1.0162144   -5.5369745    787.53184  0.043986363    0.0442913            4 
 1493000   0.99543873   -5.5130183    790.94007  0.044147135  0.044280948            5 
 1494000    1.0064727    -5.528183    789.00284  0.044009529  0.044270868            3 
 1495000    1.0153526   -5.5005762    790.47934  0.044062394  0.044260661            5 
 1496000    1.0086372   -5.5085516     793.2148  0.044185316  0.044250771            7 
 1497000     1.018359   -5.4941721     788.3784  0.043886573   0.04424087            2 
 1498000    1.0058413   -5.5139893    791.70936  0.044042577  0.044230692            3 
 1499000    1.0204158   -5.4994247    790.28487  0.043934004  0.044220515            4 
 1500000    1.0170316   -5.5288106    791.75218  0.043986232  0.044210475            3 
 1501000    1.0467982   -5.4983156    795.87893  0.044186039  0.044200365            6 
 1502000    1.0170046   -5.4752233    790.86603  0.043878497  0.044190491            2 
 1503000    1.0017396   -5.4696068    793.91974  0.044018615  0.044180569            3 
 1504000   0.99808861   -5.5376916    793.34689  0.043957607  0.044170297            5 
 1505000    1.0120976    -5.460418    795.66075   0.04405652  0.044160105            2 
 1506000    1.0192596   -5.5053098     793.8174  0.043925266  0.044149977            5 
 1507000    1.0019129   -5.5280006    796.22996  0.044029526  0.044139911            7 
 1508000    1.0146769   -5.5052978    790.42647  0.043679623  0.044129728            3 
 1509000    1.0032094   -5.5190018     794.3515  0.043867435  0.044119377            2 
 1510000    1.0054843   -5.5112276    796.10848  0.043935347  0.044109265            2 
 1511000    1.0290078   -5.5157637    795.25149  0.043859006  0.044098984            3 
 1512000    1.0045967   -5.4785711     796.3885  0.043892664  0.044088848            3 
 1513000    1.0188382   -5.5139337    797.26059  0.043911687  0.044079033            4 
 1514000    1.0105292   -5.4688982    797.60765  0.043901786  0.044069171            7 
 1515000    1.0269216   -5.5031619     796.5544  0.043814873  0.044059002            3 
 1516000   0.99747087   -5.4784457    796.16564  0.043764602  0.044048822            3 
 1517000     1.008238   -5.5323032    794.63829  0.043651851  0.044038383            9 
 1518000    1.0190217   -5.5078443    796.70746  0.043736685  0.044028067            5 
 1519000    1.0315671   -5.4964908    800.01571  0.043889385  0.044017763            2 
 1520000    1.0039183    -5.516999    799.28857  0.043820645  0.044007846            3 
 1521000    1.0150473   -5.5263785    799.07258  0.043780001  0.043997605           10 
 1522000    1.0118061    -5.514033    798.72225  0.043732055  0.043987377            3 
 1523000   0.99914234   -5.4781894    802.07266  0.043886663  0.043977289            5 
 1524000   0.98851336   -5.5219237    799.39532  0.043711467  0.043966923            3 
 1525000    1.0078359   -5.5105745     799.7513  0.043702257  0.043956568            3 
 1526000    1.0138453   -5.5015328    797.50155  0.043550762  0.043946322            3 
 1527000     1.023015   -5.5105014    800.51302  0.043686587   0.04393603            7 
 1528000    1.0058709   -5.5056664     805.1304  0.043909817  0.043925925            2 
 1529000   0.99398278   -5.4941518    803.18313  0.043774969  0.043915741            4 
 1530000   0.99396305   -5.5341937    803.97129  0.043789286   0.04390539            6 
 1531000   0.99439728   -5.5277797    799.74695  0.043530751  0.043895192            3 
 1532000   0.99192227   -5.5231451    802.60637  0.043657875  0.043884997            3 
 1533000   0.99149219   -5.5046072    804.23371  0.043717858  0.043874549            3 
 1534000    1.0147103   -5.5167727    802.62798  0.043602128  0.043864133            3 
 1535000    1.0105957   -5.5055824    805.05599  0.043705537  0.043853814            2 
 1536000    1.0264577    -5.486202      804.258  0.043633789  0.043843425            4 
 1537000   0.99978138   -5.5110167    803.14325  0.043544961  0.043833201            3 
 1538000    1.0138821    -5.535476    806.66335  0.043707377  0.043822876            2 
 1539000    1.0171607   -5.5145681    802.47322  0.043452091  0.043812579            5 
 1540000     1.005275   -5.5059469    802.90274  0.043447118  0.043802062            4 
 1541000    1.0004262   -5.5438111    803.31038  0.043440968   0.04379153            8 
 1542000   0.98966769   -5.5490034    804.13799  0.043457522  0.043780958            3 
 1543000     1.002037   -5.5300821    804.36038  0.043441368  0.043770364            2 
 1544000     1.010083     -5.52126    807.13789  0.043563142  0.043759972            7 
 1545000    1.0020394   -5.5150583    807.09785  0.043532786  0.043749648            5 
 1546000    1.0025221   -5.5120366    808.66691  0.043589204  0.043739286            6 
 1547000    1.0165724   -5.5219764    806.38047  0.043437862  0.043728995            2 
 1548000    1.0306961   -5.4969163    808.69613   0.04353446  0.043718757            3 
 1549000   0.99481137   -5.4980868    808.65732  0.043504267  0.043708749            4 
 1550000   0.98764849   -5.5387306    807.90686  0.043435853  0.043698511            4 
 1551000    1.0001822   -5.5172741    810.57368  0.043551133  0.043688338            4 
 1552000    1.0108331   -5.4811259    810.28749  0.043507705  0.043678166           10 
 1553000   0.97876935   -5.5176108     810.1496   0.04347229  0.043668123            3 
 1554000   0.99217961   -5.4998399    812.86638  0.043590003  0.043657829            3 
 1555000    1.0250931   -5.4790361    812.53156  0.043544028  0.043647818            1 
 1556000   0.98661488   -5.5027447    813.09296   0.04354611  0.043637728            5 
 1557000   0.97751813   -5.5002916    813.40706  0.043534953   0.04362785            3 
 1558000    1.0201152   -5.5243481    811.63129  0.043412029   0.04361785            4 
 1559000   0.97868448    -5.508263    811.75578  0.043390837  0.043607868            3 
 1560000    1.0064064   -5.5166019    811.42785  0.043345505  0.043597957            6 
 1561000    1.0174458   -5.5338675    809.99122  0.043241043  0.043587829            2 
 1562000    0.9823221   -5.5339656    812.18787  0.043330552  0.043577744            6 
 1563000    1.0190488   -5.5335017    812.05508  0.043295749  0.043567645            3 
 1564000   0.97743828   -5.5236302    815.65123  0.043459677   0.04355751            4 
 1565000    1.0130034   -5.5414982    814.02288  0.043345201  0.043547321            5 
 1566000      1.00977   -5.5598811    814.02806  0.043317798  0.043537018            2 
 1567000   0.99923074   -5.5359049    812.05263    0.0431851  0.043526224            4 
 1568000     1.010452   -5.5268802    814.91723  0.043309802  0.043515817            5 
 1569000    1.0026833   -5.5327066    813.74979  0.043220193  0.043505497            4 
 1570000   0.99696011   -5.5102131    815.03898  0.043261092  0.043495053           12 
 1571000    1.0056722   -5.5068447    816.06788  0.043288133   0.04348486            4 
 1572000    1.0000755   -5.5115167    818.00396  0.043363229  0.043474622            3 
 1573000   0.97474906   -5.4898893    814.34171  0.043141646  0.043464391            3 
 1574000   0.99425127    -5.550638    816.40836  0.043223653  0.043454218            4 
 1575000   0.98713021   -5.5239622    816.71472  0.043212419  0.043443998            6 
 1576000   0.99271428   -5.5149573    818.07026  0.043256676  0.043433564            5 
 1577000   0.98537473   -5.5391012    817.35125  0.043191252  0.043423143            3 
 1578000   0.98896599   -5.5188197    816.37749  0.043112457   0.04341266            6 
 1579000    1.0025439    -5.556072    812.20934  0.042865175  0.043401829            4 
 1580000   0.99079631   -5.5121048    819.37218  0.043215832  0.043391284            3 
 1581000   0.99370626    -5.515398    818.68633  0.043152347  0.043380671            4 
 1582000   0.99631544   -5.5424694    817.03861  0.043038275  0.043370063            6 
 1583000   0.99122452   -5.5427158    818.54989  0.043090645  0.043359517            5 
 1584000    1.0190439   -5.5277565    817.55846  0.043011283  0.043348987            5 
 1585000   0.99217299   -5.5149074    818.26028  0.043021045  0.043338151            4 
 1586000   0.99091448   -5.5128117    817.02146  0.042928828  0.043327372            3 
 1587000    0.9867473   -5.5514875    816.06958  0.042851795  0.043316734            2 
 1588000    1.0002988   -5.5195876    819.46751  0.043003123  0.043305963            4 
 1589000   0.96134624   -5.5331103    820.05366    0.0430068  0.043295219            4 
 1590000     1.009696   -5.5540915    817.48836  0.042845302  0.043284494            4 
 1591000   0.99560335   -5.5412262    819.66907  0.042932593  0.043273703            7 
 1592000   0.98972768    -5.514307    821.80638  0.043017503  0.043262674            5 
 1593000    1.0009258   -5.5154004    818.04933   0.04279396  0.043251703            3 
 1594000   0.99223581   -5.5409074    816.58726  0.042690677  0.043240743            4 
 1595000   0.99223281   -5.5543759    817.80708  0.042727643  0.043229831            5 
 1596000   0.99178781    -5.557169    818.50209   0.04273716  0.043218811            5 
 1597000   0.99101845   -5.5201131    821.82951  0.042884028  0.043207995            4 
 1598000   0.99307173   -5.5228714    822.64216   0.04289957  0.043197021            9 
 1599000   0.97221252   -5.5183277    819.54107  0.042711125  0.043186038            3 
 1600000    1.0049272   -5.5360633    820.19817  0.042718655  0.043174969            3 
 1601000     1.010624   -5.5544336    817.54405  0.042553823   0.04316381            6 
 1602000   0.99476614   -5.5200168    821.89592  0.042753637  0.043152656            2 
 1603000     1.020118   -5.5171582    821.26716   0.04269428  0.043141496            7 
 1604000    1.0142508   -5.5506909    819.60569  0.042581343  0.043130291            3 
 1605000    1.0040992   -5.5264387    821.99505  0.042678871  0.043119309            3 
 1606000   0.99426276   -5.5220209    823.67937  0.042739693  0.043108328            3 
 1607000    1.0024107   -5.5079523    822.52051  0.042653003  0.043097245            4 
 1608000    0.9824322   -5.5405887    822.69092  0.042635309  0.043086297            6 
 1609000    1.0029847   -5.5498196    823.46191  0.042648742  0.043075199            7 
 1610000   0.98864504   -5.4993651    825.08434  0.042706229  0.043064401            4 
 1611000   0.98866891   -5.5631673    823.44621  0.042594983  0.043053084            5 
 1612000     1.004515   -5.5895918    821.04579  0.042444468  0.043041977            5 
 1613000    1.0114784   -5.5161079    827.51104  0.042752172  0.043030728            6 
 1614000   0.98465078   -5.5365962    824.35562  0.042562764  0.043019772            2 
 1615000   0.99946932   -5.5615246    825.47368  0.042594101  0.043008535            1 
 1616000   0.96637478   -5.5701946    823.92324  0.042487791  0.042997419            9 
 1617000    1.0026175    -5.523452    827.49574  0.042645627  0.042986242            4 
 1618000   0.99482606   -5.5327056     825.4795  0.042515425   0.04297498            2 
 1619000   0.97356034   -5.4896831    829.65376  0.042704023  0.042963675            8 
 1620000    1.0331288   -5.5952261    823.30045  0.042350846  0.042952388            9 
 1621000   0.99762305   -5.5478054    826.06862  0.042467028  0.042941214            7 
 1622000   0.95883091   -5.5483757     828.4454  0.042562957  0.042929939            3 
 1623000    0.9928245   -5.5476307    827.09642  0.042467469  0.042918708            2 
 1624000   0.99001719   -5.5214109    828.52868  0.042514813  0.042907473            3 
 1625000   0.97623198   -5.5468183    824.11647  0.042262383  0.042896317            4 
 1626000    0.9857665   -5.5348721    830.82098  0.042580001  0.042885034            2 
 1627000   0.99439068   -5.5530116    828.46979  0.042433404  0.042873658            5 
 1628000   0.99756712   -5.5395059    830.78854  0.042526031  0.042862294            3 
 1629000   0.99573642   -5.5322219    830.95046  0.042508208  0.042851073            2 
 1630000   0.97913691   -5.5288353    827.86774  0.042324527  0.042839715            5 
 1631000   0.96805618   -5.5360314    828.83335  0.042347913  0.042828399            5 
 1632000    1.0024607    -5.575673    826.88167  0.042222307  0.042816978            3 
 1633000   0.99827626   -5.5553958    829.70853  0.042340709  0.042805606            3 
 1634000    1.0013867   -5.5455746    828.98115    0.0422777  0.042794228            3 
 1635000    1.0088979     -5.56198    829.01357  0.042253495  0.042782826            4 
 1636000    1.0083569   -5.5235637    829.80964  0.042268217  0.042771377            4 
 1637000   0.99730635   -5.5619538    830.74874  0.042290203  0.042760045            4 
 1638000   0.98741774   -5.5527782    829.07066  0.042179012  0.042748715            3 
 1639000   0.98310236   -5.5700555     831.8908  0.042296665   0.04273722            7 
 1640000    0.9897537   -5.5787053     831.6408  0.042258171  0.042725938            3 
 1641000    1.0052197   -5.5446143    831.28845  0.042214526  0.042714635            5 
 1642000   0.96186875   -5.5456273    831.97801  0.042223813  0.042703164            3 
 1643000   0.97909036   -5.5245582    835.41903  0.042372643  0.042691825            2 
 1644000   0.96677515   -5.5724215    832.53875  0.042200869  0.042680519            4 
 1645000   0.96921673   -5.5345365    834.41602  0.042270315  0.042669241            3 
 1646000   0.98460413   -5.5667803    830.33097  0.042037818  0.042657831            3 
 1647000   0.99997051    -5.554699     835.0489  0.042251007  0.042646273            3 
 1648000   0.99122516   -5.5532795    833.32634  0.042138266  0.042634883            9 
 1649000    1.0080784   -5.5574667    832.47107   0.04206949  0.042623376            6 
 1650000   0.99438595   -5.5520604    834.37054  0.042139926  0.042611815            7 
 1651000    1.0011469   -5.5807163    835.23748  0.042158161  0.042600352           10 
 1652000   0.97793544   -5.5246076    834.93674  0.042117471  0.042588937            2 
 1653000   0.99844461   -5.5424038    835.31323  0.042110972  0.042577649            3 
 1654000   0.98406113   -5.5560727    836.27688  0.042134063  0.042566219            3 
 1655000    0.9897839   -5.5385696    836.27288  0.042108403  0.042554849            4 
 1656000    1.0155587   -5.5537832    837.71671  0.042155631   0.04254334            2 
 1657000    1.0039003   -5.5506853    835.36861  0.042012101  0.042532011            6 
 1658000   0.98661316    -5.583439    835.70961  0.042003901  0.042520431            5 
 1659000    0.9798544   -5.5581493    833.85738  0.041885542  0.042508834            3 
 1660000   0.98710662   -5.5508351    836.90271  0.042013188  0.042497378            3 
 1661000   0.98864719   -5.5707654    838.08537  0.042047229  0.042486008            3 
 1662000   0.97880912   -5.5690829    836.72307  0.041953624  0.042474596            3 
 1663000   0.97314293   -5.5591221       837.42  0.041963319  0.042463066            6 
 1664000   0.99489496    -5.541382    838.44982  0.041989675  0.042451655            3 
 1665000   0.99687274   -5.5583067    838.13045  0.041948471  0.042440358            4 
 1666000   0.97333133   -5.5774516    838.86898  0.041960233  0.042429077            3 
 1667000    1.0123916   -5.5564709    839.56036  0.041969624  0.042417794            4 
 1668000   0.96633853   -5.5674484    838.59041  0.041896004  0.042406604            3 
 1669000   0.99611947   -5.5446763    842.64333  0.042073264  0.042395321            3 
 1670000   0.96377045   -5.5802516    838.14882  0.041823793  0.042384183            4 
 1671000   0.99127673   -5.5757855    839.20146   0.04185126  0.042373042            3 
 1672000   0.99132609   -5.5555781    841.49657  0.041940619  0.042361742            3 
 1673000    1.0003782   -5.5625236     843.4666  0.042013678  0.042350543            2 
 1674000    0.9832718   -5.5810579    839.85572  0.041808827  0.042339204            3 
 1675000    1.0039016   -5.5628959    844.68513  0.042024136  0.042327854            2 
 1676000    0.9857688   -5.5395197    846.17696  0.042073238  0.042316894            3 
 1677000   0.97696232   -5.5740729    841.72061  0.041826705  0.042305692            3 
 1678000   0.96679215   -5.5306415    843.62538  0.041896374  0.042294875            4 
 1679000   0.97353564    -5.539335    847.46702  0.042062092  0.042283704            2 
 1680000   0.98655608   -5.5506845    843.76694  0.041853519  0.042272591            9 
 1681000   0.96754725   -5.5674725    844.82566  0.041881105  0.042261541            3 
 1682000   0.98872637   -5.5500901    843.28851  0.041780049  0.042250357            5 
 1683000   0.97957752   -5.5823838    844.80266  0.041830197  0.042239101            7 
 1684000   0.99317094   -5.5139401    845.04285  0.041817243  0.042227793            7 
 1685000   0.98659501   -5.5696466     846.8147  0.041880054   0.04221664            4 
 1686000   0.98824023   -5.5739306    845.50164  0.041790314  0.042205628            3 
 1687000   0.99089468   -5.5204101    849.91883   0.04198374  0.042194621            3 
 1688000   0.98468795   -5.5533202    846.98419   0.04181399  0.042183595            3 
 1689000     0.947917   -5.5515877      847.502  0.041814782  0.042172562            7 
 1690000   0.97482695    -5.569479    847.14507  0.041772439  0.042161579            7 
 1691000   0.97680395   -5.5634543    848.19951    0.0417997  0.042150527            3 
 1692000   0.97333404   -5.5686369    848.93735  0.041811335   0.04213957            9 
 1693000   0.98447012   -5.5439946    848.57334  0.041768721  0.042128523            5 
 1694000    1.0012995   -5.5746684    847.07958  0.041670581  0.042117447            2 
 1695000   0.97215242   -5.5465956    847.75572  0.041679239  0.042106413            4 
 1696000   0.98825698    -5.553614    849.29066  0.041730084  0.042095274            2 
 1697000   0.98078051   -5.5600666    847.89377  0.041636897  0.042084312            2 
 1698000   0.99416818   -5.5633994    852.85802  0.041856008  0.042073313            6 
 1699000   0.98917001   -5.5686275    849.86167  0.041684406  0.042062321            2 
 1700000   0.97596554   -5.5955519    847.63186  0.041550581  0.042051303            5 
 1701000   0.95376584   -5.5917231     849.8581   0.04163522  0.042040066            2 
 1702000   0.98742971   -5.5857594    849.34688  0.041585727  0.042028998            3 
 1703000   0.99110062   -5.5824308     850.3999  0.041612835  0.042017919            6 
 1704000   0.97445255   -5.6030956     850.8766  0.041611727  0.042006771            6 
 1705000   0.96617574   -5.5663601    851.99442  0.041641956  0.041995695            2 
 1706000    0.9999316   -5.5645656     851.9257   0.04161419    0.0419847            4 
 1707000   0.97859311    -5.555357    856.07952  0.041792595  0.041973839            3 
 1708000   0.95230779   -5.5781684    851.28235  0.041534073  0.041962853            4 
 1709000   0.97483571   -5.5736557    853.50174   0.04161799  0.041952004            4 
 1710000   0.98650574   -5.5835256    853.59089  0.041597997  0.041941199            2 
 1711000   0.99248409   -5.5589901    854.32191  0.041609288  0.041930486            3 
 1712000   0.97340013   -5.6116089    853.00925  0.041521089  0.041919706           10 
 1713000   0.96219008   -5.5611937    855.15552  0.041601261  0.041909109            3 
 1714000   0.97258528   -5.5632789    855.64679  0.041600875  0.041898298            6 
 1715000    1.0005812   -5.5685391    857.03329  0.041643989  0.041887535            2 
 1716000    0.9537029   -5.5970659    855.17526   0.04152949  0.041876544            5 
 1717000   0.98603797   -5.5912804    854.18349  0.041457168  0.041865474            5 
 1718000   0.96712329   -5.6006952    857.21451   0.04158006  0.041854367            4 
 1719000   0.95935003   -5.5741185    855.95524  0.041494825  0.041843397            5 
 1720000   0.98330528   -5.5898784    855.95595  0.041470734  0.041832342           12 
 1721000   0.96689765    -5.544833    857.55427   0.04152403  0.041821389            4 
 1722000   0.98284681   -5.5733988    859.14026  0.041576667   0.04181033            7 
 1723000   0.96775717   -5.5505382    861.56311  0.041669719  0.041799385            3 
 1724000    0.9825188   -5.5792699    858.91912  0.041517746  0.041788429            6 
 1725000   0.98821365   -5.5753486    856.61643  0.041382436  0.041777527            5 
 1726000   0.96659208   -5.6202782    859.21938  0.041484134  0.041766663            8 
 1727000   0.97819182   -5.5576795    862.16909  0.041602446  0.041755923            3 
 1728000   0.97396126   -5.5828122    859.43952  0.041446736  0.041745033            4 
 1729000   0.96291847    -5.570656    859.67422  0.041434077  0.041734402            9 
 1730000   0.95333072   -5.5761556      858.753  0.041365751  0.041723613            3 
 1731000   0.98960222   -5.5720303    860.66251  0.041433782  0.041712847            3 
 1732000   0.95524277   -5.5716966    862.17849  0.041482799  0.041702149            4 
 1733000   0.97459771   -5.5818041    862.80485  0.041488981  0.041691502            4 
 1734000   0.98687888   -5.5644421    864.37566  0.041540545  0.041681035            5 
 1735000   0.98438689   -5.5484137    864.77245  0.041535661  0.041670541            5 
 1736000   0.95976368   -5.5796046    859.98652  0.041281995  0.041660235            2 
 1737000   0.98159425   -5.6091646    861.16195  0.041314621  0.041649588            3 
 1738000   0.97166438   -5.5882553    864.79066  0.041464838   0.04163888            3 
 1739000   0.96391725   -5.5740349    863.44377  0.041376451  0.041628346            4 
 1740000   0.94912611   -5.5889466    864.32609  0.041394927  0.041618025            4 
 1741000   0.97413451   -5.5894972    864.65763   0.04138702  0.041607682            5 
 1742000    1.0027486   -5.5631911     865.9653  0.041425818  0.041597276            2 
 1743000    0.9427954   -5.5873995    862.20157  0.041222106  0.041586826            3 
 1744000    0.9768231   -5.6146555    865.89566  0.041374984  0.041576058            3 
 1745000    0.9500957   -5.5756958    868.88427  0.041493996  0.041565588            4 
 1746000   0.97931099   -5.6032526    865.06646  0.041288014  0.041555076           11 
 1747000   0.97566677   -5.5932287     863.8376  0.041205762  0.041544621            4 
 1748000   0.99325798   -5.6048556    866.62373  0.041315014  0.041534305            4 
 1749000   0.96630441   -5.5923484    869.38329  0.041422875  0.041523908            6 
 1750000   0.95471727   -5.6016398     870.2771  0.041441767    0.0415135           21 
 1751000   0.98485939   -5.6079952    869.17566   0.04136568  0.041503147            4 
 1752000   0.95790062   -5.5771297    870.84325  0.041421387  0.041492853            2 
 1753000   0.96860335   -5.5778448    868.42099   0.04128261  0.041482553            4 
 1754000   0.96274087    -5.584748    870.43573  0.041354795  0.041472413            4 
 1755000   0.96245695   -5.5850773     868.3861  0.041233908  0.041462205            4 
 1756000   0.96792554   -5.6122539    869.08343  0.041243519  0.041451896            4 
 1757000   0.96590834   -5.5757811     871.2445  0.041322543  0.041441616            2 
 1758000   0.95646692   -5.5870873    870.47207  0.041262423  0.041431339            2 
 1759000   0.98152255   -5.5813538    872.54399  0.041337123  0.041421098            4 
 1760000   0.97683605   -5.6105363    871.22205  0.041251044  0.041410781            4 
 1761000   0.95428017   -5.6204039    870.52369  0.041194572  0.041400592            5 
 1762000   0.97407237   -5.5705871    875.68437  0.041415265  0.041390525            7 
 1763000   0.94398221   -5.6080827    870.20868   0.04113295  0.041380456            8 
 1764000     0.980913   -5.5845354    874.58674  0.041316456  0.041370302            5 
 1765000   0.97338283   -5.5858973    874.63961  0.041295543  0.041360054            4 
 1766000   0.94588871   -5.6003807    871.35454  0.041117145  0.041349882            7 
 1767000   0.97257947   -5.5654497    878.09106  0.041411576  0.041339565            5 
 1768000   0.96511347   -5.6017429    874.50275  0.041219021  0.041329544            5 
 1769000   0.95968572   -5.5457257    875.22101  0.041229556  0.041319655            5 
 1770000   0.97261124   -5.6260943    876.10251  0.041247764  0.041309749            5 
 1771000   0.97882869   -5.5895078    875.22428  0.041183149  0.041299747            2 
 1772000   0.98057362   -5.5688332    878.59118  0.041318246  0.041289892            3 
 1773000   0.98284502   -5.5770236    878.14184  0.041273822   0.04128007            3 
 1774000   0.96333494   -5.5538089    880.76176  0.041373626  0.041270225            4 
 1775000    0.9518103   -5.5829619    878.55185  0.041246566  0.041260395            6 
 1776000   0.96779382   -5.6013651     874.9645  0.041055016  0.041250321            3 
 1777000   0.97818763   -5.5750128    878.13569  0.041180627  0.041240383            7 
 1778000   0.96334756   -5.6089339    877.86007  0.041144548  0.041230417            3 
 1779000   0.97440581   -5.5750643    880.31354  0.041236347   0.04122056            2 
 1780000   0.97028805   -5.5922712    881.11421  0.041250665  0.041210642            2 
 1781000   0.95637141   -5.6144027    878.74702  0.041116742  0.041200957            7 
 1782000    0.9587193    -5.581251    882.48867  0.041268644  0.041191199            4 
 1783000   0.98692721   -5.6400514    878.05424  0.041038242  0.041181256            5 
 1784000   0.97428235   -5.5910222    882.00982   0.04120001  0.041171119            7 
 1785000   0.97984173   -5.6442091    879.54946  0.041062066  0.041161186            5 
 1786000   0.97044634   -5.6111816    881.19927  0.041116054  0.041151354            6 
 1787000   0.98038313   -5.6243895    881.11828  0.041089269   0.04114146            4 
 1788000   0.95676964   -5.5822553    884.57168  0.041227241  0.041131532            5 
 1789000   0.96255059   -5.6219956    881.56077  0.041063945  0.041121629            9 
 1790000   0.97477153   -5.5946628    882.52444  0.041085868  0.041111831            3 
 1791000     1.008707   -5.6205774    881.93278  0.041035398  0.041102032            4 
 1792000   0.95251628    -5.631631    883.17101   0.04107008  0.041092342            3 
 1793000   0.97019074   -5.5691898    883.94671  0.041083227  0.041082464            3 
 1794000   0.93753737    -5.602025    884.80213  0.041100062  0.041072828            6 
 1795000   0.97566848   -5.6172709     887.1765  0.041187396  0.041063053            6 
 1796000   0.95709797   -5.6378168    881.17127  0.040885824  0.041053158            6 
 1797000   0.96411867   -5.6033447     883.2813  0.040960921   0.04104336            6 
 1798000   0.96051863   -5.6326682    883.68864  0.040957019  0.041033506            4 
 1799000    0.9631129   -5.5992148    886.52446  0.041065613  0.041023651            4 
 1800000   0.98027119   -5.6351446    884.53182  0.040950547  0.041013899            3 
 1801000   0.95355036   -5.5885254    887.07727  0.041045589  0.041004211            4 
 1802000   0.94781305   -5.5981179    890.43169  0.041177936  0.040994597            3 
 1803000   0.95398748   -5.5974112    889.17727  0.041097119  0.040985107            3 
 1804000   0.97930466   -5.6235617    888.14872  0.041026826  0.040975568            5 
 1805000   0.98107393   -5.6221943    886.96306  0.040949357  0.040965719            5 
 1806000    0.9464571    -5.612183    890.44424  0.041087313  0.040956189            4 
 1807000   0.96742732   -5.5909377    888.54134  0.040976819  0.040946577            3 
 1808000   0.96926808   -5.6327179     889.8863  0.041016146  0.040936986            4 
 1809000   0.96300533   -5.6071066    890.81806  0.041036395  0.040927262            3 
 1810000   0.95693015   -5.6144928    895.28789  0.041219516  0.040917659            4 
 1811000   0.98708272   -5.5843647     894.3419  0.041153225  0.040908226           11 
 1812000   0.93983325   -5.6286549    889.61296  0.040913032  0.040898511            4 
 1813000   0.98490338   -5.6355678    890.20232  0.040917555  0.040888779            4 
 1814000   0.94352935   -5.6054863    891.62622  0.040960411  0.040879171            4 
 1815000    0.9717661   -5.6398607    889.13102  0.040823279  0.040869591            5 
 1816000   0.96061562   -5.6443938    890.13797  0.040847007  0.040859927            4 
 1817000   0.96809328   -5.6490892    889.95062  0.040815934  0.040850217            5 
 1818000    0.9559231   -5.6309804    890.63787  0.040824985  0.040840364            5 
 1819000   0.96953735   -5.6361856    893.24226  0.040921855  0.040830943            7 
 1820000    0.9753262    -5.606541     891.0164  0.040797454  0.040821598            6 
 1821000   0.95502862   -5.6245343    892.70451  0.040852302  0.040812036            3 
 1822000   0.98552062   -5.6130162     892.7832   0.04083348  0.040802409            5 
 1823000   0.96253058   -5.6015268    895.23952  0.040923364  0.040792843            7 
 1824000   0.94170482    -5.623898     894.5447  0.040869184  0.040783318            6 
 1825000   0.96438983    -5.591193    896.02083  0.040914193  0.040773976            5 
 1826000   0.95763272   -5.6276285    895.91908  0.040887143  0.040764478            3 
 1827000   0.97875902   -5.5982186    898.46667  0.040980965  0.040754988            7 
 1828000   0.98685763   -5.6290802    893.85249  0.040748199  0.040745297            5 
 1829000   0.94316634    -5.593415    895.65777  0.040808173  0.040735755            5 
 1830000   0.97530692   -5.6192058    895.54762  0.040780857  0.040726194            4 
 1831000   0.97163135   -5.5896326    897.39485  0.040842657  0.040716602            3 
 1832000   0.96164084   -5.5928796    897.54288  0.040827096  0.040706991            3 
 1833000    0.9469226   -5.6315979    895.87287  0.040728899  0.040697347            4 
 1834000   0.95117037   -5.6300616    892.50146  0.040553502  0.040687712            4 
 1835000   0.93839748   -5.6435909    894.94386  0.040642319  0.040677945            5 
 1836000   0.93576758   -5.5981886    897.66733  0.040743797  0.040668195            5 
 1837000   0.93354764   -5.6120527    896.87846  0.040685831  0.040658725            4 
 1838000   0.93704824    -5.564273    897.72917  0.040702266  0.040649182            3 
 1839000   0.95387554   -5.5680872    894.58624  0.040537712  0.040639376            3 
 1840000   0.97018044   -5.6157259    896.71531  0.040612106  0.040629704            3 
 1841000   0.96587768   -5.6059392    895.69849   0.04054402  0.040619808            2 
 1842000   0.96195096   -5.6412817     896.6613  0.040565568  0.040609925            4 
 1843000   0.96996145   -5.6259232    900.06213  0.040697329  0.040600028            4 
 1844000   0.96693381   -5.5777889     902.3046    0.0407766  0.040590321            5 
 1845000   0.96337205   -5.6440988    898.18863  0.040568592  0.040580475            5 
 1846000    0.9550536   -5.5989964    898.49268  0.040560341  0.040570748            3 
 1847000   0.97436773   -5.5746082     901.0289  0.040652811  0.040561194            5 
 1848000   0.97039058   -5.5955739    902.19183  0.040683253  0.040551425            6 
 1849000   0.94681828   -5.6190196     903.8947  0.040737998  0.040541829            3 
 1850000   0.93190368   -5.6691815    895.58898  0.040341846  0.040532207            3 
 1851000   0.93633958   -5.6178143    901.50845   0.04058655  0.040522597            3 
 1852000    0.9752122   -5.6268447    903.42328  0.040650796  0.040512935            4 
 1853000   0.97136879   -5.6188676    899.88259  0.040469625  0.040503327            5 
 1854000   0.96863927   -5.6344765    904.70878  0.040664724  0.040493787            4 
 1855000   0.94954517    -5.600551      903.273  0.040578302  0.040484252            6 
 1856000    0.9444413   -5.6064917    901.72353  0.040486868  0.040474565            5 
 1857000    0.9574602   -5.5969957    905.75806  0.040646117  0.040465041            7 
 1858000   0.95987439   -5.6340222    904.32335  0.040559892  0.040455429            4 
 1859000   0.94758582   -5.6093031    902.29065  0.040446954  0.040445849            4 
 1860000   0.94190942   -5.6531964    902.80769  0.040448373  0.040436235            4 
 1861000   0.96293731   -5.6326778    899.83563  0.040293553  0.040426568            4 
 1862000   0.93794409   -5.5980428     905.7476  0.040536502  0.040417052            6 
 1863000   0.95595941   -5.5976928    906.77372  0.040560642  0.040407712            5 
 1864000   0.94509907   -5.6028698     907.8766  0.040588189  0.040398325            7 
 1865000   0.94730325   -5.6220721    907.42985  0.040546463  0.040388921            5 
 1866000   0.94222207   -5.6359396    904.00007  0.040371564  0.040379488            4 
 1867000    0.9614865    -5.609109     908.7891  0.040563698  0.040370253            3 
 1868000    0.9531603   -5.6267597     911.0975  0.040644963  0.040360943            7 
 1869000   0.96227137   -5.6705605    906.94886  0.040438241  0.040351416            2 
 1870000   0.96177315   -5.6372158    908.51057  0.040486211  0.040341892            2 
 1871000   0.94624897   -5.6318694    909.95965  0.040529113  0.040332373            4 
 1872000   0.96985578   -5.6065475    912.11765  0.040603528  0.040323133            2 
 1873000   0.95617641   -5.6345328    906.84815  0.040347399     0.040314            4 
 1874000   0.95999847   -5.6510048    910.21931  0.040475779  0.040304627            4 
 1875000   0.94062049   -5.6572089    908.70023  0.040386677  0.040295252            6 
 1876000   0.96699272   -5.6417773    911.10165  0.040471822   0.04028607            4 
 1877000   0.95466751   -5.6046046    914.34831  0.040594402  0.040276912            5 
 1878000   0.93792294   -5.6480194    913.08792  0.040516858  0.040267666            8 
 1879000   0.97126295   -5.6793137    910.07711  0.040361766  0.040258268            4 
 1880000   0.94527161   -5.6413926    912.34136  0.040440663  0.040248829            3 
 1881000   0.94052339   -5.6023161    915.52483    0.0405602  0.040239627            5 
 1882000    0.9697787   -5.6385112    911.77281  0.040372512  0.040230305            2 
 1883000   0.94606346   -5.5939428    912.94351  0.040402882  0.040221141            7 
 1884000   0.95909112   -5.6445871     909.9051  0.040247041  0.040211735            7 
 1885000   0.92854515   -5.6148268    913.27458   0.04037465  0.040202362            3 
 1886000   0.96193605   -5.6191419    912.90937  0.040337105  0.040192998            3 
 1887000   0.92441409   -5.6611449    910.06274  0.040190017  0.040183606            6 
 1888000   0.94334233    -5.603742     915.5549  0.040411145  0.040174111            3 
 1889000   0.94967979   -5.6379862    914.25171  0.040332262  0.040164776            4 
 1890000    0.9577119   -5.5910742     918.6102  0.040503095  0.040155425            5 
 1891000   0.94357081    -5.620953    917.45659  0.040430839  0.040146184            3 
 1892000   0.96892144   -5.6397443    916.94504  0.040386938  0.040137069            3 
 1893000    0.9585633   -5.6314488    918.18036  0.040419984  0.040127878            6 
 1894000   0.96336251   -5.6330285    914.23632  0.040225111  0.040118578            5 
 1895000    0.9373798   -5.6573641    914.58318  0.040219137  0.040109467            5 
 1896000   0.94672351    -5.631393    918.08572  0.040351869  0.040100139            8 
 1897000   0.93742523   -5.5798719    919.91662  0.040411027  0.040090822            3 
 1898000   0.96699701   -5.6474056    915.69328  0.040204306  0.040081725            3 
 1899000   0.94567465    -5.627673    915.80132  0.040187876  0.040072475            4 
 1900000   0.95057184    -5.649906    915.87443  0.040169931  0.040063155            6 
 1901000   0.95144584   -5.6613432    918.77877  0.040276117  0.040053972            3 
 1902000   0.92987748   -5.6491783    919.92659  0.040305231  0.040044611            4 
 1903000   0.94568865   -5.6532293    916.49526  0.040133791   0.04003538            4 
 1904000   0.94132397   -5.6458243    917.45725  0.040154816   0.04002606            3 
 1905000    0.9442369   -5.6504006     916.4314  0.040088863  0.040016653            5 
 1906000   0.92760794   -5.6292634     918.5428  0.040160143  0.040007341            4 
 1907000    0.9540315    -5.635968    918.31144  0.040128974  0.039998039            3 
 1908000   0.94446591   -5.6541302     917.1503  0.040057229  0.039988879            3 
 1909000   0.94377793   -5.6513816    920.53077  0.040183812  0.039979598            3 
 1910000   0.93440043   -5.6695472    916.10828   0.03996982  0.039970224            6 
 1911000   0.94931038   -5.6414711    917.66449  0.040016767  0.039960685            2 
 1912000   0.94445315   -5.6322988    920.72227  0.040129109  0.039951313            4 
 1913000   0.95297148   -5.6667058    916.91122  0.039942116  0.039941867            5 
 1914000    0.9438967   -5.6533096    918.22056  0.039978255  0.039932507            6 
 1915000   0.96201412    -5.645464    921.11066  0.040083144  0.039922902            8 
 1916000   0.96079199   -5.6613097    917.14003  0.039889528  0.039913422            2 
 1917000   0.93401857   -5.5944411     923.5299  0.040146492  0.039904115            3 
 1918000     0.950963   -5.6422439    918.43244  0.039904086  0.039894819            2 
 1919000   0.94531142   -5.6355974    922.31258  0.040051788  0.039885543            2 
 1920000   0.94198688   -5.6487717    920.48932  0.039951793  0.039876013            7 
 1921000   0.94230133    -5.633951    921.69329  0.039983224  0.039866702            4 
 1922000   0.95443901   -5.5979135    924.07215  0.040065563  0.039857376            7 
 1923000   0.93889427   -5.6682616    924.42101  0.040059846  0.039847996            6 
 1924000   0.95444178   -5.6380794    923.84429  0.040014046  0.039838631            7 
 1925000   0.94293415   -5.6539043    922.23539   0.03992361  0.039829214            5 
 1926000   0.93482035   -5.6705528    919.05206  0.039765146  0.039819823            4 
 1927000    0.9652474   -5.6815766    923.25875  0.039926429  0.039810534            9 
 1928000   0.94659568   -5.6849964    923.78257  0.039928362   0.03980115            3 
 1929000   0.94526886   -5.6246713    926.57832   0.04002844   0.03979196            4 
 1930000   0.95443814   -5.6770067    919.61487  0.039707033  0.039782567            6 
 1931000     0.947395   -5.6080995    927.60033  0.040031086   0.03977321            4 
 1932000   0.95604739   -5.6381685    927.54586  0.040008017  0.039763896            6 
 1933000   0.94607144   -5.6257196    924.87513  0.039872182  0.039754594            7 
 1934000   0.93671568   -5.6154866    926.66867  0.039928847  0.039745404            5 
 1935000   0.93509728   -5.6169554    930.60258   0.04007763  0.039736179            4 
 1936000   0.93575101   -5.6576575    925.74192  0.039847707  0.039727132            7 
 1937000   0.94786662   -5.6894976    928.01591  0.039924966  0.039717994            4 
 1938000   0.94984582   -5.6620745    927.91951   0.03990022  0.039708839            5 
 1939000   0.93995924   -5.6568504    927.30164  0.039853088  0.039699732            4 
 1940000   0.96476853   -5.6466946    926.80572  0.039811242  0.039690528            7 
 1941000   0.94375921   -5.6553147     928.7145  0.039872682  0.039681325            4 
 1942000   0.92284616   -5.6449657    927.56521  0.039802832  0.039672158            4 
 1943000     0.947221    -5.673269    928.52141  0.039823358  0.039663038           18 
 1944000   0.94279104   -5.6378405    929.94783  0.039864019   0.03965388            2 
 1945000   0.94653904   -5.6772266    931.35905  0.039903987   0.03964483            4 
 1946000   0.92539197   -5.6549105    929.82749  0.039817895  0.039635848            2 
 1947000   0.93821451   -5.6633898    931.88419  0.039885473  0.039626777            3 
 1948000   0.92922613    -5.674102    931.87976  0.039864808  0.039617687            4 
 1949000   0.91837658   -5.6758858    931.08337  0.039810303  0.039608716            7 
 1950000   0.94883528   -5.6572434    932.21045  0.039838053  0.039599681            5 
 1951000   0.93098923   -5.6778176    931.35641  0.039781155  0.039590558            9 
 1952000   0.94105758   -5.6531272    931.52341  0.039767905  0.039581543           10 
 1953000   0.93437467   -5.6610664    931.97445  0.039766788   0.03957253            3 
 1954000   0.95095816   -5.6593795    931.40803   0.03972228  0.039563426            4 
 1955000    0.9255464   -5.6332527    935.20013  0.039863603    0.0395544            5 
 1956000   0.94858766   -5.6773658    930.66472  0.039649997  0.039545281            6 
 1957000   0.93807835   -5.7015307    931.66761  0.039672441  0.039536178            4 
 1958000   0.92700414    -5.690941    929.51325  0.039560489   0.03952712            3 
 1959000    0.9441556   -5.6464595    937.51544  0.039880698  0.039517985            7 
 1960000   0.93005509   -5.6598937    931.93407  0.039623047  0.039508856            6 
 1961000   0.94796622   -5.6457264    934.35339  0.039705651  0.039499749           10 
 1962000    0.9535364   -5.6748402     934.5559  0.039694015  0.039490557            4 
 1963000   0.94500169   -5.6780521     936.0974  0.039739234  0.039481431            5 
 1964000   0.93473336    -5.690279    932.38976  0.039561683  0.039472214            4 
 1965000   0.95604426   -5.6869729    933.26598   0.03957871  0.039462997            6 
 1966000   0.93896249   -5.6412799    936.71207  0.039704648  0.039453812            4 
 1967000   0.94791365   -5.6665252    933.43138  0.039545475  0.039444672            5 
 1968000   0.95653266   -5.6757173    938.82223  0.039753651  0.039435579            8 
 1969000   0.94658555   -5.6828548    933.20927  0.039495906  0.039426368            3 
 1970000   0.93168096   -5.7129244    935.19453  0.039559836  0.039417191            4 
 1971000   0.93316182   -5.6667742    937.62503  0.039642526  0.039407949            5 
 1972000   0.93034226   -5.6368218    937.84402  0.039631678  0.039398889            2 
 1973000   0.93074104   -5.6710643    936.65787  0.039561491  0.039389711            2 
 1974000   0.94554083   -5.6820937    933.24534  0.039397388  0.039380581            3 
 1975000    0.9246241   -5.6830368    934.18407  0.039417049  0.039371449            6 
 1976000   0.94589598    -5.670437    938.01097  0.039558493  0.039362156            2 
 1977000   0.93281067   -5.6192967    939.97388  0.039621222  0.039353109            5 
 1978000   0.93813993   -5.6962727    934.98282  0.039390917  0.039343956            5 
 1979000   0.94352833   -5.6741557    939.40718  0.039557318  0.039334774            7 
 1980000   0.92203383   -5.6774717    938.63676  0.039504914  0.039325655            5 
 1981000   0.93411523   -5.6930235    935.49653  0.039352874  0.039316549            4 
 1982000   0.92282017   -5.6682155    939.71364  0.039510328  0.039307377            4 
 1983000   0.92653785   -5.6667319    938.85452    0.0394543   0.03929831            7 
 1984000   0.93401589   -5.6638217    940.18946  0.039490485  0.039289178            9 
 1985000   0.93671151   -5.6408621    939.34874  0.039435296  0.039280151            3 
 1986000   0.93697359   -5.6645081    941.57768  0.039508966  0.039271027            4 
 1987000   0.92067365   -5.6365535    941.38073  0.039480822  0.039262054            8 
 1988000   0.91814478   -5.6718122    939.85722    0.0393971  0.039252886            6 
 1989000   0.94284203   -5.6407063    944.08814  0.039554556  0.039243703            3 
 1990000   0.92918703    -5.650184     943.0427    0.0394909  0.039234784            6 
 1991000    0.9413361    -5.692686    943.50351  0.039490353  0.039225794           14 
 1992000   0.93794142   -5.6594001     943.9327  0.039488483  0.039216679            6 
 1993000   0.91517813   -5.6958173    942.07478  0.039390984  0.039207594            4 
 1994000   0.92710159   -5.6732161    943.58046  0.039434155  0.039198508           12 
 1995000   0.93664775   -5.6666411     943.9236  0.039428722  0.039189451            2 
 1996000   0.93375289   -5.7007058    943.79176  0.039403464   0.03918059            4 
 1997000   0.93753883   -5.7022104    945.51329   0.03945557  0.039171704            3 
 1998000   0.94455017   -5.6586126    947.68592   0.03952644  0.039162838            6 
 1999000   0.92410832   -5.6721193    943.21453  0.039320265  0.039153856            3 
 2000000   0.94452123   -5.6947461    944.62259  0.039359274  0.039144997            4 
 2001000   0.93544994   -5.6843006    946.52673  0.039418904  0.039136237            5 
 2002000    0.9372004   -5.6664553    946.18217  0.039384872   0.03912741            4 
 2003000   0.92480599   -5.6562548    949.46166   0.03950165   0.03911873            3 
 2004000   0.92376328   -5.6786724    947.71857  0.039409455  0.039109941            3 
 2005000   0.93373172   -5.6872805    949.14303  0.039449004   0.03910117            7 
 2006000   0.92587425   -5.6629908    950.32391  0.039478394  0.039092398            4 
 2007000   0.94485732   -5.6646897    948.88491  0.039398975  0.039083646           10 
 2008000   0.91406021   -5.7115239    948.07511  0.039345746  0.039074858            3 
 2009000   0.91455658   -5.6797535    949.68056  0.039392756  0.039066179            4 
 2010000   0.93901999   -5.6768006     950.3514   0.03940097  0.039057531            3 
 2011000   0.91518642   -5.6635223     952.8398  0.039484494  0.039048809            4 
 2012000   0.94231253    -5.663813    950.66836  0.039374932  0.039040137            3 
 2013000   0.94900223   -5.6951212    951.52132  0.039390682  0.039031492            2 
 2014000   0.92934343   -5.7116875    949.62752  0.039292764  0.039022638            7 
 2015000   0.92848745   -5.6997574    950.93257  0.039327236  0.039013696            3 
 2016000   0.91410428   -5.6801673    949.20891   0.03923648  0.039004997            8 
 2017000   0.92639901    -5.670291    954.30974   0.03942777  0.038996317            4 
 2018000   0.92505467   -5.7083124    950.27969  0.039241811  0.038987474            3 
 2019000   0.91920459   -5.6766145    952.71304   0.03932281  0.038978767            4 
 2020000   0.91561785   -5.6878627     953.0111  0.039315639   0.03896998            6 
 2021000    0.9205436   -5.6834352    951.63893  0.039239606  0.038961302            6 
 2022000   0.93035182    -5.660837    955.50936  0.039379713   0.03895265            7 
 2023000   0.93954425   -5.6883026    954.27777  0.039309514  0.038944022            9 
 2024000    0.9457369   -5.6728815    954.57695  0.039302411  0.038935323            3 
 2025000   0.90796095   -5.6770779    955.14689  0.039306456  0.038926545            3 
 2026000   0.90752608   -5.6954759    954.18512  0.039247496  0.038917779            5 
 2027000    0.9439397   -5.6845366    952.26042  0.039149006  0.038908961            5 
 2028000   0.92277484   -5.6946923    955.23107   0.03925177  0.038900258            5 
 2029000    0.9285366   -5.7157075    955.39051  0.039238973  0.038891448            9 
 2030000   0.91906743   -5.6870816    955.39186  0.039219699  0.038882677            3 
 2031000   0.92538011   -5.6916585    952.76389  0.039092561  0.038873922            3 
 2032000   0.91415487   -5.6705579    956.73853  0.039236324  0.038865258            4 
 2033000   0.92590698   -5.6907095    957.20564  0.039236172  0.038856622            6 
 2034000   0.93766236   -5.6633412    958.70389  0.039278265  0.038847941            3 
 2035000   0.92152135   -5.6785783    955.28582  0.039118993  0.038839205            2 
 2036000   0.90809709   -5.7236517    955.67635  0.039115764  0.038830388            4 
 2037000   0.93572091   -5.6898596    956.38804  0.039125677  0.038821689           11 
 2038000    0.9100576   -5.6811745    959.47075   0.03923253  0.038812989            3 
 2039000   0.91132651   -5.6494281    957.23229  0.039121803  0.038804388            8 
 2040000    0.9011724   -5.6766388    960.66824  0.039242984  0.038795662            7 
 2041000   0.93431749   -5.6700414    961.20228  0.039245561  0.038787088            5 
 2042000   0.93317447   -5.6833157    959.59379    0.0391607  0.038778425           10 
 2043000   0.93046073   -5.7059211     958.7185  0.039105829  0.038769723            5 
 2044000   0.92109334   -5.7018064    960.82991  0.039172779  0.038761163            4 
 2045000   0.92193722    -5.688482    961.17043  0.039167499  0.038752698            4 
 2046000   0.92708214   -5.6707838    961.09469  0.039145271  0.038744334            4 
 2047000   0.92747512   -5.6674527    965.11517  0.039289821  0.038736086            6 
 2048000   0.91141522   -5.7149389    959.96684  0.039061151  0.038727597            7 
 2049000   0.91558096   -5.6651765    963.24759  0.039175516  0.038719132            5 
 2050000   0.91504421   -5.6901509    965.51018  0.039248381  0.038710809            6 
 2051000   0.90052355    -5.686639    962.62923   0.03911219  0.038702387            6 
 2052000   0.90868633   -5.7254177    959.36663  0.038960633   0.03869388            9 
 2053000   0.91501651   -5.7005013    962.33597  0.039062184  0.038685306            3 
 2054000   0.92672681   -5.6539319    964.39327  0.039126634   0.03867685            7 
 2055000   0.92480467    -5.702011    963.14413   0.03905694  0.038668401           10 
 2056000   0.91559852   -5.6907493    964.05407  0.039074824  0.038659832            6 
 2057000   0.92262152   -5.7051071    965.08532  0.039097607  0.038651306            5 
 2058000   0.92322698    -5.703455    961.76863  0.038944308  0.038642633            4 
 2059000   0.92536476   -5.7020005    965.66636  0.039083146  0.038634007            3 
 2060000    0.9349144   -5.6973561    964.86214   0.03903164  0.038625627            4 
 2061000   0.91584171   -5.6726381    969.52543  0.039201255  0.038617429            4 
 2062000   0.91396845   -5.6849927    964.91975   0.03899611   0.03860902            3 
 2063000   0.92279947   -5.7482575     960.3956  0.038794458   0.03860043            6 
 2064000   0.91815212   -5.6988234    964.80089  0.038953524  0.038591882            3 
 2065000    0.9410971   -5.6670362     967.8875  0.039059221  0.038583303            3 
 2066000   0.91378718   -5.6977296    965.50414  0.038944181  0.038574832            6 
 2067000   0.90340104   -5.6833137    965.91338  0.038941839  0.038566245            7 
 2068000   0.91814269   -5.7036363     965.5813  0.038909627  0.038557741            9 
 2069000   0.92310576   -5.6846404     966.2723  0.038918652   0.03854918            7 
 2070000   0.92359041   -5.7094441    967.88943  0.038964953   0.03854057            3 
 2071000   0.94104053   -5.7100405    965.98325  0.038869437  0.038532113            3 
 2072000   0.91916227    -5.676045    970.03463  0.039013619  0.038523636            3 
 2073000   0.90704457   -5.6695282    966.71647  0.038861412  0.038515199            8 
 2074000   0.92124297   -5.6974039    968.46522  0.038912939  0.038506712            6 
 2075000   0.92502314   -5.6980191    968.01345  0.038876042  0.038498072            7 
 2076000   0.92942169   -5.6998962    967.37776  0.038831798  0.038489394            6 
 2077000   0.91659171   -5.7039989    969.27592   0.03888926  0.038480751            2 
 2078000   0.88763226   -5.6958878    969.29588  0.038871346  0.038472189            4 
 2079000   0.91098724   -5.6627247    971.58621  0.038944453  0.038463741            4 
 2080000   0.92857795   -5.7126483    970.36865  0.038876949  0.038455261            5 
 2081000   0.91114312   -5.6555028     969.6574  0.038829785  0.038446812            4 
 2082000   0.92848251   -5.6942182    968.12526   0.03874981  0.038438347            2 
 2083000   0.92362006   -5.6912499     969.4027  0.038782313  0.038429772            4 
 2084000   0.92700483   -5.6889662    969.12921  0.038752768  0.038421217            5 
 2085000   0.90738809   -5.7264123    967.50584  0.038669298  0.038412721            5 
 2086000   0.92355673   -5.6885917    970.69463  0.038778149  0.038404153            9 
 2087000   0.94188002   -5.6697588    972.99159  0.038851285  0.038395723            2 
 2088000   0.92002245    -5.703862    972.93106  0.038830263  0.038387313            7 
 2089000   0.90631765   -5.6759358     973.9687  0.038853068   0.03837884            7 
 2090000   0.90115562   -5.6751524    969.42491  0.038653306  0.038370556            6 
 2091000   0.91744592   -5.7107094    970.62871  0.038682796  0.038362138            4 
 2092000   0.92275825   -5.7123446    970.21131  0.038647678  0.038353548            5 
 2093000   0.92760776   -5.6857625    974.69373  0.038807681  0.038345067            4 
 2094000   0.93642781   -5.7058624    972.12198  0.038686803   0.03833644            6 
 2095000   0.88661475   -5.7209514    970.24999  0.038593874  0.038327798            5 
 2096000   0.91086939   -5.7132573    969.22906  0.038534871  0.038319041            3 
 2097000   0.90683907   -5.6729645    975.34133  0.038759391  0.038310369            6 
 2098000   0.93429056   -5.7254827    970.55323  0.038550732  0.038301658            6 
 2099000   0.92326589   -5.7071244    972.97556  0.038628536  0.038292858            4 
 2100000    0.9215645   -5.6978482    972.16766  0.038578082  0.038284082            2 
 2101000   0.90276994   -5.6912424    973.83673  0.038625921  0.038275273            9 
 2102000   0.93168854   -5.7090848    973.09118  0.038577989  0.038266403            3 
 2103000   0.92852161    -5.685311    972.35698  0.038530551  0.038257613            5 
 2104000   0.90135343   -5.7195033    972.06924  0.038500841   0.03824885            7 
 2105000   0.92721469   -5.6949952    973.11592  0.038523987  0.038240014            5 
 2106000   0.91746577   -5.7216861    970.32498  0.038395259  0.038231104            3 
 2107000   0.91565043   -5.7614914    972.40191   0.03845918  0.038222097            7 
 2108000   0.90646866   -5.7270091     970.1887  0.038353443  0.038213081            5 
 2109000   0.93503128   -5.7069868    971.86128  0.038401347  0.038204144            7 
 2110000   0.92105434   -5.6931883    975.26291  0.038517493  0.038195198            6 
 2111000   0.90684907   -5.7067156    976.07282  0.038531218  0.038186409            9 
 2112000   0.92105631   -5.7259111    975.91163  0.038506614  0.038177571            6 
 2113000   0.91449158   -5.7079469      973.698  0.038401088  0.038168834            4 
 2114000   0.93771362   -5.7259444    973.29478  0.038367029   0.03815987            5 
 2115000   0.90971632   -5.7138601    975.60358  0.038439857  0.038150969            4 
 2116000    0.9147293   -5.7030784    974.53484  0.038379602   0.03814207            3 
 2117000   0.91124231   -5.7079504    975.69819  0.038407266  0.038133071            7 
 2118000   0.90279232   -5.7061454    976.89034  0.038436038  0.038124244            3 
 2119000   0.92179101   -5.7151071     972.8201   0.03825783  0.038115306            3 
 2120000   0.92166326   -5.7668751    973.38372  0.038261939  0.038106177            8 
 2121000   0.92409896   -5.7169717    975.61035  0.038331382  0.038097189            8 
 2122000   0.91668675   -5.7561737    973.06782  0.038213471  0.038088088            7 
 2123000   0.92858339   -5.7017534    978.09297  0.038392721  0.038079079            8 
 2124000   0.89284895   -5.7113594    977.96016  0.038369435  0.038069968            5 
 2125000    0.9181826   -5.7592903    974.38651  0.038211236  0.038060898            3 
 2126000   0.89566412   -5.7193283    978.37889  0.038349753   0.03805194            5 
 2127000   0.91980082   -5.7002968    978.03855  0.038318389  0.038042961            4 
 2128000   0.91038671   -5.7014323    978.91252  0.038334607  0.038033899            3 
 2129000   0.93159854   -5.7165316    973.77327   0.03811544  0.038024863            2 
 2130000   0.90193884   -5.7354818    975.65794  0.038171281  0.038015723            5 
 2131000   0.93445514   -5.7150028    976.88468   0.03820134  0.038006652            6 
 2132000   0.92741584   -5.6924047    978.79434  0.038258065  0.037997809            2 
 2133000   0.93523605   -5.7264811    974.87553  0.038087026  0.037988779            3 
 2134000    0.9167207      -5.7074    977.06863   0.03815482  0.037979667            6 
 2135000   0.91026217   -5.7582624    975.63239  0.038080889  0.037970578           10 
 2136000   0.90405503   -5.7263746    979.71436  0.038222314  0.037961539            3 
 2137000   0.91045927   -5.7127766     978.2891   0.03814885  0.037952555            3 
 2138000   0.91216943   -5.7598488    977.54734  0.038102095  0.037943629            3 
 2139000   0.92664675   -5.7411494    980.64517   0.03820497  0.037934624            7 
 2140000   0.92008674   -5.7347575    981.11235  0.038205309  0.037925694            7 
 2141000   0.89913185   -5.7161626    984.07389  0.038302736  0.037916866            4 
 2142000   0.88557324   -5.7088081    980.38782   0.03814145  0.037907888            9 
 2143000   0.90249504   -5.7052081    981.79657  0.038178432  0.037898912            5 
 2144000   0.89082044   -5.6997419    984.14366  0.038251852  0.037890107            4 
 2145000   0.89035218   -5.6952125    982.52301  0.038171057  0.037881392            2 
 2146000   0.91048574   -5.7551198    979.36373  0.038030589  0.037872513            7 
 2147000   0.91685123    -5.726233    980.23674  0.038046761  0.037863485            5 
 2148000   0.91055371   -5.7253393    981.66545  0.038084476  0.037854499            3 
 2149000    0.9060943   -5.7279057     981.7947  0.038071766  0.037845539            4 
 2150000   0.91382377   -5.7654168    982.28479  0.038073054  0.037836552            7 
 2151000   0.91550877    -5.712776    982.82112  0.038076132  0.037827528            3 
 2152000    0.9102102   -5.7157001    983.06547  0.038067901  0.037818663            4 
 2153000   0.90132662   -5.7119558    987.85744  0.038235696  0.037810036            3 
 2154000    0.9150418   -5.7251072    983.82334  0.038061875  0.037801378            3 
 2155000   0.88556156   -5.7186464    985.20408  0.038097605  0.037792641            4 
 2156000   0.92139925   -5.7214785    984.98394  0.038071426  0.037783797            4 
 2157000   0.90829166   -5.7405133    982.95734  0.037975481  0.037774984            6 
 2158000   0.88059894   -5.7063921    983.19519  0.037967068   0.03776604            6 
 2159000   0.90613722   -5.7240835     987.1775  0.038103192  0.037757134            6 
 2160000   0.94235406   -5.7126414    987.37336  0.038093108  0.037748345            4 
 2161000   0.89600729    -5.714298    987.90788  0.038096093   0.03773963            4 
 2162000   0.89683851     -5.73095    987.80587   0.03807454  0.037730836            9 
 2163000   0.90326671   -5.7218893    986.70908  0.038014682  0.037722001            5 
 2164000   0.91300087    -5.733816    987.08056   0.03801142  0.037713175            4 
 2165000   0.90313642    -5.763087    986.90406  0.037987069  0.037704345            3 
 2166000   0.89538722   -5.7418046    987.01308  0.037973726  0.037695575            6 
 2167000   0.89958669   -5.7592125    988.85795  0.038027148  0.037686684            5 
 2168000   0.90782343   -5.7258473    987.36953  0.037952396  0.037678076            5 
 2169000   0.88756539   -5.7370109    988.44561  0.037976241  0.037669348            5 
 2170000   0.88137173   -5.7448286     988.1408  0.037947035  0.037660657            5 
 2171000   0.90244462   -5.7416723    989.26739    0.0379728  0.037651961            3 
 2172000   0.89449452   -5.7502009    992.25133  0.038069802  0.037643258            3 
 2173000   0.90337673    -5.748964    988.07298  0.037892046  0.037634643            3 
 2174000    0.9343031    -5.768595    990.62918    0.0379726  0.037625915            2 
 2175000   0.91569448   -5.7509167    988.92292  0.037889767  0.037617245            3 
 2176000   0.90388318   -5.7578205    986.85918   0.03779332  0.037608561            8 
 2177000   0.88701773   -5.7123248    988.77713  0.037849377  0.037599986            8 
 2178000   0.89381645   -5.7621132    989.38997  0.037855447   0.03759135            4 
 2179000   0.90996244   -5.7563515    990.93002  0.037896972  0.037582747            5 
 2180000   0.90466271    -5.733497     992.2861  0.037931426  0.037574079            6 
 2181000   0.91074937   -5.7741713    989.30396   0.03780009  0.037565393           13 
 2182000   0.89306213   -5.7757697    991.42369  0.037863722  0.037556818            7 
 2183000   0.91110186   -5.7460407    994.12468  0.037949484  0.037548233            9 
 2184000   0.90674686   -5.7042158    996.76905  0.038033007  0.037539748            6 
 2185000   0.89718453   -5.7410197    995.52232  0.037968052  0.037531223            3 
 2186000   0.92248778   -5.7401916    993.34723  0.037867766  0.037522548            5 
 2187000   0.90424942   -5.7427555    994.68932   0.03790159  0.037514005            7 
 2188000   0.88369594   -5.7129134    995.85082  0.037928505  0.037505453            5 
 2189000   0.88703437   -5.7478474    993.66685  0.037828036  0.037496947            8 
 2190000   0.92167249   -5.7516671    995.26635  0.037871627  0.037488352           10 
 2191000   0.88993871   -5.7672841    996.58004  0.037904307  0.037479708            5 
 2192000      0.90649   -5.7306586    997.30883  0.037914721  0.037471105            7 
 2193000    0.8968128   -5.7670924     993.0636  0.037736115  0.037462512            5 
 2194000   0.89971379   -5.7171672    997.18147  0.037875322  0.037454032            4 
 2195000   0.90652396   -5.7187811    997.29832  0.037862503  0.037445484            8 
 2196000   0.90324526   -5.7320733     999.3073  0.037921497  0.037437044            3 
 2197000   0.91627445   -5.7163742    1000.9526  0.037966642  0.037428504            2 
 2198000   0.90819677   -5.7572847    993.07033  0.037650528   0.03741998            4 
 2199000   0.88532366   -5.7293139    1002.0579  0.037974001  0.037411494            3 
 2200000    0.8994825   -5.7523363     996.7732  0.037756561  0.037402931            6 
 2201000   0.88392136   -5.7336179    998.38006  0.037800245  0.037394415           10 
 2202000   0.92651048   -5.7746012    995.45314  0.037672311  0.037385794           10 
 2203000   0.91606461   -5.7560442    996.86164   0.03770849  0.037377236            7 
 2204000   0.88653506   -5.7860049    996.96073  0.037695127  0.037368478            7 
 2205000   0.90838604   -5.7090678    1000.5418  0.037813371   0.03735991            6 
 2206000    0.9035265   -5.7577577    999.86606  0.037770703  0.037351383            9 
 2207000   0.90031547   -5.7493926    995.19668   0.03757728  0.037342759            3 
 2208000   0.92521963   -5.7174038    1000.7066  0.037768213  0.037334067            3 
 2209000   0.88336848   -5.7548018    997.29312  0.037622345  0.037325472           11 
 2210000   0.88358197   -5.7416401    996.93865  0.037591955  0.037316643           12 
 2211000   0.88954314   -5.7591603    995.62502  0.037525442  0.037307843            4 
 2212000   0.88028747   -5.7098033    1000.4745  0.037691172  0.037299114            3 
 2213000    0.9051873    -5.734948    997.62326  0.037566774  0.037290384            4 
 2214000   0.89819038    -5.748003    998.21538  0.037572094  0.037281529            7 
 2215000   0.90501488   -5.7530501    997.41473  0.037525009   0.03727267            7 
 2216000   0.91449984   -5.7790952    998.94004  0.037565435  0.037263677            4 
 2217000   0.88387447    -5.767538    993.73434  0.037352817  0.037254722            5 
 2218000   0.89093744   -5.7225711    998.14179   0.03750157  0.037245759            3 
 2219000   0.89235833   -5.7520669    999.80259   0.03754704  0.037236982            4 
 2220000   0.87065873   -5.7196854    999.06822  0.037502561  0.037228219            5 
 2221000   0.89318198   -5.7634335    1000.0141  0.037521167   0.03721933            3 
 2222000   0.89051994   -5.7579504    1000.2295  0.037512357  0.037210431            8 
 2223000   0.90417478   -5.7461642    1002.1858  0.037568819  0.037201637            5 
 2224000   0.91830805   -5.7364773    1000.3204  0.037482028  0.037192891            5 
 2225000    0.9058671   -5.7692952     1000.086  0.037456403  0.037184104            5 
 2226000   0.89540127   -5.7520626    1001.9793  0.037510456  0.037175418            5 
 2227000   0.90224015   -5.7424466    1000.5034  0.037438384  0.037166651            7 
 2228000   0.89203147   -5.7293577    1001.3344  0.037452664  0.037157804            3 
 2229000   0.90918599   -5.7662783    998.27846  0.037321611  0.037148967            6 
 2230000   0.88601641   -5.7308171    1000.5936   0.03739139  0.037140081            9 
 2231000   0.88550441   -5.7786991    1000.2913  0.037363337  0.037131208            3 
 2232000    0.9088379   -5.7518701    1000.9842  0.037372468  0.037122434           12 
 2233000   0.90591374   -5.7561306    1001.2029  0.037363896    0.0371136            7 
 2234000   0.90809645   -5.7344422    1003.6737  0.037439334   0.03710472            2 
 2235000   0.91160014   -5.7434815    1000.5311  0.037305409  0.037096026            5 
 2236000   0.87302527   -5.7662981    1002.1937  0.037350691  0.037087228           11 
 2237000   0.90321696   -5.7595436    1004.5371  0.037421291  0.037078428            7 
 2238000    0.8812589    -5.757056     1002.815  0.037340444  0.037069711            8 
 2239000   0.89045314   -5.7574689    1004.8415  0.037399191  0.037060865            5 
 2240000    0.8738173   -5.7430301    1005.6257  0.037411672  0.037052111            5 
 2241000   0.88493238   -5.7935881    1001.0364   0.03722432  0.037043213            3 
 2242000   0.90155734   -5.7802107    1001.9575  0.037241953   0.03703448            3 
 2243000   0.90175529    -5.748782    1005.0744  0.037341152  0.037025642            5 
 2244000   0.89298281   -5.7336117    1008.2595  0.037442792  0.037016827            3 
 2245000   0.87520897   -5.7675884     1003.238  0.037239717  0.037008083            5 
 2246000   0.88042966   -5.7438218    1004.6918  0.037277077  0.036999268            7 
 2247000   0.86865628   -5.7482238    1006.9392  0.037343835  0.036990533            3 
 2248000   0.88657764   -5.7758638     1003.404  0.037196175   0.03698162            4 
 2249000   0.89651994   -5.7750012    1005.3412  0.037251416  0.036972688            8 
 2250000   0.87608785   -5.7696734    1002.4673  0.037128418  0.036963839            6 
 2251000    0.8973869   -5.7766252    1005.6577  0.037230036  0.036955071            4 
 2252000   0.88468792   -5.7382019    1008.7005  0.037326098  0.036946221            4 
 2253000   0.88035712    -5.766222    1003.8227  0.037129112  0.036937289            5 
 2254000   0.89744289   -5.7684747     1004.403  0.037134093  0.036928404            5 
 2255000   0.88875612   -5.7509338    1004.6294  0.037125994  0.036919622            7 
 2256000   0.87026039   -5.7583615    1004.4468  0.037102792  0.036910825            5 
 2257000   0.88413989   -5.7534228    1008.5035  0.037236134  0.036901849            4 
 2258000   0.90312793   -5.7601676    1006.6323  0.037150588  0.036892986            4 
 2259000   0.87488878   -5.7910875    1006.2532  0.037120157  0.036884204            4 
 2260000   0.88952353   -5.7544655    1008.9995  0.037204997  0.036875312            4 
 2261000   0.87422111   -5.7651175    1008.1941  0.037158857  0.036866448            5 
 2262000   0.90496294   -5.7692587    1006.4353  0.037077634  0.036857571            6 
 2263000   0.89208829   -5.7631615    1006.4009  0.037059984  0.036848803            4 
 2264000   0.88072734   -5.7726829    1007.0718  0.037068308   0.03683986            2 
 2265000   0.88619612   -5.7816603    1012.5863  0.037254832  0.036831047            6 
 2266000   0.87557423   -5.7423659    1009.0533   0.03710846  0.036822199            5 
 2267000   0.88153666   -5.7517943    1012.2119  0.037208201  0.036813417            4 
 2268000   0.87297363   -5.7458878    1010.9762  0.037146393  0.036804654            4 
 2269000    0.8907804   -5.7517583    1009.1738  0.037063823  0.036795936            9 
 2270000   0.91962799    -5.739049    1009.8417  0.037072016  0.036787212            5 
 2271000   0.87712297   -5.7583893    1011.1474  0.037103602  0.036778601            7 
 2272000   0.88152461   -5.7553565    1013.8678  0.037187052  0.036769936           10 
 2273000   0.91050408   -5.7733251    1010.0299  0.037029985  0.036761229            5 
 2274000   0.86996679   -5.7949454    1010.2123  0.037020386  0.036752518            4 
 2275000    0.8968747   -5.7864766    1007.0045   0.03688661  0.036743668            4 
 2276000   0.89332641   -5.7690212    1008.1862  0.036913673   0.03673477            4 
 2277000   0.89406742   -5.7487626    1010.2984  0.036974761  0.036726062            4 
 2278000   0.90635146   -5.7762798    1008.6181  0.036897061  0.036717174            3 
 2279000   0.88573038   -5.7648491    1013.5687  0.037061895   0.03670832            6 
 2280000   0.88726046   -5.8013077    1011.1343  0.036956664  0.036699361            5 
 2281000   0.88799633   -5.7934166    1007.9565  0.036824362  0.036690482            4 
 2282000   0.90535337   -5.7742339    1009.9603  0.036881401  0.036681506            5 
 2283000   0.89230145   -5.8179642    1008.7655  0.036821634  0.036672545            8 
 2284000   0.88716829   -5.7879724     1010.112   0.03685464  0.036663638           10 
 2285000   0.89234107   -5.7866953    1009.3782   0.03681175  0.036654633            4 
 2286000   0.90293967   -5.7611237    1011.7321  0.036881455  0.036645655            5 
 2287000   0.89295924   -5.8147007    1009.6291  0.036788701   0.03663666            5 
 2288000   0.87342095   -5.8044901    1009.2397  0.036758441  0.036627555            5 
 2289000   0.87042117    -5.797377    1008.0941  0.036700674  0.036618548            3 
 2290000   0.88826363   -5.7808871    1010.8728  0.036785765  0.036609588            5 
 2291000   0.88561071   -5.7614995    1015.7504  0.036947126  0.036600629            4 
 2292000   0.87733541    -5.779152    1013.6401  0.036854279  0.036591736            5 
 2293000   0.88163923   -5.7696389    1012.1225  0.036783052   0.03658289            4 
 2294000   0.89744707   -5.7576694     1011.304  0.036737286  0.036573876            6 
 2295000   0.88665364   -5.8192344    1011.6263   0.03673298  0.036564932            8 
 2296000    0.8840669   -5.7636105    1017.5808  0.036933102  0.036556085            5 
 2297000   0.89584798   -5.7401255    1014.2552  0.036796373  0.036547224            4 
 2298000   0.87723537   -5.7805985    1014.7455  0.036798141  0.036538411            5 
 2299000   0.89893926   -5.7796041    1016.2634  0.036837154  0.036529637            3 
 2300000   0.90150247   -5.7947997    1015.5004  0.036793494  0.036520747            5 
 2301000   0.88581934   -5.7722357    1017.1262  0.036836382  0.036511973            6 
 2302000   0.90560671   -5.7743582    1013.5693   0.03669162  0.036503137            4 
 2303000   0.89473519   -5.7738617    1018.2632  0.036845534  0.036494398            3 
 2304000   0.88590245   -5.7844355    1018.4588  0.036836618  0.036485562            5 
 2305000   0.87977823   -5.7798727    1015.7979  0.036724437  0.036476839            3 
 2306000   0.87664989   -5.7698935    1016.5029  0.036733987  0.036468044            5 
 2307000   0.87897438   -5.8054094    1016.1476  0.036705229  0.036459203            5 
 2308000   0.90379257   -5.7775961    1018.1732  0.036762463  0.036450493            6 
 2309000   0.88818642   -5.7938412    1016.3901  0.036682189  0.036441649            9 
 2310000   0.86892994    -5.779922    1018.9771  0.036759635  0.036432984            5 
 2311000   0.89459149   -5.7634482    1018.5595  0.036728672  0.036424275            5 
 2312000   0.87460723   -5.8101553    1016.4439  0.036636529  0.036415543            7 
 2313000   0.85182642   -5.7825103    1020.8237  0.036778487  0.036406726            8 
 2314000   0.87054272   -5.7760766    1017.7456  0.036651744  0.036397878            6 
 2315000   0.87923725   -5.7587343    1020.3815  0.036730795  0.036389003            3 
 2316000   0.88519594   -5.7887022    1019.0543   0.03666718  0.036380216            2 
 2317000   0.86624047   -5.7796412    1021.5114  0.036739727  0.036371484            5 
 2318000   0.88008899   -5.7868453    1019.4922  0.036651288   0.03636268            6 
 2319000   0.90079442   -5.7820773    1018.8608  0.036612792  0.036353953            4 
 2320000   0.89240455   -5.7942657    1015.0844  0.036461366  0.036345135            4 
 2321000   0.88799772   -5.7924956    1017.1107  0.036518407  0.036336254            6 
 2322000   0.87410191    -5.776856    1019.4959  0.036588284  0.036327392            2 
 2323000   0.88119141   -5.7951008    1020.1655  0.036596552  0.036318549            7 
 2324000   0.89368293   -5.7902709    1022.9551  0.036680833  0.036309629            3 
 2325000   0.88211726   -5.7987391    1020.0876  0.036562279  0.036300795            6 
 2326000   0.88734273   -5.8013453    1021.4234   0.03659442  0.036291909            6 
 2327000   0.88345709   -5.8209705    1021.7044  0.036588755   0.03628312            3 
 2328000    0.8980313   -5.7684659    1022.3236  0.036595204  0.036274366            3 
 2329000   0.89748559   -5.8063386    1018.0775  0.036427561  0.036265533            6 
 2330000    0.9055167   -5.7722139    1019.8234  0.036474371  0.036256694            7 
 2331000   0.88225606   -5.8253459    1019.5226  0.036447971  0.036247894            4 
 2332000   0.88049128   -5.7696253    1018.7053  0.036403136  0.036239093            4 
 2333000   0.88111372   -5.7914869    1020.0845  0.036436795   0.03623028            5 
 2334000   0.89067576   -5.8128203    1024.3594  0.036573813  0.036221481            2 
 2335000   0.86553917   -5.7835534    1020.3174  0.036413895  0.036212652           12 
 2336000   0.88409241   -5.7744976      1021.83   0.03645227  0.036203904            4 
 2337000   0.88774645   -5.7813634    1026.4425  0.036601143  0.036195227            7 
 2338000   0.88413852   -5.8030417    1020.2653  0.036365317   0.03618638            4 
 2339000   0.87497551   -5.7740367    1022.5436  0.036430938  0.036177637            5 
 2340000   0.87067206   -5.8228094    1020.5871  0.036345695  0.036168745            5 
 2341000   0.87951345   -5.7867086    1021.7943   0.03637314  0.036159931           10 
 2342000   0.88891196   -5.7863327    1023.8008  0.036429006   0.03615113           12 
 2343000   0.89306824   -5.8019764    1021.9327  0.036347017  0.036142349            5 
 2344000   0.85398153   -5.7744425    1026.0202  0.036476828  0.036133635           13 
 2345000   0.87266116   -5.8081969      1025.77  0.036452383  0.036124996            3 
 2346000   0.87128317   -5.7947793    1024.6181  0.036395926    0.0361163            4 
 2347000    0.8971319   -5.7670779    1026.6806   0.03645365  0.036107568            6 
 2348000    0.8712371    -5.801492    1027.1262  0.036453938  0.036098785            4 
 2349000   0.88027768   -5.7921642     1023.834  0.036321625  0.036090027            7 
 2350000   0.87923896   -5.8324226    1024.6704  0.036335828  0.036081166            6 
 2351000   0.87898755   -5.8175128    1023.9277  0.036294049   0.03607226            7 
 2352000   0.87855453   -5.8276368    1020.8392  0.036169189  0.036063391            5 
 2353000    0.8771729   -5.8087647    1024.8978  0.036297557  0.036054486            4 
 2354000   0.88344912   -5.7904647    1024.9672  0.036284593  0.036045464            3 
 2355000   0.87928134   -5.8089844    1026.1796  0.036312088  0.036036519           11 
 2356000   0.87645369   -5.8260242    1026.2236  0.036298232  0.036027687            3 
 2357000   0.86916043   -5.8074409    1026.5173  0.036293217  0.036018834            8 
 2358000    0.8584108   -5.7898771    1027.1228  0.036299223  0.036009876            4 
 2359000   0.87008823   -5.8278903    1024.9639  0.036207569  0.036001009            3 
 2360000   0.88989413   -5.8205892    1027.5245  0.036282644   0.03599203            4 
 2361000   0.87119177   -5.8037695    1024.4086  0.036157298  0.035983115            7 
 2362000   0.89641653   -5.7943357    1026.2219  0.036205966  0.035974233            3 
 2363000   0.86868024   -5.8152534    1021.1703  0.036012493  0.035965165            5 
 2364000   0.87475863    -5.820581    1022.5631  0.036046357  0.035956111            7 
 2365000   0.87838948   -5.8104045    1023.9616  0.036080393  0.035947167            9 
 2366000   0.86557445   -5.8305609    1023.4555  0.036047318  0.035938232            5 
 2367000   0.87136357   -5.8181432    1027.0552  0.036158821   0.03592928            5 
 2368000   0.87603594   -5.7873235    1026.6509  0.036129325  0.035920474            8 
 2369000   0.88113665   -5.8003112    1025.4149  0.036070595   0.03591162            7 
 2370000   0.87360016   -5.8166756    1027.0354  0.036112356  0.035902814            6 
 2371000   0.86231801   -5.8035428    1029.3226  0.036177515  0.035893975            5 
 2372000   0.86362881   -5.8150499    1027.2068   0.03608793  0.035885089            6 
 2373000   0.87531354   -5.8092924    1026.5595  0.036049989  0.035876114            3 
 2374000    0.8681712   -5.7918858    1030.2723  0.036165133  0.035867155            6 
 2375000   0.88256734   -5.8130307    1028.6409  0.036092664  0.035858208            9 
 2376000   0.87244811   -5.7885466    1027.4762  0.036036623  0.035849206            3 
 2377000   0.87626871   -5.8291413    1028.2957  0.036050194  0.035840144            5 
 2378000   0.85816514   -5.8428288    1026.7329  0.035980268  0.035831143            7 
 2379000   0.87669784   -5.8069542    1029.8536  0.036074458  0.035822117           10 
 2380000   0.88514594   -5.8048769      1026.44  0.035939777  0.035813014            3 
 2381000   0.87753127   -5.8121339    1028.7098  0.036004121  0.035803969           18 
 2382000    0.8689575   -5.8170257    1029.6149  0.036020674  0.035794925           18 
 2383000   0.87122797   -5.8486828    1027.6719   0.03593761  0.035785933            5 
 2384000   0.88068243   -5.7855018    1029.4939  0.035986223   0.03577684           16 
 2385000   0.86789442   -5.8266872    1028.5167   0.03593699  0.035767845            7 
 2386000   0.86790935   -5.7760328    1028.8945  0.035935124  0.035758787            4 
 2387000   0.86737982   -5.8163006    1030.5316  0.035977225  0.035749674            5 
 2388000   0.88213338   -5.8515001    1027.4316  0.035853978  0.035740542            5 
 2389000   0.87699331   -5.8368119    1028.2458  0.035867371  0.035731403           14 
 2390000   0.84354593   -5.8240351    1029.6209  0.035900312   0.03572232            6 
 2391000   0.86697584   -5.8389832    1029.3322  0.035875235  0.035713325            4 
 2392000   0.89010983   -5.8082204    1029.2484  0.035857314  0.035704323            5 
 2393000     0.865971   -5.8114864    1032.4637  0.035954302  0.035695347            7 
 2394000   0.85840573   -5.7935514    1030.0968  0.035856891  0.035686208           14 
 2395000   0.86774278   -5.8141249    1031.5867  0.035893763  0.035677169            4 
 2396000   0.85623221   -5.8564943    1029.2387  0.035797116  0.035668123            4 
 2397000   0.84784188   -5.8077295    1028.0655  0.035741396  0.035658993            5 
 2398000    0.8700582   -5.8145347    1033.0503  0.035899718  0.035649888            5 
 2399000   0.87606977   -5.8340298    1027.8765  0.035705035  0.035640873            6 
 2400000   0.87041991   -5.8184343    1031.0762  0.035801257  0.035631844            7 
 2401000   0.87119719   -5.8441845    1030.4545  0.035764769   0.03562282            8 
 2402000   0.86563962   -5.7908432    1034.1194  0.035877025  0.035613812            5 
 2403000   0.85999415   -5.8166046    1034.3603   0.03587045  0.035604747            4 
 2404000   0.87088265   -5.8027765    1031.3141  0.035749936  0.035595744            7 
 2405000   0.86911064    -5.837125    1031.2504  0.035732864  0.035586643            9 
 2406000   0.86348169   -5.8098051    1032.4198  0.035758513  0.035577646            7 
 2407000   0.86368837   -5.8026743    1031.3576  0.035706884   0.03556847            8 
 2408000   0.86797984    -5.806361    1029.2956  0.035620695  0.035559336            4 
 2409000   0.87434503   -5.7968933    1034.0469  0.035770267  0.035550369            4 
 2410000   0.87693715   -5.8113734     1032.068  0.035686997  0.035541445           11 
 2411000   0.85579708   -5.8079605    1029.3965  0.035579859  0.035532373            5 
 2412000   0.86589401   -5.8248601    1034.3848  0.035737452  0.035523296            8 
 2413000    0.8590011   -5.8392143    1031.5501  0.035624743  0.035514175            4 
 2414000   0.88517516   -5.8292557    1028.8464  0.035516654  0.035505023            9 
 2415000   0.88093856   -5.8325032    1031.2905  0.035586282  0.035495846            3 
 2416000   0.85331721   -5.8279585    1032.7207  0.035620885  0.035486729            4 
 2417000   0.85730068   -5.8417259    1029.8418  0.035506888  0.035477475            4 
 2418000   0.86204974   -5.8159103    1034.5709  0.035655186  0.035468299            9 
 2419000   0.85859433     -5.79921    1033.9697  0.035619737   0.03545909            6 
 2420000   0.86744155    -5.812428    1035.5905  0.035660831  0.035449875            5 
 2421000   0.88655964   -5.8199755    1029.3137  0.035430045   0.03544069            5 
 2422000   0.86242993   -5.8463949      1031.46  0.035489266  0.035431434            4 
 2423000   0.86050966   -5.8523962    1033.3364  0.035539154   0.03542228           13 
 2424000    0.8456331   -5.8309671    1031.9102  0.035475462  0.035413076            9 
 2425000   0.87076404   -5.8507155    1032.2201   0.03547148  0.035403896            4 
 2426000   0.86338445   -5.8367967     1033.226  0.035491413  0.035394657            6 
 2427000   0.83440582   -5.8436937    1033.9862  0.035502891  0.035385433            5 
 2428000   0.86051966   -5.7984082    1035.2212  0.035530657  0.035376299            6 
 2429000   0.85314161   -5.8247067    1033.5938  0.035460197  0.035367111            3 
 2430000   0.86565078   -5.8488886    1033.5342   0.03544356  0.035357922            4 
 2431000   0.85078062    -5.815822    1034.4818  0.035461462  0.035348723            9 
 2432000   0.85249898     -5.81916    1036.7912  0.035526014   0.03533951            4 
 2433000   0.86013368   -5.8446144     1036.047  0.035485922  0.035330315           21 
 2434000   0.85935771   -5.8514164    1032.0977  0.035336131  0.035320993            4 
 2435000   0.87062006   -5.8058549    1036.9381  0.035487272  0.035311775            4 
 2436000   0.88039501   -5.8357256       1034.8  0.035399564  0.035302627            7 
 2437000   0.86792033   -5.8563367    1034.9507  0.035390189  0.035293437            4 
 2438000   0.87501442   -5.8136992    1036.7209   0.03543618  0.035284265            3 
 2439000   0.85684213   -5.8752373    1035.8124  0.035390612  0.035275118            5 
 2440000   0.86727186   -5.8222226    1037.5648  0.035435955  0.035265992           11 
 2441000   0.85027048   -5.8287924     1038.228  0.035444079  0.035256945            4 
 2442000   0.85668078   -5.8242763    1040.6054  0.035510693  0.035247891            6 
 2443000   0.87197793   -5.8216822     1038.286  0.035417042  0.035238836            7 
 2444000   0.85398077   -5.8018847    1041.1513  0.035500248  0.035229749            6 
 2445000   0.84573786   -5.8397643    1037.6785  0.035367367  0.035220697            6 
 2446000    0.8461324   -5.8307517     1040.921  0.035463376  0.035211564           10 
 2447000   0.84728646   -5.8782271    1035.5604  0.035266325  0.035202491            5 
 2448000   0.87664146   -5.8869413     1031.959  0.035129324  0.035193311            5 
 2449000   0.84726215    -5.833348    1036.2565  0.035261213  0.035184181            5 
 2450000   0.88247814   -5.8314114     1039.958  0.035372722  0.035175207            5 
 2451000    0.8578456   -5.8204206    1039.8142  0.035353398  0.035166194           18 
 2452000     0.853701   -5.8451205     1036.808  0.035236812  0.035157142            6 
 2453000    0.8533448   -5.8667385    1040.2093  0.035337997  0.035148052            4 
 2454000   0.86086204   -5.8565883    1038.6776  0.035271585  0.035138916            5 
 2455000   0.85041122    -5.837656    1040.7809  0.035328611  0.035129843            4 
 2456000   0.86077835   -5.8588749    1037.6994  0.035209669  0.035120753            3 
 2457000   0.87648369   -5.8133717    1043.1088  0.035378811  0.035111715            5 
 2458000    0.8677736   -5.8518224    1038.8196  0.035218999  0.035102649            5 
 2459000   0.85676125   -5.8705253    1039.2329  0.035218682  0.035093616            6 
 2460000   0.85387588   -5.8138119    1042.8108   0.03532557  0.035084607            5 
 2461000   0.86286029   -5.8090844    1044.4006  0.035365048  0.035075698            5 
 2462000   0.85730151   -5.8039301    1047.5421  0.035457018  0.035066902            4 
 2463000   0.85679463   -5.8068143    1041.4436  0.035236284  0.035058079            3 
 2464000   0.86511869   -5.8385299    1045.9985   0.03537603  0.035049206            3 
 2465000   0.86309622   -5.8567972    1042.5743   0.03524592  0.035040252            5 
 2466000   0.86421694   -5.8412323     1043.567  0.035265172  0.035031165            5 
 2467000   0.84541318    -5.815681    1047.4941  0.035383534  0.035022256            6 
 2468000   0.85586637   -5.8524429    1042.2007  0.035190461  0.035013355            8 
 2469000   0.84849272    -5.829012    1045.0825  0.035273474  0.035004397            5 
 2470000   0.84886374   -5.8517358    1041.7112  0.035145453  0.034995402            7 
 2471000   0.89026837   -5.8447753    1043.7198  0.035198968  0.034986319            7 
 2472000   0.85175356   -5.8550797    1043.2568   0.03516912  0.034977271            2 
 2473000   0.84325284   -5.8753045    1043.8765  0.035175781  0.034968216            7 
 2474000   0.84403085   -5.8492776    1042.2746  0.035107606  0.034959203            8 
 2475000   0.87633229   -5.8457006    1042.6694  0.035106712  0.034950254            4 
 2476000   0.84080862   -5.8435711    1040.7894   0.03502926  0.034941291            3 
 2477000   0.87128587   -5.8455898    1045.7074  0.035180573  0.034932262            8 
 2478000   0.84591773   -5.8222456    1044.3623  0.035121141  0.034923222            5 
 2479000   0.83881444    -5.833614    1045.6283  0.035149533  0.034914278            7 
 2480000   0.86449932   -5.8206249    1046.1628  0.035153321  0.034905282            4 
 2481000   0.88066605   -5.8407569    1043.6388  0.035054375  0.034896219            8 
 2482000   0.86168703   -5.8326663    1046.7903  0.035146062  0.034887184            7 
 2483000   0.85834374    -5.821723    1043.3383  0.035016052  0.034878138            7 
 2484000   0.86523331   -5.8532538    1046.9727  0.035123882  0.034869012            8 
 2485000   0.85027343   -5.8711626    1041.4398  0.034924205  0.034859867            5 
 2486000   0.85979473   -5.8656006    1042.1089  0.034932585  0.034850752            5 
 2487000   0.85967624   -5.8595929    1044.5361   0.03499987  0.034841559           16 
 2488000   0.84732123   -5.8565988    1044.7159  0.034991825  0.034832397            5 
 2489000   0.86051692   -5.8834955     1042.074  0.034889313  0.034823308            3 
 2490000   0.85778777   -5.8214761     1048.217   0.03508089  0.034814309            5 
 2491000   0.84431221   -5.8361045    1042.6181  0.034879503  0.034805282           11 
 2492000   0.85371076   -5.8427114    1048.6718  0.035067943  0.034796272            4 
 2493000   0.85931047   -5.8665862    1043.9423  0.034895784  0.034787159            7 
 2494000   0.86037774   -5.8484414    1045.9379  0.034948474  0.034778031           14 
 2495000   0.84734079    -5.862601    1042.7308  0.034827348  0.034768968            9 
 2496000   0.86743886   -5.8565035    1046.6153  0.034943086  0.034759906            9 
 2497000   0.86010449   -5.8971785    1040.6883  0.034731289    0.0347508            4 
 2498000    0.8501386   -5.8955343    1044.6218  0.034848605  0.034741629            7 
 2499000    0.8735705   -5.8680123    1045.9812  0.034879991  0.034732529            4 
 2500000   0.85660391   -5.8658598    1042.5054   0.03475018  0.034723455            5 
 2501000   0.84015615   -5.8583362    1044.8802  0.034815415  0.034714368            6 
 2502000   0.83735399   -5.8230568    1045.0692  0.034807793  0.034705256            9 
 2503000   0.87030233   -5.8537669    1048.2126   0.03489854  0.034696171            6 
 2504000   0.85574292   -5.8363281    1047.6857  0.034867069  0.034687095            4 
 2505000   0.84220622    -5.864631    1048.2367  0.034871479  0.034677959            6 
 2506000    0.8676138   -5.8544725    1047.1644  0.034821906  0.034668922            3 
 2507000   0.86150688   -5.8690118    1046.9231  0.034799998  0.034659795            7 
 2508000   0.86113488    -5.856836    1048.4695  0.034837503  0.034650715            7 
 2509000   0.85868935   -5.8503629    1047.4516  0.034789811  0.034641739            7 
 2510000   0.85532378   -5.8676994    1050.2747  0.034869678  0.034632697            9 
 2511000   0.84303442   -5.8357144     1052.099  0.034916336  0.034623653            5 
 2512000   0.85158944   -5.8605261    1049.7017  0.034822908  0.034614624            7 
 2513000   0.84255555   -5.8833688    1049.5248  0.034803184  0.034605488            4 
 2514000   0.84823838   -5.8608455     1051.561  0.034856834  0.034596355            5 
 2515000   0.86544329   -5.8720516    1051.2102  0.034831351  0.034587282           11 
 2516000   0.82984901   -5.8722857    1048.6697  0.034733364  0.034578212            5 
 2517000   0.85059673   -5.8573749    1052.6012   0.03484973  0.034569053            2 
 2518000   0.85452633    -5.867459    1049.1029  0.034720112  0.034559908            6 
 2519000   0.84670051   -5.8726229    1046.3363  0.034614805  0.034550863           12 
 2520000   0.85635407   -5.8566557    1046.0779  0.034592522  0.034541619            4 
 2521000   0.84798716   -5.8568435    1047.5635  0.034627908   0.03453234            5 
 2522000   0.85634442   -5.8763472    1047.8175   0.03462257  0.034523189            6 
 2523000    0.8539177   -5.8629318    1051.1785   0.03471986  0.034514055            6 
 2524000    0.8434634   -5.8838377    1050.1419   0.03467188  0.034504909           13 
 2525000   0.85870878     -5.87182    1048.3321  0.034598418  0.034495694            5 
 2526000   0.83023818   -5.8499809    1050.6265  0.034660415  0.034486538            6 
 2527000   0.84076389   -5.8907924    1046.8743  0.034522963  0.034477314            5 
 2528000   0.83191504   -5.8486004     1050.841  0.034640063  0.034468154            4 
 2529000   0.84227606   -5.8635545    1046.6707  0.034488952  0.034458992            7 
 2530000   0.83440056   -5.8849994    1048.8353  0.034546619  0.034449922            8 
 2531000   0.84433416     -5.87527    1048.2067   0.03451227  0.034440615            5 
 2532000   0.86104312   -5.8374525    1048.0014  0.034491884   0.03443143            8 
 2533000   0.84675587   -5.9040804    1048.6299  0.034498944  0.034422213            7 
 2534000    0.8515707   -5.8717786    1050.8343  0.034557824  0.034413048            8 
 2535000   0.83653503   -5.8659259    1049.4113  0.034497413  0.034403907            8 
 2536000   0.84476797   -5.8659283    1048.3605  0.034449281  0.034394771            5 
 2537000    0.8335895   -5.9180625    1047.7361  0.034415191  0.034385565            9 
 2538000   0.84313202    -5.862501    1049.5396  0.034460847   0.03437636            6 
 2539000    0.8522203   -5.8784023    1052.4299   0.03454214  0.034367252            6 
 2540000   0.83414076   -5.8705973    1052.1356  0.034518884  0.034358003            5 
 2541000   0.84805603   -5.8712323    1052.6654  0.034522675  0.034348823           10 
 2542000    0.8496963   -5.8908891    1055.1999  0.034592182   0.03433975            7 
 2543000   0.81855282   -5.9049337    1051.5482  0.034458913  0.034330653            7 
 2544000   0.84052215   -5.8941828     1051.254  0.034435731  0.034321511            7 
 2545000   0.83625071   -5.8536174    1053.8898  0.034508508  0.034312422           12 
 2546000   0.84166996   -5.8806852    1051.8146  0.034427029  0.034303259            3 
 2547000   0.84062053   -5.8893953    1051.4366  0.034401145  0.034294058            6 
 2548000   0.86323732   -5.8432149    1057.2487  0.034577731  0.034284992            7 
 2549000   0.85194362   -5.8906501    1049.9528  0.034325644  0.034275826            5 
 2550000   0.84503733   -5.8755833    1054.8649  0.034472711  0.034266655            6 
 2551000   0.82931352   -5.8616114    1053.0837   0.03440101  0.034257514            9 
 2552000   0.86046264   -5.8701049    1053.0656  0.034386938  0.034248439            6 
 2553000   0.85538092   -5.8527823    1052.2308  0.034346219  0.034239267            6 
 2554000   0.83509478   -5.8757344    1054.9672  0.034422056  0.034230055            6 
 2555000   0.84847617   -5.9046802    1052.3747  0.034324029  0.034220815            5 
 2556000   0.85620984   -5.8865632    1054.2115  0.034370486   0.03421155            4 
 2557000   0.82457001   -5.8895977    1051.9051  0.034281877  0.034202296            4 
 2558000   0.84546793   -5.9024708    1051.4805  0.034254641  0.034193027            9 
 2559000   0.84204661   -5.8600334     1055.267  0.034364563  0.034183902            4 
 2560000   0.86604307   -5.8913096    1053.4023  0.034290438  0.034174767            5 
 2561000   0.85043092    -5.855254    1056.1659  0.034366975  0.034165495            4 
 2562000   0.85448187   -5.9035187    1052.5384  0.034235573   0.03415627           11 
 2563000   0.83965509   -5.9136969    1054.1774  0.034275503  0.034147033            7 
 2564000   0.84902975   -5.8993505    1055.1583  0.034294016  0.034137793            6 
 2565000   0.83019018   -5.8494325    1056.8532  0.034335711   0.03412872            9 
 2566000   0.84517303   -5.8990511    1051.6924  0.034154729  0.034119582           11 
 2567000   0.83380422    -5.870688    1056.0749  0.034283695  0.034110503            6 
 2568000   0.83994206   -5.8968259    1054.9549  0.034233997  0.034101476            7 
 2569000   0.85126114   -5.8812646    1055.1846  0.034228125   0.03409242            4 
 2570000   0.83939128   -5.8871367    1058.6339  0.034326649  0.034083318            6 
 2571000   0.81278268   -5.8889207    1055.3951  0.034208319  0.034074231            5 
 2572000   0.82379674    -5.885882    1053.7292  0.034141046  0.034065044            3 
 2573000   0.83774133   -5.8596831    1054.8076  0.034162702  0.034055899            7 
 2574000   0.85115482   -5.8800915    1056.7304  0.034211679  0.034046936            6 
 2575000   0.84590319   -5.8874447     1056.872  0.034202978  0.034037854            6 
 2576000     0.848719   -5.8960662    1057.2796  0.034202886  0.034028743            3 
 2577000   0.83023795   -5.8740393    1056.6386  0.034168884  0.034019653            4 
 2578000   0.82780327   -5.8477774    1060.9206  0.034294046  0.034010698            8 
 2579000   0.84253699   -5.8942994     1059.084  0.034221402  0.034001598            6 
 2580000   0.84709926   -5.8859008    1056.4417  0.034122795  0.033992404            7 
 2581000   0.85277386   -5.9173817     1054.962  0.034061796  0.033983187            6 
 2582000   0.83349862   -5.9078528    1055.8769  0.034078135  0.033974053            8 
 2583000   0.84293922   -5.8564235    1058.4084  0.034146611  0.033964848            9 
 2584000   0.81834094   -5.8974681    1056.1266  0.034059811  0.033955643            4 
 2585000   0.82952005   -5.9042551    1053.8192   0.03397225  0.033946381            3 
 2586000   0.82367728   -5.8959159    1056.2954   0.03403891  0.033937154            6 
 2587000   0.81999146   -5.8944837    1056.2443  0.034024103  0.033927974            6 
 2588000   0.82586085   -5.8942538    1057.2036  0.034041848  0.033918744            8 
 2589000   0.85228548   -5.8973552    1054.8656  0.033953445  0.033909501            6 
 2590000   0.83728025   -5.8749204     1053.663  0.033901641  0.033900231            5 
 2591000   0.85123214   -5.8858297    1055.5731  0.033949989  0.033890978            8 
 2592000   0.82572635   -5.8995812    1054.2281  0.033893652  0.033881666            6 
 2593000   0.82175203   -5.8972681    1055.8551  0.033932868  0.033872418            8 
 2594000   0.82526538    -5.862579     1058.927  0.034018473  0.033863214            4 
 2595000    0.8555495    -5.876575     1059.585  0.034026495  0.033854001            5 
 2596000    0.8350642   -5.9065101      1055.41  0.033879366  0.033844797            4 
 2597000   0.83177684   -5.9082111    1059.6071  0.034000999  0.033835467            5 
 2598000   0.83087423   -5.9168255    1058.2757  0.033945205  0.033826269            5 
 2599000    0.8355314   -5.8851667    1056.8043  0.033884965  0.033816983            4 
 2600000   0.84265086   -5.8790336    1058.0693  0.033912478  0.033807705            5 
 2601000   0.82369476    -5.877332    1059.8978  0.033958023  0.033798574            2 
 2602000   0.84365741    -5.883332    1060.8097  0.033974176  0.033789384            5 
 2603000   0.83283472   -5.8797128    1060.8523   0.03396249  0.033780299            9 
 2604000   0.84124204   -5.9233966     1058.288  0.033867383  0.033771126            6 
 2605000    0.8317622   -5.9029198    1057.1795  0.033818921  0.033761978            3 
 2606000    0.8363189   -5.8852569    1058.8696   0.03385999  0.033752857            5 
 2607000   0.83011963   -5.9106976    1058.7574  0.033843414  0.033743717            9 
 2608000   0.84150995   -5.8686767    1060.8282  0.033896605  0.033734586            6 
 2609000   0.82972459   -5.8901901      1059.55  0.033842789  0.033725477           10 
 2610000   0.83151649   -5.9186123    1061.5213  0.033892761   0.03371631            3 
 2611000   0.85662471   -5.9071684    1058.9703  0.033798362  0.033707126            5 
 2612000   0.83151501   -5.8940684    1061.9138  0.033879333  0.033697957            7 
 2613000    0.8328049   -5.8828446    1061.3276  0.033847672  0.033688819            7 
 2614000   0.83374699   -5.8793464    1063.0294  0.033888977   0.03367973            6 
 2615000   0.83092028   -5.9119047    1059.5318  0.033764558  0.033670583            6 
 2616000   0.84137269   -5.9266613    1060.7008   0.03378889  0.033661513            9 
 2617000   0.84704147   -5.9010033    1061.3284  0.033795961  0.033652445            9 
 2618000   0.85123338   -5.9060969    1060.0844  0.033743457  0.033643333            9 
 2619000   0.83079776   -5.9104963    1058.4698  0.033679198  0.033634273           11 
 2620000   0.84086968    -5.898029    1060.7441  0.033738679  0.033625156            8 
 2621000   0.82006283   -5.9077649    1061.4011  0.033746697  0.033616022            5 
 2622000   0.82427401   -5.9024618    1060.8189  0.033715323  0.033606887           14 
 2623000   0.82527714   -5.9010192    1061.0305   0.03370919  0.033597755            7 
 2624000   0.85160868   -5.9142579    1062.6729  0.033748505  0.033588673            5 
 2625000     0.829365     -5.93883    1060.3446  0.033661735  0.033579564            6 
 2626000   0.84688302   -5.8960116    1061.5612  0.033687522  0.033570457            4 
 2627000   0.81255012   -5.8989461    1067.6446  0.033867675  0.033561462            4 
 2628000   0.85383346   -5.9200911    1063.4098  0.033720503  0.033552417            4 
 2629000   0.83238755   -5.9171855    1061.8091  0.033656939  0.033543321            9 
 2630000   0.82678908   -5.8952111    1064.6555  0.033734331  0.033534229            3 
 2631000    0.8284599   -5.9039746    1060.8841  0.033602055  0.033525081            7 
 2632000   0.82961003   -5.9190888    1062.1614   0.03362973  0.033515893            2 
 2633000   0.83033123   -5.8906912    1062.9824  0.033642942  0.033506719            3 
 2634000    0.8273562   -5.9143682    1061.2569  0.033575581  0.033497567           10 
 2635000   0.82396664   -5.9039952    1062.2426  0.033594009  0.033488343            7 
 2636000   0.83595621   -5.9285219    1061.1568  0.033546939  0.033479093            6 
 2637000    0.8313486   -5.9211105    1063.7473  0.033616081  0.033469909            5 
 2638000   0.82817377   -5.8835987    1065.2635  0.033651234  0.033460821            5 
 2639000   0.83054483    -5.913265    1061.0931  0.033506793  0.033451703            8 
 2640000   0.83292426   -5.8712636     1065.556  0.033634975  0.033442595            9 
 2641000   0.83578574   -5.9305761     1061.594  0.033497223  0.033433447           13 
 2642000   0.81908581   -5.9251198    1065.0874  0.033594732  0.033424335           11 
 2643000   0.82117635   -5.8777027    1065.2537  0.033587265  0.033415327            3 
 2644000   0.83414257   -5.9182133    1063.7459  0.033527039  0.033406198            3 
 2645000   0.80819461   -5.9129892    1064.3056  0.033531998  0.033397002            7 
 2646000   0.83726606   -5.8999021    1065.7832  0.033565859  0.033387879           10 
 2647000   0.81527794   -5.9093677     1064.376  0.033508879   0.03337871            6 
 2648000   0.82831689   -5.9161841     1066.332  0.033557778   0.03336955           10 
 2649000   0.79658611    -5.916336     1066.784   0.03355933  0.033360415           11 
 2650000   0.81600742   -5.9148951    1064.7027  0.033481216  0.033351246            9 
 2651000   0.81661109   -5.8819711    1067.8636   0.03356795  0.033342163            5 
 2652000    0.8426293   -5.9009066    1066.7726  0.033521008  0.033333083            7 
 2653000   0.82437233   -5.9116284      1066.36  0.033495413  0.033324024            4 
 2654000   0.79671616   -5.9159477    1064.7634  0.033432662  0.033314981            7 
 2655000   0.82916956   -5.9201126    1067.9082  0.033518776  0.033305972            5 
 2656000    0.8219444   -5.9343111    1065.9786  0.033445613  0.033296905            7 
 2657000   0.84299198   -5.8849045    1067.3548  0.033476189  0.033287803            5 
 2658000   0.82545866    -5.946264    1066.7733  0.033445363  0.033278679            6 
 2659000   0.83353685   -5.9160498    1065.9696  0.033407597  0.033269567            6 
 2660000   0.84130088   -5.9134912    1070.7291  0.033544145  0.033260533            7 
 2661000   0.82597193   -5.9503722    1067.4632  0.033429261  0.033251545            8 
 2662000   0.82038077   -5.9000999    1067.3954  0.033414581  0.033242474            5 
 2663000   0.80679841   -5.9268342    1067.0468  0.033391125  0.033233447            5 
 2664000   0.82250967   -5.9149244    1067.4027  0.033389724  0.033224395            5 
 2665000   0.83607863   -5.9028408    1066.6413  0.033353386  0.033215345            6 
 2666000   0.81017523    -5.910848    1071.6321  0.033496877  0.033206333            6 
 2667000   0.83884329   -5.9444832    1067.1777  0.033345134  0.033197332           11 
 2668000   0.80370672   -5.9257281    1066.0982  0.033298918  0.033188376           12 
 2669000   0.83563408   -5.9359355    1070.7044  0.033430261  0.033179371            6 
 2670000   0.82942835   -5.9047076    1071.2865  0.033435909  0.033170477            6 
 2671000   0.81894292   -5.9082092    1071.7478  0.033437783  0.033161559            6 
 2672000   0.83817557   -5.9120307    1073.2798  0.033473047  0.033152541            6 
 2673000   0.82291333   -5.9013025    1068.9204  0.033324618  0.033143667            4 
 2674000   0.81651966   -5.9208829     1068.596  0.033302044  0.033134701            4 
 2675000   0.82418875   -5.9212847    1069.3238  0.033312268  0.033125686            6 
 2676000   0.82029079   -5.9180562     1073.563  0.033431831  0.033116763            6 
 2677000   0.83084842   -5.9292921    1069.6134  0.033296396  0.033107866           11 
 2678000   0.84379331   -5.9573652    1071.3091  0.033336728  0.033099006           16 
 2679000   0.80817957   -5.9274091    1072.3084  0.033355369  0.033090131           17 
 2680000   0.81478329   -5.8960881    1070.4327  0.033284599  0.033081179            9 
 2681000   0.82387766   -5.9376727    1070.4165   0.03327168  0.033072267            7 
 2682000    0.8343914   -5.9418616    1068.1386  0.033188497  0.033063267            4 
 2683000   0.80325504   -5.8967979    1075.1841  0.033394959  0.033054346            5 
 2684000   0.80289139    -5.932749    1069.6189  0.033209728  0.033045422            5 
 2685000    0.8195632   -5.9236053    1072.5932  0.033289672  0.033036502            6 
 2686000    0.8248186   -5.9388825    1073.4053  0.033302474   0.03302755            5 
 2687000   0.82122943   -5.9384052    1071.7206  0.033237831  0.033018633            7 
 2688000   0.80754929   -5.9070206    1073.4569  0.033279293  0.033009724           11 
 2689000   0.83572994   -5.9384903    1068.9822  0.033128246  0.033000799            5 
 2690000   0.82689758    -5.923854    1073.5602   0.03325775  0.032991878           10 
 2691000   0.83224212   -5.9365524    1073.1091  0.033231421  0.032982976            6 
 2692000   0.81161087   -5.9465373    1069.9744  0.033122039  0.032974066            4 
 2693000   0.81699053   -5.9002473    1074.8508  0.033260638  0.032965099            5 
 2694000   0.81701621   -5.9191448    1075.2224  0.033259787  0.032956217            5 
 2695000   0.80688962   -5.9344359     1076.009  0.033271769   0.03294736            7 
 2696000   0.81924922   -5.9356927    1070.9276  0.033102363  0.032938502            8 
 2697000   0.83813836   -5.9428905    1072.0226  0.033123922  0.032929598            4 
 2698000   0.80607523    -5.934049    1073.7314  0.033164423  0.032920701            8 
 2699000    0.8317242   -5.9640687    1071.9484  0.033097084  0.032911794           15 
 2700000   0.82838836   -5.8895881    1076.9897  0.033240424   0.03290295            3 
 2701000    0.8286979   -5.9094485    1076.5326  0.033214012   0.03289414            5 
 2702000   0.81712425   -5.9291421    1075.9641  0.033184187  0.032885318            7 
 2703000   0.82517239   -5.9251689    1077.0229  0.033204555  0.032876523            3 
 2704000   0.81963091   -5.9476681    1079.1956  0.033259234   0.03286771            4 
 2705000   0.82331212   -5.9091077    1076.3731  0.033159985  0.032858927            7 
 2706000   0.81279707   -5.9181231    1077.3236  0.033177001  0.032850127            5 
 2707000   0.81942873   -5.9113897    1078.8917  0.033213019  0.032841394            4 
 2708000   0.82414085    -5.938733     1075.958  0.033110476  0.032832687            9 
 2709000   0.80977038   -5.9251984    1080.5118  0.033238336  0.032823946            4 
 2710000   0.80290645   -5.9614344    1074.8535  0.033052074   0.03281513           10 
 2711000   0.83032044   -5.9670835    1076.2313  0.033082234  0.032806332           10 
 2712000   0.83891595   -5.9413775    1079.0989  0.033158151  0.032797486            3 
 2713000   0.83683303   -5.9303774    1075.9004  0.033047684  0.032788686            7 
 2714000   0.80789122    -5.932056     1078.275  0.033108419  0.032779927            7 
 2715000   0.82066253   -5.9276286    1076.3283  0.033036472  0.032771147            8 
 2716000   0.82412911   -5.9175204    1077.0267  0.033045738   0.03276245            6 
 2717000   0.82343664   -5.9107531    1077.8678  0.033059374  0.032753746            6 
 2718000   0.82867789    -5.920068    1078.8563  0.033077518  0.032745046            9 
 2719000   0.81414184   -5.9342119    1078.8937  0.033066497  0.032736284            4 
 2720000   0.82970204   -5.9448477    1079.9493  0.033086681  0.032727551            5 
 2721000   0.83631996   -5.9661265    1076.1979  0.032959633  0.032718809            7 
 2722000   0.82837988   -5.9136862    1078.0706  0.033004857  0.032710094            4 
 2723000   0.80466653   -5.9270425    1082.4602  0.033127072  0.032701376            9 
 2724000   0.80367213   -5.9839131     1075.565  0.032903972    0.0326926            8 
 2725000   0.81324244   -5.9539796    1080.2882  0.033036337  0.032683799            4 
 2726000   0.81082743   -5.9574373    1080.9063  0.033043112  0.032675021            6 
 2727000   0.82636011   -5.9602015    1078.0894  0.032944915  0.032666248            7 
 2728000   0.83373293   -5.9430745    1079.0626  0.032962566   0.03265757            4 
 2729000   0.80662104   -5.9512126    1080.2023  0.032985291  0.032648868            8 
 2730000   0.82004927   -5.9542976    1078.3459  0.032916543  0.032640076            9 
 2731000   0.81475023   -5.9484703    1080.4852  0.032969768  0.032631392            4 
 2732000   0.82855908   -5.9317121    1078.5592   0.03289895  0.032622685            7 
 2733000   0.81814709   -5.9523787    1081.1815   0.03296687  0.032614039            5 
 2734000   0.82923556   -5.9507315    1079.4912  0.032903293  0.032605255            3 
 2735000    0.8279889   -5.9534822     1080.797  0.032931049  0.032596475            6 
 2736000   0.80616457   -5.9713729    1080.4186  0.032907488  0.032587661            5 
 2737000   0.81553998   -5.9591445    1080.2513  0.032890369  0.032578823            8 
 2738000   0.81535413   -5.9123648    1082.7741  0.032955141  0.032570107           14 
 2739000    0.8083436   -5.9475027    1083.4164  0.032962649  0.032561418            8 
 2740000    0.8054457   -5.9192753    1081.9408  0.032905742  0.032552682            5 
 2741000   0.81130808   -5.9679767    1080.7717  0.032858192  0.032543951            3 
 2742000   0.82325794   -5.9317021    1079.4482  0.032805988  0.032535215            7 
 2743000   0.81927345   -5.9793234    1080.9738  0.032840375  0.032526472            5 
 2744000   0.80734372   -5.9645624    1077.5184  0.032723468  0.032517568            8 
 2745000   0.80922433   -5.9340029    1080.8842  0.032813729  0.032508746           13 
 2746000   0.80461657   -5.9764532    1080.0142  0.032775375  0.032500031            9 
 2747000    0.7935494   -5.9313902    1083.1545  0.032858709  0.032491289           11 
 2748000   0.80371445   -5.9622082    1083.3991  0.032854169  0.032482588           11 
 2749000   0.80963626   -5.9666281    1081.4359  0.032782707  0.032473809            6 
 2750000   0.82866812   -5.9369537    1085.1332  0.032882825  0.032465096            4 
 2751000   0.81772897   -5.9690612     1078.746  0.032677391  0.032456344            7 
 2752000   0.83988855   -5.9370823    1079.6114  0.032691722  0.032447667            6 
 2753000    0.8205424   -5.9251998    1084.3559  0.032823462  0.032438933            4 
 2754000   0.81648528   -5.9666643     1083.934  0.032798779  0.032430205            5 
 2755000   0.79838937   -5.9574912    1082.9573  0.032757328  0.032421501            3 
 2756000   0.80896083   -5.9607903    1081.9435  0.032714788  0.032412819           10 
 2757000   0.82084821   -5.9437264    1084.3556  0.032775831  0.032404226            5 
 2758000   0.81856822   -5.9503547    1082.4274  0.032705686  0.032395548            6 
 2759000   0.80473915   -5.9375846    1086.2632   0.03280969  0.032386881            6 
 2760000   0.80506649   -5.9820781    1080.4807   0.03262321  0.032378206            9 
 2761000   0.82034187   -5.9456734    1086.7656  0.032801087  0.032369675            8 
 2762000   0.79280184   -5.9614578    1088.8205   0.03285121  0.032361075            3 
 2763000    0.7997345   -5.9932906    1083.6404  0.032683086  0.032352414            6 
 2764000   0.81415926   -5.9506363    1085.0246  0.032712993  0.032343849            6 
 2765000   0.82077567   -5.9434174    1083.6557  0.032659907  0.032335239            6 
 2766000   0.82405869   -5.9489094    1086.2421  0.032726022  0.032326643           10 
 2767000   0.81722514    -5.921936    1085.4389  0.032690006  0.032318086            4 
 2768000   0.80351014   -5.9457672    1085.0064  0.032665175  0.032309509            7 
 2769000   0.79435496   -5.9547248    1084.2233  0.032629809  0.032300878           18 
 2770000   0.81268369   -5.9561337    1089.3538  0.032772376  0.032292264           11 
 2771000   0.79876302   -5.9589567    1086.7146  0.032681179  0.032283642            5 
 2772000   0.80682733    -5.945769    1088.4506   0.03272158  0.032274996            3 
 2773000    0.8052399   -5.9551205     1087.924  0.032693954  0.032266391            7 
 2774000   0.81353544   -5.9646229    1086.4933  0.032639187  0.032257753            5 
 2775000   0.79917642   -6.0018783    1086.6999   0.03263363  0.032249096           12 
 2776000   0.79933617   -6.0061653    1081.6047   0.03246892  0.032240437           10 
 2777000   0.79104124   -5.9714057    1084.7601  0.032551917  0.032231765            9 
 2778000   0.80796023   -5.9642393    1084.2572  0.032525113  0.032223157            5 
 2779000   0.81086067   -5.9513223    1089.1949  0.032661475  0.032214628           10 
 2780000   0.81378215   -5.9538366    1088.6633  0.032633793  0.032206134            4 
 2781000   0.80608585   -5.9555211    1085.5534  0.032528868   0.03219765            6 
 2782000   0.81384134   -5.9541509    1088.6309  0.032609361  0.032189116            4 
 2783000   0.81055958   -5.9438164    1089.0804  0.032611103  0.032180622            9 
 2784000   0.80532463   -5.9552126    1089.1284  0.032600827  0.032172133            4 
 2785000    0.7959973   -5.9515392    1090.3085  0.032624433  0.032163615            9 
 2786000   0.81270687   -5.9664871    1089.8374  0.032598632  0.032155062            5 
 2787000   0.81545739   -5.9985618    1088.0506  0.032533507  0.032146491           13 
 2788000   0.82258027   -5.9788601    1092.0398  0.032641074  0.032137993            7 
 2789000    0.8077466    -5.949419    1089.9928  0.032568209  0.032129477            8 
 2790000   0.80842731   -5.9722985    1089.3695  0.032537917  0.032120999            9 
 2791000   0.80090018   -5.9897059     1088.369  0.032496388  0.032112524           12 
 2792000   0.79939892   -5.9708371    1087.6682   0.03246383  0.032104011            6 
 2793000   0.82256561   -5.9571439    1090.2424  0.032529014  0.032095552            7 
 2794000    0.7947056   -5.9478091    1090.1559  0.032514792  0.032087109            8 
 2795000   0.80043214   -5.9626115    1091.0083  0.032528573  0.032078697            8 
 2796000   0.80206218    -5.963428    1089.0282  0.032457921  0.032070328            7 
 2797000   0.79218981   -5.9901762    1091.4353  0.032518035  0.032061853            9 
 2798000   0.82076585   -5.9624566    1089.0392  0.032435048  0.032053347            7 
 2799000   0.80220957   -5.9845594     1090.661  0.032471747  0.032044861            7 
 2800000   0.78750126   -5.9735782    1090.1865  0.032446026  0.032036356            5 
 2801000   0.79425626   -5.9659748     1090.693  0.032449513  0.032027905            4 
 2802000   0.80917669   -5.9685426    1085.4378  0.032281639  0.032019439            5 
 2803000   0.80196815   -5.9625889    1091.7399  0.032457483  0.032010975            5 
 2804000   0.80688193   -5.9406754    1090.9931  0.032423712  0.032002563            7 
 2805000      0.80449   -5.9884338    1089.0398  0.032354124  0.031994091           11 
 2806000   0.81138175   -5.9648146    1089.7243  0.032362921  0.031985597            4 
 2807000   0.82027674   -5.9784955    1093.4741  0.032462716  0.031977134           13 
 2808000   0.81447056   -5.9649613    1091.8328  0.032402446  0.031968603            9 
 2809000    0.8184117   -5.9532866    1093.1307  0.032429413  0.031960111            4 
 2810000   0.82197993   -5.9927824    1089.0171  0.032295881  0.031951629           11 
 2811000   0.78353973   -6.0050972    1090.9288  0.032341064  0.031943144            7 
 2812000   0.81764478    -5.958616     1091.841  0.032356598  0.031934603            9 
 2813000   0.81120758   -5.9451043     1092.615  0.032368024  0.031926138           15 
 2814000   0.80966469   -5.9893056    1091.2088  0.032314877  0.031917715           13 
 2815000   0.81746705   -5.9695021    1093.0036  0.032356532  0.031909277            8 
 2816000   0.80809859   -5.9671363    1094.3257  0.032384165  0.031900796            3 
 2817000   0.80110647   -5.9643854    1093.8528   0.03235868  0.031892337            6 
 2818000   0.79863165   -5.9594243    1094.2158  0.032357933  0.031883881            8 
 2819000   0.80542558   -5.9682185     1089.031  0.032193183  0.031875402            8 
 2820000   0.79750367   -5.9694147    1092.7459  0.032291546  0.031866919           11 
 2821000   0.82191053   -5.9598158    1094.9013  0.032343769  0.031858533            3 
 2822000   0.79525181   -5.9543933    1091.5695   0.03223392  0.031850079            5 
 2823000   0.79213646   -5.9961544    1093.0527  0.032266286  0.031841643           24 
 2824000   0.81229876   -6.0011726    1091.2733  0.032202351  0.031833139            8 
 2825000   0.79369309   -6.0205507    1091.9737  0.032211614  0.031824611            7 
 2826000   0.80362846   -6.0047512    1095.0117    0.0322898  0.031816172            9 
 2827000   0.79383925   -5.9676687    1096.6034  0.032325299  0.031807708            3 
 2828000    0.8006387   -6.0097476    1091.2307  0.032155549  0.031799261            9 
 2829000    0.7944383   -5.9924142    1094.7009  0.032246404   0.03179078           10 
 2830000   0.79760265   -5.9782067    1095.2681   0.03225171  0.031782347           10 
 2831000   0.79300047   -5.9665982    1093.9053  0.032200204  0.031773943            3 
 2832000   0.81023123   -5.9761983    1094.2831   0.03219995  0.031765534            7 
 2833000   0.79869448    -5.947288    1097.5965   0.03228605  0.031757199            6 
 2834000    0.7926967   -6.0124487    1096.1103  0.032230955  0.031748864            5 
 2835000   0.80503422   -5.9618765    1096.1131  0.032219668  0.031740552           10 
 2836000   0.78639667   -5.9723349    1095.0869  0.032178153  0.031732223            6 
 2837000   0.78247286   -5.9861181    1098.6954  0.032272807  0.031723843            8 
 2838000   0.79449706   -5.9607175     1099.467   0.03228409  0.031715493            3 
 2839000   0.80535586   -5.9636398    1099.1865  0.032264485  0.031707228            3 
 2840000   0.79589856    -5.954857    1097.7914  0.032212188  0.031699013            6 
 2841000   0.79361186    -5.981779    1099.9782  0.032264994  0.031690772           19 
 2842000   0.77872209   -5.9817473    1098.6222  0.032213881   0.03168253           10 
 2843000   0.79145624   -6.0047864    1095.6708  0.032116038  0.031674205            9 
 2844000   0.79199159   -6.0148751     1096.702  0.032134964   0.03166588           14 
 2845000   0.80433816   -5.9943131    1095.8294  0.032098109  0.031657559           10 
 2846000    0.8054279   -5.9903765    1098.3167   0.03215966  0.031649288            5 
 2847000   0.80589258   -6.0083204    1097.9298  0.032137038  0.031640946            3 
 2848000   0.80157292   -5.9653442    1100.3926  0.032197818  0.031632696            8 
 2849000   0.77454416    -6.009014    1099.1092  0.032148976  0.031624471            5 
 2850000   0.80136356   -6.0007343    1097.6458  0.032094906  0.031616166            4 
 2851000   0.79180798    -6.027572    1097.3974  0.032076389  0.031607871            5 
 2852000   0.80127487   -5.9891747    1096.4675   0.03203797  0.031599568           10 
 2853000   0.78175638   -5.9683508    1099.4524  0.032113928  0.031591272            4 
 2854000   0.80088954   -5.9769461    1095.0214  0.031973294  0.031582898            8 
 2855000   0.79207506   -5.9934472    1098.1298  0.032052824  0.031574541            9 
 2856000   0.77748426   -5.9900284    1097.3034  0.032017491  0.031566187            7 
 2857000   0.78421299   -5.9745313    1100.2206  0.032091372  0.031557814            8 
 2858000   0.79207671   -5.9980931    1099.0722   0.03204666  0.031549468            5 
 2859000   0.77703387   -6.0156174    1097.9555  0.032002899  0.031541081            7 
 2860000   0.78783639   -6.0105384    1101.0572  0.032082086  0.031532718            7 
 2861000   0.78285889   -5.9850028    1101.5643  0.032085644  0.031524403            6 
 2862000    0.8065827   -5.9990341    1100.3499  0.032039073  0.031516044            6 
 2863000   0.78266495   -5.9985638      1099.25  0.031995866  0.031507791           11 
 2864000   0.79626856   -5.9912576      1102.84  0.032089152  0.031499551            6 
 2865000   0.79570788   -5.9957105    1100.5465  0.032011243   0.03149134            5 
 2866000   0.80596219   -5.9825362    1102.1232  0.032045916  0.031483108            5 
 2867000   0.79096375   -6.0088805    1098.1638  0.031919655  0.031474805            4 
 2868000   0.79220931   -6.0015772    1098.7959  0.031926891  0.031466429            7 
 2869000   0.78937852   -5.9695817    1099.9166  0.031948316  0.031458112            5 
 2870000   0.79657098   -5.9787433     1102.399  0.032009264  0.031449822            6 
 2871000    0.7858645   -5.9968498    1097.2586  0.031848908  0.031441469           12 
 2872000   0.78699363   -6.0006624    1101.6263   0.03196455  0.031433091            5 
 2873000   0.79466825   -5.9826557    1100.9412  0.031933555  0.031424744            7 
 2874000   0.79345736   -5.9650039    1102.3832  0.031964253  0.031416409            7 
 2875000   0.79482948   -6.0239305     1097.813  0.031820667  0.031408039            9 
 2876000   0.79190047   -5.9988481    1096.6269  0.031775233  0.031399593           10 
 2877000    0.7839905   -6.0137941    1097.1666  0.031779822  0.031391177            8 
 2878000   0.79917108   -6.0003727    1099.6335   0.03184021  0.031382739           12 
 2879000   0.80888938   -5.9847167    1103.7938  0.031949572  0.031374343           16 
 2880000   0.79399599   -6.0040014    1097.9438  0.031769208   0.03136595            6 
 2881000   0.78672912   -6.0016937    1100.8366  0.031841854  0.031357602            6 
 2882000   0.78609444   -6.0076653    1098.3275  0.031758254  0.031349145            8 
 2883000   0.79182266   -6.0226389    1098.5826  0.031754615  0.031340733            9 
 2884000   0.79728888   -5.9930864    1103.8046  0.031894494  0.031332287            9 
 2885000      0.78029   -5.9985392    1100.7239  0.031794451  0.031323963            7 
 2886000    0.7842444     -6.00122    1099.0532  0.031735193  0.031315578            7 
 2887000    0.7810563   -6.0081587    1099.6727  0.031742083  0.031307228            4 
 2888000   0.79235932   -6.0159886    1099.6369  0.031730059  0.031298808           17 
 2889000   0.76648171   -6.0087607     1101.912    0.0317847  0.031290317            7 
 2890000     0.779707   -6.0118384    1095.1376  0.031578363  0.031281887            6 
 2891000   0.78683165   -6.0224419    1098.3819  0.031660957  0.031273427            7 
 2892000   0.79835344   -6.0217223    1096.7799  0.031603848   0.03126493           10 
 2893000   0.77158087   -6.0016609    1098.9614   0.03165576  0.031256482            8 
 2894000   0.78747768   -5.9635395    1101.1736  0.031708522  0.031248091            7 
 2895000   0.80138128   -6.0339105    1103.8206  0.031773766  0.031239703            9 
 2896000   0.78057691   -6.0270402    1100.1039  0.031655844  0.031231206           10 
 2897000   0.80043672   -6.0209478    1102.0713   0.03170151  0.031222705            9 
 2898000    0.7809807   -6.0262536    1099.8461  0.031626586  0.031214181           12 
 2899000   0.78810202     -6.02271    1100.3709  0.031630762  0.031205751           16 
 2900000   0.79002424   -6.0124205    1102.9734  0.031694639  0.031197393            6 
 2901000   0.78790351   -6.0134243    1100.8519   0.03162277  0.031189118           11 
 2902000   0.79864837   -6.0360397    1101.2877  0.031624388   0.03118077            6 
 2903000   0.78309939   -6.0218123    1103.5149  0.031677429  0.031172411            5 
 2904000   0.78808964   -6.0197214    1103.8609   0.03167645   0.03116404           10 
 2905000   0.80926102   -6.0032467    1104.7198  0.031690185  0.031155686            4 
 2906000   0.77651012   -6.0081676     1104.431  0.031670997  0.031147358            5 
 2907000   0.79312474   -5.9982108     1103.212  0.031625157  0.031138967           10 
 2908000   0.77415383   -6.0110248    1105.6288   0.03168354  0.031130612            9 
 2909000   0.76523846   -5.9966198    1100.0044  0.031511527  0.031122235           11 
 2910000    0.7847505    -5.994994    1100.1565  0.031505055  0.031113876            7 
 2911000   0.77668519   -5.9945667    1104.1768   0.03160932   0.03110552           14 
 2912000   0.78248775   -6.0096278    1104.6282  0.031611385  0.031097181            4 
 2913000   0.78784006   -6.0423416    1102.1287  0.031529027  0.031088803           11 
 2914000   0.78687702   -5.9774454    1106.1618  0.031633546  0.031080447            9 
 2915000   0.78834922   -6.0089524    1100.4583  0.031459641  0.031072039            7 
 2916000   0.79140591   -6.0220158    1100.2076  0.031441688  0.031063679            5 
 2917000      0.78697   -6.0309202    1102.2289  0.031488657  0.031055279            3 
 2918000   0.78636979   -6.0119996    1104.0341  0.031529417  0.031046894            9 
 2919000     0.783233   -6.0229507      1101.33  0.031441419  0.031038516            7 
 2920000   0.79633988   -6.0197245    1102.8851  0.031475031  0.031030099           21 
 2921000    0.7840758    -5.990121    1105.9989  0.031553088  0.031021657           10 
 2922000   0.78377038   -6.0200271    1101.8629  0.031424334  0.031013263            3 
 2923000   0.78040036   -6.0407439    1101.9917  0.031417256  0.031004905            5 
 2924000   0.76460749   -6.0017917    1106.1783  0.031525828  0.030996578           11 
 2925000   0.78202992   -6.0077246    1104.3361  0.031462566  0.030988303           10 
 2926000   0.78588176   -6.0104279    1103.0878  0.031416261  0.030979952           27 
 2927000   0.77916178   -6.0107971    1105.9601  0.031487304  0.030971682            5 
 2928000   0.80043923   -6.0091301    1106.8869  0.031502928   0.03096341            5 
 2929000   0.80333631   -6.0440044    1103.8029  0.031404431  0.030955117           23 
 2930000   0.79956233   -6.0328037     1105.739  0.031448777   0.03094681           12 
 2931000   0.77718574   -6.0148408    1105.7206  0.031437523  0.030938588           11 
 2932000   0.80312816   -6.0240409    1106.2049  0.031440566  0.030930434            5 
 2933000   0.80528618   -6.0109282    1107.4775  0.031466005  0.030922175            7 
 2934000   0.78299314   -5.9967589    1109.0284   0.03149933  0.030913958           13 
 2935000   0.77787737   -5.9976884    1106.0462  0.031403924  0.030905745           14 
 2936000   0.78473358   -6.0195212    1108.3581  0.031458847  0.030897579            7 
 2937000   0.77472507   -5.9868294    1110.0177  0.031495226  0.030889383            8 
 2938000   0.77716639   -5.9811466    1107.5739  0.031415188  0.030881232            9 
 2939000   0.78407677   -6.0199021    1109.2079  0.031450831  0.030873064            4 
 2940000   0.79537071   -6.0424784    1105.2434   0.03132776  0.030864814            7 
 2941000   0.77250271   -6.0426025    1105.1303  0.031313904  0.030856527           12 
 2942000   0.79717378   -5.9996544    1108.9778  0.031412241  0.030848272            6 
 2943000   0.77558093     -6.06118    1104.9699  0.031288083  0.030839964           10 
 2944000   0.78525935   -6.0362331    1106.9866  0.031334541  0.030831631            6 
 2945000   0.77570716   -6.0306851    1106.4553  0.031308866  0.030823313            6 
 2946000   0.77831379   -6.0052079    1107.5795  0.031330038  0.030815081            6 
 2947000   0.77041633   -6.0335202    1105.2175  0.031252616  0.030806827            6 
 2948000     0.793783   -6.0552842    1107.6114  0.031309685  0.030798552            7 
 2949000   0.78716003   -6.0329095    1110.1947  0.031372067  0.030790249            8 
 2950000   0.78423078   -6.0635389    1103.3029  0.031166749  0.030781949           22 
 2951000   0.76837902   -6.0222774    1107.4971  0.031274627  0.030773633           12 
 2952000   0.78318005   -6.0287346    1109.3238    0.0313156  0.030765398            4 
 2953000   0.77537803   -6.0465833    1106.6859  0.031230553  0.030757163            9 
 2954000    0.7709393   -6.0334154     1109.118  0.031288593  0.030748904           14 
 2955000   0.79408418   -6.0402955    1107.7969  0.031240746  0.030740679            8 
 2956000   0.75532112   -6.0299096    1107.3348  0.031217151  0.030732391           12 
 2957000    0.7788889   -6.0208522    1106.1748  0.031173903  0.030724042           13 
 2958000   0.76723115   -6.0106079    1111.0662  0.031301166  0.030715779            4 
 2959000     0.778883   -6.0327612    1107.9156  0.031201858  0.030707563            7 
 2960000   0.77831576   -6.0175642    1110.7897  0.031272232  0.030699391            6 
 2961000    0.7902285   -6.0505162    1109.3548  0.031221287   0.03069116            4 
 2962000    0.7788756   -6.0284662    1110.4624  0.031241909  0.030682932            4 
 2963000   0.76885151   -6.0261684     1106.282  0.031113793  0.030674681            6 
 2964000   0.76229132   -6.0193656    1111.6432  0.031254027   0.03066649            6 
 2965000    0.7782353   -6.0229706    1109.8359  0.031192691  0.030658313           10 
 2966000   0.76833706   -6.0397611    1108.1422  0.031134587  0.030650123           10 
 2967000   0.76417354   -6.0635595    1110.6745  0.031195216  0.030641945            5 
 2968000   0.76710413   -6.0063384    1112.4464  0.031234458   0.03063375            9 
 2969000    0.7786477   -6.0506639    1109.4637  0.031140217  0.030625587           14 
 2970000   0.77669098   -5.9861074    1115.3241  0.031294165  0.030617433            5 
 2971000    0.7793288   -6.0527616    1109.5432  0.031121487  0.030609339           10 
 2972000   0.78181162   -6.0337757    1114.2315  0.031242471  0.030601213            4 
 2973000    0.7665771    -6.008168     1113.841  0.031221017  0.030593162            8 
 2974000   0.78493312    -6.010032    1111.3818  0.031141611  0.030585055            7 
 2975000    0.7878876   -6.0301208    1111.5703  0.031136423  0.030576923           10 
 2976000   0.77787594   -6.0773507    1110.3412  0.031091542   0.03056874           13 
 2977000    0.7867549   -6.0417672    1111.0812  0.031101814   0.03056052            6 
 2978000   0.76581597   -6.0654618    1112.0918  0.031119649  0.030552344            8 
 2979000   0.76065893   -6.0592223    1111.2273  0.031085021  0.030544197           13 
 2980000   0.76391318   -6.0603294    1113.1944  0.031129596  0.030536034            8 
 2981000     0.789757   -6.0349959    1112.7117   0.03110566  0.030527919            6 
 2982000   0.75539785   -6.0445277    1110.7662  0.031040861  0.030519796            9 
 2983000   0.77576368   -6.0198791    1112.2301   0.03107135  0.030511678           10 
 2984000   0.78106317   -6.0492601    1110.5801  0.031014861  0.030503559            4 
 2985000    0.7839507   -6.0610283    1110.2077  0.030994074  0.030495413            7 
 2986000   0.76035986   -6.0552289    1114.1913  0.031094867  0.030487193            6 
 2987000   0.76624317   -6.0651136    1111.4349  0.031007557  0.030479031            5 
 2988000   0.77271816   -6.0252802    1115.6182  0.031113851  0.030470863            7 
 2989000   0.77341041   -6.0439838     1113.785  0.031052332   0.03046274            4 
 2990000   0.77914964    -6.070132    1110.3957  0.030947484  0.030454639            8 
 2991000   0.76734261   -6.0682457    1112.3433  0.030991398  0.030446474            6 
 2992000   0.77521338   -6.0628591    1111.4106  0.030955064  0.030438386            9 
 2993000   0.78403887   -6.0764915    1112.6907  0.030980362  0.030430259            4 
 2994000   0.77523802   -6.0512766    1113.7767  0.031000243  0.030422192            4 
 2995000   0.77285307   -6.0643794    1112.8769  0.030964856   0.03041415           12 
 2996000   0.77345535   -6.0696679    1113.9988  0.030985726  0.030406013           13 
 2997000   0.75733757   -6.0267672     1114.002  0.030975476  0.030397884            5 
 2998000   0.77741625   -6.0480741     1113.647  0.030955276  0.030389762           14 
 2999000   0.76640437   -6.0447715    1116.3325  0.031019576  0.030381653            9 
 3000000   0.78400957   -6.0210491    1110.7317  0.030853659  0.030373533            7 
 3001000   0.76668052    -6.058617    1113.5353  0.030921228  0.030365384            8 
 3002000   0.76794125   -6.0545565    1115.3068  0.030960105  0.030357195            6 
 3003000   0.76935467   -6.0654246    1113.2061  0.030891501   0.03034902            8 
 3004000   0.76538309   -6.0511496    1113.8218  0.030898297  0.030340893            9 
 3005000   0.76748694   -6.0695545     1111.975    0.0308368  0.030332806           14 
 3006000   0.76936821   -6.0536781    1114.2744  0.030890285  0.030324723            9 
 3007000   0.76953256   -6.0845978    1112.9732  0.030843953  0.030316527            8 
 3008000   0.75394073   -6.0604133    1114.8808  0.030886547  0.030308432           12 
 3009000   0.77413529   -6.0705449    1110.7902  0.030762995  0.030300354            5 
 3010000   0.77343993   -6.0561706    1114.8118  0.030864114   0.03029223            6 
 3011000    0.7618578   -6.0606928    1113.8869  0.030828266  0.030284155            7 
 3012000   0.77468635   -6.0617784    1117.7171  0.030924001  0.030276114            8 
 3013000   0.76148915    -6.069357    1116.0121   0.03086658   0.03026805           16 
 3014000   0.76478111   -6.0503276    1117.2653  0.030890988  0.030260025            7 
 3015000   0.77941668   -6.0025144    1115.8829  0.030842534  0.030251952            8 
 3016000   0.76312345   -6.0588445    1115.8264  0.030830747  0.030243868            4 
 3017000   0.76934163   -6.0646115    1116.7472  0.030845961  0.030235768            8 
 3018000   0.76116012    -6.089589    1114.7363  0.030780216   0.03022765           10 
 3019000   0.75976544    -6.056942    1113.1421  0.030726016  0.030219586            9 
 3020000   0.75873728    -6.050401    1118.3342  0.030859112  0.030211506           14 
 3021000   0.78662063   -6.0646005    1114.6151  0.030746307  0.030203401           13 
 3022000   0.76155313   -6.0436164    1117.5582  0.030817291  0.030195238           13 
 3023000   0.75623143    -6.055698    1115.0292   0.03073738   0.03018712            4 
 3024000    0.7784643   -6.0590393    1112.2646   0.03065103  0.030179054            9 
 3025000   0.77978674   -6.0318453    1116.8176  0.030766325  0.030170931           10 
 3026000   0.78154669   -6.0209325    1115.3652  0.030716161   0.03016282            7 
 3027000   0.78396702   -6.0616447    1115.1722  0.030700699  0.030154754            7 
 3028000    0.7606277   -6.0513845    1116.7942  0.030735198  0.030146682            8 
 3029000    0.7659579   -6.0354111    1116.7682  0.030724338  0.030138584            8 
 3030000   0.77056627   -6.0389672    1119.2459  0.030782341  0.030130495            7 
 3031000   0.76930772   -6.0302513    1119.8252   0.03078811  0.030122364            9 
 3032000   0.77617627   -6.0382836    1114.8779  0.030641982   0.03011423            5 
 3033000   0.77709529   -6.0697579    1113.9419  0.030606164  0.030106134           10 
 3034000   0.76653849   -6.0502363    1116.0098  0.030652873  0.030098005            6 
 3035000   0.76069168    -6.048629    1116.7031  0.030661809  0.030089928            5 
 3036000   0.77258223   -6.0485975     1115.917  0.030630132  0.030081857           13 
 3037000   0.76870861   -6.0800199    1115.8463  0.030618106  0.030073769           10 
 3038000   0.78002334   -6.0375196    1120.6483  0.030739748  0.030065751           13 
 3039000   0.76671277    -6.098622    1112.9889  0.030519603  0.030057663            7 
 3040000    0.7686443   -6.0649256      1117.03  0.030620341   0.03004957           10 
 3041000   0.76863229   -6.0643586    1117.5183  0.030623651  0.030041459           12 
 3042000   0.76785679   -6.0848932    1116.7921   0.03059369  0.030033348            5 
 3043000   0.77922799   -6.0688543      1117.26  0.030596451  0.030025217           15 
 3044000   0.74523515   -6.0876136    1114.6351   0.03051454  0.030017118           12 
 3045000   0.74293446   -6.0701351    1119.2553  0.030630962  0.030008975           26 
 3046000   0.74924691   -6.0859082    1114.2499  0.030483966  0.030000833            9 
 3047000   0.75904801   -6.0784254    1113.3032  0.030448068  0.029992693            6 
 3048000   0.77811519   -6.0754855    1116.6439  0.030529416  0.029984519            6 
 3049000   0.75138607   -6.0735041    1118.1548  0.030560699  0.029976381            8 
 3050000   0.76977246   -6.0434086    1120.6106  0.030617776  0.029968236            8 
 3051000   0.77225414   -6.0542835    1119.4987   0.03057737  0.029960211            5 
 3052000   0.77172297   -6.0520298    1119.4216  0.030565246  0.029952167           12 
 3053000   0.76001367   -6.0403708     1121.007  0.030598508  0.029944102            5 
 3054000   0.77108398   -6.0421367    1119.0586  0.030535326  0.029936071           10 
 3055000   0.75570142   -6.0548224     1120.942  0.030576704  0.029928016           10 
 3056000   0.76872357   -6.0673351    1122.0711  0.030597487   0.02992001            7 
 3057000   0.76377872   -6.0683274    1118.6967  0.030495495  0.029911957            8 
 3058000   0.76473141   -6.0943989    1117.2216  0.030445323   0.02990387            6 
 3059000    0.7620485   -6.0750444     1118.946  0.030482346  0.029895754            6 
 3060000   0.76668488   -6.0757584    1118.1741  0.030451364  0.029887603           11 
 3061000   0.77461718   -6.1042521    1115.6115   0.03037165  0.029879489           13 
 3062000   0.76745054   -6.1065252     1114.201  0.030323346  0.029871369           13 
 3063000   0.77282319   -6.0919405    1115.5362  0.030349771  0.029863209           10 
 3064000   0.75907088   -6.0665028    1120.3588  0.030471028  0.029855141           13 
 3065000   0.76271533   -6.0847256    1117.8759  0.030393582  0.029847007            7 
 3066000    0.7570601   -6.0678071    1120.3254  0.030450244  0.029838861            4 
 3067000   0.73814602   -6.0253718    1121.6107   0.03047524   0.02983084           13 
 3068000   0.75940196   -6.0837905    1119.1063  0.030397281  0.029822872            9 
 3069000   0.77217843   -6.0529173    1122.7262  0.030485669  0.029814826            5 
 3070000    0.7751281   -6.0559221     1120.089  0.030404153  0.029806805           15 
 3071000   0.78622811   -6.0593727    1121.4553  0.030431329  0.029798749            9 
 3072000   0.75327094   -6.0716921    1118.3789  0.030337969  0.029790681            5 
 3073000   0.76453477   -6.0832268    1121.0738  0.030401177  0.029782656            8 
 3074000   0.76068612   -6.0834695    1119.6491  0.030352665   0.02977457           11 
 3075000   0.75709127   -6.0809974    1118.4979  0.030311596  0.029766455            3 
 3076000   0.75738135   -6.0599199    1124.1672  0.030455331  0.029758349            6 
 3077000   0.74577479   -6.0616076    1117.7339  0.030271204  0.029750241            6 
 3078000   0.75250254   -6.0863736    1118.1871  0.030273637  0.029742152            6 
 3079000   0.74711954   -6.0567671    1120.9933  0.030339756  0.029734018           10 
 3080000   0.78046021   -6.0767127    1119.8943   0.03030017  0.029725856           15 
 3081000   0.76976885   -6.1309365    1116.3872  0.030195477  0.029717668           12 
 3082000   0.73178637   -6.0899051    1118.8064  0.030251091  0.029709445           12 
 3083000    0.7666664   -6.0739394    1117.1138  0.030195528  0.029701256            5 
 3084000   0.75505495   -6.1067442    1121.3991  0.030301532  0.029693167            6 
 3085000   0.76870152   -6.0895385    1117.6623  0.030190771  0.029685088            8 
 3086000   0.76734675   -6.0571853    1119.9318   0.03024227  0.029677022            6 
 3087000   0.74827982   -6.1001132    1120.3778  0.030244516  0.029668916            6 
 3088000   0.76508756   -6.0778083    1122.8695  0.030301961  0.029660788            5 
 3089000   0.74782678   -6.0762776    1122.5628  0.030283879   0.02965272            9 
 3090000   0.75355732   -6.0613893    1121.0926  0.030234429  0.029644637            3 
 3091000   0.75453085   -6.0809442    1120.4602  0.030207596  0.029636582           11 
 3092000   0.75650198   -6.0661707     1123.187  0.030271318  0.029628568            8 
 3093000   0.76746813   -6.0707664    1121.9246   0.03022752  0.029620552            9 
 3094000   0.74878437   -6.0966439    1118.9301  0.030137096  0.029612478           15 
 3095000   0.77090998   -6.0639923    1117.7486  0.030095547  0.029604389           13 
 3096000   0.75745397   -6.0823148    1121.0465  0.030174593  0.029596258            6 
 3097000   0.78101899   -6.1082181    1118.5481  0.030097623  0.029588129            6 
 3098000   0.74822063   -6.0879012    1119.1184   0.03010325   0.02957996            8 
 3099000   0.76101839   -6.0676626    1118.5712  0.030078821  0.029571815           12 
 3100000   0.76595815   -6.0932245    1122.1513  0.030165356  0.029563651            9 
 3101000   0.75160482   -6.0758462    1119.5559  0.030085884  0.029555528            8 
 3102000   0.77003397   -6.1197334    1119.4191  0.030072511  0.029547378            7 
 3103000   0.76256786   -6.0655446    1118.8065  0.030046367   0.02953923           10 
 3104000   0.75317757   -6.0798989    1120.8904  0.030092634  0.029531079            4 
 3105000   0.76061607   -6.0840919    1119.7624  0.030052668  0.029522954            9 
 3106000   0.74793567   -6.0974225     1120.107  0.030052238  0.029514798           11 
 3107000   0.76233168    -6.090541    1118.2801  0.029993565  0.029506644           12 
 3108000   0.74409191   -6.0963399    1121.1807  0.030061689  0.029498524           16 
 3109000   0.75661581    -6.095541      1120.29  0.030028143  0.029490442           15 
 3110000   0.75537518   -6.0576098    1122.2962  0.030072244  0.029482309            5 
 3111000   0.75205685   -6.1085536    1120.6136  0.030017507   0.02947414            9 
 3112000   0.76567316   -6.1167329    1119.4291  0.029976144  0.029465981           11 
 3113000   0.74721799   -6.1219501    1120.9644  0.030007613  0.029457847           16 
 3114000   0.76940503   -6.0789853      1119.25  0.029952098  0.029449808           14 
 3115000   0.75273641   -6.0768108    1123.6287  0.030059624  0.029441722           37 
 3116000   0.74393773    -6.102807    1121.4408  0.029991463  0.029433633            5 
 3117000   0.74989197   -6.0937206    1120.9201  0.029967921   0.02942553           13 
 3118000   0.73693938   -6.0916675    1119.2127  0.029912675  0.029417484           10 
 3119000   0.76188634   -6.0902417    1120.2525  0.029930866  0.029409362            8 
 3120000   0.76991631   -6.0464281    1124.9457  0.030046627  0.029401346            7 
 3121000   0.74153289   -6.0773045    1125.1045  0.030041238  0.029393333           16 
 3122000   0.76245809    -6.107542    1122.8457  0.029971323  0.029385283            8 
 3123000   0.77652361   -6.1000651    1124.0515  0.029993904  0.029377249            6 
 3124000   0.76022167   -6.1348708    1120.1089  0.029879133  0.029369217           13 
 3125000    0.7590063   -6.1151845    1125.3202  0.030008539  0.029361205           10 
 3126000   0.75623666    -6.110239    1120.0759  0.029859136  0.029353138           15 
 3127000   0.76539455   -6.1171776    1121.9753  0.029900206  0.029345082           26 
 3128000   0.75989437   -6.1185923    1120.8555  0.029860815  0.029337065            8 
 3129000   0.75581003   -6.0631413    1124.4179  0.029946145  0.029329049           10 
 3130000   0.74489253   -6.1032262    1124.0363  0.029926419  0.029321102            9 
 3131000   0.72685701   -6.1183421    1120.5275  0.029823472  0.029313069            8 
 3132000   0.74709899    -6.134916    1125.4327  0.029944463  0.029305071           10 
 3133000   0.74725309    -6.117363    1123.5661  0.029885257  0.029297027           13 
 3134000   0.75416787   -6.1231596    1126.8381  0.029962723  0.029289028            8 
 3135000   0.76128696   -6.1041118    1120.8637  0.029794356  0.029280966           10 
 3136000   0.74824503   -6.1153594    1125.4935  0.029907883  0.029272967            6 
 3137000    0.7443748   -6.1218078    1124.8105  0.029880207  0.029264974           16 
 3138000   0.73811473    -6.097992    1123.2452  0.029829117   0.02925693            5 
 3139000   0.74278965   -6.1262975    1123.2045  0.029818532  0.029248915            8 
 3140000   0.75772456   -6.1248814    1123.0026  0.029803679   0.02924088            9 
 3141000   0.74597947   -6.0977993    1124.3181  0.029829091  0.029232866           10 
 3142000   0.74309167   -6.0947469    1125.6978   0.02985619  0.029224859           10 
 3143000     0.734522   -6.1355154    1125.2007  0.029833512   0.02921686            9 
 3144000   0.75287177   -6.1024889    1128.1622  0.029902519  0.029208913            6 
 3145000   0.74850169   -6.1090637    1124.9141  0.029806946  0.029200954            8 
 3146000   0.74751077   -6.0778895    1126.9595  0.029851651  0.029192976            8 
 3147000   0.75581814   -6.1000847    1125.8265  0.029812162  0.029185056           10 
 3148000   0.74185942   -6.0887721    1127.5685  0.029848807  0.029177114            9 
 3149000   0.74818565   -6.0725973    1125.6042  0.029787345  0.029169128            8 
 3150000   0.75972837   -6.0673941    1127.5448  0.029829228   0.02916122           12 
 3151000   0.73713842   -6.0884539    1129.4103  0.029869097   0.02915332            6 
 3152000   0.74447614   -6.1092994    1128.4742  0.029834873  0.029145341            6 
 3153000   0.74638054   -6.1159027    1125.1911  0.029738637  0.029137312           15 
 3154000   0.76053075   -6.1117176    1124.4272  0.029709026  0.029129272            9 
 3155000   0.74886791   -6.1213655    1123.1626  0.029666208  0.029121294            8 
 3156000   0.74217739   -6.1103477    1122.8656  0.029648964  0.029113266            7 
 3157000   0.74724068   -6.0605782    1130.0485  0.029829176  0.029105325            8 
 3158000   0.74008843   -6.1156858     1127.806  0.029760555  0.029097385            5 
 3159000   0.74998205   -6.1042312    1128.2561  0.029763007  0.029089396           12 
 3160000   0.75172763   -6.0955766    1126.4829  0.029706827   0.02908143            8 
 3161000   0.73745598   -6.0542782    1128.9904  0.029763536  0.029073489            4 
 3162000   0.74470829   -6.1057706    1127.9593  0.029726949   0.02906554            6 
 3163000   0.74350665   -6.1293728      1122.97    0.0295861  0.029057594           10 
 3164000   0.75231859   -6.1056931    1126.2241  0.029662455   0.02904963           17 
 3165000   0.74222663   -6.1194124    1124.9862   0.02962049  0.029041655           11 
 3166000   0.74765697   -6.1131533    1127.7369  0.029683537  0.029033703            7 
 3167000    0.7359197   -6.1041703    1127.0456  0.029655972  0.029025787           15 
 3168000   0.74930523   -6.0938432    1127.7609  0.029665428  0.029017934            5 
 3169000    0.7452395   -6.1063322    1128.1965  0.029667522  0.029010057            9 
 3170000   0.75020867   -6.1063834    1127.3765  0.029636606  0.029002107           18 
 3171000   0.74381675   -6.1126466    1128.1492  0.029647566  0.028994143           14 
 3172000   0.73469119   -6.1083997    1128.0337  0.029635184  0.028986173            4 
 3173000   0.73479989    -6.113383    1131.0412  0.029704831  0.028978211           12 
 3174000   0.73378066   -6.1326302    1125.3502  0.029546056  0.028970168           14 
 3175000   0.75017188   -6.1068788    1125.9258  0.029551859  0.028962115           13 
 3176000   0.74777901   -6.1189242    1128.2175  0.029602683  0.028954079           12 
 3177000    0.7441151   -6.1279669     1125.008  0.029509179  0.028946088           10 
 3178000   0.72563294   -6.1339591    1125.1601  0.029503884  0.028938104            8 
 3179000   0.74248618   -6.1204277    1125.7773  0.029510782  0.028930075            7 
 3180000   0.74195581   -6.1185347    1125.0568  0.029482621  0.028922083           15 
 3181000   0.74698646   -6.1144054    1126.8847  0.029521238   0.02891407           19 
 3182000   0.75206232    -6.118739    1125.6518  0.029479673   0.02890603            7 
 3183000   0.73792325   -6.1446864     1127.915  0.029529663    0.0288981            5 
 3184000   0.75415731    -6.131371    1128.1104  0.029525502  0.028890162            9 
 3185000   0.73187046   -6.1594246     1126.889  0.029484275  0.028882231            7 
 3186000   0.74445299   -6.1326551    1130.0811  0.029558514  0.028874357            5 
 3187000   0.74782559   -6.1073938    1129.4862  0.029533684   0.02886649            6 
 3188000   0.73234466   -6.1331437    1131.2095  0.029569467  0.028858632            6 
 3189000   0.74639666   -6.1259082    1127.3473  0.029459269  0.028850712            8 
 3190000   0.75120974    -6.132566     1128.809  0.029488219  0.028842792            6 
 3191000   0.72493613   -6.1133238    1130.5473  0.029524374  0.028834913           14 
 3192000    0.7491789   -6.1287781    1129.9876  0.029500513  0.028827011           31 
 3193000   0.74264138   -6.1411597    1128.8184  0.029460758  0.028819073           16 
 3194000   0.73946058   -6.1354142    1128.1016  0.029432834  0.028811165            5 
 3195000   0.73849985   -6.1480657    1128.5115  0.029434312   0.02880323           12 
 3196000   0.73839639   -6.1395739    1129.9556  0.029462755  0.028795307            7 
 3197000   0.73106067   -6.1391041    1127.9607   0.02940154  0.028787445            8 
 3198000   0.72839631   -6.1502964    1127.5484  0.029381604  0.028779512           14 
 3199000   0.72944341   -6.1235744    1131.7259  0.029481241  0.028771588           14 
 3200000   0.74788542    -6.157237    1128.4391  0.029386435  0.028763664            4 
 3201000   0.74245983    -6.150611    1124.7499  0.029281211  0.028755685           11 
 3202000   0.75712977    -6.119379    1128.6152  0.029372662  0.028747758            5 
 3203000   0.74246713    -6.111949    1132.5566  0.029466037  0.028739934           32 
 3204000   0.74844732   -6.0986117    1131.3683  0.029425935   0.02873206           12 
 3205000   0.73735608   -6.1545356    1127.9301  0.029327356  0.028724158           22 
 3206000   0.73271898   -6.1264938     1129.708  0.029364421  0.028716248            9 
 3207000   0.71693328   -6.1370082    1129.0507  0.029338185  0.028708368           11 
 3208000   0.73591001   -6.1066796    1133.0596  0.029433178  0.028700473           12 
 3209000   0.73370888   -6.1110088     1130.676  0.029362107  0.028692587            9 
 3210000   0.73965265   -6.1354865    1129.2311   0.02931545  0.028684756           23 
 3211000   0.72988781   -6.1677829    1129.7475  0.029319722  0.028676857           17 
 3212000   0.74266179   -6.1411771    1130.2576  0.029323826  0.028668951           15 
 3213000   0.74370684   -6.1748814    1130.3475  0.029317032  0.028661009            8 
 3214000   0.73571023   -6.1816685    1129.6863  0.029290766  0.028653074           10 
 3215000   0.75021876   -6.1616112    1128.0616  0.029239544  0.028645181            6 
 3216000   0.71686997   -6.1181094    1132.3759  0.029342246  0.028637341           10 
 3217000   0.74059016   -6.1528439    1131.2688  0.029304445  0.028629482            6 
 3218000   0.74010435     -6.12129    1132.8937  0.029337418   0.02862166           12 
 3219000    0.7312773   -6.1326204    1132.8302  0.029326658  0.028613849           14 
 3220000   0.74885383   -6.1498885    1132.2119   0.02930155  0.028606035           12 
 3221000   0.74916072   -6.1444101    1133.9854  0.029338336  0.028598247           19 
 3222000   0.73036357   -6.1091898    1132.6757  0.029295358  0.028590484            6 
 3223000   0.75233865   -6.1141739    1134.5218  0.029334001  0.028582746            8 
 3224000   0.73496621   -6.1346731    1133.2412  0.029291801  0.028574998           13 
 3225000   0.73528009   -6.1244848    1135.4667  0.029340224  0.028567245            9 
 3226000   0.73370907   -6.1530801    1133.7274    0.0292862  0.028559482            4 
 3227000   0.74461833   -6.1576891    1132.6737  0.029249915    0.0285517           10 
 3228000   0.72838386   -6.1217741    1133.9209  0.029273052  0.028543918           11 
 3229000   0.73098957   -6.1535683    1132.6747  0.029231822  0.028536143            6 
 3230000   0.72942958    -6.146331     1132.335   0.02921401  0.028528333            5 
 3231000   0.73525863   -6.1454742      1131.57  0.029185236  0.028520538           12 
 3232000   0.74093599   -6.1441754    1132.0481  0.029188535  0.028512739            8 
 3233000   0.74616033   -6.1500264    1133.8006  0.029224679  0.028504942            8 
 3234000   0.73682679   -6.1665161    1133.0731  0.029196896  0.028497163           14 
 3235000   0.72632809   -6.1683136    1131.1907  0.029139378  0.028489338           15 
 3236000   0.72423808   -6.1660689    1133.9949  0.029202589  0.028481527           10 
 3237000   0.74292129   -6.1527215    1134.5215  0.029207123  0.028473708           10 
 3238000   0.73706927   -6.1587352    1130.2052   0.02908702  0.028465916            7 
 3239000   0.72436588   -6.1612988    1133.2269  0.029155782   0.02845811           15 
 3240000   0.72766329   -6.1820411    1129.5312  0.029051727  0.028450274            5 
 3241000   0.75751155    -6.117323    1134.0623   0.02915927  0.028442481            9 
 3242000   0.73657864   -6.1503066    1135.6522  0.029191143  0.028434713            5 
 3243000   0.71849232   -6.1394774    1134.6688  0.029156872  0.028426985            8 
 3244000   0.72561718   -6.1250217     1135.968  0.029181258  0.028419277            8 
 3245000    0.7356088   -6.1358797    1134.1865  0.029126516  0.028411587           17 
 3246000   0.72919095   -6.1424692    1134.4663  0.029124726   0.02840385            7 
 3247000   0.72411179   -6.1559691    1133.8978  0.029101166  0.028396095            9 
 3248000   0.73561034   -6.1592531    1134.0596  0.029096358  0.028388356           19 
 3249000   0.72495239   -6.1434662    1137.0344  0.029163702  0.028380629           10 
 3250000   0.73988962    -6.159348     1136.633  0.029144436  0.028372926            9 
 3251000   0.75153816   -6.1602916    1134.6791  0.029085388  0.028365227            9 
 3252000   0.72736527   -6.1455653     1134.136  0.029062526  0.028357515            5 
 3253000   0.74659931   -6.1336268    1139.7378  0.029197094  0.028349801            7 
 3254000   0.73473209   -6.1361374    1136.8696   0.02911467  0.028342103           11 
 3255000   0.71589078   -6.1265641    1134.4199  0.029043009  0.028334382            8 
 3256000    0.7222572   -6.1582624    1136.5334  0.029088181  0.028326647            6 
 3257000   0.72284055   -6.1358544    1133.7772   0.02900873  0.028318951            7 
 3258000   0.70177462   -6.1375982    1134.3555  0.029014618  0.028311209           16 
 3259000   0.71312521   -6.1370865    1133.9277  0.028994776  0.028303514           19 
 3260000   0.73147107   -6.1806289    1135.8492  0.029035001  0.028295803           14 
 3261000   0.72438569   -6.1484261    1138.1369  0.029084558  0.028288169            8 
 3262000   0.73790594   -6.1377085    1136.9598  0.029045569  0.028280551           13 
 3263000    0.7164678   -6.1721182    1136.2336  0.029018124  0.028272912           15 
 3264000   0.73191219   -6.1580257    1138.8852   0.02907693  0.028265315           10 
 3265000   0.72539566   -6.1498699    1138.7663  0.029064989  0.028257695           13 
 3266000   0.74167416   -6.1624438    1137.3949    0.0290211  0.028250054           10 
 3267000   0.73125829   -6.1789119    1135.2947  0.028958645  0.028242451            6 
 3268000   0.72909095   -6.1348314    1137.7393  0.029012119   0.02823485            8 
 3269000   0.71958565   -6.1564701     1136.945  0.028982996  0.028227186           12 
 3270000   0.72814591   -6.1920641    1138.3262  0.029009333  0.028219536            8 
 3271000   0.72884688   -6.1445771    1138.3732  0.029001661  0.028211901            8 
 3272000   0.72526465   -6.1676882    1139.2961  0.029016302  0.028204301           12 
 3273000   0.74256118   -6.1502125    1138.1965   0.02897944  0.028196677            4 
 3274000   0.71688706   -6.1614028     1138.488  0.028978008  0.028189067           10 
 3275000   0.72379051   -6.1675881    1138.3724  0.028966219  0.028181502            6 
 3276000   0.71668634   -6.1422748    1141.6772  0.029041442  0.028173907            9 
 3277000   0.72262784   -6.1551925    1140.1754   0.02899439  0.028166312           10 
 3278000   0.72524846   -6.1687634    1140.6591  0.028997842  0.028158722           27 
 3279000   0.73837388   -6.1794635    1137.0634  0.028897616  0.028151086           11 
 3280000   0.72775064   -6.1346029    1138.4379  0.028923727  0.028143489           16 
 3281000   0.72350237   -6.1512833    1138.0475  0.028904996  0.028135873           19 
 3282000   0.73154343   -6.1511221    1136.9703  0.028868838  0.028128277           25 
 3283000   0.73376487   -6.1718239    1140.8258   0.02895791  0.028120694           22 
 3284000   0.72028108   -6.1659535    1137.8913  0.028874626  0.028113106            9 
 3285000   0.71708723   -6.1640594    1139.3443  0.028902695  0.028105462           11 
 3286000    0.7232765   -6.1816729    1137.7622  0.028853778  0.028097808           13 
 3287000   0.73128993   -6.1316536    1140.1154  0.028904661  0.028090213           12 
 3288000   0.71955381   -6.1527187    1140.3311  0.028901335  0.028082651            7 
 3289000   0.71813252   -6.1769073    1138.9215  0.028856833  0.028075095           11 
 3290000   0.71291651   -6.1602879    1140.8209  0.028896174  0.028067539            9 
 3291000   0.73118052   -6.1697084    1138.7029   0.02883376  0.028059917           11 
 3292000   0.71791342   -6.1390634    1142.0689  0.028910209  0.028052321            9 
 3293000   0.72180184   -6.1627188    1142.0202  0.028900196   0.02804471           13 
 3294000     0.730178   -6.1747435    1140.4139  0.028850786  0.028037093            7 
 3295000   0.73672366    -6.151891    1140.5737  0.028846072  0.028029502           16 
 3296000   0.72402926   -6.1467674    1141.8775  0.028870285  0.028021968            8 
 3297000   0.72908489   -6.1524673     1141.099  0.028841851   0.02801437           10 
 3298000   0.71641464   -6.1703721    1139.0223  0.028780632  0.028006727            7 
 3299000   0.71586342   -6.1990868    1137.2352  0.028726767  0.027999051            9 
 3300000   0.71587671   -6.1517383    1137.6236  0.028727868  0.027991373            7 
 3301000   0.73545233    -6.164154    1139.7329  0.028772416  0.027983771           11 
 3302000     0.729538   -6.1686867    1138.7798  0.028739647  0.027976182           20 
 3303000    0.7326455    -6.170347    1138.7097  0.028729178  0.027968548           27 
 3304000   0.72426232   -6.1479548    1142.8668  0.028825334  0.027960986            6 
 3305000   0.72717702   -6.1605139    1141.0415  0.028770587  0.027953391           15 
 3306000    0.7141594   -6.1704699    1137.5856  0.028674774  0.027945796            8 
 3307000   0.72455108   -6.1741512    1139.5828   0.02871643  0.027938115            6 
 3308000   0.72404443   -6.1827891    1140.8445  0.028739534  0.027930467           10 
 3309000   0.71879261   -6.1838457    1141.9534  0.028758773  0.027922839           13 
 3310000   0.72575493   -6.1725327    1138.4475  0.028661821  0.027915235           21 
 3311000   0.71101802   -6.1600483    1138.7778  0.028661478  0.027907657           35 
 3312000    0.7219554   -6.1633021    1140.6638  0.028700277   0.02790007            7 
 3313000   0.71458407    -6.180904    1139.1097  0.028652524  0.027892424           10 
 3314000   0.71995463   -6.1606882    1137.7661  0.028610091  0.027884756           14 
 3315000      0.73488   -6.1658911    1139.7112  0.028650357  0.027877144            5 
 3316000   0.70848161   -6.1610129    1139.8748  0.028645828  0.027869486            5 
 3317000    0.7057043   -6.1559701    1139.6852   0.02863243  0.027861834            9 
 3318000   0.70668319   -6.1592206    1140.9235  0.028654901  0.027854211            9 
 3319000   0.70081876   -6.1944433    1137.6373  0.028563758  0.027846546            6 
 3320000   0.72487822   -6.2061341    1137.6693  0.028555957  0.027838873           17 
 3321000   0.71927922   -6.1774613    1141.9369  0.028654443  0.027831204           12 
 3322000    0.7036367   -6.1717241    1141.4267   0.02863302  0.027823553            5 
 3323000   0.72307056   -6.1739591    1140.4321  0.028599461  0.027815918           17 
 3324000   0.72391953   -6.1547736    1143.6983  0.028672741  0.027808346           11 
 3325000   0.72792253    -6.183458    1139.7687  0.028565632  0.027800773           11 
 3326000   0.71918248   -6.1457396    1145.4158  0.028698532  0.027793235           13 
 3327000   0.71732675   -6.1342723    1143.8693  0.028651171  0.027785753            5 
 3328000   0.70999869    -6.177798     1144.324  0.028653946  0.027778219           10 
 3329000   0.72207334   -6.2129911    1140.0122  0.028537403  0.027770674           21 
 3330000   0.72380619   -6.1494957    1140.2731  0.028535363  0.027763112           11 
 3331000   0.71560789    -6.158408    1142.5048  0.028582628  0.027755621           14 
 3332000   0.71779245    -6.165656    1143.7116  0.028604231  0.027748128           13 
 3333000   0.71486223   -6.1796731    1143.8064  0.028598019  0.027740618           21 
 3334000   0.72497884   -6.1649017    1145.5125  0.028632085  0.027733086           13 
 3335000   0.71536319   -6.1784494    1143.5878  0.028575406   0.02772559            7 
 3336000   0.70720346   -6.1771397    1143.9841  0.028576741   0.02771809           15 
 3337000   0.72152169   -6.1867885    1145.1181  0.028596496  0.027710614           13 
 3338000   0.69743206   -6.1542986    1143.9331  0.028558347  0.027703136           12 
 3339000   0.70726906   -6.1887507    1141.4012  0.028486603  0.027695656           11 
 3340000   0.70433623   -6.1743353    1144.9437   0.02856646  0.027688159            8 
 3341000   0.72108575    -6.173606    1145.4434  0.028570374  0.027680645           11 
 3342000   0.72862772   -6.1705268    1140.6316   0.02844184  0.027673112            9 
 3343000    0.7415651   -6.1771127    1143.1156  0.028495255    0.0276656           10 
 3344000   0.70789737   -6.1766572    1144.5292   0.02852196  0.027658142           10 
 3345000    0.7277107   -6.1750826      1144.58  0.028514698  0.027650718            7 
 3346000   0.72067611    -6.201626    1143.4928  0.028479099   0.02764323            7 
 3347000   0.72051672   -6.2260417    1141.8457  0.028429581  0.027635719            6 
 3348000   0.71286786   -6.1904895    1146.4517  0.028535734  0.027628261           13 
 3349000   0.71178482   -6.1755104    1146.3395  0.028524423   0.02762081           19 
 3350000   0.73700739   -6.1628527     1144.251  0.028463956  0.027613378            8 
 3351000   0.72264249    -6.170174    1144.5725  0.028463457  0.027605935           13 
 3352000   0.71333282   -6.1522727    1146.3103  0.028498168  0.027598478           15 
 3353000   0.71956147   -6.1675861    1144.1761  0.028436626  0.027591068            8 
 3354000    0.7119414   -6.1807807    1144.0113  0.028424052  0.027583639           13 
 3355000   0.71751974   -6.1867109    1145.4707  0.028451832  0.027576196           13 
 3356000    0.7181129    -6.170266    1146.9531  0.028480163  0.027568777           17 
 3357000   0.72634177   -6.1841872    1144.0694  0.028400094  0.027561348           11 
 3358000   0.72692597   -6.1842362     1146.575  0.028453817   0.02755397           10 
 3359000   0.70050138   -6.1797331    1146.4073  0.028441184  0.027546501            7 
 3360000   0.73133998   -6.1767982    1150.1868  0.028526457   0.02753908            6 
 3361000   0.70023512   -6.1872823    1146.1753   0.02841851  0.027531688           15 
 3362000   0.71573799   -6.1866751    1144.9234  0.028379024   0.02752427            9 
 3363000   0.70820601   -6.1936911    1146.0997  0.028399736  0.027516829           10 
 3364000   0.71508185   -6.1870819    1143.4586  0.028325868  0.027509403            6 
 3365000   0.69828577   -6.1987152    1147.0978  0.028407574  0.027501969            6 
 3366000   0.72602897   -6.1861113    1144.1812  0.028326925  0.027494526           38 
 3367000   0.72163131   -6.1961364    1147.1746    0.0283926  0.027487099           11 
 3368000   0.71138682   -6.1636666    1146.8797  0.028376874  0.027479753            6 
 3369000   0.73145072   -6.1740338    1151.2191  0.028475787  0.027472404            8 
 3370000   0.71575442   -6.1766828    1147.7535  0.028381638  0.027465007           14 
 3371000   0.72428993   -6.1787634    1148.1739  0.028383612  0.027457627           11 
 3372000   0.70171214   -6.1883582    1149.9328  0.028418664   0.02745023           10 
 3373000   0.69341381   -6.1929813    1148.1671  0.028366614  0.027442814           25 
 3374000   0.71830366   -6.1844702    1146.0239  0.028305273  0.027435424           13 
 3375000   0.72415751   -6.1878371    1147.4264  0.028331516  0.027428025           10 
 3376000   0.72530228   -6.1922285    1146.0851  0.028290016  0.027420589           10 
 3377000    0.7061912   -6.2159673    1145.7704  0.028273873  0.027413079           27 
 3378000   0.69874245   -6.1801956    1146.4304  0.028281783  0.027405639           18 
 3379000   0.71602835   -6.1981879    1147.6528  0.028303562  0.027398265            9 
 3380000   0.70791668   -6.1952522    1147.6024  0.028293944  0.027390834           11 
 3381000    0.7262354   -6.2164901    1144.5295  0.028209837  0.027383393           12 
 3382000   0.70505181   -6.2278718    1142.2727  0.028145887  0.027375935            6 
 3383000   0.72451046   -6.2132908    1148.8382  0.028299295  0.027368474           18 
 3384000   0.70591616   -6.2175146    1146.8157  0.028241128  0.027361024            9 
 3385000   0.73231383   -6.2217007    1147.4052  0.028247296  0.027353559           12 
 3386000    0.7104811   -6.2181939    1145.3362  0.028188034  0.027346121            7 
 3387000   0.70729307   -6.2201646    1143.5008  0.028134555  0.027338657           24 
 3388000   0.70157711   -6.2184264    1143.2108  0.028119117  0.027331178           17 
 3389000   0.72160329   -6.1777211    1148.1834  0.028233092  0.027323724           37 
 3390000   0.71793832   -6.2230273    1145.3473  0.028155046  0.027316297           15 
 3391000   0.70454887   -6.2183368    1143.7653  0.028107867  0.027308846            8 
 3392000   0.69984169   -6.2313232    1147.6563  0.028195172  0.027301384           25 
 3393000   0.70963257   -6.1857198     1146.833  0.028166642  0.027293968           15 
 3394000   0.69947248   -6.2239842    1143.0245  0.028064831  0.027286506           12 
 3395000   0.70406407   -6.2161888    1146.4875  0.028141569  0.027279039            6 
 3396000   0.70506157    -6.223235    1147.5485  0.028159318   0.02727158           11 
 3397000   0.69480782    -6.200646    1149.4852  0.028198537  0.027264142           28 
 3398000   0.70763653   -6.2222337    1144.0628  0.028057259  0.027256725            8 
 3399000   0.71689876   -6.2390292    1145.9873  0.028096188   0.02724927            8 
 3400000   0.70674849   -6.2209651    1146.1563  0.028092065  0.027241828           10 
 3401000   0.69356916   -6.2104985     1147.232  0.028110165  0.027234397            6 
 3402000   0.68881885   -6.2199454    1144.8395  0.028043296  0.027226945           13 
 3403000    0.7296054   -6.2109848     1148.605  0.028127265  0.027219548           15 
 3404000   0.71892435   -6.2212492    1148.7605  0.028122809  0.027212119           18 
 3405000   0.70497973   -6.2261046    1144.7188  0.028015633  0.027204664           11 
 3406000   0.71812594   -6.2087269    1147.0367   0.02806412  0.027197246           18 
 3407000   0.70244853   -6.2263361    1144.2879  0.027988648  0.027189843            8 
 3408000   0.71484575   -6.2115991    1148.9351  0.028094069  0.027182476            9 
 3409000   0.71687584   -6.2275191    1146.8599  0.028035101  0.027175106            9 
 3410000    0.6875027   -6.1932092     1149.968  0.028102835  0.027167763            8 
 3411000   0.71703926   -6.2269287    1147.1987  0.028026939  0.027160412           16 
 3412000    0.6981612   -6.1902885    1148.0427  0.028039339   0.02715302           10 
 3413000   0.69566007   -6.2404249    1146.5978  0.027995845  0.027145639           18 
 3414000   0.70163872   -6.2525653    1146.6146  0.027988055  0.027138239            9 
 3415000   0.70761011   -6.2136966    1147.1243  0.027992295  0.027130819           11 
 3416000   0.69357374   -6.1730265      1149.39  0.028039374  0.027123419            4 
 3417000   0.70198413   -6.2160813    1144.1799  0.027904104  0.027115992            7 
 3418000   0.69830748   -6.2072299    1147.4825  0.027976461  0.027108544           14 
 3419000   0.69276944   -6.2298337    1144.3518  0.027891971  0.027101122           16 
 3420000   0.71563864   -6.2214441    1146.3552  0.027932632  0.027093687           15 
 3421000   0.69726904   -6.2100773    1147.8172   0.02796008  0.027086281            9 
 3422000    0.6957468   -6.2201662    1148.7632  0.027974946  0.027078878            9 
 3423000   0.69034061   -6.2152343    1148.2506  0.027954294  0.027071484           16 
 3424000   0.68867359   -6.1977319    1154.2339  0.028091752  0.027064089           17 
 3425000   0.70129306   -6.2392323    1146.3084  0.027890716  0.027056654            9 
 3426000   0.73310841   -6.2198527     1145.761   0.02786926  0.027049228           18 
 3427000   0.70556946   -6.1998211    1148.1958  0.027920333  0.027041814            8 
 3428000   0.70283166   -6.2554885    1147.3004  0.027890422  0.027034384           16 
 3429000   0.69293768   -6.2131316    1148.9418  0.027922179   0.02702698           22 
 3430000   0.70631506   -6.2190435    1147.7944  0.027886161  0.027019565           26 
 3431000   0.69789452   -6.2158092    1148.0228   0.02788358  0.027012198           18 
 3432000   0.72813197   -6.1957143    1149.5524  0.027912597   0.02700487           15 
 3433000   0.69753562   -6.2420816    1146.1474  0.027821813  0.026997518           13 
 3434000   0.70328737   -6.2235908     1149.448  0.027893806  0.026990157           22 
 3435000   0.69704466   -6.2286351    1149.6133  0.027889697  0.026982802           16 
 3436000   0.71704149   -6.2517431    1149.0937  0.027868978  0.026975438           20 
 3437000   0.69874414   -6.1868837    1151.5497  0.027920417  0.026968101           16 
 3438000   0.69086389   -6.2123137    1149.8877  0.027872011   0.02696075           12 
 3439000    0.7248915   -6.2418357    1152.1593  0.027918953  0.026953385           29 
 3440000   0.71013964    -6.252574    1149.4136  0.027844321  0.026946027           16 
 3441000   0.70006961   -6.2393618    1148.7829  0.027820956  0.026938699           11 
 3442000    0.6964255    -6.234359    1146.1005  0.027747929  0.026931341            8 
 3443000   0.70651095   -6.2233711    1149.4162  0.027820122  0.026923989           10 
 3444000   0.70664219   -6.2360897    1150.8867  0.027847627  0.026916647            6 
 3445000   0.69168366   -6.2211386    1151.0137  0.027842615  0.026909335            8 
 3446000   0.71315996   -6.2233618    1148.5893  0.027775908  0.026901978           13 
 3447000   0.70747285   -6.2483445    1151.2727  0.027832722  0.026894628            6 
 3448000   0.69527683   -6.2204512    1153.0683  0.027868048  0.026887309            9 
 3449000   0.70232564   -6.2296314    1148.6447  0.027753086  0.026880007            8 
 3450000   0.68224566   -6.2240639    1151.9186   0.02782412  0.026872702           11 
 3451000   0.69998081   -6.2263655    1152.3891  0.027827419  0.026865424           17 
 3452000   0.71792529   -6.2515727    1151.6626   0.02780182  0.026858136            9 
 3453000   0.68478496   -6.2262299    1151.5786  0.027791742  0.026850837           26 
 3454000   0.69605409   -6.2378989    1150.9071  0.027767494  0.026843581           14 
 3455000   0.69176024   -6.2416262    1149.4479  0.027724261    0.0268363           19 
 3456000   0.69977098   -6.2286674    1154.7506  0.027844102  0.026829041           10 
 3457000   0.69228845   -6.2332902    1152.2554  0.027775898  0.026821739            9 
 3458000   0.69551614   -6.1986885    1156.0952  0.027860402   0.02681449            5 
 3459000   0.69454518   -6.2136475    1152.2416  0.027759506   0.02680726           12 
 3460000   0.70970859   -6.2354375      1149.54  0.027686416  0.026799963           12 
 3461000   0.69357651   -6.1967325    1155.0537  0.027811175  0.026792669           12 
 3462000   0.67451907   -6.2124334    1151.2488  0.027711553  0.026785389           14 
 3463000   0.69721048    -6.205526     1151.692  0.027714217  0.026778109           11 
 3464000   0.70254572   -6.2331028    1151.7726  0.027708155  0.026770803           11 
 3465000   0.70178489   -6.2392738    1151.6242   0.02769659  0.026763484           12 
 3466000   0.69160854   -6.2360957    1149.7708  0.027644038   0.02675619           15 
 3467000   0.70463432   -6.2568013     1149.033  0.027618329   0.02674885           50 
 3468000   0.68331601   -6.2533905    1151.1995  0.027662426  0.026741506           18 
 3469000   0.69411458   -6.2497557    1149.2127  0.027606725  0.026734147           22 
 3470000   0.69287827   -6.2398531    1149.0039  0.027593753  0.026726798           24 
 3471000   0.68108586   -6.2213851    1152.7819  0.027676509  0.026719446           15 
 3472000   0.70987938   -6.2231088    1152.4471  0.027660502  0.026712181           30 
 3473000   0.68969864   -6.2332293    1148.3531  0.027554303  0.026704872           19 
 3474000   0.70022176   -6.2552461    1149.8168  0.027581481  0.026697561           18 
 3475000   0.69137034   -6.2100627     1152.443  0.027636523  0.026690267           10 
 3476000   0.69242389     -6.24249    1152.0029  0.027618021   0.02668297            5 
 3477000   0.68463941   -6.2375131    1150.6138  0.027576785  0.026675676            7 
 3478000   0.68775717   -6.2475119    1151.8532  0.027598553  0.026668384           15 
 3479000   0.69262009   -6.2591013    1154.0368  0.027642925  0.026661059            9 
 3480000   0.68770304    -6.229204    1149.2532  0.027520432  0.026653783           14 
 3481000   0.69131794   -6.2332094    1151.7491  0.027572275  0.026646511           12 
 3482000   0.70368835   -6.2494187    1152.1788  0.027574641  0.026639236           11 
 3483000   0.70921919   -6.2473902    1152.3815  0.027571575  0.026631938           16 
 3484000   0.69783296   -6.2388264    1150.7538  0.027524726  0.026624655            7 
 3485000   0.68965564   -6.2299567    1153.4606  0.027581554  0.026617384           13 
 3486000   0.70733948   -6.2413351    1152.2356  0.027544358  0.026610074            7 
 3487000   0.69698308   -6.2529922    1150.1712  0.027487123  0.026602779           10 
 3488000    0.7000288   -6.2467538    1154.6727  0.027586791  0.026595489           13 
 3489000   0.68913723   -6.2738718    1150.1056  0.027469801  0.026588199           10 
 3490000   0.69225171   -6.2392674    1152.6758  0.027523299  0.026580891           13 
 3491000   0.68224356   -6.2409966    1150.5836  0.027465472  0.026573599            9 
 3492000   0.70699696   -6.2327178    1152.3067  0.027498728  0.026566322            9 
 3493000   0.69004453   -6.2188936    1154.2734  0.027537775  0.026559036           15 
 3494000   0.70132787    -6.250923    1149.1196  0.027406973  0.026551764           19 
 3495000   0.69072887   -6.2197436    1150.3406  0.027428244  0.026544468           17 
 3496000   0.69629807   -6.2451284    1150.1499  0.027415854  0.026537113           14 
 3497000   0.68337952   -6.2667445    1149.1165  0.027383389  0.026529778           15 
 3498000   0.68632821   -6.2592318    1151.3911  0.027429748  0.026522456           15 
 3499000   0.69385078   -6.2523446    1151.4716  0.027423826   0.02651513           20 
 3500000   0.70601106   -6.2532928    1151.0242  0.027405337  0.026507846           13 
 3501000   0.68930263   -6.2361114    1150.8175  0.027392589  0.026500575            8 
 3502000      0.69655   -6.2539806    1152.9476  0.027435456  0.026493276            9 
 3503000   0.67805146   -6.2420083    1151.4831  0.027392784  0.026486009           14 
 3504000   0.69111635   -6.2487009    1150.7327  0.027367121  0.026478729            6 
 3505000   0.69909994   -6.2345441    1155.6112  0.027475302  0.026471447            9 
 3506000   0.68070242   -6.2316618    1153.5341  0.027418096  0.026464208           12 
 3507000   0.69398411    -6.267497    1154.2844  0.027428105  0.026456939           11 
 3508000   0.70134947   -6.2355025    1153.0748  0.027391553  0.026449707           13 
 3509000    0.6873885   -6.2250103    1154.7562  0.027423676  0.026442476           11 
 3510000   0.68127544    -6.240711    1152.0249  0.027351019  0.026435186           24 
 3511000   0.69299586   -6.2383607    1153.8643  0.027386887  0.026427894           39 
 3512000   0.70715809   -6.2756919    1154.0145  0.027382652  0.026420631           21 
 3513000   0.69467187   -6.2566141    1151.8086   0.02732253  0.026413362           22 
 3514000   0.67988145   -6.2615256    1153.1496  0.027346555  0.026406071           12 
 3515000    0.6897455   -6.2842545    1152.3839  0.027320622  0.026398762           24 
 3516000   0.68992231   -6.2600365    1151.4814  0.027291463  0.026391455           13 
 3517000   0.68546827   -6.2618052    1149.6246  0.027239707  0.026384192           15 
 3518000   0.68061438   -6.2480812    1150.7711  0.027259122  0.026376929           12 
 3519000    0.7045625   -6.2621048    1150.2453  0.027238924  0.026369622           13 
 3520000   0.68250694   -6.2487997    1150.7169  0.027242352  0.026362321           12 
 3521000   0.67215762   -6.2660723    1152.2495  0.027270886   0.02635504            7 
 3522000   0.67614716   -6.2713431    1155.0895   0.02733034  0.026347787           13 
 3523000   0.67572953   -6.2644679    1151.5664  0.027239247  0.026340514           22 
 3524000   0.69778032   -6.2655356    1152.6518  0.027257184   0.02633327           15 
 3525000   0.69062931   -6.2700986    1152.8214   0.02725346   0.02632602            8 
 3526000   0.71284314   -6.2573421     1156.444  0.027331349  0.026318774            7 
 3527000   0.71298206   -6.2548468    1156.4929  0.027324755  0.026311531           21 
 3528000   0.70264044   -6.2653747    1154.8817  0.027278951  0.026304276            8 
 3529000   0.69230327   -6.2675626    1150.5197  0.027168219  0.026297052            6 
 3530000   0.69265338   -6.2658011    1155.7954  0.027285066  0.026289829           10 
 3531000   0.67351993   -6.2824369    1154.8731  0.027255572  0.026282602           14 
 3532000   0.68249851   -6.2567467    1154.3168  0.027234731   0.02627536           11 
 3533000   0.68460514   -6.2505226    1153.2674   0.02720227  0.026268132            8 
 3534000   0.67990085   -6.2776527    1152.6458  0.027179913  0.026260886           35 
 3535000   0.67923616   -6.2612235    1153.1499  0.027184108  0.026253658           15 
 3536000   0.69265734   -6.2867415    1154.7191  0.027213402  0.026246433           40 
 3537000   0.68433831   -6.2595859    1152.6004  0.027155792  0.026239222           22 
 3538000   0.69504319    -6.234329    1152.6361  0.027148957  0.026232045           14 
 3539000   0.70227729   -6.2683138    1155.0165  0.027197337  0.026224862            9 
 3540000   0.66697162   -6.2755744     1156.012  0.027213088  0.026217679           11 
 3541000   0.68876468   -6.2622847    1156.0067  0.027205279  0.026210494            7 
 3542000    0.6710756   -6.2568027    1156.6223  0.027212081  0.026203298           17 
 3543000   0.67948595   -6.2598427    1152.3114  0.027103006  0.026196103           17 
 3544000   0.67501958   -6.2553161    1155.9528  0.027180981  0.026188913            7 
 3545000   0.68167188   -6.2911014    1154.4415  0.027137789  0.026181716            6 
 3546000   0.67752554   -6.2829131    1154.2538  0.027125724  0.026174542           12 
 3547000   0.68970373    -6.255256    1156.9083  0.027180442   0.02616738           18 
 3548000   0.68105208   -6.2546229    1156.0809  0.027153347  0.026160249           13 
 3549000   0.69174269   -6.2613066    1155.2246  0.027125589  0.026153107           23 
 3550000   0.68851382   -6.2622413    1157.6008  0.027173728  0.026145943            9 
 3551000   0.67691611   -6.2458142    1153.4656  0.027069032  0.026138764           29 
 3552000   0.66932134   -6.3005249     1154.782  0.027092295  0.026131608           31 
 3553000    0.6756842   -6.2872928    1155.6382  0.027104752  0.026124442           12 
 3554000   0.66640552   -6.2821011    1155.7742  0.027100315  0.026117266            8 
 3555000   0.69651423   -6.2937619    1155.3634  0.027083062   0.02611008            9 
 3556000    0.6727865   -6.2901498    1155.7533  0.027084581   0.02610284           14 
 3557000   0.68200891   -6.2940654    1154.8512  0.027055835  0.026095627           11 
 3558000   0.66443691   -6.2991162    1157.3756  0.027107354  0.026088389           10 
 3559000   0.66368886   -6.2809162    1157.5767  0.027104446  0.026081185           15 
 3560000   0.66283849   -6.2591391    1157.2519  0.027089229  0.026074044            8 
 3561000   0.67288199    -6.250591    1155.7216  0.027045812   0.02606693           17 
 3562000   0.69079125   -6.2885809    1156.0813  0.027046633  0.026059779           12 
 3563000   0.67957121   -6.2901704    1153.0017  0.026967016  0.026052592           13 
 3564000   0.69961827   -6.2877739    1156.2092  0.027034446    0.0260454           10 
 3565000   0.67805421   -6.2965314    1153.9518  0.026974096  0.026038143           34 
 3566000   0.68727819   -6.2958834     1157.655  0.027053072  0.026030939           12 
 3567000   0.69805882   -6.2627183    1155.6302  0.026998183   0.02602376            9 
 3568000   0.67471654   -6.2963317    1154.5798  0.026966083  0.026016552           14 
 3569000    0.6826262   -6.3154776     1155.448  0.026978798  0.026009327            8 
 3570000   0.68473773   -6.2865579    1157.4791  0.027018653  0.026002182           21 
 3571000   0.67717257   -6.2794738    1159.3178  0.027053995  0.025995064           11 
 3572000   0.66503669    -6.301922     1156.403  0.026978421  0.025987944            6 
 3573000   0.68147403   -6.2778682    1155.8913  0.026958936  0.025980808           11 
 3574000   0.67959886   -6.2901069    1155.4068  0.026940095  0.025973655            8 
 3575000   0.69416665   -6.2857288    1154.9856  0.026922741  0.025966528           13 
 3576000   0.67538654   -6.2661857     1155.986  0.026938525  0.025959367           13 
 3577000   0.65791057   -6.2721979    1158.5331  0.026990333   0.02595223            8 
 3578000   0.68177023   -6.2559986    1158.4492  0.026980837  0.025945146            7 
 3579000   0.67766815   -6.2609661     1159.451  0.026996624  0.025938098           12 
 3580000   0.66395085   -6.2695841    1156.2778  0.026915218  0.025931035           10 
 3581000   0.66849987   -6.2964729     1158.396  0.026956994  0.025923905           11 
 3582000   0.68345586   -6.2999089     1157.228  0.026922296   0.02591677            9 
 3583000   0.69484549   -6.3029173    1152.7093  0.026809688  0.025909587           19 
 3584000   0.66917266   -6.3062629     1157.541  0.026914552   0.02590242           12 
 3585000   0.68752653   -6.3095328     1156.304  0.026878288  0.025895246           14 
 3586000   0.67320368   -6.3045156    1156.3218  0.026871209  0.025888096           14 
 3587000   0.68392787   -6.3039641    1156.1047  0.026858671   0.02588095           12 
 3588000   0.67940367   -6.3074499    1154.3826  0.026811191  0.025873794           12 
 3589000   0.66953173   -6.2896846    1157.6813  0.026880313  0.025866658           12 
 3590000   0.66599014   -6.3251573    1155.6227   0.02682504  0.025859514           13 
 3591000   0.66088474   -6.2878311    1157.3413  0.026857451   0.02585237           10 
 3592000   0.67398618   -6.3052594    1155.6757  0.026811333  0.025845233           25 
 3593000    0.6728957   -6.2886484    1154.9827  0.026787797  0.025838102           10 
 3594000   0.65896704     -6.27294    1157.6787  0.026842856  0.025830996           10 
 3595000   0.67182937   -6.3000489    1157.7383  0.026836772   0.02582388           17 
 3596000   0.67803812   -6.3184238    1155.0703   0.02676748  0.025816712           21 
 3597000    0.6625093    -6.289466     1154.961  0.026757507  0.025809618           27 
 3598000   0.67171031    -6.264729    1157.7643  0.026814997  0.025802532           22 
 3599000   0.67159113   -6.2867425    1160.2988   0.02686623  0.025795477           15 
 3600000     0.679863   -6.3048537    1157.3267  0.026789969  0.025788397           32 
 3601000   0.67848357   -6.2989737    1156.5784  0.026765213  0.025781296           32 
 3602000   0.67908593   -6.2836376    1157.5192  0.026779547  0.025774205           13 
 3603000   0.68639422   -6.2700341     1156.976  0.026759553    0.0257671           21 
 3604000   0.66664675   -6.3039411    1159.0817  0.026800817  0.025759975           27 
 3605000   0.66857017    -6.287898    1157.2875  0.026751907  0.025752864           12 
 3606000   0.68112659   -6.2739807    1158.8119  0.026779718   0.02574582           10 
 3607000   0.67674554   -6.3066708    1158.7066  0.026769861  0.025738753           12 
 3608000   0.68434592   -6.2811417    1158.6318  0.026760712  0.025731676           16 
 3609000   0.67833891   -6.2871729    1158.3636  0.026747105  0.025724617           14 
 3610000   0.67785833   -6.3079756    1160.1082  0.026779968  0.025717535           15 
 3611000   0.67614745   -6.3056768     1157.964  0.026723068  0.025710473           24 
 3612000   0.67067432   -6.2981055    1158.3219  0.026723927  0.025703424           16 
 3613000   0.67786602   -6.2842455    1158.1228  0.026711938  0.025696393           16 
 3614000   0.67543718   -6.3216334    1157.9154  0.026699764  0.025689326           12 
 3615000    0.6638264   -6.2762491    1160.6294  0.026754941  0.025682236           11 
 3616000    0.6688997   -6.3017287    1159.1724  0.026713966   0.02567516           12 
 3617000   0.68824262   -6.3082251    1159.2093   0.02670743  0.025668067            7 
 3618000   0.67785766   -6.3299678    1156.0031  0.026626201  0.025660994           10 
 3619000   0.67559392   -6.3100182    1161.4527  0.026744329  0.025653913           14 
 3620000   0.68332114   -6.3044935     1158.251  0.026663236  0.025646865           14 
 3621000   0.68023799   -6.3103303     1159.609  0.026687126  0.025639827           10 
 3622000    0.6987254   -6.3082771    1156.1652  0.026600526  0.025632784            8 
 3623000   0.67375861    -6.339983    1155.2671  0.026572524  0.025625688            8 
 3624000   0.67621496   -6.3191318    1160.6232  0.026688354  0.025618625            9 
 3625000   0.67799907   -6.3023936    1160.2094  0.026671481  0.025611563           12 
 3626000   0.68399992     -6.32892    1161.0373  0.026683152  0.025604533           14 
 3627000    0.6640759   -6.2894119    1159.8818  0.026649247  0.025597504           19 
 3628000   0.66441828   -6.3089719    1159.4932  0.026632974  0.025590466            6 
 3629000   0.66393271   -6.3160778    1160.5679  0.026650314  0.025583465           16 
 3630000   0.67613137   -6.3141381    1156.2916  0.026544802  0.025576426           11 
 3631000   0.66741929   -6.3115137    1159.5128  0.026611419  0.025569355           14 
 3632000   0.67146655   -6.3334673    1157.2578  0.026552355  0.025562286           21 
 3633000   0.66333183   -6.3122083    1159.4303  0.026594879  0.025555268           16 
 3634000   0.64621142    -6.308064    1157.0787  0.026533634  0.025548257           14 
 3635000   0.68410734   -6.3037717    1160.6691  0.026608645   0.02554123           15 
 3636000    0.6683661      -6.3237    1156.7708  0.026511983  0.025534228           22 
 3637000   0.66576655   -6.3112677    1160.3796   0.02658738  0.025527209           17 
 3638000   0.67068137   -6.3158922    1164.6572  0.026678056  0.025520182           19 
 3639000   0.68084806   -6.3185499    1163.2279  0.026637994  0.025513183           29 
 3640000   0.66714302   -6.3278102    1157.7174   0.02650452  0.025506198           11 
 3641000   0.66724188   -6.3190386    1160.4678  0.026560189  0.025499213           22 
 3642000   0.67488841   -6.3008151    1157.8688  0.026493428   0.02549227           36 
 3643000   0.67298691   -6.2880404    1161.5658  0.026570724  0.025485292           18 
 3644000   0.65930846   -6.3251287    1162.2916   0.02658003   0.02547833           15 
 3645000   0.67250733   -6.3092534    1160.2081  0.026525106  0.025471339           19 
 3646000   0.67730833   -6.3060253    1162.1242  0.026561625  0.025464393           15 
 3647000   0.66277883    -6.306973    1164.1251  0.026600063  0.025457445           13 
 3648000   0.68632492   -6.2730013    1165.2757  0.026619054  0.025450492           11 
 3649000   0.67152034   -6.3151054    1161.6361  0.026528639  0.025443591           20 
 3650000   0.65215781   -6.3172278    1158.7367  0.026455176  0.025436645           10 
 3651000   0.65544627   -6.3051736    1162.1051  0.026524814  0.025429683           15 
 3652000   0.65424147   -6.3492905    1160.0965  0.026471716  0.025422661           19 
 3653000   0.67364701   -6.3147982    1161.5637  0.026497939  0.025415644           21 
 3654000   0.66550707   -6.3201879    1159.6352  0.026446708  0.025408633           10 
 3655000   0.66565583    -6.330683    1160.4734  0.026458583  0.025401627           10 
 3656000   0.68054425   -6.3330471    1162.0463  0.026487196  0.025394654           33 
 3657000   0.66001384    -6.328567    1157.4408  0.026375007  0.025387654           36 
 3658000   0.66393476   -6.3225059    1158.4096  0.026389867  0.025380652           15 
 3659000   0.66374452    -6.302128    1160.4558  0.026429256   0.02537368           25 
 3660000   0.66506242   -6.3146757    1160.8089  0.026430074  0.025366706           15 
 3661000   0.67720873   -6.3318322    1159.9434  0.026403154  0.025359719           16 
 3662000    0.6749091   -6.3314158    1159.1048  0.026376861  0.025352718           14 
 3663000   0.64432611   -6.3263776    1160.7665  0.026407465  0.025345713           13 
 3664000    0.6511036   -6.3181466    1159.0456  0.026361118   0.02533875           14 
 3665000   0.67608017   -6.3086746    1161.1047  0.026400744  0.025331798           15 
 3666000   0.64957961   -6.2838525    1161.0931  0.026393277  0.025324835           15 
 3667000    0.6707421   -6.3155794    1162.4046  0.026415884  0.025317864           15 
 3668000    0.6583225   -6.3176453    1163.5258  0.026434156   0.02531091           16 
 3669000   0.66164929   -6.3266325    1161.4688  0.026380232  0.025303938           16 
 3670000   0.65509563   -6.3070413    1163.3514   0.02641579  0.025296986           11 
 3671000   0.65313917   -6.3134973    1162.5497  0.026390394  0.025290052            8 
 3672000   0.66737102   -6.3363507    1163.6888   0.02640906  0.025283128           18 
 3673000    0.6511497   -6.3222193    1162.3584  0.026371684  0.025276177           15 
 3674000   0.66083746   -6.3322319    1160.4815  0.026321935  0.025269243           15 
 3675000   0.67404876   -6.3195575    1160.9254  0.026324838  0.025262299           21 
 3676000    0.6644854   -6.2947902    1162.8434  0.026361157  0.025255355           17 
 3677000   0.64982158   -6.2983315    1163.7303   0.02637409  0.025248429           20 
 3678000   0.66596335    -6.322513    1164.5992  0.026386604  0.025241527           15 
 3679000   0.65934026   -6.3256879    1159.1634  0.026256306  0.025234594           19 
 3680000   0.67653767   -6.3110069    1163.6879  0.026351629  0.025227676           23 
 3681000   0.64988145    -6.305325    1165.4362  0.026384049   0.02522078           10 
 3682000   0.65241248     -6.33573    1161.3843  0.026285179  0.025213848           12 
 3683000   0.66429359   -6.3457885    1160.1056  0.026249109  0.025206918           21 
 3684000   0.65101098   -6.3620562    1161.9342  0.026283347  0.025199977           21 
 3685000   0.65750748    -6.335998    1158.6278  0.026201444  0.025193031           21 
 3686000    0.6668501   -6.3452227     1163.463  0.026303649  0.025186085           28 
 3687000   0.67274505   -6.3275903    1161.4653  0.026251362   0.02517918           14 
 3688000   0.67805885   -6.3458273    1160.9678  0.026233003  0.025172278           22 
 3689000   0.65235376   -6.3409904    1162.4475  0.026259318  0.025165371           14 
 3690000   0.66258599   -6.3318774      1164.54  0.026299457  0.025158452           18 
 3691000   0.65239254   -6.3333954     1164.265  0.026286123   0.02515158            8 
 3692000   0.65402858   -6.3240743    1162.5126  0.026239451  0.025144724           21 
 3693000   0.65094284   -6.3411618    1166.4006  0.026320079  0.025137854           15 
 3694000   0.66553728   -6.3337642    1167.3262  0.026333834  0.025131025            9 
 3695000   0.65984592   -6.3225769    1164.1941   0.02625607  0.025124159           16 
 3696000   0.66993179   -6.3018785    1162.2539  0.026205219  0.025117306           20 
 3697000   0.65240598   -6.3249679    1163.9613  0.026236617  0.025110467           22 
 3698000   0.65148523    -6.359574    1161.6491  0.026177419  0.025103584           22 
 3699000   0.65644497    -6.332737    1163.4583  0.026211101  0.025096684           17 
 3700000   0.65931113   -6.3381874    1162.6467  0.026185737  0.025089794           11 
 3701000    0.6471627   -6.3566555    1161.1426  0.026144793  0.025082913           32 
 3702000   0.65751404    -6.345466    1162.1465  0.026160329  0.025076022           14 
 3703000   0.66098307   -6.3099034    1163.8616  0.026191862   0.02506917           12 
 3704000   0.66244844   -6.3139364    1165.5614  0.026223034  0.025062354           22 
 3705000   0.65266484   -6.3083027    1169.8407  0.026312208  0.025055516            9 
 3706000   0.64939467   -6.3091391    1164.7401  0.026190413  0.025048691           14 
 3707000   0.66423684   -6.3462238     1164.679  0.026181975  0.025041867           21 
 3708000   0.64546353   -6.3593173     1163.744  0.026153902  0.025034996           23 
 3709000   0.64161632    -6.351433    1160.2514  0.026068379  0.025028076           40 
 3710000   0.64832258   -6.3222195    1161.6215  0.026092128  0.025021186           30 
 3711000     0.650541   -6.3238902    1163.5996  0.026129515  0.025014329           13 
 3712000   0.65174699   -6.3257393     1163.179  0.026113033  0.025007468           12 
 3713000   0.66603711   -6.3264618    1165.4439  0.026156834  0.025000608           11 
 3714000   0.66177719   -6.3533203     1164.225  0.026122443  0.024993768           12 
 3715000   0.66528526   -6.3389352    1165.4309   0.02614246  0.024986898            7 
 3716000   0.64642492   -6.3410297    1161.5031  0.026047342  0.024980005           28 
 3717000   0.64737788   -6.3341066    1164.0224  0.026096816  0.024973134            8 
 3718000   0.66077827   -6.3620164    1164.1918  0.026093594   0.02496626           19 
 3719000   0.65005785   -6.3280724    1164.4127  0.026091529  0.024959373            8 
 3720000   0.65487769   -6.3479631    1162.3933  0.026039276  0.024952473           11 
 3721000   0.66231394   -6.3328336    1162.5476  0.026035735  0.024945582           12 
 3722000   0.63796974    -6.345874    1160.9149  0.025992183  0.024938689           21 
 3723000   0.65614773   -6.3493381    1161.5635   0.02599972    0.0249318           28 
 3724000    0.6472732   -6.3349617    1160.6994  0.025973402  0.024924916           13 
 3725000   0.65516703   -6.3588466    1161.5871  0.025986288  0.024918028           10 
 3726000   0.65658445   -6.3214675    1163.7186  0.026026987  0.024911136           17 
 3727000   0.66374513   -6.3272008    1165.8323  0.026067264   0.02490428           14 
 3728000   0.65355396   -6.3397946    1164.5522  0.026031657  0.024897443           12 
 3729000   0.64787185   -6.3214962    1164.8963  0.026032365  0.024890582            8 
 3730000   0.66147171   -6.3206459    1166.5886  0.026063195  0.024883781           20 
 3731000   0.64252903   -6.3311334    1161.8466  0.025950295   0.02487696           36 
 3732000   0.65743279   -6.3229886    1163.5144  0.025980582  0.024870112           14 
 3733000   0.66589309   -6.3373577    1163.9068  0.025982383  0.024863268           14 
 3734000    0.6587835   -6.3534133     1161.318  0.025917649  0.024856415            9 
 3735000   0.65766238   -6.3556981    1163.2927  0.025954768  0.024849575           23 
 3736000   0.64970463   -6.3529889    1164.1055  0.025965951  0.024842718           13 
 3737000   0.65567831   -6.3408739    1165.9628  0.026000418  0.024835892           23 
 3738000   0.65270861   -6.3276414    1164.2296  0.025954824  0.024829058           11 
 3739000   0.66078949   -6.3431808    1163.6835  0.025935712  0.024822231           12 
 3740000   0.66523337   -6.3564904    1164.6103  0.025949427  0.024815384           20 
 3741000   0.64944567    -6.367565    1163.3329  0.025914035  0.024808517           11 
 3742000   0.66701992   -6.3550947    1164.5069  0.025933255  0.024801665            4 
 3743000   0.65212296   -6.3177488     1164.934  0.025935836  0.024794811           33 
 3744000   0.66324048    -6.355862    1164.6676  0.025922979   0.02478797           18 
 3745000   0.64631168   -6.3499286    1163.0015  0.025878982  0.024781099           20 
 3746000   0.65668403   -6.3427107    1161.3596  0.025835549  0.024774241           25 
 3747000   0.65775672   -6.3486211    1165.0131  0.025909908  0.024767395           15 
 3748000   0.65150136   -6.3261115    1163.2758  0.025864367  0.024760561           30 
 3749000   0.64616528   -6.3270057    1162.1821  0.025833157  0.024753718           25 
 3750000   0.65147463   -6.3407531    1165.9009  0.025908908  0.024746898           28 
 3751000    0.6533649   -6.3205099     1166.551  0.025916445  0.024740063            8 
 3752000   0.64674466   -6.3525263     1163.689  0.025845971  0.024733227           15 
 3753000   0.66274178   -6.3455725    1164.1038  0.025848296  0.024726344           22 
 3754000   0.63872721   -6.3639628    1164.0011   0.02583913  0.024719468           28 
 3755000   0.65096927   -6.3433502    1165.4933  0.025865364  0.024712618           13 
 3756000   0.67230492   -6.3247491    1166.6306   0.02588371  0.024705803           10 
 3757000   0.65866204   -6.3353777    1164.2678  0.025824413  0.024698983            8 
 3758000   0.65840388   -6.3495153    1165.2922  0.025840257   0.02469216           24 
 3759000   0.64562984   -6.3496431    1162.3488  0.025768129  0.024685339           20 
 3760000   0.65377841   -6.3687251     1162.314  0.025760506  0.024678481           28 
 3761000   0.65392053   -6.3695904    1164.9282   0.02581158  0.024671622           17 
 3762000   0.65193602   -6.3707592    1163.4746   0.02577252  0.024664754           33 
 3763000   0.64770077   -6.3611795     1162.492   0.02574391  0.024657902            9 
 3764000   0.64366357    -6.365136    1165.0469  0.025793635   0.02465105           10 
 3765000   0.63874633   -6.3392482    1165.5619  0.025798184  0.024644217           14 
 3766000   0.63643996   -6.3543878    1164.6241  0.025770582  0.024637395            9 
 3767000   0.64254072   -6.3296455     1166.066  0.025795638  0.024630592           18 
 3768000   0.64470151   -6.3332414      1167.29  0.025815862  0.024623785            6 
 3769000   0.63763705   -6.3528753    1165.6938  0.025773719  0.024616984           17 
 3770000   0.65868397   -6.3426399    1164.5852  0.025742379  0.024610157           13 
 3771000   0.65254414   -6.3466607    1162.9018  0.025698351  0.024603346           19 
 3772000   0.65251746   -6.3339899    1166.7096  0.025775662  0.024596552           23 
 3773000    0.6459978   -6.3658956    1165.4609  0.025741252  0.024589745           40 
 3774000   0.64227949    -6.344053    1165.1926  0.025728507  0.024582969           10 
 3775000   0.64179608   -6.3637651    1162.1323  0.025654135   0.02457617           16 
 3776000   0.64591866    -6.383175    1163.2297  0.025671559  0.024569343            8 
 3777000   0.64583443   -6.3737474    1162.8734  0.025656901  0.024562515            7 
 3778000   0.64459368    -6.362314    1162.8126  0.025648769  0.024555669           30 
 3779000   0.64326136   -6.3529529    1166.3444  0.025719865  0.024548845           16 
 3780000   0.65239239   -6.3741096    1164.3651  0.025669425  0.024542022           24 
 3781000   0.63878253    -6.359451    1164.3333  0.025661935   0.02453518           19 
 3782000   0.65370037   -6.3541384    1163.7902  0.025643183  0.024528384           10 
 3783000   0.64862211   -6.3783813     1162.492  0.025607806  0.024521579           14 
 3784000   0.64518867   -6.3688705    1163.9998  0.025634246  0.024514744           13 
 3785000    0.6478081   -6.3607739    1165.4473  0.025659342  0.024507944           21 
 3786000   0.63114199   -6.3590041    1163.5941  0.025611774  0.024501138           11 
 3787000     0.641142   -6.3980442    1166.0188  0.025658366  0.024494324           19 
 3788000   0.64022646   -6.3836173    1164.0225  0.025607676  0.024487501           20 
 3789000   0.64969513   -6.3676176    1165.1575  0.025625879  0.024480683            6 
 3790000    0.6521713   -6.3659217     1165.412  0.025624715  0.024473894           19 
 3791000   0.63190547   -6.3830751    1165.1027  0.025611155  0.024467064           29 
 3792000   0.64100418   -6.3771744    1163.8156  0.025576116  0.024460235           50 
 3793000   0.63983266    -6.348133    1167.0011   0.02563936  0.024453446           15 
 3794000   0.63972531   -6.3483622    1167.1037  0.025634856  0.024446707           38 
 3795000   0.64525881   -6.3589405    1163.5904  0.025550954  0.024439921           43 
 3796000     0.652002   -6.3729636    1163.0225  0.025531754  0.024433128           59 
 3797000   0.64575289   -6.3751626    1164.3698  0.025554599  0.024426336            7 
 3798000    0.6453826   -6.3619598    1164.4402  0.025549417  0.024419536           18 
 3799000   0.63303135   -6.3803428    1164.4652  0.025543238  0.024412702           16 
 3800000   0.64046555   -6.3814511    1165.5415  0.025560121  0.024405907           20 
 3801000     0.658125    -6.360804    1164.1759  0.025523457  0.024399098           24 
 3802000    0.6624872   -6.3754179    1166.2082  0.025561288   0.02439232           16 
 3803000   0.64623913   -6.3829387    1164.1344  0.025509124  0.024385524           12 
 3804000   0.65764419   -6.4086046    1162.9902  0.025477353  0.024378692           55 
 3805000   0.63455934   -6.4035935    1162.8457  0.025467492  0.024371853           37 
 3806000   0.64662403      -6.3934      1163.37   0.02547228  0.024365008           46 
 3807000   0.63862865   -6.3996166    1162.3701  0.025443703  0.024358155           39 
 3808000   0.64982532    -6.370599    1163.5866  0.025463643   0.02435132           45 
 3809000    0.6550693   -6.3896612    1162.8335  0.025440481  0.024344483           27 
 3810000   0.64674799   -6.3727747    1163.7916  0.025454758  0.024337667           45 
 3811000     0.642103   -6.3922235    1163.9491  0.025451525  0.024330854           20 
 3812000   0.63428955   -6.3665339    1165.5191   0.02547917  0.024324081           23 
 3813000   0.65245703   -6.3832777    1167.1263  0.025507612  0.024317314           27 
 3814000    0.6427011   -6.3788145    1165.6805  0.025469334  0.024310526           24 
 3815000   0.63615889   -6.3735072    1165.6344  0.025461651  0.024303747           19 
 3816000   0.64298096   -6.3947668    1162.4369  0.025385152  0.024296942           25 
 3817000     0.651632   -6.4099432    1164.1797   0.02541655  0.024290119           24 
 3818000   0.64078272   -6.3978068    1166.0701  0.025451154  0.024283304           19 
 3819000   0.64554413    -6.376676    1165.4563  0.025431098  0.024276491           14 
 3820000   0.62988714   -6.3828059    1163.7146  0.025386445   0.02426969           48 
 3821000   0.64278921   -6.3791522    1165.0107  0.025408067  0.024262899           18 
 3822000   0.64150978   -6.3932677    1166.7715   0.02543981  0.024256108           44 
 3823000   0.63142788   -6.3718994    1163.6082  0.025364203  0.024249342           18 
 3824000   0.65592395   -6.3656038    1165.7848  0.025405004  0.024242561           26 
 3825000   0.65625634   -6.3797956    1166.4677   0.02541324  0.024235792           23 
 3826000   0.64591156   -6.3965837    1166.0449  0.025397389   0.02422901           24 
 3827000   0.64268719   -6.3866179    1164.6166  0.025359652  0.024222214           35 
 3828000   0.63520394   -6.3806332    1166.3594  0.025390966  0.024215434           20 
 3829000   0.63726875   -6.3728648    1166.3342  0.025383785   0.02420867           18 
 3830000   0.62922327    -6.395567    1165.9107  0.025367943  0.024201872           20 
 3831000   0.62873351   -6.4180023    1162.0925  0.025278267  0.024195074           29 
 3832000   0.63187164   -6.4042842    1164.8027  0.025330609  0.024188259            9 
 3833000   0.64005549    -6.395396    1164.7052  0.025321879  0.024181446           14 
 3834000   0.62835063   -6.4025984    1160.2884  0.025219276  0.024174658           21 
 3835000   0.62503668   -6.3884617    1163.1636  0.025275176  0.024167881           31 
 3836000   0.63579858   -6.3793075    1166.0198  0.025330635  0.024161112           14 
 3837000   0.64751809   -6.3619294    1167.3433  0.025352778  0.024154325           21 
 3838000   0.62847086   -6.3851345    1163.5629   0.02526409  0.024147525           14 
 3839000   0.63955461   -6.4152707    1161.6683  0.025216382  0.024140723           30 
 3840000    0.6401722   -6.4002796    1165.4551  0.025291994  0.024133928           12 
 3841000   0.63307481   -6.4072313    1165.7658  0.025292151   0.02412717           25 
 3842000   0.64581577   -6.3858293    1165.3602  0.025276769  0.024120419            9 
 3843000    0.6343539   -6.3634858    1165.8008  0.025279747  0.024113644           12 
 3844000   0.64449954   -6.3918729    1167.2063  0.025303641  0.024106892           20 
 3845000   0.64155183   -6.3875728    1163.6214  0.025219364  0.024100136           20 
 3846000   0.63672094   -6.3754682    1165.7576  0.025259092  0.024093397           33 
 3847000    0.6069032   -6.3884358    1167.0186  0.025279841  0.024086651           12 
 3848000   0.64675127   -6.3951771    1163.6109  0.025199473   0.02407988           71 
 3849000   0.63634211   -6.4069404    1165.5985   0.02523596  0.024073113           19 
 3850000   0.64502942   -6.4020857    1165.7242  0.025232126  0.024066363           40 
 3851000   0.63767722   -6.3898728    1163.9744  0.025187708  0.024059608           59 
 3852000   0.63907468   -6.4469924     1162.875  0.025157385  0.024052824           27 
 3853000   0.63276421   -6.3798441    1164.1569  0.025178582  0.024046069           36 
 3854000   0.63832589    -6.403881    1163.9545  0.025167673  0.024039319           54 
 3855000   0.63074698   -6.3947865    1166.7952   0.02522255  0.024032573           54 
 3856000   0.64135851   -6.4067894    1163.5447  0.025145763  0.024025821           36 
 3857000   0.63567508   -6.4030183    1164.3455  0.025156545  0.024019034           40 
 3858000   0.62743607   -6.3949425    1163.9749  0.025142018   0.02401225           47 
 3859000   0.63569593   -6.3762999    1164.4216  0.025145149  0.024005501           39 
 3860000   0.62008924   -6.3674411    1164.8028  0.025146866  0.023998776           40 
 3861000   0.62544835   -6.3943548    1165.4913  0.025155213  0.023992047           33 
 3862000   0.64991658   -6.4085235    1166.2221  0.025164468  0.023985306           30 
 3863000   0.63362983   -6.3909181    1164.6559  0.025124167  0.023978549           13 
 3864000   0.63241558   -6.3840981    1165.3389  0.025132395  0.023971792           24 
 3865000   0.64067118   -6.3823355    1163.4793  0.025085797  0.023965041           29 
 3866000   0.64760914   -6.4068628    1164.7246  0.025106151   0.02395833           36 
 3867000   0.63448763    -6.394013     1165.245  0.025110873   0.02395159           47 
 3868000   0.63714281   -6.4143688    1164.9776  0.025098622  0.023944835           80 
 3869000   0.62126648   -6.4121908    1167.0234  0.025136199  0.023938083           99 
 3870000   0.63771379    -6.401322    1164.3565  0.025072276  0.023931341           74 
 3871000   0.63343479   -6.4150085    1165.6732  0.025094145  0.023924606           66 
 3872000   0.63841629   -6.3996981    1164.5305   0.02506307  0.023917858           35 
 3873000   0.62960461   -6.4139893    1165.0657  0.025068115  0.023911109           34 
 3874000   0.64097612   -6.4080552    1161.0578   0.02497543  0.023904369           51 
 3875000   0.61757088   -6.3848637    1164.7383  0.025048136  0.023897584           62 
 3876000   0.62981072   -6.4243124    1162.7429  0.024998772  0.023890797           88 
 3877000   0.63417056   -6.4100484    1161.2533  0.024960306   0.02388403           69 
 3878000   0.64933589   -6.3821468    1162.6634  0.024984171  0.023877242           38 
 3879000   0.64481911   -6.4234527    1163.4298  0.024994194  0.023870467           48 
 3880000   0.65433785   -6.4122958    1163.2634  0.024984179  0.023863696           23 
 3881000   0.62701284   -6.4005066    1162.0933  0.024952616  0.023856953           35 
 3882000   0.64910811   -6.3991124    1164.4512  0.024996805  0.023850203           19 
 3883000   0.63701832   -6.3973414    1167.5563  0.025057007  0.023843472           20 
 3884000   0.63964378   -6.4124053    1165.1093  0.024998053  0.023836724           21 
 3885000    0.6391385   -6.4027631    1164.6628  0.024982041  0.023829985           36 
 3886000   0.62668425   -6.3977261    1164.7286  0.024977025   0.02382324           22 
 3887000   0.62510043   -6.4287008    1162.8529  0.024930386  0.023816513           18 
 3888000   0.62907603   -6.3995554    1166.2217  0.024996177  0.023809777           19 
 3889000   0.62059434   -6.4364903    1163.2099  0.024925214  0.023803049           27 
 3890000   0.62811212   -6.3908915    1165.6274  0.024970596  0.023796322           23 
 3891000    0.6344879   -6.4011883    1164.9882  0.024950488  0.023789604           13 
 3892000   0.63070334   -6.3991467    1165.7052  0.024959429  0.023782891           35 
 3893000   0.62208912   -6.4075756    1167.3261  0.024987715  0.023776195           14 
 3894000   0.61571566   -6.4042716    1164.0747  0.024911717  0.023769485           18 
 3895000   0.63755272   -6.3982199    1163.0423  0.024883234  0.023762768           23 
 3896000    0.6271089   -6.4050225     1163.292  0.024882187  0.023756071           22 
 3897000   0.63341585   -6.4126452    1166.1043  0.024935939   0.02374935           23 
 3898000   0.62192163   -6.4204501    1164.0985  0.024886661  0.023742616           33 
 3899000   0.61870461   -6.4025288    1163.0298  0.024857438  0.023735855           31 
 3900000   0.62547672    -6.409168     1160.638  0.024799957  0.023729118           36 
 3901000   0.63196175    -6.385359    1164.0671  0.024866852  0.023722394           16 
 3902000    0.6137787   -6.4106283    1161.5433  0.024806581  0.023715667           21 
 3903000   0.62279647   -6.4114121    1163.5618  0.024843321  0.023708919           23 
 3904000   0.61784853   -6.4095789    1162.6196  0.024816846  0.023702175           23 
 3905000   0.62447869   -6.4216927    1162.7464  0.024813197  0.023695424           42 
 3906000     0.612435   -6.4204764    1166.1314  0.024879062  0.023688649           26 
 3907000   0.62858268   -6.4196314    1161.4002  0.024771782  0.023681872           29 
 3908000   0.61749791   -6.4219481    1164.1793  0.024824704  0.023675108           16 
 3909000   0.63154015    -6.418488    1165.0214  0.024836306  0.023668356           22 
 3910000   0.62758225   -6.4003314    1161.4048  0.024752873  0.023661648           35 
 3911000   0.61362518   -6.4118462    1163.0556  0.024781717  0.023654942           38 
 3912000   0.61517891   -6.4051988     1163.865  0.024792625   0.02364822           30 
 3913000   0.63171705   -6.4094103     1165.477   0.02482062  0.023641511           23 
 3914000   0.63018458   -6.4212781    1163.3751  0.024769527  0.023634785           42 
 3915000   0.62335253   -6.3955998     1163.985  0.024776182   0.02362806           35 
 3916000   0.61736778   -6.4212418    1162.0881  0.024729487  0.023621345           69 
 3917000   0.62691381   -6.4040085    1161.6777  0.024714443  0.023614578           33 
 3918000   0.61849697   -6.4272109    1164.5071  0.024768314  0.023607835           33 
 3919000   0.60211632   -6.4261783    1162.8114  0.024725939  0.023601083           25 
 3920000   0.61462852   -6.4058888    1162.3577  0.024709984  0.023594348           17 
 3921000   0.63410661   -6.4192841    1161.7226  0.024690184   0.02358762           11 
 3922000    0.6165258   -6.4133328    1164.4981  0.024742862  0.023580878           22 
 3923000   0.63994543   -6.4191355    1164.8498  0.024744026  0.023574167           17 
 3924000   0.61460414   -6.4279386    1162.4496  0.024686748   0.02356743           32 
 3925000   0.62357088   -6.4176865    1162.9485  0.024691051  0.023560693           44 
 3926000    0.6344227   -6.4388116    1161.9201  0.024662933  0.023553963           32 
 3927000   0.61147245   -6.4369379     1163.421  0.024688504  0.023547213           17 
 3928000   0.62199762   -6.4366873    1162.5732  0.024664231   0.02354046           46 
 3929000   0.61179659   -6.4251728    1164.1564  0.024691533  0.023533725           32 
 3930000   0.62468943   -6.4065741    1166.2999  0.024730703  0.023527012           38 
 3931000   0.63599155   -6.4141905    1165.4475  0.024706341  0.023520311           46 
 3932000   0.61642426   -6.4622465    1163.7298  0.024663654  0.023513575           61 
 3933000   0.62648515   -6.4354012    1164.8068  0.024680202  0.023506859           40 
 3934000   0.62495966     -6.42999    1162.4819  0.024624679  0.023500143           23 
 3935000   0.61957499   -6.4397717    1163.5238  0.024640486  0.023493418           32 
 3936000   0.62025662   -6.4186823    1162.4758  0.024612039  0.023486707           75 
 3937000   0.62790945   -6.4142291     1164.919  0.024657501  0.023479986           39 
 3938000   0.61933299    -6.439425    1161.6029  0.024581067   0.02347328           20 
 3939000   0.62044996   -6.4299603    1164.3767  0.024633509  0.023466579           74 
 3940000    0.6207751   -6.4379133    1164.5722  0.024631391  0.023459877           23 
 3941000   0.62417173   -6.4304135    1165.4207  0.024643083  0.023453158           27 
 3942000   0.61534905    -6.429209    1163.5586  0.024597468  0.023446454           30 
 3943000   0.62438053   -6.4423725    1164.3552  0.024608065  0.023439737           42 
 3944000   0.61874259   -6.4493841    1161.2412   0.02453603  0.023433011           13 
 3945000    0.6170492   -6.4609787    1162.1508  0.024549024  0.023426278           16 
 3946000    0.6153066   -6.4233732    1162.4964  0.024550101   0.02341955           30 
 3947000   0.61920677    -6.425688    1164.4241  0.024584581   0.02341287           35 
 3948000   0.61719674   -6.4249695    1166.3218  0.024618411   0.02340619           20 
 3949000   0.61058905   -6.4393589    1163.3219  0.024548872  0.023399503           43 
 3950000   0.61637587   -6.4216459    1166.2182   0.02460376  0.023392811           30 
 3951000   0.62490151   -6.4090518    1167.1554    0.0246173  0.023386169           22 
 3952000   0.62389155   -6.4337467    1166.6812  0.024601072  0.023379504           19 
 3953000    0.6206981   -6.4510753    1164.3226  0.024545127  0.023372801           20 
 3954000   0.62376996   -6.4532288    1162.6352  0.024503355  0.023366101           19 
 3955000   0.60707257   -6.4290421    1164.3914  0.024534163  0.023359422           33 
 3956000    0.6051792   -6.4490415    1164.2715  0.024525436  0.023352732           15 
 3957000   0.60987829   -6.4466229     1164.278  0.024519374  0.023346052           13 
 3958000   0.61163727   -6.4439202    1163.5541  0.024497939  0.023339377           31 
 3959000   0.61570289   -6.4492579    1164.9171   0.02452044  0.023332707           32 
 3960000   0.62754525   -6.4508204    1165.5942  0.024528498  0.023326023           28 
 3961000   0.61021635   -6.4338946     1164.282  0.024494698  0.023319342           18 
 3962000   0.61590086   -6.4211678      1161.64  0.024432946  0.023312666           11 
 3963000   0.61431775   -6.4482434    1165.1306  0.024500181     0.023306           17 
 3964000   0.60986441    -6.421677    1165.3492  0.024498595   0.02329935           12 
 3965000    0.6128532    -6.445918    1166.0075  0.024506252  0.023292693           21 
 3966000   0.61471535   -6.4686293     1162.884  0.024434443  0.023286034           40 
 3967000   0.60537726   -6.4355343    1163.0731  0.024432256  0.023279398           19 
 3968000   0.61681515   -6.4294803    1165.3374  0.024473652  0.023272759           29 
 3969000   0.61342015   -6.4388058    1165.6072  0.024473149  0.023266075           20 
 3970000   0.62409582   -6.4591939    1164.2494  0.024438484  0.023259425           36 
 3971000   0.63544289     -6.44006    1164.3764  0.024434996  0.023252771           36 
 3972000    0.6066204   -6.4468418     1163.032  0.024400637  0.023246115           13 
 3973000   0.62679431   -6.4590968    1162.5166  0.024383686  0.023239427           29 
 3974000   0.61162872   -6.4866617    1163.5225  0.024398643  0.023232733           17 
 3975000   0.61991897   -6.4773026    1162.5897   0.02437295   0.02322604           22 
 3976000    0.6259978   -6.4914427     1164.435  0.024405496  0.023219339           19 
 3977000   0.61815813   -6.4771471    1164.5953  0.024402717  0.023212657           17 
 3978000   0.61961868   -6.4330205    1164.4065  0.024392628  0.023205979           52 
 3979000   0.61633069   -6.4495059    1163.7018   0.02437174  0.023199331           27 
 3980000    0.6187239   -6.4394074    1165.1096  0.024395092  0.023192693           13 
 3981000   0.61478607   -6.4402877    1164.6427  0.024379191  0.023186069           16 
 3982000   0.61773141   -6.4650462    1165.4204  0.024389344  0.023179448           15 
 3983000   0.61750423   -6.4628201    1163.7602  0.024348486   0.02317282           27 
 3984000   0.61493002   -6.4332954    1164.5581  0.024359062  0.023166159           19 
 3985000   0.61037065    -6.465344    1161.4224  0.024287377  0.023159524           20 
 3986000   0.60991528   -6.4549811    1162.7836  0.024309742  0.023152868           27 
 3987000   0.62072969   -6.4322564    1163.7329  0.024323486  0.023146217           17 
 3988000   0.61765606   -6.4650719    1163.6388  0.024315421  0.023139567           32 
 3989000   0.62098368   -6.4665256    1163.9645  0.024316129  0.023132917           39 
 3990000   0.60432604    -6.462291     1165.377  0.024339537  0.023126277           30 
 3991000   0.61780772   -6.4388843    1164.1907  0.024308667  0.023119627           36 
 3992000   0.61302974   -6.4466974    1162.8807  0.024275232  0.023112975           29 
 3993000    0.6175074   -6.4831309    1160.8867  0.024227539  0.023106331           40 
 3994000   0.61443517   -6.4775544    1162.7657  0.024260676  0.023099656           41 
 3995000   0.62281719   -6.4671279    1163.1718  0.024263074  0.023093003           43 
 3996000   0.61601904   -6.4536809     1163.181  0.024257195  0.023086348           68 
 3997000   0.60795938   -6.4544204    1163.9177  0.024266486  0.023079721           61 
 3998000   0.61554764   -6.4556594    1166.1024  0.024305954  0.023073093           43 
 3999000   0.61459998   -6.4517541    1165.0958  0.024278899  0.023066462           63 
 4000000   0.61517656    -6.447361    1165.1146  0.024273221  0.023059838           74 
 4001000   0.61010395    -6.463441     1165.009  0.024264955  0.023053212           46 
 4002000   0.59646794   -6.4301083    1164.5324  0.024248967  0.023046611           62 
 4003000   0.61271762   -6.4424019    1163.4092  0.024219526  0.023040024           34 
 4004000   0.59152463   -6.4298232    1166.2076   0.02427172  0.023033452           88 
 4005000   0.61304006    -6.455598    1164.5236   0.02423062  0.023026832          109 
 4006000    0.6171245   -6.4427706    1164.3063   0.02422005  0.023020227           80 
 4007000   0.60723065   -6.4347582    1166.4734  0.024259076  0.023013639           74 
 4008000   0.61320955   -6.4577942    1165.5051  0.024232891  0.023007036           96 
 4009000   0.59499814   -6.4833642    1163.1038   0.02417693  0.023000415           90 
 4010000    0.6157449   -6.4621687    1163.5461  0.024180093  0.022993802           52 
 4011000   0.60780222   -6.4805329    1162.6758  0.024155983  0.022987183           57 
 4012000   0.61349669   -6.4715498    1162.7921  0.024152378  0.022980574           55 
 4013000   0.61249918   -6.4607542    1165.7523  0.024207831  0.022973956           72 
 4014000   0.60803769   -6.4670246    1164.0243  0.024165925  0.022967352           89 
 4015000    0.6149963   -6.4727995    1164.0665  0.024160782  0.022960736           82 
 4016000   0.60261631   -6.4249664    1166.2796   0.02420069   0.02295415          150 
 4017000   0.60731231   -6.4587929    1163.5358  0.024137743  0.022947589          109 
 4018000   0.60898681   -6.4753993    1163.0661  0.024121995  0.022940995          101 
 4019000   0.60733458    -6.483012    1163.0944   0.02411658  0.022934426          131 
 4020000   0.61461836   -6.4588019    1167.7095  0.024206251  0.022927874           94 
 4021000   0.60589093   -6.4602041    1167.2259  0.024190207  0.022921313           63 
 4022000   0.61392599   -6.4695004    1162.1951  0.024079959  0.022914757           87 
 4023000   0.61151257   -6.4744144    1164.9961  0.024131993  0.022908198          139 
 4024000     0.605123   -6.4646628    1167.2476  0.024172622  0.022901622          126 
 4025000   0.60310272   -6.4720421    1164.0489  0.024100391  0.022895067          158 
 4026000   0.60784037   -6.4830875    1164.7296  0.024108495  0.022888502          118 
 4027000   0.60395341   -6.4783792    1164.3247   0.02409413   0.02288194          105 
 4028000   0.61493419   -6.4713955      1165.52  0.024112876  0.022875376           97 
 4029000   0.60287271   -6.4675829    1164.0323  0.024076122  0.022868789          147 
 4030000   0.60803583   -6.4686608    1163.8214  0.024065785  0.022862225           65 
 4031000   0.61463025   -6.4832945    1165.3111  0.024090613  0.022855655          101 
 4032000   0.62261544     -6.47783    1165.7941   0.02409462  0.022849096          127 
 4033000   0.60994708   -6.4782447    1164.4455  0.024060781  0.022842532          136 
 4034000   0.61233709   -6.5022863    1164.7291  0.024060673   0.02283594          106 
 4035000   0.60352309   -6.5029073    1160.7167  0.023971844  0.022829341          156 
 4036000    0.6098766   -6.4966842    1163.3327  0.024019919  0.022822741          142 
 4037000   0.60522193   -6.5034587    1163.1383  0.024009956  0.022816159          140 
 4038000    0.5968248   -6.5024932    1161.1294  0.023962551  0.022809563          133 
 4039000   0.62406398   -6.5062286    1162.6159  0.023987288  0.022802956          176 
 4040000   0.61317198    -6.489416     1164.341  0.024016936  0.022796371          101 
 4041000   0.61890791   -6.4819296    1162.1323  0.023965444   0.02278979           93 
 4042000   0.60376642   -6.4994612    1164.0955  0.023999989  0.022783212           91 
 4043000   0.60253154    -6.486933    1164.3341  0.023998972  0.022776644           91 
 4044000   0.61243579   -6.4834292      1163.72  0.023980382  0.022770067           98 
 4045000   0.61602656   -6.4938143    1163.3342  0.023966507  0.022763501           68 
 4046000   0.59479768   -6.4896287    1163.9821  0.023973926  0.022756959           68 
 4047000   0.61273843   -6.4999957    1165.0209  0.023989394  0.022750406           72 
 4048000   0.61400195   -6.4949336    1165.1044  0.023985186  0.022743856          130 
 4049000   0.59826943    -6.473664    1165.4615  0.023986612  0.022737303           81 
 4050000   0.59629855   -6.4920844    1164.1324  0.023953342  0.022730763          111 
 4051000   0.61094937   -6.5101247    1165.8868  0.023983519  0.022724222          101 
 4052000   0.59965707   -6.4734036    1165.3557  0.023966677  0.022717679          223 
 4053000   0.60693054   -6.4866338    1163.7029  0.023926781  0.022711141          205 
 4054000   0.61191626    -6.488891    1164.2961  0.023933073  0.022704588          164 
 4055000   0.61166257   -6.5007845    1163.9922  0.023920925  0.022698048          163 
 4056000   0.59652584   -6.4699884    1163.3965  0.023902789  0.022691478          158 
 4057000   0.60419849   -6.5049648    1160.4719  0.023836823  0.022684908          140 
 4058000   0.59954635   -6.4908552    1164.8945   0.02392177  0.022678345          185 
 4059000   0.59293877   -6.4766274     1163.657  0.023890469  0.022671806          175 
 4060000   0.60531584   -6.5009482    1163.6955  0.023885375  0.022665262          222 
 4061000   0.60189373   -6.5085294    1165.4135  0.023914747  0.022658726          228 
 4062000   0.60359476    -6.509248    1163.1633  0.023862697  0.022652169          191 
 4063000   0.59595648   -6.5120154    1165.6999  0.023908849  0.022645627          206 
 4064000   0.60160891   -6.5247187    1163.6618  0.023861175  0.022639081          172 
 4065000   0.61896477   -6.5136624    1161.5564  0.023812144  0.022632516          127 
 4066000   0.59184737   -6.4873603    1162.6232  0.023828151  0.022625963          219 
 4067000   0.61338388   -6.4970648    1161.7369  0.023804132  0.022619432          213 
 4068000   0.59766885   -6.4953884    1162.7884  0.023819822  0.022612874          175 
 4069000    0.5954617   -6.4892604     1165.175  0.023862845  0.022606337          155 
 4070000   0.61097997   -6.4891884    1163.0144  0.023812744  0.022599806          179 
 4071000   0.60633501    -6.496845    1163.2586  0.023811893  0.022593281          220 
 4072000   0.60385338   -6.4963219    1162.7468  0.023795571  0.022586731          172 
 4073000   0.59370629   -6.5019589    1161.6652  0.023767601   0.02258018          168 
 4074000   0.60637323   -6.5093477    1162.2578  0.023773888  0.022573622          143 
 4075000   0.59280452   -6.5290485     1163.359  0.023790573  0.022567082          161 
 4076000   0.58916145   -6.5315412    1162.5836  0.023768884  0.022560525          208 
 4077000   0.59849827   -6.4945692    1164.7199  0.023806719  0.022553954          183 
 4078000   0.59942177   -6.5016821    1166.6823  0.023840982  0.022547408          171 
 4079000   0.59772337   -6.5168941    1161.7352  0.023734068  0.022540865          147 
 4080000   0.59898272   -6.5176425    1163.0163  0.023754419  0.022534323           99 
 4081000   0.60448058   -6.4795294    1162.2474  0.023732897  0.022527775          119 
 4082000   0.59389723   -6.5243084    1162.7111  0.023736548  0.022521223          140 
 4083000   0.59802769   -6.5011041    1163.8924  0.023754845  0.022514659          130 
 4084000   0.60058343   -6.5154995    1163.3256  0.023737464  0.022508091           76 
 4085000   0.60208508   -6.5013554    1162.2675  0.023710067  0.022501551           85 
 4086000   0.59014651   -6.5111781    1162.2792  0.023704502     0.022495          200 
 4087000   0.58002114   -6.5225695    1162.1653   0.02369638  0.022488438          216 
 4088000   0.58999597   -6.4915749    1161.4763  0.023676538  0.022481887           84 
 4089000   0.59847765   -6.4977174    1163.9173  0.023720497  0.022475356          133 
 4090000   0.59955851   -6.5093471    1163.0887  0.023697814  0.022468811          190 
 4091000   0.60238088   -6.5019879    1163.0797  0.023691838  0.022462255          157 
 4092000   0.60016202    -6.531088    1161.4284  0.023652419  0.022455711          259 
 4093000   0.58379895    -6.510379    1163.8195  0.023695323  0.022449158          228 
 4094000   0.59583254    -6.528516    1160.2165  0.023616197  0.022442589          150 
 4095000   0.59502271   -6.5168476    1160.0991  0.023608041  0.022436024          156 
 4096000   0.61004366   -6.5125396    1161.0373  0.023621365  0.022429445          207 
 4097000   0.59651307   -6.5109278    1160.8013  0.023610798  0.022422894          235 
 4098000   0.60682921   -6.4901215     1164.494  0.023680129  0.022416373          254 
 4099000   0.60249492   -6.5181913    1159.6258   0.02357538  0.022409844          203 
 4100000   0.60313296   -6.5096605    1163.3465  0.023645254  0.022403311          153 
 4101000   0.59522295   -6.5347724    1163.4757  0.023642114  0.022396777          255 
 4102000   0.60517473   -6.5531916    1159.1761  0.023549002  0.022390224          264 
 4103000   0.61132198   -6.5365928    1161.4022  0.023588476  0.022383687          177 
 4104000   0.60120938   -6.5090394    1163.9465  0.023634392  0.022377142          178 
 4105000    0.5838509   -6.5220073    1160.0732  0.023550004  0.022370607          188 
 4106000   0.59569777   -6.5399974    1164.1552  0.023627115  0.022364066          135 
 4107000    0.6029934   -6.5290525    1162.4167  0.023586086  0.022357513          161 
 4108000   0.59268942   -6.5305707    1161.6066  0.023563912  0.022350979          203 
 4109000   0.58971466   -6.5087618    1162.5241  0.023576784  0.022344454          146 
 4110000   0.60618826   -6.5331243     1161.969  0.023559793   0.02233793          205 
 4111000   0.60942985   -6.5388421    1163.2825  0.023580689  0.022331404          164 
 4112000   0.59040654   -6.5118844    1164.0343  0.023590189   0.02232489          224 
 4113000   0.58208739   -6.5224379    1161.1105  0.023525215  0.022318391          180 
 4114000   0.59776902   -6.5473869    1161.9029  0.023535547  0.022311873          119 
 4115000   0.58645182   -6.5301272    1161.6152  0.023524002  0.022305353          113 
 4116000   0.59618036   -6.5208642    1163.2549  0.023551483  0.022298818          159 
 4117000    0.5893159    -6.545058    1158.7806  0.023455199  0.022292301          150 
 4118000   0.59380431   -6.5055754    1159.7097  0.023468304  0.022285776          176 
 4119000   0.59556057   -6.5296477    1162.4209  0.023517458  0.022279249          244 
 4120000   0.59230027   -6.5402562    1160.5834  0.023474584  0.022272725          226 
 4121000   0.58566807   -6.5249106    1160.4259  0.023465703  0.022266195          270 
 4122000   0.58488572   -6.5398222    1159.6121  0.023443556  0.022259668          165 
 4123000   0.58364553   -6.5318329    1162.6367  0.023499004  0.022253135          193 
 4124000   0.58540913    -6.542704     1162.921   0.02349905  0.022246606          165 
 4125000   0.59094005   -6.5459082     1161.794  0.023470586  0.022240091          162 
 4126000   0.59163381   -6.5426125     1160.998  0.023448821  0.022233561          156 
 4127000   0.58131962   -6.5385481     1159.311  0.023409075  0.022227028          182 
 4128000   0.58861519   -6.5401812    1163.8106  0.023494238  0.022220492          228 
 4129000    0.5784113   -6.5324991    1162.0353  0.023452718  0.022213958          233 
 4130000   0.59903599   -6.5198225    1161.4768  0.023435772  0.022207445          245 
 4131000   0.58522928   -6.5574698    1160.7729  0.023415899  0.022200929          175 
 4132000   0.58934751   -6.5271236    1162.6914  0.023448923  0.022194408          148 
 4133000    0.5908176   -6.5414437    1160.8973  0.023407075  0.022187888          147 
 4134000   0.58680691    -6.544911    1162.7137  0.023438029   0.02218138          300 
 4135000   0.58318518   -6.5359168    1162.6343   0.02343076  0.022174862          311 
 4136000   0.57452117   -6.5384106    1161.6341  0.023404942  0.022168347          234 
 4137000   0.60556113   -6.5395699    1161.2619  0.023391787  0.022161842          244 
 4138000   0.58601579   -6.5442166    1158.4519  0.023329545  0.022155325          292 
 4139000   0.59806428   -6.5513058    1161.0384  0.023375986  0.022148809          274 
 4140000   0.58975295   -6.5395775    1161.7352  0.023384363  0.022142281          223 
 4141000    0.5800643   -6.5579052     1160.987  0.023363661  0.022135756          305 
 4142000   0.59002905   -6.5648021    1159.8011   0.02333416  0.022129211          327 
 4143000   0.59497144   -6.5508042    1160.2954   0.02333847  0.022122656          273 
 4144000   0.59807871   -6.5445727    1160.9881  0.023346769  0.022116134          254 
 4145000   0.59408761   -6.5409086    1160.4123   0.02332956  0.022109604          305 
 4146000   0.60084179   -6.5649376    1158.5353  0.023286205  0.022103087          295 
 4147000   0.59570889   -6.5377958    1161.0661  0.023331447  0.022096558          269 
 4148000   0.59698841   -6.5497754    1160.8748  0.023321979  0.022090028          248 
 4149000   0.58669251   -6.5782288    1159.8966  0.023296709  0.022083496          312 
 4150000   0.59774873   -6.5407378    1159.2417  0.023277946  0.022076984          308 
 4151000   0.59457609   -6.5378944    1159.8844  0.023285241  0.022070481          303 
 4152000   0.58535508    -6.532457    1162.3576   0.02332927  0.022063983          203 
 4153000   0.59279199   -6.5532242    1159.7148  0.023270624  0.022057481          302 
 4154000   0.58849164   -6.5431668    1162.9657  0.023330239  0.022050964          340 
 4155000   0.57966277   -6.5541938    1159.6702  0.023258527   0.02204447          398 
 4156000   0.57879372   -6.5444992     1158.392  0.023227302  0.022037967          454 
 4157000   0.59222296   -6.5585388    1160.0598  0.023255148  0.022031451          231 
 4158000   0.59515456   -6.5569062    1160.0912  0.023250184  0.022024938          395 
 4159000   0.58295352   -6.5618016    1159.6156  0.023235065  0.022018427          350 
 4160000    0.5968067   -6.5361448    1162.2577  0.023282405  0.022011921          427 
 4161000   0.57853597   -6.5367147    1159.0002  0.023211571  0.022005442          334 
 4162000   0.58976381   -6.5409992    1159.5357  0.023216716  0.021998953          313 
 4163000   0.57609042   -6.5462635    1157.4655  0.023169699  0.021992445          305 
 4164000   0.57741962   -6.5504199     1158.857  0.023191983  0.021985945          234 
 4165000   0.57973067   -6.5558963    1160.4108  0.023217502  0.021979464          237 
 4166000   0.59135293   -6.5311984    1162.4408  0.023252537  0.021972994          276 
 4167000   0.58762854    -6.543007    1160.9036  0.023216215  0.021966538          222 
 4168000   0.60145358   -6.5470687    1161.5949  0.023224467  0.021960084          212 
 4169000    0.5814787   -6.5516102    1160.9661  0.023206326  0.021953617          264 
 4170000   0.58562101   -6.5397402    1161.8193  0.023217812  0.021947169          237 
 4171000   0.58681569   -6.5252503    1164.0392  0.023256597   0.02194074          235 
 4172000   0.57274603   -6.5626605    1161.6173  0.023202646  0.021934281          206 
 4173000    0.5822651    -6.526275    1160.9343  0.023183447  0.021927828          235 
 4174000   0.59464397   -6.5365472    1160.0624  0.023160485  0.021921367          264 
 4175000   0.58621046   -6.5465677    1162.7418  0.023208419   0.02191492          279 
 4176000   0.58675807   -6.5641538    1161.5034   0.02317815  0.021908457          310 
 4177000   0.57204626   -6.5580396      1160.88  0.023160163   0.02190201          347 
 4178000   0.59818511   -6.5421538    1159.7846  0.023132771  0.021895564          320 
 4179000   0.58491924   -6.5313448    1160.9642  0.023150758  0.021889106          312 
 4180000   0.57340399   -6.5418229    1159.4844  0.023115718  0.021882662          368 
 4181000   0.58559799   -6.5679234    1161.7773  0.023155889  0.021876218          318 
 4182000   0.57943064   -6.5654777    1159.4024  0.023103028  0.021869774          331 
 4183000   0.58215819   -6.5775903    1158.1274  0.023072106  0.021863306          282 
 4184000    0.5811211   -6.5368931    1161.8104  0.023139945  0.021856854          317 
 4185000   0.58261513   -6.5729947    1161.0148  0.023118574  0.021850389          317 
 4186000   0.59043624   -6.5690356    1159.7871  0.023088611  0.021843934          327 
 4187000   0.57372725   -6.5660232    1161.0363  0.023107959  0.021837473          379 
 4188000   0.57602171   -6.5661535    1159.9103  0.023080037   0.02183102          297 
 4189000    0.5909483   -6.5490717    1161.5487   0.02310712  0.021824585          297 
 4190000   0.58130054   -6.5673166    1158.9555  0.023050029   0.02181813          296 
 4191000   0.58176466   -6.5480422    1160.3543  0.023072343  0.021811668          333 
 4192000   0.58135723   -6.5564846    1159.6425   0.02305269  0.021805216          332 
 4193000   0.58497551    -6.567597     1160.335  0.023060956  0.021798764          279 
 4194000   0.57625752    -6.542137    1160.2374  0.023053517   0.02179233          394 
 4195000   0.58434351   -6.5478562    1163.6725   0.02311626  0.021785901          378 
 4196000   0.56873357   -6.5468871     1161.345  0.023064525  0.021779465          360 
 4197000   0.56955952   -6.5550058    1159.9733  0.023031794  0.021773018          332 
 4198000   0.58448502   -6.5674842    1158.8416  0.023003843  0.021766572          352 
 4199000   0.56955486   -6.5358563    1161.2096  0.023045361   0.02176017          365 
 4200000   0.57932221   -6.5329486    1162.4163  0.023063815  0.021753751          283 
 4201000   0.59977765   -6.5659836    1159.4481  0.022999446   0.02174734          368 
 4202000   0.59251489   -6.5681056    1159.7337  0.022999637  0.021740918          392 
 4203000   0.58590216   -6.5482392    1159.2315  0.022984208  0.021734496          407 
 4204000   0.58022704   -6.5611162    1161.5347  0.023024395  0.021728072          396 
 4205000   0.57874511   -6.5534897    1160.9052  0.023006444  0.021721634          428 
 4206000     0.577828   -6.5622662    1159.3488  0.022970137  0.021715188          413 
 4207000   0.57541237   -6.5849868    1162.3738  0.023024597   0.02170875          459 
 4208000   0.58591316   -6.5596528    1160.3221  0.022978495  0.021702309          370 
 4209000   0.58975136   -6.5676681    1158.0074  0.022927208  0.021695877          543 
 4210000   0.58835957   -6.5743407    1157.5559  0.022912824  0.021689429          450 
 4211000   0.58365505   -6.5660893    1158.1107  0.022918362  0.021682994          406 
 4212000   0.59245488   -6.5707125    1157.7251  0.022905293  0.021676558          450 
 4213000   0.58282771   -6.5716807    1159.3389  0.022931778  0.021670117          408 
 4214000   0.58521886    -6.563864    1159.3431  0.022926419  0.021663664          408 
 4215000   0.58833385   -6.5600675     1161.228  0.022958245  0.021657231          282 
 4216000   0.56671112   -6.5825685    1158.2716  0.022894363  0.021650784          339 
 4217000   0.58630584   -6.5622068    1160.8562  0.022940008  0.021644345          354 
 4218000    0.5862132   -6.5595217    1160.1392  0.022920404  0.021637916          410 
 4219000   0.57606337   -6.5697367    1158.2393  0.022877445  0.021631473          407 
 4220000    0.5775895   -6.5832682    1155.6296  0.022820489  0.021625032          433 
 4221000   0.57426219   -6.5715309    1159.0913  0.022883426  0.021618588          443 
 4222000   0.58917561    -6.565832    1159.3352  0.022882819  0.021612143          393 
 4223000   0.57351497   -6.5865622    1155.7499  0.022806651  0.021605679          465 
 4224000   0.57575946    -6.578854    1158.3243  0.022852042  0.021599214          417 
 4225000   0.57385279   -6.5926562    1157.8824  0.022837918  0.021592766          482 
 4226000   0.56976114   -6.5919993    1158.8128  0.022850859  0.021586323          441 
 4227000   0.56107145   -6.5570643    1157.2427    0.0228145   0.02157988          417 
 4228000   0.57476648    -6.567469    1158.2988   0.02282992  0.021573442          460 
 4229000   0.56628233   -6.5707724    1160.9301  0.022876372  0.021567018          382 
 4230000   0.57347073   -6.5709511    1160.2122   0.02285682  0.021560588          338 
 4231000   0.56855649     -6.58215    1159.2077  0.022831634  0.021554157          291 
 4232000   0.57514586   -6.5909112    1155.8574  0.022760266  0.021547721          415 
 4233000   0.56771346   -6.5689458    1156.6807  0.022771099  0.021541275          361 
 4234000   0.58791005   -6.6034594     1156.296  0.022758149  0.021534833          487 
 4235000   0.57557457   -6.5876928    1158.4238  0.022794644   0.02152839          398 
 4236000   0.57640221   -6.5869393    1158.7153  0.022794997  0.021521951          403 
 4237000    0.5729417   -6.5888397    1158.7045  0.022789406  0.021515508          429 
 4238000   0.58477995   -6.5799024    1157.1175  0.022752823  0.021509082          513 
 4239000   0.57654308   -6.5693304    1157.3317  0.022751664  0.021502649          468 
 4240000   0.57846546   -6.5888608    1156.1902  0.022723863   0.02149623          456 
 4241000   0.57473996   -6.5975176    1157.6317  0.022746831    0.0214898          493 
 4242000   0.56861693    -6.578688    1158.4661  0.022757859  0.021483364          391 
 4243000   0.58992973   -6.5992604    1158.1862     0.022747  0.021476945          381 
 4244000   0.57288091   -6.5947038    1158.4939  0.022747682  0.021470504          417 
 4245000    0.5714417   -6.5858163    1158.0328   0.02273327  0.021464081          373 
 4246000   0.58257474   -6.6058894    1155.9698  0.022687427  0.021457648          444 
 4247000   0.57226129   -6.5950688    1157.1686  0.022705607  0.021451221          446 
 4248000   0.56215043    -6.597407    1156.1579  0.022680436  0.021444797          489 
 4249000   0.56921188    -6.574916    1157.0196  0.022691999  0.021438362          392 
 4250000   0.57222132   -6.5714844    1158.9123   0.02272377  0.021431952          499 
 4251000   0.57635174   -6.5867519    1156.9723  0.022680396   0.02142552          405 
 4252000   0.57468959   -6.5777453    1158.3162  0.022701399  0.021419109          543 
 4253000   0.58380265   -6.5751358    1159.1433  0.022712267  0.021412695          440 
 4254000   0.58162286   -6.5898665    1156.1331  0.022647961  0.021406286          509 
 4255000   0.55786321   -6.6006542    1157.5147  0.022669696  0.021399875          455 
 4256000   0.56719093   -6.5803254    1155.5976  0.022626832  0.021393467          516 
 4257000   0.56668244   -6.5962404    1158.0351  0.022669232  0.021387058          456 
 4258000     0.570925   -6.6105978    1158.3595  0.022670258  0.021380645          413 
 4259000   0.56961061    -6.602003    1155.0364  0.022599914  0.021374223          573 
 4260000   0.56584298   -6.6169711     1155.757  0.022608705  0.021367806          513 
 4261000   0.57442313   -6.5995315    1155.8372  0.022604967  0.021361392          517 
 4262000   0.57894812   -6.5938235       1156.5  0.022612623  0.021354973          580 
 4263000    0.5717004   -6.6169218    1156.3899  0.022605166  0.021348555          588 
 4264000   0.57456409    -6.611116    1155.5263  0.022582988  0.021342118          616 
 4265000   0.56308759   -6.6148231    1155.7233  0.022581542  0.021335711          597 
 4266000   0.56711193    -6.610071    1159.5895  0.022651772   0.02132929          538 
 4267000   0.56581226   -6.6151955    1156.8362  0.022592692  0.021322877          589 
 4268000   0.57221624   -6.6103541    1154.2732  0.022537355  0.021316462          516 
 4269000   0.56609487   -6.5957911    1156.0269   0.02256631  0.021310062          442 
 4270000   0.56936628   -6.5908843    1155.2595  0.022546047  0.021303669          448 
 4271000   0.56770322   -6.5978579    1155.6973   0.02254931  0.021297278          458 
 4272000   0.56221895   -6.5876649    1157.5477  0.022580129  0.021290914          434 
 4273000   0.57016383    -6.613321    1156.6958  0.022558231  0.021284523          448 
 4274000   0.56827253   -6.5858099    1155.0535  0.022520931  0.021278134          540 
 4275000   0.55468419   -6.5919076    1159.6546  0.022605352  0.021271765          449 
 4276000   0.56047852   -6.6093496    1158.1104  0.022569972  0.021265376          486 
 4277000   0.57613319     -6.61101     1159.046  0.022582925  0.021258974          525 
 4278000   0.55426003   -6.6007592    1155.2428  0.022503562  0.021252579          589 
 4279000   0.56050079    -6.608295    1156.3926  0.022520694    0.0212462          702 
 4280000   0.56337923   -6.6219046    1155.1286  0.022490822  0.021239801          579 
 4281000    0.5780098   -6.6008237    1155.8875   0.02250034  0.021233421          543 
 4282000   0.57695935   -6.6128556    1156.3192  0.022503488  0.021227033          597 
 4283000   0.58269649   -6.6143435    1157.4075  0.022519408  0.021220636          496 
 4284000   0.56698791   -6.6044853    1158.8775  0.022542746  0.021214248          558 
 4285000   0.56916816    -6.623845    1155.8728  0.022479051  0.021207862          507 
 4286000   0.57027843   -6.6048699    1157.8097  0.022511466  0.021201487          474 
 4287000   0.55397659   -6.6130573    1156.9884   0.02249025  0.021195106          668 
 4288000    0.5653832   -6.6228345    1154.9865    0.0224461  0.021188734          506 
 4289000   0.56963767   -6.6085751    1155.5599  0.022452008  0.021182329          568 
 4290000   0.57110432   -6.6405489    1153.8795  0.022414132  0.021175916          624 
 4291000   0.56099354   -6.6216323    1153.3638  0.022398892  0.021169508          548 
 4292000   0.54983191   -6.6278209    1154.7543  0.022420672  0.021163115          645 
 4293000   0.56601215   -6.6121966    1156.8327  0.022455794  0.021156731          533 
 4294000   0.56427518   -6.6202135    1153.7095  0.022389952  0.021150327          496 
 4295000   0.56939194   -6.6161728    1155.7198  0.022423745  0.021143947          591 
 4296000   0.56883443   -6.6233681    1156.3725  0.022431186  0.021137559          490 
 4297000   0.57360883   -6.6246588    1154.5444  0.022390512  0.021131168          532 
 4298000   0.57470664   -6.6347615    1156.2624  0.022418614  0.021124769          566 
 4299000   0.55438049   -6.6453542    1155.2293  0.022393373  0.021118379          577 
 4300000   0.56648193   -6.6108779     1156.882  0.022420193     0.021112          629 
 4301000    0.5723417   -6.6291099    1154.0539  0.022360185  0.021105615          574 
 4302000   0.56513668   -6.6299905    1155.6567  0.022386036  0.021099241          569 
 4303000   0.55963689   -6.6285322    1155.6386  0.022380482  0.021092873          546 
 4304000   0.55389616   -6.6232843    1154.7174  0.022357446  0.021086499          528 
 4305000   0.55573262   -6.6404881     1156.677  0.022390185  0.021080128          652 
 4306000   0.56870366   -6.6066633    1153.8543  0.022330359  0.021073771          558 
 4307000   0.56475588   -6.6114054    1156.7988  0.022382145  0.021067438          572 
 4308000   0.56263962   -6.6392711    1154.5804  0.022334037  0.021061086          619 
 4309000   0.55537108   -6.6420039    1153.9948  0.022317529  0.021054728          523 
 4310000   0.56135838   -6.6297699    1155.7659  0.022346594  0.021048379          638 
 4311000   0.56778192   -6.6148391    1157.2734  0.022370551  0.021042038          563 
 4312000   0.55466121    -6.634735    1155.1867  0.022325037  0.021035696          710 
 4313000   0.56494014   -6.6305969    1156.0057  0.022335686  0.021029341          690 
 4314000   0.56477692   -6.6244892    1155.9289  0.022329023  0.021022994          552 
 4315000   0.56625723   -6.6147832    1156.8905   0.02234242  0.021016661          593 
 4316000   0.56511405   -6.6183286    1155.1652  0.022303931  0.021010317          498 
 4317000   0.56487172   -6.6325352     1154.282  0.022281717  0.021003973          569 
 4318000   0.55574349   -6.6592712     1154.106  0.022273158  0.020997618          632 
 4319000   0.55059423   -6.6296444    1153.6872  0.022259921  0.020991251          618 
 4320000   0.56667285   -6.6297433    1156.2341  0.022303899  0.020984885          604 
 4321000   0.56536964   -6.6448192    1154.6981  0.022269115  0.020978513          605 
 4322000   0.55808068   -6.6467091     1154.162  0.022253624  0.020972148          628 
 4323000   0.55910504   -6.6549475    1152.6427   0.02221919  0.020965781          705 
 4324000    0.5566199   -6.6432493    1154.7627  0.022254909  0.020959413          577 
 4325000   0.54807239   -6.6520761     1152.955  0.022214932  0.020953026          710 
 4326000   0.55645774   -6.6430896    1154.8104  0.022245539   0.02094665          574 
 4327000   0.56852219    -6.648627    1151.5873  0.022178324  0.020940281          551 
 4328000   0.56361331   -6.6291949    1154.0439    0.0222205  0.020933919          592 
 4329000   0.55979543   -6.6328762    1153.0409  0.022196059  0.020927551          626 
 4330000   0.55496297   -6.6466063    1153.3832  0.022197522  0.020921192          693 
 4331000   0.55387929   -6.6220064    1154.6841  0.022217426  0.020914842          628 
 4332000   0.55868741   -6.6437834    1154.1501  0.022202026  0.020908496          660 
 4333000   0.56692857   -6.6087313    1155.1123  0.022215408  0.020902154          651 
 4334000    0.5357349   -6.6413684    1151.9604  0.022149678  0.020895815          667 
 4335000   0.54829641   -6.6487106    1152.6169  0.022157188  0.020889474          652 
 4336000   0.55168391   -6.6286133    1155.9052  0.022215275  0.020883138          701 
 4337000   0.56426685   -6.6421136    1152.6023   0.02214669  0.020876797          630 
 4338000   0.57317508   -6.6548006    1151.6258  0.022122826   0.02087046          776 
 4339000   0.56163854   -6.6428876    1153.4822  0.022153379  0.020864123          630 
 4340000   0.56361681   -6.6461775    1151.6662  0.022113406  0.020857784          633 
 4341000   0.54295298   -6.6337466    1152.6051  0.022126335  0.020851445          713 
 4342000   0.54591258   -6.6492927    1151.9202  0.022108096  0.020845108          645 
 4343000    0.5620579   -6.6442328    1152.7022  0.022118011  0.020838791          715 
 4344000   0.55667515   -6.6565943    1154.1735  0.022141144  0.020832467          788 
 4345000   0.55447759   -6.6393785    1154.8134  0.022148321  0.020826149          747 
 4346000    0.5599601   -6.6532352    1153.3871  0.022115874  0.020819832          674 
 4347000   0.53728695   -6.6313731    1153.7879   0.02211847  0.020813505          615 
 4348000   0.55663852   -6.6454699    1153.8428  0.022114436  0.020807177          674 
 4349000   0.55830547   -6.6639698    1153.0707  0.022094556  0.020800849          700 
 4350000   0.55243712   -6.6515108    1152.4341  0.022077282  0.020794508          729 
 4351000   0.54848762   -6.6577725    1152.2444  0.022068574  0.020788169          785 
 4352000   0.56087748    -6.649338    1154.8421  0.022113245  0.020781837          720 
 4353000   0.54981736   -6.6471657    1155.6717  0.022124046  0.020775527          716 
 4354000   0.55872396   -6.6632277    1150.8351  0.022026394  0.020769209          781 
 4355000   0.56053253   -6.6357746    1154.5729   0.02209286  0.020762889          713 
 4356000   0.55371074   -6.6322967    1154.7258  0.022090713  0.020756581          611 
 4357000   0.56056321   -6.6550929    1153.9394  0.022070603  0.020750288          702 
 4358000   0.55509438   -6.6426169    1153.5166  0.022057454  0.020743968          658 
 4359000   0.55157922   -6.6548973    1152.0637  0.022024619   0.02073766          712 
 4360000   0.54784345   -6.6519868    1152.9483  0.022036473  0.020731353          707 
 4361000   0.55941166   -6.6409081     1153.866  0.022048957  0.020725037          642 
 4362000   0.55586859    -6.657018    1155.6047  0.022077119  0.020718734          644 
 4363000   0.55301912   -6.6713518    1152.3171  0.022009266  0.020712428          693 
 4364000   0.56579248   -6.6564817    1152.5838  0.022009315  0.020706126          714 
 4365000   0.55373689   -6.6398082    1151.5748  0.021985009   0.02069984          607 
 4366000   0.55624464   -6.6341203    1156.6275  0.022076415  0.020693582          589 
 4367000   0.55605945   -6.6493349    1154.0841  0.022022825  0.020687304          674 
 4368000   0.55159014   -6.6440782    1153.2693  0.022002238  0.020681016          721 
 4369000   0.54263258   -6.6743047    1153.8459  0.022008199  0.020674732          888 
 4370000   0.56188721   -6.6637821    1151.2241  0.021953168  0.020668445          768 
 4371000   0.55480702   -6.6605533    1153.8463  0.021998138  0.020662167          739 
 4372000   0.56573694   -6.6419721    1153.4027   0.02198465  0.020655888          738 
 4373000   0.54374695   -6.6455715    1152.7692  0.021967551  0.020649613          667 
 4374000    0.5579415   -6.6450528    1154.1175  0.021988216   0.02064336          652 
 4375000   0.55640013   -6.6357587     1156.089  0.022020743  0.020637119          703 
 4376000   0.55460373   -6.6326323    1155.3666  0.022001954   0.02063088          741 
 4377000   0.55248926   -6.6538185    1154.6821  0.021983895  0.020624624          753 
 4378000   0.55246929    -6.648905    1151.3609  0.021915657  0.020618368          774 
 4379000   0.54658444   -6.6431924    1156.5132    0.0220087  0.020612111          648 
 4380000   0.54954112   -6.6376596    1155.9327  0.021992631  0.020605861          852 
 4381000    0.5592046   -6.6559454    1152.7885  0.021927804  0.020599608          851 
 4382000   0.55873944   -6.6517975    1152.9508  0.021925887  0.020593344          882 
 4383000   0.55552907   -6.6606639    1152.3733  0.021909903  0.020587082          838 
 4384000   0.55726118   -6.6601894    1153.3063  0.021922642  0.020580806          947 
 4385000   0.54759534   -6.6882845    1151.8653  0.021890256  0.020574522          911 
 4386000   0.55060966    -6.678787    1149.1599  0.021833863  0.020568241          946 
 4387000   0.55352569   -6.6444946    1151.9208  0.021881331  0.020561963          984 
 4388000   0.54473714    -6.649825     1152.975  0.021896365  0.020555683         1109 
 4389000   0.54944051    -6.657624    1150.1493  0.021837725  0.020549408         1023 
 4390000   0.56692116   -6.6752695     1152.825  0.021883542  0.020543134         1183 
 4391000   0.54759831   -6.6723371     1150.632   0.02183694  0.020536844         1207 
 4392000   0.55643311   -6.6932302    1149.1966  0.021804732  0.020530548         1228 
 4393000   0.55310915   -6.6737129    1150.3251  0.021821175  0.020524258         1230 
 4394000   0.54559811   -6.6485499    1152.6788  0.021860848  0.020517961         1187 
 4395000   0.53954756   -6.6916649      1148.51   0.02177683   0.02051167         1305 
 4396000   0.55552591   -6.6864764    1150.8538  0.021816306  0.020505372         1254 
 4397000   0.54581156   -6.6803869    1149.9941  0.021795051  0.020499075         1299 
 4398000   0.55129258   -6.6880057    1152.0809  0.021829637  0.020492783         1189 
 4399000   0.54567552   -6.6755221    1149.1182  0.021768549  0.020486492         1190 
 4400000   0.53791072   -6.6909828    1150.8496  0.021796393  0.020480199         1254 
 4401000   0.55355898    -6.677207    1149.2493   0.02176114  0.020473918         1289 
 4402000   0.55953568   -6.6840467    1151.5399  0.021799559  0.020467629         1400 
 4403000   0.54611145   -6.6946927    1151.9883  0.021803095   0.02046134         1446 
 4404000   0.53438649   -6.6870187    1152.1531  0.021801261  0.020455064         1308 
 4405000   0.54015374   -6.6673009    1153.5622   0.02182297  0.020448786         1336 
 4406000   0.54098007   -6.6929763    1150.6469  0.021762878  0.020442516         1261 
 4407000   0.54891979   -6.6775954    1152.4445  0.021791932  0.020436245         1403 
 4408000   0.54339973   -6.6820158    1151.9372  0.021777398  0.020429974         1431 
 4409000   0.54614697   -6.6973615    1151.6912  0.021767809  0.020423691         1347 
 4410000   0.55943849    -6.688952    1150.3235  0.021737027  0.020417411         1276 
 4411000   0.54202028   -6.6874082    1151.9949  0.021763677  0.020411136         1430 
 4412000   0.54945559   -6.6853653    1150.2694  0.021726153  0.020404858         1313 
 4413000   0.54837689   -6.6807651     1150.118  0.021718371  0.020398582         1392 
 4414000   0.54175929   -6.6851249    1149.3811  0.021699538  0.020392317         1383 
 4415000   0.55939217   -6.6951719    1148.8512  0.021684621  0.020386056         1425 
 4416000   0.53536363   -6.6823939    1148.2857  0.021669039  0.020379793         1400 
 4417000   0.54816771   -6.7004976    1149.6404  0.021689691  0.020373523         1367 
 4418000   0.54133896   -6.6689825    1150.0181  0.021691906  0.020367248         1332 
 4419000   0.54461004   -6.6981787    1151.1736  0.021708788  0.020360971         1441 
 4420000   0.55725389   -6.6863105    1150.7576  0.021696033  0.020354701         1301 
 4421000   0.55397275   -6.6942357    1148.2988  0.021644779  0.020348419         1418 
 4422000   0.55108681   -6.6983882    1151.4529  0.021699324  0.020342152         1511 
 4423000   0.54004691   -6.6998485       1149.9  0.021665159   0.02033589         1533 
 4424000   0.55030434   -6.6814798    1149.7051  0.021656591  0.020329603         1448 
 4425000    0.5501164   -6.7077905    1147.9598  0.021618829  0.020323329         1500 
 4426000   0.53881076   -6.6995018    1147.5999  0.021607167  0.020317055         1471 
 4427000    0.5486967    -6.691505    1150.7954  0.021662439  0.020310791         1356 
 4428000   0.55183893     -6.69556    1148.9445  0.021622713  0.020304524         1450 
 4429000    0.5500501   -6.7146856    1148.6773  0.021612804  0.020298261         1532 
 4430000   0.54942837   -6.6947089    1152.7093  0.021683772  0.020292003         1488 
 4431000   0.54127576   -6.6932463    1148.5324  0.021600323  0.020285739         1564 
 4432000   0.55296574   -6.6871792    1148.1063  0.021587438  0.020279479         1545 
 4433000   0.53913124   -6.6989369    1147.7756  0.021576353  0.020273221         1521 
 4434000   0.55638603   -6.6701785    1150.8852  0.021629929  0.020266976         1500 
 4435000   0.54858956   -6.6953921    1151.5659   0.02163784  0.020260717         1575 
 4436000   0.54056147   -6.7094996     1148.171  0.021569187  0.020254448         1636 
 4437000   0.55193552   -6.7136953    1146.1805  0.021526943  0.020248186         1509 
 4438000    0.5480686   -6.6955499    1150.9806  0.021612224  0.020241931         1611 
 4439000   0.54077724   -6.7052672    1149.6743  0.021582831  0.020235673         1635 
 4440000   0.53944491   -6.7011789    1151.1233  0.021605166   0.02022942         1617 
 4441000    0.5538695   -6.7116079    1149.4388  0.021568693  0.020223162         1636 
 4442000   0.54675802    -6.701089    1147.4448   0.02152643  0.020216912         1540 
 4443000   0.53184501   -6.7043683    1147.2338  0.021517628  0.020210673         1607 
 4444000   0.54923271   -6.6955269    1148.9054  0.021544132  0.020204424         1565 
 4445000     0.547351   -6.7026918    1149.7488  0.021555096  0.020198181         1553 
 4446000   0.54432408   -6.7086847    1149.8946   0.02155298  0.020191934         1561 
 4447000   0.54191076   -6.7061366     1149.478  0.021540327  0.020185686         1529 
 4448000   0.53542158   -6.7144039      1149.15  0.021529339  0.020179431         1604 
 4449000   0.52622056   -6.7123718    1149.7984  0.021536645  0.020173183         1661 
 4450000   0.53102632    -6.728006    1144.7325  0.021436938   0.02016693         1614 
 4451000   0.53504487   -6.7236761    1147.4723  0.021483418  0.020160677         1712 
 4452000   0.54989624   -6.6991468    1149.0749  0.021508591  0.020154421         1752 
 4453000   0.55086118   -6.7360041    1146.5954  0.021457358  0.020148165         1719 
 4454000   0.54637719   -6.7149248    1145.5874  0.021433682  0.020141928         1833 
 4455000   0.52443246   -6.7224742    1148.2486  0.021478649  0.020135679         1749 
 4456000     0.522498   -6.7261027    1146.7241  0.021445319  0.020129432         1759 
 4457000   0.55627709   -6.7191492    1146.4121  0.021434674  0.020123184         1857 
 4458000   0.54528605   -6.7146478    1149.3798  0.021485341  0.020116935         1817 
 4459000   0.54236907    -6.706218    1147.8637  0.021452188  0.020110685         1776 
 4460000   0.53864126   -6.7257528    1145.6431  0.021405887  0.020104436         1903 
 4461000   0.53690658    -6.709267      1144.58   0.02138123  0.020098194         1753 
 4462000   0.53787114   -6.7473623    1146.7025  0.021416078   0.02009195         1764 
 4463000   0.54566151   -6.7248243    1146.6036  0.021409434  0.020085713         1793 
 4464000   0.54634148   -6.7028187    1148.2382  0.021435152  0.020079482         1711 
 4465000   0.54042109   -6.7054358    1147.4198  0.021415076  0.020073269         1786 
 4466000   0.54573124    -6.730663    1148.1013  0.021422997  0.020067048         1799 
 4467000   0.53744951   -6.7226206     1147.909  0.021414615  0.020060819         1783 
 4468000   0.52934972   -6.7386385    1146.8407  0.021389896  0.020054595         1876 
 4469000    0.5318803   -6.7244465    1147.5535  0.021398402  0.020048367         1837 
 4470000   0.54124147     -6.74986    1147.7939  0.021398097  0.020042132         1986 
 4471000    0.5245054   -6.7564642    1145.5712  0.021351882    0.0200359         1976 
 4472000   0.53164473   -6.7342408    1144.7462  0.021331734  0.020029654         1988 
 4473000   0.53412296     -6.72992     1146.019  0.021350677  0.020023425         1999 
 4474000   0.52800433   -6.7194247    1143.8238  0.021305018    0.0200172         1884 
 4475000   0.53468734   -6.7313664    1147.3095  0.021365168   0.02001097         1965 
 4476000   0.53379367   -6.7216644    1148.0548   0.02137427  0.020004734         1900 
 4477000   0.54116713    -6.716004    1146.1393  0.021333842  0.019998521         1955 
 4478000   0.52858536   -6.7285128    1147.8899  0.021361656  0.019992311         1909 
 4479000   0.53076823   -6.7455915     1146.211  0.021325649  0.019986096         2022 
 4480000   0.53314839   -6.7229412    1148.0232  0.021354599   0.01997988         1882 
 4481000   0.53390228   -6.7480192    1144.3812  0.021282101  0.019973664         1978 
 4482000   0.53265143    -6.747925    1147.1022  0.021327945  0.019967434         1964 
 4483000   0.52175675   -6.7328279    1145.7714   0.02129845   0.01996121         1906 
 4484000   0.53279533   -6.7252006    1144.8392  0.021276375  0.019954984         1973 
 4485000   0.53164101   -6.7608114    1144.6139  0.021267444  0.019948764         1912 
 4486000   0.53687771    -6.730048    1144.7587  0.021265395  0.019942547         1942 
 4487000   0.53003463   -6.7356277    1146.1221  0.021285976  0.019936335         1956 
 4488000   0.53707211   -6.7362095    1148.2158  0.021320109  0.019930125         1980 
 4489000   0.53312831   -6.7349875    1144.8888  0.021253597  0.019923922         1972 
 4490000   0.54764996   -6.7726006    1144.0914  0.021234064   0.01991771         2047 
 4491000   0.52854661   -6.7561115     1143.525  0.021218827  0.019911495         1976 
 4492000   0.54018449   -6.7444446    1146.0324  0.021260619  0.019905289         1984 
 4493000   0.52103692   -6.7253157    1145.5929  0.021247736  0.019899089         1908 
 4494000   0.52756008   -6.7373666    1147.2614  0.021273947  0.019892895         1944 
 4495000   0.53446206   -6.7444982    1147.5401  0.021274381    0.0198867         1971 
 4496000     0.526625   -6.7375694    1146.4626  0.021249678    0.0198805         1874 
 4497000   0.53731953   -6.7394128    1144.9579  0.021217069  0.019874305         1986 
 4498000   0.53513112   -6.7493446    1144.0812   0.02119611  0.019868114         1954 
 4499000    0.5445758   -6.7631944    1144.8168  0.021205023  0.019861922         2074 
 4500000   0.52745388   -6.7475466    1145.2519  0.021208368  0.019855725         1963 
 4501000   0.52207926   -6.7463045    1146.9156  0.021234459  0.019849535         2144 
 4502000   0.53860281   -6.7536832    1146.3455   0.02121919  0.019843336         2052 
 4503000   0.53340566   -6.7489487     1143.568  0.021163076   0.01983714         2053 
 4504000   0.53126238   -6.7538993    1144.2662  0.021171296  0.019830944         2151 
 4505000    0.5393421   -6.7615844    1144.2772  0.021166801  0.019824749         2157 
 4506000   0.52893784   -6.7540922    1144.6103  0.021168262  0.019818557         2084 
 4507000   0.52317179   -6.7525054     1144.421  0.021160065  0.019812369         2164 
 4508000   0.53128017   -6.7487842    1145.1461  0.021168775  0.019806182         2105 
 4509000   0.52659128   -6.7585597    1144.1121  0.021144972  0.019799985         2169 
 4510000    0.5363565   -6.7545362    1144.5739  0.021148815    0.0197938         2132 
 4511000    0.5285314    -6.760327    1144.4294  0.021141458  0.019787607         2236 
 4512000   0.53786424   -6.7465191    1144.2225  0.021132951  0.019781438         2140 
 4513000   0.52745277   -6.7464357    1143.0042  0.021105773   0.01977527         2124 
 4514000   0.53467071   -6.7560328    1145.3177  0.021143807  0.019769096         2236 
 4515000   0.51874684   -6.7474084     1145.354  0.021139793  0.019762925         2123 
 4516000   0.53689188   -6.7419896    1145.8979  0.021145149  0.019756749         2073 
 4517000   0.53755239   -6.7418765    1145.6934  0.021136694  0.019750573         2210 
 4518000    0.5399895   -6.7571182    1143.5495  0.021092473  0.019744406         2113 
 4519000   0.52935802    -6.747239    1144.7339  0.021109647  0.019738244         2190 
 4520000   0.52200681   -6.7577199    1144.7595  0.021105449  0.019732087         2098 
 4521000   0.52826378   -6.7487296    1147.8546   0.02115783   0.01972594         2084 
 4522000   0.53160775   -6.7475216    1146.8742  0.021135084   0.01971978         2142 
 4523000   0.52275087    -6.792406    1144.3753   0.02108437  0.019713627         2122 
 4524000   0.53843664   -6.7445529    1144.6074  0.021083986  0.019707468         1990 
 4525000   0.52774642   -6.7432319     1143.481  0.021058582  0.019701316         2113 
 4526000   0.52740423   -6.7500475    1145.9693  0.021099745  0.019695167         2146 
 4527000   0.53549785   -6.7525846     1142.917  0.021038896   0.01968901         2113 
 4528000   0.52954052   -6.7550074    1143.8542  0.021051498  0.019682856         2169 
 4529000   0.53306092   -6.7455098     1143.701  0.021044031  0.019676707         2134 
 4530000   0.52475248    -6.757983    1143.1616  0.021029463   0.01967055         2155 
 4531000   0.52553784   -6.7554777    1142.4979  0.021012614  0.019664389         2168 
 4532000   0.52205947   -6.7644334    1142.8468  0.021014393  0.019658233         2102 
 4533000    0.5223002   -6.7589736    1143.5315  0.021022345  0.019652083         2196 
 4534000   0.52888904   -6.7604384    1142.7211  0.021002814   0.01964593         2121 
 4535000   0.53217844   -6.7608785    1143.6508  0.021015267  0.019639776         2178 
 4536000   0.52351198   -6.7766441    1145.3422  0.021041708  0.019633622         2202 
 4537000   0.53499887   -6.7789426     1143.663  0.021006226  0.019627481         2222 
 4538000    0.5284589   -6.7613159    1141.4258  0.020960515  0.019621344         2206 
 4539000   0.52435229   -6.7616142    1142.9267  0.020983452  0.019615201         2226 
 4540000   0.52716361   -6.7605934    1145.4701  0.021025517  0.019609061         2227 
 4541000   0.52162352   -6.7687655    1145.5225  0.021021847  0.019602919         2228 
 4542000   0.53061915   -6.7726393    1144.3296  0.020995333  0.019596782         2169 
 4543000   0.53405445   -6.7714785    1141.8557  0.020945332  0.019590645         2276 
 4544000   0.53243998   -6.7741779    1143.7529  0.020975516  0.019584505         2127 
 4545000   0.52102818   -6.7826591    1142.2826  0.020943942   0.01957836         2268 
 4546000   0.51738354   -6.7578344    1144.4144  0.020978413  0.019572218         2353 
 4547000    0.5277818   -6.7882807    1143.2696  0.020952819  0.019566068         2355 
 4548000   0.52017487   -6.7822136    1141.8586  0.020922358  0.019559925         2444 
 4549000   0.51550799   -6.7953864    1143.1802  0.020941968  0.019553777         2506 
 4550000   0.53053048   -6.7653185    1143.5518  0.020944173  0.019547634         2428 
 4551000   0.52363989   -6.7854531    1142.1839  0.020914522  0.019541488         2476 
 4552000   0.51861832   -6.7913031    1142.6465  0.020918396  0.019535341         2537 
 4553000    0.5219096   -6.7896452    1139.1838  0.020850425   0.01952919         2506 
 4554000   0.51959329   -6.7885413    1141.6416  0.020890821  0.019523051         2491 
 4555000   0.52578221   -6.7936094    1141.2379   0.02087885  0.019516915         2455 
 4556000   0.52958588   -6.7538146    1142.8519  0.020903788  0.019510785         2502 
 4557000   0.53626409   -6.7875888    1140.1814  0.020850365  0.019504651         2508 
 4558000   0.54218607   -6.7843449    1142.5778  0.020889604   0.01949852         2465 
 4559000   0.52264376   -6.7929394     1139.085  0.020821178  0.019492388         2523 
 4560000   0.52548274    -6.779806    1143.7279   0.02090146  0.019486259         2497 
 4561000   0.52606282   -6.7778631    1143.2104  0.020887422  0.019480141         2495 
 4562000   0.51771719   -6.7829875    1142.7704  0.020874807  0.019474031         2487 
 4563000   0.52189807   -6.7868432    1144.2743  0.020897696  0.019467916         2492 
 4564000   0.53135563   -6.7847133    1143.3307   0.02087589    0.0194618         2569 
 4565000   0.51693141   -6.7887162    1142.7602  0.020860902  0.019455678         2524 
 4566000   0.51497509    -6.797651    1140.0345  0.020806586  0.019449561         2628 
 4567000   0.51339519    -6.785015    1143.6806   0.02086856  0.019443444         2548 
 4568000   0.52089964   -6.7891239    1141.1914  0.020818583  0.019437338         2533 
 4569000   0.52065113   -6.7863807    1142.3625  0.020835385  0.019431227         2631 
 4570000   0.50989434    -6.769445    1140.5117  0.020797076  0.019425121         2607 
 4571000    0.5149113   -6.7782888    1140.9674  0.020800834  0.019419009         2565 
 4572000   0.51881698   -6.7811714    1144.7939  0.020866031  0.019412918         2491 
 4573000   0.52004388    -6.797581    1141.0728  0.020793659  0.019406818         2563 
 4574000    0.5234878   -6.7805592    1145.2391  0.020865019  0.019400732         2510 
 4575000   0.53465596   -6.7812244    1140.1768  0.020768247  0.019394641         2524 
 4576000   0.52321315   -6.7780498    1143.4209  0.020822787  0.019388548         2579 
 4577000    0.5123689    -6.789344     1142.713  0.020805349  0.019382451         2577 
 4578000   0.52135809   -6.7900848    1139.0036  0.020733283  0.019376354         2493 
 4579000   0.51608677   -6.7865708    1142.4834  0.020792083  0.019370257         2576 
 4580000   0.52100428   -6.8112719    1143.0295   0.02079748  0.019364155         2504 
 4581000   0.51721037   -6.8007845    1141.9929  0.020774083   0.01935807         2484 
 4582000   0.50523666   -6.7926198    1141.7491  0.020765116  0.019351979         2534 
 4583000   0.51941384   -6.7898716    1141.6261  0.020758347  0.019345887         2598 
 4584000   0.52186844   -6.7903102    1140.7326  0.020737576  0.019339795         2514 
 4585000   0.51427887   -6.8144889    1140.0536  0.020720712  0.019333715         2614 
 4586000   0.51990015   -6.8089499    1140.6428    0.0207269  0.019327625         2564 
 4587000   0.51476682   -6.7995979    1139.9106   0.02070908  0.019321534         2586 
 4588000   0.50633064   -6.8033039    1140.4283  0.020713969  0.019315441         2622 
 4589000   0.51878515   -6.8035381    1136.8585   0.02064463  0.019309354         2650 
 4590000   0.52097308   -6.8078122    1140.0665  0.020698374  0.019303269         2600 
 4591000   0.50456872   -6.8005228    1140.4464  0.020700762  0.019297176         2666 
 4592000   0.51717762   -6.7949429    1142.8248  0.020739417  0.019291084         2666 
 4593000   0.51538071    -6.821356    1139.8395  0.020680737     0.019285         2643 
 4594000   0.52971747   -6.8096824    1141.3983  0.020704511  0.019278916         2704 
 4595000   0.51259182   -6.8168718     1141.374  0.020699565  0.019272832         2631 
 4596000   0.51679331   -6.7993814     1140.158  0.020673014  0.019266753         2679 
 4597000   0.51729908    -6.798033    1140.5976  0.020676484  0.019260674         2624 
 4598000   0.50913693   -6.8103918     1141.125  0.020681547  0.019254604         2600 
 4599000   0.52879731   -6.8005908    1140.7336  0.020669957  0.019248537         2658 
 4600000   0.51284966   -6.8043653    1139.3403  0.020640223  0.019242466         2723 
 4601000   0.52058988   -6.8123147    1140.0208  0.020648063  0.019236412         2680 
 4602000   0.52699378   -6.7930122    1141.1718  0.020664417  0.019230354         2640 
 4603000   0.52951335   -6.8101639    1140.7916  0.020653045  0.019224284         2622 
 4604000   0.50934715   -6.7989496    1142.0959  0.020672167  0.019218207         2680 
 4605000   0.51549532   -6.7918088    1140.4728  0.020638306  0.019212147         2602 
 4606000   0.51225861   -6.8151514    1138.5775  0.020599536  0.019206084         2743 
 4607000   0.50588943   -6.8164683    1140.3053  0.020626317  0.019200023         2715 
 4608000   0.51172854   -6.8103299    1141.4977  0.020643405  0.019193956         2618 
 4609000   0.51613981   -6.8079941    1137.7097  0.020570436  0.019187894         2718 
 4610000   0.51764981   -6.8198729    1140.4638   0.02061576  0.019181839         2735 
 4611000   0.51849545    -6.821604    1141.0034   0.02062104  0.019175784         2700 
 4612000   0.51945147   -6.8028791    1138.0551  0.020563296  0.019169734         2725 
 4613000   0.50549817   -6.8121355    1139.6338  0.020587359  0.019163686         2620 
 4614000   0.51398424   -6.8112729    1138.9096  0.020569816  0.019157632         2770 
 4615000   0.51197544   -6.7990614    1141.4155  0.020610609  0.019151577         2730 
 4616000   0.51460883    -6.814004     1140.305  0.020586095  0.019145532         2732 
 4617000   0.51179858   -6.8154878    1138.8405  0.020555204  0.019139483         2689 
 4618000   0.51040776   -6.8254703    1141.6147  0.020600815  0.019133441         2744 
 4619000   0.52078504   -6.8236478     1140.464  0.020575593  0.019127397         2789 
 4620000   0.51402587   -6.8087765    1141.0994  0.020582601  0.019121359         2760 
 4621000   0.51431884   -6.8004161    1140.5914  0.020568986  0.019115318         2755 
 4622000   0.50784405   -6.8272734    1142.4938  0.020598835   0.01910928         2681 
 4623000   0.51858964   -6.8265925    1139.7244  0.020544458  0.019103249         2728 
 4624000   0.50890763   -6.8051697     1141.386   0.02056996  0.019097215         2784 
 4625000   0.51400023   -6.8120398    1140.2454  0.020544963  0.019091192         2781 
 4626000   0.50709013   -6.8254001     1139.445  0.020526103   0.01908516         2802 
 4627000   0.51244271   -6.8269737    1139.8133    0.0205283  0.019079129         2805 
 4628000   0.50904514   -6.8128076    1138.1881    0.0204946  0.019073103         2770 
 4629000   0.51205279   -6.8298521     1139.176  0.020507957  0.019067075         2802 
 4630000   0.50939632   -6.8073532    1140.0638  0.020519506  0.019061046         2756 
 4631000   0.50409692    -6.843035    1137.2511  0.020464463  0.019055016         2858 
 4632000   0.51199448   -6.8278297    1138.5329  0.020483105   0.01904899         2770 
 4633000   0.50366358   -6.8228305    1140.5678  0.020515286  0.019042968         2824 
 4634000   0.50792221   -6.8192258    1139.0957  0.020484385  0.019036949         2770 
 4635000   0.52058772   -6.8166919    1138.5882  0.020470842  0.019030928         2873 
 4636000   0.49791935   -6.8263194    1141.3662  0.020516362  0.019024913         2788 
 4637000   0.51709761   -6.8287191    1138.5506  0.020461336  0.019018903         2811 
 4638000   0.51413651   -6.8002109    1139.1295  0.020467325  0.019012891         2750 
 4639000   0.50674034   -6.8371776    1138.0041  0.020442699  0.019006881         2823 
 4640000    0.5066603   -6.8096422    1139.6132  0.020467191  0.019000877         2761 
 4641000   0.50021034   -6.8214243      1139.53  0.020461288  0.018994872         2760 
 4642000   0.49859168   -6.8150318    1139.1796  0.020450589   0.01898887         2810 
 4643000   0.51347162    -6.844465    1138.9158  0.020441449  0.018982861         2906 
 4644000   0.49947152   -6.8307679     1136.668  0.020396712  0.018976848         2861 
 4645000   0.50913936   -6.8141066    1138.8134   0.02043081  0.018970844         2811 
 4646000   0.51234601   -6.8346199    1138.5651  0.020421959  0.018964845         2868 
 4647000   0.50080158   -6.8178608    1140.7634  0.020456986  0.018958845         2826 
 4648000   0.51053346   -6.8416536    1140.1615  0.020441794  0.018952858         2872 
 4649000   0.50892539   -6.8311632    1142.4784  0.020478928  0.018946871         2841 
 4650000   0.50857349    -6.820301    1139.4175  0.020419668  0.018940878         2814 
 4651000   0.50743405   -6.8289739    1139.3457  0.020413991  0.018934889         2938 
 4652000   0.49719355   -6.8185878     1139.807  0.020417867  0.018928899         2948 
 4653000   0.51275448   -6.8301535    1138.7957  0.020395366   0.01892291         2904 
 4654000   0.50044355   -6.8370655    1137.4756  0.020367348  0.018916931         2852 
 4655000   0.49742848   -6.8224592    1136.9597  0.020353735  0.018910952         2902 
 4656000   0.50297729    -6.822099    1138.8945  0.020383994  0.018904975         2801 
 4657000   0.51198125    -6.849596    1139.9222  0.020398007  0.018899006         2834 
 4658000   0.50950018    -6.821494    1138.0919  0.020360883  0.018893036         2845 
 4659000   0.51100927   -6.8199798    1137.3012  0.020342369  0.018887065         2917 
 4660000   0.49419115   -6.8236549    1138.3722  0.020357157  0.018881096         2871 
 4661000   0.51040511   -6.8164539    1138.9221   0.02036262  0.018875126         2818 
 4662000   0.50522625   -6.8254998    1138.4348  0.020349542  0.018869165         2838 
 4663000   0.50571279   -6.8443543    1136.5043  0.020310679  0.018863207         2883 
 4664000   0.50212805   -6.8312115    1137.3647  0.020321695  0.018857238         2874 
 4665000   0.50849157   -6.8294749    1135.8637  0.020290527  0.018851273         2928 
 4666000   0.50148765   -6.8211442     1138.813  0.020338851  0.018845311         2814 
 4667000   0.50817979   -6.8300341    1138.7729  0.020333778  0.018839352         2855 
 4668000   0.50989813    -6.808091    1138.9548   0.02033267  0.018833397         2828 
 4669000   0.49509793   -6.8411391    1138.7122  0.020323985  0.018827443         2801 
 4670000   0.50167092   -6.8310858    1139.4798   0.02033333  0.018821488         2875 
 4671000    0.4965053   -6.8535113    1137.7628  0.020298344  0.018815528         2864 
 4672000   0.50449337   -6.8245283    1139.1257   0.02031831  0.018809573         2793 
 4673000   0.51713513   -6.8232798    1139.8499  0.020326876  0.018803624         2875 
 4674000   0.49937815   -6.8299891    1139.2388  0.020311631  0.018797677         2826 
 4675000   0.50850317    -6.827097    1140.1855  0.020324163  0.018791735         2812 
 4676000   0.50370962   -6.8453355    1138.3362  0.020286858   0.01878579         2799 
 4677000   0.50584998     -6.83142    1138.7302   0.02028954   0.01877985         2842 
 4678000   0.50400314   -6.8491019    1136.5288  0.020245988  0.018773911         2901 
 4679000   0.50267256   -6.8453595    1138.9901  0.020285496  0.018767973         2849 
 4680000   0.49621094   -6.8545499    1138.2267   0.02026757  0.018762038         2849 
 4681000   0.50128356   -6.8376369    1136.8082  0.020237986   0.01875611         2840 
 4682000   0.51143678   -6.8323415    1135.9184  0.020217828  0.018750179         2798 
 4683000   0.50540991    -6.834638    1138.9958  0.020268272  0.018744246         2840 
 4684000   0.51205754     -6.83036    1139.2247  0.020268018  0.018738319         2841 
 4685000   0.49918641   -6.8314751    1139.5349  0.020269208  0.018732392         2801 
 4686000   0.49578207   -6.8319199    1137.5141  0.020228946  0.018726476         2786 
 4687000   0.50260652    -6.834725    1137.4476  0.020223448  0.018720563         2825 
 4688000    0.4970608   -6.8333003    1136.8179  0.020207941  0.018714646         2864 
 4689000   0.49474057   -6.8363749    1138.1201  0.020226773  0.018708731         2885 
 4690000   0.50029909   -6.8469076    1135.8207  0.020181604  0.018702817         2868 
 4691000   0.50112681   -6.8390137    1137.2343  0.020202414  0.018696909         2910 
 4692000   0.49460423   -6.8257262    1138.2265  0.020215731  0.018690995         2912 
 4693000   0.50016071   -6.8244643    1139.5626  0.020235149   0.01868509         2876 
 4694000   0.49990703   -6.8399353    1138.3556  0.020209409  0.018679187         2825 
 4695000   0.49679614   -6.8574801    1135.2216  0.020149478  0.018673273         2976 
 4696000   0.50130147    -6.831118    1139.2752  0.020217121  0.018667366         2824 
 4697000   0.50460416   -6.8358898    1137.3154  0.020178047  0.018661467         2888 
 4698000   0.49398511   -6.8431655    1136.4296   0.02015804  0.018655569         2871 
 4699000   0.50555529   -6.8387561    1137.6205  0.020174869   0.01864967         2889 
 4700000   0.50594962   -6.8445556    1137.3834  0.020166372  0.018643776         2892 
 4701000   0.50363829   -6.8497909    1137.3848  0.020162107  0.018637878         2875 
 4702000    0.4937536   -6.8297576    1137.7067  0.020163525  0.018631994         2789 
 4703000   0.49342876    -6.844313     1137.016  0.020146998   0.01862611         2804 
 4704000      0.49015   -6.8211665    1136.4902  0.020133401   0.01862022         2790 
 4705000   0.50761347   -6.8421039    1137.7879  0.020152105   0.01861434         2806 
 4706000   0.48939789   -6.8399134    1136.9221  0.020132492   0.01860846         2862 
 4707000   0.48934443   -6.8456665    1137.9012  0.020145549   0.01860258         2865 
 4708000   0.50871983   -6.8370435    1138.0055  0.020143116  0.018596695         2809 
 4709000   0.49717573   -6.8427405    1137.3827  0.020127817  0.018590816         2794 
 4710000   0.50060945   -6.8399525    1137.5692  0.020126843  0.018584933         2792 
 4711000   0.50160165   -6.8374972       1135.7  0.020089507  0.018579058         2776 
 4712000   0.49626979   -6.8394406    1136.3813  0.020097293  0.018573192         2858 
 4713000   0.48938301   -6.8522754    1137.8589  0.020119154  0.018567324         2897 
 4714000   0.49818881   -6.8508061    1137.6397  0.020111011  0.018561456         2908 
 4715000   0.50245298   -6.8527209    1137.8542  0.020110537  0.018555583         2823 
 4716000   0.49300969   -6.8345653    1137.3104  0.020096665  0.018549715         2984 
 4717000   0.49534905   -6.8423924    1138.3375  0.020110548  0.018543852         2916 
 4718000   0.49934506    -6.846659    1137.8395   0.02009749  0.018537981         2932 
 4719000   0.50251981   -6.8460555    1134.7161  0.020038075  0.018532118         2864 
 4720000   0.50814637   -6.8353072    1137.2343  0.020078288  0.018526262         2930 
 4721000   0.49666477   -6.8532539    1137.0182  0.020070222  0.018520407         2889 
 4722000    0.4848983   -6.8427416    1136.1125  0.020049988  0.018514553         2900 
 4723000   0.50156412   -6.8460712    1137.2138  0.020065175  0.018508689         2920 
 4724000    0.4959003   -6.8532732    1134.7699  0.020017815  0.018502835         2878 
 4725000   0.50135475   -6.8565034    1135.6518  0.020029133  0.018496986         2862 
 4726000   0.49511106   -6.8453754    1137.4722  0.020056993   0.01849114         2859 
 4727000   0.49925057   -6.8459569    1137.8056  0.020058627  0.018485292         2875 
 4728000   0.48984747   -6.8537928    1136.4329   0.02003019  0.018479449         2944 
 4729000   0.51174632   -6.8324647     1136.582  0.020028583  0.018473615         2929 
 4730000   0.48860638   -6.8413446    1137.0891  0.020033282  0.018467781         2898 
 4731000   0.50418772   -6.8641233    1137.0971  0.020029188  0.018461943         2855 
 4732000   0.49476792   -6.8513758    1137.3045  0.020028608  0.018456109         2903 
 4733000   0.50117078   -6.8533583     1137.416  0.020026341   0.01845028         2947 
 4734000   0.49985592   -6.8656161    1136.6916  0.020009358  0.018444446         2844 
 4735000   0.49165928   -6.8434823    1135.2338  0.019979476  0.018438615         2848 
 4736000   0.50153906   -6.8431437    1135.9171   0.01998728  0.018432782         2975 
 4737000    0.4921574   -6.8484633    1136.5395   0.01999401  0.018426962         2909 
 4738000   0.49614269     -6.85203    1135.8507  0.019977674  0.018421149         2903 
 4739000   0.49865902   -6.8554346    1134.7576  0.019954238   0.01841532         2969 
 4740000   0.50332058   -6.8511286     1136.866  0.019987095  0.018409492         2925 
 4741000   0.49835109   -6.8479381     1134.904  0.019948393  0.018403669         2905 
 4742000   0.49035733   -6.8572324    1136.8015  0.019977533  0.018397854         2922 
 4743000   0.49240947   -6.8752088    1137.4938  0.019985484  0.018392035         2952 
 4744000   0.50476099   -6.8633852    1136.1464  0.019957603  0.018386219         2881 
 4745000    0.4935535   -6.8558138    1134.9622  0.019932599  0.018380405         2878 
 4746000   0.49069632   -6.8773658    1136.5099  0.019955574  0.018374591         2957 
 4747000   0.49913132   -6.8624684    1137.7169   0.01997256  0.018368783         2867 
 4748000   0.48878729   -6.8615557    1135.2427  0.019924929  0.018362973         2958 
 4749000   0.50308072   -6.8250131    1136.4599  0.019942091  0.018357172         2877 
 4750000   0.49678066   -6.8653321    1136.0338  0.019930418  0.018351372         2934 
 4751000   0.49474808   -6.8576766    1140.2372   0.01999995  0.018345572         2946 
 4752000     0.498864   -6.8653481     1135.916  0.019919963  0.018339777         2979 
 4753000   0.49364517   -6.8590837    1133.6021  0.019875203  0.018333984         2855 
 4754000   0.48889574   -6.8634664    1137.6541  0.019942051  0.018328191         2909 
 4755000    0.4988536   -6.8646212    1137.4946  0.019935061   0.01832241         2944 
 4756000   0.49493364   -6.8552235    1136.2014   0.01990821  0.018316625         2899 
 4757000   0.49538264   -6.8679957    1138.3072  0.019940916  0.018310845         2989 
 4758000   0.49345285   -6.8488313    1137.2656  0.019918481  0.018305059         2948 
 4759000   0.49395395   -6.8534767    1137.5219  0.019918784  0.018299278         2895 
 4760000   0.49319962    -6.858928    1135.8041  0.019884525  0.018293494         2987 
 4761000   0.50177009   -6.8479335    1135.6514  0.019877676  0.018287709         2981 
 4762000   0.49661045   -6.8650934    1134.4783  0.019852974  0.018281931         2859 
 4763000   0.48049107    -6.866034    1136.3231  0.019881082  0.018276161         2921 
 4764000   0.48412742   -6.8622974    1136.0912  0.019872852  0.018270379         2990 
 4765000   0.48213068   -6.8721083     1137.275  0.019889384  0.018264603         2884 
 4766000   0.48503071   -6.8620728    1136.1333  0.019865249  0.018258834         2916 
 4767000   0.48054824   -6.8636416    1135.2464  0.019845578  0.018253058         2973 
 4768000   0.49094873   -6.8726108    1136.3711  0.019861073  0.018247286         2912 
 4769000   0.48217207   -6.8688349    1136.2167  0.019854209  0.018241522         2922 
 4770000   0.48533052   -6.8751222    1133.6512  0.019805227   0.01823575         2929 
 4771000   0.48621319   -6.8588624    1136.4686  0.019850286  0.018229983         2972 
 4772000   0.49055415   -6.8552992    1134.8287  0.019817488  0.018224213         2984 
 4773000   0.47975976   -6.8700665    1136.2086   0.01983743  0.018218451         2948 
 4774000   0.48617947   -6.8731284    1134.0745  0.019796023  0.018212686         3019 
 4775000   0.49065712   -6.8616558    1137.0156  0.019843204  0.018206936         3034 
 4776000   0.48260878   -6.8701764    1134.9315  0.019802685  0.018201181         3029 
 4777000   0.48799058   -6.8620622    1134.9143  0.019798239  0.018195428         2963 
 4778000   0.48815879   -6.8777448    1136.7155  0.019825511  0.018189685         3011 
 4779000   0.47966057   -6.8705761    1135.3871  0.019798199  0.018183938         2963 
 4780000    0.4901038   -6.8655923    1135.3039  0.019792606  0.018178193         2961 
 4781000   0.48544151   -6.8531272    1135.7802  0.019796769  0.018172452         3005 
 4782000   0.48381459    -6.870379    1131.9443  0.019725782  0.018166707         2998 
 4783000   0.48666012   -6.8877254     1134.194  0.019760854  0.018160966         3005 
 4784000   0.49117094     -6.85811     1137.473  0.019813841  0.018155229         2984 
 4785000   0.48616907   -6.8617632    1134.4302  0.019756709  0.018149496         2977 
 4786000   0.48829742   -6.8611423    1135.8232  0.019776836  0.018143762         2951 
 4787000   0.48004352   -6.8715066    1136.8789  0.019791082  0.018138036         2916 
 4788000   0.47289429   -6.8752106    1135.0516  0.019755144  0.018132305         2868 
 4789000   0.47817675   -6.8702642    1136.2637  0.019772111   0.01812658         2944 
 4790000   0.49383853   -6.8885603    1134.7606  0.019741834  0.018120856         3003 
 4791000   0.48164225   -6.8757171    1136.0622  0.019760353  0.018115133         3008 
 4792000   0.48182861   -6.8809391    1133.8947  0.019718536  0.018109412         3035 
 4793000   0.48071246   -6.8695242    1135.4937  0.019742223  0.018103696         3057 
 4794000   0.47789185   -6.8712776     1134.765  0.019725438  0.018097982         2992 
 4795000   0.47481811   -6.8713915    1135.0582   0.01972642  0.018092265         3024 
 4796000   0.47986484   -6.8648107    1135.1271  0.019723503  0.018086554         3007 
 4797000   0.48482994   -6.8735181    1133.4484   0.01969023  0.018080842         2990 
 4798000   0.48317683   -6.8726317     1135.219  0.019716879  0.018075134         3041 
 4799000   0.49102239   -6.8869605    1135.2972  0.019714127  0.018069429         3019 
 4800000   0.48927473   -6.8761064    1133.8855  0.019685513  0.018063723         2992 
 4801000   0.48885928   -6.8801262    1135.6704  0.019712394  0.018058013         3003 
 4802000   0.48205128   -6.8671532    1137.5402  0.019740736  0.018052303         3019 
 4803000   0.47917395   -6.8793253    1135.1781  0.019695643  0.018046608         3006 
 4804000   0.47988008   -6.8727281    1135.5051  0.019697217  0.018040909         3022 
 4805000    0.4834621   -6.8787192    1133.0418  0.019650395  0.018035214         3008 
 4806000   0.48401558   -6.8829721    1134.7679  0.019676235  0.018029519         2995 
 4807000   0.48295425   -6.8798073    1134.4654  0.019666899  0.018023828         3026 
 4808000     0.481888    -6.862793    1133.6941  0.019649441  0.018018134         2990 
 4809000   0.48499014   -6.8912496    1134.9136  0.019666487  0.018012448         2993 
 4810000   0.47754967   -6.8773459    1133.3837  0.019635892  0.018006756         3026 
 4811000   0.47957513   -6.8702577    1133.9262  0.019641208  0.018001072         2979 
 4812000   0.47371043   -6.8895024    1134.0995  0.019640128  0.017995385         2957 
 4813000    0.4865877   -6.8832414    1134.4109  0.019641438  0.017989705         2944 
 4814000   0.49007896   -6.8809089    1136.0807  0.019666263  0.017984022         3023 
 4815000    0.4817981     -6.88402    1133.9181  0.019624751  0.017978343         2987 
 4816000   0.47875662   -6.8794931    1134.0998  0.019623819  0.017972664         2976 
 4817000   0.47911294   -6.8832852    1134.3806  0.019624603  0.017966987         3029 
 4818000   0.46522316   -6.8985258     1133.931  0.019612754  0.017961305         3020 
 4819000    0.4838157   -6.8741091    1137.1034  0.019663544  0.017955634         3018 
 4820000   0.48859611   -6.8648257    1135.4386  0.019630681  0.017949967         2952 
 4821000    0.4785049   -6.8844778    1134.3718   0.01960817  0.017944302         3001 
 4822000   0.48757773   -6.8801815    1133.8984  0.019595922  0.017938631         2993 
 4823000   0.46950526   -6.8877066    1133.3076  0.019581651  0.017932965         2999 
 4824000    0.4724366   -6.8862229    1135.3011  0.019612029  0.017927302         2990 
 4825000   0.48843031   -6.8838014    1134.4219  0.019592779  0.017921638         3002 
 4826000   0.48438227   -6.8751892    1134.7151  0.019593783  0.017915977         2993 
 4827000   0.48458671   -6.8761409     1135.231   0.01959863  0.017910325         2992 
 4828000   0.47596878   -6.8856541    1134.4777  0.019581567  0.017904674         2932 
 4829000   0.49013348   -6.8847312    1136.0437  0.019604536   0.01789902         2929 
 4830000   0.47783006   -6.8660673    1135.6658  0.019593957  0.017893373         3015 
 4831000    0.4761124   -6.8891259    1134.3997  0.019568063  0.017887721         2939 
 4832000   0.48197802   -6.8770743     1133.025  0.019540305  0.017882077         2929 
 4833000   0.48089984   -6.8870404    1133.5479  0.019545277  0.017876436         2992 
 4834000   0.47701998   -6.8831184    1133.3426  0.019537694  0.017870791         3042 
 4835000   0.47893606   -6.8789623    1133.3612  0.019533974  0.017865142         3076 
 4836000   0.47939758   -6.8905692    1133.9392  0.019539895  0.017859499         3006 
 4837000   0.47411023   -6.8894041    1133.8433  0.019534203  0.017853866         3048 
 4838000   0.48178427   -6.8845765    1134.0594  0.019533887  0.017848226         3021 
 4839000   0.47509431   -6.8865457    1132.4281  0.019501759  0.017842588         2939 
 4840000   0.48203306    -6.891148    1133.8531  0.019522264   0.01783696         3005 
 4841000   0.47561404     -6.88455    1133.4502  0.019511295  0.017831335         2962 
 4842000   0.47852119    -6.872233    1133.8344  0.019513878  0.017825706         2928 
 4843000   0.47110289    -6.869519    1134.6537  0.019523947  0.017820084         3004 
 4844000   0.46528604   -6.9014592    1134.5301   0.01951779  0.017814463         3022 
 4845000   0.47763144   -6.8859892    1133.0635  0.019488537  0.017808839         2922 
 4846000   0.48388958   -6.8826647    1132.8523  0.019480884  0.017803215         2991 
 4847000   0.47569403   -6.8914115     1133.093  0.019481001  0.017797601         3066 
 4848000   0.48927936   -6.8856757    1133.6563  0.019486667  0.017791987         2983 
 4849000   0.47428457   -6.8897847      1133.37  0.019477727  0.017786376         3007 
 4850000   0.47489201   -6.8826163    1135.7883  0.019515262   0.01778077         2934 
 4851000   0.47531146   -6.8789133    1134.7244  0.019492964  0.017775168         2909 
 4852000   0.48390649   -6.8909874    1131.6165  0.019435567  0.017769562         2999 
 4853000   0.48009635   -6.8786363    1135.7266  0.019502139   0.01776396         2996 
 4854000   0.47260226   -6.8949237    1134.3747  0.019474913  0.017758358         3008 
 4855000   0.48091704   -6.8765996     1135.062  0.019482699  0.017752759         2997 
 4856000   0.47203628    -6.867464    1133.5586  0.019452886  0.017747159         2929 
 4857000   0.46980543   -6.9041008    1134.8567  0.019471153  0.017741558         2990 
 4858000   0.46710545   -6.8842156    1135.0245  0.019470024  0.017735967         2948 
 4859000   0.48110269   -6.8777941    1132.7483   0.01942698  0.017730376         2961 
 4860000   0.47156603    -6.889567    1134.5612  0.019454068  0.017724791         3022 
 4861000   0.47327506   -6.8929215    1135.4447  0.019465212  0.017719204         2915 
 4862000   0.47413936    -6.905125    1132.0879  0.019403673  0.017713619         3038 
 4863000   0.46951258   -6.8886232    1135.8187  0.019463614  0.017708033         2929 
 4864000   0.47678439    -6.904538    1134.4738  0.019436572  0.017702456         3003 
 4865000   0.46638179   -6.8891163    1135.0989  0.019443283  0.017696877         2922 
 4866000   0.47125983   -6.8752333    1134.2986  0.019425582  0.017691301         2985 
 4867000   0.47924795   -6.8817463    1132.8869   0.01939742  0.017685726         2897 
 4868000   0.47672126   -6.8936174    1134.3185  0.019417942  0.017680153         2981 
 4869000   0.48264856   -6.8765743    1132.7419   0.01938697  0.017674584         2989 
 4870000   0.46935606   -6.8851518    1136.0727  0.019439985  0.017669018         2959 
 4871000   0.46767506   -6.8871609    1135.1758  0.019420649  0.017663452         2930 
 4872000   0.47983119   -6.8999507    1133.9468  0.019395642  0.017657891         2975 
 4873000   0.48345906   -6.9008015    1132.3648  0.019364608  0.017652335         2971 
 4874000   0.46768411   -6.9014195    1133.3959  0.019378265   0.01764678         3023 
 4875000   0.46901034   -6.8865806    1133.9757    0.0193842  0.017641227         2915 
 4876000   0.48917205   -6.8981186    1134.7497  0.019393453  0.017635681         2985 
 4877000   0.46679481   -6.8854395    1133.8678  0.019374407  0.017630136         3000 
 4878000   0.47072162   -6.8833807    1132.7264  0.019350937   0.01762459         3063 
 4879000    0.4763255   -6.8910033    1134.9009  0.019384111  0.017619041         3048 
 4880000   0.47756016   -6.8982108    1135.7751  0.019395067  0.017613492         3053 
 4881000    0.4769608   -6.8892914    1135.0847  0.019379305  0.017607947         3049 
 4882000   0.46630084   -6.8954007    1133.4836  0.019348007  0.017602405         3032 
 4883000   0.46372541   -6.9066006    1132.4691   0.01932673  0.017596867         3023 
 4884000   0.46828468   -6.9013936    1133.4821  0.019340058   0.01759133         3044 
 4885000   0.46662083   -6.8962673    1133.0241  0.019328286  0.017585791         3025 
 4886000   0.47370616   -6.9013685    1133.5472  0.019333252  0.017580262         2988 
 4887000   0.47055237   -6.8930421    1131.3959  0.019292611  0.017574733         3031 
 4888000   0.47378865   -6.9105381       1133.2  0.019319422  0.017569196         3000 
 4889000    0.4672108   -6.8944012    1133.7444   0.01932475  0.017563665         2985 
 4890000     0.464333    -6.904058    1131.2393  0.019278106  0.017558136         3059 
 4891000    0.4762966   -6.8964071     1134.017  0.019321492  0.017552615         3059 
 4892000   0.47648937   -6.8926137    1132.5453  0.019292473  0.017547093         3030 
 4893000    0.4788788     -6.89514    1134.4302  0.019320632   0.01754157         3041 
 4894000   0.47088094   -6.9175239    1132.8003   0.01928893  0.017536053         3008 
 4895000   0.46126472    -6.904981    1135.1519  0.019325025  0.017530537         2964 
 4896000   0.47169204    -6.901912    1131.0594   0.01925142  0.017525025         3066 
 4897000   0.46539538   -6.8971485    1134.1943  0.019300836  0.017519513         3021 
 4898000   0.46131854   -6.9023499     1131.589  0.019252569  0.017514003         2998 
 4899000   0.46722216    -6.906349    1133.0852  0.019274091  0.017508495         3079 
 4900000   0.47265793   -6.8999521    1133.4421  0.019276226  0.017502985         3060 
 4901000    0.4620088   -6.9197379    1130.8153  0.019227629  0.017497473         3061 
 4902000   0.47378361   -6.8927559    1133.4853  0.019269095  0.017491969         3038 
 4903000   0.46344835   -6.8913232    1132.9402  0.019255902  0.017486469         3076 
 4904000   0.47822095    -6.910367    1135.9213  0.019302633  0.017480971         3072 
 4905000   0.46305733   -6.9031846     1132.635  0.019242864  0.017475472         3093 
 4906000   0.47226498   -6.9149689    1134.2703  0.019266719  0.017469977         3079 
 4907000   0.47697608   -6.9171237    1132.5629  0.019233796  0.017464485         3084 
 4908000   0.45595757   -6.8919257    1131.3252  0.019208863  0.017458994         3119 
 4909000   0.46994504   -6.8963748    1134.6342  0.019261123  0.017453505         3157 
 4910000   0.46434379   -6.9102982    1134.0418  0.019247146  0.017448012         3087 
 4911000   0.46002372   -6.8980061    1132.5518  0.019217944  0.017442517         3070 
 4912000   0.45281047   -6.9050619    1134.4082  0.019245525  0.017437027         3039 
 4913000    0.4718298   -6.8955333    1132.7841  0.019214059  0.017431543         3107 
 4914000   0.47367084   -6.9047521    1132.2127   0.01920046  0.017426051         3053 
 4915000   0.46119373   -6.9123277    1132.5729  0.019202661  0.017420563         3044 
 4916000   0.45979087     -6.89539    1131.1944  0.019175386  0.017415077         3053 
 4917000   0.46770868   -6.9208977    1132.8209  0.019199053  0.017409592         3113 
 4918000    0.4623265   -6.9103722    1130.6746  0.019158781  0.017404107         3079 
 4919000   0.46086313   -6.9136406    1132.1436  0.019179772  0.017398624         3119 
 4920000   0.46928525   -6.9175045    1132.1629  0.019176201   0.01739315         3090 
 4921000   0.47157531   -6.9167066    1132.3063  0.019174733  0.017387675         3061 
 4922000   0.45340926   -6.8968612    1131.2226  0.019152489  0.017382199         3102 
 4923000   0.46541058   -6.9107381    1133.3629  0.019184828  0.017376728         3054 
 4924000   0.46689221   -6.9270043     1132.065  0.019158967  0.017371254         3142 
 4925000   0.47570846   -6.8952846    1132.5742  0.019163693  0.017365793         3146 
 4926000   0.45599015   -6.9088152    1130.9285  0.019131961  0.017360332         3069 
 4927000   0.45427778   -6.9067952    1131.0096  0.019129451   0.01735487         3044 
 4928000   0.45442625   -6.9089696    1132.5443   0.01915152  0.017349412         3081 
 4929000   0.46063146   -6.9054149    1133.7328  0.019167728  0.017343954         3163 
 4930000   0.45976854   -6.8892873    1131.7729  0.019130711  0.017338502         3081 
 4931000   0.46086152   -6.9179003    1131.6381  0.019124554  0.017333047         3127 
 4932000   0.46852082   -6.9071424    1131.8041  0.019123481  0.017327595         3099 
 4933000   0.46223887   -6.9159356    1131.1103  0.019107883  0.017322147         3102 
 4934000   0.46573912   -6.9142407    1131.9243  0.019117759  0.017316692         3116 
 4935000   0.46341312   -6.9235894    1131.2063  0.019101761  0.017311241         3157 
 4936000   0.45528416   -6.9061796    1131.3063   0.01909958  0.017305803         3150 
 4937000   0.46354336   -6.9098692    1132.5276  0.019116325  0.017300366         3118 
 4938000    0.4548605   -6.9174464     1133.669  0.019131716  0.017294927         3135 
 4939000   0.46351614    -6.919845    1130.9998  0.019082807  0.017289496         3097 
 4940000   0.47478034   -6.9079736    1131.2437  0.019083058   0.01728406         3098 
 4941000   0.45784372    -6.918237    1131.3788  0.019081474  0.017278628         3078 
 4942000   0.45710378     -6.91393     1131.812  0.019084919  0.017273199         3060 
 4943000   0.45899687   -6.9199442    1132.2262   0.01908804  0.017267774         3073 
 4944000   0.45392549   -6.9198552    1129.8528  0.019044175  0.017262345         3096 
 4945000   0.45953113   -6.9081455    1131.8566  0.019074092  0.017256922         3141 
 4946000   0.46785411   -6.9256407    1131.6381  0.019066554  0.017251499         3169 
 4947000   0.45729415    -6.913858    1131.1888  0.019055131  0.017246077         3165 
 4948000   0.45488179   -6.9195816    1130.5504  0.019040528  0.017240661         3135 
 4949000   0.45948558   -6.9171037     1130.971  0.019043764  0.017235245         3170 
 4950000   0.45890204   -6.9103583    1131.8731  0.019055103  0.017229829         3116 
 4951000   0.45632375   -6.9116361    1132.6634  0.019064556  0.017224416         3114 
 4952000   0.44357306   -6.9096034    1132.5302  0.019058465  0.017219004         3097 
 4953000   0.46122927   -6.9116179     1131.843  0.019043055  0.017213594         3103 
 4954000   0.46060676   -6.9075875    1133.2782  0.019063353  0.017208188         3045 
 4955000   0.46556351   -6.9208716    1131.4489  0.019028741  0.017202783         3158 
 4956000   0.45999823   -6.9096588    1131.3746  0.019023651  0.017197382         3158 
 4957000   0.45625405   -6.9239048     1132.034  0.019030899  0.017191978         3217 
 4958000   0.45535135   -6.9242475     1133.765  0.019056156  0.017186575         3201 
 4959000   0.44206921   -6.9219387    1131.9465  0.019021754  0.017181175         3196 
 4960000   0.45742766   -6.9120651    1130.8414  0.018999351  0.017175776         3185 
 4961000   0.44985791   -6.9161367    1131.2226  0.019001924  0.017170378         3148 
 4962000   0.45474419   -6.9037966    1129.9378  0.018976518   0.01716498         3131 
 4963000   0.46783595   -6.9275874     1132.267  0.019011804  0.017159589         3172 
 4964000   0.46326046   -6.9344202    1132.5618  0.019012922  0.017154193         3150 
 4965000   0.45308957   -6.8996495    1132.2092  0.019003176  0.017148802         3122 
 4966000   0.45652808   -6.9156607    1133.3552   0.01901858  0.017143417         3153 
 4967000   0.46608971   -6.9081404     1129.232  0.018945575  0.017138024         3132 
 4968000   0.45310553   -6.9169305    1131.2092  0.018974926  0.017132638         3120 
 4969000   0.46566286   -6.9180617    1130.2952  0.018955779  0.017127255         3128 
 4970000   0.45050748   -6.9191117    1128.1673  0.018916286  0.017121875         3152 
 4971000   0.45634295   -6.9253192    1131.7392   0.01897236  0.017116492         3114 
 4972000   0.45410171   -6.9199968    1130.7484  0.018951937  0.017111115         3177 
 4973000   0.46589442    -6.912712     1131.311  0.018957555  0.017105742         3164 
 4974000   0.45605255   -6.9286003    1130.2402  0.018935804  0.017100368         3206 
 4975000    0.4554971   -6.9405526    1129.4025  0.018917965  0.017094995         3183 
 4976000   0.45661242    -6.935922    1132.4104  0.018964536  0.017089623         3184 
 4977000   0.45439242   -6.9242351    1131.5486  0.018946297  0.017084251         3172 
 4978000   0.45044939   -6.9247226    1131.7269  0.018945475  0.017078892         3179 
 4979000   0.46177841   -6.9325007    1129.8482  0.018910226   0.01707353         3161 
 4980000   0.46042168   -6.9247847    1130.5156  0.018917597   0.01706817         3177 
 4981000   0.44621558   -6.9116952    1132.6417  0.018949369  0.017062814         3153 
 4982000   0.45087516   -6.9074185    1132.2747  0.018939427  0.017057455         3182 
 4983000   0.45684616   -6.9241597    1131.4121  0.018921201  0.017052104         3211 
 4984000   0.45116702   -6.9199922    1131.0634  0.018911573  0.017046749         3187 
 4985000   0.44847873     -6.91961    1130.9988    0.0189067  0.017041397         3189 
 4986000   0.45972871     -6.92849     1131.324  0.018908344  0.017036047         3195 
 4987000    0.4580816   -6.9202742    1130.7459  0.018894892  0.017030698         3146 
 4988000   0.45676596   -6.9370631    1130.7648  0.018891419  0.017025353         3222 
 4989000    0.4504872   -6.9256468    1131.5751  0.018901168  0.017020009         3249 
 4990000   0.45327528   -6.9124315    1131.6617  0.018898826  0.017014669         3234 
 4991000   0.45074901   -6.9211782    1129.8205  0.018864298  0.017009332         3168 
 4992000   0.45072627   -6.9176263    1131.2954  0.018885139  0.017003995         3209 
 4993000   0.45258932   -6.9256853    1129.7831  0.018856116  0.016998657         3241 
 4994000    0.4542938   -6.9184958    1132.7047  0.018901093  0.016993322         3182 
 4995000   0.44810721   -6.9228222    1130.2197  0.018855851  0.016987991         3175 
 4996000   0.45290114    -6.938104    1130.7048  0.018860168  0.016982661         3182 
 4997000   0.45089293   -6.9214053    1130.9763  0.018860922  0.016977328         3113 
 4998000   0.44107838     -6.92666    1132.4823  0.018882257  0.016972003         3144 
 4999000   0.45785306   -6.9296217    1131.5839  0.018863505  0.016966678         3236 
 5000000   0.44650662   -6.9366359    1132.8227  0.018880378  0.016961354         3158 
 5001000   0.44876988   -6.9354512    1131.3036  0.018851289  0.016956033         3156 
 5002000   0.45339978    -6.936804    1130.7389  0.018838114  0.016950714         3171 
 5003000   0.45091851   -6.9216128    1129.3964  0.018811987  0.016945399         3160 
 5004000    0.4377696   -6.9330819     1130.379   0.01882459  0.016940084         3151 
 5005000   0.46117831   -6.9274528    1131.0342  0.018831739   0.01693477         3143 
 5006000   0.45532749   -6.9267914    1129.6557  0.018805029  0.016929461         3168 
 5007000   0.43928035   -6.9230389    1128.7381  0.018786001   0.01692415         3127 
 5008000    0.4487516   -6.9333217    1129.7245  0.018798663  0.016918845         3218 
 5009000   0.44786842   -6.9434585    1131.0572  0.018817083  0.016913536         3242 
 5010000   0.44380667   -6.9301061    1131.5494  0.018821514  0.016908233         3095 
 5011000    0.4464769   -6.9358564    1131.9437  0.018824314  0.016902936         3166 
 5012000   0.45077735   -6.9332546    1130.4823   0.01879626  0.016897634         3154 
Loop time of 12989.8 on 48 procs for 5000000 steps with 4000 atoms

Performance: 66513.918 tau/day, 384.919 timesteps/s
99.4% CPU use with 48 MPI tasks x no OpenMP threads

MPI task timing breakdown:
Section |  min time  |  avg time  |  max time  |%varavg| %total
---------------------------------------------------------------
Pair    | 954.07     | 1024.1     | 1095.2     | 113.0 |  7.88
Neigh   | 88.963     | 92.528     | 97.723     |  22.9 |  0.71
Comm    | 820.92     | 892.77     | 964.3      | 118.6 |  6.87
Output  | 15.735     | 15.74      | 15.857     |   0.4 |  0.12
Modify  | 10826      | 10846      | 10870      |  11.0 | 83.49
Other   |            | 119        |            |       |  0.92

Nlocal:        83.3333 ave          95 max          76 min
Histogram: 3 3 10 9 8 11 2 1 0 1
Nghost:        2405.21 ave        2424 max        2387 min
Histogram: 2 4 3 6 9 8 5 8 2 1
Neighs:        16706.9 ave       19295 max       14683 min
Histogram: 5 7 6 6 4 6 3 4 4 3
FullNghs:      33412.0 ave       38148 max       30372 min
Histogram: 3 4 10 7 11 7 4 0 1 1

Total # of neighbors = 1603775
Ave neighs/atom = 400.94375
Neighbor list builds = 268103
Dangerous builds = 1

#clear
#
#next RN
#
#jump SELF
Total wall time: 3:36:33
