
units lj                  # Use reduced LJ style units
atom_style atomic         # Uncharged point particles
atom_modify map hash      # Needed for indexing of clusters etc
                          # Used to be able to find where atoms are in relation to each other.

lattice fcc 1.0 spacing 1 1 1
Lattice spacing in x,y,z = 1.5874011 1.5874011 1.5874011
region box block 0 10 0 10 0 10 units lattice
create_box 2 box
Created orthogonal box = (0.0000000 0.0000000 0.0000000) to (15.874011 15.874011 15.874011)
  3 by 4 by 4 MPI processor grid
create_atoms 1 box
Created 4000 atoms
  using lattice units in orthogonal box = (0.0000000 0.0000000 0.0000000) to (15.874011 15.874011 15.874011)
  create_atoms CPU = 0.003 seconds
set type 1 type/fraction 2 0.01 78393
Setting atom values ...
  36 settings made for type/fraction
mass 1 1.0
mass 2 1.0
pair_style lj/cut  3.5
pair_modify tail  yes
pair_coeff 1  1  1.0  1.0   # Intearaction between 1 and 1 set with epsilon = 1 and sigma = 1
pair_coeff 1  2  1.5  0.8
pair_coeff 2  2  0.5  0.88

write_data data.0
System init for write_data ...
Neighbor list info ...
  update every 1 steps, delay 10 steps, check yes
  max neighbors/atom: 2000, page size: 100000
  master list distance cutoff = 3.8
  ghost atom cutoff = 3.8
  binsize = 1.9, bins = 9 9 9
  1 neighbor lists, perpetual/occasional/extra = 1 0 0
  (1) pair lj/cut, perpetual
      attributes: half, newton on
      pair build: half/bin/atomonly/newton
      stencil: half/bin/3d
      bin: standard
WARNING: Not all mixed pair coeffs generated from mixing. Use write_data with 'pair ij' option to store all pair coeffs. (../write_data.cpp:312)


#############################
#   M E L T   S Y S T E M   #
#############################

velocity all create 2.4 9622624 mom yes dist gaussian # Assign velocities
                                                    # Temperature 2.4, random number seed, zero linear momentum
                                                                                # Gaussian distribution

timestep 0.002   # simulation timestep
thermo 1000       # output thermodynamic data every 1000 steps bf 100

# Define a fix  in this case with index 1 applied to all
# particles in the simulation. This fix is for simulations
# in the anisotropic NPT ensemble. Note that we use the MTK
# correction.
fix 1 all npt temp 2.4 2.4 0.1 iso 5.68 5.68 0.5 mtk yes tchain 5 pchain 5 # Use NPT ensemble
                                                                         # Set temperature and pressure and damping
                                                                         # Numbers of thermostats in chain and in barostat
run 10000          # run for 10000 steps
Per MPI rank memory allocation (min/avg/max) = 3.642 | 3.644 | 3.648 Mbytes
Step Temp E_pair E_mol TotEng Press Volume 
       0          2.4   -8.3261558            0   -4.7270558   -2.3168672         4000 
    1000    2.3580603   -4.4499885            0  -0.91378235    5.7720223    5124.5612 
    2000    2.4334287   -4.3276892            0  -0.67845873    5.6668589    5243.7728 
    3000    2.4407572   -4.3734318            0  -0.71321118    5.8242079    5184.6861 
    4000    2.3367246   -4.3487214            0  -0.84451079    5.5019552     5238.236 
    5000    2.4238644    -4.394484            0   -0.7595964    5.5116576     5219.097 
    6000    2.3565632   -4.3880046            0  -0.85404351    5.4304647    5225.1976 
    7000    2.3924693   -4.4070054            0  -0.81919857    5.4554464    5219.5485 
    8000    2.3739946    -4.390993            0  -0.83089146     5.549669    5209.6574 
    9000    2.3694098   -4.3423441            0  -0.78911796    5.8171417    5196.6044 
   10000    2.3538732    -4.340779            0  -0.81085197    5.6425082    5218.1789 
Loop time of 2.09765 on 48 procs for 10000 steps with 4000 atoms

Performance: 823777.894 tau/day, 4767.233 timesteps/s
99.6% CPU use with 48 MPI tasks x no OpenMP threads

MPI task timing breakdown:
Section |  min time  |  avg time  |  max time  |%varavg| %total
---------------------------------------------------------------
Pair    | 0.82929    | 0.909      | 0.95717    |   2.9 | 43.33
Neigh   | 0.16713    | 0.17314    | 0.19767    |   1.1 |  8.25
Comm    | 0.68624    | 0.74174    | 0.81304    |   3.6 | 35.36
Output  | 0.00023912 | 0.0002462  | 0.00044349 |   0.0 |  0.01
Modify  | 0.19173    | 0.25959    | 0.30922    |   6.2 | 12.38
Other   |            | 0.01393    |            |       |  0.66

Nlocal:        83.3333 ave          89 max          76 min
Histogram: 1 4 1 8 5 5 10 5 5 4
Nghost:        1375.85 ave        1400 max        1352 min
Histogram: 2 4 6 4 8 9 4 5 2 4
Neighs:        7295.62 ave        7984 max        6460 min
Histogram: 4 0 2 6 7 8 8 6 3 4

Total # of neighbors = 350190
Ave neighs/atom = 87.547500
Neighbor list builds = 908
Dangerous builds = 202

# Equilibrate just above the melting temperature to avoid step fn in T

fix 1 all npt temp 1.25 1.25 0.1 iso 5.68 5.68 0.5 mtk yes tchain 5 pchain 5
run 2000
Per MPI rank memory allocation (min/avg/max) = 3.642 | 3.645 | 3.648 Mbytes
Step Temp E_pair E_mol TotEng Press Volume 
   10000    2.3538732    -4.340779            0  -0.81085197    5.6425082    5218.1789 
   11000     1.230572   -5.8824684            0   -4.0370719     5.572662    4317.4843 
   12000    1.2440226   -5.8796475            0   -4.0140801    5.6536776    4308.7669 
Loop time of 0.454907 on 48 procs for 2000 steps with 4000 atoms

Performance: 759715.687 tau/day, 4396.503 timesteps/s
99.6% CPU use with 48 MPI tasks x no OpenMP threads

MPI task timing breakdown:
Section |  min time  |  avg time  |  max time  |%varavg| %total
---------------------------------------------------------------
Pair    | 0.19645    | 0.20904    | 0.2313     |   1.4 | 45.95
Neigh   | 0.030495   | 0.032085   | 0.03573    |   0.5 |  7.05
Comm    | 0.14022    | 0.15876    | 0.17825    |   2.1 | 34.90
Output  | 5.0606e-05 | 5.1913e-05 | 6.5427e-05 |   0.0 |  0.01
Modify  | 0.039959   | 0.050581   | 0.061198   |   2.7 | 11.12
Other   |            | 0.004392   |            |       |  0.97

Nlocal:        83.3333 ave          90 max          77 min
Histogram: 3 5 2 12 1 5 10 2 4 4
Nghost:        1565.58 ave        1580 max        1538 min
Histogram: 1 0 0 2 7 9 8 7 7 7
Neighs:        8836.06 ave        9653 max        7998 min
Histogram: 1 6 4 6 4 8 9 5 4 1

Total # of neighbors = 424131
Ave neighs/atom = 106.03275
Neighbor list builds = 143
Dangerous builds = 7

#############################
# L I N E A R  Q U E N C H  #
#############################

# Define solid atoms. This closely follows ten Wolde  Ruiz-Montero and Frenkel  Faraday Discuss  1996  104  93-110
# Compute components of the per-atom q6 vector
compute q6 all orientorder/atom degrees 1 6 components 6 nnn NULL cutoff 1.3 # compute the Q6 parameter.
                                                                             # Use all neighbours within 1.3 unit cell.

# get number of connections
compute coord_number all coord/atom orientorder q6 0.5

# An atom is solid if it has 8 or more connections (of a possible 14)
variable is_solid atom c_coord_number>=8
group solid dynamic all var is_solid    # Must be dynamic to update
dynamic group solid defined

# do clustering
compute cluster solid cluster/atom 1.3 # Create a cluster where all atoms within are solid and max 1.3 units from another member

# define chunks one chunk per cluster
compute clus_chunks solid chunk/atom c_cluster nchunk every compress yes  # Says which atoms are in which chunk

# count the size of each chunk
compute size_chunks solid property/chunk clus_chunks count


# Find the maximum entry in the vector of chunk sizes
variable max_n equal max(c_size_chunks)


# Thermo style which includes this variable
# thermo_style custom step temp pe vol v_max_n

thermo ${N}  # Print the thermo information every 100 steps
thermo 1000  

# Reset the npt fix at a lower temperature (below freezing)
fix 1  all npt temp  ${temp} ${temp}  0.1  iso  5.68  5.68  0.5  mtk yes tchain  5  pchain  5
fix 1  all npt temp  0.45 ${temp}  0.1  iso  5.68  5.68  0.5  mtk yes tchain  5  pchain  5
fix 1  all npt temp  0.45 0.45  0.1  iso  5.68  5.68  0.5  mtk yes tchain  5  pchain  5

dump dmp2 all dcd ${N} traj.dcd
dump dmp2 all dcd 1000 traj.dcd


compute msd all msd com yes
variable twopoint equal c_msd[4]/6/(step*dt+1.0e-6)
fix 9 all vector 10 c_msd[4]
variable fit equal slope(f_9)/6/(10*dt)
thermo_style custom step temp pe c_msd[4] v_twopoint v_fit v_max_n

fix 1 all npt temp 1.25 ${temp} 0.1 iso 5.68 5.68 0.5 mtk yes tchain 5 pchain 5
fix 1 all npt temp 1.25 0.45 0.1 iso 5.68 5.68 0.5 mtk yes tchain 5 pchain 5
run 500000 # 5000000  # Run for this many steps
Neighbor list info ...
  update every 1 steps, delay 10 steps, check yes
  max neighbors/atom: 2000, page size: 100000
  master list distance cutoff = 3.8
  ghost atom cutoff = 3.8
  binsize = 1.9, bins = 9 9 9
  4 neighbor lists, perpetual/occasional/extra = 1 3 0
  (1) pair lj/cut, perpetual
      attributes: half, newton on
      pair build: half/bin/atomonly/newton
      stencil: half/bin/3d
      bin: standard
  (2) compute orientorder/atom, occasional
      attributes: full, newton on
      pair build: full/bin/atomonly
      stencil: full/bin/3d
      bin: standard
  (3) compute coord/atom, occasional
      attributes: full, newton on
      pair build: full/bin/atomonly
      stencil: full/bin/3d
      bin: standard
  (4) compute cluster/atom, occasional
      attributes: full, newton on
      pair build: full/bin/atomonly
      stencil: full/bin/3d
      bin: standard
Per MPI rank memory allocation (min/avg/max) = 9.729 | 9.734 | 9.738 Mbytes
Step Temp PotEng c_msd[4] v_twopoint v_fit v_max_n 
   12000    1.2440226   -5.8796475 1.7518629e-30 1.2165714e-32 8.3333333e+20            2 
   13000    1.2612175   -5.8640308   0.55322023 0.0035462834  0.045831122            2 
   14000    1.2464685   -5.8416236    1.1397501 0.0067842263   0.04725894            3 
   15000    1.2667988   -5.8911113    1.7237156 0.0095761975  0.047939306            5 
   16000    1.2415424   -5.9017016    2.2675344  0.011810075   0.04766041            4 
   17000    1.2400747   -5.8385281    2.8162469  0.013805131  0.047160709            5 
   18000    1.2474002   -5.8600963    3.3499126  0.015508854  0.046886401            3 
   19000     1.246362   -5.9324547    3.8323669  0.016808626  0.046163662            2 
   20000    1.2493561   -5.8987139    4.3980618  0.018325257  0.045673302            3 
   21000    1.2189944   -5.8631512    4.9664411  0.019708099  0.045522352            5 
   22000    1.2497839    -5.889706    5.4914033  0.020800769   0.04560023            3 
   23000     1.222943   -5.9156907    5.9808781  0.021669848  0.045363648            3 
   24000     1.232032   -5.8583087       6.5275   0.02266493  0.045129896            3 
   25000    1.2137551   -5.9017269     6.990207   0.02330069  0.044876725            5 
   26000    1.2055424   -5.9326954    7.3829895  0.023663427   0.04457308            6 
   27000    1.2200643   -5.9327488    7.8010708  0.024077378  0.044033993            3 
   28000    1.1987521   -5.9088311     8.374125  0.024922991  0.043605996            4 
   29000    1.2124849    -5.870359    8.8733111   0.02549802  0.043310249            5 
   30000    1.2243574   -5.9327332    9.3747449  0.026040958  0.043127406            5 
   31000    1.2041756   -5.9394147    9.9644621  0.026786188  0.042999849            6 
   32000    1.2033991   -5.9138427    10.430491  0.027162736  0.042923289            2 
   33000    1.2037932    -5.904783    10.892446  0.027506177  0.042804904            3 
   34000    1.2243369   -5.8962848    11.437478  0.028033033  0.042704125            2 
   35000    1.1998933   -5.9207013    11.953401  0.028460479  0.042650139            3 
   36000    1.1859221   -5.9432814    12.373937  0.028643373  0.042579427            3 
   37000    1.2119917   -5.9473905    12.899651  0.029053268  0.042507724            3 
   38000    1.2326624   -5.9237818    13.396996  0.029379377  0.042466855            5 
   39000     1.209203    -5.942388    13.913243  0.029729151  0.042404917            3 
   40000    1.2105687   -5.9651444    14.296267   0.02978389  0.042306503            5 
   41000    1.1867072   -5.9434686    14.685731  0.029849046   0.04218188            8 
   42000    1.2192504   -5.9469956    15.232646  0.030223504  0.042049895            5 
   43000    1.1722558   -5.9383046    15.696863  0.030420277   0.04192942            3 
   44000     1.186596   -5.9439274    16.227458  0.030733821  0.041840975            3 
   45000    1.1944901    -5.976327    16.656936  0.030846178  0.041765926            7 
   46000    1.2045048   -5.9510182    17.065792   0.03091629  0.041676522            7 
   47000    1.2362421   -5.9573695    17.600521  0.031206597  0.041602021            4 
   48000     1.231207   -5.9655615    18.153221  0.031516009  0.041538509            3 
   49000    1.1940291   -5.9808139    18.573558  0.031587683   0.04147873            6 
   50000    1.1971314   -6.0010774    19.090166  0.031816943  0.041408672            7 
   51000    1.1844561   -5.9652471    19.837254  0.032413813  0.041398427            5 
   52000    1.2072146   -5.9796917     20.19682  0.032366698  0.041411487            2 
   53000    1.2337106   -6.0101078    20.574447  0.032349759  0.041377641            7 
   54000    1.1743961   -6.0228124    21.031324  0.032455747  0.041324363            2 
   55000    1.1897113   -5.9808966    21.343435  0.032338538  0.041251316            2 
   56000    1.2160803   -6.0174004    21.807948  0.032452304  0.041167461            3 
   57000    1.1651119   -5.9904979     22.26495  0.032551097  0.041090628            2 
   58000    1.1787104   -5.9778596    22.763071  0.032705562  0.041026953            5 
   59000    1.1808847   -5.9886888    23.265696  0.032861152  0.040962155            2 
   60000    1.2046296   -6.0122201    23.796358  0.033050497  0.040910308            3 
   61000     1.198205   -5.9885645    24.228644   0.03309924  0.040849608            2 
   62000    1.1525652   -6.0272436     24.66744  0.033155161  0.040792885            4 
   63000    1.1607846   -5.9966594    25.091373  0.033189647  0.040733878            4 
   64000    1.1763248   -6.0001919    25.499978  0.033203096  0.040666874            3 
   65000    1.1593367    -6.042085    25.853787  0.033145881  0.040587679            2 
   66000    1.1832419   -6.0416981    26.265712  0.033163777  0.040498039            5 
   67000    1.1609786   -6.0426676    26.651778  0.033148977   0.04040862            3 
   68000    1.1719126   -6.0231567     27.09392  0.033203333  0.040316878            3 
   69000    1.1722498    -6.029262    27.452465  0.033155151  0.040212854            7 
   70000    1.1510107   -6.0540807    28.082324  0.033431338  0.040120731            3 
   71000    1.1572605   -6.0414135    28.413095  0.033348703  0.040045923            4 
   72000    1.1439252   -5.9902164    28.839943  0.033379563  0.039968156            3 
   73000    1.1598928   -6.0586959    29.314848  0.033464439  0.039894583            3 
   74000    1.1188335    -6.028891    29.661925  0.033403068  0.039808024            4 
   75000    1.1683506   -5.9808271    30.046184  0.033384649   0.03971387            5 
   76000    1.1450232   -6.0108966    30.453273  0.033391747  0.039629275            3 
   77000    1.1198511    -6.050437    30.793665  0.033326477  0.039526585            5 
   78000    1.1513982   -6.0344592    31.256613  0.033393817  0.039433304            3 
   79000    1.1283407   -6.0989022    31.555162  0.033286035  0.039340345            4 
   80000    1.1476316   -6.0228915    32.080814  0.033417515   0.03924382            7 
   81000    1.1379971   -6.0816772    32.358784   0.03329093   0.03915213            5 
   82000    1.1225509   -6.0916419     32.86232  0.033396666  0.039056811            2 
   83000    1.1443804   -6.0304166    33.161182  0.033294359  0.038961067            3 
   84000    1.1248686   -6.0455719    33.631078  0.033364164   0.03887095            4 
   85000    1.1280065   -6.0921954    34.088406  0.033420006  0.038789917            3 
   86000    1.1306692   -6.0321995    34.510032  0.033439953  0.038712797            4 
   87000    1.1261436   -6.1024184    34.761232  0.033296199   0.03862825            5 
   88000    1.1596703   -6.0820351    35.292734  0.033421149  0.038550006            3 
   89000    1.1188555   -6.0651551    35.609741  0.033342454  0.038467399            4 
   90000    1.1151402   -6.0744549      36.0205  0.033352314  0.038381622            4 
   91000    1.1122703    -6.069621    36.409112  0.033341677   0.03830028            3 
   92000    1.0970105   -6.0718998    36.895101  0.033419475  0.038221595            4 
   93000    1.1315879   -6.1025532    37.352835  0.033470282  0.038152389            3 
   94000    1.0869335   -6.0639355    37.668702   0.03339424  0.038081031            3 
   95000    1.1165468   -6.1071803    38.186057  0.033496541   0.03801259            7 
   96000    1.1224922   -6.1607048    38.518478  0.033436178  0.037943017            3 
   97000    1.1384403    -6.095209    39.009166  0.033513029   0.03788461            3 
   98000    1.1083482   -6.1173046    39.371608  0.033479258   0.03782409            5 
   99000    1.1115473   -6.1109754    39.756347  0.033464939  0.037760276            7 
  100000    1.0994092    -6.104301    40.147135  0.033455946  0.037691287            5 
  101000    1.1226692   -6.1098065    40.255906  0.033214444  0.037620001            6 
  102000    1.1080599   -6.1416959    40.839546  0.033365642  0.037549594            5 
  103000     1.119277   -6.1076978    41.167473  0.033307016  0.037481494            4 
  104000     1.106647   -6.1616796    41.704432  0.033417012  0.037414657            4 
  105000    1.0770963   -6.0765516     42.25864  0.033538603  0.037354189            2 
  106000    1.0865009   -6.1229417    42.640554  0.033522448  0.037300793            7 
  107000    1.0843304    -6.134435    43.088058  0.033557677  0.037251979            5 
  108000    1.1056914   -6.1654809    43.275538  0.033391619  0.037195611            3 
  109000    1.0806543    -6.140272    43.585108  0.033321948  0.037132214            6 
  110000     1.081972   -6.1720571    43.855491  0.033223857   0.03706812            6 
  111000    1.1114504   -6.1238293    44.305914  0.033262698   0.03700425            7 
  112000    1.1034297   -6.1601869    44.640559  0.033214701  0.036940322            3 
  113000     1.101575   -6.1305706    44.991776  0.033179776  0.036876082            5 
  114000    1.0928775   -6.1122541    45.505855  0.033264514  0.036809072            7 
  115000    1.0659555   -6.1357224     45.74647  0.033149616   0.03674714            4 
  116000    1.1047656   -6.1451174    46.149206  0.033153165  0.036686018            4 
  117000    1.0930145   -6.1155941    46.588539   0.03318272   0.03662732            4 
  118000    1.0699163   -6.1552023    47.071165  0.033242348  0.036570099            4 
  119000    1.0860594   -6.1654618    47.189108  0.033045593  0.036514145            5 
  120000    1.0852759   -6.1415073     47.57246  0.033036431  0.036450587            5 
  121000    1.1066182   -6.1698323    47.819319  0.032933415  0.036386583            7 
  122000    1.0740323   -6.1598198    48.179753  0.032909667  0.036318929            4 
  123000    1.1011355   -6.1444698    48.489248  0.032851794  0.036247963            7 
  124000     1.078326   -6.1656549    48.579448  0.032647478  0.036170384            6 
  125000    1.0625726   -6.1908237    48.883196  0.032588797  0.036088989            5 
  126000    1.0360332   -6.2074476     49.09181  0.032468128  0.036007441            7 
  127000    1.0615264   -6.1953139    49.693961  0.032607586  0.035929096            5 
  128000    1.0583915   -6.2194549    49.972327  0.032534067  0.035855701            4 
  129000    1.0730567   -6.1924398    50.360026  0.032532316  0.035781871            4 
  130000    1.0430842   -6.1878995    50.519331  0.032384186  0.035706879           11 
  131000    1.0524427   -6.2078574    50.951882  0.032412139  0.035630643            6 
  132000    1.0602676    -6.197898    51.009027  0.032202668  0.035551038            4 
  133000    1.0457977   -6.1899624    51.432953  0.032226161  0.035469867           10 
  134000    1.0499774   -6.2442125    51.567226  0.032069171  0.035390333            2 
  135000    1.0742924   -6.2238755    51.986566  0.032090473  0.035309323            9 
  136000      1.06421   -6.2108711    52.535317  0.032190758  0.035231808            2 
  137000    1.0384361   -6.2090392    52.795377  0.032113976  0.035157229            7 
  138000    1.0309246   -6.2501122    53.254543   0.03215854  0.035082396            4 
  139000    1.0631355   -6.1995473    53.553468  0.032106396  0.035009892            4 
  140000    1.0300994   -6.2242619    53.737964  0.031986883  0.034937185            8 
  141000    1.0405997   -6.2310768    54.201551  0.032034014   0.03486619            7 
  142000    1.0487103   -6.2524813    54.630023  0.032059873  0.034802277            5 
  143000    1.0454339   -6.2421159    54.867181  0.031973881    0.0347373            9 
  144000    1.0369053   -6.2203445    55.685332  0.032225308  0.034676859            8 
  145000    1.0353403   -6.2617588    56.424549  0.032427901  0.034624964            8 
  146000    1.0102637    -6.256854    56.538138  0.032270627  0.034576012            8 
  147000    1.0198965   -6.2503323    56.799818  0.032199443  0.034526489            5 
  148000    1.0529829   -6.2631038    56.981577  0.032084221  0.034473264            8 
  149000    1.0362591   -6.2286682    57.331019  0.032064328  0.034418634           16 
  150000    1.0423964   -6.2333863       57.479  0.031932777  0.034361446            2 
  151000     1.040826   -6.2508309    57.765597  0.031879468   0.03430134           14 
  152000    1.0214584   -6.2680964    58.197591  0.031906574  0.034244351            9 
  153000    1.0280029   -6.2454475    58.723908  0.031984699  0.034189693            5 
  154000    1.0217778   -6.2641909    58.871019  0.031856612  0.034135464           13 
  155000    1.0337017   -6.2585449    59.032087  0.031737681  0.034078295            9 
  156000    1.0246495   -6.2599518    59.427635  0.031745531  0.034019925           10 
  157000    1.0215734   -6.3161303    59.500116  0.031581802  0.033961378            4 
  158000    1.0132353   -6.2744106    59.974087  0.031631903  0.033899441            6 
  159000    1.0148861   -6.2992424    60.413027  0.031663012  0.033839343            8 
  160000    1.0211692   -6.3152283    60.893415   0.03171532  0.033782552           12 
  161000    1.0022443   -6.3005542    61.322795  0.031740577  0.033727049            4 
  162000   0.99952611   -6.2714258    61.399076  0.031583887  0.033672551            9 
  163000   0.98747657   -6.2621271    61.768063  0.031578764  0.033615199            5 
  164000    1.0059841   -6.3012355    61.757082  0.031380631   0.03355807            8 
  165000    1.0312512   -6.2879701    62.118973  0.031373219  0.033501219           12 
  166000   0.98645199   -6.2890376    62.264862  0.031257461  0.033440174            4 
  167000    1.0079666   -6.3073161    62.815968  0.031345293  0.033382054           15 
  168000   0.99554884     -6.29414    63.450907  0.031473664  0.033329219           28 
  169000   0.99436204   -6.2836558    63.543377  0.031333026  0.033276358            5 
  170000   0.98730571   -6.2743402    63.831489  0.031289946   0.03322247           13 
  171000    1.0018808   -6.3227477    63.971638  0.031175262  0.033166738            7 
  172000    1.0018243   -6.2998612     64.36997  0.031187001  0.033111969            7 
  173000   0.98073747   -6.3367145    64.714756  0.031172811  0.033058643            5 
  174000    1.0126775   -6.3361372    64.637512  0.030956663  0.033002601           12 
  175000    1.0166882   -6.3434134    65.013953  0.030959025  0.032943659            6 
  176000   0.96841363   -6.3118575    65.195241  0.030868959  0.032883965            3 
  177000    1.0000565   -6.3527755    65.730625  0.030946622  0.032824226            7 
  178000   0.98380635   -6.3150508    66.059678  0.030926815   0.03276676            5 
  179000   0.97164697   -6.3230967    66.437251  0.030929819  0.032712558            9 
  180000   0.97820084   -6.3335856    66.703457   0.03088123  0.032657247            4 
  181000   0.96667021   -6.3209001    66.692829  0.030705722  0.032601119            7 
  182000   0.96075942   -6.3608531    66.801899   0.03058695  0.032542803            9 
  183000   0.98652793   -6.3686629    67.060002  0.030537341  0.032482505            8 
  184000   0.97214047   -6.3624868     67.44806  0.030547129  0.032422044            9 
  185000   0.98482199   -6.3659471    67.816249   0.03054786  0.032361906            4 
  186000   0.98036922   -6.3432405    67.860816  0.030403591  0.032302801            8 
  187000   0.96141039   -6.3547002     68.24732  0.030413244  0.032242736           13 
  188000   0.98086628   -6.3259617     68.79099   0.03049246  0.032184754            7 
  189000   0.97576846    -6.330049    68.641469  0.030265198   0.03212608            8 
  190000   0.95828414   -6.3824457    68.784731  0.030168742  0.032064287            5 
  191000   0.95170933   -6.3605756    69.078339  0.030138891  0.032002089            3 
  192000   0.96656401   -6.3832622    69.551515  0.030187289    0.0319396            6 
  193000    0.9684475   -6.3718482    69.693619  0.030092236   0.03187776            7 
  194000   0.98369008    -6.388606    69.797279  0.029981649  0.031813917           11 
  195000   0.96464446   -6.3890381    69.905081  0.029873966  0.031752267            4 
  196000   0.97708138   -6.4165097    70.251294  0.029868747  0.031688381            4 
  197000   0.95890428   -6.4222401    70.667569  0.029893219  0.031625458           11 
  198000   0.94966937   -6.3691515    70.829491  0.029810392    0.0315631            9 
  199000   0.94024276   -6.3874085    70.702653  0.029607476  0.031497423            6 
  200000   0.95286885   -6.4003934    71.013879  0.029589116  0.031431537            7 
  201000   0.95034633   -6.3896824    71.265837  0.029546367  0.031366826           15 
  202000   0.96639504   -6.4102939    71.417571  0.029462694   0.03130014           11 
  203000   0.94939776   -6.3920111    71.636539  0.029407446  0.031232696            9 
  204000    0.9481842    -6.414122    71.650259  0.029268897  0.031164261           16 
  205000   0.92457073   -6.4190591    71.824761  0.029197057  0.031095206           10 
  206000   0.92706023   -6.4043092    72.366599  0.029274514  0.031029183            9 
  207000   0.92133033   -6.4148412    72.609645  0.029230936  0.030962337            7 
  208000    0.9443258   -6.4097304     72.61957  0.029094379  0.030896134            6 
  209000     0.956812   -6.4350494    73.108648  0.029150179   0.03083097            8 
  210000   0.93287015   -6.4323464    72.994589  0.028966107  0.030764594            9 
  211000   0.92094212   -6.4235512    73.267928   0.02893678  0.030696325            6 
  212000   0.91035512   -6.4454937    73.583453  0.028924313  0.030628629            7 
  213000   0.94116663   -6.4584378    73.545238  0.028773567  0.030560257            7 
  214000   0.93827151   -6.4149047    74.112982  0.028860196  0.030492648           16 
  215000    0.9267588   -6.4728584    74.065156  0.028707425  0.030425657            7 
  216000   0.92376214   -6.4671988    74.485856  0.028736827  0.030359392            6 
  217000   0.93603127   -6.4258183    75.148886  0.028859019  0.030294861           14 
  218000   0.90366687   -6.4721241    74.893393  0.028628973  0.030230754            8 
  219000   0.91686653   -6.4632279    74.965022  0.028525503  0.030165633            4 
  220000   0.92627907   -6.4607353    75.279246  0.028514866  0.030099248           21 
  221000   0.92373594   -6.4693715    75.519178  0.028476311  0.030034301            7 
  222000   0.90688858   -6.4554973     75.87795  0.028482714  0.029970819            7 
  223000   0.91981839    -6.473381    76.217537   0.02848189   0.02990688            4 
  224000   0.91418356    -6.429134    76.358088  0.028407027  0.029845013           10 
  225000    0.8973812   -6.4570014    76.568503  0.028358705  0.029782107           12 
  226000   0.92231203   -6.4546905    76.596973  0.028243722  0.029720205            5 
  227000   0.90952178   -6.5003384    76.650887  0.028139092  0.029657182            5 
  228000   0.90355738   -6.4912604    77.090763  0.028176448  0.029593213            4 
  229000   0.88629863   -6.4684214    77.168323  0.028081631  0.029530105           10 
  230000   0.89066011   -6.4543891    77.325855  0.028016614  0.029466494            7 
  231000   0.89685737   -6.5059537    77.292086  0.027883148  0.029401206            5 
  232000   0.88476452   -6.4954879    77.648276  0.027890904  0.029335512            6 
  233000    0.9007778   -6.5044558     77.59808  0.027753247  0.029268888           12 
  234000   0.91830484   -6.4936191    77.704449  0.027672524  0.029201995            6 
  235000   0.89313642   -6.5103318    78.050298  0.027677411   0.02913501            4 
  236000   0.91612727   -6.5110573    78.112463  0.027582084  0.029068633            8 
  237000   0.90786967   -6.5322484    78.079366  0.027454067  0.029001819            7 
  238000   0.89505275   -6.4989996    78.689325  0.027552285  0.028935885            7 
  239000   0.88873012   -6.5339835    78.762717  0.027462593  0.028870511            7 
  240000   0.86701771   -6.5060747    78.811748   0.02736519  0.028804368            9 
  241000   0.89458208   -6.5181242    78.950092  0.027299479  0.028738108           28 
  242000   0.88854671   -6.5045704    79.144005  0.027253445  0.028672605           11 
  243000   0.87060394   -6.5240446    79.452303  0.027247018    0.0286065           12 
  244000   0.89035211    -6.520298    79.582994  0.027179984  0.028540833           12 
  245000   0.88465541    -6.556188    79.863911  0.027164595  0.028475872            9 
  246000   0.85192713   -6.5428679    79.827986  0.027042001  0.028409595           22 
  247000    0.8844617   -6.5261814    80.053653  0.027008655  0.028344743            5 
  248000   0.86324486   -6.5480524    80.116863  0.026920989  0.028278943            5 
  249000   0.88995083   -6.5670507    80.389637  0.026904162  0.028213625           12 
  250000   0.85412548   -6.5808314    80.491287  0.026830429  0.028147995           13 
  251000   0.87474331   -6.5705102    80.583643  0.026754198   0.02808227            8 
  252000   0.86578799   -6.5518984    80.750277  0.026703134  0.028015738           12 
  253000   0.86219683   -6.5406844    80.820959  0.026620869  0.027949338            8 
  254000   0.85922691   -6.5826427    80.702915  0.026477334  0.027882953           16 
  255000   0.86523415   -6.5553933    80.772784  0.026396335  0.027816093           14 
  256000   0.85390434    -6.555088    81.304566   0.02646633  0.027749314            9 
  257000   0.83843692   -6.5885556    81.426006  0.026402726  0.027682552           10 
  258000   0.86804325   -6.5752529    81.415299  0.026296931  0.027614496           14 
  259000   0.83917541   -6.5927188    81.493386  0.026220523  0.027546385           28 
  260000   0.87123644   -6.5897789    81.677319  0.026178628  0.027478047           18 
  261000   0.85857313   -6.5735456    81.565557  0.026042643  0.027409605           53 
  262000    0.8668929    -6.589983    81.730441  0.025995687  0.027340861           15 
  263000   0.84337018   -6.5759725    81.715666  0.025892163  0.027272641           17 
  264000    0.8536739   -6.5850446    82.132997   0.02592582  0.027204696           22 
  265000   0.85908777   -6.5906144    81.909761  0.025757786  0.027136225           11 
  266000   0.85690566   -6.5777765    82.105611  0.025722309  0.027066275            7 
  267000   0.84389279   -6.6190383    82.265406  0.025675844  0.026995933           15 
  268000   0.82525252   -6.6181807     82.22307  0.025566875  0.026924727           20 
  269000   0.84481417   -6.5945197     82.54352  0.025571103  0.026855014           25 
  270000   0.82987533   -6.6105458    82.307491  0.025403547  0.026784747           14 
  271000   0.84160185   -6.6193166    82.652621  0.025415935  0.026714445           60 
  272000   0.82149442   -6.6035997      82.5778  0.025299571  0.026644487           28 
  273000   0.84117661   -6.6288805    82.963513  0.025324638  0.026574645           11 
  274000   0.82692061   -6.6388903    82.736039  0.025163029  0.026503945           24 
  275000   0.84860802   -6.6639159    82.995701  0.025150212  0.026432958            9 
  276000   0.84842568   -6.6214283    82.960007  0.025048311  0.026362149           11 
  277000   0.79993054   -6.6129617    83.161368  0.025018462  0.026291232           17 
  278000   0.80356468   -6.6500896    83.317218  0.024975185  0.026221002           12 
  279000   0.84713348   -6.5871318    83.508428   0.02494278  0.026151403           11 
  280000   0.80719862   -6.6303441    83.584673  0.024876391  0.026082386           15 
  281000   0.82899777   -6.6550963    83.778695  0.024845402    0.0260131           11 
  282000   0.82396304   -6.6176997    83.837984  0.024774818  0.025943727           16 
  283000   0.83976423   -6.6387451     83.84987  0.024690774  0.025874814           18 
  284000   0.79497609   -6.6344751    83.923826  0.024625536  0.025806201           22 
  285000   0.81238273   -6.6591347    84.218597  0.024625321  0.025736997           22 
  286000   0.81274353   -6.6785443    84.234721  0.024543916  0.025668231           23 
  287000   0.79464802   -6.6555495    84.311064  0.024480564  0.025599764           39 
  288000   0.82448383   -6.6583864    84.484854  0.024445849  0.025531728           15 
  289000   0.80902735   -6.6803389    84.495811  0.024364421  0.025464071           11 
  290000   0.81161116   -6.6961147    84.710064  0.024341972  0.025396673           17 
  291000   0.81218617   -6.6532031    84.713879  0.024259415  0.025329118           16 
  292000   0.80665713   -6.6673206    84.955729  0.024245356   0.02526161           15 
  293000   0.80811586   -6.6772894    85.147393   0.02421712  0.025194888           15 
  294000   0.78418541   -6.6708904     85.22684  0.024157267  0.025129076           14 
  295000    0.8023847   -6.6734568    85.454521  0.024139695  0.025064026            9 
  296000   0.78073147   -6.6579168    85.856158  0.024171216  0.025000237            7 
  297000   0.77635037   -6.6680966    85.927721   0.02410991  0.024936087           21 
  298000   0.78993946   -6.7100598    85.798132  0.023992766  0.024871225           13 
  299000   0.80595525   -6.7078195    85.660867  0.023874266  0.024806131           17 
  300000    0.7818567   -6.7035957    85.736101  0.023815584  0.024741227           14 
  301000   0.79414371   -6.6982535    85.851622  0.023768445  0.024675975            8 
  302000    0.7818049   -6.6956319    85.989437   0.02372777  0.024610687           28 
  303000    0.7898792   -6.7314897    85.868195  0.023616115  0.024545096           21 
  304000   0.78984511   -6.7257519    86.075617   0.02359529  0.024479357           13 
  305000   0.77576092   -6.7478064    86.024788   0.02350404  0.024413704           39 
  306000   0.78394122   -6.7626567    86.124454  0.023454372  0.024347755           24 
  307000   0.78075548   -6.7341835    86.297722  0.023425006  0.024282242           42 
  308000   0.77740503   -6.7181352    86.294566  0.023348097  0.024217345           12 
  309000   0.77621324   -6.7113849    86.686641  0.023378274   0.02415264           14 
  310000   0.77817004   -6.7263685    86.782434  0.023328611  0.024088394           16 
  311000   0.76701314   -6.7196514    86.663745  0.023221797   0.02402474           20 
  312000   0.76358879    -6.745326    86.697965  0.023156508  0.023961036           24 
  313000   0.77145323   -6.7144572    87.182704  0.023211582  0.023897791           11 
  314000   0.76627503   -6.7490661    87.095686  0.023114566  0.023835264           26 
  315000   0.77291608   -6.7421794    86.885405  0.022985557  0.023771698           19 
  316000   0.77133366   -6.7550675     87.19928  0.022995591  0.023708647           19 
  317000    0.7574806   -6.7395641    87.293688  0.022947867  0.023645675           18 
  318000   0.77290036   -6.7851433    87.301022  0.022877626  0.023582607           25 
  319000   0.75597232   -6.7346838     87.49986  0.022857853  0.023519154           65 
  320000    0.7495137    -6.746862    87.563808  0.022803075  0.023455842           34 
  321000   0.75880612   -6.7511237    87.502871  0.022716218  0.023392739           47 
  322000   0.75828577   -6.8022039    87.602944  0.022671569  0.023330022           41 
  323000    0.7602997   -6.7956268    87.347497  0.022535474  0.023266784           33 
  324000   0.75679525   -6.7752841    87.663867  0.022547291  0.023203427           41 
  325000   0.75895222   -6.8019991    87.661059  0.022477195  0.023140159           62 
  326000   0.75539507   -6.7817513    87.512979  0.022370393    0.0230775           30 
  327000   0.73813009   -6.8012029    87.779406  0.022369879  0.023014554           40 
  328000   0.74819971   -6.7901465    87.743575  0.022292575  0.022951706           26 
  329000    0.7440461    -6.806337    87.712853  0.022217035  0.022888778           25 
  330000   0.75088236   -6.8158925    87.575436  0.022115009  0.022825814           61 
  331000    0.7427643   -6.7886319    87.584996  0.022050603  0.022762758           94 
  332000   0.74965119    -6.827601    87.933563  0.022071677  0.022699416           80 
  333000   0.73114255   -6.8437941    87.836864  0.021981197  0.022636107           97 
  334000    0.7301355   -6.8379213    87.922698  0.021936801  0.022572675           78 
  335000   0.72171299     -6.80683    88.016242  0.021894588  0.022509628           46 
  336000   0.72530052   -6.8321676    87.856359  0.021789771  0.022446816           48 
  337000   0.72294677   -6.8367138     88.29809  0.021834345   0.02238427          130 
  338000   0.72552679   -6.8299071    88.176087  0.021739666  0.022321989          218 
  339000   0.72452988    -6.818605     88.44799  0.021742377  0.022259689          131 
  340000   0.71057485   -6.8368781    88.301799  0.021642598  0.022197684           89 
  341000   0.73171356   -6.8452781    88.462357  0.021618367   0.02213591          111 
  342000   0.71359272   -6.8612466    88.284716   0.02151187  0.022073739          105 
  343000   0.72487388   -6.8377545    88.344927  0.021463782   0.02201145          174 
  344000   0.71759741   -6.8671542    88.400041  0.021414739  0.021949065          126 
  345000   0.72737161   -6.8638135    88.408715  0.021354762    0.0218871           86 
  346000   0.72357405   -6.8578461    88.539296  0.021324493   0.02182517          144 
  347000   0.72284851   -6.8793957    88.300802  0.021205764  0.021763255          265 
  348000   0.69638186   -6.8588219    88.541606  0.021202492  0.021701723          245 
  349000   0.70962847   -6.8675862    88.717736  0.021183796  0.021640357          216 
  350000   0.71594717   -6.8578795    88.497768  0.021070897  0.021579061          185 
  351000   0.71365167   -6.9009917    88.661669  0.021049779  0.021517734          357 
  352000   0.70439515    -6.899034     88.73226   0.02100669  0.021456502          340 
  353000   0.71111515   -6.8680937    88.735364  0.020947914  0.021395813          451 
  354000   0.70431917   -6.8942516    88.765246  0.020895774  0.021335342          462 
  355000   0.70313562   -6.9116332    88.537986  0.020783565  0.021274532          585 
  356000   0.70876816   -6.9016995    88.730945  0.020770352  0.021213811          562 
  357000   0.70613919   -6.9057575    88.842347  0.020738176  0.021153279          526 
  358000   0.71863799   -6.9222982    88.822756  0.020675688  0.021092719          501 
  359000   0.69091254   -6.9301878    88.811146  0.020615401   0.02103199          724 
  360000   0.68824713   -6.9373428    89.037008  0.020610418  0.020971714          620 
  361000   0.69399707   -6.9233005    88.870544  0.020514899  0.020911547          752 
  362000   0.69707017   -6.9504123    88.883444  0.020461198  0.020851314          660 
  363000   0.70303686   -6.9463681    89.015651  0.020435182  0.020791122          799 
  364000   0.66152879   -6.9377081    89.007358  0.020377142  0.020731132          860 
  365000   0.67906395   -6.9653239    88.842632  0.020283706  0.020671086          875 
  366000    0.6978618   -6.9542387    89.021884  0.020269099  0.020610886          872 
  367000   0.68248978   -6.9666591    88.862166  0.020177604  0.020550626         1040 
  368000   0.67830768   -6.9532008    88.951883  0.020143089  0.020490589         1052 
  369000   0.68306161   -6.9695859    88.854453  0.020066498  0.020430436         1026 
  370000   0.68727659   -6.9783256    88.867133   0.02001512  0.020370362         1022 
  371000   0.67532762   -6.9907275     88.84563  0.019956341  0.020310266         1032 
  372000   0.68126575   -7.0065532    88.758848  0.019883255  0.020250152         1166 
  373000   0.66118648   -7.0161582    88.855748  0.019851597   0.02019008         1155 
  374000    0.6627135   -7.0032026    88.456529  0.019709565  0.020129518         1327 
  375000   0.67256447   -7.0168105    88.710781  0.019713507  0.020069152         1285 
  376000   0.65946631   -7.0304283    88.835092  0.019688628  0.020008961         1353 
  377000   0.66209045    -7.050607    88.595419  0.019583426   0.01994853         1513 
  378000   0.66234637   -7.0561509    88.567191  0.019525395  0.019888149         1468 
  379000   0.66355312   -7.0442912    88.537284  0.019467301  0.019827829         1572 
  380000   0.66566144   -7.0524364    88.404758  0.019387008  0.019767348         1513 
  381000   0.65710152   -7.0455188     88.56855  0.019371949  0.019706845         1589 
  382000    0.6565339   -7.0607891    88.475306  0.019300896  0.019646413         1698 
  383000   0.66014128   -7.0729616    88.547668  0.019266246  0.019586299         1710 
  384000   0.64979224   -7.0876191     88.62584  0.019233038  0.019526195         1701 
  385000   0.66477668   -7.0917073    88.635713  0.019185219  0.019466303         1668 
  386000   0.66939284   -7.0972882    88.637658  0.019135936  0.019406541         1731 
  387000   0.63858961   -7.1023276    88.533582  0.019064079  0.019346865         1826 
  388000   0.62761862   -7.1059028    88.423507  0.018991303  0.019287145         1864 
  389000   0.64180603    -7.107345    88.510031  0.018961018  0.019227466         1982 
  390000    0.6491132   -7.1107314     88.48568  0.018907197   0.01916802         1866 
  391000   0.63314016   -7.1404695    88.664349   0.01889692  0.019108474         1871 
  392000     0.641859   -7.1244903     88.45407  0.018804011  0.019049034         1986 
  393000   0.64561294   -7.1196125    88.576548  0.018782135  0.018989942         1953 
  394000   0.64471278    -7.128482    88.461943  0.018710225  0.018930796         2026 
  395000    0.6365427   -7.1151323    88.367611  0.018642956  0.018871852         2014 
  396000    0.6362307   -7.1509067    88.490069  0.018621647  0.018813017         2053 
  397000    0.6328444   -7.1550065    88.301982  0.018535261  0.018754159         2080 
  398000   0.64035602   -7.1470251    88.474951  0.018524906  0.018695331         2089 
  399000   0.63381665   -7.1648175    88.375827  0.018457775  0.018636762         2148 
  400000   0.63750098   -7.1591914    88.281549  0.018391989  0.018578341         2301 
  401000   0.62566099   -7.1852154    88.218316  0.018332983  0.018519819         2284 
  402000   0.62818654   -7.1800421    88.215091   0.01828671  0.018461596         2307 
  403000   0.61556674    -7.179705    88.410024  0.018281643  0.018403405         2214 
  404000   0.62854233   -7.1777649    88.148711   0.01818249  0.018345479         2298 
  405000   0.62854513   -7.1741014    88.230443  0.018154412  0.018287505         2277 
  406000   0.63253774   -7.1820585    88.237614  0.018111169  0.018229633         2398 
  407000   0.62469639   -7.2218872    88.111941  0.018040938  0.018171788         2483 
  408000   0.61189184   -7.2183172    88.067454  0.017987634  0.018114004         2501 
  409000   0.61280386   -7.2220608    88.066329  0.017943425  0.018056313         2611 
  410000   0.60619598   -7.2380919    88.029779  0.017892232  0.017998738         2673 
  411000   0.61360179   -7.2440847    87.839598  0.017810137  0.017941293         2683 
  412000   0.60946732    -7.225773    87.960325  0.017791328  0.017883869         2752 
  413000   0.60791273   -7.2461671    88.080649  0.017772528  0.017826699         2711 
  414000   0.60248936   -7.2587539    87.967242  0.017706772  0.017769397         2708 
  415000   0.59578849   -7.2396643    88.069302  0.017684599  0.017712376         2780 
  416000   0.60168858    -7.255822    88.031214  0.017634458  0.017655298         2869 
  417000    0.5930722   -7.2811025    87.982951  0.017582524  0.017598487         2930 
  418000   0.60588193   -7.2733733    87.854367  0.017514826  0.017541648         2952 
  419000   0.58880202   -7.2834355    87.844136   0.01747099  0.017485083         2939 
  420000   0.60421086   -7.2664959    87.904832  0.017441435  0.017428578         2974 
  421000   0.59474109   -7.2709686    87.987357  0.017416341  0.017372438         2932 
  422000   0.59443244   -7.2887977    87.834062  0.017344799  0.017316244         2888 
  423000   0.58330141   -7.3003589    87.833609  0.017303706  0.017260331         2994 
  424000   0.58802513   -7.3025872    87.753701   0.01724719  0.017204522         3032 
  425000   0.57930524    -7.288687    87.783346  0.017212421  0.017148935         2996 
  426000   0.59056729   -7.2983809     87.60285  0.017136708  0.017093467         3030 
  427000   0.59228058    -7.310913    87.748881  0.017125074  0.017038223         3127 
  428000   0.57451832   -7.3196291    87.834828  0.017101797  0.016983138         3171 
  429000    0.5740921   -7.3295839     87.69502  0.017034775  0.016927964         3198 
  430000     0.585563   -7.3399717    87.845256  0.017024274  0.016872976         3230 
  431000   0.57567344   -7.3563808    87.701227  0.016956927  0.016818234         3231 
  432000   0.57881996   -7.3480583     87.54723  0.016887969  0.016763643         3212 
  433000   0.57758131   -7.3569062     87.61638  0.016862275  0.016709304         3220 
  434000   0.56604095    -7.363932    87.708679  0.016841144  0.016655086         3213 
  435000   0.57497379    -7.354166    87.721019  0.016804793  0.016601152         3144 
  436000   0.57199454   -7.3545376    87.673856  0.016757235  0.016547356         3259 
  437000   0.57537731   -7.3647015    87.600556  0.016704911  0.016493682         3223 
  438000   0.57150663   -7.3643083    87.598581  0.016666397  0.016440267         3225 
  439000   0.58322641   -7.3484234    87.526283  0.016614708  0.016386988         3204 
  440000   0.56057696   -7.3753893    87.573317  0.016585855  0.016333966         3193 
  441000   0.55975418   -7.3614713    87.637933  0.016560456  0.016281085         3201 
  442000   0.57125148    -7.391799    87.672412  0.016529489  0.016228462         3309 
  443000   0.55562459   -7.3656324    87.551399  0.016469413  0.016176021         3205 
  444000   0.56954334   -7.3728812    87.640583  0.016449058  0.016123711         3235 
  445000   0.55389041   -7.3977829    87.727345  0.016428342  0.016071592         3304 
  446000   0.54864034   -7.3865985    87.510584  0.016351006  0.016019589         3254 
  447000   0.55215726   -7.3665985    87.627054   0.01633614  0.015967726         3283 
  448000   0.54714054   -7.3801635    87.479833   0.01627229  0.015916076         3300 
  449000   0.56126161    -7.408842    87.560606  0.016251041  0.015864561         3348 
  450000   0.54671571   -7.4135645    87.501822  0.016204041  0.015813221         3401 
  451000   0.54872472   -7.3923906    87.422583  0.016153471  0.015762026         3400 
  452000   0.55862117   -7.4150064    87.377487  0.016109419  0.015711039         3361 
  453000   0.54733542   -7.4100951    87.494285  0.016095343  0.015660251         3382 
  454000    0.5401967   -7.4102676    87.522074  0.016064992  0.015609612         3402 
  455000   0.53484658   -7.4060624    87.270906  0.015983682  0.015559086         3388 
  456000   0.53831799   -7.4121287    87.322127  0.015957991  0.015508755         3408 
  457000   0.53858301   -7.4382081    87.405652  0.015938303  0.015458639         3374 
  458000   0.53903728   -7.4338703    87.364958  0.015896099   0.01540867         3393 
  459000   0.53574126   -7.4279401    87.317145  0.015852786  0.015358993         3355 
  460000   0.53338942   -7.4428862    87.448241  0.015842073  0.015309298         3358 
  461000   0.52512979   -7.4305075    87.358129  0.015791419  0.015259786         3376 
  462000   0.52230718   -7.4546308    87.328479   0.01575189  0.015210512         3416 
  463000   0.52990648   -7.4257172    87.269653  0.015707281   0.01516134         3398 
  464000   0.52095837    -7.424283    87.252713  0.015670387  0.015112473         3385 
  465000   0.52301119   -7.4311238    87.374354  0.015658486  0.015063755         3379 
  466000   0.50795784   -7.4540015     87.25692  0.015603884  0.015015153         3392 
  467000   0.52147853   -7.4529662     87.32336  0.015582327  0.014966722         3379 
  468000   0.51075331   -7.4463004    87.254003  0.015536681  0.014918414         3375 
  469000    0.5230342   -7.4629883    87.231812  0.015499611  0.014870359         3395 
  470000   0.52548228   -7.4634079    87.117023  0.015446281   0.01482249         3386 
  471000   0.51394101   -7.4583726    87.176235  0.015423962  0.014774781         3396 
  472000   0.52063494   -7.4737865    87.244034  0.015403255  0.014727304         3422 
  473000   0.51912882   -7.4766758    87.232239  0.015368612  0.014679966         3396 
  474000   0.51642376   -7.4633296    87.112364  0.015315113  0.014632828         3429 
  475000   0.52023765   -7.4737313    87.071324  0.015275671  0.014585914         3432 
  476000   0.51263177   -7.4835342     87.18924  0.015264223  0.014539113         3423 
  477000   0.50750269   -7.4485532    87.074006  0.015212091   0.01449248         3436 
  478000   0.50404938    -7.476557     87.14042  0.015191844  0.014446044         3420 
  479000   0.50504425   -7.4764797     87.28027  0.015184459  0.014399816         3410 
  480000   0.49783025   -7.4785514     87.25406  0.015148274  0.014353793         3412 
  481000   0.50224177   -7.4768181    87.304718  0.015125558  0.014307989         3408 
  482000   0.49357634   -7.4811321    87.116751  0.015061679   0.01426236         3424 
  483000   0.48901235   -7.4866606    87.084224  0.015024883  0.014216909         3476 
  484000   0.49643809   -7.4793957    87.084739  0.014993929  0.014171602         3415 
  485000   0.50278704   -7.4839626    87.023146  0.014952431  0.014126518         3444 
  486000   0.49910755   -7.4942497    87.068309  0.014929408  0.014081498         3457 
  487000   0.49390741   -7.4786282    87.046355  0.014894996  0.014036626         3477 
  488000   0.48654375   -7.5049527     86.98674  0.014854293  0.013991919         3436 
  489000   0.48297149   -7.5134246    87.079359    0.0148397  0.013947448         3457 
  490000   0.49208614   -7.5027601    87.103081  0.014813449  0.013903101         3409 
  491000   0.48336594   -7.4966779    86.974546  0.014761464  0.013858958         3440 
  492000    0.4910118   -7.5101437    87.063597  0.014746544  0.013814967         3451 
  493000   0.47390249   -7.4979935     86.90025  0.014689021  0.013771148         3438 
  494000   0.47249689   -7.5170199    87.106889  0.014694145  0.013727531         3370 
  495000    0.4824243   -7.5186492    87.108169  0.014664675   0.01368406         3428 
  496000   0.47057282   -7.5156305    86.992932  0.014615748  0.013640669         3445 
  497000   0.46700048   -7.5199952    87.038246  0.014593938  0.013597428         3417 
  498000   0.47759867   -7.5330519    86.823055  0.014528624  0.013554407         3496 
  499000   0.46175035   -7.5340561     86.89421  0.014511391  0.013511458         3471 
  500000   0.47179358   -7.5406116    86.904559  0.014484093  0.013468791         3530 
  501000   0.47145675   -7.5408724    86.857007  0.014447273  0.013426268         3525 
  502000   0.46880085   -7.5519173    86.873661  0.014421258  0.013383927         3497 
  503000   0.47562742   -7.5477042    86.949863  0.014405213  0.013341682         3511 
  504000   0.46698085   -7.5485801    86.975899  0.014380936  0.013299609         3532 
  505000   0.46193681   -7.5498007    86.850863  0.014331826  0.013257761         3524 
  506000   0.46605107   -7.5478152    86.825685  0.014299355  0.013216039         3521 
  507000   0.45599352   -7.5386309    86.888909  0.014281543  0.013174455         3510 
  508000   0.45634139   -7.5356031    86.815526  0.014241392  0.013133043         3536 
  509000   0.46147898   -7.5485686    86.818071   0.01421383  0.013091799         3549 
  510000   0.45175127   -7.5604148     86.89073  0.014197832  0.013050672         3534 
  511000   0.44942818   -7.5442815    86.662736  0.014132866  0.013009681         3551 
  512000   0.44364176   -7.5575355     86.68889   0.01410952   0.01296882         3526 
Loop time of 1057.61 on 48 procs for 500000 steps with 4000 atoms

Performance: 81693.555 tau/day, 472.764 timesteps/s
99.4% CPU use with 48 MPI tasks x no OpenMP threads

MPI task timing breakdown:
Section |  min time  |  avg time  |  max time  |%varavg| %total
---------------------------------------------------------------
Pair    | 65.809     | 68.676     | 75.729     |  29.3 |  6.49
Neigh   | 6.6405     | 6.7809     | 6.9261     |   2.0 |  0.64
Comm    | 55.915     | 62.725     | 68.33      |  35.8 |  5.93
Output  | 0.95325    | 0.95373    | 0.96364    |   0.1 |  0.09
Modify  | 900.87     | 906.59     | 912.33     |   8.7 | 85.72
Other   |            | 11.89      |            |       |  1.12

Nlocal:        83.3333 ave          88 max          78 min
Histogram: 1 2 2 6 7 3 12 8 3 4
Nghost:        1735.06 ave        1749 max        1719 min
Histogram: 2 3 1 9 5 10 3 5 6 4
Neighs:        10417.9 ave       11002 max        9692 min
Histogram: 2 2 4 5 3 7 13 6 3 3
FullNghs:      20835.8 ave       22038 max       19459 min
Histogram: 3 2 3 5 5 8 10 7 3 2

Total # of neighbors = 1000118
Ave neighs/atom = 250.02950
Neighbor list builds = 27027
Dangerous builds = 0

#clear
#
#next RN
#
#jump SELF
Total wall time: 0:17:40
