
units lj                  # Use reduced LJ style units
atom_style atomic         # Uncharged point particles
atom_modify map hash      # Needed for indexing of clusters etc
                          # Used to be able to find where atoms are in relation to each other.

lattice fcc 1.0 spacing 1 1 1
Lattice spacing in x,y,z = 1.5874011 1.5874011 1.5874011
region box block 0 10 0 10 0 10 units lattice
create_box 2 box
Created orthogonal box = (0.0000000 0.0000000 0.0000000) to (15.874011 15.874011 15.874011)
  3 by 4 by 4 MPI processor grid
create_atoms 1 box
Created 4000 atoms
  using lattice units in orthogonal box = (0.0000000 0.0000000 0.0000000) to (15.874011 15.874011 15.874011)
  create_atoms CPU = 0.019 seconds
set type 1 type/fraction 2 0.92 78393
Setting atom values ...
  3673 settings made for type/fraction
mass 1 1.0
mass 2 1.0
pair_style lj/cut  3.5
pair_modify tail  yes
pair_coeff 1  1  1.0  1.0   # Intearaction between 1 and 1 set with epsilon = 1 and sigma = 1
pair_coeff 1  2  1.5  0.8
pair_coeff 2  2  0.5  0.88

write_data data.0
System init for write_data ...
Neighbor list info ...
  update every 1 steps, delay 10 steps, check yes
  max neighbors/atom: 2000, page size: 100000
  master list distance cutoff = 3.8
  ghost atom cutoff = 3.8
  binsize = 1.9, bins = 9 9 9
  1 neighbor lists, perpetual/occasional/extra = 1 0 0
  (1) pair lj/cut, perpetual
      attributes: half, newton on
      pair build: half/bin/atomonly/newton
      stencil: half/bin/3d
      bin: standard
WARNING: Not all mixed pair coeffs generated from mixing. Use write_data with 'pair ij' option to store all pair coeffs. (../write_data.cpp:312)


#############################
#   M E L T   S Y S T E M   #
#############################

velocity all create 2.4 5300450 mom yes dist gaussian # Assign velocities
                                                    # Temperature 2.4, random number seed, zero linear momentum
                                                                                # Gaussian distribution

timestep 0.002   # simulation timestep
thermo 1000       # output thermodynamic data every 1000 steps bf 100

# Define a fix  in this case with index 1 applied to all
# particles in the simulation. This fix is for simulations
# in the anisotropic NPT ensemble. Note that we use the MTK
# correction.
fix 1 all npt temp 2.4 2.4 0.1 iso 5.68 5.68 0.5 mtk yes tchain 5 pchain 5 # Use NPT ensemble
                                                                         # Set temperature and pressure and damping
                                                                         # Numbers of thermostats in chain and in barostat
run 10000          # run for 10000 steps
Per MPI rank memory allocation (min/avg/max) = 3.642 | 3.644 | 3.648 Mbytes
Step Temp E_pair E_mol TotEng Press Volume 
       0          2.4   -3.0929104            0   0.50618957   -2.4174795         4000 
    1000     2.432756   -2.0505544            0    1.5976674     5.914727    4037.8925 
    2000    2.4645544   -2.0703131            0    1.6255943    5.7997263     4050.154 
    3000    2.3921542   -2.1123142            0      1.47502    5.6864921    4021.1592 
    4000    2.3649844   -2.0553728            0    1.4912169    5.9490443    4015.6819 
    5000    2.4229046   -2.0548716            0    1.5785766    5.7388757    4059.3471 
    6000    2.4474886   -2.1010642            0    1.5692509    5.7539394    4014.9878 
    7000    2.3984441    -2.064024            0    1.5327428    5.5573195    4087.6942 
    8000    2.3522532   -2.0806255            0    1.4468722    5.4036975    4075.0113 
    9000    2.4385381   -2.1111112            0    1.5457815    5.6614306    4021.1978 
   10000    2.3536607   -2.0743942            0    1.4552142     5.728007    4030.5683 
Loop time of 2.54521 on 48 procs for 10000 steps with 4000 atoms

Performance: 678923.191 tau/day, 3928.954 timesteps/s
99.7% CPU use with 48 MPI tasks x no OpenMP threads

MPI task timing breakdown:
Section |  min time  |  avg time  |  max time  |%varavg| %total
---------------------------------------------------------------
Pair    | 1.0753     | 1.1531     | 1.3238     |   5.1 | 45.30
Neigh   | 0.20483    | 0.21658    | 0.24714    |   1.8 |  8.51
Comm    | 0.74991    | 0.89819    | 1.0229     |   6.6 | 35.29
Output  | 0.00024357 | 0.00024949 | 0.000311   |   0.0 |  0.01
Modify  | 0.19973    | 0.26164    | 0.32022    |   6.7 | 10.28
Other   |            | 0.01545    |            |       |  0.61

Nlocal:        83.3333 ave          90 max          73 min
Histogram: 1 2 4 1 7 10 5 5 7 6
Nghost:        1635.81 ave        1668 max        1603 min
Histogram: 2 2 6 8 7 3 9 5 2 4
Neighs:        9464.77 ave       10591 max        8279 min
Histogram: 4 3 4 5 4 7 10 6 2 3

Total # of neighbors = 454309
Ave neighs/atom = 113.57725
Neighbor list builds = 905
Dangerous builds = 208

# Equilibrate just above the melting temperature to avoid step fn in T

fix 1 all npt temp 1.25 1.25 0.1 iso 5.68 5.68 0.5 mtk yes tchain 5 pchain 5
run 2000
Per MPI rank memory allocation (min/avg/max) = 3.643 | 3.645 | 3.649 Mbytes
Step Temp E_pair E_mol TotEng Press Volume 
   10000    2.3536607   -2.0743942            0    1.4552142     5.728007    4030.5683 
   11000    1.2608725   -3.0985476            0   -1.2077116    5.6263417    3159.4843 
   12000     1.260018   -3.0969253            0   -1.2073708    5.8039145    3144.2821 
Loop time of 0.613085 on 48 procs for 2000 steps with 4000 atoms

Performance: 563706.727 tau/day, 3262.192 timesteps/s
99.7% CPU use with 48 MPI tasks x no OpenMP threads

MPI task timing breakdown:
Section |  min time  |  avg time  |  max time  |%varavg| %total
---------------------------------------------------------------
Pair    | 0.26625    | 0.29275    | 0.34051    |   2.5 | 47.75
Neigh   | 0.039118   | 0.04131    | 0.047704   |   0.7 |  6.74
Comm    | 0.17878    | 0.22931    | 0.25662    |   3.1 | 37.40
Output  | 5.2082e-05 | 5.3693e-05 | 6.7123e-05 |   0.0 |  0.01
Modify  | 0.040795   | 0.044764   | 0.048818   |   1.0 |  7.30
Other   |            | 0.004905   |            |       |  0.80

Nlocal:        83.3333 ave          90 max          76 min
Histogram: 2 1 4 4 11 11 3 5 2 5
Nghost:        1929.46 ave        1950 max        1904 min
Histogram: 2 1 5 3 7 9 7 9 3 2
Neighs:        12151.6 ave       14077 max       10604 min
Histogram: 3 3 5 7 12 10 3 2 1 2

Total # of neighbors = 583277
Ave neighs/atom = 145.81925
Neighbor list builds = 141
Dangerous builds = 11

#############################
# L I N E A R  Q U E N C H  #
#############################

# Define solid atoms. This closely follows ten Wolde  Ruiz-Montero and Frenkel  Faraday Discuss  1996  104  93-110
# Compute components of the per-atom q6 vector
compute q6 all orientorder/atom degrees 1 6 components 6 nnn NULL cutoff 1.3 # compute the Q6 parameter.
                                                                             # Use all neighbours within 1.3 unit cell.

# get number of connections
compute coord_number all coord/atom orientorder q6 0.5

# An atom is solid if it has 8 or more connections (of a possible 14)
variable is_solid atom c_coord_number>=8
group solid dynamic all var is_solid    # Must be dynamic to update
dynamic group solid defined

# do clustering
compute cluster solid cluster/atom 1.3 # Create a cluster where all atoms within are solid and max 1.3 units from another member

# define chunks one chunk per cluster
compute clus_chunks solid chunk/atom c_cluster nchunk every compress yes  # Says which atoms are in which chunk

# count the size of each chunk
compute size_chunks solid property/chunk clus_chunks count


# Find the maximum entry in the vector of chunk sizes
variable max_n equal max(c_size_chunks)


# Thermo style which includes this variable
# thermo_style custom step temp pe vol v_max_n

thermo ${N}  # Print the thermo information every 100 steps
thermo 1000  

# Reset the npt fix at a lower temperature (below freezing)
fix 1  all npt temp  ${temp} ${temp}  0.1  iso  5.68  5.68  0.5  mtk yes tchain  5  pchain  5
fix 1  all npt temp  0.45 ${temp}  0.1  iso  5.68  5.68  0.5  mtk yes tchain  5  pchain  5
fix 1  all npt temp  0.45 0.45  0.1  iso  5.68  5.68  0.5  mtk yes tchain  5  pchain  5

dump dmp2 all dcd ${N} traj.dcd
dump dmp2 all dcd 1000 traj.dcd


compute msd all msd com yes
variable twopoint equal c_msd[4]/6/(step*dt+1.0e-6)
fix 9 all vector 10 c_msd[4]
variable fit equal slope(f_9)/6/(10*dt)
thermo_style custom step temp pe c_msd[4] v_twopoint v_fit v_max_n

fix 1 all npt temp 1.25 ${temp} 0.1 iso 5.68 5.68 0.5 mtk yes tchain 5 pchain 5
fix 1 all npt temp 1.25 0.45 0.1 iso 5.68 5.68 0.5 mtk yes tchain 5 pchain 5
run 500000 # 5000000  # Run for this many steps
Neighbor list info ...
  update every 1 steps, delay 10 steps, check yes
  max neighbors/atom: 2000, page size: 100000
  master list distance cutoff = 3.8
  ghost atom cutoff = 3.8
  binsize = 1.9, bins = 8 8 8
  4 neighbor lists, perpetual/occasional/extra = 1 3 0
  (1) pair lj/cut, perpetual
      attributes: half, newton on
      pair build: half/bin/atomonly/newton
      stencil: half/bin/3d
      bin: standard
  (2) compute orientorder/atom, occasional
      attributes: full, newton on
      pair build: full/bin/atomonly
      stencil: full/bin/3d
      bin: standard
  (3) compute coord/atom, occasional
      attributes: full, newton on
      pair build: full/bin/atomonly
      stencil: full/bin/3d
      bin: standard
  (4) compute cluster/atom, occasional
      attributes: full, newton on
      pair build: full/bin/atomonly
      stencil: full/bin/3d
      bin: standard
Per MPI rank memory allocation (min/avg/max) = 9.820 | 9.826 | 9.831 Mbytes
Step Temp PotEng c_msd[4] v_twopoint v_fit v_max_n 
   12000     1.260018   -3.0969253 1.8603312e-30 1.2918966e-32 8.3333333e+20            1 
   13000    1.2649399   -3.1025798    1.0814183 0.0069321681  0.091703027            2 
   14000    1.2619551   -3.1225567    2.2863334  0.013609127  0.096820994            2 
   15000    1.2149371   -3.1141839    3.5222402     0.019568  0.099972632            2 
   16000    1.2285548   -3.1046543    4.6897975  0.024426028   0.10009394            2 
   17000    1.2234066    -3.107995    5.8747365  0.028797727  0.099267897            1 
   18000    1.2613341   -3.1065052    7.0559485  0.032666427   0.09899485            3 
   19000    1.2606881   -3.1323072     8.102659  0.035537977  0.098599849            2 
   20000    1.2342463    -3.135272    9.2484087  0.038535035  0.097753879            2 
   21000    1.2506182   -3.1007545    10.377107  0.041178994  0.097033561            1 
   22000    1.2098071     -3.13716    11.315305  0.042861005  0.096300683            2 
   23000    1.2372462   -3.1338649    12.344502  0.044726457  0.095241592            1 
   24000    1.2194243   -3.1455454    13.358686  0.046384325  0.094108487            2 
   25000    1.2139959   -3.1472186    14.494604  0.048315347  0.093267046            2 
   26000    1.2298737   -3.1585822    15.346246  0.049186684  0.092491302            1 
   27000    1.2149846   -3.1197285    16.385222  0.050571673  0.091688521            1 
   28000    1.2392423   -3.1603602    17.571688  0.052296689  0.091062768            2 
   29000    1.2442331   -3.1355486     18.60336   0.05345793  0.090745155            3 
   30000    1.1803994   -3.1239392    19.805347  0.055014851  0.090534173            1 
   31000    1.2033919   -3.1343901    20.753247  0.055788297  0.090399899            3 
   32000    1.2196044   -3.1426446    21.816295  0.056813266   0.09022199            1 
   33000    1.2313644   -3.1499041    22.788795  0.057547461  0.089987436            1 
   34000    1.2037657   -3.1610754    23.776108  0.058274774  0.089714218            3 
   35000    1.2327277   -3.1525291    24.639129  0.058664592  0.089375812            2 
   36000     1.207265   -3.1472191    25.666364   0.05941288  0.088924396            1 
   37000    1.1989328   -3.2094144    26.837631  0.060445113  0.088674088            1 
   38000     1.224252   -3.1639957     28.01204  0.061429912  0.088579275            1 
   39000    1.1963766   -3.1267805    29.116376  0.062214478  0.088524492            1 
   40000    1.2033006   -3.1468517    30.110884  0.062731007  0.088430537            1 
   41000    1.1990755   -3.1614196    31.202185  0.063419074   0.08841001            2 
   42000    1.2117163   -3.1482631    32.260134  0.064008201   0.08843306            2 
   43000    1.2015757   -3.1656761    33.230664  0.064400511  0.088428449            2 
   44000    1.2033731   -3.2090531    34.223036  0.064816356  0.088338144            1 
   45000    1.1918564   -3.1706024     35.51484  0.065768221  0.088302396            1 
   46000    1.1849808   -3.1770566    36.683494  0.066455605  0.088363428            2 
   47000    1.2094583   -3.1612003    37.974013   0.06732981   0.08846791            1 
   48000    1.1978065   -3.1810059    38.835945  0.067423515  0.088520666            4 
   49000    1.2113751   -3.1849428    39.777144  0.067648204  0.088536851            2 
   50000    1.2061809   -3.2091878    40.628568  0.067714279   0.08849944            2 
   51000    1.2094021    -3.189878    42.101182   0.06879278  0.088466637            3 
   52000    1.1823006   -3.1812115    43.268708  0.069340877  0.088516374            2 
   53000    1.1295046   -3.2000379    44.306466  0.069664254  0.088575189            1 
   54000    1.1869037   -3.2141297    45.257669   0.06984208  0.088640421            2 
   55000    1.1789809    -3.162839     46.19967  0.069999499   0.08866911            1 
   56000    1.1681111   -3.1967008    47.075651  0.070053052  0.088608671            2 
   57000    1.1613182   -3.2012982    47.774167  0.069845273   0.08850657            1 
   58000     1.168077   -3.1821161    48.753252  0.070047776  0.088380289            2 
   59000    1.1728377    -3.215392    49.716797  0.070221464  0.088254005            1 
   60000    1.2080991   -3.1868059    50.898713  0.070692656  0.088144393            2 
   61000    1.1714365   -3.2282238    52.015731  0.071059741  0.088047172            1 
   62000     1.158773   -3.2029819    52.811751  0.070983536  0.087964241            1 
   63000    1.1582535   -3.2343914    53.453064  0.070705111  0.087820528            1 
   64000    1.1563746   -3.2550074     54.20571  0.070580351  0.087633689            3 
   65000    1.1673734   -3.2296923    55.295724  0.070891954  0.087440504            2 
   66000    1.1875948   -3.2673255    56.544502  0.071394573  0.087283673            5 
   67000     1.144527   -3.2210357    57.329061  0.071304802  0.087140325            2 
   68000    1.1515835   -3.2060576    58.166195  0.071282101  0.086967055            3 
   69000    1.1443977   -3.2155065    59.268411  0.071580206  0.086834823            2 
   70000    1.1575189   -3.2052726    60.686274  0.072245564  0.086734984            1 
   71000    1.1587236   -3.2227368    61.523858    0.0722111  0.086637275            2 
   72000    1.1780895   -3.2550787    62.259211  0.072059271  0.086514967            3 
   73000    1.1639828   -3.2703816    63.170542  0.072112491  0.086401518            3 
   74000    1.1539535   -3.2374171    63.873394  0.071929498  0.086260813            2 
   75000    1.1555182   -3.2356004    65.088964  0.072321071  0.086113839            2 
   76000    1.1428385   -3.2724843    65.500429  0.071820645  0.085977154            2 
   77000    1.1485285   -3.2561051    67.286168  0.072820528  0.085842699            1 
   78000    1.1357171   -3.2275612    67.938681   0.07258406  0.085736935            4 
   79000     1.139038   -3.2454599     68.82717    0.0726025  0.085617355            1 
   80000    1.1540917   -3.2365866     69.49923   0.07239503   0.08548564            3 
   81000    1.1447216    -3.246561    70.051961  0.072069918   0.08533069            2 
   82000    1.1265014   -3.2570727    71.191443  0.072349027  0.085179048            2 
   83000    1.1310221   -3.2715989    71.912488  0.072201293  0.085019434            4 
   84000    1.1352495   -3.2535327    73.138468  0.072558004  0.084859983            1 
   85000    1.1189052   -3.2434521    74.075921  0.072623452  0.084712283            1 
   86000    1.1457384   -3.2306728    74.810122  0.072490428  0.084572693            2 
   87000    1.1126302   -3.2572682    75.900332  0.072701467  0.084415583            1 
   88000    1.1156897   -3.2636944    76.999547  0.072916237  0.084275404            3 
   89000    1.1201616   -3.2635082     77.75817  0.072807275  0.084139766            2 
   90000    1.1298128   -3.2500155    78.416927  0.072608265  0.083983159            3 
   91000    1.1217598   -3.2715493    79.143208  0.072475465  0.083828681            1 
   92000    1.1354566    -3.248408    79.638815  0.072136608  0.083669743            2 
   93000    1.1056375   -3.3000037    80.269197  0.071925804  0.083487663            3 
   94000    1.1131594   -3.2764736     81.54258  0.072289521  0.083310574            2 
   95000     1.125171   -3.2824382     82.38224  0.072265122  0.083156013            3 
   96000    1.1303824   -3.2912985    83.112088  0.072145909  0.083012787            1 
   97000    1.0990305    -3.243245    84.520344  0.072611979   0.08286711            2 
   98000    1.1241139    -3.279802    85.184901   0.07243614  0.082718723            3 
   99000     1.119696   -3.2957426    85.745772  0.072176575  0.082574309            1 
  100000    1.0797678   -3.3133451    86.963609  0.072469674  0.082424259            3 
  101000    1.1213654   -3.2873935    87.804412  0.072445884  0.082272243            1 
  102000    1.0669128   -3.2894177    88.341738  0.072174622  0.082129596            1 
  103000    1.0854774   -3.2488515    89.631715  0.072517569  0.081985888            4 
  104000    1.1059926   -3.3108991    90.169198   0.07225096  0.081837011            1 
  105000    1.0994559   -3.3027339    90.695325  0.071980417  0.081682918            2 
  106000    1.0951057   -3.2931142    91.420724  0.071871638  0.081515859            2 
  107000    1.1016642   -3.3148927    92.580784  0.072103414  0.081354907            1 
  108000    1.1020048   -3.3014331    93.653292  0.072263342  0.081213909            2 
  109000    1.1028614   -3.3067192    94.645256  0.072358758  0.081078203            1 
  110000    1.0839189   -3.3130539    95.219891  0.072136281  0.080926731            2 
  111000    1.1011948    -3.344938    95.556789   0.07173933  0.080770481            1 
  112000    1.0899402    -3.308931    96.834373  0.072049384  0.080615912            5 
  113000    1.0951746   -3.3601432    97.338081  0.071783245   0.08047594            2 
  114000    1.1035799   -3.3367592    98.148544  0.071746011  0.080321675            3 
  115000    1.0823801   -3.3346105    99.137162  0.071838523  0.080182208            3 
  116000    1.0929983   -3.2869367    100.20122  0.071983636  0.080047051            2 
  117000    1.1013309   -3.3255421    101.22563  0.072098029  0.079914116            3 
  118000    1.0811838   -3.2898031     102.3281  0.072265609  0.079802664            3 
  119000    1.0801217   -3.3162375    103.13789   0.07222541  0.079695986            2 
  120000     1.065867   -3.3091933    104.14747   0.07232463   0.07958525            2 
  121000    1.0672055   -3.3027043    104.87332  0.072226802  0.079473729            2 
  122000    1.0748033   -3.3524047    105.46613  0.072039703  0.079354364            7 
  123000    1.0616429    -3.336786    105.67235   0.07159373  0.079226837            4 
  124000     1.067224    -3.324733    106.40842  0.071511032   0.07909928            2 
  125000    1.0738749    -3.369212    107.07501  0.071383338  0.078963322            3 
  126000    1.0649438   -3.3542855    107.68604  0.071220928  0.078821284            2 
  127000    1.0723369   -3.3388949    108.24225    0.0710251  0.078673755            2 
  128000    1.0561454   -3.3461832     109.3236  0.071174221  0.078536832            2 
  129000    1.0622375   -3.3530889    109.76174  0.070905515  0.078395202            2 
  130000    1.0590961   -3.3710275    110.67981  0.070948594  0.078259184            5 
  131000    1.0648128   -3.3507524    111.85203  0.071152692  0.078135656            1 
  132000    1.0541069   -3.4032816    113.03965  0.071363416   0.07801304            3 
  133000    1.0590878   -3.3577995     114.0971  0.071489412  0.077894702            2 
  134000    1.0429788    -3.354564    114.89005  0.071449034  0.077787474            4 
  135000    1.0309209   -3.3849973    115.64603  0.071386438  0.077676102            1 
  136000    1.0381282   -3.3723043    115.68421   0.07088493  0.077555192            5 
  137000    1.0446209   -3.3860965     116.8302  0.071064599  0.077440696            4 
  138000    1.0509515   -3.3947669     116.9633  0.070630015  0.077327315            3 
  139000     1.043722   -3.3739954    118.80969  0.071228832  0.077213192            3 
  140000    1.0342514   -3.3843415    119.31932  0.071023402  0.077098056            3 
  141000    1.0385225   -3.3557006    119.94825  0.070891399  0.076984898            2 
  142000    1.0293712   -3.3715991    120.27855  0.070586001  0.076869966            2 
  143000    1.0682944   -3.3983559    120.26703  0.070085684  0.076739103            4 
  144000    1.0342902   -3.3727946    120.93771  0.069987098  0.076600999            2 
  145000    1.0106059    -3.383848    121.81566     0.070009  0.076461194            1 
  146000    1.0524041    -3.402322    122.22184  0.069761327  0.076313671            1 
  147000    1.0467459   -3.3870404    122.98802  0.069721097  0.076159473            3 
  148000    1.0475652   -3.3939955    123.44241  0.069505863  0.076013744            3 
  149000     1.028482   -3.4032002    124.31068  0.069524989  0.075871961            2 
  150000    1.0361072   -3.3952025    125.49469  0.069719274  0.075731666            1 
  151000    1.0236665   -3.3719027    125.45857  0.069237619  0.075585246            2 
  152000    1.0101941   -3.4143563    126.66478  0.069443411  0.075440754            5 
  153000    1.0200114    -3.409817    127.19386  0.069277703   0.07529707            7 
  154000     1.022453   -3.3968223    128.24276  0.069395435  0.075159585            4 
  155000    1.0244266   -3.4015786    129.23143  0.069479266   0.07502257            2 
  156000    1.0188166   -3.3822873    129.43587  0.069143091  0.074890526            4 
  157000   0.99860979   -3.3905933     129.8312  0.068912529  0.074757803            4 
  158000    1.0133732   -3.4058174    130.93189  0.069056902  0.074624196            2 
  159000   0.99835095   -3.4539319    131.04805  0.068683464  0.074489801            3 
  160000    1.0281587   -3.4126406    131.83254   0.06866278  0.074352343            2 
  161000    1.0028326   -3.4488492    132.97198  0.068826078  0.074223456            5 
  162000    1.0013075   -3.4086299    133.68107  0.068765985  0.074094724            3 
  163000    1.0072994   -3.4106155    133.73336  0.068370839  0.073958011            3 
  164000    1.0152672   -3.4443959    134.78643  0.068489041  0.073824295            3 
  165000    0.9934751    -3.426055    135.51883  0.068443854   0.07369029            2 
  166000    1.0104413   -3.4161331    136.14888  0.068347832  0.073556039            3 
  167000    1.0156923   -3.4511743    136.66482   0.06819602  0.073417174            2 
  168000   0.99147222   -3.4166555    136.78214  0.067848284  0.073280948            1 
  169000    1.0324233   -3.4283732    137.66689   0.06788308  0.073138088            1 
  170000    1.0039698    -3.421529    138.65824  0.067969726  0.072998502            3 
  171000    0.9851306   -3.4684512    138.40172   0.06744723  0.072857511            2 
  172000    1.0061575    -3.427838    139.61379  0.067642339  0.072718851            1 
  173000   0.96813342   -3.4503263    139.43548   0.06716545  0.072578214            4 
  174000    1.0145158   -3.4161703    140.08345  0.067089775  0.072434254            5 
  175000    1.0043571   -3.4474558    141.10584  0.067193256  0.072293232            5 
  176000   0.98334553   -3.4584317    142.21942  0.067338742  0.072151295            2 
  177000   0.99786888   -3.4347233    142.82405  0.067242963  0.072016275            4 
  178000    0.9772543    -3.443719    143.84258  0.067342034  0.071886053            4 
  179000   0.97939444   -3.4559065    144.18787  0.067126567   0.07175647            1 
  180000   0.98269308   -3.4813431    144.65607    0.0669704  0.071624391            5 
  181000   0.97320516   -3.4677533    145.20406  0.066852696  0.071495258            1 
  182000   0.96334619   -3.4825786    146.15999  0.066923071  0.071365149            1 
  183000    0.9686386   -3.4915146    146.39362  0.066663763  0.071236654            2 
  184000   0.97530728   -3.4745409     147.0939  0.066618616  0.071106057            3 
  185000   0.96796779   -3.5028959    147.20656  0.066309263  0.070976303            3 
  186000   0.96689977   -3.4919518    147.86886  0.066249487  0.070841589            3 
  187000   0.97062665   -3.4967608    148.87561  0.066343853  0.070709601            3 
  188000   0.97025234   -3.4856532    149.11204  0.066095761  0.070580639            4 
  189000   0.95578901   -3.4726157    149.53018  0.065930413  0.070454955            3 
  190000   0.96556907   -3.4916346    150.67407  0.066085116  0.070324074            2 
  191000   0.97709368   -3.4931463    150.72746  0.065762418  0.070192389            4 
  192000   0.97531934   -3.4871168    151.01714  0.065545634  0.070061517            1 
  193000   0.96620391   -3.5143289    152.41976  0.065811639  0.069927637            2 
  194000     0.953764   -3.5136176    152.13664  0.065350789  0.069794992            4 
  195000    0.9652997   -3.5033917    153.22498  0.065480759  0.069663556            3 
  196000   0.94419167   -3.4941418    153.95436  0.065456784  0.069533745            2 
  197000     0.963794    -3.520096    154.02117   0.06515278  0.069403852            4 
  198000   0.95872836   -3.4863839     155.1668  0.065305891  0.069275081            4 
  199000   0.94715906   -3.4873728    155.47164  0.065105376  0.069147168            4 
  200000   0.94317621   -3.5110175    156.15513  0.065064636  0.069021362            5 
  201000   0.94943496   -3.5018871    157.36499  0.065242534  0.068894537            3 
  202000   0.95786793   -3.5116815     157.5442  0.064993482  0.068769893            3 
  203000   0.93826015   -3.5267335    157.77286  0.064767184  0.068645057            2 
  204000   0.94126776   -3.5072844    159.02595   0.06496158  0.068520783            3 
  205000   0.96912882   -3.5190932    159.19749  0.064714426  0.068398012            3 
  206000   0.94350065   -3.4899526    159.81568  0.064650358  0.068274269            2 
  207000   0.93343178   -3.5401662    159.73053  0.064303758  0.068147998            1 
  208000   0.93994837   -3.5132205    160.87806   0.06445435  0.068022373            4 
  209000    0.9363902   -3.5467437    161.26156  0.064298869  0.067898019            3 
  210000   0.93156191   -3.5128488    162.24902  0.064384531  0.067773677            2 
  211000   0.92847733   -3.5513925    162.54123    0.0641948  0.067651625            5 
  212000   0.94522153   -3.5626501    162.94314  0.064049976  0.067533463            4 
  213000   0.94147839   -3.5558702    163.90907   0.06412718   0.06741183            2 
  214000   0.92778412   -3.5799897    163.41432  0.063634858   0.06728859            4 
  215000   0.90408816   -3.5432884    164.21472  0.063649117  0.067168901            2 
  216000   0.93432301   -3.5422851    165.38729  0.063806824  0.067047189            2 
  217000   0.89849052    -3.552175    165.60977  0.063598222  0.066927561            1 
  218000    0.9319104   -3.5763827    165.77467  0.063369524  0.066808666            5 
  219000   0.93130868   -3.5538019    167.09657  0.063583169  0.066688323           10 
  220000    0.9018407   -3.5321183    167.94527  0.063615633  0.066571743            3 
  221000   0.91956409   -3.5518432    168.14902  0.063404607  0.066450975            3 
  222000    0.9166824    -3.571285    168.45823  0.063235071  0.066332663            2 
  223000     0.923058   -3.5222348    169.22263  0.063237157  0.066215101            8 
  224000   0.92866497   -3.5878101    169.94943  0.063225234  0.066101448            3 
  225000   0.92149081   -3.5707014    170.64432  0.063201601  0.065989433            3 
  226000   0.90822148   -3.5576774    171.58633  0.063269297  0.065879826            4 
  227000   0.91972713   -3.5850048    171.44022  0.062936938  0.065769771            3 
  228000   0.89041868    -3.591487    171.75339  0.062775363  0.065656459            5 
  229000   0.89304178    -3.581156    172.04306  0.062606646  0.065544839            8 
  230000   0.89907243   -3.6014591    172.33185  0.062439075  0.065430117            3 
  231000   0.91250924   -3.6098844    172.81649   0.06234361  0.065312952            4 
  232000   0.88772261   -3.5850528    172.99085  0.062137519  0.065196045            2 
  233000    0.8887748   -3.5841588    174.05235  0.062250484  0.065081151            6 
  234000   0.89607941   -3.5921999    175.00775  0.062324697  0.064964728            3 
  235000   0.93318841   -3.5881895     175.6527   0.06228819  0.064851614            3 
  236000   0.88260446   -3.6112118    175.91301  0.062116177  0.064739055            2 
  237000   0.89123778   -3.6212729    175.69732   0.06177824  0.064624603            2 
  238000   0.88284368   -3.5881423    176.82544   0.06191367  0.064507447            3 
  239000   0.87945888   -3.5875733     177.0619  0.061737063  0.064392017            3 
  240000   0.87116775   -3.5813785     177.0904  0.061489723  0.064276151            2 
  241000    0.9059452   -3.5968795    178.15959  0.061604285  0.064160695            2 
  242000    0.8849239   -3.6380574    179.41256  0.061781183  0.064047794            5 
  243000   0.88276045   -3.6118255    179.26925  0.061477794  0.063937514            4 
  244000   0.88688501    -3.637019    179.58895  0.061335022  0.063828079            6 
  245000   0.88523183   -3.6259862    179.57103  0.061078583  0.063714059            3 
  246000   0.87936353   -3.6485543    180.23942  0.061056713  0.063600207            1 
  247000   0.86292308   -3.6347699     180.5197  0.060904083  0.063487826            5 
  248000    0.8786826   -3.6112046    181.88527  0.061117364  0.063377515            5 
  249000   0.87510183   -3.6343865    182.25196   0.06099463  0.063271443            3 
  250000   0.87174452   -3.6386596    182.78072  0.060926906  0.063164221            1 
  251000   0.87374022   -3.6279319    182.77315  0.060681657   0.06305249            4 
  252000   0.83867391   -3.6358044    183.63265  0.060725081  0.062940706            4 
  253000   0.86975016   -3.6534253    183.57884  0.060467337  0.062830265            5 
  254000   0.87712407     -3.66436    183.55992  0.060223071  0.062716283            7 
  255000   0.86122394   -3.6465507    184.43527  0.060272963  0.062600653            2 
  256000   0.85351097   -3.6588814    184.53499  0.060069983  0.062487729            4 
  257000   0.86725675   -3.6589201    185.51433  0.060153803  0.062374188            2 
  258000   0.85154071   -3.6613859      184.966   0.05974354  0.062259453           11 
  259000   0.83324843   -3.6572298    185.62495  0.059724889  0.062146443            4 
  260000   0.84113824   -3.6479817    186.08836  0.059643705  0.062032502           10 
  261000   0.84318778   -3.6657072    186.37849  0.059507819  0.061918515            3 
  262000   0.84872778   -3.6412211    186.71614  0.059388086  0.061800722            3 
  263000   0.83566267   -3.6776432    186.75306  0.059173972  0.061685269            2 
  264000   0.83759398   -3.6755767    186.91379  0.059000564  0.061566894            5 
  265000   0.85573223   -3.6809618    186.75459  0.058727859  0.061446922            3 
  266000   0.83097073    -3.633439    187.91183  0.058869622  0.061326447            3 
  267000    0.8533586   -3.6927585    187.68757  0.058579142  0.061206615            2 
  268000   0.83429286   -3.7062839    187.81438  0.058399993  0.061083655            4 
  269000   0.83390953   -3.6768193    188.41181   0.05836797  0.060959521            2 
  270000   0.83754075   -3.6800776    189.16349  0.058383793  0.060837576            5 
  271000   0.83901505   -3.7145995    188.66726  0.058015764  0.060715122            2 
  272000   0.84770319    -3.699271    189.78399  0.058144606  0.060594011            3 
  273000   0.85346801   -3.6925268     189.5374   0.05785635  0.060472947            5 
  274000   0.83458618   -3.6631578    190.48039  0.057931992  0.060354037            2 
  275000   0.83381853   -3.7073872    191.03238  0.057888599  0.060233393            3 
  276000   0.82734829   -3.6815645    191.17237  0.057721127  0.060110997            6 
  277000   0.81953815   -3.6896848    191.52212  0.057617966  0.059988623            3 
  278000   0.82770064   -3.7195339    191.86354  0.057513052   0.05986542            2 
  279000   0.83927125   -3.7045174    191.48728  0.057194528   0.05974448            4 
  280000   0.82267235   -3.7259498    192.82175  0.057387426  0.059623716            3 
  281000   0.83359547    -3.729043    192.41345  0.057062114  0.059504093            5 
  282000   0.82310763   -3.7273054     193.2276  0.057100354  0.059384624            4 
  283000   0.80169134   -3.7382696    193.85761    0.0570841  0.059263602            6 
  284000   0.82833916   -3.7247796     193.7387  0.056848209  0.059142752            6 
  285000    0.8126385   -3.7162604    194.29651  0.056811845  0.059019397            7 
  286000   0.80795376   -3.7298287    194.82651  0.056767632  0.058897891            4 
  287000   0.79158858   -3.7161886    194.97126  0.056611863  0.058776899            3 
  288000   0.80319421   -3.7323792    195.47526  0.056561127  0.058658882            4 
  289000     0.821388   -3.7406042    196.05376  0.056532227  0.058540504            2 
  290000   0.79672028   -3.7301925    195.70404  0.056236793  0.058421958            4 
  291000   0.78760161   -3.7403026     196.2403  0.056197108  0.058304674            2 
  292000   0.79371958   -3.7470275    197.22217  0.056284867  0.058188623            4 
  293000   0.80607516    -3.733771    197.22565  0.056093758  0.058074537            5 
  294000   0.80457072   -3.7570708    197.57287   0.05600138  0.057958464            8 
  295000   0.77967717   -3.7657208    198.27655  0.056010326  0.057842483            3 
  296000    0.7813382   -3.7237787    198.60109  0.055912469  0.057727788            6 
  297000   0.78390952   -3.7414871    198.91242  0.055811565  0.057611365            3 
  298000   0.78350727   -3.7479669    198.64779  0.055550276  0.057494777            3 
  299000   0.78403018    -3.753355    198.34736  0.055280758  0.057376266            3 
  300000   0.79066695   -3.7530878    198.86472  0.055240201  0.057257389            3 
  301000   0.78023476   -3.7632677    199.34783  0.055190429  0.057139511            4 
  302000   0.78903533   -3.7833544     199.0076  0.054913798  0.057020325            4 
  303000   0.78049193   -3.7524271    198.98821   0.05472723  0.056901101            4 
  304000   0.77059564   -3.7636822    200.05428  0.054839441  0.056783031            3 
  305000   0.77375131   -3.7696968    199.95635  0.054632884  0.056664424            4 
  306000   0.78586267   -3.7902142    200.17167  0.054512981  0.056546163            6 
  307000   0.77546333   -3.7650847     201.6185  0.054728147  0.056430026            4 
  308000   0.78413318   -3.7658991    201.57162  0.054537777  0.056313505            4 
  309000   0.77829091   -3.7850335    202.08384  0.054499418  0.056196232            5 
  310000   0.78279681   -3.7902535    202.17184  0.054347269   0.05607859            3 
  311000   0.78007661   -3.8093945    202.01544  0.054130612  0.055962192            6 
  312000   0.78774361   -3.8043803    202.28865  0.054030088  0.055844882            4 
  313000   0.76505704   -3.8007828    202.21132   0.05383688  0.055727167            3 
  314000   0.75752455   -3.8139387     202.6549  0.053783148  0.055609662            3 
  315000    0.7664062   -3.7975692    202.92934  0.053685012  0.055493632            3 
  316000    0.7613513   -3.7736224     203.9423  0.053782251  0.055378171            3 
  317000   0.77474207   -3.7964167    203.76062  0.053564832  0.055261026            5 
  318000   0.79632087   -3.8160094    203.42991  0.053309725  0.055144497            8 
  319000   0.76150404   -3.7936068    204.34041  0.053380462  0.055028896            9 
  320000    0.7658485   -3.7751833    204.70403  0.053308341   0.05491335            7 
  321000    0.7525955   -3.7999751    205.04447  0.053230651  0.054797578            4 
  322000   0.76331666   -3.8290066    204.84871  0.053014677  0.054681796            5 
  323000   0.75466788    -3.845429    204.98434  0.052885537  0.054566132            3 
  324000   0.77018955   -3.8220767    205.47241  0.052847842  0.054451424            3 
  325000   0.74786651   -3.8278746    205.92738  0.052801893  0.054335877            4 
  326000   0.75437075   -3.8331345     206.2296  0.052717179  0.054221607            5 
  327000   0.76344605   -3.8275641    205.92964   0.05247952  0.054107604            5 
  328000   0.73761803   -3.8496628    206.21014  0.052390786  0.053992201           12 
  329000   0.75865934   -3.8508546    206.64526  0.052341757    0.0538771            5 
  330000    0.7395823   -3.8640415    206.67135  0.052189735  0.053761992            5 
  331000   0.75086098   -3.8415192     207.7145  0.052294687  0.053647338            2 
  332000    0.7424817   -3.8716537    207.30301  0.052033889  0.053534275            5 
  333000   0.73899702   -3.8379876    208.14394  0.052088073  0.053422073            3 
  334000   0.75059519   -3.8762703    208.43417  0.052004534  0.053311321            6 
  335000   0.74662531   -3.8708531    208.30873  0.051818093  0.053200866            9 
  336000   0.74681834   -3.8496282     208.5653  0.051727505  0.053089918            9 
  337000    0.7517058   -3.8665702     208.6897  0.051604772  0.052978449           12 
  338000   0.73970062   -3.8500461    209.28265  0.051598287  0.052866563            7 
  339000    0.7303094   -3.8687171    209.13654  0.051410162  0.052755935            5 
  340000   0.71699707   -3.8973205    209.80061  0.051421717  0.052644087            7 
  341000   0.72590431   -3.8693286    209.53757   0.05120664  0.052533263           10 
  342000    0.7301109   -3.8693048    209.80712  0.051122593  0.052423479            6 
  343000   0.71367826    -3.908133    209.38806  0.050871736  0.052312776            4 
  344000   0.69918348   -3.9064465    209.40084  0.050726947  0.052200559            6 
  345000    0.7252855   -3.8717026    209.94719  0.050711882  0.052089161            4 
  346000   0.72296774    -3.896389    210.31517  0.050653942  0.051977443            5 
  347000   0.72721071   -3.8944391    210.98234   0.05066819  0.051865073            4 
  348000    0.7237439    -3.893007    210.93458  0.050511155  0.051753895            2 
  349000   0.72313281   -3.8799342     211.2876  0.050450717  0.051642458            5 
  350000   0.70926628   -3.8560777    211.78622  0.050425291  0.051531638            6 
  351000   0.70790568   -3.8953248    211.47585  0.050207943  0.051421194            7 
  352000   0.69911881   -3.8875068    211.70608  0.050119811  0.051309979            7 
  353000   0.71166739   -3.9023991    211.64483  0.049963368  0.051200024            6 
  354000   0.68741204   -3.9131119    212.09524  0.049928258  0.051088796            4 
  355000   0.70933371   -3.9173143    213.31046  0.050072878  0.050978909            5 
  356000   0.69917027   -3.9031419     211.9138  0.049605291  0.050868254            5 
  357000    0.6980018   -3.8982432    212.67107  0.049643107  0.050757243            8 
  358000   0.69642964   -3.9329878    212.10314   0.04937224  0.050646341            8 
  359000   0.69768107   -3.9113333    212.07369  0.049227877  0.050535372            4 
  360000   0.68588483   -3.9341093    212.77037    0.0492524   0.05042376           10 
  361000   0.69172531    -3.909952    213.04089  0.049178415  0.050312553           12 
  362000   0.69764426   -3.9213222    213.31642   0.04910599  0.050202432            3 
  363000   0.69127664   -3.9170271    213.53417  0.049020701  0.050091887            6 
  364000   0.68134401   -3.9134164    214.48934  0.049104703  0.049982394            5 
  365000   0.68273579   -3.9343034    213.61058  0.048769538  0.049872364            7 
  366000   0.68832842   -3.9520382    213.61096  0.048636375  0.049762522           10 
  367000   0.68329671   -3.9323529    214.34505  0.048670539   0.04965375            9 
  368000   0.67348289    -3.952231    214.42098  0.048555476  0.049545905            7 
  369000    0.6719423   -3.9674858    215.24571  0.048610141  0.049438654            4 
  370000   0.66162192   -3.9572799    215.68264   0.04857717   0.04933163            4 
  371000   0.67156852   -3.9538915    216.30449  0.048585913  0.049224568           10 
  372000   0.66641311   -3.9413799    216.29299   0.04845273  0.049118345            8 
  373000   0.66397597   -3.9551107    216.31956  0.048328766  0.049012514            8 
  374000   0.66839737   -3.9526338    216.05253  0.048140046  0.048905562            5 
  375000   0.68635764   -3.9464309    216.29708  0.048066018  0.048798177            8 
  376000   0.66299702   -3.9580903    216.15536  0.047906772  0.048691203           10 
  377000   0.66092305   -3.9742053    215.62477  0.047662415   0.04858359            2 
  378000   0.66616726   -3.9430944    216.81553  0.047798839  0.048476502            9 
  379000    0.6674001    -3.975234    216.07306  0.047509469  0.048369998            7 
  380000   0.65644212   -3.9847058    216.75789  0.047534626   0.04826319            6 
  381000    0.6622867   -3.9682703    217.25285  0.047518122  0.048156687            9 
  382000   0.67209315   -3.9882507    217.54045  0.047456467  0.048051498            8 
  383000   0.66028282   -3.9709525    218.02285  0.047437522  0.047946246            9 
  384000   0.67132997   -3.9743869    217.67332  0.047238133    0.0478418            8 
  385000   0.66098625   -4.0145167    217.09715  0.046990726  0.047735924            9 
  386000   0.63750953   -3.9920028    217.95937  0.047055132  0.047630823            5 
  387000   0.64365935   -4.0149329    217.84676  0.046909295  0.047525817           19 
  388000   0.65820637   -4.0145308    219.08167  0.047053622   0.04742186            4 
  389000   0.64488872   -4.0158731    218.46235   0.04679999  0.047318205            5 
  390000   0.64872885   -3.9974186     219.1099  0.046818355  0.047215359            4 
  391000   0.64401116   -4.0085947    219.94347  0.046876273  0.047113262            5 
  392000   0.63889238   -4.0014705    218.92237   0.04653962  0.047011799            5 
  393000   0.65166857   -3.9919359    219.07002  0.046452506  0.046910126            4 
  394000   0.65997455   -4.0301001    219.36687  0.046397392   0.04680769            8 
  395000   0.63689127   -4.0249368     219.5747  0.046323775  0.046705071            7 
  396000    0.6400195   -4.0301579    219.45058  0.046180677   0.04660206            5 
  397000    0.6423047   -4.0293042      219.125  0.045996012  0.046499425           12 
  398000   0.63370285   -4.0107201    219.77419  0.046016371  0.046396699            8 
  399000   0.63749485   -4.0170529    219.66565  0.045878373  0.046294207            4 
  400000   0.63024712   -4.0282473    219.86828  0.045805892  0.046191284            4 
  401000   0.63358288   -4.0614042    219.21535  0.045555974   0.04608726           16 
  402000   0.63022376   -4.0422951    220.03768  0.045613117    0.0459844           11 
  403000   0.63419375   -4.0740601    219.96374  0.045484643  0.045881772           10 
  404000    0.6315907   -4.0572036    220.28001  0.045437295  0.045778856            6 
  405000   0.62419574   -4.0488522     219.7677  0.045219691  0.045675744            4 
  406000   0.61677193   -4.0410421     220.5445  0.045267754  0.045572866           10 
  407000   0.62161366   -4.0440773    220.31433  0.045109405  0.045470421            7 
  408000   0.62366877   -4.0458581    220.54786   0.04504654  0.045367849           15 
  409000    0.6000161   -4.0438368    220.92663  0.045013575   0.04526516           10 
  410000   0.61126949   -4.0618066    221.00317  0.044919344   0.04516327            8 
  411000   0.59830617   -4.0774245    220.86651  0.044782341  0.045061515            8 
  412000   0.59713127    -4.066453    220.65385  0.044630633  0.044960088            7 
  413000   0.61687276   -4.0685442    220.98572  0.044589531  0.044857678           12 
  414000   0.61420529   -4.0756746    220.63913  0.044412062  0.044755912            7 
  415000   0.60728886   -4.0937341     220.4377  0.044264598  0.044653916           14 
  416000   0.61218804   -4.0803984    220.65052  0.044200825  0.044551934           10 
  417000   0.61242041   -4.0979634    220.92806  0.044150292  0.044449955            7 
  418000   0.60099031   -4.0756592    221.78816  0.044216139  0.044348262            5 
  419000     0.605855   -4.0860656    221.81817  0.044116581  0.044247938            6 
  420000   0.59635109   -4.0891251    221.25419   0.04389964  0.044147743           13 
  421000   0.59978741   -4.0875589    221.59342  0.043862514  0.044048105            7 
  422000   0.58541767    -4.109648    221.89774  0.043818669  0.043947962            8 
  423000   0.59010245   -4.0819612    222.09311  0.043753567  0.043848306            6 
  424000   0.58967836   -4.1105784    221.18658  0.043472206  0.043748827            8 
  425000    0.5897628   -4.1210492    221.21926  0.043376326  0.043648578           14 
  426000   0.59072919   -4.1162934    222.34906  0.043495512  0.043548809           10 
  427000   0.57486458   -4.1433943    221.81848  0.043290101  0.043449068           11 
  428000   0.59266236    -4.130477    222.01343  0.043226915  0.043349419           10 
  429000   0.58228035   -4.1504758     222.0419  0.043131681  0.043249257           15 
  430000   0.58683759    -4.120648    222.49059  0.043118331  0.043149129            6 
  431000   0.57334705   -4.1470658    221.63656  0.042853163  0.043048854           14 
  432000   0.57387649   -4.1383115    222.05033  0.042833783  0.042949027            7 
  433000    0.5699414    -4.134699    222.25735  0.042774702  0.042849509           10 
  434000    0.5731187   -4.1463773    222.01372  0.042629363  0.042750066            9 
  435000   0.56514598    -4.153133    222.40415   0.04260616  0.042650782            7 
  436000   0.55856237   -4.1487582    221.82446  0.042397641  0.042551465           18 
  437000   0.56266782    -4.153212    223.33135  0.042587976  0.042452642           14 
  438000   0.56452568   -4.1489771    222.92334  0.042413117  0.042353974           29 
  439000   0.56349273   -4.1578077    222.81472  0.042295885  0.042256059           16 
  440000   0.56091396   -4.1560084    222.40153  0.042121501  0.042157798           13 
  441000   0.57119586   -4.1661775    222.89783  0.042119771  0.042059868            9 
  442000     0.571752   -4.1801228    222.86203  0.042017728  0.041961339            7 
  443000   0.55505452   -4.1735978    222.92564  0.041934845  0.041863118            9 
  444000   0.56468618   -4.1840135    222.47078  0.041755027  0.041765198            8 
  445000     0.561438   -4.1669705    223.57552  0.041868076  0.041667966           22 
  446000   0.56020422   -4.1693578    222.82144  0.041633304  0.041570706           31 
  447000    0.5552822   -4.1824679    223.37446  0.041643262  0.041474217           23 
  448000   0.55617414   -4.2002142    223.19196  0.041516362  0.041377189           15 
  449000   0.55880495   -4.1668102    223.24273   0.04143332  0.041280917            7 
  450000   0.54170945   -4.1706853    223.40413  0.041371135  0.041185396           16 
  451000   0.55296284   -4.2160602    223.76726  0.041346501  0.041090122           27 
  452000   0.54222229   -4.2085209    223.88513  0.041276757  0.040994424           19 
  453000   0.54879728   -4.2073537    223.88223  0.041185105  0.040898883           12 
  454000   0.53905915    -4.197894      223.719  0.041064428  0.040803765            8 
  455000   0.54207502   -4.2040806    223.99828  0.041025326  0.040708609            7 
  456000    0.5483838   -4.2370861    223.14792  0.040779955  0.040613815           11 
  457000   0.53770079   -4.2088519    223.94624  0.040836295  0.040518585            8 
  458000   0.54727796   -4.2210596    223.71507  0.040705071  0.040423732           19 
  459000   0.54054204   -4.2200166    223.89116  0.040648359   0.04032893           26 
  460000   0.53166266   -4.2204589    224.17837  0.040612024  0.040234416           14 
  461000   0.53073162   -4.2148595    224.13683   0.04051642  0.040139895           21 
  462000   0.52889342   -4.2239873    223.64612  0.040340209   0.04004543           24 
  463000   0.52574449   -4.2303222    223.72049  0.040266466  0.039950844           18 
  464000   0.52658915   -4.2293061    224.41203  0.040303885  0.039856803            6 
  465000   0.51839021   -4.2452172    224.33362  0.040203158  0.039762688           17 
  466000   0.51244011   -4.2450149    223.55881  0.039978327  0.039668863           15 
  467000   0.51720115   -4.2341409    224.34898  0.040033723  0.039574714           40 
  468000   0.50700036   -4.2372125    224.23124  0.039927215  0.039481241           10 
  469000   0.51502925   -4.2474094    224.03182  0.039806648  0.039387655           10 
  470000   0.51900866   -4.2592439    223.42347  0.039614091  0.039293952           13 
  471000   0.51858536   -4.2728046    224.01407  0.039634478  0.039200409           17 
  472000   0.51289789   -4.2749682    224.09107  0.039564101  0.039106974           24 
  473000    0.5049568   -4.2676171    224.14163  0.039489364  0.039013261           12 
  474000   0.50345697   -4.2633638    223.32239  0.039262024  0.038920048           18 
  475000   0.51173775   -4.2801536    223.70099  0.039245788  0.038826916           13 
  476000   0.51628775   -4.2785028    224.31815  0.039271385   0.03873403           20 
  477000   0.50327687   -4.2806037    224.21597  0.039171204  0.038641432           19 
  478000   0.50861716   -4.2762868    223.91322  0.039036474  0.038549075           48 
  479000   0.50059314   -4.2914709    223.72965  0.038923043  0.038456278           35 
  480000   0.49224203   -4.2797498    224.35405  0.038950356  0.038364054           10 
  481000   0.50406396   -4.3035879    224.54293  0.038902102  0.038272263           16 
  482000   0.50092197   -4.2906307    223.62749   0.03866312   0.03818041           11 
  483000   0.49212633   -4.2832771    224.37382  0.038711839  0.038088985           11 
  484000   0.49040638   -4.2907115    224.42071   0.03863993  0.037997815            9 
  485000   0.50102631   -4.2982686    224.53116  0.038579238  0.037906779           22 
  486000   0.49860786    -4.315799    224.12259    0.0384298  0.037815725           17 
  487000   0.49500258    -4.305005    224.39454  0.038397422  0.037724876           19 
  488000   0.49421365   -4.3023867    224.44462  0.038327292  0.037633904           29 
  489000   0.49525709   -4.3327922    224.07965  0.038186717  0.037542996           15 
  490000   0.48443179   -4.3233064    224.02948  0.038100252  0.037451945           27 
  491000   0.49449312   -4.3361887    223.97711  0.038013766  0.037361161           16 
  492000   0.47881179    -4.323745      224.156  0.037966802  0.037270281           21 
  493000   0.48964416   -4.3325501    223.76655   0.03782396  0.037179656           17 
  494000   0.47533324   -4.3364112     223.4038    0.0376862  0.037089016           30 
  495000   0.47862495   -4.3207146    223.86502  0.037687714  0.036998787           14 
  496000   0.47208136   -4.3307028    223.87811   0.03761393  0.036908831           13 
  497000   0.47285363   -4.3317836    223.65636  0.037501067  0.036818932           13 
  498000    0.4731307    -4.339576    223.42044  0.037386286  0.036728754           41 
  499000   0.46923245   -4.3468813     223.6143  0.037343738  0.036638689           33 
  500000   0.46040018   -4.3214856     224.0164  0.037336067  0.036549165           14 
  501000   0.47829457   -4.3448725    223.75891  0.037218715  0.036459824           27 
  502000   0.46751885   -4.3589632    223.58072  0.037114994  0.036370141           24 
  503000   0.46163088   -4.3764082    223.32571  0.036998957  0.036280266           35 
  504000   0.44811972    -4.359163    224.04313  0.037044168   0.03619081           27 
  505000    0.4614615    -4.365136    223.98902  0.036961885  0.036101595           25 
  506000   0.45192133   -4.3709004    223.58322  0.036822005   0.03601254           24 
  507000   0.45375196    -4.392493    223.29321  0.036701712  0.035923579           21 
  508000   0.46273659   -4.3862138    223.46726  0.036658016  0.035834644           19 
  509000   0.46040325   -4.3871762    223.13987  0.036532396   0.03574598           24 
  510000   0.46216785   -4.3830338    222.75069  0.036397172  0.035657503           60 
  511000   0.44405968   -4.4005071    222.91708  0.036353079  0.035568758           33 
  512000   0.45002765   -4.3899626    223.38109  0.036357599  0.035480168           56 
Loop time of 1232.28 on 48 procs for 500000 steps with 4000 atoms

Performance: 70113.835 tau/day, 405.751 timesteps/s
99.4% CPU use with 48 MPI tasks x no OpenMP threads

MPI task timing breakdown:
Section |  min time  |  avg time  |  max time  |%varavg| %total
---------------------------------------------------------------
Pair    | 78.102     | 85.723     | 92.977     |  36.9 |  6.96
Neigh   | 8.2862     | 8.6143     | 8.9493     |   6.8 |  0.70
Comm    | 74.052     | 83.279     | 90.905     |  44.9 |  6.76
Output  | 0.95093    | 0.95144    | 0.96187    |   0.2 |  0.08
Modify  | 1038.7     | 1042.6     | 1046.1     |   5.3 | 84.60
Other   |            | 11.16      |            |       |  0.91

Nlocal:        83.3333 ave          91 max          77 min
Histogram: 2 3 11 4 5 11 5 5 0 2
Nghost:        2239.23 ave        2270 max        2211 min
Histogram: 1 2 7 7 9 8 8 4 1 1
Neighs:        14960.3 ave       16790 max       13112 min
Histogram: 1 2 7 8 5 8 9 3 4 1
FullNghs:      29918.9 ave       33084 max       27619 min
Histogram: 2 6 10 6 6 6 8 2 1 1

Total # of neighbors = 1436106
Ave neighs/atom = 359.02650
Neighbor list builds = 27054
Dangerous builds = 0

#clear
#
#next RN
#
#jump SELF
Total wall time: 0:20:35
