
units lj                  # Use reduced LJ style units
atom_style atomic         # Uncharged point particles
atom_modify map hash      # Needed for indexing of clusters etc
                          # Used to be able to find where atoms are in relation to each other.

lattice fcc 1.0 spacing 1 1 1
Lattice spacing in x,y,z = 1.5874011 1.5874011 1.5874011
region box block 0 10 0 10 0 10 units lattice
create_box 2 box
Created orthogonal box = (0.0000000 0.0000000 0.0000000) to (15.874011 15.874011 15.874011)
  3 by 4 by 4 MPI processor grid
create_atoms 1 box
Created 4000 atoms
  using lattice units in orthogonal box = (0.0000000 0.0000000 0.0000000) to (15.874011 15.874011 15.874011)
  create_atoms CPU = 0.002 seconds
set type 1 type/fraction 2 0.29 78393
Setting atom values ...
  1200 settings made for type/fraction
mass 1 1.0
mass 2 1.0
pair_style lj/cut  3.5
pair_modify tail  yes
pair_coeff 1  1  1.0  1.0   # Intearaction between 1 and 1 set with epsilon = 1 and sigma = 1
pair_coeff 1  2  1.5  0.8
pair_coeff 2  2  0.5  0.88

write_data data.0
System init for write_data ...
Neighbor list info ...
  update every 1 steps, delay 10 steps, check yes
  max neighbors/atom: 2000, page size: 100000
  master list distance cutoff = 3.8
  ghost atom cutoff = 3.8
  binsize = 1.9, bins = 9 9 9
  1 neighbor lists, perpetual/occasional/extra = 1 0 0
  (1) pair lj/cut, perpetual
      attributes: half, newton on
      pair build: half/bin/atomonly/newton
      stencil: half/bin/3d
      bin: standard
WARNING: Not all mixed pair coeffs generated from mixing. Use write_data with 'pair ij' option to store all pair coeffs. (../write_data.cpp:312)


#############################
#   M E L T   S Y S T E M   #
#############################

velocity all create 2.4 6583654 mom yes dist gaussian # Assign velocities
                                                    # Temperature 2.4, random number seed, zero linear momentum
                                                                                # Gaussian distribution

timestep 0.002   # simulation timestep
thermo 1000       # output thermodynamic data every 1000 steps bf 100

# Define a fix  in this case with index 1 applied to all
# particles in the simulation. This fix is for simulations
# in the anisotropic NPT ensemble. Note that we use the MTK
# correction.
fix 1 all npt temp 2.4 2.4 0.1 iso 5.68 5.68 0.5 mtk yes tchain 5 pchain 5 # Use NPT ensemble
                                                                         # Set temperature and pressure and damping
                                                                         # Numbers of thermostats in chain and in barostat
run 10000          # run for 10000 steps
Per MPI rank memory allocation (min/avg/max) = 3.642 | 3.644 | 3.648 Mbytes
Step Temp E_pair E_mol TotEng Press Volume 
       0          2.4   -6.4756105            0   -2.8765105   -3.9602485         4000 
    1000    2.3211773   -4.9626161            0   -1.4817206    5.7497575    4173.6904 
    2000    2.4149422   -4.9425914            0   -1.3210836    5.7280391    4197.0887 
    3000    2.3994111   -4.9852972            0   -1.3870802     5.642052    4176.8677 
    4000    2.4489316   -5.0343836            0   -1.3619045    5.6752441    4142.6536 
    5000    2.3967755   -5.0017988            0   -1.4075344    5.7161263    4162.3311 
    6000    2.3353458    -4.995461            0    -1.493318    5.6155628    4158.1812 
    7000    2.3598834   -4.9609316            0   -1.4219915    5.5198193    4191.3467 
    8000    2.4262882   -4.9982857            0   -1.3597633    5.5146877    4189.0903 
    9000    2.3350507   -4.9565314            0    -1.454831    5.5058903    4200.7904 
   10000    2.4040314   -4.9927537            0   -1.3876082    5.7685599    4156.1426 
Loop time of 2.38359 on 48 procs for 10000 steps with 4000 atoms

Performance: 724955.584 tau/day, 4195.345 timesteps/s
99.6% CPU use with 48 MPI tasks x no OpenMP threads

MPI task timing breakdown:
Section |  min time  |  avg time  |  max time  |%varavg| %total
---------------------------------------------------------------
Pair    | 1.0476     | 1.1084     | 1.2        |   2.8 | 46.50
Neigh   | 0.20441    | 0.21003    | 0.21998    |   0.8 |  8.81
Comm    | 0.7336     | 0.81533    | 0.89569    |   3.7 | 34.21
Output  | 0.00024183 | 0.00024731 | 0.00030961 |   0.0 |  0.01
Modify  | 0.20712    | 0.23453    | 0.2664     |   3.7 |  9.84
Other   |            | 0.01508    |            |       |  0.63

Nlocal:        83.3333 ave          91 max          74 min
Histogram: 1 3 7 2 6 10 3 9 5 2
Nghost:        1604.04 ave        1639 max        1572 min
Histogram: 3 4 5 6 7 7 8 4 3 1
Neighs:        9183.77 ave       10401 max        7759 min
Histogram: 1 1 3 6 9 7 11 6 2 2

Total # of neighbors = 440821
Ave neighs/atom = 110.20525
Neighbor list builds = 905
Dangerous builds = 197

# Equilibrate just above the melting temperature to avoid step fn in T

fix 1 all npt temp 1.25 1.25 0.1 iso 5.68 5.68 0.5 mtk yes tchain 5 pchain 5
run 2000
Per MPI rank memory allocation (min/avg/max) = 3.643 | 3.645 | 3.649 Mbytes
Step Temp E_pair E_mol TotEng Press Volume 
   10000    2.4040314   -4.9927537            0   -1.3876082    5.7685599    4156.1426 
   11000    1.2652113   -6.8280729            0   -4.9307304    5.6388711     3368.543 
   12000    1.2465393    -6.813135            0   -4.9437936    5.7093159    3367.4234 
Loop time of 0.561958 on 48 procs for 2000 steps with 4000 atoms

Performance: 614992.647 tau/day, 3558.985 timesteps/s
99.6% CPU use with 48 MPI tasks x no OpenMP threads

MPI task timing breakdown:
Section |  min time  |  avg time  |  max time  |%varavg| %total
---------------------------------------------------------------
Pair    | 0.24765    | 0.27074    | 0.29807    |   2.0 | 48.18
Neigh   | 0.036238   | 0.038946   | 0.041128   |   0.6 |  6.93
Comm    | 0.17366    | 0.20254    | 0.23109    |   2.6 | 36.04
Output  | 5.0923e-05 | 5.2152e-05 | 6.6561e-05 |   0.0 |  0.01
Modify  | 0.041221   | 0.044823   | 0.047836   |   0.8 |  7.98
Other   |            | 0.004852   |            |       |  0.86

Nlocal:        83.3333 ave          93 max          72 min
Histogram: 1 2 5 4 8 7 8 8 3 2
Nghost:        1848.23 ave        1891 max        1817 min
Histogram: 2 3 8 9 9 11 2 1 1 2
Neighs:        11337.6 ave       12967 max        9629 min
Histogram: 2 1 4 10 7 9 6 3 5 1

Total # of neighbors = 544204
Ave neighs/atom = 136.05100
Neighbor list builds = 141
Dangerous builds = 9

#############################
# L I N E A R  Q U E N C H  #
#############################

# Define solid atoms. This closely follows ten Wolde  Ruiz-Montero and Frenkel  Faraday Discuss  1996  104  93-110
# Compute components of the per-atom q6 vector
compute q6 all orientorder/atom degrees 1 6 components 6 nnn NULL cutoff 1.3 # compute the Q6 parameter.
                                                                             # Use all neighbours within 1.3 unit cell.

# get number of connections
compute coord_number all coord/atom orientorder q6 0.5

# An atom is solid if it has 8 or more connections (of a possible 14)
variable is_solid atom c_coord_number>=8
group solid dynamic all var is_solid    # Must be dynamic to update
dynamic group solid defined

# do clustering
compute cluster solid cluster/atom 1.3 # Create a cluster where all atoms within are solid and max 1.3 units from another member

# define chunks one chunk per cluster
compute clus_chunks solid chunk/atom c_cluster nchunk every compress yes  # Says which atoms are in which chunk

# count the size of each chunk
compute size_chunks solid property/chunk clus_chunks count


# Find the maximum entry in the vector of chunk sizes
variable max_n equal max(c_size_chunks)


# Thermo style which includes this variable
# thermo_style custom step temp pe vol v_max_n

thermo ${N}  # Print the thermo information every 100 steps
thermo 1000  

# Reset the npt fix at a lower temperature (below freezing)
fix 1  all npt temp  ${temp} ${temp}  0.1  iso  5.68  5.68  0.5  mtk yes tchain  5  pchain  5
fix 1  all npt temp  0.45 ${temp}  0.1  iso  5.68  5.68  0.5  mtk yes tchain  5  pchain  5
fix 1  all npt temp  0.45 0.45  0.1  iso  5.68  5.68  0.5  mtk yes tchain  5  pchain  5

dump dmp2 all dcd ${N} traj.dcd
dump dmp2 all dcd 1000 traj.dcd


compute msd all msd com yes
variable twopoint equal c_msd[4]/6/(step*dt+1.0e-6)
fix 9 all vector 10 c_msd[4]
variable fit equal slope(f_9)/6/(10*dt)
thermo_style custom step temp pe c_msd[4] v_twopoint v_fit v_max_n

fix 1 all npt temp 1.25 ${temp} 0.1 iso 5.68 5.68 0.5 mtk yes tchain 5 pchain 5
fix 1 all npt temp 1.25 0.45 0.1 iso 5.68 5.68 0.5 mtk yes tchain 5 pchain 5
run 2000000 # 5000000  # Run for this many steps
Neighbor list info ...
  update every 1 steps, delay 10 steps, check yes
  max neighbors/atom: 2000, page size: 100000
  master list distance cutoff = 3.8
  ghost atom cutoff = 3.8
  binsize = 1.9, bins = 8 8 8
  4 neighbor lists, perpetual/occasional/extra = 1 3 0
  (1) pair lj/cut, perpetual
      attributes: half, newton on
      pair build: half/bin/atomonly/newton
      stencil: half/bin/3d
      bin: standard
  (2) compute orientorder/atom, occasional
      attributes: full, newton on
      pair build: full/bin/atomonly
      stencil: full/bin/3d
      bin: standard
  (3) compute coord/atom, occasional
      attributes: full, newton on
      pair build: full/bin/atomonly
      stencil: full/bin/3d
      bin: standard
  (4) compute cluster/atom, occasional
      attributes: full, newton on
      pair build: full/bin/atomonly
      stencil: full/bin/3d
      bin: standard
Per MPI rank memory allocation (min/avg/max) = 9.807 | 9.815 | 9.821 Mbytes
Step Temp PotEng c_msd[4] v_twopoint v_fit v_max_n 
   12000    1.2465393    -6.813135 1.6895428e-30 1.1732936e-32 8.3333333e+20            2 
   13000    1.2685111   -6.8747923   0.49542108  0.003175776  0.040243374            1 
   14000    1.2915438   -6.8558881   0.98801543  0.005881044  0.040337626            3 
   15000    1.2254518    -6.843734    1.4555978 0.0080866544    0.0405458            2 
   16000    1.2469566   -6.8284658    1.9704909  0.010262973   0.04104497            2 
   17000     1.259778   -6.8549269    2.4655772  0.012086162  0.041020568            1 
   18000    1.2530181   -6.8639145    2.9027134  0.013438487  0.040470626            1 
   19000    1.2423639   -6.8426327    3.3685901  0.014774518  0.040109799            2 
   20000    1.2502083   -6.8212452    3.7950839  0.015812849  0.039798464            1 
   21000     1.239798   -6.8464366    4.2546048  0.016883352   0.03932325            2 
   22000     1.264527   -6.8435745     4.658196  0.017644682  0.038971843            1 
   23000    1.2506304   -6.8759362    5.1181241  0.018543927  0.038604875            2 
   24000    1.2574028   -6.8599745    5.6570215  0.019642435  0.038546072            1 
   25000      1.24504   -6.8654051    6.1178077  0.020392692  0.038708562            3 
   26000    1.2559573    -6.878567    6.6461397  0.021301729  0.038818227            2 
   27000    1.2376679   -6.8450797    7.0899988  0.021882712  0.038858995            1 
   28000    1.2522634   -6.8667347    7.5503687  0.022471335  0.038867865            3 
   29000    1.2568223   -6.9083825    7.9670274  0.022893756  0.038889568            1 
   30000    1.2308433    -6.887326    8.5180909  0.023661363  0.038883535            1 
   31000    1.2638236   -6.8766217    9.0373993  0.024294084  0.039042897            2 
   32000    1.2753664   -6.8617067    9.5124559   0.02477202   0.03916087            1 
   33000    1.2391735   -6.9005268    9.9982948  0.025248219  0.039237327            2 
   34000    1.2585273   -6.8988572     10.36491  0.025404192  0.039263727            2 
   35000    1.2241913   -6.8790884    10.942963  0.026054674  0.039245169            1 
   36000    1.2350165   -6.8616237     11.31885  0.026201041  0.039269796            1 
   37000    1.2504263   -6.8767898    11.902321  0.026807028  0.039281845       -1e+20 
   38000    1.2161727   -6.8406879     12.44773  0.027297654  0.039364634            1 
   39000    1.2273574   -6.9104469    12.778511   0.02730451  0.039419601            2 
   40000    1.2113301   -6.8845308    13.178285   0.02745476  0.039405957            1 
   41000    1.2227322    -6.897189    13.531949  0.027503961  0.039321256            1 
   42000    1.2307804   -6.8479255     14.06554  0.027907816  0.039246983            3 
   43000    1.2438688   -6.8938057    14.505777  0.028111971  0.039205244            1 
   44000    1.2108527   -6.8410031    15.014688  0.028436908  0.039152722            3 
   45000    1.2309541   -6.8614504    15.472416  0.028652622  0.039117987            2 
   46000      1.25312   -6.8643212    15.933921  0.028865799  0.039078763            2 
   47000    1.2200879   -6.8780926    16.358372  0.029004205  0.039037668            2 
   48000    1.2383069   -6.9062462    16.835981  0.029229133  0.038995105            2 
   49000    1.2324804   -6.8604549    17.267704  0.029366844  0.038940971            1 
   50000    1.2218646   -6.8508814    17.770906  0.029618176  0.038904377            1 
   51000    1.2082824   -6.8698179    18.242998  0.029808819  0.038871767            2 
   52000    1.2192651   -6.8896802    18.518169  0.029676553  0.038835069            2 
   53000    1.2385645   -6.8808855    18.971244  0.029828999   0.03877675            2 
   54000    1.2367446   -6.8728655    19.512203  0.030111424  0.038748412            1 
   55000    1.2315314   -6.8729459    20.099171  0.030453289  0.038733035            1 
   56000     1.250508   -6.8809465    20.704563  0.030810362  0.038732686            1 
   57000      1.24534   -6.8796069     21.00974  0.030715994  0.038724743            1 
   58000    1.2178913    -6.892133    21.509168  0.030903977  0.038715208            4 
   59000    1.2662513   -6.9185732    21.754653  0.030726911  0.038689411            2 
   60000    1.2241195    -6.876918    22.254142  0.030908531  0.038655927            1 
   61000    1.2348042   -6.8993361    22.742276  0.031068683  0.038629221            1 
   62000     1.239062   -6.9184947    23.384903  0.031431321  0.038629711            1 
   63000    1.2397768   -6.9342673    23.814668  0.031500883  0.038636922            1 
   64000    1.2347339   -6.9004761    24.349259  0.031704764  0.038648744            1 
   65000    1.2369244   -6.8981446    24.808596  0.031805892  0.038666576            2 
   66000     1.236445   -6.8702351    25.408951  0.032082008  0.038691029            2 
   67000    1.2186859   -6.9335409    25.569773    0.0318032  0.038704484            1 
   68000    1.2252599   -6.8839494    25.941486  0.031791036   0.03868482            1 
   69000    1.2396137   -6.9119498    26.421425  0.031909934  0.038665895            1 
   70000    1.2271453   -6.8971756    26.826211  0.031935965  0.038644312            3 
   71000    1.2168199   -6.8885201    27.430536  0.032195465  0.038630309            2 
   72000    1.2511822   -6.8896081     27.75084  0.032119028  0.038610927            1 
   73000    1.2470743   -6.9556678    28.161958  0.032148354  0.038581773            2 
   74000    1.2033366   -6.8790262    28.676627  0.032293498  0.038555551            1 
   75000    1.2204885   -6.9118307    29.159811  0.032399789  0.038537713            2 
   76000    1.2282228   -6.9252264    29.681002  0.032544958   0.03851712            1 
   77000    1.2078592   -6.9353932    30.101723  0.032577623    0.0385082            1 
   78000    1.2179535   -6.8980534    30.604565  0.032697184  0.038499822            2 
   79000    1.2407827   -6.8821243    31.039261  0.032741836  0.038488935            3 
   80000    1.2210354   -6.9329147    31.381522  0.032689085  0.038480791            3 
   81000    1.2097779     -6.91628    31.836741  0.032753848  0.038468098            1 
   82000    1.2217669   -6.9104567    32.493735  0.033022088  0.038459957            1 
   83000    1.2333965   -6.9369311    33.025006  0.033157637  0.038457146            1 
   84000    1.2310852    -6.902613    33.482889  0.033217152  0.038456604            1 
   85000    1.2289362   -6.9528801    33.676375  0.033016053  0.038455105            1 
   86000    1.2224671   -6.9139448    34.046091  0.032990399  0.038441256            1 
   87000    1.2166486   -6.9007477     34.56999  0.033113017  0.038426797            1 
   88000      1.21575   -6.9093493    35.058869  0.033199687  0.038410211            2 
   89000    1.2363693   -6.8553846    35.502895  0.033242411  0.038398682            4 
   90000    1.2438929   -6.9391789    35.854857  0.033198941  0.038376129            1 
   91000    1.2229006   -6.9051932    36.396224  0.033329875  0.038351817            1 
   92000    1.2241289   -6.8953253    36.667164  0.033213011  0.038324061            2 
   93000    1.2162011   -6.9134863    37.209577  0.033341915  0.038310151            2 
   94000    1.2457868   -6.8891629    37.874968  0.033577099  0.038297213            3 
   95000    1.2022669   -6.9022087    38.339505  0.033631144  0.038291662            2 
   96000    1.2247558   -6.9178985    38.751893  0.033638796  0.038280757            1 
   97000    1.2072196     -6.94125    39.172764  0.033653577  0.038275364            4 
   98000     1.218149   -6.9488203    39.716504  0.033772537  0.038270223            2 
   99000    1.2066097   -6.9166776    40.076601  0.033734512  0.038264709            2 
  100000    1.2366466   -6.9653229     40.57295  0.033810792  0.038256404            2 
  101000    1.2011158   -6.9618783     40.85145  0.033705816  0.038246555            1 
  102000    1.2145539    -6.946126    41.186874  0.033649406  0.038225269            1 
  103000    1.1988584   -6.9675273    41.567532  0.033630689  0.038203515            1 
  104000    1.2165946   -6.9212167    41.994077    0.0336491  0.038176208            2 
  105000    1.2049714   -6.9607047    42.353003  0.033613494  0.038152827            2 
  106000    1.2348948    -6.978449    42.713894  0.033580105  0.038117601            1 
  107000    1.2113122   -6.9144499    43.308354  0.033729247  0.038087002            2 
  108000    1.2028759   -6.9076695    43.810323  0.033804261  0.038062886            2 
  109000    1.2251491   -6.9495339    44.281402  0.033854283  0.038046082            2 
  110000     1.194009   -6.9221561    44.655241  0.033829728  0.038024614            1 
  111000    1.1898266   -6.8912036    44.963172  0.033756135  0.038000526            1 
  112000    1.1816226   -6.9285435    45.387773  0.033770665  0.037977702            1 
  113000    1.2204846   -6.9458144    45.854984   0.03381636  0.037948164            1 
  114000    1.1998094    -6.922605    46.025545  0.033644404  0.037916304            1 
  115000    1.1935036   -6.9203175    46.707332  0.033845893   0.03789099            2 
  116000      1.21516   -6.9201644    47.102917  0.033838303  0.037862257            2 
  117000    1.1840762   -6.9414954    47.528932  0.033852516  0.037836008            1 
  118000    1.1915761   -6.9593853    48.117516  0.033981296  0.037811855            2 
  119000    1.2220711   -6.9301168    48.524294  0.033980598  0.037797221            1 
  120000    1.2327292   -6.9175916    48.970689  0.034007422  0.037775861            1 
  121000    1.2268397   -6.9836223    49.315446  0.033963805  0.037756951            1 
  122000    1.2054222   -6.9438027    49.836125  0.034041069  0.037737481            2 
  123000    1.2041864   -6.9588642    50.203493  0.034013207  0.037717038            3 
  124000    1.1989278   -6.9397533    50.719435  0.034085642    0.0376979            1 
  125000    1.2033182   -6.9924896    50.961257  0.033974171  0.037678956            2 
  126000    1.2102574   -6.9688409    51.437713  0.034019652  0.037659172            3 
  127000    1.1866099   -6.9668466    52.026682  0.034138242  0.037639048            1 
  128000    1.1879171   -6.9767782    52.296289  0.034047063  0.037617605            1 
  129000    1.2215334   -6.9597638     52.54398  0.033943139   0.03758994            2 
  130000    1.1995257   -6.9520226    52.907991  0.033915379  0.037558363            1 
  131000       1.1966   -6.9387041    53.344035  0.033933864  0.037528318            1 
  132000       1.2263   -6.9500305     53.71519  0.033911105  0.037494678            1 
  133000    1.1904402   -6.9759881    53.779089  0.033696171  0.037457776            1 
  134000    1.2075282   -6.9338038     54.26539  0.033747133  0.037415048            2 
  135000    1.2152866   -6.9438628     54.60094  0.033704284  0.037376647            1 
  136000     1.212039   -6.9330417    55.019516  0.033712939  0.037338965            3 
  137000    1.1881897   -6.9636964    55.304823  0.033640403  0.037298207            2 
  138000     1.171135    -6.974468    55.793125    0.0336915   0.03725508            1 
  139000    1.1932136   -6.9501963    56.206562   0.03369698  0.037213463            1 
  140000    1.1940537   -6.9350144    56.770758  0.033792118  0.037176238            2 
  141000    1.1847453    -6.951451    57.147242  0.033774966  0.037143636            1 
  142000    1.2210717   -6.9579673    57.396727  0.033683525  0.037108196            1 
  143000    1.2167113   -6.9680245    57.790011  0.033677163  0.037071227            1 
  144000    1.1895965   -6.9733247    58.025807  0.033579749  0.037035531            1 
  145000    1.1752668   -6.9553548    58.658544  0.033711807   0.03699918            1 
  146000    1.2077742   -7.0021334    58.908496  0.033623571  0.036961074            1 
  147000    1.1938497   -6.9877936    59.246845  0.033586647  0.036921908            4 
  148000    1.1809177   -6.9565144    59.639849  0.033580996  0.036885196            1 
  149000    1.2090284   -6.9828541    59.947778   0.03352784  0.036846265            1 
  150000    1.2251818   -6.9399644    60.231911  0.033462172  0.036802973            1 
  151000    1.1767947   -6.9955816    60.770392  0.033537744  0.036763135            1 
  152000    1.2089714   -7.0265037    60.727964   0.03329384  0.036723011            2 
  153000    1.1868153    -6.994467    61.621448   0.03356288  0.036683394            1 
  154000    1.2209679   -6.9904928    61.916487  0.033504593  0.036644532            2 
  155000    1.1652443   -6.9602997    62.239606  0.033462153   0.03660384            1 
  156000    1.1993692   -6.9658447    62.828221  0.033562084  0.036567713            1 
  157000    1.1939669   -6.9972189     62.83621  0.033352553   0.03652696            1 
  158000    1.2002424   -7.0090451    63.257778  0.033363807  0.036487536            2 
  159000    1.1894954   -6.9530336    63.806339  0.033441478  0.036451184            2 
  160000    1.1860151   -7.0448015    64.165571  0.033419568  0.036415586            2 
  161000    1.1753845   -6.9271667    64.943111  0.033614447  0.036379718            2 
  162000    1.1894554   -6.9862313    64.990935  0.033431551  0.036345239            1 
  163000    1.1732279   -6.9708862    65.392669  0.033431835  0.036312627            5 
  164000    1.1979199   -6.9859867    65.721286  0.033394963  0.036278157            2 
  165000    1.1663851   -7.0170641    66.109639  0.033388706   0.03624313            2 
  166000    1.1963605   -6.9700415    66.381023  0.033323807  0.036206934            5 
  167000    1.1769295   -7.0088911    66.571861  0.033219492  0.036168323            1 
  168000    1.1852205   -6.9371232     67.14234  0.033304732  0.036128317            2 
  169000    1.1715007   -6.9841169    67.342654  0.033206437  0.036090753            3 
  170000     1.190336     -6.98096    68.102428  0.033383543  0.036053201            2 
  171000    1.1972059   -6.9933429    68.153589   0.03321325  0.036015951            2 
  172000    1.2037391   -6.9840526    68.590022    0.0332316  0.035978597            1 
  173000    1.1927139   -7.0219489    68.770253  0.033126326  0.035939369            2 
  174000    1.1586429   -7.0182522    69.586651   0.03332694  0.035902852            2 
  175000    1.1871651   -7.0198385    69.651598  0.033167428  0.035867363            2 
  176000    1.1743672   -7.0109328    69.905504  0.033099197  0.035830724            3 
  177000    1.1465448   -6.9451062    70.586467    0.0332328  0.035797597            1 
  178000     1.182825   -6.9986709    70.810223  0.033150853  0.035765259            1 
  179000    1.2070003   -6.9716231    71.447197  0.033262196  0.035733755            1 
  180000    1.1750698   -6.9911503    71.703679  0.033196148  0.035699346            2 
  181000    1.1751393   -7.0140692    71.881596  0.033094657  0.035664994            5 
  182000    1.1819888   -7.0170697    72.104124  0.033014709  0.035630133            1 
  183000    1.1762578     -6.99783    72.658864  0.033086914  0.035592895            4 
  184000    1.1839705    -6.994172    73.097867  0.033105918  0.035558584            2 
  185000    1.1914128   -7.0211231    73.168338  0.032958711  0.035523725            1 
  186000    1.1726253   -7.0330456    73.715545  0.033026678   0.03549042            1 
  187000    1.2044574   -7.0278795    73.948219  0.032953752   0.03545604            2 
  188000    1.1691543   -7.0222129    74.361697  0.032961745  0.035420592            1 
  189000     1.197422   -7.0323226    74.491759  0.032844691  0.035385496            2 
  190000    1.1830702   -6.9744096    75.012145  0.032900063  0.035347966            1 
  191000    1.1599225   -7.0115966    75.116595  0.032773383  0.035309508            3 
  192000    1.1887856   -7.0033097    75.595512  0.032810552   0.03527114            1 
  193000     1.157663    -7.013496    75.784148  0.032721998  0.035232689            1 
  194000    1.1800018   -7.0015069    76.341529  0.032792753   0.03519539            1 
  195000     1.152281   -6.9929003    76.718279  0.032785589  0.035156645            3 
  196000     1.199042   -7.0375451    77.169259  0.032810059  0.035120705            2 
  197000    1.2126647   -7.0083841    77.232253  0.032670158  0.035083891            3 
  198000    1.1666525     -7.02114     77.95142  0.032807837  0.035046038            2 
  199000    1.1579047   -6.9815097    78.047535  0.032683222  0.035009653            1 
  200000    1.1501993   -7.0347022    78.608012  0.032753338  0.034973694            2 
  201000    1.1700134   -6.9877016    79.411693  0.032923588  0.034940813            2 
  202000    1.1869463   -7.0615878    79.736889  0.032894756  0.034908299            3 
  203000    1.1810572   -7.0244932    79.741472  0.032734594  0.034878137            2 
  204000    1.2014601   -7.0456756    80.083341  0.032713783  0.034849935            3 
  205000    1.1490701   -7.0629312     80.54131   0.03274037   0.03481997            1 
  206000    1.1771428   -7.0697849    80.932279  0.032739595  0.034790043            2 
  207000    1.1848638   -7.0085827    81.551284  0.032830629  0.034760719            2 
  208000    1.1674543     -7.02013    82.389313  0.033008539  0.034734498            1 
  209000    1.1885998   -7.0663366    82.355049  0.032836941  0.034709281            2 
  210000    1.1795896   -7.0381202    82.671958  0.032806333  0.034682716            2 
  211000    1.1635658   -7.0141937     83.20378  0.032860892  0.034656071            1 
  212000    1.1612258   -7.0287741    83.675387  0.032891269  0.034633317            3 
  213000    1.1822028   -7.0636579    84.363884  0.033006214  0.034614316            2 
  214000    1.1561225   -7.0280045    84.582913  0.032937271  0.034597232            1 
  215000    1.1603231   -7.0457813    85.169219  0.033011325  0.034579131            1 
  216000    1.1608821   -7.0572775    85.686552  0.033058083  0.034562666            3 
  217000    1.1667109   -7.0481295    85.925909  0.032997661   0.03454623            1 
  218000     1.149716   -7.0081256    86.195713  0.032949432   0.03453026            1 
  219000    1.1658428    -7.080236    86.546779  0.032932564  0.034512558            1 
  220000    1.1463842   -7.0059766    86.697873  0.032840103  0.034492026            2 
  221000    1.1677787    -7.050744     87.28118  0.032911456   0.03447337            1 
  222000     1.147927   -7.0345219    88.246073  0.033125403  0.034456416            2 
  223000    1.1848561   -7.0159472    88.371881  0.033023872  0.034443328            1 
  224000    1.1705679   -7.0485375    89.189168  0.033180494   0.03443094            1 
  225000    1.1572882   -7.0437706    89.246944  0.033054424  0.034417416            2 
  226000     1.178966   -7.0189776    89.793407  0.033109663  0.034402163            2 
  227000    1.1267358   -7.0342843    90.005409  0.033041633  0.034387703            2 
  228000    1.1632332   -7.0730587    90.012007  0.032899125  0.034371956            3 
  229000    1.1737949   -7.0495882    90.142621  0.032802992    0.0343545            2 
  230000    1.1483771   -7.0134219    90.939253  0.032949005  0.034335899            1 
  231000    1.1623798   -7.0270292    91.412547  0.032977109  0.034318747            1 
  232000    1.1562828   -7.0005998    91.750045  0.032956194  0.034302244            1 
  233000    1.1420211   -7.0263404    91.806753  0.032835033  0.034283887            2 
  234000    1.1987905   -7.0530863    92.399123  0.032905671  0.034265407            2 
  235000    1.1482143   -7.0491022    92.646228  0.032853272  0.034248762            4 
  236000    1.1642952   -6.9999916    93.293902  0.032942762  0.034230985            2 
  237000    1.1557467   -7.0171694    93.232806  0.032782281  0.034213409            2 
  238000    1.1653901   -7.0387914     93.29656  0.032666863  0.034193973            3 
  239000    1.1612075   -6.9990566    93.818791   0.03271227  0.034173162            4 
  240000    1.1816014   -7.0492646     94.30803  0.032745844  0.034153426            1 
  241000    1.1633068   -7.0059261    94.495685  0.032674857  0.034133411            1 
  242000    1.1843766    -7.075421    94.687904  0.032606027  0.034112996            1 
  243000     1.186434    -7.051857    95.465924  0.032738657  0.034093994            1 
  244000    1.1574362   -7.0605355    95.551075  0.032633564  0.034075046            2 
  245000    1.1235367   -7.0655778    96.131018  0.032697625  0.034056742            1 
  246000    1.1465354   -7.0394875    96.612338  0.032727757  0.034038665            1 
  247000     1.157406   -7.0587634    96.721754  0.032632171  0.034020442            1 
  248000    1.1802758   -7.0523621    97.095276  0.032626101  0.034001188            1 
  249000    1.1890348   -7.0546943    97.520831  0.032637494  0.033982448            4 
  250000    1.1618009   -7.0847486    97.593318  0.032531106  0.033961853            1 
  251000    1.1464092   -7.0075341    98.311573  0.032639964   0.03394246            2 
  252000    1.1640273   -7.0459548    98.621216  0.032612836  0.033923633            2 
  253000    1.1857256   -7.0603074    98.583957  0.032471659   0.03390443            2 
  254000    1.1472444   -7.0612964    98.861225  0.032434785  0.033883532            1 
  255000    1.1658544   -7.0366586    99.365942   0.03247253  0.033862208            1 
  256000    1.1486345   -7.0504565    99.552431   0.03240639  0.033840088            2 
  257000    1.1613037   -7.0439216    100.18619  0.032485793  0.033817753            2 
  258000    1.1399416   -7.0661312    100.39561  0.032427521  0.033797051            1 
  259000    1.1324891   -7.0764447    100.85804  0.032451106  0.033776013            2 
  260000    1.1436321   -7.0732156    100.98156  0.032365883  0.033755011            1 
  261000     1.143929   -7.0734875    100.94961  0.032231677  0.033732371            2 
  262000    1.1461546   -7.0459157    101.80501  0.032380727  0.033709779            3 
  263000    1.1571142    -7.048151    102.34027  0.032427207  0.033689951            2 
  264000    1.1417594   -7.0584347    102.32384  0.032299193  0.033669443            2 
  265000    1.1125145   -7.0397498    103.01503  0.032394663  0.033648298            1 
  266000    1.1859932   -7.0575133    102.97679  0.032260899   0.03362736            1 
  267000    1.1578335   -7.0705098    103.47374  0.032295174  0.033606404            1 
  268000    1.1166813   -7.0549803    103.67055  0.032235868  0.033585443            1 
  269000    1.1449833   -7.0813408    103.84903  0.032171322  0.033563118            4 
  270000    1.1697256   -7.0814666    104.14359  0.032143084  0.033540403            2 
  271000    1.1583516   -7.0746737    104.64614  0.032179011  0.033518641            1 
  272000    1.1140833   -7.0122824    104.95749  0.032156093  0.033496349            1 
  273000    1.1350628   -7.0610842    105.46975  0.032194675  0.033474685            1 
  274000    1.1483365    -7.111511    105.83167  0.032187247  0.033452009            3 
  275000    1.1479686     -7.05864    105.94971  0.032105974  0.033432079            1 
  276000    1.1482026   -7.0623769    106.63558  0.032196733  0.033410985            2 
  277000    1.1571633   -7.1076801    106.73387  0.032110069   0.03339072            2 
  278000    1.1349195   -7.0772021    107.05274  0.032090151  0.033369779            2 
  279000     1.170429   -7.0239217    107.69628  0.032167347  0.033349624            1 
  280000    1.1518608   -7.0489521    108.22144  0.032208762  0.033331043            3 
  281000    1.1528676   -7.0608264    108.45204  0.032162525  0.033310947            2 
  282000     1.132017   -7.1485335    108.21925  0.031979683  0.033290436            1 
  283000    1.1460205    -7.144993    108.54686   0.03196315   0.03326948            3 
  284000    1.1284521   -7.0898192    109.32788  0.032079777  0.033248882            1 
  285000    1.1335019    -7.090528    109.54467  0.032030605    0.0332283            2 
  286000    1.1280355   -7.1300347    109.26273   0.03183646  0.033207454            1 
  287000    1.1357416   -7.0859934    110.24565  0.032010932  0.033186847            1 
  288000    1.1456497    -7.118172    110.49139  0.031970889  0.033166413            2 
  289000    1.1605675   -7.1177192    110.74657  0.031933843  0.033146952            2 
  290000    1.1431474   -7.1008643    111.16776  0.031944759  0.033126933            1 
  291000    1.1372415   -7.0892616     111.7386  0.031998455  0.033105873            2 
  292000    1.1389657   -7.1097521    111.30666  0.031765599  0.033084406            2 
  293000     1.148627   -7.0769233    111.85444   0.03181298  0.033061705            2 
  294000    1.1293535   -7.1008422    111.78111  0.031683988  0.033038757            2 
  295000    1.1337313   -7.0339618    112.79545  0.031863121   0.03301624            1 
  296000    1.1232163   -7.1084921    112.55226   0.03168701  0.032993627            1 
  297000    1.1375106   -7.0925901    113.07025  0.031725658  0.032970837            1 
  298000    1.1499117   -7.0738698    113.53165  0.031748223  0.032948618            1 
  299000     1.143446   -7.0796121    113.71579  0.031693365   0.03292658            2 
  300000    1.1408477   -7.1120272    113.97353  0.031659313  0.032903828            4 
  301000    1.1508947   -7.0768796    114.49957  0.031699771  0.032881897            1 
  302000    1.1458722   -7.1142449    114.29876  0.031539392  0.032860058            3 
  303000    1.1199395   -7.1338931    115.09138  0.031653296  0.032837438            3 
  304000    1.1149368   -7.1118585    115.24284  0.031590692  0.032815459            3 
  305000    1.1438069    -7.060906    115.87268  0.031659201  0.032793339            2 
  306000    1.1210261   -7.0598367    115.70734  0.031510715  0.032771181            1 
  307000    1.1224778   -7.0737435    116.46652  0.031614146  0.032749172            1 
  308000    1.1269027   -7.1163977    115.85396  0.031345768  0.032727029            3 
  309000    1.1083753   -7.0829779    116.55682  0.031433878   0.03270358            1 
  310000     1.148022   -7.0804314    117.12868  0.031486203    0.0326809            1 
  311000    1.1569173   -7.0726369    117.81914  0.031569974  0.032658821            1 
  312000    1.1427314   -7.0951873     117.5389  0.031393938  0.032635195            1 
  313000    1.1177988   -7.1138799    118.28173   0.03149141  0.032612805            1 
  314000    1.1419531   -7.1439514    118.84434   0.03154043  0.032591142            2 
  315000    1.1147738   -7.1230928    118.72324  0.031408264  0.032569477            1 
  316000    1.1210063   -7.1339675    119.18028  0.031429399  0.032547421            1 
  317000    1.1315437   -7.1042034    119.76386  0.031483665  0.032527401            3 
  318000    1.1424623   -7.0964762    120.13035  0.031480699  0.032508441            3 
  319000    1.1193386   -7.1381954     120.7672   0.03154838  0.032489055            1 
  320000    1.1326101   -7.0928653    121.18061  0.031557449  0.032469611            2 
  321000    1.1619425   -7.1449019    121.31413  0.031493804  0.032450016            2 
  322000    1.1415912   -7.0728286    122.19515  0.031624003  0.032431257            2 
  323000    1.1175243    -7.140149    121.78223  0.031419564  0.032413587            3 
  324000    1.1589541    -7.133488    122.32288  0.031461646  0.032396757            5 
  325000     1.124947   -7.1016531    123.03824  0.031548266  0.032378999            2 
  326000     1.117645   -7.1558029     123.3635  0.031534636   0.03236267            2 
  327000    1.1424421   -7.1182643    123.68443  0.031519988   0.03234513            2 
  328000    1.1169165    -7.116335    124.18504  0.031551076  0.032329613            1 
  329000    1.1160609   -7.1558418    124.50477  0.031536163  0.032314274            1 
  330000    1.1362072   -7.1150023    124.76473  0.031506245  0.032298439            2 
  331000     1.144607   -7.1448516    125.14097  0.031505782  0.032282997            2 
  332000    1.1057331   -7.1518622    125.62287  0.031531844  0.032267394            4 
  333000    1.1377382    -7.133404    125.82071  0.031486665  0.032252096            1 
  334000    1.1354176   -7.1260304    126.48032  0.031556966  0.032236313            1 
  335000    1.1143291   -7.1450591    126.76478  0.031533527  0.032220285            2 
  336000    1.1076397   -7.1462012    126.51539  0.031377826  0.032204498            1 
  337000    1.1202925   -7.1272266    127.10706  0.031431023  0.032188689            1 
  338000    1.1383471   -7.1431491    127.32772  0.031392436  0.032172187            2 
  339000    1.1145791   -7.1814858    127.17934  0.031263359  0.032154332            2 
  340000    1.0828283   -7.1521579    127.79444  0.031322167   0.03213594            2 
  341000    1.0953109   -7.1420028    127.98034  0.031275743  0.032119031            2 
  342000    1.1092955   -7.1028517    128.68201  0.031355266  0.032102821            2 
  343000    1.0973354   -7.1668475    128.72493  0.031274278  0.032086228            2 
  344000     1.120527   -7.0906067    129.42295  0.031352458  0.032070682            2 
  345000     1.111779   -7.1248216     130.0387  0.031410315  0.032055222            2 
  346000    1.1237901   -7.1816379     129.6086  0.031215944  0.032038999            1 
  347000    1.1268288   -7.1252683    130.23348  0.031276051   0.03202275            2 
  348000     1.120202   -7.1578944    130.38912  0.031223449  0.032006385            2 
  349000    1.1018664   -7.1375643    131.02538  0.031285908  0.031989881            3 
  350000    1.1255325   -7.1525007    130.99807  0.031190017  0.031973081            1 
  351000    1.1103538   -7.0969277    131.64808   0.03125548   0.03195659            3 
  352000    1.1193465   -7.1067018    132.21178  0.031300137  0.031940492            1 
  353000    1.1112463   -7.1090709    132.02617  0.031167651  0.031925281            2 
  354000      1.11718    -7.146207     132.3112  0.031146704  0.031908449            2 
  355000    1.1339058   -7.1445776    132.53235  0.031110879  0.031890455            2 
  356000    1.1131061   -7.1634685    132.35676  0.030982387  0.031871826            4 
  357000    1.1120647   -7.1394326    132.49513  0.030927902  0.031852678            1 
  358000    1.1148431    -7.134029    132.82763  0.030918909  0.031833426            2 
  359000    1.1096349   -7.1250387     133.1018  0.030896425   0.03181368            3 
  360000       1.1156   -7.1695062    133.81853  0.030976511  0.031794094            1 
  361000    1.1168969   -7.1426341    134.04516   0.03094302  0.031774901            4 
  362000    1.0814753   -7.1437171    134.19864  0.030892872  0.031756392            2 
  363000    1.0840074   -7.1697126    134.67042  0.030916075  0.031738769            1 
  364000    1.0992673   -7.1784925    135.23609  0.030960644   0.03172101            2 
  365000      1.12409   -7.1360592    135.62157  0.030963829  0.031702863            2 
  366000    1.0921742   -7.1385431    135.61491  0.030877712  0.031683977            2 
  367000    1.1027421   -7.1837292    135.62624  0.030796149  0.031665717            2 
  368000    1.1211471   -7.1537596    136.12439   0.03082527   0.03164604            2 
  369000    1.0920391   -7.2167814    135.74239  0.030655463  0.031626622            2 
  370000    1.1184024   -7.1383295     136.9301  0.030840112  0.031607438            2 
  371000    1.1042698   -7.1614509    137.12253  0.030800209  0.031588327            3 
  372000    1.1041665   -7.1574364    137.28826  0.030754538  0.031569717            1 
  373000    1.0845485   -7.1344874    137.40857  0.030698966   0.03155056            1 
  374000    1.1092839   -7.1540416    137.64918  0.030670494  0.031531895            1 
  375000    1.0904105   -7.1483119    137.82908  0.030628684  0.031512611            1 
  376000    1.1304239   -7.1461611    138.66879  0.030733331   0.03149375            1 
  377000    1.0892936   -7.1534312    139.25054  0.030780402  0.031475614            1 
  378000    1.1120633    -7.175078    139.70235  0.030798579  0.031458435            2 
  379000    1.0795222   -7.1682419     139.4772   0.03066781  0.031441261            2 
  380000    1.0872934   -7.1558532    140.10909  0.030725677  0.031424225            2 
  381000     1.106027   -7.1896987    140.12595  0.030648721  0.031406987            5 
  382000    1.0810237   -7.1568151    140.50563  0.030651316  0.031388857            3 
  383000    1.1067483   -7.1586116    140.76439  0.030627588  0.031371084            2 
  384000    1.0954974    -7.198047    140.89309  0.030575758  0.031353145            1 
  385000    1.1033147    -7.196452    141.32244  0.030589273  0.031335125            1 
  386000     1.093308   -7.1734264    141.56751  0.030562934  0.031316773            4 
  387000    1.1048133   -7.1867633    142.48674  0.030681899  0.031298919            2 
  388000    1.0917038   -7.1843054    142.49224  0.030604003  0.031281522            4 
  389000     1.087743   -7.2177625    142.47497  0.030521629   0.03126364            1 
  390000    1.0910409   -7.1887903    142.92214  0.030538918  0.031246579            1 
  391000    1.0964235   -7.2067057    143.31315  0.030544149  0.031229846            1 
  392000    1.0934489   -7.1852861    143.46078  0.030497616  0.031213129            3 
  393000    1.0891147   -7.1858322    144.52251  0.030645146  0.031197665            2 
  394000    1.0991958   -7.1467281    145.01848  0.030672267   0.03118229            1 
  395000    1.1009689   -7.1908304     145.1788  0.030628439  0.031166954            2 
  396000    1.0860022   -7.1811127    145.54493  0.030628142  0.031151552            4 
  397000    1.0804389   -7.1889692    145.80687  0.030605977  0.031135981            2 
  398000    1.1095545   -7.1990034    145.62658  0.030491327  0.031120106            1 
  399000    1.1139819   -7.1475579    146.95444  0.030692239  0.031104803            3 
  400000    1.0940422   -7.2059143    146.98155  0.030621156  0.031090093            3 
  401000    1.1127574   -7.1794421    146.77469  0.030501807  0.031074579            1 
  402000    1.0571852    -7.196652     146.7179  0.030414158  0.031058833            3 
  403000    1.1223654   -7.1493021    147.42147  0.030484176  0.031042749            1 
  404000     1.096793   -7.1854008    147.63427  0.030452613  0.031027582            1 
  405000    1.0930699   -7.2031027    148.23306  0.030500629  0.031012616            1 
  406000    1.1173706    -7.205845    148.62506  0.030505964  0.030997403            2 
  407000    1.0734276   -7.2249253    148.62143  0.030430268  0.030982018            2 
  408000    1.0833995   -7.1895504    149.08334  0.030450029   0.03096712            1 
  409000    1.0865825   -7.1689976    148.69765  0.030296994  0.030951793            2 
  410000    1.0803538   -7.2041617    149.55544  0.030397446  0.030935879            1 
  411000    1.1113446   -7.1825592    149.96346  0.030406216  0.030920444            2 
  412000    1.0765367   -7.1923954    150.27635  0.030395701  0.030904957            1 
  413000    1.0865419   -7.1911671    151.12941  0.030494232  0.030890068            1 
  414000    1.0957055   -7.1662131    150.86496  0.030367344  0.030874704            2 
  415000    1.0985268   -7.1479833     151.7701  0.030475923  0.030860146            1 
  416000    1.0979447   -7.2385714    152.04745  0.030458224  0.030846761            2 
  417000    1.1103473   -7.2231006    152.08697   0.03039308  0.030832573            3 
  418000    1.0810068   -7.1714819    152.72442  0.030447452  0.030818293            1 
  419000    1.0749389   -7.2085647    152.96034  0.030421707  0.030804341            2 
  420000    1.0905857   -7.1909223    152.88823  0.030334966  0.030789814            1 
  421000    1.0980019   -7.1930815    153.33152  0.030350657  0.030775194            1 
  422000    1.0843895    -7.195169    153.82995  0.030377162  0.030761541            1 
  423000    1.0791237   -7.1831882    154.37291  0.030412315   0.03074776            3 
  424000    1.0808071   -7.2214682    154.87312  0.030438899  0.030734584            1 
  425000    1.0961407   -7.2172748    154.39366  0.030273267  0.030720948            2 
  426000    1.0888288   -7.2563745    154.75149  0.030272202  0.030707194            2 
  427000    1.0986315   -7.2432202    155.52046  0.030351378  0.030693561            2 
  428000    1.0906073     -7.21201    155.84597  0.030343841  0.030681796            2 
  429000    1.0872028   -7.2127972     156.8436  0.030466899   0.03067012            1 
  430000    1.0843786   -7.2270107    156.42453  0.030314831  0.030657642            1 
  431000    1.0848856   -7.2133312    156.96771  0.030349518  0.030644782            2 
  432000    1.0992903   -7.1988832     157.5975  0.030400752  0.030632625            1 
  433000    1.0920961   -7.1973367    157.26686   0.03026691  0.030620768            1 
  434000    1.0914181   -7.2126269    157.91411  0.030321449  0.030607945            2 
  435000    1.0799698   -7.2060172    157.96519   0.03026153  0.030595569            2 
  436000    1.0736233   -7.2085137    158.22916  0.030242576  0.030582369            3 
  437000    1.0850474   -7.1931974    158.50648  0.030226255  0.030569549            3 
  438000    1.0759786   -7.2141016    159.12491  0.030274907  0.030557105       -1e+20 
  439000    1.0879923   -7.2451387     158.8987  0.030163003  0.030544831            1 
  440000    1.0788592   -7.2456503    159.16277  0.030144464  0.030531307            2 
  441000    1.0963762    -7.223482     159.0845  0.030061319   0.03051717            1 
  442000    1.0670128   -7.2088422    159.64349  0.030098696  0.030502682            2 
  443000    1.0973895   -7.2039255    159.90719   0.03008036  0.030488099            1 
  444000    1.0556465   -7.2528172    159.79986  0.029992466  0.030473745            2 
  445000    1.0712201   -7.2255456     160.6012  0.030075131  0.030459225            3 
  446000    1.0595607    -7.248932     160.8571  0.030055512  0.030444739            1 
  447000    1.0733164   -7.2546988    160.29909  0.029884244  0.030429722            3 
  448000    1.0858116   -7.2482002    160.86818  0.029923397  0.030414509            1 
  449000    1.0961911   -7.2272324    161.19532  0.029917469  0.030399432            2 
  450000    1.0823333   -7.2118441    161.46712  0.029901318  0.030384622            1 
  451000    1.0803621   -7.2219924    161.75559  0.029888321  0.030370266            1 
  452000    1.0841503   -7.2174285    162.08378  0.029882704  0.030355187            2 
  453000    1.0731122   -7.2312751    162.44093  0.029882438  0.030340385            2 
  454000    1.0796422   -7.2535217     162.8883  0.029898734  0.030325762            3 
  455000    1.0616055    -7.247797    163.15272   0.02988145  0.030310934            2 
  456000    1.0591028   -7.2505136    162.38528  0.029675673  0.030294655            5 
  457000    1.0566134   -7.2327929    163.36699   0.02978975  0.030278501            1 
  458000    1.0690194   -7.2308058    164.03412  0.029846092  0.030262457            2 
  459000    1.0974244   -7.2288625    163.80941   0.02974027  0.030246613            1 
  460000    1.0686266   -7.2600753    164.12478   0.02973275  0.030230596            1 
  461000    1.0755099   -7.2139209    164.41434  0.029720597  0.030215303            2 
  462000    1.0715634   -7.2490997    164.57818  0.029685819  0.030199734            2 
  463000    1.0887554   -7.2152604    164.84672  0.029670037  0.030184393            2 
  464000     1.078729   -7.2842438    165.09652  0.029650956  0.030169178            1 
  465000    1.0476568   -7.2443076    165.94542  0.029739322   0.03015375            2 
  466000    1.0769649   -7.2331409    165.63841  0.029620602  0.030137804            2 
  467000    1.0658486   -7.2443485    165.80893  0.029587603  0.030121589            1 
  468000    1.0528526   -7.2224407    166.26224    0.0296051  0.030105205            2 
  469000    1.0559591   -7.2324099    166.57431  0.029597425  0.030089193            3 
  470000    1.0730119   -7.2242621     166.4913  0.029519734  0.030072136            2 
  471000    1.0720491   -7.2205305    166.54486  0.029466536  0.030055134            1 
  472000     1.077399   -7.2429655    166.58168  0.029410608  0.030038233            2 
  473000    1.0722079   -7.2577808    166.70284  0.029369775  0.030020764            2 
  474000    1.0645402    -7.233516    167.27438  0.029408295  0.030003405            1 
  475000    1.0751812    -7.264008    167.65287  0.029412784  0.029987029            1 
  476000    1.0404233   -7.2485204    167.53294  0.029329996  0.029969428            1 
  477000    1.0723664   -7.2617888    167.75568   0.02930742  0.029951899            2 
  478000    1.0950237   -7.2924978    168.41046  0.029360262  0.029934294            2 
  479000    1.0593755   -7.2752512    168.41453  0.029299675  0.029916103            3 
  480000    1.0875993   -7.2175177    168.24722  0.029209587  0.029898149            2 
  481000    1.0639364   -7.2539729    169.06125   0.02928989  0.029880843            1 
  482000     1.073526   -7.2910462    169.26943  0.029265115  0.029863567            1 
  483000    1.0643344   -7.2376272    170.21398  0.029367491  0.029846269            1 
  484000    1.0818985   -7.2492691    170.06353  0.029280911  0.029829735            2 
  485000    1.0568962   -7.2218873    170.69446  0.029328946  0.029813136            1 
  486000    1.0607731    -7.258111    170.98029  0.029317608  0.029796835            2 
  487000    1.0645883    -7.237506    171.06119  0.029271251  0.029780597            3 
  488000    1.0434499   -7.2263515    171.58863  0.029301336  0.029764377            1 
  489000    1.0570998   -7.2807776    171.91837  0.029297608  0.029748482            2 
  490000    1.0752832   -7.2626977    172.22158  0.029289384  0.029732211            2 
  491000     1.040341   -7.2409738     172.5744  0.029289614  0.029715976            3 
  492000    1.0387325    -7.263981    172.66338  0.029245153  0.029699874            3 
  493000     1.074997   -7.2489673    173.07502  0.029255413   0.02968403            1 
  494000     1.044182   -7.2769356    173.35955  0.029244188  0.029668257            1 
  495000    1.0521847   -7.2827394    173.10152   0.02914167  0.029652375            1 
  496000    1.0966691   -7.2943966    173.77591  0.029196222  0.029636197            3 
  497000    1.0605526   -7.2355838    174.25493  0.029217795   0.02962024            3 
  498000     1.061161   -7.2717882    174.70809  0.029234955  0.029604573            3 
  499000    1.0674623   -7.2812953    174.88121  0.029205278  0.029589021            3 
  500000    1.0676929   -7.2408554    175.93573  0.029322622  0.029574171            1 
  501000    1.0409492   -7.2657218    176.06827  0.029286139  0.029559279            4 
  502000    1.0300212   -7.2747732    176.18478  0.029247141   0.02954461            1 
  503000    1.0485022   -7.2694393    175.91472  0.029144255  0.029529838            1 
  504000    1.0434541    -7.258415    176.41635  0.029169369  0.029514771            1 
  505000    1.0536674   -7.2882405    176.08123  0.029056309   0.02949913            3 
  506000    1.0645587   -7.2804848      176.609  0.029085804   0.02948337            2 
  507000    1.0413387   -7.2819577      177.035  0.029098455  0.029467876            1 
  508000    1.0709081   -7.2908631    177.35537  0.029093729  0.029452572            1 
  509000    1.0632127   -7.3418702     177.3085  0.029028896    0.0294373            2 
  510000     1.065271   -7.2743591    177.97042  0.029080134  0.029421571            4 
  511000    1.0405078   -7.2912239    178.44346  0.029100368  0.029406262            1 
  512000    1.0421113   -7.2903385     177.7245  0.028926514  0.029390221            1 
  513000    1.0269695   -7.2722587    177.30269  0.028801606  0.029373727            2 
  514000    1.0276944   -7.3202516    177.99609  0.028857992  0.029356686            2 
  515000    1.0845923   -7.3026155    177.59019  0.028736277   0.02933978            1 
  516000    1.0491456   -7.2851073     178.9108  0.028893863  0.029323192            1 
  517000    1.0475081   -7.2493624    179.11909  0.028871549  0.029306606            3 
  518000    1.0420536   -7.2904927    179.08076  0.028809646  0.029290186            3 
  519000    1.0478323   -7.2745153    179.41325  0.028807523  0.029273874            3 
  520000     1.062373    -7.289678     179.5149  0.028768414  0.029257437            1 
  521000    1.0452038   -7.2762223    179.73327  0.028748123  0.029240945            2 
  522000    1.0419255   -7.3053806    179.69995  0.028687731  0.029224239            2 
  523000    1.0421076   -7.3094608    180.15468  0.028705335  0.029207201            2 
  524000    1.0737463    -7.296668    180.47262  0.028701117  0.029190122            1 
  525000    1.0487522   -7.3178092     180.3939  0.028633952  0.029172764            2 
  526000     1.039616   -7.2631478    181.09407  0.028690443  0.029155924            1 
  527000    1.0525099    -7.270326    180.55519  0.028550789  0.029138392            2 
  528000     1.048494   -7.3036384    180.66036  0.028513314  0.029120682            3 
  529000    1.0485231   -7.3113075    180.61671  0.028452537  0.029102287            3 
  530000    1.0585679    -7.309161    181.31813   0.02850914  0.029084073            4 
  531000    1.0329351   -7.3410459    180.89009  0.028388275   0.02906562            1 
  532000    1.0461769   -7.3165076    181.51007  0.028432028  0.029047325            2 
  533000    1.0371014   -7.3087141    182.20146  0.028486783   0.02902898            2 
  534000    1.0715749   -7.3160503    182.35052  0.028456698  0.029010604            1 
  535000    1.0309559    -7.299337    182.45453  0.028419709  0.028992224            1 
  536000    1.0145358   -7.3221395    181.98579  0.028293811    0.0289735            3 
  537000    1.0423932   -7.3140552    182.95467  0.028391476   0.02895485            1 
  538000     1.054098   -7.3365413    182.51395  0.028270438    0.0289362            1 
  539000    1.0380069   -7.3132601    183.52965  0.028375022  0.028917537            1 
  540000    1.0367008   -7.2981439    183.57227  0.028329054  0.028899301            2 
  541000    1.0381016   -7.3439813    183.34512  0.028241701  0.028880677            2 
  542000    1.0539328   -7.3231942    183.70115  0.028244334  0.028862295            3 
  543000     1.027619   -7.3098001    183.90406  0.028223458  0.028843987            1 
  544000    1.0597997    -7.343949    184.21086  0.028218575  0.028825117            2 
  545000    1.0122018   -7.2926353    184.70817   0.02824284  0.028806393            1 
  546000    1.0382394   -7.3302078    184.76658  0.028200027  0.028787768            1 
  547000    1.0410042   -7.3013124    184.66236  0.028132596  0.028769778            3 
  548000    1.0296088   -7.2996691    185.17443  0.028159128  0.028751075            2 
  549000    1.0479242   -7.3202902    185.76718  0.028197811  0.028732743            2 
  550000    1.0208251   -7.2560071    185.37701  0.028087426  0.028715006            2 
  551000    1.0396777   -7.3062691    186.10281  0.028146221  0.028696709            1 
  552000    1.0277668   -7.3063526    186.17537  0.028106186  0.028678483            3 
  553000    1.0335095   -7.3254968    186.49006  0.028102782  0.028660268            3 
  554000     1.056014   -7.3523499    186.92221  0.028117059   0.02864238            4 
  555000    1.0237686   -7.3025553    187.67818  0.028179907  0.028624747            1 
  556000    1.0363669   -7.3142275    187.63793   0.02812319   0.02860712            1 
  557000    1.0346123   -7.3392705     188.2179   0.02815947   0.02858948            1 
  558000    1.0388613   -7.3131742    188.10907  0.028092753  0.028571969            1 
  559000    1.0173706   -7.2992486    188.81534  0.028147784   0.02855456            1 
  560000    1.0252585   -7.2969945    188.95091  0.028117695  0.028537723            1 
  561000    1.0415816   -7.3372073    188.82452  0.028048799  0.028520561            3 
  562000    1.0327634   -7.3140702    189.22222  0.028057862  0.028503527            3 
  563000    1.0502102    -7.304773    189.32788  0.028023665  0.028486438            2 
  564000    1.0200247   -7.3086954    189.27242  0.027965784  0.028468899            2 
  565000    1.0169757   -7.3452747    189.45528  0.027943256  0.028450662            2 
  566000    1.0162566   -7.3195151    190.00336  0.027974582  0.028432906            3 
  567000    1.0226372   -7.3427344    189.76322   0.02788995  0.028415298            1 
  568000    1.0385141   -7.3564558    190.26723  0.027914793   0.02839744            1 
  569000    1.0112024   -7.3100098    190.79905  0.027943621  0.028379517            1 
  570000    1.0278263   -7.3757386    191.11508  0.027940801  0.028362035            2 
  571000    1.0575888   -7.3248372    191.56179  0.027957062  0.028344982            3 
  572000    1.0214043   -7.3089419    191.13523  0.027846042  0.028327563            1 
  573000    1.0131957   -7.3517891    191.12195  0.027795514  0.028309723            1 
  574000    1.0124602   -7.3476159    191.56524  0.027811445  0.028291609            4 
  575000    1.0292742   -7.3458271    191.52129  0.027756709  0.028273671            2 
  576000    1.0346978    -7.319749    191.86674  0.027758498  0.028255588            1 
  577000    1.0186433   -7.3123039    192.04884   0.02773669  0.028237282            3 
  578000    1.0243579   -7.3568188    191.69114   0.02763713  0.028218902            1 
  579000    1.0005544    -7.355841    191.83006  0.027609393  0.028200777            4 
  580000    1.0352415   -7.3258492    193.07227  0.027740269   0.02818309            2 
  581000    1.0282036   -7.3236644    193.18556  0.027708773   0.02816527            3 
  582000    1.0388143   -7.3813563    193.63701  0.027725804  0.028147846            4 
  583000    1.0131736    -7.350898    194.36492  0.027782293  0.028130579            1 
  584000    1.0029752   -7.3825766    193.67241  0.027635904  0.028113346            8 
  585000    1.0063751   -7.3962542    193.16064  0.027515761  0.028095674            3 
  586000    1.0212995   -7.3558828    194.02807   0.02759216  0.028077394            3 
  587000    1.0405375    -7.316438    193.89009  0.027525566   0.02805971            2 
  588000    1.0359675   -7.3451202    194.52674  0.027568982  0.028042138            2 
  589000    1.0061487   -7.3671537    194.93649  0.027580149  0.028024475            1 
  590000    1.0129415   -7.3751321    194.70755  0.027501067  0.028006694            2 
  591000    1.0145684   -7.3450343    195.44685  0.027558777  0.027989127            3 
  592000   0.99876311   -7.3663699    195.70569  0.027548662  0.027971674            2 
  593000    1.0127712   -7.3820529    195.75586  0.027509255  0.027953787            2 
  594000    1.0187272   -7.3884951    195.06858  0.027366523  0.027935825            2 
  595000    1.0316855   -7.3311674    196.05329  0.027458444  0.027917506            5 
  596000    1.0129139   -7.3679171    195.97761  0.027401792  0.027899211            1 
  597000    1.0126621   -7.3700992    195.99547  0.027358386  0.027880832            1 
  598000   0.99805857   -7.3751452    196.42903  0.027373053  0.027862401            1 
  599000     1.005387   -7.3578081    196.56859  0.027346771  0.027844071            5 
  600000    1.0022532    -7.389454    195.99691  0.027221793  0.027825474            3 
  601000   0.99854116   -7.3961505    196.78513  0.027285791  0.027807363            2 
  602000    1.0135598   -7.3384326    197.23902  0.027303297  0.027788903            2 
  603000    1.0281891   -7.3430488    197.52424  0.027297435  0.027770666            1 
  604000    1.0242866   -7.3828249    197.75193  0.027283655   0.02775288            2 
  605000   0.99489626   -7.3520668    197.79269  0.027244172  0.027734726            1 
  606000    1.0006675   -7.3398659    198.03936  0.027233135  0.027716307            3 
  607000    1.0149506   -7.3997472    198.27606  0.027220766   0.02769796            2 
  608000    1.0172189   -7.3609354    198.23299  0.027170092  0.027679446            2 
  609000    1.0313917   -7.3842119    197.96712  0.027089097  0.027661036            2 
  610000     1.007159   -7.3920388    198.07721  0.027059729  0.027642304            3 
  611000   0.99965171   -7.3620345    198.87376  0.027124081  0.027623522            1 
  612000   0.99456072   -7.3851986    198.57456   0.02703902  0.027604685            1 
  613000   0.99816424   -7.3263567    199.26396   0.02708863  0.027586014            1 
  614000    1.0087541   -7.3966612    199.52546  0.027080002  0.027567544            2 
  615000    1.0239337     -7.36006    199.76834   0.02706888  0.027549123            2 
  616000    1.0071882   -7.3712032    199.82861  0.027033091  0.027531225            5 
  617000     0.993623   -7.3630664    200.55267   0.02708707  0.027512981            1 
  618000    1.0068484   -7.3667717    201.33153  0.027148265  0.027495381            1 
  619000    1.0067707   -7.3546511    200.24449  0.026958062  0.027477782            2 
  620000    1.0190713   -7.3493502    202.31488   0.02719286  0.027460383            1 
  621000    1.0025204   -7.4209116    201.93127  0.027097594  0.027443358            3 
  622000   0.99362738   -7.3997707    202.05648  0.027070804  0.027426526            1 
  623000    1.0011899   -7.3765265    202.69141   0.02711228  0.027409933            1 
  624000   0.99718348   -7.4017113    202.36332  0.027025017  0.027393351            1 
  625000   0.99870968   -7.4066491    202.96631  0.027062175   0.02737647            1 
  626000   0.99436393   -7.3679429    202.95468  0.027017396  0.027359816            3 
  627000   0.99761514   -7.3963421     202.6571  0.026934755  0.027342862            3 
  628000   0.98446015   -7.4409841    202.71176  0.026899119   0.02732555            4 
  629000   0.99572017    -7.399526     203.3615  0.026942435  0.027308217            1 
  630000    0.9833471   -7.3884819    203.17863  0.026875481  0.027291155            2 
  631000    1.0131837   -7.3966602    204.18251  0.026965466  0.027274257            2 
  632000    1.0180319   -7.3963479    204.18724  0.026923424  0.027257685            1 
  633000    1.0067645   -7.3795719     204.6744  0.026945024   0.02724118            2 
  634000   0.99760211   -7.4126938    204.72845  0.026909629  0.027224687            2 
  635000   0.99984982   -7.3739778    205.32255  0.026945217   0.02720833            1 
  636000   0.99014455   -7.4041249    205.04756  0.026866818  0.027191792            1 
  637000   0.99102288   -7.3785604    205.58592  0.026895071   0.02717523            2 
  638000   0.97673124   -7.4273412     205.5249  0.026844945  0.027158383            1 
  639000    1.0229733   -7.3741843    205.36473  0.026782046  0.027141447            1 
  640000   0.97680242   -7.3782951    205.67857  0.026781064  0.027124576            1 
  641000   0.99234616   -7.4110091    205.83492   0.02675961  0.027107471            2 
  642000    1.0068227   -7.4249084    206.02322   0.02674237  0.027090742            4 
  643000   0.98844828   -7.4413456    205.65037  0.026652458  0.027073571            2 
  644000   0.97612036   -7.3695998    206.73616  0.026751573  0.027056383            2 
  645000   0.99093388   -7.4033775    206.22278   0.02664377   0.02703905            3 
  646000    0.9809447   -7.4128132     206.5825  0.026648929  0.027021847            6 
  647000    1.0105338   -7.4327393    207.01459  0.026663394  0.027004724            2 
  648000    1.0064046    -7.410189    207.14626  0.026639179  0.026987543            4 
  649000   0.97993908   -7.3745718    207.74479  0.026674986  0.026970677            4 
  650000    1.0071691   -7.3737061    208.35833  0.026712606   0.02695421            1 
  651000   0.98809375   -7.3951815    208.78729  0.026726484  0.026937816            3 
  652000    1.0038367    -7.405494    208.86547  0.026695484  0.026921641            2 
  653000     0.997398    -7.424198    209.22066  0.026699931   0.02690535            4 
  654000   0.98140251   -7.3978627    209.01463  0.026632853  0.026889158            4 
  655000   0.98355107   -7.3976753    209.60687  0.026667541   0.02687319            3 
  656000    1.0135332   -7.4303403    209.70283  0.026639079  0.026857462            2 
  657000   0.96581693   -7.3892423    210.22886  0.026665254  0.026842281            1 
  658000   0.99052261   -7.4263029    210.17129  0.026617438  0.026826705            1 
  659000    0.9798987   -7.4443461    210.37561  0.026602885  0.026810988            3 
  660000   0.97959802   -7.4394389     211.1635  0.026662058  0.026795309            1 
  661000   0.99274202   -7.4134717    210.89984  0.026588482  0.026779412            2 
  662000   0.99246705    -7.378896    211.40893  0.026612403   0.02676377            3 
  663000   0.99630241   -7.4574996    210.83893   0.02650062  0.026747971            3 
  664000   0.97101229   -7.4211198    211.62643  0.026559541   0.02673222            2 
  665000   0.98893146    -7.443499    211.33372  0.026482923  0.026716544            5 
  666000   0.97947697   -7.4363862    212.38526  0.026574733  0.026701183            2 
  667000   0.97696322   -7.4274589    211.58101  0.026434409  0.026685745            2 
  668000   0.99486169   -7.4288417    212.97806  0.026569119  0.026670099            1 
  669000   0.98874786   -7.4240375    212.75258  0.026501318  0.026654514            1 
  670000   0.99215699   -7.4232123    212.68814  0.026453749  0.026638754            1 
  671000    1.0120055   -7.4463714    212.75086  0.026422114  0.026622871            1 
  672000   0.98854481   -7.4717746    212.09507  0.026301472  0.026606708            2 
  673000   0.97613799   -7.4432227    213.03593  0.026378892   0.02659089            4 
  674000   0.98748621   -7.4385946    213.32024  0.026374906  0.026575256            1 
  675000     0.987284   -7.4700894    213.22587  0.026324181  0.026559244            3 
  676000   0.97301395   -7.4606664    213.37485  0.026303606  0.026543143            2 
  677000   0.99181998   -7.4647753    213.62448   0.02629548  0.026526865            1 
  678000   0.99861704   -7.4519923    214.03663  0.026307354   0.02651081            2 
  679000   0.95475238   -7.4160376    214.36638  0.026309079  0.026495105            1 
  680000   0.97612621   -7.4555128    214.30738   0.02626316   0.02647908            4 
  681000   0.97667522    -7.403597    215.41246  0.026359822  0.026463319            3 
  682000   0.97299086   -7.4034677    214.97244  0.026267405  0.026447786            2 
  683000    0.9888916   -7.4408592    214.84054  0.026212853  0.026431903            2 
  684000   0.98841244   -7.4425875    215.63844   0.02627174  0.026415921            1 
  685000    0.9729214   -7.4898116    214.26943  0.026066841  0.026399647            3 
  686000   0.97456661   -7.4910599    214.69066  0.026080012  0.026383118            2 
  687000   0.97444347   -7.4387424    215.91661  0.026190759  0.026367019            1 
  688000   0.96083529   -7.4375248    215.59879  0.026114194  0.026350998            2 
  689000   0.98431063   -7.4580485    215.74001  0.026093374  0.026334679            3 
  690000   0.99147341   -7.4504981    216.11246  0.026100538  0.026318443            3 
  691000   0.97446285   -7.4581235     215.1564  0.025947467  0.026302084            2 
  692000   0.97751726   -7.4380236     216.6924  0.026094942  0.026285678            6 
  693000   0.97173248   -7.4477463    216.03123  0.025977781  0.026269231            2 
  694000   0.95943773   -7.4453898    216.72035  0.026023097  0.026252675            2 
  695000   0.96368056   -7.4280893    216.86435   0.02600292  0.026236191            3 
  696000   0.98662801    -7.464985    216.50956  0.025923079   0.02621981            4 
  697000   0.99522866   -7.4561002    217.26837   0.02597661  0.026203464            1 
  698000   0.98030864   -7.4586921    217.74236  0.025995984  0.026187196            1 
  699000   0.96734273   -7.4494798    217.81506  0.025967461   0.02617086            1 
  700000   0.98044335   -7.4340433    217.62825  0.025908125  0.026154451            2 
  701000    0.9779016   -7.4518357     218.0002  0.025915383  0.026138052            2 
  702000   0.97255796   -7.4576904    218.48594  0.025936127  0.026121443            1 
  703000   0.96445298   -7.4822516    217.57732  0.025791526  0.026104818            1 
  704000   0.96971385   -7.4550977    217.72406  0.025772261  0.026088378            1 
  705000   0.96139069   -7.4459217    218.94109  0.025879561   0.02607178            3 
  706000    0.9810064    -7.476536    218.08342  0.025741669  0.026055313            2 
  707000   0.97242364   -7.5047366     217.8639  0.025679384  0.026038458            2 
  708000   0.96553897   -7.4794647    218.49067  0.025716887  0.026021618            2 
  709000   0.96242427   -7.4896742    218.29924  0.025658115  0.026004458            2 
  710000   0.94609991   -7.4782165    219.23305  0.025731579  0.025987418            2 
  711000   0.96824999   -7.4772954    219.24459  0.025696741  0.025970578            3 
  712000   0.97144827   -7.4771083    219.43444   0.02568287  0.025954064            3 
  713000   0.95712019   -7.4535007    219.22698  0.025622601  0.025936999            2 
  714000   0.97986517   -7.4883687     219.0363  0.025564461  0.025919865            1 
  715000   0.96134387    -7.497471    218.81663  0.025503104  0.025902626            2 
  716000   0.97394788   -7.4312685    220.04894   0.02561091  0.025885708            2 
  717000   0.96948866   -7.4672651    219.80431  0.025546759  0.025868833            2 
  718000   0.96286682    -7.454974    220.14674  0.025550921  0.025851914            3 
  719000   0.96300514   -7.4568127    221.30543  0.025649679  0.025835295            2 
  720000    0.9552269   -7.4866682     220.7961  0.025555104  0.025818461            1 
  721000   0.95666441   -7.4707845    220.98993  0.025542064   0.02580181            3 
  722000   0.96786647   -7.4771176    221.69524  0.025588094  0.025785326            2 
  723000   0.97695505    -7.485775    222.00516  0.025588423  0.025769275            2 
  724000   0.96685204   -7.4879722    222.21112  0.025576786  0.025753112            1 
  725000   0.95679927   -7.5207595    221.83885  0.025498718  0.025737083            2 
  726000   0.97086687   -7.4756451    222.26987   0.02551307  0.025721016            3 
  727000   0.95511476     -7.49786    222.81167  0.025540082  0.025705273            1 
  728000    0.9669994   -7.5158394    222.96161  0.025522162  0.025689381            1 
  729000    0.9540368   -7.4678318    223.44313  0.025542196  0.025673604            4 
  730000   0.99509232    -7.473005    223.73854   0.02554093   0.02565807            1 
  731000   0.95903857   -7.4937707    223.19247  0.025443738   0.02564253            2 
  732000   0.97631463   -7.4836988    223.84641  0.025483425  0.025626871            2 
  733000   0.96655518   -7.4834081    224.11976  0.025479737  0.025611469            2 
  734000   0.95629879   -7.4775416    224.80251  0.025522537  0.025596009            1 
  735000    0.9628342   -7.4976867    224.26979  0.025427414  0.025580435            2 
  736000   0.96475377   -7.5032067     224.7831  0.025450985  0.025564578            3 
  737000    0.9646431   -7.4676647    224.48048  0.025382234  0.025548726            1 
  738000   0.94060851   -7.4890114     225.3767   0.02544904  0.025533127            2 
  739000   0.94471859    -7.487462    225.46305  0.025424341  0.025517808            4 
  740000   0.97593837   -7.4988582    224.92524  0.025329419  0.025502305            1 
  741000   0.98106514   -7.4743767    226.07203  0.025424205  0.025486833            2 
  742000   0.95706736   -7.5006029    225.49215  0.025324815  0.025471045            2 
  743000   0.98002859   -7.5229419    225.06423  0.025242736   0.02545503            2 
  744000   0.95775785   -7.4902847    225.13763  0.025217028   0.02543903            1 
  745000   0.93968087    -7.508739    224.83362  0.025149175   0.02542314            1 
  746000   0.95111316   -7.5193916    225.37889  0.025176373  0.025406959            2 
  747000   0.96324678   -7.5060194    225.36992  0.025141669  0.025390617            1 
  748000   0.94967138   -7.4946358    225.84021  0.025160451  0.025374371            2 
  749000   0.95618336   -7.5120655    225.77267  0.025119344  0.025357893            3 
  750000   0.95209553   -7.4756558    226.43167  0.025159075  0.025341574            2 
  751000   0.94593357   -7.5193353    226.28163  0.025108924  0.025325194            3 
  752000   0.93863783   -7.4882661    226.94576  0.025149131  0.025308464            3 
  753000   0.95687132   -7.5185489    226.46506  0.025062534  0.025291742            1 
  754000   0.95598255   -7.5004978    226.18718  0.024998583  0.025275164            2 
  755000   0.96631857   -7.4779714    226.85943  0.025039673  0.025258731            3 
  756000   0.94058229   -7.5493205    226.73382  0.024992705  0.025242227            2 
  757000   0.96856114   -7.4915921    226.81464  0.024968586  0.025225793            2 
  758000   0.94996181   -7.5038808    227.30795   0.02498988   0.02520908            2 
  759000   0.95065394   -7.4940157    227.36297  0.024962996  0.025192354            2 
  760000    0.9506079   -7.5128207    227.07517  0.024898594  0.025175322            2 
  761000   0.95752431   -7.5167309    227.02272  0.024860131  0.025158347            2 
  762000    0.9512976   -7.5062458    226.94875  0.024819417  0.025141356            1 
  763000   0.96641909   -7.5426434    226.93199  0.024785058  0.025124429            2 
  764000   0.92247861   -7.4848377    227.61917  0.024827571  0.025107553            4 
  765000   0.93844733   -7.4840404    228.14298  0.024852176  0.025090806            3 
  766000   0.94583889   -7.5102747    228.05281  0.024809922  0.025073943            2 
  767000   0.96746468   -7.5298802    227.47962    0.0247153  0.025056992            3 
  768000   0.93697117   -7.5185659    228.61035   0.02480581  0.025040047            3 
  769000   0.93677071   -7.5183421     228.6043  0.024772898  0.025023466            2 
  770000   0.95437023   -7.4816225    229.27546  0.024813361  0.025007015            2 
  771000   0.94194609   -7.5049495    229.34479  0.024788672  0.024990636            3 
  772000   0.94261743   -7.4923865    229.94442  0.024821289   0.02497466            3 
  773000   0.93337575     -7.52584    229.33229  0.024723188  0.024958291            1 
  774000   0.98026902    -7.529255    229.62471   0.02472273   0.02494175            2 
  775000   0.95469758   -7.5208863    230.08757  0.024740599  0.024925181            5 
  776000   0.93747971   -7.5255477    230.13709  0.024714035  0.024908422            3 
  777000   0.94991336   -7.5611965    229.74446  0.024640118  0.024891751            2 
  778000   0.94745018   -7.5287446    229.77303  0.024611507  0.024875178            1 
  779000   0.97141146   -7.5285517     230.1562  0.024620903  0.024858646            2 
  780000   0.95191656   -7.5412693     229.6338  0.024533525  0.024841846            1 
  781000   0.94362798   -7.5692322    229.51952  0.024489919  0.024824805            2 
  782000    0.9562968   -7.5349112    230.12334  0.024522947  0.024808024            2 
  783000   0.94195836   -7.4985358    230.80126  0.024563778  0.024791329            1 
  784000    0.9471601   -7.5226442    231.11473  0.024565767  0.024774556            1 
  785000   0.93917823   -7.5416045    230.25585  0.024443297  0.024757536            2 
  786000   0.94914661   -7.5284483    231.53021  0.024547308  0.024740869            2 
  787000   0.93076351   -7.5253104    231.45544    0.0245082   0.02472411            2 
  788000   0.93993045   -7.5410336    231.91619  0.024525824  0.024707454            3 
  789000   0.94575377   -7.5341277    232.23929  0.024528864  0.024690917            1 
  790000   0.92236543   -7.5188435    230.89821  0.024356351  0.024674245            2 
  791000   0.92980337   -7.5588156    231.61811  0.024401403  0.024657373            1 
  792000    0.9388677   -7.5509504    231.34322  0.024341669  0.024640397            3 
  793000   0.92619688   -7.5597674    231.80047  0.024359024  0.024623478            5 
  794000   0.94526913   -7.5583502     231.8559  0.024334162  0.024606691            2 
  795000   0.94341187   -7.5284115    231.56912  0.024273493  0.024589799            1 
  796000   0.93850717   -7.5731355    231.87677  0.024275207  0.024572885            2 
  797000   0.92992269   -7.5384947    232.13484  0.024271732  0.024555905            3 
  798000    0.9348318   -7.5606956        232.3  0.024258563  0.024538948            2 
  799000   0.93568913   -7.5669941    232.40663  0.024239323  0.024521825            2 
  800000   0.91931195   -7.5394115    232.99797  0.024270622  0.024504815            2 
  801000   0.92844639   -7.5448387    233.55356  0.024298123  0.024488025            1 
  802000   0.96010459   -7.5570211    233.57694  0.024270256   0.02447123            1 
  803000   0.94214791   -7.5857396    233.35154   0.02421664  0.024454644            2 
  804000   0.93421723   -7.5449441    233.29791  0.024180961  0.024437953            1 
  805000   0.91080615   -7.5361565    233.22189  0.024143053  0.024421059            2 
  806000   0.93620541   -7.5327749    233.66536   0.02415895  0.024403996            3 
  807000   0.93552315    -7.591349    234.03966  0.024167664  0.024387065            2 
  808000   0.94464734   -7.5749059    233.92559  0.024125989  0.024370125            1 
  809000   0.93518788   -7.5881926    233.31553  0.024033326  0.024353292            2 
  810000    0.9157241   -7.5706361    233.85602  0.024059261  0.024336163            1 
  811000   0.94002645   -7.5873371    234.21437  0.024066417  0.024319047            4 
  812000    0.9387005   -7.5523076    234.01535  0.024016354  0.024302177            2 
  813000   0.96099032   -7.5394351    234.67829  0.024054765  0.024285231            2 
  814000   0.92762324   -7.5869284    234.14329  0.023970444  0.024268197            3 
  815000   0.92025802   -7.5345176    235.09862  0.024038714  0.024251329            2 
  816000     0.916914   -7.5324837    235.03102  0.024002351  0.024234505            3 
  817000   0.92231258   -7.5812607    235.88668  0.024060249  0.024217743            1 
  818000   0.92346365    -7.563803     235.4321  0.023984525  0.024201066            3 
  819000   0.92470388   -7.5517862    235.75684  0.023988282  0.024184302            2 
  820000   0.91336847   -7.5446495    235.68906   0.02395214  0.024167595            3 
  821000   0.92814964   -7.5566705    235.67704  0.023921746  0.024150893            2 
  822000   0.92963444   -7.6111426    235.29438  0.023853851  0.024133989            5 
  823000   0.93487617   -7.5691907    235.58967  0.023854766  0.024116862            3 
  824000   0.91432683   -7.5387619    235.83163  0.023850286  0.024099895            2 
  825000   0.94105756   -7.5606886    236.25683  0.023864326  0.024083045            2 
  826000   0.90061738   -7.5756827    235.61451  0.023770632  0.024065967            1 
  827000   0.91328541   -7.5753482    236.57579  0.023838753  0.024049023            3 
  828000   0.91227017    -7.527731    236.50144   0.02380248  0.024032063            1 
  829000   0.93488284   -7.6052115    236.52718  0.023776355  0.024014927            2 
  830000   0.91973245    -7.573684    236.10426  0.023705247  0.023997798            5 
  831000   0.91497778    -7.559042    237.36255  0.023802903  0.023980952            2 
  832000   0.90777332   -7.5986703    236.69838  0.023707771  0.023963986            1 
  833000   0.90307331   -7.5990948    237.28187  0.023737682  0.023947109            2 
  834000   0.93441632   -7.6066447    236.98625  0.023679682  0.023930338            3 
  835000   0.92890121   -7.5693701    237.30178  0.023682812  0.023913543            3 
  836000   0.94183492   -7.6053585    237.65282  0.023689476  0.023896814            3 
  837000   0.92560617   -7.6084461    237.25821  0.023621885  0.023880052            2 
  838000   0.92107698   -7.5870452    237.75691  0.023643288  0.023863447            2 
  839000   0.91716323   -7.6201256    237.35579  0.023575267  0.023846707            3 
  840000   0.95135395    -7.642554    238.11078  0.023622102  0.023829703            1 
  841000   0.91915608   -7.5768571    238.14622  0.023597525  0.023812724            3 
  842000   0.91034261   -7.5891225    238.00688  0.023555708  0.023795765            2 
  843000   0.91587526   -7.5887555    237.74536  0.023501913  0.023778731            1 
  844000   0.92880685   -7.5715669    238.37979  0.023536709  0.023761819            1 
  845000   0.93681058   -7.5847553    238.90993  0.023561137  0.023744971            1 
  846000   0.91739529   -7.5989028    238.48185   0.02349112  0.023727939            1 
  847000   0.92503721   -7.6038929     238.7518  0.023489945  0.023711062            2 
  848000    0.9029168   -7.5616959     238.4197  0.023429609     0.023694            1 
  849000   0.90315378   -7.6257147    238.95515  0.023454569  0.023677148            1 
  850000   0.90677822   -7.5911961    239.40789  0.023471361  0.023660216            3 
  851000   0.91340459   -7.6211563     238.7977  0.023384028  0.023643364            3 
  852000   0.90037159   -7.6196615    238.94618  0.023371105  0.023626512            3 
  853000    0.9162207   -7.6250769    238.94006  0.023343108  0.023609619            2 
  854000   0.91353072    -7.571817    239.61866  0.023381993  0.023592739            3 
  855000   0.91398624    -7.620451    239.53097  0.023346099  0.023575916            2 
  856000   0.88813668   -7.6102337    239.89437  0.023354203  0.023558986            4 
  857000   0.91565725   -7.6326796    239.89918  0.023327419  0.023541917            3 
  858000   0.90541379   -7.6164133    240.65942  0.023374069   0.02352523            2 
  859000   0.88086057   -7.5845901    240.02018  0.023284845  0.023508517            1 
  860000   0.90517186   -7.6131004    239.96657  0.023252575  0.023491657            1 
  861000   0.91873998   -7.6181794    239.97686  0.023226564  0.023474678            2 
  862000   0.88939889   -7.5854119    240.95915  0.023294581  0.023457972            5 
  863000   0.91423894   -7.6016029    241.24009  0.023294717  0.023441135            2 
  864000   0.90586138   -7.6280138    241.34943  0.023278302  0.023424411            2 
  865000   0.91234766   -7.6321047    241.08778  0.023226183  0.023407824            4 
  866000   0.91223407   -7.6366649     241.0411  0.023194871  0.023391253            2 
  867000   0.90332532    -7.595331    241.22302  0.023185604  0.023374627            3 
  868000   0.92093262   -7.5979292    241.88334  0.023222287  0.023358029            5 
  869000   0.88733595   -7.6111493    241.85354  0.023192706  0.023341626            2 
  870000   0.91681889   -7.5947398    241.65182  0.023146726  0.023325109            3 
  871000   0.91314228    -7.639865    241.75269  0.023129802  0.023308684            2 
  872000   0.91421488   -7.5994296    242.68167  0.023192056  0.023292274            1 
  873000   0.91420922   -7.6574737    242.33523   0.02313242  0.023275769            1 
  874000   0.92570894   -7.6128708    243.10881  0.023179711  0.023259469            1 
  875000   0.91557723   -7.6279644    241.87798  0.023035998  0.023243131            1 
  876000   0.87321144   -7.6142099    242.94415  0.023111126  0.023226818            1 
  877000    0.8981093   -7.6067036    242.75057  0.023066379  0.023210541            4 
  878000   0.91060616   -7.6058277    243.28083  0.023090436  0.023194082            3 
  879000   0.90565807     -7.61811    242.64667  0.023004045  0.023177746            2 
  880000   0.89654713   -7.6331322    242.60468  0.022973928  0.023161349            1 
  881000   0.89500009   -7.6399373    243.58423  0.023040506  0.023144842            4 
  882000   0.87851826   -7.6365811    243.33552  0.022990884  0.023128369            3 
  883000     0.903659    -7.624647    243.84628   0.02301305  0.023112068            4 
  884000   0.90322534   -7.6082978    243.55823  0.022959864  0.023095777            1 
  885000   0.90483032   -7.5967153    243.14387  0.022894903  0.023079463            1 
  886000   0.90123205   -7.6055644    243.70426   0.02292177  0.023063057            3 
  887000   0.88522318   -7.6509007    243.63741  0.022889648  0.023046504            3 
  888000   0.91035588   -7.5846959    244.62196  0.022956265  0.023030006            2 
  889000   0.89775725   -7.6349926     243.2892  0.022805512  0.023013525            2 
  890000    0.8934887    -7.655626    243.52742  0.022802193  0.022996867            1 
  891000   0.90697773   -7.6252598    243.93908  0.022815103  0.022980044            1 
  892000   0.89289767    -7.615999    243.44794  0.022743642  0.022963249            1 
  893000   0.90992479   -7.6562326    244.01897   0.02277146  0.022946572            2 
  894000   0.91093392   -7.6190397    244.55344  0.022795809  0.022929889            1 
  895000   0.88538017   -7.6373891     244.3273  0.022749283  0.022913282            8 
  896000   0.89997529   -7.6559571    244.37203  0.022728054  0.022896552            1 
  897000   0.88157447   -7.6599627    244.41957  0.022707132  0.022879778            2 
  898000   0.89793552   -7.6712494    244.16495  0.022658218  0.022863197            6 
  899000   0.89151538   -7.6027567    244.46252  0.022660597  0.022846601            1 
  900000   0.90577926   -7.6061381    245.81498  0.022760647  0.022830073            1 
  901000   0.89457932   -7.6777599    244.52235   0.02261583  0.022813577            2 
  902000   0.89063314    -7.646885    245.64535  0.022694507  0.022797065            1 
  903000   0.88748738   -7.6187521    244.77262  0.022588835  0.022780576            2 
  904000   0.89730939   -7.6289539    245.82188  0.022660571  0.022764025            3 
  905000   0.89305234   -7.6526158    245.59223  0.022614386  0.022747454            3 
  906000    0.8906133   -7.6461477    245.55707  0.022586191  0.022730906            1 
  907000   0.89214918   -7.6665142    245.13586  0.022522589  0.022714275            1 
  908000   0.89878148   -7.6252122    246.40349  0.022614124  0.022697785            2 
  909000   0.88967245   -7.6608429    246.21992  0.022572417  0.022681567            5 
  910000   0.90450751    -7.627922    246.54155  0.022577065  0.022665325            2 
  911000    0.8951747   -7.6575477    246.03464  0.022505913  0.022649052            3 
  912000   0.89025745   -7.6645881    245.72594  0.022453028   0.02263259            1 
  913000    0.9088128   -7.6478982      245.728  0.022428624  0.022616184            3 
  914000   0.88516735   -7.6647357    246.16216  0.022443669  0.022599682            4 
  915000   0.91504611   -7.6821637     245.9788   0.02240244  0.022583049            2 
  916000   0.89886675   -7.6830805    246.34178  0.022411006    0.0225664            2 
  917000   0.89920355   -7.6971523    246.52218  0.022402961  0.022549757            2 
  918000   0.89400694   -7.6694246    246.09709  0.022339968  0.022533125            1 
  919000   0.89691719   -7.6768117    246.45756  0.022348346  0.022516613            1 
  920000   0.89304858   -7.6514063    246.83399  0.022358151   0.02250015            1 
  921000   0.88091544   -7.6877331    246.82272  0.022332856  0.022483599            1 
  922000   0.87608483   -7.6774546    247.13715  0.022337053  0.022467069            2 
  923000   0.91002681   -7.6560232    247.41432  0.022337877  0.022450597            2 
  924000   0.88204078   -7.6757589    247.07292  0.022282911  0.022434001            1 
  925000   0.88148607    -7.662995    247.51216  0.022298393  0.022417448            3 
  926000   0.87244687    -7.697256      247.054  0.022233081    0.0224008            2 
  927000   0.87579312   -7.6365344    247.87385  0.022282799  0.022384309            2 
  928000   0.89079793   -7.6664883    247.40215  0.022216429  0.022367773            2 
  929000   0.86778648   -7.6627889    246.65632  0.022125612  0.022351132            1 
  930000   0.88672074   -7.6690468    247.29389  0.022158951   0.02233429            1 
  931000   0.88571117   -7.6574621    247.30106  0.022135791  0.022317482            2 
  932000   0.88604896   -7.6492842    247.68306  0.022146196  0.022300811            2 
  933000   0.89614763   -7.6371833    247.64856  0.022119378  0.022284063            3 
  934000     0.877616   -7.6753365    248.13805  0.022139369  0.022267341            3 
  935000   0.87612686   -7.6517285    248.26266  0.022126796  0.022250623            3 
  936000   0.88091771   -7.6757737    247.21306  0.022009709  0.022233874            1 
  937000   0.88457039   -7.6899707     248.2059  0.022074519  0.022217031            2 
  938000   0.86583524   -7.7139195    248.12982  0.022044227  0.022200313            4 
  939000    0.8761789   -7.6952618    247.59383  0.021973184  0.022183459            2 
  940000   0.89182171   -7.6957742    247.66715  0.021956307  0.022166561            1 
  941000    0.8823649   -7.6869913    247.94046  0.021957179  0.022149592            3 
  942000   0.86887114   -7.7113463    247.91307  0.021931447  0.022132662            2 
  943000    0.8644786   -7.6810358    248.94388  0.021999282  0.022115928            1 
  944000   0.87949579   -7.7335458    248.54728  0.021940967   0.02209933            2 
  945000   0.89730243   -7.6815197    248.70906  0.021932016  0.022082624            1 
  946000    0.8807018   -7.6816113    248.61881  0.021900882  0.022065938            2 
  947000   0.86992064   -7.6940087    248.82393  0.021895805  0.022049246            2 
  948000   0.86601857   -7.7056837    249.09327  0.021896385  0.022032525            1 
  949000   0.86808178   -7.6956099    248.93486  0.021859401  0.022015558            1 
  950000   0.87048443   -7.6900397    249.50377  0.021886295  0.021998727            1 
  951000   0.87334948   -7.6887202    249.44069  0.021857754  0.021981889            1 
  952000   0.87514919   -7.7092853    249.26263  0.021819207  0.021965169            2 
  953000   0.86520467   -7.6997301     249.4442  0.021812189  0.021948567            1 
  954000   0.86596358   -7.6726881     250.0249  0.021840051  0.021931995            1 
  955000   0.86512469    -7.687043    249.05947  0.021732938   0.02191545            2 
  956000     0.883491   -7.7096265    249.46294  0.021745375  0.021898936            2 
  957000   0.85670242   -7.6746831    250.09567  0.021777749  0.021882372            2 
  958000   0.88139369   -7.7070247    249.67405  0.021718341  0.021865835            1 
  959000   0.88337345   -7.6963896    249.95851  0.021720413  0.021849357            2 
  960000   0.88439974   -7.6675604    249.76385   0.02168089  0.021832793            3 
  961000    0.8798698   -7.6907868    250.36898  0.021710803  0.021816371            3 
  962000   0.85356987    -7.698353    250.52175  0.021701468  0.021799796            2 
  963000   0.86104481   -7.7016386    249.75969  0.021612988  0.021783198            2 
  964000   0.88580279   -7.7000445    250.52235  0.021656496  0.021766564            3 
  965000   0.86765609   -7.7132012    250.00671  0.021589526  0.021750031            2 
  966000    0.8721219   -7.7241568    250.83531  0.021638657  0.021733571            2 
  967000   0.85043018   -7.6868356    250.87369  0.021619587  0.021717068            3 
  968000    0.8804579    -7.700119    250.65887   0.02157876  0.021700494            4 
  969000   0.89070453   -7.7436796    250.55054  0.021547174   0.02168388            3 
  970000   0.86650046   -7.7071993    250.75306  0.021542359  0.021667201            1 
  971000   0.86492342   -7.7307055    249.97572   0.02145346  0.021650486            2 
  972000   0.86039416   -7.7262632    250.19757  0.021450409  0.021633723            2 
  973000    0.8651093   -7.6976414    250.96755  0.021494309  0.021617046            2 
  974000   0.88780455   -7.7208894    250.19125  0.021405822  0.021600397            3 
  975000   0.86005917   -7.7497672    250.62917  0.021421296  0.021583653            2 
  976000   0.88713512   -7.7444246    250.90759  0.021423121  0.021567087            2 
  977000   0.86583033   -7.7360208    250.66818  0.021380773  0.021550479            1 
  978000   0.86837901   -7.7227073    251.22157  0.021406064  0.021533791            2 
  979000   0.85235756   -7.7409336    251.21097  0.021383297  0.021517169            3 
  980000   0.85564808    -7.754865    251.00523  0.021343982  0.021500665            3 
  981000   0.84909395     -7.73796    251.06658  0.021327436   0.02148414            3 
  982000   0.86568295   -7.7343172    251.65566  0.021355708  0.021467533            1 
  983000   0.84429227   -7.6986786    252.57555  0.021411966  0.021451117            2 
  984000   0.86452027   -7.7375664    251.78359  0.021323136  0.021434717            1 
  985000   0.85652288   -7.7076194    251.25482  0.021256753  0.021418285            3 
  986000   0.86705363   -7.7458624    252.03081  0.021300779  0.021401721            2 
  987000   0.86676672   -7.7360037    251.50292  0.021234627  0.021385125            2 
  988000   0.85693086    -7.726642    251.86394  0.021243585  0.021368624            4 
  989000   0.86307831   -7.7426307    252.22717   0.02125271  0.021352079            2 
  990000   0.85442297   -7.7535905    252.00457  0.021212506   0.02133548            2 
  991000   0.86764236   -7.7402199     252.4657  0.021229878  0.021318998            2 
  992000   0.86079121   -7.7092735    252.35159  0.021198891  0.021302514            5 
  993000   0.85922428   -7.6985493    252.35236  0.021177606  0.021286024            2 
  994000     0.853644   -7.7327824    252.99317  0.021210024  0.021269636            1 
  995000   0.86183969   -7.7369214    252.69426  0.021163673  0.021253323            1 
  996000   0.84718211   -7.7420947    252.03595  0.021087345  0.021237006            3 
  997000   0.85398972   -7.7382549    252.74849  0.021125751  0.021220619            2 
  998000    0.8707397   -7.7132937    253.31702  0.021152056  0.021204315            2 
  999000   0.86029655   -7.7878299    252.63157  0.021073705  0.021187952            2 
 1000000   0.84244397   -7.7143317    252.81347  0.021067789  0.021171454            1 
 1001000   0.85881719   -7.7509664    253.04669  0.021066158  0.021154962            3 
 1002000   0.85792305   -7.7245038    253.37939  0.021072804  0.021138525            2 
 1003000   0.86598627   -7.7467386    252.70537  0.020995794  0.021122043            7 
 1004000   0.83911093   -7.7257982    252.79685  0.020982474  0.021105555            2 
 1005000   0.83200269   -7.7785865    252.94752  0.020974089  0.021089119            2 
 1006000   0.85181636   -7.7542616     252.9081  0.020949975  0.021072698            1 
 1007000   0.83213224    -7.750093    253.41636  0.020971232  0.021056239            4 
 1008000   0.83990681   -7.7939758    252.76882  0.020896893  0.021039729            4 
 1009000   0.85656571   -7.7049157    253.99799  0.020977699  0.021023369            3 
 1010000   0.84910547    -7.768763    253.30887  0.020900072  0.021007103            3 
 1011000   0.84050377   -7.7949722    253.77404  0.020917742   0.02099072            1 
 1012000   0.85797732   -7.8051109    252.92652  0.020827283  0.020974223            2 
 1013000     0.845465   -7.7854815    253.36314  0.020842641  0.020957737            2 
 1014000   0.87100259   -7.7506213    254.16158  0.020887703  0.020941333            4 
 1015000   0.86361458   -7.7477238    254.25741  0.020874993  0.020924969            2 
 1016000   0.84452771   -7.7590733    253.51771  0.020793776  0.020908602            2 
 1017000   0.83559199   -7.7863057    254.00055  0.020812894  0.020892227            3 
 1018000   0.84394064    -7.747523     254.6308   0.02084404  0.020875966            2 
 1019000   0.84810706   -7.7304918    254.95435  0.020850045  0.020859795            3 
 1020000    0.8294858   -7.7392928    254.62618  0.020802793  0.020843625            3 
 1021000   0.84289681   -7.7437317     254.6265  0.020782444  0.020827483            5 
 1022000   0.85334949   -7.7563143    254.55127  0.020755974  0.020811435            3 
 1023000   0.85315026    -7.779302    254.58055   0.02073807  0.020795384            3 
 1024000   0.83369614   -7.7473698    254.93878  0.020746971  0.020779338            2 
 1025000   0.84685281   -7.7599491    254.51726   0.02069246  0.020763286            1 
 1026000   0.83657798   -7.7649094    255.16298  0.020724738  0.020747187            2 
 1027000   0.83755164   -7.7527449    255.41602  0.020725091  0.020731266            2 
 1028000    0.8514348   -7.7447513    255.84347  0.020739581  0.020715348            2 
 1029000   0.83634221   -7.7930585    254.92618  0.020645139  0.020699422            1 
 1030000   0.83011417   -7.7848305    255.42928  0.020665799  0.020683412            3 
 1031000   0.85553363   -7.7840427    254.86859  0.020600436  0.020667332            2 
 1032000   0.83497623   -7.8107097    255.22822  0.020609514  0.020651246            3 
 1033000   0.82885839   -7.7910192    255.46921  0.020609004  0.020635114            3 
 1034000   0.84575502   -7.8245334    255.05189  0.020555439  0.020618979            1 
 1035000   0.83728811   -7.7486684    256.55371  0.020656499  0.020602933            2 
 1036000   0.84127039   -7.7994099    256.00681  0.020592568  0.020586977            1 
 1037000   0.84004034   -7.7750972    256.15723  0.020584798  0.020571096            1 
 1038000   0.83627095   -7.7750504    256.30907  0.020577157  0.020555365            1 
 1039000   0.85504816   -7.7770728    256.66975  0.020586281  0.020539691            2 
 1040000   0.82642505   -7.7438123    256.59469  0.020560472  0.020523933            3 
 1041000    0.8633448   -7.7742906     255.9812   0.02049161   0.02050809            1 
 1042000    0.8435026    -7.768247    256.58898  0.020520552    0.0204922            2 
 1043000   0.85017499    -7.775205    257.02699  0.020535873  0.020476409            3 
 1044000   0.83427675   -7.7782363    256.42069  0.020467807  0.020460683            5 
 1045000   0.84095285   -7.8201592    257.08228  0.020500979  0.020444933            2 
 1046000   0.84183047   -7.7708863    256.66916  0.020448467  0.020429187            1 
 1047000      0.83489   -7.8092685    257.07743  0.020461432  0.020413418            3 
 1048000   0.82998672   -7.7883329    256.70862  0.020412581  0.020397675            2 
 1049000   0.83444068   -7.7849631    256.82365   0.02040226  0.020381981            1 
 1050000   0.83354784   -7.8130713    257.13444  0.020407495  0.020366284            4 
 1051000     0.845569   -7.7889147    257.08317  0.020384013  0.020350592            4 
 1052000   0.83321217   -7.7880719    257.32283  0.020383621  0.020334962            4 
 1053000   0.83578638   -7.7946315    257.23132  0.020357021  0.020319303            1 
 1054000   0.83597724   -7.8112184    256.91734  0.020312883  0.020303593            2 
 1055000   0.83004754   -7.7902522    257.11275  0.020309064  0.020287947            2 
 1056000   0.82018033   -7.8226083    257.52873  0.020322659  0.020272223            2 
 1057000   0.82899122   -7.7920346    257.25443  0.020281806  0.020256447            6 
 1058000   0.84475235   -7.8004261    256.91604  0.020235983  0.020240714            1 
 1059000   0.81428779   -7.8120529    257.74661  0.020282233  0.020225033            2 
 1060000   0.83533778   -7.8071055    257.42536  0.020237843  0.020209378            2 
 1061000   0.83231566   -7.7869202    258.10077  0.020271817  0.020193808            2 
 1062000   0.82528967   -7.8199678    257.81252   0.02023011  0.020178288            3 
 1063000   0.82269823   -7.8217025    257.41524  0.020179934  0.020162681            1 
 1064000   0.82172402   -7.8368484    257.81057  0.020191931  0.020147087            2 
 1065000   0.83005191   -7.7956564    257.83957  0.020175241  0.020131511            1 
 1066000   0.83100451   -7.8197291    258.40718  0.020200686  0.020115952            4 
 1067000   0.81705562   -7.8078205    258.80445  0.020212781  0.020100568            2 
 1068000   0.84286452    -7.767336    258.68994   0.02018492  0.020085205            4 
 1069000   0.82865622    -7.786811    258.82699  0.020176722  0.020069866            4 
 1070000      0.83098   -7.7781883     259.3649  0.020199758  0.020054641            4 
 1071000   0.82692846   -7.8042543    259.52315  0.020193211  0.020039407            2 
 1072000   0.82361136   -7.8156138    258.95206   0.02012998  0.020024202            6 
 1073000   0.81311372   -7.8205511    258.95568  0.020111501  0.020008931            1 
 1074000   0.82784669    -7.843169    258.38294  0.020048335  0.019993584            4 
 1075000   0.82470525   -7.8366518    259.06882  0.020082855  0.019978212            2 
 1076000   0.82718765   -7.8125159    258.89244  0.020050529  0.019962835            3 
 1077000   0.83318931    -7.821057     259.2599  0.020060345  0.019947491            1 
 1078000   0.83010785   -7.8132159    259.58699  0.020067021  0.019932101            2 
 1079000   0.81658547   -7.8337009    259.39619  0.020033688  0.019916753            4 
 1080000   0.85336667   -7.8416034     258.6159   0.01995493   0.01990141            3 
 1081000   0.83833827   -7.7991676    259.22549  0.019983464  0.019886168            2 
 1082000    0.8052384   -7.8175588    259.53247  0.019988637  0.019870819            1 
 1083000   0.81082807   -7.8090956     259.7025  0.019983264  0.019855657            1 
 1084000   0.82455135   -7.8265605    259.45064  0.019945467  0.019840515            3 
 1085000   0.82394398   -7.8282002    259.42201  0.019924886  0.019825241            2 
 1086000   0.82021897    -7.835861     259.9462  0.019946761  0.019809997            3 
 1087000   0.80217514   -7.8434821    259.83704  0.019920043  0.019794789            3 
 1088000   0.81028913   -7.7785064    260.27705  0.019935436  0.019779658            1 
 1089000   0.82199694   -7.8613626    259.83511  0.019883311  0.019764465            2 
 1090000   0.83339527    -7.836654    260.32444   0.01990248  0.019749256            3 
 1091000   0.80726524   -7.8236551    260.05988   0.01986403  0.019734059            2 
 1092000   0.83668003   -7.7967011    260.46565  0.019876805  0.019719023            1 
 1093000   0.81019463    -7.802091    260.40128  0.019853712  0.019703976            2 
 1094000   0.83341372   -7.8202255    260.61941  0.019852179  0.019688911            1 
 1095000   0.83109727   -7.7996095    260.10344  0.019794783   0.01967383            3 
 1096000     0.807813   -7.8333278    260.22237  0.019785764  0.019658692            2 
 1097000   0.81587247   -7.8122989    260.69555  0.019803673  0.019643678            1 
 1098000   0.82318353   -7.8190467    260.94204  0.019804344  0.019628665            3 
 1099000   0.82418667   -7.8163465    260.18365  0.019728818  0.019613624            2 
 1100000   0.81504278   -7.8275236    260.87838  0.019763514  0.019598561            1 
 1101000    0.8152635   -7.8334834    260.59117  0.019723825  0.019583536            1 
 1102000    0.8217119   -7.8495968    261.23789  0.019754832  0.019568594            3 
 1103000   0.81308689   -7.8663636    260.83025  0.019706123  0.019553534            3 
 1104000     0.826656   -7.8199602    261.01645  0.019702329  0.019538403            2 
 1105000   0.82261126   -7.8445478    261.00405  0.019683564  0.019523348            4 
 1106000   0.81693753    -7.832362    261.92242  0.019734962   0.01950839            3 
 1107000   0.79738734     -7.87309    260.83628  0.019635372  0.019493342            3 
 1108000   0.81125796   -7.8818737    260.45493  0.019588969  0.019478307            2 
 1109000   0.81369249   -7.8569048    261.18687  0.019626305  0.019463245            4 
 1110000   0.82594028   -7.8699563    261.12401  0.019603905  0.019448142            3 
 1111000   0.80180205   -7.8865259    260.50385  0.019539743  0.019433029            1 
 1112000   0.81907801   -7.8869559    260.65838  0.019533752  0.019417864            2 
 1113000   0.82050256   -7.8543704    261.15736  0.019553561  0.019402811            2 
 1114000   0.80938749   -7.8981765    260.69533  0.019501446  0.019387765            4 
 1115000   0.82020401   -7.8661939    261.39834  0.019536498  0.019372719            2 
 1116000   0.78855692   -7.8662136    261.41145  0.019519971  0.019357675            1 
 1117000    0.8204368   -7.8845331    261.34461  0.019497509  0.019342707            3 
 1118000   0.81191697   -7.8543569     261.6799  0.019505061  0.019327712            3 
 1119000   0.82542276   -7.8422029    262.36769  0.019538851  0.019312757            2 
 1120000   0.81707154   -7.8804009    261.43059  0.019451681  0.019297812            5 
 1121000    0.7987926   -7.8460449    261.59232  0.019446352  0.019282885            3 
 1122000   0.79033863   -7.8398008    262.19479  0.019473766  0.019267979            3 
 1123000   0.80934091   -7.8534443    261.35988   0.01939447  0.019253061            1 
 1124000   0.80810262   -7.8623445    261.85935  0.019414246  0.019238181            2 
 1125000   0.78886748   -7.8838165    262.21715  0.019423493  0.019223376            1 
 1126000   0.78444125   -7.8652655    262.64772  0.019438108  0.019208651            2 
 1127000   0.80367761   -7.8775913    262.93898  0.019442397  0.019193963            3 
 1128000   0.80648245   -7.8608094    261.98614  0.019354768   0.01917925            2 
 1129000   0.79400704     -7.86559    262.50971   0.01937627   0.01916455            4 
 1130000   0.80167449   -7.8426985    262.82006   0.01938201  0.019149893            1 
 1131000   0.80156806   -7.8674686    262.98319  0.019376893  0.019135177            2 
 1132000   0.80953061   -7.8431115    262.49127  0.019323562  0.019120523            2 
 1133000    0.7908973   -7.8476257    263.06958  0.019349042  0.019105876            2 
 1134000   0.79592626   -7.8379736    263.34403  0.019352148  0.019091295            3 
 1135000   0.80796134    -7.893354    262.52609  0.019275043  0.019076606            4 
 1136000   0.79858617   -7.8567242    263.08861   0.01929934  0.019061915            2 
 1137000   0.79557083   -7.8724774    262.80993  0.019261941  0.019047345            6 
 1138000   0.78860329    -7.873677    263.05605  0.019263038  0.019032806            3 
 1139000   0.78600023   -7.8796292    263.05035  0.019245709  0.019018256            2 
 1140000   0.81588388     -7.87971    262.72049  0.019204714  0.019003683            2 
 1141000    0.7929413   -7.8901823    263.21123  0.019223724  0.018989089            2 
 1142000   0.79685571   -7.8777209    263.76046  0.019246969  0.018974495            1 
 1143000   0.79571757   -7.9039765    263.13123  0.019184254  0.018959904            4 
 1144000    0.7989013   -7.8802536    263.87974  0.019222009  0.018945349            2 
 1145000   0.80997534   -7.9081564     263.8398  0.019202315  0.018930796            4 
 1146000    0.7953417   -7.9105262    263.35661  0.019150423   0.01891624            2 
 1147000   0.78263335   -7.9182339    263.70473  0.019159018   0.01890164            1 
 1148000   0.79926979   -7.8761598    264.10115  0.019171105  0.018887126            1 
 1149000   0.78843874   -7.8855053    264.54701  0.019186757  0.018872634            3 
 1150000    0.7982081   -7.8612192    263.37798  0.019085361  0.018858147            3 
 1151000   0.78334604   -7.8798966    263.64526  0.019088131  0.018843708            1 
 1152000   0.77334165   -7.8904354    263.36329  0.019051164  0.018829266            3 
 1153000   0.78546815   -7.8939275    264.20504  0.019095478  0.018814879            2 
 1154000   0.81256384   -7.8710629    263.90903  0.019057555  0.018800457            2 
 1155000    0.8086717   -7.9030289    264.04703  0.019051012  0.018786023            3 
 1156000   0.81476234   -7.9122093    263.60898  0.019002954  0.018771598            1 
 1157000   0.77831634   -7.8865968    263.96607  0.019012249   0.01875708            2 
 1158000   0.80674394   -7.8915702    263.91126  0.018991887  0.018742673            3 
 1159000   0.78203774   -7.9018931    264.22034  0.018997723  0.018728278            1 
 1160000   0.80040253   -7.8913074     264.5649  0.019006099  0.018713904            1 
 1161000   0.79481794   -7.9012013    264.52936  0.018987178   0.01869957            2 
 1162000   0.79277263   -7.8996095    264.53235  0.018971052  0.018685255            1 
 1163000   0.79550694   -7.8869193    264.47958  0.018950959  0.018670943            2 
 1164000   0.77972639   -7.8859751    264.85336  0.018961438  0.018656704            2 
 1165000   0.80734765   -7.8988163    264.86365  0.018945897  0.018642456            3 
 1166000   0.77981647   -7.9195521      264.077  0.018873428  0.018628139            2 
 1167000   0.78489425   -7.8887246     265.2899  0.018943866  0.018613754            3 
 1168000   0.76999089    -7.918999    264.16801  0.018847603  0.018599387            2 
 1169000   0.79033024   -7.8991001    265.16069  0.018902245  0.018585067            3 
 1170000   0.78996013   -7.9344099    264.68654  0.018852317   0.01857074            2 
 1171000   0.78384308   -7.9129418    265.29627  0.018879609  0.018556446            3 
 1172000   0.79138466   -7.9139992    264.33324  0.018795026  0.018542107            3 
 1173000   0.79003439   -7.8715085    264.88821  0.018818429  0.018527746            2 
 1174000   0.78776589   -7.9089263    264.62377  0.018783629  0.018513452            3 
 1175000   0.78623406   -7.9301414    264.80428  0.018780446  0.018499191            3 
 1176000   0.80319124   -7.9103266    264.66067  0.018754299  0.018484881            5 
 1177000   0.78663459   -7.8871723    264.99342  0.018761925  0.018470598            4 
 1178000   0.77849663   -7.9060302    265.25721  0.018764658  0.018456351            1 
 1179000   0.78480892   -7.9157786     264.6297  0.018704389  0.018442103            2 
 1180000   0.76867935   -7.9256754    265.55868  0.018754144  0.018427871            2 
 1181000   0.78725792   -7.8948426    265.26614  0.018717622  0.018413645            3 
 1182000   0.77718084   -7.9104027     265.3722  0.018709264   0.01839936            3 
 1183000   0.77309115   -7.8961115    265.04894  0.018670678  0.018385074            3 
 1184000   0.77759883   -7.9037616    265.37524  0.018677875  0.018370849            1 
 1185000   0.79964769   -7.9280906     265.4902  0.018670197  0.018356584            4 
 1186000   0.77423393   -7.9496939    265.11495  0.018628088  0.018342321            3 
 1187000   0.76795732   -7.9261274    265.25094  0.018621942  0.018328095            4 
 1188000   0.77313739   -7.9502158    265.90521  0.018652162  0.018313964            1 
 1189000   0.77523372    -7.902654    265.44131   0.01860396  0.018299802            2 
 1190000   0.75606748   -7.9201364    265.42524  0.018587202   0.01828556            3 
 1191000   0.79280066   -7.9098971    266.10951  0.018619473  0.018271356            4 
 1192000   0.77155079   -7.9214496    265.28477  0.018546195  0.018257121            1 
 1193000   0.77392836   -7.9288131    265.46106  0.018542963   0.01824293            2 
 1194000   0.77362645   -7.9540621    265.30088  0.018516253  0.018228627            3 
 1195000   0.77799636   -7.9274344    265.05807  0.018483827  0.018214314            4 
 1196000   0.76167014   -7.9081538      265.408  0.018492754  0.018200043            4 
 1197000   0.76446658   -7.9501951    265.01677  0.018450067  0.018185781            2 
 1198000     0.752208   -7.9354814    265.28635  0.018453419  0.018171511            2 
 1199000    0.7790609   -7.9627839    264.98645  0.018417184  0.018157226            4 
 1200000   0.76908538   -7.9481956    265.23544  0.018419128  0.018142983            1 
 1201000   0.75407457     -7.91129    265.67408  0.018434227  0.018128731            3 
 1202000   0.78582773   -7.9384884    265.54602  0.018410012  0.018114432            4 
 1203000   0.78764181   -7.9405426    265.58905   0.01839769  0.018100201            2 
 1204000   0.75565795   -7.9543828    265.73266  0.018392349  0.018085976            1 
 1205000   0.77439939   -7.9597385    265.46312  0.018358446   0.01807174            2 
 1206000   0.76313134   -7.9537398    265.59755  0.018352511  0.018057455            9 
 1207000   0.76119253   -7.9421926    265.69635  0.018344128  0.018043179            1 
 1208000   0.76987008   -7.9606916    265.27836  0.018300108   0.01802885            3 
 1209000   0.78147386    -7.958464    265.81088  0.018321676   0.01801457            2 
 1210000   0.77628055    -7.939005     265.7981  0.018305655  0.018000331            1 
 1211000   0.78321392   -7.9832665    265.42051  0.018264555  0.017986043            1 
 1212000   0.77995571    -7.941678    265.88929  0.018281717  0.017971796            2 
 1213000   0.77405522   -7.9441526    265.59862  0.018246676   0.01795754            3 
 1214000   0.78511168   -7.9672408    265.65223  0.018235326  0.017943258            3 
 1215000   0.76890187    -7.950792     266.3897  0.018270899   0.01792905            2 
 1216000   0.77893861   -7.9724333    265.26505    0.0181788  0.017914861            2 
 1217000   0.77152727   -7.9281196    265.57539  0.018185113  0.017900648            3 
 1218000    0.7522441    -7.947021    265.75859  0.018182717  0.017886387            3 
 1219000   0.76585666   -7.9495967    265.20192  0.018129746  0.017872123            2 
 1220000   0.76680042   -7.9806706    265.36822  0.018126244  0.017857788            2 
 1221000   0.77460721   -7.9671615    266.05341  0.018158163  0.017843482            2 
 1222000    0.7603551    -7.988477    265.53217  0.018107759  0.017829222            2 
 1223000   0.74707144   -7.9693717    265.51862  0.018092029  0.017814936            1 
 1224000   0.76712119   -7.9730251    265.75897  0.018093612  0.017800644            2 
 1225000   0.76209564   -7.9530158    266.48586  0.018128289  0.017786466            2 
 1226000   0.78005949   -7.9468581    266.23574  0.018096502  0.017772323            3 
 1227000   0.77615106   -7.9711282    265.91728  0.018060125  0.017758085            2 
 1228000   0.74780596   -7.9579204     265.8413  0.018040262  0.017743881            3 
 1229000   0.75475142   -7.9879997    266.34751  0.018059907   0.01772972            2 
 1230000   0.76226916   -7.9837496    265.71677  0.018002491  0.017715544            3 
 1231000   0.76341597   -7.9723537    265.63051  0.017982027  0.017701347            3 
 1232000   0.75956731   -7.9612014    266.79063  0.018045903  0.017687223            4 
 1233000   0.74455975    -7.993573    266.14996  0.017987967  0.017673091            2 
 1234000   0.78664449   -7.9625714    266.86939  0.018021974  0.017658948            2 
 1235000   0.76468256    -7.991556    265.48586  0.017914026  0.017644773            4 
 1236000   0.76579163   -7.9676822    266.04343  0.017937125  0.017630588            1 
 1237000   0.75538377   -7.9843581    266.31043  0.017940611  0.017616357            3 
 1238000   0.75852556   -7.9976406    266.63891   0.01794823  0.017602195            1 
 1239000   0.75730317   -7.9846527    266.23045  0.017906272  0.017588026            5 
 1240000   0.75077745   -7.9726711    266.38803  0.017902422  0.017573827            3 
 1241000   0.75491337   -7.9980571    265.85708  0.017852342  0.017559685            4 
 1242000   0.75818918    -8.015159    266.16739  0.017858789  0.017545538            8 
 1243000   0.76080522   -7.9927027     266.5923  0.017872908  0.017531442            3 
 1244000    0.7590524   -7.9949045     266.2848  0.017837942  0.017517353            2 
 1245000   0.75682847   -8.0133236    266.17664  0.017816375  0.017503233            3 
 1246000   0.73983361   -7.9866252    266.56696  0.017828181  0.017489132            3 
 1247000   0.77204393   -8.0211321    266.20573  0.017789744  0.017475064            2 
 1248000   0.75296146   -8.0254042    265.80894  0.017748994   0.01746093            3 
 1249000   0.74568313   -8.0150859    266.56558  0.017785267  0.017446793            2 
 1250000   0.75738656   -8.0160518    266.80418  0.017786945  0.017432727            4 
 1251000   0.75692945   -8.0313362    266.14068  0.017728529  0.017418632            2 
 1252000   0.75698358   -8.0204052    266.21506   0.01771932  0.017404548            2 
 1253000   0.74749914   -8.0151402    265.54878  0.017660866  0.017390417            3 
 1254000   0.75305344   -8.0255979    265.98287   0.01767563  0.017376286            3 
 1255000   0.75559771   -7.9956812    266.76711   0.01771362  0.017362158            1 
 1256000   0.72787327   -7.9884356    266.60418  0.017688706  0.017348167            1 
 1257000   0.75419144   -8.0304043    266.37084  0.017659164  0.017334147            4 
 1258000   0.73796573   -7.9947099    266.71896  0.017668187  0.017320102            2 
 1259000   0.73242407   -7.9966213    266.17357  0.017618055  0.017306099            1 
 1260000   0.74942971   -8.0175513     267.3904   0.01768455  0.017292128            5 
 1261000   0.76198008   -8.0173926    266.78618  0.017630596  0.017278161            2 
 1262000   0.76807106   -8.0045838    266.55172  0.017601144  0.017264233            2 
 1263000   0.74473088   -8.0280731    266.20629  0.017564416  0.017250289            2 
 1264000   0.73807134   -8.0105492    266.75448  0.017586661  0.017236338            1 
 1265000   0.75491009   -8.0080538     266.5582  0.017559829  0.017222398            3 
 1266000   0.75529276   -7.9861139     267.1408  0.017584308  0.017208499            3 
 1267000   0.74396249   -8.0276825    266.59806  0.017534732  0.017194602            2 
 1268000   0.74208399   -8.0122836    267.00907  0.017547915  0.017180692            2 
 1269000   0.74460415   -8.0237109    266.72536  0.017515456  0.017166743            2 
 1270000   0.74526731   -8.0256811    266.11598  0.017461679  0.017152731            4 
 1271000   0.72045488   -8.0122155    266.71859   0.01748745    0.0171388            2 
 1272000   0.73508853   -8.0256374    266.77609  0.017477469  0.017124898            3 
 1273000   0.72844877   -8.0098003    267.08153  0.017483735  0.017111009            3 
 1274000   0.74601605   -8.0132703    267.00125   0.01746476  0.017097122            2 
 1275000   0.73861224   -8.0279419    267.06345  0.017455127  0.017083276            4 
 1276000   0.74154026   -8.0142828    267.41609  0.017464478  0.017069449            5 
 1277000   0.76083993   -8.0262055    266.84125  0.017413289  0.017055653            1 
 1278000   0.73665854   -7.9923809    267.56152   0.01744663  0.017041893            3 
 1279000   0.73910974   -8.0389533    267.12479  0.017404534  0.017028158            2 
 1280000   0.74478157   -8.0109854    267.33775  0.017404802  0.017014411            2 
 1281000   0.74973229   -8.0175985    267.45195  0.017398644  0.017000628            4 
 1282000   0.74861538   -8.0174749    267.34007    0.0173778  0.016986852            4 
 1283000   0.73505465   -8.0410564    267.28114  0.017360427  0.016973079            1 
 1284000    0.7501395   -8.0450293     266.9298  0.017324104  0.016959283            2 
 1285000   0.73206716   -8.0288575    267.52517  0.017349232  0.016945476            2 
 1286000    0.7356604   -8.0359905    267.26072  0.017318606  0.016931688            1 
 1287000    0.7467822   -8.0259493    267.24809  0.017304331    0.0169179            4 
 1288000    0.7345999   -8.0651395    266.86671  0.017266221  0.016904092            2 
 1289000   0.73060428   -8.0106545    267.15178  0.017271255  0.016890312            3 
 1290000   0.72467912   -8.0258397    267.16693  0.017258845  0.016876515            1 
 1291000   0.73499237   -8.0479243    267.14515  0.017244071  0.016862801            5 
 1292000   0.74362557   -8.0601234    267.30743  0.017241191  0.016849081            1 
 1293000   0.72724774   -8.0575105    267.12555  0.017216135  0.016835321            2 
 1294000   0.73876352   -8.0540908    267.05648  0.017198382  0.016821547            4 
 1295000   0.74251385   -8.0803716    266.65165  0.017159051  0.016807729            2 
 1296000   0.72123306   -8.0378942    267.30362  0.017187733  0.016793985            1 
 1297000   0.74373494   -8.0386806    267.39047  0.017180061  0.016780289            2 
 1298000   0.72736773   -8.0374714       267.47  0.017171931  0.016766563            4 
 1299000   0.72473833   -8.0393237    267.13331  0.017137113   0.01675285            3 
 1300000   0.73918826   -8.0413861    267.42324  0.017142515  0.016739152            2 
 1301000   0.73644361   -8.0635505    267.21312   0.01711588  0.016725445            2 
 1302000   0.73878472     -8.06058    266.79431  0.017075929  0.016711751            2 
 1303000   0.74593646   -8.0240822    267.70806  0.017121262  0.016698051            3 
 1304000   0.72940646    -8.064021    267.51736  0.017095945  0.016684343            2 
 1305000   0.75651176   -8.0434967    267.46558  0.017079539  0.016670636            1 
 1306000   0.73954236   -8.0710995    267.14409  0.017045948  0.016656964            1 
 1307000    0.7436422   -8.0603556    267.09792  0.017029962  0.016643262            1 
 1308000   0.72367505   -8.0245782     267.5595  0.017046349  0.016629586            1 
 1309000   0.72253705   -8.0366693      267.505  0.017029857  0.016615924            2 
 1310000   0.72374184   -8.0552072    267.39071  0.017009587   0.01660228            2 
 1311000   0.72611828   -8.0627374    266.97702  0.016970316  0.016588604            3 
 1312000   0.71059688   -8.0694793     267.1478  0.016968229  0.016574924            3 
 1313000   0.70922228   -8.0629486    267.38109  0.016970113  0.016561262            6 
 1314000    0.7401078   -8.0306533    267.35033  0.016955246  0.016547648            5 
 1315000   0.72075921   -8.0733706    266.81369  0.016908345  0.016533977            1 
 1316000   0.72104143   -8.0363188      267.504   0.01693921  0.016520287            3 
 1317000    0.7364906   -8.0873492    267.01918   0.01689567  0.016506575            3 
 1318000   0.71533535   -8.0530113    267.00053  0.016881672  0.016492892            2 
 1319000   0.71908314   -8.0637224    266.46495  0.016835036  0.016479147            8 
 1320000   0.71686249   -8.1182303    266.72116  0.016838457  0.016465418            4 
 1321000   0.71328614   -8.0822276    266.56936  0.016816134  0.016451663            3 
 1322000   0.73593893   -8.1197806    266.64427  0.016808136  0.016437952            4 
 1323000   0.72679955   -8.0559119    267.34764  0.016839736  0.016424287            2 
 1324000   0.70659138   -8.0948969    267.12864  0.016813233  0.016410606            3 
 1325000   0.74322346   -8.0645119    267.18354  0.016803996  0.016396943            3 
 1326000    0.7289875   -8.0682256    267.12792  0.016787828  0.016383292            4 
 1327000   0.71913777   -8.0921839    266.65877  0.016745716  0.016369681            2 
 1328000    0.7150169   -8.1014594     267.5716  0.016790387  0.016356016            6 
 1329000   0.72131523   -8.0961014     267.1606  0.016751982  0.016342413            2 
 1330000   0.73477161   -8.1019953    267.22726  0.016743562  0.016328869            1 
 1331000   0.72503745   -8.0735087    267.48581   0.01674717  0.016315386            3 
 1332000   0.71453313   -8.0763125     267.3511   0.01672617  0.016301876            3 
 1333000   0.72622351   -8.0755236    267.18198   0.01670305  0.016288418            2 
 1334000   0.72563516   -8.0826587    267.51724  0.016711472  0.016274949            1 
 1335000   0.72337492   -8.0903692    267.24095  0.016681708  0.016261514            2 
 1336000   0.71205357   -8.0659024    267.60287  0.016691796  0.016248031            1 
 1337000   0.70916793   -8.0796606    268.20733  0.016716986  0.016234617            5 
 1338000   0.71213779   -8.0763359    267.42797  0.016655952  0.016221214            2 
 1339000   0.70723681   -8.0816661    267.32578  0.016637153   0.01620775            3 
 1340000   0.72128996   -8.0959817    267.34672   0.01662604  0.016194283            3 
 1341000   0.71096357   -8.0849051    267.12273  0.016599722  0.016180824            2 
 1342000   0.70679126   -8.0960993    266.84992  0.016570412  0.016167345            2 
 1343000   0.73112594   -8.1072238    267.40762  0.016592679  0.016153928            2 
 1344000   0.71658733   -8.0701765    267.61185  0.016592996  0.016140547            4 
 1345000   0.72448793   -8.0557703    267.37488  0.016565977  0.016127176            3 
 1346000   0.72890531   -8.0935855    267.51877  0.016562579  0.016113805            3 
 1347000   0.72316645    -8.046683    267.60875  0.016555849  0.016100461            4 
 1348000   0.71940177   -8.0682211    267.37419  0.016529067  0.016087087            3 
 1349000   0.72684009   -8.0872512    267.91619  0.016550296  0.016073723            3 
 1350000   0.70712687   -8.0882424    267.87585  0.016535546  0.016060333            3 
 1351000   0.71192303   -8.0943042      268.072  0.016535406  0.016046988            3 
 1352000   0.71436124   -8.0977124     267.4748  0.016486366  0.016033637            3 
 1353000   0.70270262   -8.0939815    267.58858  0.016481189  0.016020309            3 
 1354000   0.71511447   -8.0817775    267.18739  0.016444325  0.016006971            3 
 1355000   0.70708454   -8.0927944    267.68741   0.01646294   0.01599365            4 
 1356000   0.70813514   -8.0833351    267.83415  0.016459818   0.01598037            2 
 1357000   0.71485797   -8.0942378    267.30275  0.016415055  0.015967155            4 
 1358000   0.71625547   -8.1005446     267.3364  0.016405032  0.015953904            3 
 1359000    0.7124627   -8.0627282    268.28233  0.016450964  0.015940646            3 
 1360000   0.70820138   -8.0957425    267.76873  0.016407398  0.015927486            3 
 1361000   0.71826093   -8.0965239     268.5713  0.016444483  0.015914309            2 
 1362000   0.70217671   -8.0817122    268.00884  0.016397996  0.015901104            2 
 1363000   0.70412149   -8.0949697    268.09408  0.016391176  0.015887887            2 
 1364000   0.71235187   -8.1057987     268.9922   0.01643403  0.015874769            1 
 1365000    0.7221052   -8.0947172      268.155  0.016370879  0.015861636            2 
 1366000   0.71726204   -8.1060143    268.31674  0.016368762  0.015848531            2 
 1367000   0.70798168   -8.0997204    267.70268  0.016319354  0.015835428            2 
 1368000   0.70845617   -8.1266796    267.97037  0.016323731  0.015822315            2 
 1369000   0.70863937   -8.0987452    268.11333   0.01632051  0.015809227            2 
 1370000    0.6987055   -8.1101898    268.54283  0.016334722  0.015796176            2 
 1371000   0.70700204   -8.1381134    268.73581  0.016334538  0.015783136            4 
 1372000    0.7008109   -8.1135212    268.83583  0.016328707  0.015770082            3 
 1373000   0.68824022    -8.122019    268.62734   0.01630416   0.01575706            1 
 1374000   0.69983423   -8.1351986    268.01443  0.016255121  0.015744034            3 
 1375000   0.69954233   -8.1397132    268.27647   0.01625918  0.015731006            4 
 1376000   0.71133733   -8.1269433    268.19624  0.016242505  0.015718005            4 
 1377000    0.7024016   -8.1320872    268.63729  0.016257401     0.015705            2 
 1378000    0.7094504   -8.1293749    268.49934  0.016237261   0.01569202            2 
 1379000   0.69653957    -8.136543    268.64919  0.016234541  0.015679025            4 
 1380000   0.70627957   -8.1471546    268.70125  0.016225921  0.015666066            2 
 1381000   0.69711648   -8.1125279    268.52581  0.016203585  0.015653107            2 
 1382000   0.70333151   -8.1335467     268.3344  0.016180318   0.01564017            6 
 1383000   0.69920131    -8.130455    268.35531  0.016169879  0.015627244            3 
 1384000   0.68520852    -8.164431    268.79102   0.01618443  0.015614344            3 
 1385000   0.70075515   -8.1529258    267.77353  0.016111524  0.015601382            4 
 1386000    0.7010818   -8.1346007    268.87731  0.016166265  0.015588446            5 
 1387000   0.70544669   -8.1559513    268.02493  0.016103396  0.015575526            3 
 1388000   0.69505274   -8.1564691    268.19457  0.016101979  0.015562608            2 
 1389000   0.69884224   -8.1611349    268.11998  0.016085912  0.015549691            2 
 1390000   0.69619337   -8.1419042    268.37245  0.016089475  0.015536853            3 
 1391000   0.69861243   -8.1386174    268.58908  0.016090887  0.015524044            5 
 1392000   0.68971976   -8.1476318    268.96454  0.016101805  0.015511243            3 
 1393000   0.70537394   -8.1620049    268.28762   0.01604975  0.015498437            3 
 1394000   0.69837801   -8.1318817    268.65332  0.016060098  0.015485617            1 
 1395000   0.69102571   -8.1161216    268.64266  0.016047949  0.015472826            2 
 1396000   0.68988353   -8.1498739    268.88166   0.01605072  0.015460067            2 
 1397000     0.705008   -8.1395033    269.11082    0.0160529  0.015447348            1 
 1398000   0.69602856   -8.1502689    268.67531  0.016015457  0.015434612            3 
 1399000    0.6987528   -8.1283336    268.49334   0.01599317  0.015421865            2 
 1400000   0.70087096   -8.1419031    268.75371  0.015997245  0.015409111            3 
 1401000    0.7100662   -8.1597668    268.22192  0.015954195  0.015396364            1 
 1402000   0.68405286   -8.1463844    268.30221  0.015947587  0.015383564            1 
 1403000   0.69230389   -8.1537914    268.17232  0.015928505  0.015370773            3 
 1404000   0.68383039   -8.1881295    267.99645  0.015906722  0.015357995            1 
 1405000   0.69969963   -8.1787944    268.33915  0.015915727  0.015345187            3 
 1406000   0.69651846   -8.1723955    268.87936  0.015936425  0.015332416            2 
 1407000   0.69392354   -8.1662348    268.07116   0.01587723  0.015319655            3 
 1408000    0.6898309   -8.1680211    268.20105  0.015873642  0.015306886            6 
 1409000   0.70186293   -8.1408792     268.3186  0.015869328   0.01529417            1 
 1410000   0.69846973   -8.1408592    269.21393  0.015910989  0.015281471            1 
 1411000   0.68115279   -8.1581032    268.60941  0.015864009  0.015268761            5 
 1412000   0.68194269   -8.1801125    268.74894  0.015861009  0.015256073            3 
 1413000   0.69113353   -8.1764045    268.53213  0.015836998   0.01524333           11 
 1414000   0.68476776   -8.1813312    267.89245  0.015788098  0.015230595            3 
 1415000   0.69608048   -8.1746549    268.28907  0.015800298  0.015217923            3 
 1416000   0.68193533   -8.1510429    268.77522  0.015817751  0.015205273            2 
 1417000   0.69023813   -8.1670535    268.60952  0.015796843  0.015192612            4 
 1418000   0.68836424   -8.1464205    268.62327  0.015786511  0.015179954            2 
 1419000   0.69882969   -8.1778748     268.3599  0.015759919  0.015167292            2 
 1420000   0.68073156   -8.1642003     268.4773   0.01575571  0.015154633            5 
 1421000   0.68920313   -8.1892456    268.53609   0.01574807  0.015141953            3 
 1422000   0.68316545   -8.1861559    268.35917  0.015726627  0.015129296            2 
 1423000   0.66935187   -8.1841684    268.86782  0.015745363  0.015116632            4 
 1424000   0.68421326   -8.1950994    267.82799  0.015673454  0.015104007            3 
 1425000   0.68764321   -8.2098021    268.17456  0.015682723  0.015091392            3 
 1426000   0.67340873   -8.2001671    267.57828  0.015636879  0.015078751            2 
 1427000   0.68702661   -8.2039299    268.30737  0.015668499  0.015066143            3 
 1428000   0.68870086    -8.199741    267.84389  0.015630479  0.015053536            7 
 1429000   0.67816609   -8.1954533     268.5142  0.015658631  0.015040963            2 
 1430000    0.6705594   -8.1874549    268.61998  0.015653845  0.015028374            3 
 1431000   0.68244888   -8.1933249     268.6134  0.015642523  0.015015835            2 
 1432000   0.69939524   -8.2018216    268.37592  0.015617779  0.015003313            2 
 1433000   0.67678038   -8.1758192     268.3311  0.015604275   0.01499081            6 
 1434000   0.68024374   -8.1521334    269.03302  0.015634183   0.01497831            3 
 1435000   0.66907192   -8.2070278    268.15765  0.015572454  0.014965812            4 
 1436000   0.67934162   -8.1775815     268.6208  0.015588487  0.014953322            1 
 1437000   0.69531435   -8.1678462    269.22843  0.015612876  0.014940863            3 
 1438000   0.66529937   -8.1763464    268.77996  0.015576029  0.014928423            3 
 1439000   0.68222156   -8.2042793    268.54879  0.015551818  0.014915997            2 
 1440000   0.67481186   -8.1782681    268.63392  0.015545944  0.014903531            5 
 1441000   0.68851765   -8.1976811    268.92331  0.015551891  0.014891065            1 
 1442000   0.67292686   -8.2215128    268.39738  0.015510713  0.014878598            3 
 1443000   0.67201821   -8.1836115    269.22136  0.015547549  0.014866143            4 
 1444000   0.67294029   -8.2048542    268.37603  0.015487998  0.014853731            2 
 1445000   0.69245077   -8.2116731    268.61109  0.015490836  0.014841294            2 
 1446000   0.67053564   -8.1889412    268.67813  0.015483986   0.01482888            6 
 1447000   0.67722995   -8.2162814    268.92422  0.015487458  0.014816503            2 
 1448000   0.67835225   -8.1987111    268.94327  0.015477859  0.014804131            4 
 1449000   0.67647125   -8.2006075     268.6111  0.015448074  0.014791734            3 
 1450000   0.67608025   -8.1980207    268.59166  0.015436302  0.014779343            2 
 1451000   0.66615499   -8.1891891    268.54953  0.015423244  0.014766979            4 
 1452000   0.67679238   -8.2242616    268.29192  0.015397837  0.014754589            5 
 1453000   0.67859125   -8.2180217    268.29991  0.015387698  0.014742232            4 
 1454000   0.65858109   -8.2236081    268.81965  0.015406903  0.014729869            3 
 1455000   0.67033708    -8.195474    268.74761  0.015392189  0.014717555            2 
 1456000   0.66978224   -8.1920831    268.62537  0.015374621  0.014705246            6 
 1457000   0.65917456   -8.2052561    268.59815  0.015362511  0.014692976            3 
 1458000   0.67464777   -8.2403185    268.71232    0.0153585  0.014680705            2 
 1459000   0.66521612   -8.1967564     268.8304  0.015354718  0.014668425            2 
 1460000   0.65697939   -8.2212597    267.86895  0.015289324  0.014656131            2 
 1461000   0.67162264   -8.2279442    268.76305  0.015329857  0.014643827            2 
 1462000   0.67316567   -8.2071999    268.33108  0.015294749  0.014631559            2 
 1463000   0.67371366   -8.2161622     268.8711  0.015315055  0.014619286            1 
 1464000   0.66522786    -8.220765    268.45102  0.015280682  0.014606999            2 
 1465000   0.67819477   -8.2010056     268.4257  0.015268811  0.014594752            3 
 1466000   0.66841603   -8.2059843    268.79471  0.015279372  0.014582556            5 
 1467000   0.67260274   -8.2131896    268.60567  0.015258218  0.014570345            2 
 1468000   0.67294056   -8.2076023    268.93665  0.015266613  0.014558128            3 
 1469000   0.66136268   -8.2263527    268.69277  0.015242386  0.014545932            3 
 1470000   0.67639554   -8.2191395    269.05784  0.015252712  0.014533766            3 
 1471000   0.67947211   -8.2329161    268.22012  0.015194885  0.014521545            3 
 1472000   0.66363616   -8.2350863    268.69535  0.015211467  0.014509286            3 
 1473000   0.66080769   -8.2131122    268.23115  0.015174878   0.01449708            4 
 1474000   0.67162705   -8.2487636    268.37133  0.015172509  0.014484874            1 
 1475000     0.679074   -8.2281224    268.10072  0.015146933  0.014472652            2 
 1476000   0.65856764   -8.2361204     268.5507  0.015162077  0.014460463            3 
 1477000   0.65886983   -8.2452985    268.55858  0.015152256  0.014448291            2 
 1478000   0.66365283   -8.2344375    268.51349  0.015139462  0.014436124            1 
 1479000   0.67141378   -8.2336067     268.7274  0.015141278  0.014424017            2 
 1480000   0.66861196   -8.2304196    268.40724   0.01511302  0.014411929            4 
 1481000   0.67312536   -8.2218683     268.8741  0.015129085  0.014399821            3 
 1482000   0.65190893   -8.2492127    268.05888  0.015073036  0.014387741            3 
 1483000   0.64152362   -8.2472307    268.38323  0.015081099  0.014375653            3 
 1484000   0.66651453   -8.2474236     268.8744  0.015098518  0.014363588            2 
 1485000    0.6557481   -8.2446383    268.76885  0.015082427  0.014351552            3 
 1486000   0.66323007   -8.2323455     269.0574  0.015088459  0.014339528            6 
 1487000   0.67179725   -8.2199745    268.85622  0.015067038  0.014327541            2 
 1488000   0.66035639    -8.260881    268.78995  0.015053201  0.014315542            2 
 1489000   0.65674462   -8.2564952    268.54264   0.01502925  0.014303571            3 
 1490000   0.67257774   -8.2306529     268.5608  0.015020179  0.014291594            2 
 1491000   0.67005647   -8.2460568     268.8364  0.015025509  0.014279642            6 
 1492000   0.67033057   -8.2562682    268.37956  0.014989922  0.014267699            3 
 1493000   0.65858522   -8.2177209    268.66755  0.014995956  0.014255754            1 
 1494000   0.66244825   -8.2568447    268.62697  0.014983655  0.014243819            3 
 1495000   0.64763393   -8.2427119    268.42741  0.014962509  0.014231875            3 
 1496000   0.66842767   -8.2495965    268.72291  0.014968968  0.014219941            1 
 1497000   0.66879858   -8.2251921     268.7246  0.014959062  0.014208041            4 
 1498000   0.65538048   -8.2413364    268.65309  0.014945098  0.014196117            1 
 1499000   0.66695166    -8.241504    268.35371  0.014918485   0.01418422            2 
 1500000   0.66313747   -8.2542573     268.4983  0.014916572  0.014172316            2 
 1501000    0.6510179   -8.2475887    269.19355  0.014945234  0.014160439            2 
 1502000   0.66294751   -8.2427677    268.86782  0.014917211  0.014148556            5 
 1503000   0.66516095   -8.2621059    268.40191  0.014881454  0.014136698            5 
 1504000   0.66301793   -8.2215442    268.39691  0.014871283  0.014124854            3 
 1505000    0.6467896   -8.2639401    268.96816  0.014893032  0.014113016            2 
 1506000   0.65666793   -8.2367842    268.61838  0.014863788  0.014101176            3 
 1507000   0.65151042   -8.2753779    268.19579  0.014830557  0.014089363            2 
 1508000   0.64151915   -8.2369968    269.36591  0.014885384   0.01407754            1 
 1509000   0.64469959   -8.2791305    268.98737  0.014854615  0.014065739            2 
 1510000   0.65585778   -8.2679856    268.82813   0.01483599  0.014053939            8 
 1511000     0.641791   -8.2608527    268.54979   0.01481082   0.01404212            4 
 1512000   0.64781352   -8.2718874    268.55218  0.014801156  0.014030328            4 
 1513000   0.64599778   -8.2504456    269.17651  0.014825761  0.014018521            4 
 1514000   0.66936935   -8.2477174    268.89926  0.014800708  0.014006762            2 
 1515000   0.62938111   -8.2612274    268.49805   0.01476887  0.013994984            3 
 1516000   0.63404854   -8.2618121    269.19831  0.014797621  0.013983253            1 
 1517000   0.65192305   -8.2590347    268.81216  0.014766653   0.01397151            1 
 1518000   0.65621159   -8.2675309     269.0091  0.014767737  0.013959798            2 
 1519000   0.64973566   -8.2434799    269.13259   0.01476479  0.013948092            3 
 1520000   0.63960584   -8.2806988    268.70566   0.01473167  0.013936387            2 
 1521000   0.63165972   -8.2788474    268.49901  0.014710663  0.013924703            1 
 1522000   0.64713386   -8.2754842    268.51434  0.014701836  0.013913037            1 
 1523000   0.64454173   -8.2740416    268.35566  0.014683501  0.013901386            1 
 1524000     0.648347   -8.2710958    268.96512  0.014707192  0.013889733            5 
 1525000   0.65127359   -8.2838173    268.34473  0.014663647  0.013878082            3 
 1526000   0.64159658   -8.2577605    268.78109  0.014677866  0.013866459            1 
 1527000   0.65396779   -8.2573848    268.91415  0.014675516  0.013854824            5 
 1528000   0.65275008   -8.2533686     268.9667  0.014668777  0.013843194            3 
 1529000   0.65351163   -8.2615142    269.04198  0.014663287  0.013831583            3 
 1530000   0.63904312   -8.2753472    269.12546  0.014658249      0.01382            3 
 1531000   0.63869369   -8.2703351    268.16987  0.014596662  0.013808404            3 
 1532000   0.64788331   -8.2937531    268.47343  0.014603646  0.013796811            1 
 1533000   0.64641931   -8.2758219    268.59767  0.014600874  0.013785217            2 
 1534000   0.63066904   -8.2873358    268.90144  0.014607858  0.013773647            2 
 1535000   0.62306685   -8.2958167    268.24972   0.01456296  0.013762075            3 
 1536000   0.65000729   -8.2767562    268.37592  0.014560325  0.013750531            3 
 1537000   0.63697056   -8.2689493    268.40748  0.014552563  0.013738976            5 
 1538000   0.64213439    -8.278356    268.90451  0.014570032  0.013727454            4 
 1539000   0.63421985   -8.3119002     268.4105  0.014533815  0.013715927            3 
 1540000   0.63569159   -8.2909371    268.76555  0.014543591  0.013704423            3 
 1541000   0.64350081   -8.2790629    268.46264  0.014517772  0.013692951            3 
 1542000   0.62232801   -8.2881016    268.53067  0.014512034  0.013681445            4 
 1543000   0.63447941   -8.2934959    268.82863  0.014518721  0.013669963            3 
 1544000    0.6371716   -8.2781802    268.42898  0.014487747  0.013658543            5 
 1545000   0.62165466   -8.2928715    268.99992  0.014509165  0.013647109            1 
 1546000    0.6261635   -8.2938176     268.7604  0.014486869  0.013635703            2 
 1547000   0.63167982   -8.2695738    269.31129   0.01450718  0.013624296            2 
 1548000   0.62548753   -8.2991525    268.89649  0.014475479  0.013612895            3 
 1549000   0.62803078   -8.2885667    268.96764  0.014469961  0.013601511            3 
 1550000   0.61996507   -8.2930199    269.09315  0.014467374  0.013590154            4 
 1551000   0.62790563   -8.2759769    268.82321  0.014443542  0.013578793            4 
 1552000    0.6446227   -8.3142555    268.89015   0.01443783  0.013567464            4 
 1553000    0.6379298   -8.3068107    268.51611  0.014408463  0.013556132            2 
 1554000   0.61786468    -8.302127    268.58563  0.014402919  0.013544794            2 
 1555000   0.62884022    -8.303479    269.07173  0.014419707  0.013533482            4 
 1556000   0.63568762   -8.2965887    269.18637   0.01441658  0.013522158            3 
 1557000    0.6305228   -8.2861394    268.72637    0.0143827  0.013510814            3 
 1558000   0.63178479   -8.2990461    268.82924  0.014378971  0.013499484            2 
 1559000   0.64300253   -8.2929816    268.82673  0.014369613   0.01348818            2 
 1560000   0.62313267   -8.3074149     268.2861  0.014331523  0.013476865            5 
 1561000   0.62209935    -8.308678    268.75973  0.014347626  0.013465535            4 
 1562000   0.62679322   -8.2914033    269.02073  0.014352365  0.013454245            2 
 1563000   0.62367217   -8.3233108    267.88591  0.014282678  0.013442945            4 
 1564000   0.64045728    -8.319894    268.42915  0.014302491  0.013431656            5 
 1565000   0.62249902   -8.3052561    268.48867  0.014296521  0.013420376            1 
 1566000   0.61982668    -8.297315    268.63241  0.014295041  0.013409123            2 
 1567000   0.65212928   -8.2904096    268.75731  0.014292561  0.013397872            3 
 1568000   0.62157296   -8.3004179    269.03506  0.014298207  0.013386642            5 
 1569000   0.62516926   -8.3025165    268.73695   0.01427326  0.013375411            2 
 1570000   0.61682601   -8.2983795    268.88401  0.014271975  0.013364204            2 
 1571000   0.63675824   -8.2984374     269.0885  0.014273737  0.013352978            3 
 1572000   0.61989712   -8.3019654    268.59421  0.014238455  0.013341761            2 
 1573000   0.63819022   -8.3193225    268.88451  0.014244782  0.013330551            3 
 1574000   0.61963675   -8.3238344    268.51745  0.014216299  0.013319353            3 
 1575000   0.62083231   -8.3159244    268.52825  0.014207844  0.013308147            3 
 1576000   0.63133317   -8.3195821    268.69324  0.014207553  0.013296945            2 
 1577000   0.61964033   -8.3306379    268.12803  0.014168676  0.013285744            2 
 1578000    0.6222111   -8.3100816    268.10748  0.014158612  0.013274555            1 
 1579000   0.62075333   -8.3225564    268.59631  0.014175444  0.013263411            2 
 1580000   0.63303346   -8.3076066    268.69638   0.01417175  0.013252267            4 
 1581000   0.63440915   -8.3273255    268.18934  0.014136061  0.013241136            2 
 1582000   0.63174184   -8.3010252      268.154  0.014125263  0.013229989            3 
 1583000   0.61001164   -8.3104356    268.16124  0.014116722  0.013218872            3 
 1584000    0.6108334    -8.348976     268.3519   0.01411784  0.013207759            3 
 1585000   0.61448565   -8.3148373    268.02042  0.014091505  0.013196643            2 
 1586000    0.6128678   -8.3508083    268.08207  0.014085859  0.013185523            5 
 1587000   0.62559095    -8.332756    268.24434  0.014085504  0.013174411            2 
 1588000   0.62305435   -8.3416245    268.21469  0.014075078  0.013163319            1 
 1589000   0.61119506   -8.3323071    268.33326  0.014072439  0.013152229            5 
 1590000   0.62271445   -8.3201462    267.91514  0.014041674  0.013141152            2 
 1591000   0.62312397   -8.3440034     268.0554  0.014040195  0.013130073            2 
 1592000   0.61179665     -8.35423    268.11818  0.014034662  0.013119016            2 
 1593000   0.61862027   -8.3440069    268.16044  0.014028062  0.013107961            4 
 1594000    0.6162396   -8.3467202    267.68532  0.013994423   0.01309693            2 
 1595000   0.62712625   -8.3339086    267.97782  0.014000931  0.013085891            2 
 1596000   0.61612979   -8.3370273    267.92463  0.013989381  0.013074853            2 
 1597000   0.61293321   -8.3600585     268.5349  0.014012466  0.013063833            2 
 1598000   0.59764322   -8.3752741    268.29482  0.013991177  0.013052824            3 
 1599000    0.6079611   -8.3587486    268.25289  0.013980242    0.0130418            3 
 1600000   0.60363789   -8.3539124    268.36074  0.013977122  0.013030779            2 
 1601000   0.61126386   -8.3635945    268.13787  0.013956791  0.013019766            5 
 1602000   0.61258543   -8.3407121     267.8904  0.013935206  0.013008759            3 
 1603000   0.61627096   -8.3551106    267.54034  0.013908315  0.012997772            5 
 1604000   0.61446841   -8.3464353    267.82683  0.013914528  0.012986812            3 
 1605000   0.60845718   -8.3756937    268.05014  0.013917453  0.012975845            2 
 1606000   0.60632413   -8.3594714    267.90237  0.013901119  0.012964891            1 
 1607000    0.6215142   -8.3640845    268.06091   0.01390069   0.01295396            5 
 1608000   0.62269967    -8.362484    268.06617  0.013892318  0.012943023            2 
 1609000   0.62037389   -8.3654652    268.12766  0.013886869  0.012932105            2 
 1610000   0.61596698   -8.3473711     268.3149  0.013887935  0.012921203            2 
 1611000    0.6088287   -8.3448662     267.8159  0.013853502  0.012910302            1 
 1612000   0.59992601   -8.3820532    267.87124  0.013847769  0.012899405            2 
 1613000   0.60191557   -8.3396722    267.98753  0.013845192  0.012888523            2 
 1614000   0.60226471   -8.3526786    267.93943   0.01383413  0.012877642            3 
 1615000   0.58990132   -8.3587063    267.87859  0.013822425  0.012866751            1 
 1616000   0.59842481   -8.3254849    267.47679  0.013793152  0.012855883            3 
 1617000   0.61524558   -8.3845392    268.20744  0.013822276  0.012845025            3 
 1618000   0.61030785   -8.3696137    267.94646  0.013800292  0.012834164            2 
 1619000   0.61947196    -8.354956    268.03105  0.013796121  0.012823318            2 
 1620000   0.60416202   -8.3683032    267.81046  0.013776258  0.012812507            2 
 1621000   0.60786004   -8.3572337    267.78316  0.013766356  0.012801686            5 
 1622000   0.60347482   -8.3865641    268.08903  0.013773584  0.012790867            3 
 1623000   0.60112648   -8.3579485    267.85143  0.013752897  0.012780017            3 
 1624000   0.61577984    -8.377781    267.37891  0.013720182  0.012769201            5 
 1625000   0.61669562   -8.3652422    268.30944  0.013759458  0.012758423            8 
 1626000    0.5937281   -8.3900149    267.60317    0.0137148  0.012747631            6 
 1627000   0.61868339   -8.3667809    267.70061  0.013711361  0.012736854            2 
 1628000   0.58705098   -8.3808127    268.22648  0.013729857   0.01272609            2 
 1629000   0.60731304   -8.3827037    267.95808  0.013707698  0.012715336            3 
 1630000    0.5891457   -8.3594354    267.89861  0.013696248  0.012704601            1 
 1631000   0.60552846   -8.3546342    268.31919  0.013709339  0.012693879            4 
 1632000   0.60144433   -8.3620345     267.7706  0.013672927  0.012683171            4 
 1633000   0.59947638    -8.385639    268.46133  0.013699803  0.012672487            2 
 1634000   0.60611064   -8.3605131     267.9512  0.013665402  0.012661799            1 
 1635000   0.60985591   -8.3601549    267.55951   0.01363708  0.012651123            4 
 1636000   0.60166831   -8.4015557    267.75993  0.013638953  0.012640448            3 
 1637000   0.60924215   -8.3534139    268.14851  0.013650403  0.012629768            2 
 1638000   0.59343845   -8.3723866    268.04666  0.013636887   0.01261909            3 
 1639000   0.59438757   -8.4087724    267.21187  0.013586123  0.012608398            3 
 1640000   0.59775519   -8.3744561    267.77196  0.013606299  0.012597731            3 
 1641000   0.59812504   -8.3722933     267.4838  0.013583374  0.012587074            2 
 1642000   0.59587051   -8.3896025    267.61784  0.013581904  0.012576412            3 
 1643000   0.59841821   -8.3918089    267.09314  0.013547025  0.012565757            2 
 1644000   0.60970372   -8.4031623     267.7741  0.013573302  0.012555096            6 
 1645000   0.60332818   -8.3911616    266.93251  0.013522417  0.012544466            2 
 1646000   0.60434335   -8.4021141    267.57005  0.013546479  0.012533841            3 
 1647000   0.59720013   -8.3942741     267.4903  0.013534219  0.012523229            1 
 1648000   0.59848992   -8.4008507     267.7448  0.013538875  0.012512616            2 
 1649000    0.6018258   -8.3860649    267.50114  0.013518351  0.012502018            2 
 1650000   0.58949372   -8.4027446    267.40242  0.013505173  0.012491435            2 
 1651000   0.60919502   -8.3957475    267.80014  0.013517067  0.012480852            1 
 1652000   0.59469404   -8.3895989    267.91417  0.013514637    0.0124703            2 
 1653000   0.58631214   -8.3973435    267.33444  0.013477235  0.012459752            1 
 1654000    0.5894153   -8.3977877    268.00384  0.013502813  0.012449216            5 
 1655000    0.6037101   -8.4018355    267.92753  0.013490812  0.012438674            2 
 1656000   0.59285857   -8.3935751    267.02824  0.013437412   0.01242814            2 
 1657000   0.60112168     -8.42554    267.08441  0.013432127  0.012417622            3 
 1658000   0.60133982   -8.3971055    267.78671  0.013459324  0.012407115            1 
 1659000   0.60228489     -8.39672    267.60716  0.013442192  0.012396607            2 
 1660000   0.58622017   -8.3938196    267.50854  0.013429144  0.012386118            1 
 1661000   0.59564996   -8.3948572    267.11973  0.013401552  0.012375626            2 
 1662000   0.58482549   -8.3999961    267.23272  0.013399153   0.01236515            2 
 1663000   0.58970051   -8.4272369     267.4089  0.013399925  0.012354658            2 
 1664000   0.58385143   -8.4100996    267.21522  0.013382173   0.01234418            2 
 1665000   0.60060169   -8.3836962    267.24891  0.013375821  0.012333706            2 
 1666000   0.59143514   -8.4119844    267.43155  0.013376928  0.012323256            2 
 1667000   0.58095335   -8.4053301    267.56948  0.013375799  0.012312798            2 
 1668000   0.57025021    -8.420366    267.24811  0.013351724  0.012302366            2 
 1669000   0.57980407   -8.4246172    267.21794  0.013342218  0.012291932            2 
 1670000   0.59972596   -8.4332065    267.36429  0.013341531  0.012281524            2 
 1671000   0.58664528   -8.4283697    267.51674   0.01334115  0.012271128            3 
 1672000   0.58457204   -8.4052474    267.74268  0.013344432   0.01226072            3 
 1673000   0.58475761   -8.4178794    267.30355  0.013314582  0.012250334            3 
 1674000   0.56493152   -8.4078371    267.59795  0.013321284  0.012239972            2 
 1675000   0.59439051   -8.4169433    267.41053  0.013304006  0.012229616            4 
 1676000   0.58467834   -8.4266785    266.90944  0.013271154   0.01221925            3 
 1677000   0.57271321   -8.4107247    267.26823  0.013281069  0.012208925            3 
 1678000    0.5812704   -8.4237361    266.76444  0.013248135  0.012198587            3 
 1679000   0.56464925   -8.4280389    266.94866  0.013249387  0.012188257            3 
 1680000   0.58429403   -8.4267754     267.3435  0.013261086  0.012177933            2 
 1681000   0.58404965   -8.4101647    267.17875   0.01324503  0.012167612            2 
 1682000   0.58808596   -8.4375549    267.11811  0.013234151  0.012157307            1 
 1683000   0.57309975   -8.4220071    267.04724  0.013222779   0.01214701            2 
 1684000   0.57151892   -8.4419744    267.10186  0.013217629  0.012136709            4 
 1685000   0.59102139    -8.423797    267.12965   0.01321116  0.012126431            4 
 1686000   0.57158874    -8.423352    266.97989  0.013195922  0.012116166            3 
 1687000   0.57330135   -8.4134078    267.00785  0.013189481  0.012105908            1 
 1688000   0.58023196   -8.4491957    266.51053  0.013157116  0.012095649            1 
 1689000   0.58595911   -8.4183258    267.21018  0.013183845  0.012085408            3 
 1690000    0.5744382   -8.4277686    267.04189  0.013167746  0.012075195            2 
 1691000   0.58473655   -8.4286148    267.32602  0.013173961  0.012064975            2 
 1692000   0.56960573   -8.4430582    266.80723  0.013140624  0.012054774            2 
 1693000   0.58182127   -8.4284409    267.19697  0.013152046  0.012044568            1 
 1694000   0.56997992   -8.4290224    267.08382  0.013138716  0.012034381            4 
 1695000   0.57812971    -8.420632    267.37076  0.013145072   0.01202422            2 
 1696000   0.57999807   -8.4349989    267.35689   0.01313664  0.012014056            3 
 1697000     0.573733   -8.4366987    266.37207  0.013080538  0.012003904            6 
 1698000   0.56536773   -8.4258091    266.61888  0.013084947  0.011993752            2 
 1699000   0.58528865   -8.4466209    267.34366  0.013112795  0.011983623            1 
 1700000   0.57991175   -8.4358256    267.05048   0.01309071  0.011973477            2 
 1701000   0.58570786    -8.444157    266.71192  0.013066428  0.011963373            2 
 1702000   0.57003163   -8.4325749    267.30448  0.013087764  0.011953269            2 
 1703000   0.58267737   -8.4446108    266.92437  0.013061478  0.011943165            4 
 1704000   0.57974587   -8.4242951    266.71263  0.013043458  0.011933074            2 
 1705000   0.56975172   -8.4386323    267.07025  0.013053287  0.011922979            1 
 1706000   0.57404431   -8.4377769    267.16174  0.013050105  0.011912914            1 
 1707000   0.54868026   -8.4737639    266.98896  0.013034025   0.01190285            2 
 1708000   0.57135814   -8.4345775    267.43194  0.013048006  0.011892796            2 
 1709000   0.56177217   -8.4322482     266.9519  0.013016964  0.011882746            2 
 1710000   0.56172503   -8.4462862    266.86521  0.013005127  0.011872708            2 
 1711000   0.58145961   -8.4624014    266.99994  0.013004088  0.011862664            2 
 1712000   0.57708764    -8.446025    266.64108  0.012979025  0.011852636            1 
 1713000   0.57054039   -8.4365534    266.35475  0.012957519  0.011842626            1 
 1714000   0.57739536   -8.4504234    267.02039  0.012982321  0.011832621            3 
 1715000   0.57015083   -8.4517625    267.47662   0.01299692  0.011822616            2 
 1716000   0.57810124   -8.4366336    266.69909  0.012951587  0.011812636            2 
 1717000   0.56327799    -8.445439    267.03722  0.012960455  0.011802666            2 
 1718000   0.55930805   -8.4516836    267.20651  0.012961123  0.011792698            2 
 1719000   0.56858158   -8.4522106    267.22884  0.012954665  0.011782748            2 
 1720000   0.57364872   -8.4601572    266.85997  0.012929262  0.011772806            4 
 1721000   0.57020467   -8.4513464     266.9761  0.012927373   0.01176287            3 
 1722000   0.56827932    -8.451815    267.33333  0.012937153  0.011752936            4 
 1723000   0.56973429   -8.4295785    266.89876  0.012908626  0.011743006            6 
 1724000   0.55955695   -8.4498893    266.86766  0.012899635   0.01173308            4 
 1725000   0.57079414   -8.4538845    266.99534  0.012898326   0.01172317            5 
 1726000   0.55242428    -8.439718    266.44844  0.012864448  0.011713264            3 
 1727000   0.55389469   -8.4459818    266.71019  0.012869629  0.011703353            3 
 1728000   0.57412233    -8.468087    266.73904  0.012863572  0.011693463            2 
 1729000   0.56286177   -8.4441642    266.37037  0.012838364  0.011683588            2 
 1730000   0.56335385   -8.4655738    266.80402  0.012851832  0.011673711            3 
 1731000   0.55886984   -8.4477003    266.50049  0.012829794  0.011663836            2 
 1732000   0.56920861   -8.4646289    266.67296  0.012830685  0.011653982            3 
 1733000   0.55422174   -8.4710974    266.52218  0.012816031   0.01164413            1 
 1734000   0.56101275   -8.4676044    266.88812  0.012826226  0.011634288            4 
 1735000   0.56377715   -8.4666753    266.94095  0.012821371   0.01162445            2 
 1736000   0.56266517    -8.459415    266.52553  0.012794044  0.011614635            2 
 1737000   0.56369237   -8.4597396    266.92469  0.012805829  0.011604813            3 
 1738000   0.56092757   -8.4793711    266.43995  0.012775218  0.011595014            2 
 1739000   0.56042309   -8.4687985    266.60083  0.012775581  0.011585216            3 
 1740000   0.55493515   -8.4653479    266.03954  0.012741357  0.011575435            3 
 1741000   0.54899709   -8.4647227     266.3121  0.012747085  0.011565656            3 
 1742000   0.55893622   -8.4727491     266.5241  0.012749909  0.011555881            4 
 1743000   0.55364155   -8.4777734    266.42252  0.012737737  0.011546124            3 
 1744000   0.55116706   -8.4704916    266.47916   0.01273314  0.011536372            2 
 1745000   0.55707012   -8.4875918    266.51702  0.012727651   0.01152663            2 
 1746000   0.56969088   -8.4628395     266.7811  0.012732966  0.011516887            4 
 1747000   0.55269236   -8.4697489    266.72579  0.012723039  0.011507163            3 
 1748000       0.5648   -8.4837463    266.18949  0.012690193  0.011497441            3 
 1749000   0.55948677   -8.4888105    266.60678   0.01270282  0.011487746            3 
 1750000   0.55119194   -8.4833274    266.95606  0.012712193  0.011478051            1 
 1751000    0.5474115   -8.4754607    266.22453  0.012670119   0.01146837            3 
 1752000   0.55027543   -8.4646685    266.14188  0.012658955    0.0114587            2 
 1753000   0.55450195   -8.4782521    266.25688  0.012657201  0.011449042            2 
 1754000   0.55911952   -8.4656271    266.56349  0.012664552  0.011439375            3 
 1755000   0.55463945   -8.4834801     266.5077  0.012654687  0.011429734            3 
 1756000    0.5676819   -8.4692037    266.21845  0.012633753  0.011420101            2 
 1757000   0.55343222   -8.4749342    266.91652  0.012659672   0.01141048            2 
 1758000   0.55072148   -8.4954595    266.41002  0.012628461  0.011400859            3 
 1759000    0.5571786   -8.4579225    266.11393  0.012607254   0.01139125            3 
 1760000   0.55086171   -8.4759909     266.5226  0.012619441  0.011381653            3 
 1761000     0.557907    -8.492919    266.18885  0.012596482  0.011372068            2 
 1762000   0.55824705   -8.4943828     266.2981  0.012594499  0.011362479            2 
 1763000   0.54916965   -8.4884764    266.30046  0.012587467  0.011352908            3 
 1764000   0.55579225   -8.4736025     266.9484  0.012610941  0.011343364            4 
 1765000   0.54597295   -8.4693872    266.25611   0.01257111  0.011333812            2 
 1766000   0.55332942   -8.4747022    266.10813  0.012557009  0.011324269            3 
 1767000   0.53905918   -8.5102868    266.14945  0.012551851  0.011314732            2 
 1768000   0.53389575   -8.4918404    266.60558  0.012566251    0.0113052            3 
 1769000     0.552471   -8.4699739     266.4114      0.01255  0.011295693            2 
 1770000   0.53830156   -8.4945206    266.25512  0.012535552  0.011286193            2 
 1771000   0.54896636   -8.4895469    266.53169  0.012541487  0.011276693            2 
 1772000   0.54608731   -8.4666588    266.23615  0.012520511  0.011267209            5 
 1773000   0.54103093   -8.4719109    266.69379  0.012534959  0.011257739            3 
 1774000   0.54029057   -8.4838703    266.44109  0.012516023  0.011248281            2 
 1775000   0.53902493   -8.4689297    266.33794  0.012504128  0.011238833            5 
 1776000   0.55101923   -8.4806208    265.97038  0.012479841  0.011229385            3 
 1777000   0.53944896   -8.4673181    266.03998  0.012476082  0.011219945            2 
 1778000   0.55108493   -8.4907506    266.11448  0.012472557  0.011210536            2 
 1779000   0.54654849   -8.4846448    265.93724  0.012457244  0.011201121            4 
 1780000   0.55563283    -8.477647    266.22036    0.0124635  0.011191717            3 
 1781000   0.53908595   -8.4729726    266.17817  0.012454528  0.011182321            2 
 1782000   0.53445074   -8.4854855    266.00142  0.012439273  0.011172938            6 
 1783000   0.53093003   -8.4937565    266.08749  0.012436319  0.011163561            5 
 1784000   0.54114113   -8.4913012    266.04303  0.012427272  0.011154189            3 
 1785000    0.5276876   -8.4926481    266.30724  0.012432644  0.011144817            3 
 1786000   0.54520441   -8.4792155    266.61229  0.012439916   0.01113549            4 
 1787000   0.54125571   -8.4979123    266.32445  0.012419532  0.011126157            1 
 1788000   0.54373301   -8.4718215    266.63896  0.012427244  0.011116836            1 
 1789000   0.53228724   -8.4886562    265.88409  0.012385136  0.011107516            2 
 1790000   0.53106038   -8.4784924    266.79417  0.012420585  0.011098205            2 
 1791000    0.5419977   -8.4988327    266.21973  0.012386922  0.011088911            7 
 1792000    0.5387704   -8.4798192    266.47417  0.012391842  0.011079622            2 
 1793000   0.53054326   -8.5037398    266.16634  0.012370624   0.01107035            2 
 1794000   0.54704153   -8.4954166    266.25358   0.01236778  0.011061077            3 
 1795000   0.53112495   -8.4873971    266.26283   0.01236132  0.011051817            1 
 1796000   0.52962789   -8.5023318    265.93888  0.012339406  0.011042567            3 
 1797000   0.53137884   -8.5166211    266.24295   0.01234664  0.011033304            2 
 1798000   0.53128674   -8.5055868    266.17662  0.012336699  0.011024069            2 
 1799000   0.54253061   -8.5068344    265.91243  0.012317604  0.011014835            2 
 1800000   0.52936281   -8.4985907    266.17944  0.012323122  0.011005631            2 
 1801000   0.52776671   -8.4820903    265.72586  0.012295293  0.010996425            2 
 1802000   0.52116359   -8.4978734    266.10343   0.01230593  0.010987214            2 
 1803000   0.54529811   -8.4968344     266.5988     0.012322  0.010978012            2 
 1804000   0.53504178   -8.4939095     266.2992   0.01230133   0.01096883            6 
 1805000   0.53627364   -8.5155928    266.33285  0.012296069   0.01095965            2 
 1806000   0.53968502   -8.4978215    266.02095  0.012274868  0.010950481            2 
 1807000   0.53554968   -8.5198845    266.29932  0.012280913  0.010941317            4 
 1808000   0.53244731   -8.5086191    266.63628  0.012289652  0.010932161            3 
 1809000   0.52853642    -8.510972    265.94053  0.012250808  0.010923017            5 
 1810000   0.52667601     -8.49438    265.71203  0.012233519  0.010913877            7 
 1811000   0.53232558   -8.5133778     266.1686  0.012247773  0.010904747            5 
 1812000   0.53504199   -8.5007903    265.58621   0.01221423  0.010895625            4 
 1813000   0.52774936    -8.513223    266.11408  0.012231756  0.010886523            2 
 1814000   0.52870324   -8.5024005     265.8922   0.01221482  0.010877417            5 
 1815000   0.52841548   -8.5050493    265.93246  0.012209938  0.010868324            2 
 1816000   0.54187347   -8.5016142    266.20395  0.012215673  0.010859236            2 
 1817000   0.53134066   -8.5233867    265.37662  0.012171006  0.010850156            3 
 1818000   0.52627238   -8.5335165    266.00845  0.012193273  0.010841089            2 
 1819000   0.54141659    -8.496082    265.70559  0.012172695   0.01083204            4 
 1820000   0.52415705   -8.5177683    266.49581  0.012202189  0.010822993            4 
 1821000    0.5316892   -8.5166321    265.95332  0.012170663  0.010813956            7 
 1822000   0.52120163   -8.5212092    265.98537  0.012165449  0.010804926            4 
 1823000   0.54034838   -8.5268551    265.81533  0.012151002  0.010795902            6 
 1824000   0.52623712   -8.5205581    265.61535  0.012135204   0.01078688            3 
 1825000   0.53248765   -8.4954449    266.56566  0.012171948  0.010777881            2 
 1826000   0.52033332   -8.5123446      265.933  0.012136409  0.010768897            3 
 1827000   0.52985847   -8.5264478    266.05331  0.012135254  0.010759912            4 
 1828000   0.52923134   -8.5131015    265.53912  0.012105175   0.01075092            3 
 1829000    0.5182845   -8.5276022    265.64984  0.012103601  0.010741948            1 
 1830000    0.5179496   -8.5332269    265.82237  0.012104844  0.010732989            3 
 1831000   0.52484557   -8.5167076     265.4932  0.012083252  0.010724027            3 
 1832000     0.520451   -8.5252317    265.80694  0.012090927  0.010715082            3 
 1833000   0.51980907   -8.5137154    265.51395  0.012071011  0.010706149            3 
 1834000   0.51760851   -8.5312333    265.65065   0.01207064  0.010697217            3 
 1835000   0.51734214   -8.5388057    265.57392  0.012060578  0.010688293            2 
 1836000   0.52667537   -8.5167663    265.67404  0.012058553  0.010679383            2 
 1837000   0.52297967   -8.5372524    265.84079  0.012059553  0.010670473            3 
 1838000   0.51397862   -8.5338756    265.56079  0.012040297  0.010661569            4 
 1839000    0.5216717   -8.5272993    265.88681  0.012048523  0.010652689            2 
 1840000   0.52375866   -8.5289427    265.80101  0.012038089  0.010643808            1 
 1841000   0.51068929   -8.5239553    265.88329  0.012035275  0.010634939            3 
 1842000   0.51904424   -8.5481455    265.62105  0.012016877   0.01062608            3 
 1843000   0.51323901   -8.5336028    265.23012   0.01199268  0.010617235            2 
 1844000   0.52570999   -8.5242122    266.08547  0.012024831    0.0106084            4 
 1845000   0.52027882   -8.5365696     265.5071  0.011992191  0.010599564            5 
 1846000   0.51334231   -8.5339466    265.24701  0.011973953  0.010590739            1 
 1847000   0.52263572   -8.5343035    265.88408  0.011996214  0.010581935            3 
 1848000   0.51567342    -8.554753    265.28539  0.011962725  0.010573129            2 
 1849000   0.51540795   -8.5410193    265.70058  0.011974968  0.010564329            3 
 1850000    0.5141502   -8.5569665    265.57737  0.011962945  0.010555542            4 
 1851000   0.50979645   -8.5355151    265.39608   0.01194832  0.010546757            1 
 1852000    0.5111726   -8.5231662    265.47447  0.011945396  0.010537995            3 
 1853000   0.52612953    -8.526756    265.46522  0.011938533  0.010529241            1 
 1854000   0.51248938   -8.5172533     265.6981  0.011942561  0.010520487            1 
 1855000   0.51341312   -8.5368181    265.59365  0.011931431  0.010511743            4 
 1856000   0.51155233   -8.5542898    265.23497  0.011908898  0.010502998            3 
 1857000   0.52063483   -8.5402526     265.4808  0.011913516  0.010494263            4 
 1858000   0.51881633   -8.5396408    265.73107   0.01191833  0.010485532            5 
 1859000   0.51802378   -8.5483691    265.60065  0.011906072  0.010476811            2 
 1860000   0.50668284   -8.5419958    265.49946  0.011895137  0.010468096            5 
 1861000   0.51302644   -8.5365871    265.41131  0.011884798   0.01045939            3 
 1862000   0.51352783   -8.5350291    265.56877  0.011885462  0.010450689            4 
 1863000    0.5090002   -8.5447171    265.75726  0.011887514  0.010442018            3 
 1864000   0.50842767   -8.5421519    265.00644   0.01184757  0.010433353            2 
 1865000   0.52062387   -8.5446184    265.53337  0.011864762  0.010424684            6 
 1866000    0.5130637   -8.5492808    265.11783  0.011839846   0.01041602            4 
 1867000   0.50713288   -8.5282835    265.03873  0.011829973  0.010407368            3 
 1868000   0.51717208   -8.5544344    265.72751  0.011854368  0.010398732            3 
 1869000   0.51703131   -8.5515193    265.26252  0.011827293  0.010390101            2 
 1870000    0.5008001   -8.5435013    265.57671  0.011834969  0.010381487            2 
 1871000   0.50298047   -8.5598152    264.93433  0.011800033  0.010372859            3 
 1872000   0.49914792   -8.5666269    265.57412   0.01182221  0.010364255            5 
 1873000   0.50173108   -8.5347242    265.22426  0.011800332   0.01035566            5 
 1874000   0.50433032   -8.5622729    265.22651  0.011794135   0.01034707            3 
 1875000   0.50240225    -8.548768    265.38749     0.011795  0.010338488            3 
 1876000   0.50337981   -8.5585322    265.43093  0.011790642  0.010329916            5 
 1877000   0.50310136   -8.5598942     265.6333  0.011793345  0.010321357            2 
 1878000   0.49945764   -8.5537545    265.52593  0.011782301  0.010312804            1 
 1879000   0.50678492   -8.5410485     265.3098  0.011766445  0.010304262            3 
 1880000   0.49625868   -8.5555648    265.37262  0.011762971  0.010295722            7 
 1881000   0.50824297   -8.5663191    265.51908  0.011763206  0.010287196            5 
 1882000   0.50431807   -8.5503241      265.639  0.011762265  0.010278676            2 
 1883000   0.50921408   -8.5460587    265.22019  0.011737484  0.010270168            2 
 1884000   0.48920805   -8.5526047    265.11269  0.011726499  0.010261664            2 
 1885000   0.50499061    -8.530978    265.49378  0.011737126  0.010253171            2 
 1886000   0.50045419   -8.5740007     265.1312  0.011714882  0.010244688            7 
 1887000   0.50490975   -8.5483802    265.40038  0.011720561  0.010236205            5 
 1888000   0.50662168   -8.5626891    265.51834  0.011719559  0.010227735            3 
 1889000   0.49583974   -8.5573287    265.34854  0.011705865  0.010219268            6 
 1890000   0.50160688   -8.5432436    265.32015  0.011698419  0.010210818            3 
 1891000   0.50655689    -8.558264    265.02675  0.011679303  0.010202379            2 
 1892000   0.50668547   -8.5607335     265.0891  0.011675876  0.010193948            1 
 1893000   0.49682484   -8.5684073    265.49812  0.011687714  0.010185511            2 
 1894000   0.49617439   -8.5562482    265.39414  0.011676968  0.010177089            1 
 1895000   0.50068412   -8.5560145    265.02486  0.011654567   0.01016868            2 
 1896000   0.49506564   -8.5705362    264.85348  0.011640888  0.010160287            2 
 1897000   0.49654533   -8.5583233    265.28945  0.011653903  0.010151894            2 
 1898000    0.4978186   -8.5663225    264.91949  0.011631519  0.010143513            2 
 1899000      0.48928   -8.5668404    264.90842  0.011624909  0.010135142            2 
 1900000   0.49597281   -8.5768737    265.15979  0.011629815  0.010126778            6 
 1901000   0.48694087   -8.5649083    265.48154  0.011637802  0.010118422            2 
 1902000   0.48174488   -8.5726476    264.99518  0.011610374  0.010110066            2 
 1903000   0.49494076   -8.5756364     265.4845  0.011625701  0.010101724            1 
 1904000    0.4892677   -8.5673062    264.85895  0.011592216  0.010093397            2 
 1905000   0.48889451    -8.576795    265.12225  0.011597649  0.010085074            1 
 1906000   0.49168578   -8.5640227     264.9355  0.011583399  0.010076764            2 
 1907000   0.49042127   -8.5637398    265.56925  0.011605019  0.010068464            5 
 1908000   0.47914129   -8.5614815    264.84574  0.011567337  0.010060169            2 
 1909000   0.48814164   -8.5664742    265.05415  0.011570375  0.010051873            3 
 1910000   0.49077024   -8.5765601    264.61436  0.011545129  0.010043589            3 
 1911000   0.48135594   -8.5665331    265.11433   0.01156089  0.010035313            3 
 1912000   0.49640054    -8.572885    265.14774    0.0115563  0.010027048            1 
 1913000   0.49499505    -8.581001    265.34442  0.011558826  0.010018791            2 
 1914000   0.49193226    -8.584786    264.65265  0.011522668  0.010010533            2 
 1915000   0.49010352   -8.5777918    265.17537  0.011539398  0.010002293            3 
 1916000   0.48522099   -8.5507112    264.84268  0.011518906 0.0099940598            2 
 1917000   0.48049531   -8.5877919    265.03907  0.011521434  0.009985834            5 
 1918000   0.48733198   -8.5880829    265.22735  0.011523608 0.0099776183            3 
 1919000   0.49626218   -8.5887669    265.26343  0.011519169 0.0099694116            4 
 1920000    0.4860937   -8.5754168     265.1118  0.011506588 0.0099612166            2 
 1921000   0.47493444    -8.573022    265.05411  0.011498096 0.0099530274            1 
 1922000    0.4806716   -8.5804038    265.05348  0.011492086  0.009944848            5 
 1923000   0.48805689   -8.5719087    264.73093  0.011472132 0.0099366732            2 
 1924000   0.48446343   -8.5857264    265.21509   0.01148714 0.0099285058            2 
 1925000   0.48770933   -8.5907801    265.41421  0.011489793  0.009920352            2 
 1926000   0.48445532   -8.5663327    264.97331   0.01146475 0.0099122048            1 
 1927000   0.48602861   -8.6028731     264.6323  0.011444054 0.0099040583            3 
 1928000   0.49140933   -8.6030441    265.08536  0.011457701 0.0098959313            4 
 1929000   0.48732915   -8.5901865    265.19978  0.011456704 0.0098878049            5 
 1930000   0.49062048   -8.5971215    264.71334  0.011429764 0.0098796946            2 
 1931000   0.47189963   -8.5909641    264.97745  0.011435243 0.0098715823            2 
 1932000   0.48100845   -8.5965083     264.7203  0.011418232 0.0098634741            5 
 1933000   0.48292363   -8.6034754    264.98686  0.011423817 0.0098553747            2 
 1934000    0.4890949   -8.5997606    264.99528  0.011418273 0.0098472957            2 
 1935000   0.47972493   -8.5939988     264.9527  0.011410538 0.0098392207            3 
 1936000   0.48331459   -8.5853548     264.5841  0.011388778 0.0098311588            5 
 1937000   0.47560106   -8.5872133    264.90731  0.011396804 0.0098231074            4 
 1938000   0.47943977   -8.5929028    264.57904  0.011376808 0.0098150568            3 
 1939000   0.46598109    -8.594275    264.75857  0.011378656 0.0098070133            3 
 1940000   0.47618412   -8.6101165    264.90649  0.011379145 0.0097989646            1 
 1941000   0.47419572    -8.589696    265.03461  0.011378783 0.0097909319            1 
 1942000   0.48254435   -8.5941318    264.98874  0.011370955 0.0097829053            1 
 1943000   0.46858446   -8.5883488    264.49552  0.011343949 0.0097748957            2 
 1944000   0.48194027   -8.6029061    264.67677  0.011345884 0.0097668922            1 
 1945000   0.46425968   -8.5974363    264.72241  0.011342006 0.0097588912            3 
 1946000   0.48491556    -8.604049    264.69042  0.011334807 0.0097509043            3 
 1947000   0.46528485   -8.5918716    265.12282  0.011347493 0.0097429147            1 
 1948000   0.47322487   -8.5967619     264.4209   0.01131164 0.0097349306            2 
 1949000   0.47302778   -8.6078107    264.84735   0.01132407 0.0097269615            2 
 1950000   0.47325857    -8.611119    264.65864  0.011310198 0.0097189953            2 
 1951000   0.48532797   -8.6204561    264.66118  0.011304509 0.0097110457            1 
 1952000   0.47436793    -8.595112    264.71398  0.011300973 0.0097031033            4 
 1953000   0.47030285   -8.6020943    264.53299  0.011287463 0.0096951617            1 
 1954000   0.46945694   -8.6047742    264.87438  0.011296246 0.0096872295            2 
 1955000    0.4860584   -8.5998661    264.91353  0.011292137 0.0096793071            2 
 1956000   0.47110476   -8.6061408    264.84632    0.0112835 0.0096713927            2 
 1957000   0.48345157    -8.614161    264.75131  0.011273689 0.0096634998            3 
 1958000   0.45800588   -8.6005455    264.37428  0.011251885 0.0096556034            2 
 1959000   0.46866407   -8.6143962    264.95193  0.011270713 0.0096477168            1 
 1960000   0.47012033   -8.6194424    264.31897  0.011238051 0.0096398361            4 
 1961000   0.45837097   -8.6035365     264.5634  0.011242708 0.0096319652            2 
 1962000    0.4614556   -8.6078785    264.67327  0.011241644 0.0096241058            7 
 1963000   0.45874025    -8.588542    264.76952  0.011240004 0.0096162545            6 
 1964000   0.46916417   -8.5923985    264.54488  0.011224749 0.0096084086            1 
 1965000   0.47234861   -8.6113291    264.47366  0.011216016 0.0096005682            2 
 1966000   0.47038413     -8.61252    264.55724  0.011213854 0.0095927381            2 
 1967000   0.46722903   -8.6082519    264.49262  0.011205415 0.0095849144            2 
 1968000   0.46789216   -8.6085473    264.89061  0.011216574 0.0095771005            1 
 1969000   0.45692921   -8.5864511    264.50236  0.011194446 0.0095692857            1 
 1970000   0.46343592   -8.6098417    265.18017  0.011217435 0.0095614848            1 
 1971000   0.45497055   -8.6167827    264.02661  0.011162972 0.0095536962            2 
 1972000   0.47070927   -8.6108055    264.70749  0.011186084 0.0095459075            2 
 1973000   0.46066158   -8.6178861    264.62616  0.011176979   0.00953813            1 
 1974000   0.47506312   -8.6074285    264.76286  0.011177088 0.0095303559            1 
 1975000   0.45975371   -8.6217363    264.22999  0.011148945 0.0095225842            2 
 1976000   0.46200002   -8.6303575     264.4887  0.011154213 0.0095148312            2 
 1977000   0.46249814   -8.6185099      264.319  0.011141418 0.0095070789            2 
 1978000   0.46400933   -8.6183216    264.01249  0.011122872 0.0094993424            2 
 1979000   0.45651427   -8.6083998    264.59399  0.011141738 0.0094916065            1 
 1980000   0.45318023   -8.6208456    264.47184   0.01113097 0.0094838832            1 
 1981000   0.46995647    -8.618173    264.53609  0.011128054 0.0094761662            2 
 1982000   0.45670121   -8.6148749    264.26974   0.01111124 0.0094684554            1 
 1983000   0.46487639   -8.6325435    264.67945  0.011122855 0.0094607449            2 
 1984000   0.45946528   -8.6159775    264.09079  0.011092523  0.009453045            2 
 1985000   0.45715831    -8.621805    264.17652  0.011090534 0.0094453549            2 
 1986000   0.46442012   -8.6186664    264.22605  0.011087028 0.0094376725            2 
 1987000   0.46808128   -8.6108161    264.83892  0.011107152 0.0094300084            1 
 1988000   0.44802929   -8.6282904     264.8591   0.01110241 0.0094223469            1 
 1989000   0.46090368   -8.6415808    264.00969  0.011061241 0.0094146893            3 
 1990000   0.45988347   -8.6300415    265.21169  0.011106017 0.0094070393            3 
 1991000   0.46275653     -8.61549    264.45089  0.011068596 0.0093993883            4 
 1992000   0.46184484   -8.6407534    264.20893  0.011052917 0.0093917555            1 
 1993000   0.46321703   -8.6437455    264.47891   0.01105866 0.0093841374            1 
 1994000   0.45239364   -8.6296495    264.26235  0.011044063 0.0093765166            3 
 1995000   0.45475716   -8.6488193     264.6178  0.011053375  0.009368906            3 
 1996000   0.45762129   -8.6234595    264.18913   0.01102994 0.0093613008            4 
 1997000   0.45614144   -8.6320672    264.46851  0.011036075 0.0093537049            3 
 1998000   0.44500624   -8.6320593    264.40173  0.011027766 0.0093461108            2 
 1999000    0.4536258   -8.6306589    263.92611  0.011002422 0.0093385232            1 
 2000000   0.45496308   -8.6382364    264.65668  0.011027362 0.0093309502            3 
 2001000   0.45641813   -8.6404371     264.4759  0.011014322 0.0093233762            3 
 2002000   0.44233091   -8.6463549    264.03633  0.010990523 0.0093158139            2 
 2003000   0.45334042   -8.6380223    264.45095  0.011002286 0.0093082632            5 
 2004000   0.45499818   -8.6431443    264.18351  0.010985675 0.0093007176            2 
 2005000   0.45117967    -8.639736    264.40726  0.010989495 0.0092931847            2 
 2006000   0.45863466   -8.6442209    264.28625   0.01097899 0.0092856523            4 
 2007000   0.45508497   -8.6515503    264.44534  0.010980126 0.0092781236            3 
 2008000   0.44653722   -8.6387478    263.97292  0.010955051 0.0092706103            2 
 2009000   0.45489241   -8.6550397    264.09868  0.010954815  0.009263102            4 
 2010000   0.44626182   -8.6366283    264.33863  0.010959313 0.0092556048            1 
 2011000   0.44992366    -8.643577    264.09182  0.010943636 0.0092481134            4 
 2012000   0.45122862   -8.6299292     264.1176  0.010939264 0.0092406292            3 
Loop time of 4755.19 on 48 procs for 2000000 steps with 4000 atoms

Performance: 72678.476 tau/day, 420.593 timesteps/s
99.4% CPU use with 48 MPI tasks x no OpenMP threads

MPI task timing breakdown:
Section |  min time  |  avg time  |  max time  |%varavg| %total
---------------------------------------------------------------
Pair    | 305.59     | 327.19     | 349.92     |  53.6 |  6.88
Neigh   | 31.365     | 32.523     | 33.653     |  11.0 |  0.68
Comm    | 300.02     | 322.39     | 348.28     |  62.9 |  6.78
Output  | 3.9857     | 3.9873     | 4.0172     |   0.2 |  0.08
Modify  | 4018.6     | 4026.5     | 4034.3     |   5.9 | 84.68
Other   |            | 42.59      |            |       |  0.90

Nlocal:        83.3333 ave          88 max          78 min
Histogram: 1 2 3 7 8 4 5 9 2 7
Nghost:        2052.81 ave        2074 max        2025 min
Histogram: 2 3 3 2 6 8 11 6 4 3
Neighs:        13301.0 ave       14895 max       12020 min
Histogram: 3 3 7 11 6 5 5 4 3 1
FullNghs:      26604.2 ave       28298 max       24915 min
Histogram: 4 2 3 12 4 4 8 3 5 3

Total # of neighbors = 1277000
Ave neighs/atom = 319.25000
Neighbor list builds = 107142
Dangerous builds = 0

#clear
#
#next RN
#
#jump SELF
Total wall time: 1:19:18
