
units lj                  # Use reduced LJ style units
atom_style atomic         # Uncharged point particles
atom_modify map hash      # Needed for indexing of clusters etc
                          # Used to be able to find where atoms are in relation to each other.

lattice fcc 1.0 spacing 1 1 1
Lattice spacing in x,y,z = 1.5874011 1.5874011 1.5874011
region box block 0 10 0 10 0 10 units lattice
create_box 2 box
Created orthogonal box = (0.0000000 0.0000000 0.0000000) to (15.874011 15.874011 15.874011)
  3 by 4 by 4 MPI processor grid
create_atoms 1 box
Created 4000 atoms
  using lattice units in orthogonal box = (0.0000000 0.0000000 0.0000000) to (15.874011 15.874011 15.874011)
  create_atoms CPU = 0.002 seconds
set type 1 type/fraction 2 0.38 78393
Setting atom values ...
  1537 settings made for type/fraction
mass 1 1.0
mass 2 1.0
pair_style lj/cut  3.5
pair_modify tail  yes
pair_coeff 1  1  1.0  1.0   # Intearaction between 1 and 1 set with epsilon = 1 and sigma = 1
pair_coeff 1  2  1.5  0.8
pair_coeff 2  2  0.5  0.88

write_data data.0
System init for write_data ...
Neighbor list info ...
  update every 1 steps, delay 10 steps, check yes
  max neighbors/atom: 2000, page size: 100000
  master list distance cutoff = 3.8
  ghost atom cutoff = 3.8
  binsize = 1.9, bins = 9 9 9
  1 neighbor lists, perpetual/occasional/extra = 1 0 0
  (1) pair lj/cut, perpetual
      attributes: half, newton on
      pair build: half/bin/atomonly/newton
      stencil: half/bin/3d
      bin: standard
WARNING: Not all mixed pair coeffs generated from mixing. Use write_data with 'pair ij' option to store all pair coeffs. (../write_data.cpp:312)


#############################
#   M E L T   S Y S T E M   #
#############################

velocity all create 2.4 6583654 mom yes dist gaussian # Assign velocities
                                                    # Temperature 2.4, random number seed, zero linear momentum
                                                                                # Gaussian distribution

timestep 0.002   # simulation timestep
thermo 1000       # output thermodynamic data every 1000 steps bf 100

# Define a fix  in this case with index 1 applied to all
# particles in the simulation. This fix is for simulations
# in the anisotropic NPT ensemble. Note that we use the MTK
# correction.
fix 1 all npt temp 2.4 2.4 0.1 iso 5.68 5.68 0.5 mtk yes tchain 5 pchain 5 # Use NPT ensemble
                                                                         # Set temperature and pressure and damping
                                                                         # Numbers of thermostats in chain and in barostat
run 10000          # run for 10000 steps
Per MPI rank memory allocation (min/avg/max) = 3.642 | 3.644 | 3.648 Mbytes
Step Temp E_pair E_mol TotEng Press Volume 
       0          2.4   -5.9717516            0   -2.3726516   -4.1474152         4000 
    1000    2.4090925   -5.0714953            0   -1.4587599     5.432221     3934.262 
    2000    2.3860107   -5.0118542            0   -1.4337328    5.5837179    3955.4669 
    3000    2.4418064   -5.0702036            0   -1.4084097    5.6795501    3933.2735 
    4000    2.3588417   -5.0749783            0   -1.5376003    5.2296469    3954.4812 
    5000    2.3652704   -5.0148502            0   -1.4678315    5.4673266    3961.5872 
    6000      2.40811   -4.9918887            0   -1.3806267    6.1892535    3912.7566 
    7000     2.411324    -4.969639            0   -1.3535572    5.9116762    3953.0283 
    8000    2.4414614   -5.0102453            0   -1.3489687    5.5996304    3956.2592 
    9000    2.3438092   -5.0218308            0   -1.5069959    5.5878631    3951.0259 
   10000    2.3930467   -4.9777829            0   -1.3891103    5.9385372    3944.6617 
Loop time of 2.53486 on 48 procs for 10000 steps with 4000 atoms

Performance: 681694.500 tau/day, 3944.991 timesteps/s
99.6% CPU use with 48 MPI tasks x no OpenMP threads

MPI task timing breakdown:
Section |  min time  |  avg time  |  max time  |%varavg| %total
---------------------------------------------------------------
Pair    | 1.0857     | 1.1707     | 1.2897     |   3.9 | 46.18
Neigh   | 0.20628    | 0.2178     | 0.23913    |   1.2 |  8.59
Comm    | 0.75337    | 0.87421    | 0.98659    |   5.1 | 34.49
Output  | 0.00025187 | 0.00025833 | 0.00033049 |   0.0 |  0.01
Modify  | 0.22876    | 0.25665    | 0.30422    |   4.7 | 10.12
Other   |            | 0.01526    |            |       |  0.60

Nlocal:        83.3333 ave          91 max          68 min
Histogram: 1 0 0 3 4 8 12 7 8 5
Nghost:        1658.58 ave        1692 max        1627 min
Histogram: 3 2 4 8 10 7 5 4 3 2
Neighs:        9683.73 ave       10978 max        7407 min
Histogram: 1 0 1 2 5 14 6 10 5 4

Total # of neighbors = 464819
Ave neighs/atom = 116.20475
Neighbor list builds = 911
Dangerous builds = 232

# Equilibrate just above the melting temperature to avoid step fn in T

fix 1 all npt temp 1.25 1.25 0.1 iso 5.68 5.68 0.5 mtk yes tchain 5 pchain 5
run 2000
Per MPI rank memory allocation (min/avg/max) = 3.643 | 3.645 | 3.649 Mbytes
Step Temp E_pair E_mol TotEng Press Volume 
   10000    2.3930467   -4.9777829            0   -1.3891103    5.9385372    3944.6617 
   11000    1.2445789   -6.9650401            0   -5.0986385    5.7298164    3141.0785 
   12000    1.2392627   -7.0731371            0   -5.2147078    5.8174573    3108.3197 
Loop time of 0.600713 on 48 procs for 2000 steps with 4000 atoms

Performance: 575316.719 tau/day, 3329.379 timesteps/s
99.6% CPU use with 48 MPI tasks x no OpenMP threads

MPI task timing breakdown:
Section |  min time  |  avg time  |  max time  |%varavg| %total
---------------------------------------------------------------
Pair    | 0.25957    | 0.2908     | 0.31299    |   2.5 | 48.41
Neigh   | 0.039151   | 0.041782   | 0.04414    |   0.6 |  6.96
Comm    | 0.19473    | 0.21843    | 0.25673    |   3.4 | 36.36
Output  | 5.2805e-05 | 5.4414e-05 | 7.1155e-05 |   0.0 |  0.01
Modify  | 0.040306   | 0.044814   | 0.048319   |   1.0 |  7.46
Other   |            | 0.004836   |            |       |  0.80

Nlocal:        83.3333 ave          91 max          77 min
Histogram: 3 5 9 3 5 9 5 6 0 3
Nghost:        1950.50 ave        1969 max        1929 min
Histogram: 1 5 3 5 7 5 7 6 5 4
Neighs:        12291.2 ave       14165 max       10809 min
Histogram: 3 2 7 7 12 6 6 4 0 1

Total # of neighbors = 589980
Ave neighs/atom = 147.49500
Neighbor list builds = 144
Dangerous builds = 8

#############################
# L I N E A R  Q U E N C H  #
#############################

# Define solid atoms. This closely follows ten Wolde  Ruiz-Montero and Frenkel  Faraday Discuss  1996  104  93-110
# Compute components of the per-atom q6 vector
compute q6 all orientorder/atom degrees 1 6 components 6 nnn NULL cutoff 1.3 # compute the Q6 parameter.
                                                                             # Use all neighbours within 1.3 unit cell.

# get number of connections
compute coord_number all coord/atom orientorder q6 0.5

# An atom is solid if it has 8 or more connections (of a possible 14)
variable is_solid atom c_coord_number>=8
group solid dynamic all var is_solid    # Must be dynamic to update
dynamic group solid defined

# do clustering
compute cluster solid cluster/atom 1.3 # Create a cluster where all atoms within are solid and max 1.3 units from another member

# define chunks one chunk per cluster
compute clus_chunks solid chunk/atom c_cluster nchunk every compress yes  # Says which atoms are in which chunk

# count the size of each chunk
compute size_chunks solid property/chunk clus_chunks count


# Find the maximum entry in the vector of chunk sizes
variable max_n equal max(c_size_chunks)


# Thermo style which includes this variable
# thermo_style custom step temp pe vol v_max_n

thermo ${N}  # Print the thermo information every 100 steps
thermo 1000  

# Reset the npt fix at a lower temperature (below freezing)
fix 1  all npt temp  ${temp} ${temp}  0.1  iso  5.68  5.68  0.5  mtk yes tchain  5  pchain  5
fix 1  all npt temp  0.45 ${temp}  0.1  iso  5.68  5.68  0.5  mtk yes tchain  5  pchain  5
fix 1  all npt temp  0.45 0.45  0.1  iso  5.68  5.68  0.5  mtk yes tchain  5  pchain  5

dump dmp2 all dcd ${N} traj.dcd
dump dmp2 all dcd 1000 traj.dcd


compute msd all msd com yes
variable twopoint equal c_msd[4]/6/(step*dt+1.0e-6)
fix 9 all vector 10 c_msd[4]
variable fit equal slope(f_9)/6/(10*dt)
thermo_style custom step temp pe c_msd[4] v_twopoint v_fit v_max_n

fix 1 all npt temp 1.25 ${temp} 0.1 iso 5.68 5.68 0.5 mtk yes tchain 5 pchain 5
fix 1 all npt temp 1.25 0.45 0.1 iso 5.68 5.68 0.5 mtk yes tchain 5 pchain 5
run 5000000 # 5000000  # Run for this many steps
Neighbor list info ...
  update every 1 steps, delay 10 steps, check yes
  max neighbors/atom: 2000, page size: 100000
  master list distance cutoff = 3.8
  ghost atom cutoff = 3.8
  binsize = 1.9, bins = 8 8 8
  4 neighbor lists, perpetual/occasional/extra = 1 3 0
  (1) pair lj/cut, perpetual
      attributes: half, newton on
      pair build: half/bin/atomonly/newton
      stencil: half/bin/3d
      bin: standard
  (2) compute orientorder/atom, occasional
      attributes: full, newton on
      pair build: full/bin/atomonly
      stencil: full/bin/3d
      bin: standard
  (3) compute coord/atom, occasional
      attributes: full, newton on
      pair build: full/bin/atomonly
      stencil: full/bin/3d
      bin: standard
  (4) compute cluster/atom, occasional
      attributes: full, newton on
      pair build: full/bin/atomonly
      stencil: full/bin/3d
      bin: standard
Per MPI rank memory allocation (min/avg/max) = 9.824 | 9.828 | 9.833 Mbytes
Step Temp PotEng c_msd[4] v_twopoint v_fit v_max_n 
   12000    1.2392627   -7.0731371 7.6815331e-31 5.3343977e-33 8.3333333e+20            2 
   13000    1.2519744   -7.0463832   0.48680189 0.0031205248  0.039755646            2 
   14000    1.2391446   -7.1093882   0.96039837 0.0057166567  0.039312744            2 
   15000    1.2448749   -7.0550428    1.4255905 0.0079199469    0.0391334            1 
   16000    1.2505534   -7.0714771    1.8699764 0.0097394601  0.039052179            1 
   17000    1.2488573   -7.0585329    2.2360648  0.010961102   0.03767489            2 
   18000    1.2617904    -7.057192    2.6658801  0.012342037  0.036805649            1 
   19000      1.25307     -7.02404    3.1217255  0.013691778  0.036253662            2 
   20000     1.250331   -7.0444581    3.5163429  0.014651428  0.036142337            1 
   21000    1.2280594   -7.0290747     3.953295  0.015687678  0.035907008            1 
   22000    1.2368846   -7.0921983    4.3788139  0.016586416  0.035886517            5 
   23000     1.262666    -7.124572    4.8176533  0.017455265  0.035863402            3 
   24000    1.2284783   -7.0611187    5.2814669  0.018338426  0.035936584            3 
   25000    1.2558897   -7.0924558    5.7529721  0.019176573  0.036028871            4 
   26000    1.2325723   -7.0499548    6.1842277  0.019821242  0.036109449            3 
   27000    1.2607439   -7.0612636    6.5858804  0.020326791  0.036092124            2 
   28000    1.2575576   -7.0774787    7.0352044  0.020938108  0.036152838            1 
   29000    1.2674387   -7.0807303    7.4736053  0.021475877  0.036163594            3 
   30000    1.2312427   -7.0537618    7.9886776  0.022190771  0.036237299            2 
   31000    1.2754147   -7.1020707    8.3841869  0.022538136  0.036319202            2 
   32000    1.2465162   -7.0750211    8.8676817  0.023092921  0.036397957            1 
   33000    1.2446601   -7.0412586    9.4219972  0.023792922  0.036503167            1 
   34000    1.2312149   -7.0740643    9.8828004   0.02422255  0.036694099       -1e+20 
   35000    1.2843865   -7.0976181     10.44947  0.024879689  0.036934076            1 
   36000    1.2424813   -7.1195603    10.881971  0.025189747  0.037126366            2 
   37000    1.2554015   -7.1174155    11.291479  0.025431259  0.037252218            1 
   38000    1.2446468   -7.0936714    11.694365  0.025645536  0.037317828            2 
   39000    1.2277501   -7.1084018    12.082745  0.025817831  0.037347973            2 
   40000    1.2684442   -7.0889528    12.568178  0.026183704  0.037385813            2 
   41000    1.2555348   -7.0704994    12.969109  0.026359978   0.03736744            1 
   42000    1.2348555   -7.0158423    13.396263  0.026579886  0.037348111            2 
   43000    1.2577157   -7.0988404    13.802914  0.026749833  0.037334341            1 
   44000    1.2548801   -7.0989407    14.195848  0.026886076  0.037291024            1 
   45000    1.2695709    -7.060582    14.535303  0.026917228  0.037235849            1 
   46000    1.2431687   -7.1139618    14.926146  0.027040119  0.037132466            3 
   47000    1.2323869   -7.0898067    15.322988  0.027168418  0.037048714            1 
   48000    1.2530326   -7.0507844    15.811006  0.027449664  0.036937157            1 
   49000    1.2281356   -7.0931487    16.385245  0.027866063  0.036883798            1 
   50000    1.2579685    -7.099576    16.790376  0.027983959  0.036860214            3 
   51000    1.2367501   -7.1118239    17.057137  0.027871139  0.036813749            2 
   52000    1.2282444   -7.1038397    17.518509  0.028074533  0.036754911            1 
   53000    1.2417855   -7.0497151    17.872983  0.028102174  0.036684548            1 
   54000    1.2401489   -7.0664771     18.37117  0.028350571  0.036626692            3 
   55000    1.2550483   -7.0958174    18.842032  0.028548533   0.03658255            1 
   56000    1.2462228   -7.0740747    19.241473  0.028633144  0.036535175            2 
   57000    1.2365959   -7.0837442    19.576007  0.028619893  0.036494303            1 
   58000    1.2230907   -7.0643693     20.08405  0.028856394  0.036443517            1 
   59000     1.200587   -7.0270881    20.382279   0.02878853  0.036399295            2 
   60000    1.2496242    -7.118652    20.732299   0.02879486  0.036344597            2 
   61000    1.2057784   -7.0959618    21.006937  0.028698002  0.036264996            1 
   62000    1.2436836   -7.0491746    21.455461  0.028837986  0.036164454            1 
   63000    1.2386797   -7.0698731    21.842063  0.028891617  0.036075199            2 
   64000    1.2271155   -7.0852248    22.334507  0.029081389  0.035999894            2 
   65000     1.259412   -7.1012355     22.87668  0.029329077  0.035960632            1 
   66000    1.2482693    -7.088577    23.254677  0.029361965  0.035912973       -1e+20 
   67000    1.2360357    -7.030397    23.821341  0.029628534  0.035891234            1 
   68000    1.2217506   -7.1053236    24.150078  0.029595684  0.035873597            2 
   69000    1.2287803   -7.1051049     24.66305  0.029786291  0.035859493            1 
   70000    1.2378511   -7.1087215    24.959307  0.029713461  0.035832804            1 
   71000    1.2584239   -7.1395803     25.41286  0.029827301  0.035803022            3 
   72000    1.2477741   -7.0646229    25.672316  0.029713328  0.035761565            1 
   73000    1.2714974   -7.1414787    26.313838  0.030038628  0.035731875            1 
   74000     1.217947   -7.1214524    26.954846  0.030354556  0.035732159            2 
   75000    1.2157654   -7.0590649    27.489994  0.030544437  0.035749442            3 
   76000    1.2540303   -7.1351307    27.885268  0.030575951  0.035772835            2 
   77000    1.2407841   -7.1261828    28.231184  0.030553229  0.035792821            1 
   78000    1.2605615   -7.0969793    28.681437  0.030642561  0.035804934            1 
   79000    1.2343311   -7.1137081    29.118876  0.030716114  0.035816193            2 
   80000    1.2410537   -7.0471605    29.432761  0.030659126  0.035819921            1 
   81000    1.2591672   -7.0986279    29.949963  0.030812719  0.035821392            2 
   82000    1.2117651   -7.0900956    30.327917  0.030821054   0.03582186            1 
   83000    1.2741373   -7.0938994    30.689677  0.030812929  0.035813115            2 
   84000    1.2189388   -7.0965526    31.224581  0.030976766  0.035817674            2 
   85000    1.2386767   -7.1047907    31.914253  0.031288483  0.035835385            1 
   86000    1.2563457   -7.1250057    31.956638  0.030965735  0.035847506            1 
   87000    1.2177171   -7.0815664    32.369307  0.031005083  0.035839125            4 
   88000    1.2552631    -7.080566     32.81283  0.031072756  0.035823864            2 
   89000    1.2334357   -7.0744919    33.137577  0.031027694  0.035805369            1 
   90000    1.2171106   -7.0927178    33.463805  0.030985004  0.035781608            1 
   91000    1.2301408   -7.0694246    33.814839   0.03096597  0.035754586            1 
   92000     1.239153   -7.1017267    34.108605  0.030895476  0.035718323            1 
   93000    1.2614144   -7.0784507     34.60566  0.031008656  0.035684761            1 
   94000    1.2484885   -7.0924832     35.03273  0.031057385  0.035659545            2 
   95000    1.2488346   -7.0569096    35.608833  0.031235818  0.035642674            2 
   96000     1.244199   -7.0943852    35.731022  0.031016512  0.035612477            3 
   97000    1.2590419   -7.0663917    36.285941  0.031173489  0.035576959            1 
   98000    1.2237892   -7.0355529    36.808648  0.031299871  0.035544744            2 
   99000    1.2296727   -7.1048224    36.922306  0.031079382  0.035513135            2 
  100000    1.2034054   -7.0544703    37.125507  0.030937922  0.035467435            3 
  101000    1.2634252   -7.1424019    37.493951  0.030935603  0.035422571            2 
  102000    1.2483176    -7.103253     37.78759  0.030872214  0.035381117            1 
  103000    1.2217706   -7.0937055    38.396408  0.031065055  0.035340265       -1e+20 
  104000    1.2180108   -7.0878033    38.817174  0.031103505  0.035303697            2 
  105000    1.2228255    -7.102818    39.017366  0.030966163  0.035266571            1 
  106000    1.2450806   -7.0472102     39.65333  0.031174002  0.035226765            2 
  107000    1.2425599   -7.1169967    40.039697  0.031183565  0.035192928            1 
  108000    1.2584315   -7.1080341    40.359153  0.031141322  0.035157973            1 
  109000    1.2105378   -7.1341017    40.429012  0.030909031  0.035118946            2 
  110000    1.2042567    -7.128996    40.972875  0.031040057  0.035075226            1 
  111000    1.2241105   -7.1093987    41.247903  0.030966894  0.035031861            1 
  112000    1.2249942    -7.139636    41.445347  0.030837311  0.034982465            1 
  113000    1.2464383   -7.1435332    41.876835  0.030882622  0.034938129            1 
  114000    1.2252329   -7.0961882    42.530415  0.031089485  0.034896481            1 
  115000    1.2496729   -7.1364771    43.008106  0.031165294  0.034866045            5 
  116000    1.2518778   -7.0679583    43.521899  0.031265732  0.034839267            2 
  117000    1.2065468   -7.0862053    43.835515  0.031221877  0.034813534            1 
  118000    1.2495585   -7.1302456    44.221995  0.031230222  0.034785549            2 
  119000    1.2423913   -7.0869425    44.570078  0.031211539  0.034751966            1 
  120000    1.2713593   -7.0920411    44.859622  0.031152515  0.034720392            2 
  121000    1.2049336   -7.1176936    45.141929  0.031089483  0.034687333            2 
  122000    1.2200968   -7.0982927    45.641537  0.031175913  0.034650833            2 
  123000    1.2502887   -7.1467471     45.81146  0.031037574  0.034614877            1 
  124000    1.2125771   -7.1040786    46.310059  0.031122351  0.034583082            1 
  125000    1.2266242   -7.1335376    46.757753  0.031171835  0.034547804            1 
  126000     1.222886   -7.1073454    47.379519  0.031335661  0.034522245            2 
  127000    1.2206218   -7.1240037    47.903385  0.031432668  0.034501638            1 
  128000    1.2460458    -7.105164    48.364157  0.031487081  0.034486644            2 
  129000    1.2322775   -7.1111369     48.89601  0.031586569  0.034474245            2 
  130000    1.2059283   -7.1168461    49.147821  0.031505013  0.034464201            3 
  131000     1.237522   -7.1073276    49.887715  0.031735188   0.03445504            2 
  132000    1.2448723   -7.1389233    50.137419  0.031652411  0.034447865            1 
  133000    1.2513159   -7.1282385    50.559362  0.031678798  0.034440067            1 
  134000    1.2228828   -7.0690878    51.262182  0.031879466   0.03443751            3 
  135000    1.2086636   -7.0741763    51.549085  0.031820423  0.034439612            1 
  136000    1.2296521   -7.1397636    51.963859    0.0318406  0.034438193            4 
  137000    1.1997532   -7.1304353    52.288314  0.031805543  0.034437505            1 
  138000    1.1989881    -7.136498    52.702485  0.031825172  0.034435871            1 
  139000    1.2214244   -7.1193778    53.341232  0.031979156  0.034431742            2 
  140000    1.2251158   -7.1502545     53.46703  0.031825613   0.03442919            1 
  141000    1.2113239   -7.0809897    53.812689   0.03180419  0.034423481       -1e+20 
  142000    1.2141063   -7.0866103    54.120462  0.031760834  0.034412725            2 
  143000    1.2427035   -7.1025644    54.382005  0.031691145  0.034399831            2 
  144000    1.2319152   -7.1015044     54.66783  0.031636475  0.034384596            1 
  145000    1.2165747   -7.1243571    55.154302  0.031697875  0.034373526            2 
  146000    1.2319066   -7.1302493    55.587999   0.03172831  0.034360674            2 
  147000    1.2197748   -7.1289699    56.118294  0.031813092  0.034348859            4 
  148000    1.2009882   -7.1367228    56.542711  0.031837112  0.034338111            1 
  149000    1.2295273   -7.1170306    57.012802  0.031886355  0.034328312            2 
  150000    1.2133935   -7.0743786    57.846711  0.032137062  0.034324974            2 
  151000    1.2029286   -7.0421985    58.312821  0.032181468  0.034328564            2 
  152000    1.2145981   -7.0845819    58.505018   0.03207512  0.034330526            1 
  153000    1.2161018   -7.0901071    59.027438  0.032150021  0.034329537            1 
  154000    1.2133136   -7.1202607    59.495256  0.032194402  0.034332316            1 
  155000     1.218508   -7.1703091     59.99542  0.032255602  0.034335573            2 
  156000    1.2154278   -7.1481547     60.11109  0.032110625   0.03433923            1 
  157000    1.2206871   -7.1574554    60.600892  0.032166079  0.034339869            2 
  158000    1.2378495   -7.1252151    60.980106  0.032162503  0.034338391            1 
  159000    1.1997116   -7.1471195    61.219783   0.03208584  0.034334911            1 
  160000    1.1937823   -7.1450003    61.742791  0.032157703  0.034334421            1 
  161000    1.2522514   -7.1030748    62.076173  0.032130524   0.03433375            1 
  162000    1.2072617   -7.1189171    62.562948  0.032182586  0.034331646            1 
  163000    1.2425147   -7.0948281    62.452956  0.031928914  0.034326199            3 
  164000    1.2454872   -7.0939192    63.009406  0.032016974  0.034315158            2 
  165000    1.2219319   -7.1379717    63.050738  0.031843807  0.034301522            1 
  166000    1.2002892   -7.1173136    63.816478  0.032036384  0.034287602            4 
  167000    1.2330351   -7.1014778    63.884155  0.031878321  0.034272514            2 
  168000    1.2224976   -7.1444712    64.420009   0.03195437  0.034260114            1 
  169000    1.2394564   -7.1311059    64.730756  0.031918519  0.034247136            1 
  170000    1.2400532   -7.1384622     65.25044   0.03198551  0.034235646            2 
  171000    1.2147082   -7.1166216    65.574819  0.031956539  0.034223236            1 
  172000    1.2185744   -7.1383626    65.849144  0.031903655  0.034209483            2 
  173000    1.2392539   -7.1165814    66.392713  0.031981076  0.034196517            2 
  174000    1.2355081   -7.1164081    66.855944   0.03201913  0.034186714            1 
  175000    1.2261721   -7.1292558    66.948488  0.031880232  0.034176276            4 
  176000    1.2287923   -7.1199299    67.345316  0.031886987  0.034164023            1 
  177000    1.2052136   -7.1453977    67.721811  0.031884092  0.034150513            2 
  178000    1.2112264   -7.1359875    68.317163   0.03198369  0.034139326            1 
  179000    1.2349313   -7.1522774    68.643515  0.031956944  0.034128379            1 
  180000    1.2012498   -7.1051578    69.246664  0.032058641  0.034120111            4 
  181000    1.2288082   -7.1462048    69.640583  0.032062884  0.034113193            2 
  182000    1.2335455   -7.1382971    69.842538  0.031979184  0.034105078            1 
  183000    1.2281944   -7.1021207    70.255362  0.031992423  0.034095905            2 
  184000    1.2143538   -7.1252113    70.548142  0.031951151  0.034084487            1 
  185000    1.2540898   -7.1189394    71.118945  0.032035561  0.034073071            1 
  186000    1.2415122   -7.1618082    71.441958  0.032008046  0.034064092            5 
  187000    1.2281574   -7.1277136    71.826006  0.032008024  0.034053727            3 
  188000    1.2224775   -7.1313636    72.180795  0.031995033  0.034043479            1 
  189000    1.2075144   -7.1179498    72.554986  0.031990734   0.03403166            1 
  190000    1.2331577   -7.1169539    72.940368  0.031991389  0.034021083            2 
  191000     1.232775   -7.1672668    73.302511  0.031981898  0.034007902            2 
  192000    1.2013345   -7.1665863    73.613913  0.031950483  0.033992528            3 
  193000    1.2269754   -7.1724604    74.062564  0.031978654  0.033981645            1 
  194000    1.2077232   -7.1577525    74.396267  0.031957159  0.033969116            1 
  195000    1.2540386   -7.1235395    75.097191  0.032092816  0.033958496            3 
  196000    1.2411103   -7.0842461     75.86741  0.032256552  0.033949456            3 
  197000    1.2113192   -7.1323712    76.017981  0.032156506  0.033942467            1 
  198000    1.2062582   -7.1676487    76.283876  0.032106009  0.033935392            2 
  199000    1.2219622   -7.1406378    77.010639  0.032249011  0.033928563            3 
  200000    1.2106339   -7.1182115    77.107614  0.032128173  0.033922989            1 
  201000    1.2238288   -7.1869469    77.473097  0.032119858   0.03391488            2 
  202000    1.2066991   -7.1479049    78.061513  0.032203594  0.033908497            1 
  203000    1.2291617   -7.1057059    78.587591  0.032260916  0.033902699            2 
  204000    1.2563776    -7.115485    78.942919  0.032247924  0.033897622            1 
  205000    1.2131613   -7.1354533    78.834789  0.032046662  0.033888192            3 
  206000    1.2352566   -7.1390545    79.565083  0.032186522  0.033879856            1 
  207000    1.2069755   -7.1742797    79.490087   0.03200084  0.033872949            1 
  208000      1.20532   -7.1261103     80.49251  0.032248602  0.033866039            1 
  209000    1.2366174   -7.1144705    80.930253  0.032268841  0.033857965            2 
  210000    1.2246114   -7.1465694    80.783602  0.032056985  0.033849508            3 
  211000    1.2316891   -7.1079769    81.443899  0.032165837  0.033840639            2 
  212000    1.1949713   -7.1143371    81.382703  0.031990056  0.033829752            1 
  213000    1.2161952   -7.1297574    81.729986  0.031975738  0.033816866            1 
  214000    1.2173074   -7.1414545    82.195781  0.032007703  0.033805815            1 
  215000    1.2126429   -7.0839458    82.880606  0.032124266  0.033795001            1 
  216000    1.2350701   -7.1723615    82.717314  0.031912544  0.033783469            2 
  217000    1.2140939   -7.1262992    83.448276  0.032046189  0.033774193            2 
  218000    1.2401322   -7.1354415    84.144079  0.032165168  0.033764561            2 
  219000     1.218983   -7.1616198    84.133961  0.032014445  0.033755766       -1e+20 
  220000    1.2101342   -7.1349481    84.779755  0.032113543  0.033747686            2 
  221000    1.1954348   -7.1478761    85.012143  0.032055861  0.033739819            1 
  222000     1.212873   -7.1128195     85.43039  0.032068465  0.033732932            1 
  223000    1.1969743   -7.1278083    85.498417  0.031950081  0.033721389            1 
  224000    1.2058474   -7.1602438    85.694936  0.031880557  0.033706883            1 
  225000    1.2009424   -7.1247071    86.047127  0.031869306  0.033692545            2 
  226000    1.1939822   -7.1494829     86.33057  0.031832806  0.033675398            1 
  227000    1.1938331   -7.1428495    86.979925  0.031930956  0.033660004            1 
  228000    1.2097025   -7.1578369    87.264782  0.031895023   0.03364481            1 
  229000    1.2271797   -7.1682105    87.388448  0.031800745  0.033629267            2 
  230000     1.229069   -7.1792938    87.665729  0.031762945  0.033613686            1 
  231000    1.2031611   -7.1564087    87.699129  0.031637492  0.033597475            1 
  232000    1.2017205   -7.1754921    88.272092  0.031706929  0.033579611            3 
  233000     1.218036   -7.1135126    89.029323  0.031841675  0.033561807            1 
  234000    1.2067667   -7.1583184     89.13674  0.031743853  0.033544907            3 
  235000    1.1867944   -7.1153215    89.713703   0.03181337   0.03352827            1 
  236000     1.211042   -7.1600194    89.682673   0.03166761  0.033511213            3 
  237000    1.2191592   -7.1624984    90.203859   0.03171725   0.03349288            1 
  238000     1.218456   -7.1591347    90.763877  0.031780069  0.033476105            1 
  239000    1.2520681    -7.134834    91.003312  0.031730583  0.033460254            2 
  240000    1.2127292   -7.1329906    91.476498  0.031762673  0.033445288            5 
  241000    1.1922637   -7.1179251    91.740458   0.03172215  0.033428254            2 
  242000    1.2223271   -7.1688267    91.855861  0.031630806  0.033411728            1 
  243000    1.2122935   -7.1532713    92.251645  0.031636367   0.03339483            1 
  244000    1.1937137   -7.1589034    92.447233  0.031573509  0.033378341            2 
  245000    1.2098852   -7.1888115    92.797612  0.031563814  0.033361194            3 
  246000    1.2090932   -7.1547508    93.700438  0.031741341  0.033346064            2 
  247000    1.2043433   -7.1054103    94.186952  0.031776974  0.033330998            3 
  248000    1.1823829    -7.159078    94.562055  0.031774884  0.033316536            1 
  249000    1.1968405   -7.1674739    95.037582   0.03180642  0.033302887            1 
  250000    1.2038272   -7.1848225    95.062738  0.031687579  0.033289785            2 
  251000    1.2086972   -7.1566255    95.761596  0.031793359  0.033277432            1 
  252000     1.235108   -7.1521541    96.368286  0.031867819  0.033268196            2 
  253000     1.202313   -7.1877803    96.925868  0.031925516  0.033259587            1 
  254000    1.2128986    -7.144643    97.440479  0.031968661  0.033251907            1 
  255000    1.2204486   -7.1485706    97.333027  0.031808179  0.033244513            1 
  256000    1.2538258   -7.1347104    98.014623  0.031905802  0.033235745            1 
  257000    1.1996631   -7.1495882    98.271252  0.031864868  0.033226355            2 
  258000     1.215436   -7.1327528    98.552941  0.031832345  0.033214767            1 
  259000    1.1923551   -7.1391826    98.984236   0.03184821  0.033203766            1 
  260000    1.1846492   -7.1262858    99.581877  0.031917268  0.033193922            1 
  261000    1.2106538   -7.1610431    99.490905  0.031765934  0.033183067            5 
  262000    1.1778883    -7.147643    99.917172  0.031780271  0.033173225            1 
  263000    1.1974994   -7.1554286     100.4118  0.031816158  0.033163544            2 
  264000     1.198525   -7.1613589    100.88008  0.031843461  0.033153406            1 
  265000    1.1910047   -7.1494011    101.11558  0.031797351  0.033144352            1 
  266000    1.2184292   -7.1292608    102.07366  0.031977964  0.033136202            1 
  267000    1.2052903   -7.1811311    101.41486  0.031652579  0.033127584            2 
  268000    1.1977405   -7.1657004    102.46696  0.031861617   0.03311695            2 
  269000    1.2003399   -7.1641628    102.51017  0.031756557  0.033107877            1 
  270000    1.1933784   -7.1734059    103.02883  0.031799022  0.033098376            1 
  271000    1.2234207   -7.1805112    103.61309  0.031861345  0.033090826            1 
  272000    1.2288362   -7.1299373    104.37582  0.031977886  0.033082875            2 
  273000     1.223259   -7.1749774    104.44097  0.031880638  0.033075652            1 
  274000    1.2288196   -7.1682381    104.75979  0.031861249  0.033068768            1 
  275000     1.202778   -7.1737114    105.92597  0.032098779  0.033063827            1 
  276000    1.1916879   -7.1760125    106.06932  0.032025761  0.033060904            1 
  277000    1.2498517   -7.1623263    106.43707  0.032020778  0.033057555            1 
  278000    1.2240445   -7.1391209    107.07444  0.032096655  0.033054028            1 
  279000     1.210667    -7.182151     107.3403  0.032061021  0.033050989            3 
  280000    1.2290887   -7.1833447     107.8926  0.032110892  0.033047689            1 
  281000    1.2042255   -7.1556934    107.98196   0.03202312  0.033045234            1 
  282000    1.2228445   -7.1969504    108.07198  0.031936165  0.033041826            1 
  283000    1.2063474   -7.1416394    108.74616  0.032021838  0.033038829            2 
  284000    1.2299972   -7.1443081    109.39428  0.032099261  0.033035999            2 
  285000     1.229934   -7.1630189    109.53878  0.032028883  0.033031836            1 
  286000    1.1955453   -7.1670882    109.72931   0.03197241  0.033028272            2 
  287000    1.1998757   -7.1903363    110.27198  0.032018578  0.033024574            4 
  288000     1.195045    -7.169836    111.25939   0.03219311  0.033021697            1 
  289000    1.2146473   -7.1197536    111.36955   0.03211348  0.033018673            1 
  290000    1.2275989   -7.1341463    111.61802  0.032074142  0.033016126            1 
  291000    1.2263315   -7.1210979    112.01579  0.032077832  0.033013645            1 
  292000    1.2454636   -7.1754163    112.32081  0.032055025  0.033010943            2 
  293000    1.2050963   -7.1193174    113.16953  0.032187011    0.0330079            2 
  294000    1.2059186   -7.1555958     113.1718  0.032078176  0.033005161            1 
  295000    1.2263472   -7.1606689    113.59594  0.032089248  0.033001852            1 
  296000    1.2220237   -7.1739701    114.02575  0.032101845  0.032998948            1 
  297000    1.2338871   -7.1446658    114.27342   0.03206325  0.032995287            2 
  298000    1.1884818    -7.229481    114.41598  0.031995519  0.032992054            1 
  299000    1.1791077   -7.1817991    114.50794  0.031914141  0.032988018            1 
  300000    1.2210691   -7.1944597    115.16062  0.031989061  0.032983702            2 
  301000    1.2251939   -7.1665139    115.28458  0.031917105  0.032980212            1 
  302000    1.2300004   -7.1439953    115.66604  0.031916677  0.032974815            2 
  303000    1.1945521    -7.181321    115.98836  0.031899988   0.03296869            3 
  304000     1.216586   -7.1614621    115.90615  0.031772519  0.032961403            1 
  305000    1.1975696   -7.1508842    116.78638  0.031908848  0.032952439            1 
  306000    1.2192152    -7.136663    117.62673  0.032033422  0.032945484            2 
  307000    1.1859443    -7.214579    117.08214  0.031781254  0.032938397            2 
  308000    1.1797339   -7.2068946     116.9899  0.031653111  0.032930369            2 
  309000    1.1734343   -7.2243563     117.9127  0.031799541  0.032921953            2 
  310000    1.1953284   -7.1736675    118.41084  0.031830872  0.032913756            1 
  311000    1.2054964   -7.2141832    118.30957  0.031701386  0.032905397            2 
  312000    1.2011712   -7.1727253    118.72867  0.031711716  0.032897586            2 
  313000    1.2109415   -7.1703385    119.58132  0.031837412  0.032889869            1 
  314000    1.1977633   -7.1687448    120.12663  0.031880741  0.032881665            1 
  315000    1.2343711   -7.1980717    120.30754  0.031827392  0.032874108            1 
  316000    1.1834292   -7.2026213    120.70463  0.031831389  0.032867492            1 
  317000    1.2199124   -7.1755822    121.27663  0.031881344  0.032861342            1 
  318000    1.1979293    -7.157442    121.51165  0.031842676  0.032854973            1 
  319000    1.2039131   -7.2122095     122.2697  0.031940883  0.032849049            1 
  320000    1.1973827   -7.1925478    122.58856  0.031924103  0.032843881            1 
  321000    1.1818922   -7.1954281    122.71755  0.031858139  0.032837603            1 
  322000    1.2064419   -7.1690269    123.28255  0.031905422  0.032831408            1 
  323000    1.1950548   -7.2095816    123.18011  0.031780213  0.032824608            1 
  324000    1.1981358   -7.1618997    123.71002  0.031818421  0.032816982            1 
  325000    1.2035061    -7.152517    124.36958  0.031889635  0.032810628       -1e+20 
  326000    1.1770105   -7.1950563    124.70614  0.031877847  0.032805241            1 
  327000    1.2086869   -7.1998522    124.98434  0.031851259  0.032800733            1 
  328000     1.205482   -7.1831409    125.73607   0.03194514  0.032795965            2 
  329000     1.185138   -7.2132086    125.88908  0.031886797  0.032791501            3 
  330000    1.2257286   -7.2267622    126.01464   0.03182188  0.032786683            2 
  331000    1.1845431   -7.2018793     126.7632  0.031914199  0.032783435            2 
  332000     1.228322   -7.1682227    127.48155  0.031998382  0.032779215            2 
  333000    1.2024387   -7.1321934    128.92594  0.032263748  0.032776191            1 
  334000    1.2069168   -7.1887175    127.95856  0.031925789  0.032773633            1 
  335000    1.2097027   -7.1869266     128.0402  0.031850797  0.032769241            2 
  336000    1.2055569   -7.1318327    129.01636  0.031998104  0.032765507            1 
  337000    1.2018649   -7.1847406    129.19189  0.031946561  0.032760959            1 
  338000    1.2016144   -7.1526848    129.77834  0.031996632  0.032758374            1 
  339000    1.1541881   -7.2086098      129.608  0.031860375  0.032754971            4 
  340000    1.1620542   -7.1733357    129.97861  0.031857502  0.032750167            1 
  341000    1.1880656   -7.2124478    130.37237  0.031860305  0.032745227            3 
  342000    1.2111212   -7.1524669    130.76798  0.031863542  0.032739808            3 
  343000    1.1810267   -7.1558538    131.95556  0.032059174  0.032735355            1 
  344000    1.1987906    -7.170881    131.45571  0.031844892   0.03273049            2 
  345000    1.1661718   -7.1845475    132.00024  0.031884115  0.032725133            1 
  346000    1.1978379   -7.1513389    132.33229   0.03187194  0.032719836            2 
  347000    1.1915273   -7.1635805    132.34682  0.031783578  0.032714846       -1e+20 
  348000    1.1858862   -7.2174323    132.42775  0.031711627  0.032709582            1 
  349000    1.2092657   -7.1780939    133.33714  0.031837904   0.03270329            1 
  350000    1.2063883    -7.224174    133.73065  0.031840632  0.032697421            1 
  351000    1.2199108   -7.1960167    134.30725  0.031886812  0.032692409            1 
  352000    1.1883105   -7.1744645    134.43439  0.031826324  0.032687206            1 
  353000    1.2158625   -7.2244846    134.73502  0.031807134  0.032681053            1 
  354000    1.1925035   -7.1523066    135.30314  0.031851022  0.032675478            2 
  355000    1.1817745   -7.1628691     136.1557  0.031961431  0.032671292            1 
  356000    1.2131877   -7.1463571    136.22879  0.031888761  0.032667114            2 
  357000    1.2197174   -7.2446142    136.01522  0.031749585  0.032662149            1 
  358000    1.1864523   -7.1541188    136.88868  0.031864217  0.032655391            1 
  359000    1.1882396   -7.2027287    137.02247  0.031806517  0.032648688            2 
  360000    1.1665699   -7.2250602    137.40867  0.031807563  0.032643033            2 
  361000    1.1735955   -7.1588715     137.5224  0.031745706  0.032637853            1 
  362000    1.2002683   -7.1784816    138.44872  0.031871253  0.032633266            2 
  363000    1.1846128   -7.2315816    138.56537  0.031810231  0.032628133            2 
  364000    1.1885734    -7.168927    139.32834  0.031897513  0.032624256            2 
  365000     1.203053   -7.2247176    139.77182  0.031911375  0.032619715            2 
  366000    1.1853188   -7.1449989    140.03914  0.031885051  0.032615978            2 
  367000     1.204919   -7.1875138    140.80262   0.03197153  0.032611744            3 
  368000    1.1952567   -7.2638295    140.91105  0.031909206  0.032608343            1 
  369000    1.1629921   -7.1960672    141.50448  0.031956748  0.032605029            4 
  370000    1.1933333   -7.1585196    141.95882  0.031972708  0.032601979            1 
  371000    1.2044463   -7.2039075    142.61868  0.032034744  0.032599509            1 
  372000    1.1687573   -7.2173966    142.48733  0.031919204  0.032597213            2 
  373000    1.2046649   -7.1678165    143.01209  0.031950868  0.032594226            1 
  374000    1.2203857   -7.2067834    143.12643  0.031890916  0.032590857            2 
  375000     1.168414   -7.2279358    143.48235  0.031884966  0.032588069            2 
  376000    1.1778295   -7.1819999    144.04522  0.031924916  0.032585057            1 
  377000    1.1767275   -7.2440058    144.12968  0.031858904  0.032581927            1 
  378000    1.1825473   -7.1993561     144.6102  0.031880556   0.03257774            2 
  379000    1.1695828   -7.1946041    145.20282  0.031926742  0.032574804            1 
  380000    1.2068897   -7.2204144    145.86169  0.031987212  0.032572434            2 
  381000    1.2082256   -7.1714068    146.63116  0.032071556  0.032571033            1 
  382000    1.1793272   -7.2039976    146.78497  0.032021153  0.032569885            1 
  383000    1.1882658   -7.1844128    146.87173  0.031956424  0.032567306            3 
  384000    1.1922447   -7.1977026    146.82275  0.031862576  0.032564546            1 
  385000    1.1705882   -7.1491536    147.23485  0.031869016  0.032561674            3 
  386000    1.2007516   -7.2013223    147.61963  0.031869522  0.032558351            1 
  387000    1.1974318   -7.2221577    147.83313  0.031833146  0.032554371            2 
  388000    1.2141836   -7.1731466    148.09319  0.031806956  0.032550102            1 
  389000    1.1607135   -7.2080128     148.1935   0.03174668  0.032545525            1 
  390000    1.1908556   -7.2231085    148.16908  0.031660059  0.032539849            3 
  391000    1.1883577   -7.1976075    148.96513  0.031748748  0.032535027            2 
  392000    1.1667827   -7.2034032    149.58324  0.031799158  0.032530368            1 
  393000    1.1692606   -7.2291319    150.10386  0.031828639  0.032526035            1 
  394000    1.1909775    -7.211184    150.25461   0.03177974  0.032521414            1 
  395000    1.1927199   -7.1941166    151.01393  0.031859479  0.032517341       -1e+20 
  396000    1.2030778    -7.274821    150.63708  0.031699721  0.032512792            2 
  397000    1.2045454   -7.1918803    152.33889  0.031977098  0.032508785            3 
  398000    1.1821877   -7.1878303    152.15122  0.031857458  0.032505618            1 
  399000    1.1704823   -7.1848968    152.64378  0.031880489  0.032503173            2 
  400000    1.1651745   -7.2355202    153.13563  0.031903256  0.032500662            1 
  401000    1.1685484   -7.1811869    153.64732  0.031930034  0.032497934            1 
  402000    1.1782851   -7.1916808    154.43212  0.032013292  0.032495598            2 
  403000    1.1628848    -7.203493    154.96389  0.032043815  0.032493783            2 
  404000     1.169807   -7.2495615    153.93057  0.031751356  0.032491067            2 
  405000    1.1967891   -7.2314369    154.99292  0.031891548  0.032487948            2 
  406000    1.1856989   -7.1788762    155.01035  0.031816574  0.032484349            1 
  407000    1.1979911    -7.214088    155.22666  0.031782689  0.032480127            2 
  408000     1.173765   -7.2264793    155.47819  0.031756166  0.032475425            3 
  409000    1.1622884   -7.2368342    155.47489   0.03167785   0.03247071            1 
  410000    1.2007491   -7.2188525    156.05869  0.031719247  0.032465315            2 
  411000    1.1804426   -7.2200548    156.47363  0.031726202  0.032459591            1 
  412000     1.172989   -7.2134767     156.8102  0.031717273  0.032454981            2 
  413000    1.2090983   -7.2429618    157.26726    0.0317327  0.032449652            1 
  414000    1.1838276   -7.2134783    157.77287  0.031757823  0.032444545            2 
  415000    1.1951692   -7.2051502    157.57576  0.031641719  0.032438745            2 
  416000    1.1663704   -7.1848757    158.45933  0.031742654    0.0324339            1 
  417000    1.1606663   -7.1596541    159.13225  0.031801008  0.032428721            1 
  418000    1.1958003   -7.1968699    159.35298  0.031768935   0.03242411            3 
  419000    1.1474017   -7.2520654    159.40711   0.03170388  0.032419731            1 
  420000    1.1725569   -7.2186965     159.6172   0.03167008  0.032414643            1 
  421000    1.2033546   -7.2104155    160.07861  0.031686185  0.032409286            6 
  422000    1.1925587   -7.2106198    160.18551   0.03163221  0.032403947            2 
  423000    1.1787778   -7.2113568    160.55693    0.0316306  0.032397651            1 
  424000    1.1943226   -7.2602549    161.02148  0.031647303  0.032391607            1 
  425000    1.1683736   -7.1883573    161.64166  0.031694442  0.032385985            2 
  426000    1.1740755   -7.2231775    161.74215    0.0316397   0.03238069            3 
  427000    1.1727074   -7.2154485    161.46938  0.031512369  0.032375185            2 
  428000    1.1687594   -7.2162617     162.2912  0.031598753  0.032368784            1 
  429000    1.2092558   -7.2613967    162.64059  0.031592965  0.032363307            2 
  430000    1.1679596   -7.2373717     163.1485  0.031617926  0.032357903            1 
  431000    1.1808366   -7.2323239     164.0611  0.031721017  0.032352405            1 
  432000    1.1934178   -7.2087311    164.07269  0.031649824  0.032347868            3 
  433000    1.2073624   -7.1951431    164.40392  0.031640477  0.032342927            2 
  434000    1.2048659   -7.2330558    164.33658  0.031554642  0.032337443            2 
  435000    1.1939356   -7.1948343    165.25937  0.031658884  0.032331905            1 
  436000    1.1731265   -7.2325835    164.87865  0.031513503    0.0323264            1 
  437000    1.1684502   -7.2197844    165.79472   0.03161608  0.032319925            1 
  438000     1.184289   -7.2074681    166.30342   0.03164068  0.032313823            1 
  439000     1.208733   -7.1972467    166.71226  0.031646214  0.032307763            1 
  440000    1.2109889   -7.2047894    166.33243  0.031502355  0.032301551            1 
  441000    1.1775518   -7.2847971    166.14194  0.031394924  0.032294537            1 
  442000    1.2005984   -7.2229954    167.08351  0.031501415  0.032287987            2 
  443000     1.186115   -7.1952987     168.2185  0.031643811  0.032282657            2 
  444000    1.1950939   -7.2564134    167.74594  0.031483847   0.03227742            1 
  445000    1.1907137   -7.2370331    168.69384  0.031590607  0.032272177            1 
  446000    1.1911881   -7.2217708     169.2896  0.031631092  0.032266876            1 
  447000    1.1869203   -7.2294711    169.19732  0.031543124  0.032261853            2 
  448000    1.1658078   -7.1745935    169.98226  0.031618725  0.032257056            1 
  449000     1.192207   -7.2534312    169.80226  0.031514896  0.032251471            2 
  450000    1.1826979   -7.2605128    170.19521  0.031517632  0.032246043            2 
  451000    1.1928174   -7.2574356    171.20621  0.031634555  0.032240756            1 
  452000     1.169139   -7.2462535    171.31939  0.031585434  0.032236171            1 
  453000    1.1923116   -7.2396172     171.9911  0.031639275  0.032231615            1 
  454000    1.1986577   -7.2186739    172.25424  0.031617885  0.032226888            1 
  455000    1.1771256   -7.2469852    172.22572  0.031543172  0.032221907            1 
  456000    1.1495922   -7.2427717    172.32417   0.03149199  0.032216044            1 
  457000    1.1662652   -7.2447747    172.69082  0.031489938  0.032209763            1 
  458000    1.1843087   -7.2458262    171.95478  0.031287261  0.032203201            2 
  459000    1.1638744   -7.2424442    172.83322  0.031378581  0.032196632            1 
  460000     1.206914   -7.2543442    173.39695  0.031412492  0.032190002            2 
  461000    1.1891712   -7.2196289     173.3544   0.03133666  0.032182727            2 
  462000    1.1833227   -7.2270059    173.85023  0.031358266  0.032175848            1 
  463000    1.1877315   -7.2419946    174.36387  0.031382986  0.032168249            2 
  464000    1.1531826   -7.2366421    174.29085  0.031302235   0.03216044            1 
  465000    1.1723712   -7.2442622    174.50168  0.031272703  0.032152499            1 
  466000    1.1655064   -7.2273718    174.82685  0.031263743  0.032142991            3 
  467000    1.1687497   -7.2427035    174.71682  0.031177163  0.032133665            4 
  468000     1.178853   -7.2672768    174.82883  0.031130489  0.032124219            2 
  469000    1.1668893   -7.1875806    176.08859  0.031287951  0.032115343            2 
  470000     1.179044   -7.2104267    176.17294  0.031236338  0.032106178            1 
  471000    1.1642567   -7.2120127    176.83196  0.031286617  0.032097738            1 
  472000    1.1494694   -7.2149148    176.59532  0.031178552  0.032089437            3 
  473000    1.1669998    -7.235593    177.42578  0.031258946   0.03208056            1 
  474000    1.1739603   -7.2250396    177.46703  0.031200251  0.032072885            1 
  475000    1.1862839   -7.2547089    177.84787   0.03120138  0.032064602            4 
  476000    1.1775437    -7.214154      178.457  0.031242472   0.03205715            1 
  477000    1.1945774   -7.2602353    179.47009  0.031353963  0.032049877            1 
  478000    1.1753991   -7.2585066    179.45616  0.031285942  0.032042791            1 
  479000    1.1638033   -7.2243053    180.86432  0.031465609   0.03203681            1 
  480000     1.174206   -7.2431023    180.81828  0.031392063  0.032031207            2 
  481000    1.1848348   -7.1898975    181.96354  0.031525215  0.032025992            1 
  482000    1.1826966   -7.2031782    180.96477  0.031287132  0.032019937            1 
  483000     1.188812   -7.2592483      181.898  0.031383368  0.032013962            1 
  484000    1.1599011   -7.2706268    181.62875  0.031272167  0.032007812            1 
  485000    1.1723337   -7.2613655    182.07175  0.031283806  0.032000935            1 
  486000    1.1823612   -7.2265031    182.23102  0.031246746  0.031994161            1 
  487000    1.1812815   -7.2124208    182.89771  0.031296664  0.031986852            1 
  488000    1.1712049   -7.2710707    182.37939  0.031144022  0.031979157            2 
  489000      1.17535   -7.2307391    183.28686  0.031234979  0.031971825            1 
  490000     1.165359   -7.2558585    183.94853  0.031283764  0.031964715            2 
  491000    1.1422768   -7.2230399    183.80967  0.031196482  0.031956855            1 
  492000    1.1723188   -7.2585791    183.63557  0.031103585  0.031948938            1 
  493000    1.1618091   -7.2191178    184.01808  0.031105152  0.031941115            2 
  494000    1.1660201   -7.2377272    184.66589  0.031151466  0.031933017            3 
  495000    1.1882473   -7.2865651    185.06744  0.031156135  0.031925049            1 
  496000    1.1796128   -7.2874961    184.87305  0.031060661  0.031916817            2 
  497000    1.1823517   -7.2399196    185.53189  0.031108634  0.031908252            3 
  498000    1.1794801    -7.262576    185.72315   0.03107817   0.03189954            2 
  499000    1.1875273    -7.228451    186.69549  0.031178271   0.03189123            2 
  500000    1.1826953   -7.2358664    186.42991  0.031071651  0.031883238            1 
  501000    1.1608636   -7.2386651    187.16816  0.031132429  0.031875898            3 
  502000    1.1615317   -7.2027118    187.93811  0.031198226  0.031868177            2 
  503000    1.2015631   -7.2046865    187.72688  0.031101207  0.031860795            1 
  504000    1.1751758   -7.2540959    188.18355  0.031115005  0.031852826            3 
  505000    1.1664489   -7.2421603    188.81773  0.031158041  0.031845836            2 
  506000    1.1587379   -7.2053918    189.14656  0.031150618  0.031838548            2 
  507000    1.1807455   -7.2541959    189.25298   0.03110667  0.031830786            2 
  508000    1.1764874   -7.2573718    190.54867  0.031257984  0.031823471            1 
  509000    1.1239488   -7.2191961     191.0966   0.03128628  0.031817429            1 
  510000    1.1487685   -7.2353303    190.60517  0.031144636  0.031811635            1 
  511000    1.1805574   -7.2232335    190.62172  0.031086387  0.031805095            1 
  512000    1.1907811   -7.2625804    191.52865  0.031173283  0.031798725            1 
  513000     1.174684   -7.2429506    191.64208  0.031130942  0.031791934            1 
  514000     1.184551    -7.252672    191.53391  0.031052839  0.031784835            2 
  515000      1.18869   -7.2481607    191.89378  0.031050774  0.031777368            1 
  516000    1.1764147   -7.3165392    191.77982  0.030972192   0.03177008            2 
  517000    1.1674346      -7.2766    192.54192  0.031035125  0.031762909            1 
  518000    1.1657119     -7.27538    192.74819  0.031008397  0.031755849            2 
  519000    1.1750246   -7.2488596    194.05323  0.031158194   0.03174852            1 
  520000    1.1554938   -7.2608768    194.01703  0.031092472  0.031741689            2 
  521000    1.1688573   -7.2181034    194.11401  0.031048307  0.031734478            2 
  522000     1.167744   -7.2534052    194.50335  0.031050982  0.031728045            2 
  523000    1.1919296   -7.2870264    195.50584  0.031151345  0.031721652            2 
  524000    1.1729242   -7.2544705    195.26932  0.031054281  0.031714984            1 
  525000    1.1730394   -7.2243496    196.67448  0.031218172  0.031708653            1 
  526000    1.1760432   -7.2416255    197.35335  0.031266374   0.03170334            4 
  527000    1.2239222   -7.2174044    196.70713   0.03110486  0.031698001            1 
  528000    1.1568431   -7.2344389    197.66924  0.031197797  0.031692766            1 
  529000     1.172596   -7.2700789    197.84236  0.031166093   0.03168702            1 
  530000    1.1894208   -7.3121734    197.14622  0.030997833  0.031680952            1 
  531000    1.1732889   -7.2729996    198.24539  0.031111957    0.0316752            3 
  532000    1.1737679   -7.2630088    198.72826  0.031129114  0.031669468            2 
  533000    1.1624253   -7.2472803    198.90267  0.031097979  0.031663231            3 
  534000    1.1719449   -7.2819299    198.41853   0.03096419  0.031656518            1 
  535000    1.1506883   -7.2314454    199.85145  0.031129509  0.031650673            4 
  536000    1.1347637   -7.2177892     200.3256   0.03114515  0.031645671            1 
  537000    1.1425221    -7.247261    200.01441   0.03103886  0.031639974            1 
  538000    1.1498234   -7.2973499      200.647  0.031079151  0.031634372            3 
  539000    1.1665228   -7.2911394    200.24067  0.030958668  0.031628812            2 
  540000    1.1659718   -7.2563176    202.09658  0.031187744  0.031623629            2 
  541000    1.1452228   -7.2674168    201.92364  0.031103456  0.031618324            1 
  542000    1.1753816   -7.3242451    201.70464  0.031012399  0.031612997            2 
  543000    1.1529263   -7.2644652    202.09562  0.031015289  0.031607777            2 
  544000     1.182474   -7.2834075    203.25478  0.031135843  0.031602197            2 
  545000    1.1675372   -7.2211083    203.62465  0.031135268  0.031596623            1 
  546000    1.1624875   -7.2906456    203.37462  0.031040082  0.031591175            1 
  547000    1.1568999   -7.2864511    203.61164  0.031019446  0.031585176            1 
  548000    1.1687619   -7.2678507    203.71677  0.030978827  0.031578977            1 
  549000    1.1703545   -7.2459266    204.02024  0.030968463  0.031572174            3 
  550000    1.1414234    -7.288708    204.55144  0.030992642  0.031565714            1 
  551000    1.1381224   -7.2581675    205.05149  0.031012022  0.031558946            2 
  552000    1.1513614   -7.2839686    205.53531  0.031028881  0.031552068            4 
  553000    1.1512738   -7.2547028    205.55374  0.030975548   0.03154536            3 
  554000    1.1761687   -7.2427109    205.75608  0.030950072  0.031538594            1 
  555000    1.1533343   -7.2324232     206.0254  0.030934745  0.031531682            3 
  556000    1.1407516    -7.309532    206.63491   0.03097046  0.031525054            3 
  557000    1.1992115   -7.2425882     207.3466  0.031021335   0.03151959            2 
  558000    1.1771957    -7.245077    207.58743  0.031001707  0.031513382            2 
  559000    1.1386286   -7.2526808    207.95761  0.031001432  0.031507658            1 
  560000    1.1892165   -7.2920167     207.3075   0.03084933  0.031501925            1 
  561000    1.1483571   -7.2946463    207.54819  0.030830093  0.031495269            2 
  562000    1.1655071   -7.2709957    208.49357  0.030915417  0.031489072            2 
  563000    1.1563104   -7.2575179    209.21644  0.030967501  0.031482708            2 
  564000     1.153179   -7.3217034    208.72451   0.03083991  0.031476201            1 
  565000    1.1281901   -7.3185222    209.06891  0.030836123   0.03146941            1 
  566000    1.1745271   -7.2650398     209.8369  0.030894714  0.031462798            3 
  567000    1.1995173   -7.2947641    209.83122  0.030839392   0.03145634            2 
  568000    1.1667432   -7.2620692    210.15677  0.030832859  0.031449936            1 
  569000    1.1935421   -7.2550637    211.39906  0.030960613  0.031443522            4 
  570000    1.1588139   -7.2643959    211.55246  0.030928722  0.031437244            3 
  571000    1.1623285   -7.2689165    211.68378  0.030893722  0.031431051            2 
  572000    1.1381019   -7.2375171    212.24881  0.030922029  0.031424925            2 
  573000    1.1610505   -7.2672682    213.25026  0.031013708  0.031419441            2 
  574000    1.1733931   -7.2713431    212.47193   0.03084668  0.031413802            3 
  575000    1.1434037   -7.2310583    214.00941  0.031015857  0.031408445            2 
  576000    1.1596702   -7.2731362    214.44943   0.03102567  0.031403081            2 
  577000    1.1709664   -7.2108928    215.51709  0.031126096  0.031398077            2 
  578000    1.1461537   -7.2474255    215.23129  0.031031039  0.031393051            1 
  579000    1.1516757   -7.2896449    214.86201  0.030924296  0.031388162            3 
  580000    1.1274073    -7.303962    214.34421  0.030796582  0.031382671            1 
  581000    1.1256774   -7.2869113    214.96193  0.030832176  0.031376574            4 
  582000    1.1376875   -7.2840316    214.60418  0.030727976  0.031369826            2 
  583000    1.1443128   -7.2898604    214.77324  0.030699434  0.031362834            1 
  584000    1.1624638   -7.3324186    214.61228  0.030623898  0.031355743            3 
  585000     1.158012    -7.280146    216.16305  0.030792457  0.031348949            2 
  586000    1.1693335   -7.3066221    215.96873  0.030712277  0.031341981            3 
  587000    1.1813221   -7.3067231    216.04061   0.03067016  0.031334492            2 
  588000    1.1629606   -7.2272921    216.99585   0.03075338  0.031327386            1 
  589000    1.1779073   -7.2720012    216.93383  0.030692392   0.03132059            2 
  590000    1.1555342   -7.2882132    217.95674   0.03078485  0.031313993            1 
  591000    1.1707995   -7.3239933    217.98372  0.030736565  0.031307467            1 
  592000    1.1541438   -7.2824681    217.73033  0.030648976  0.031300656            2 
  593000    1.1578241   -7.2972772    217.76058  0.030601543  0.031293852            1 
  594000    1.1555555   -7.2855746    219.54827  0.030800824  0.031287414            1 
  595000    1.1273567   -7.3216499    219.09436  0.030685484  0.031280489            2 
  596000     1.161419   -7.2868298    220.23129  0.030792965  0.031273792            2 
  597000    1.1826607    -7.235923    220.28291  0.030748591  0.031267146            1 
  598000    1.1466557   -7.2606932    220.27151  0.030695583  0.031260857            1 
  599000    1.1567658   -7.2407425    221.32632  0.030791085  0.031254203            3 
  600000    1.1621793   -7.2903059    222.23089  0.030865401  0.031248018            1 
  601000    1.1736517   -7.2711918    221.82632  0.030757948  0.031241751            1 
  602000    1.1335797   -7.2626791    222.86754  0.030850988  0.031236025            1 
  603000     1.165296   -7.2550666    222.75911  0.030784841  0.031230452            1 
  604000    1.1539384   -7.2865278    222.80586  0.030740323  0.031224657            1 
  605000    1.1423556   -7.3265421    222.12339  0.030595508  0.031217851            1 
  606000    1.1632581   -7.2762087     223.3333  0.030711399  0.031211111            3 
  607000    1.1673421   -7.3045793     222.9827  0.030612671  0.031204109            1 
  608000     1.180304   -7.2614071    223.96179  0.030696517  0.031198011            2 
  609000    1.1475455   -7.2962426    223.73762  0.030615438  0.031191835            2 
  610000    1.1578867   -7.2745636    224.73225  0.030701127  0.031185782            1 
  611000    1.1240817    -7.287963    224.90693  0.030674705  0.031179283            3 
  612000    1.1369072   -7.3005685    224.72737  0.030600132  0.031172574            1 
  613000    1.1416156   -7.2873693    225.12305  0.030604004  0.031165758            4 
  614000     1.161131   -7.2963345    224.94316  0.030529744  0.031158645            1 
  615000    1.1640617   -7.2564235    225.69519  0.030582004  0.031151572            1 
  616000    1.1616367   -7.2781594    225.71922  0.030535609  0.031144625            3 
  617000    1.1371397    -7.277706    227.01467  0.030661084  0.031137572            1 
  618000    1.1540301   -7.3227473    226.95523  0.030603456  0.031130619            1 
  619000    1.1621211   -7.3348647    226.00791  0.030426483  0.031123537            1 
  620000    1.1594667   -7.2543681    227.06189  0.030519071  0.031116228            1 
  621000    1.1592335   -7.2465856     228.3425  0.030641774  0.031109312       -1e+20 
  622000    1.1426645   -7.3202566    227.84019  0.030525212  0.031102676            2 
  623000    1.1563718   -7.3200353    228.27529  0.030534416  0.031096001            2 
  624000    1.1300434   -7.2968974    229.05596  0.030589738   0.03108929            2 
  625000    1.1583457   -7.3081176    228.32321  0.030443095  0.031082222            1 
  626000    1.1630679   -7.3345515    227.90579  0.030338897  0.031074524            3 
  627000    1.1426506    -7.298883    227.89969  0.030289698  0.031066899            3 
  628000    1.1557434   -7.3018288     229.7347  0.030484965  0.031059194            2 
  629000    1.1488422   -7.2904181     229.2478  0.030371993  0.031051266            3 
  630000    1.1368952   -7.3072426    230.43181  0.030480399  0.031043134            1 
  631000    1.1553022   -7.3139079    229.80499  0.030349311  0.031035682            2 
  632000    1.1246848   -7.2966509    230.28316   0.03036434  0.031027655            3 
  633000    1.1466187   -7.2804765    231.17612  0.030433929  0.031019615            3 
  634000    1.1482989    -7.257027    230.68258  0.030321054  0.031011222            1 
  635000      1.14091   -7.2891262    231.58969  0.030392348  0.031003202            2 
  636000     1.136172   -7.3407621    232.44943   0.03045721  0.030995507            1 
  637000    1.1397224   -7.2784544    232.43836  0.030407949  0.030988106            2 
  638000    1.1619355   -7.2900714    232.05983  0.030310845  0.030980197            1 
  639000    1.1399197   -7.2712527    232.61312  0.030335566  0.030972252            1 
  640000    1.1355494   -7.3299769    232.70657  0.030300335  0.030964077            2 
  641000    1.1380133   -7.3072328    233.02343  0.030294258  0.030956035            1 
  642000    1.1704269   -7.3025524    233.37189  0.030292301  0.030948338            2 
  643000    1.1476185   -7.2860038    234.99964  0.030456148  0.030941029            2 
  644000    1.1544969   -7.2670748    235.07424  0.030418509  0.030933719            2 
  645000    1.1555637   -7.3155004    234.74488  0.030328796  0.030926757            2 
  646000    1.1291037    -7.290269    235.22252  0.030343463   0.03091925            2 
  647000    1.1355309   -7.2911963     235.3024  0.030306852    0.0309122            1 
  648000    1.1566034   -7.3220988     236.1732  0.030372068  0.030905229            1 
  649000    1.1415484   -7.3075333    236.78044  0.030403241  0.030898588            1 
  650000    1.1572523   -7.3056128    236.18965  0.030280725  0.030891716            2 
  651000    1.1725171    -7.314933    237.03158  0.030341984   0.03088485            1 
  652000    1.1509425   -7.3149622    237.97018  0.030415411  0.030877557            1 
  653000    1.1292236   -7.3054687    237.81707  0.030349295  0.030870297            2 
  654000    1.1460688   -7.3246153    238.11037  0.030340261  0.030863613            2 
  655000    1.1454105   -7.3075339    238.46187   0.03033866  0.030856833            1 
  656000    1.1664696   -7.2721253    238.82613  0.030338685  0.030849646            2 
  657000    1.1504323    -7.296675    238.98956  0.030313237  0.030842951            2 
  658000     1.145273   -7.2787404    240.33767  0.030437902  0.030836302            1 
  659000    1.1357648   -7.3343928    239.75326  0.030317812   0.03082963            1 
  660000     1.124317   -7.3457669    239.31523  0.030216569  0.030823292            1 
  661000    1.1471245   -7.3328485    240.33394  0.030299287  0.030817035            2 
  662000    1.1043278   -7.3062187    241.10167   0.03035016  0.030810545            1 
  663000     1.143033   -7.3153943    241.13471  0.030308536  0.030804234            1 
  664000    1.1345768   -7.3343998     241.2522  0.030277636  0.030797949            1 
  665000    1.1350262   -7.3375903    242.15021  0.030344638  0.030791525            1 
  666000    1.1546499   -7.2975994    241.60761  0.030231183  0.030785109            1 
  667000    1.1506725   -7.3376166    242.38354  0.030282801  0.030778661            1 
  668000    1.1433838   -7.3483774    243.03828  0.030319147   0.03077203            2 
  669000    1.1342432   -7.2984382    243.82653  0.030372014  0.030765666            1 
  670000     1.097873   -7.2787013    244.27543  0.030382516  0.030759798            2 
  671000    1.1431554   -7.2875204     244.5853   0.03037572  0.030753569            1 
  672000    1.1594285   -7.3311633    245.09889  0.030394208   0.03074795            3 
  673000    1.1403429   -7.3300129     244.6699  0.030295926  0.030742222            3 
  674000    1.1617504   -7.3318118    244.63925  0.030247187  0.030736414            1 
  675000    1.1579146   -7.3271463    245.24201  0.030276791  0.030730356            1 
  676000    1.1296551   -7.3042338    246.50003  0.030387085  0.030724197            3 
  677000    1.1614002   -7.2742157    246.63059  0.030358271   0.03071827            1 
  678000    1.1519752   -7.2845466    247.15619  0.030378095  0.030712394            1 
  679000    1.1357868   -7.3175408    247.14165  0.030331573  0.030706687            3 
  680000    1.1413894     -7.28301    246.94248  0.030262559  0.030700743            1 
  681000    1.1442755   -7.3257744    246.79744  0.030200372  0.030694592            1 
  682000    1.1295111   -7.3356424    247.08401  0.030191106  0.030688209            2 
  683000    1.1547004   -7.2936873     247.6038  0.030210322  0.030681564            2 
  684000    1.1489838   -7.3038613    248.67733  0.030296946  0.030675709            1 
  685000    1.1550944   -7.3278628    249.44472  0.030346072  0.030669864            2 
  686000    1.1377107   -7.3525585    249.37747  0.030293668   0.03066437            5 
  687000    1.1250557   -7.3196402    249.78299  0.030298762  0.030659189            1 
  688000    1.1390473   -7.3282212    250.46094  0.030336839  0.030653787            3 
  689000    1.1531985   -7.3316698    250.98393  0.030356063  0.030648268            2 
  690000    1.1635354   -7.3264278      250.367   0.03023756  0.030642574            2 
  691000    1.1259772   -7.3620819    249.89178  0.030136491  0.030636319            1 
  692000    1.1668584   -7.3778398    250.64752   0.03018395  0.030629884            1 
  693000    1.1544061   -7.3305138    251.37125  0.030227423  0.030623784            3 
  694000     1.143238   -7.3426761    250.68362    0.0301013  0.030617878            1 
  695000    1.1370443   -7.3282908    251.17956  0.030117454  0.030611792            3 
  696000    1.1520244   -7.2998515     252.6071  0.030245103  0.030605551            1 
  697000    1.1520019   -7.3324747    252.85439  0.030231276  0.030599601            4 
  698000    1.1530274   -7.3387371    251.69123  0.030049096  0.030593415            1 
  699000    1.1299088   -7.2837424    253.98857  0.030279992  0.030587483            1 
  700000    1.1556592   -7.3450694    252.69895  0.030083208  0.030581449            2 
  701000     1.118826   -7.3292724    253.19136   0.03009883  0.030575347            2 
  702000    1.1430996   -7.2706044    254.48594  0.030209632  0.030569263            2 
  703000    1.1181415   -7.2869934    254.98219  0.030225485   0.03056335       -1e+20 
  704000    1.1391891   -7.3198464    254.72564  0.030152183  0.030557471            1 
  705000    1.1483975   -7.3129332    255.24638  0.030170967  0.030551416            1 
  706000    1.1359099   -7.3057659    255.22132  0.030125274  0.030545668            1 
  707000    1.1419168   -7.2991485    256.50418  0.030233873  0.030539446            2 
  708000    1.1473501   -7.3074914    256.30992  0.030168305  0.030533567            1 
  709000    1.1203796   -7.3306816    255.66271  0.030049684  0.030527522            2 
  710000     1.142925    -7.293496    256.63776  0.030121803  0.030521464            1 
  711000    1.1511077   -7.3446937    256.42625  0.030054647  0.030515228            2 
  712000    1.1525092   -7.3134023    257.67859  0.030159011  0.030508711            2 
  713000    1.1366118   -7.3011327    257.87752  0.030139963  0.030502163            3 
  714000    1.1407605   -7.2692692    258.09387     0.030123  0.030495676            2 
  715000    1.1497034   -7.2832725    257.25183   0.02998273  0.030489241            1 
  716000    1.1533131   -7.3478844    257.50676  0.029970526  0.030482611            2 
  717000    1.1715527   -7.3226469    257.86888  0.029970814  0.030475715            2 
  718000    1.1415546   -7.2585531    259.82011  0.030155537  0.030469242            1 
  719000    1.1418153   -7.3338131    258.23189  0.029929519  0.030462523            1 
  720000    1.1193495   -7.3613748    259.15275  0.029994532  0.030455642       -1e+20 
  721000    1.1445372   -7.3457815    259.86457  0.030035202  0.030449204            2 
  722000    1.0994108     -7.35569    261.21039  0.030148936  0.030443888            5 
  723000    1.1472611   -7.2879913    261.61813  0.030154234  0.030438093            2 
  724000    1.1530672   -7.3186202     262.1012  0.030168186   0.03043249            3 
  725000    1.1398076   -7.3119417    261.45041  0.030051771  0.030426579            2 
  726000    1.1312012   -7.2832756    262.21159  0.030097749  0.030420567            2 
  727000    1.1235702   -7.3494706    262.16048   0.03005049  0.030414263            5 
  728000    1.1496681    -7.359771    261.98201  0.029988783   0.03040774            2 
  729000    1.1301294   -7.3809864    261.53095  0.029896085   0.03040142            2 
  730000     1.142845   -7.3619346    262.48953  0.029964558  0.030395071            3 
  731000    1.1727317   -7.3468818    262.29271   0.02990113  0.030388358            1 
  732000    1.1475444   -7.3607656    263.21715  0.029965523  0.030381731            1 
  733000    1.1336924   -7.3530745    263.38373   0.02994358  0.030375089            1 
  734000    1.1363697   -7.3655411    263.32102  0.029895666  0.030368409            2 
  735000    1.1347032   -7.3266692     264.3079  0.029966882  0.030361717            1 
  736000    1.1281724   -7.3190663    264.88599   0.02999162  0.030355232            1 
  737000    1.1179479   -7.3150249    264.75358  0.029935954  0.030348878            2 
  738000    1.1170395   -7.3431253    264.53719  0.029870956  0.030342759            3 
  739000    1.1244705   -7.3121128    265.16829  0.029901701    0.0303363            1 
  740000    1.1499504   -7.3201314    265.73637  0.029925267   0.03032987            2 
  741000    1.1343551   -7.3530506    266.03166  0.029918091  0.030323869            3 
  742000    1.1399952   -7.3469386    266.22222  0.029899172  0.030317718            4 
  743000    1.1407374   -7.3584991    267.61014  0.030014596  0.030311565            4 
  744000    1.1356751   -7.3762516    266.08796  0.029803759  0.030305564            2 
  745000    1.1227467   -7.3266617    267.56368  0.029928824  0.030299331            4 
  746000    1.1421969   -7.3492767     267.0714  0.029833713  0.030292974            1 
  747000    1.1294456   -7.3317501    267.26595  0.029815479  0.030286672            2 
  748000    1.1286914   -7.3507567    268.33775  0.029895025  0.030280429            1 
  749000    1.1075735   -7.3528455    269.01807  0.029930805  0.030274476            1 
  750000    1.1220939   -7.3206196    268.81188  0.029867987  0.030268642            1 
  751000    1.1139719   -7.3388412    269.31852  0.029884434  0.030262277            1 
  752000    1.1085892   -7.3096962    269.52328  0.029867385  0.030255859            2 
  753000    1.1499103   -7.3759778     269.5412  0.029829704  0.030249202            1 
  754000     1.127437   -7.3435137    270.35711  0.029880317  0.030242306            1 
  755000    1.1458057   -7.3467857    269.92356  0.029792888  0.030235585            4 
  756000    1.0980693   -7.3385854    270.61345  0.029829525  0.030228845            2 
  757000    1.1238904   -7.3356186    270.38482  0.029764952  0.030222059            2 
  758000    1.1199651   -7.3128655    271.11067  0.029805483  0.030214996            2 
  759000    1.1126243   -7.3663907    270.68778  0.029719783  0.030207961            2 
  760000    1.1420887   -7.3423685    270.25507  0.029633231  0.030200733            1 
  761000    1.1239748   -7.3643645    270.49167    0.0296202   0.03019299            1 
  762000    1.1218493   -7.3332082    271.15857  0.029654262   0.03018531            4 
  763000    1.1566592    -7.340401    271.19706  0.029619601  0.030177886            3 
  764000    1.1269035   -7.3480742    272.05258  0.029674147  0.030170487            5 
  765000     1.124325   -7.3581147    271.92244  0.029621181  0.030162963            4 
  766000    1.1360483   -7.3676538    272.81177  0.029679261  0.030156009            1 
  767000    1.1225698   -7.3777201    272.12225   0.02956565  0.030148576            2 
  768000    1.1426645   -7.3505788    272.28328  0.029544627  0.030141008            1 
  769000    1.1180257     -7.29401    273.53301  0.029641635  0.030133236            3 
  770000    1.1443099   -7.3873597    272.51102  0.029492534  0.030125128            2 
  771000    1.1468383   -7.2964978    274.01929  0.029617303   0.03011701            2 
  772000    1.1252882   -7.3357995    274.11523  0.029589295  0.030109119            1 
  773000     1.089431   -7.3798358    272.42386  0.029368678  0.030100641            2 
  774000    1.1490137   -7.3462934    273.58201  0.029455428  0.030092408            1 
  775000    1.1021337   -7.3621294    273.74061  0.029434474  0.030083998            2 
  776000    1.1334041   -7.3608529    273.76841  0.029399529  0.030075372            3 
  777000    1.1301802   -7.3427595    274.96293  0.029489804  0.030066625            1 
  778000    1.1306273   -7.3301728    274.42543  0.029394326  0.030058053            2 
  779000    1.1190899   -7.3417273     274.8237  0.029399197  0.030049341            2 
  780000    1.1310612   -7.3615995     274.9795  0.029378152  0.030040762            3 
  781000    1.1298826   -7.3435046    274.72786  0.029313685   0.03003209            1 
  782000    1.1382132   -7.3925586    275.26657  0.029333607  0.030023282            5 
  783000    1.1270675   -7.3553539     274.8642   0.02925332   0.03001438            1 
  784000    1.1521271   -7.3511606    276.17565  0.029355404   0.03000546            2 
  785000    1.1210757   -7.3744679    276.40373  0.029342222    0.0299965            1 
  786000    1.1310375   -7.3401297    276.47885  0.029312856  0.029987676            1 
  787000    1.1268479   -7.3622859     276.3131  0.029258058  0.029978884            1 
  788000    1.1250721   -7.3588943    276.72052  0.029264014  0.029969927            2 
  789000    1.1008674   -7.3587138    277.26669   0.02928461  0.029960993            5 
  790000    1.1166602   -7.3283396    278.07151  0.029332438  0.029952129            1 
  791000    1.1349434   -7.3239848    277.90528  0.029277842  0.029943107            2 
  792000    1.1266076   -7.3635267    278.18221  0.029270014   0.02993405            2 
  793000     1.134487   -7.3559082    277.90429  0.029203898  0.029925025            3 
  794000    1.1049212   -7.3362254     278.5161  0.029231329  0.029915891            1 
  795000    1.1246773   -7.3552997    278.47617  0.029190374  0.029906604            2 
  796000    1.1084261   -7.3821137    277.87854  0.029091136  0.029897105            2 
  797000    1.1109944    -7.331178    279.24041  0.029197032  0.029887835            1 
  798000    1.1365217   -7.3062665    280.68744  0.029311554  0.029878901            2 
  799000    1.1337936   -7.3444667    279.23806  0.029123702  0.029869913            2 
  800000     1.118094   -7.3490795    279.66194  0.029131452  0.029860606            2 
  801000    1.1166594   -7.3210596    280.51466  0.029183797  0.029851518            1 
  802000    1.1230092    -7.355701    281.01426  0.029199321  0.029842426            1 
  803000    1.1418757   -7.3192192     280.6463  0.029124772  0.029833183            1 
  804000    1.1136783   -7.3792727    280.60281  0.029084039  0.029823958            1 
  805000    1.1362978   -7.4274509    279.97094  0.028982498  0.029814313            1 
  806000    1.1301465   -7.3612471    281.54645  0.029109434  0.029805029            1 
  807000    1.1308255   -7.3134825    281.81931  0.029101539  0.029795808            2 
  808000    1.1206614   -7.3541464    281.54039  0.029036756  0.029786525            1 
  809000    1.1087835   -7.3419071    282.31116   0.02908026  0.029777166            3 
  810000    1.1328936   -7.3680457     282.2466  0.029037716  0.029767638            1 
  811000    1.1381703    -7.320512    283.72471  0.029153792  0.029758269            2 
  812000    1.1245008   -7.3698352    283.14892  0.029058797  0.029749167            1 
  813000    1.1334339    -7.367071    283.80647  0.029090454  0.029740179            3 
  814000    1.1460016    -7.355768    283.62915  0.029036563  0.029731004            3 
  815000    1.0963014   -7.3131652    284.58466  0.029098636  0.029721784            2 
  816000    1.1030136   -7.3418899     284.3457  0.029038572  0.029712544            1 
  817000    1.1234245    -7.380165    282.43034  0.028807664  0.029703089            1 
  818000    1.1315544   -7.3810558    283.34441  0.028865567  0.029693361            2 
  819000    1.1272908   -7.3186881    284.15196   0.02891249  0.029683693            2 
  820000       1.1332   -7.3899726    284.17317  0.028879387  0.029674142            2 
  821000    1.1418716    -7.401774    283.40274  0.028766011  0.029664197            1 
  822000    1.1246021   -7.3691157    285.38769  0.028932247  0.029654246            2 
  823000    1.1076717   -7.3455942    284.55299  0.028812575  0.029644347            1 
  824000    1.1501401    -7.377063    285.08897  0.028831813  0.029634772            1 
  825000     1.111395    -7.358828    286.54218  0.028943655  0.029625307            3 
  826000    1.1163133   -7.3987875    285.25513  0.028778766  0.029615494            2 
  827000     1.122452   -7.3557654    286.81238  0.028900885  0.029605624            2 
  828000    1.1223934   -7.3669241    286.41583   0.02882607  0.029596032            1 
  829000    1.1051344   -7.3936419    287.49816  0.028900096  0.029586627            2 
  830000    1.1358364   -7.3703788    288.18777  0.028934515  0.029577386            3 
  831000    1.1101897   -7.3740177    288.72071   0.02895314  0.029568536            1 
  832000    1.1275928   -7.3680322    289.33636  0.028980004  0.029559707            1 
  833000    1.1261609   -7.3633305    289.46333  0.028957916  0.029551102            1 
  834000    1.1038396   -7.3551851    289.06375  0.028883268  0.029542645            2 
  835000    1.1200665   -7.3250109    290.59259  0.029001257  0.029534229            3 
  836000    1.1251429   -7.3907397    290.92881  0.029000081  0.029525746            1 
  837000    1.1179652   -7.3754838    290.96549  0.028969085  0.029517394            3 
  838000    1.1068263   -7.3922574    291.47018  0.028984704  0.029509096            5 
  839000    1.1215616   -7.3916039    291.45716  0.028948863  0.029500505            1 
  840000    1.1008779   -7.3559636    292.05879  0.028974086  0.029492425            2 
  841000    1.0980523   -7.3623134    292.20215   0.02895384  0.029484165            2 
  842000     1.120077   -7.3755488    293.13554  0.029011831  0.029476204            1 
  843000    1.1317421   -7.3905259     292.9439  0.028958471  0.029468375            2 
  844000    1.1141535   -7.3391478    293.85101  0.029013726   0.02946042            1 
  845000    1.1220671   -7.3611574    293.77368  0.028971764  0.029452611            2 
  846000    1.1051634   -7.3909293    293.62749  0.028923118  0.029444653            3 
  847000    1.1165996   -7.3956374    294.43461   0.02896838  0.029436761            1 
  848000    1.1297106   -7.3822226    295.18223  0.029007688  0.029429268            2 
  849000    1.1102732   -7.4035532    294.86031  0.028941923  0.029422003            2 
  850000    1.1088471   -7.3803748    295.25396  0.028946467  0.029414353            1 
  851000    1.1383912   -7.3957119    296.18235  0.029003363  0.029406756            2 
  852000    1.0948459   -7.3924317    296.23013  0.028973995    0.0293992            1 
  853000    1.1253426   -7.3702413    296.59193  0.028975374  0.029391858            1 
  854000    1.1326694   -7.3619701    296.75067  0.028956935  0.029384267            1 
  855000    1.1295586   -7.3846767    296.29258  0.028878419  0.029376542            4 
  856000    1.1039952   -7.3679101    297.47876   0.02896016  0.029368858            2 
  857000    1.1275361   -7.3436544    297.29392  0.028908394  0.029361062            2 
  858000    1.1231023   -7.4039636    297.04915  0.028850927  0.029353406            1 
  859000    1.1093429   -7.3889487    297.49642  0.028860732   0.02934536            3 
  860000      1.13283   -7.4046602    297.48856  0.028826411  0.029337309            1 
  861000    1.1162104   -7.3640523    297.75005  0.028818239  0.029329267            1 
  862000    1.1201809   -7.3501628    298.41069  0.028848675  0.029321009            1 
  863000    1.0927875   -7.3600426    298.20111  0.028795009  0.029312738            2 
  864000    1.0893637   -7.3480558     298.3769  0.028778636  0.029304387            1 
  865000    1.1237718   -7.3871246    298.69426   0.02877594  0.029295887            1 
  866000    1.0928471   -7.3702156      299.123  0.028783969  0.029287344            1 
  867000    1.1083123   -7.3920596    298.91611  0.028730884  0.029278853            1 
  868000     1.102475   -7.4159008    298.03323  0.028613021  0.029270221            3 
  869000    1.1109197   -7.4040724     298.1427  0.028590592  0.029261134            2 
  870000    1.1005592   -7.3581006    299.87332  0.028723498  0.029252514            1 
  871000    1.0999487   -7.3960097    299.37153  0.028642511  0.029244092            1 
  872000     1.105548   -7.3983738    299.84119  0.028654548   0.02923577            2 
  873000    1.1127498    -7.393023     300.2884  0.028664414  0.029227302            1 
  874000    1.1078456    -7.344912    301.01086  0.028700501  0.029218846            2 
  875000    1.0844388   -7.3872766    300.95438  0.028662322  0.029210582            2 
  876000    1.1206986   -7.3930446    300.92663  0.028626962  0.029202026            2 
  877000    1.1413157   -7.3700691    301.58955  0.028657311  0.029193614            1 
  878000    1.1007432   -7.3915727     301.5755  0.028623339  0.029185275            6 
  879000    1.1116647   -7.4164543    302.01925  0.028632845  0.029176805            3 
  880000    1.1229901   -7.4098311    303.03041  0.028696062  0.029168231            1 
  881000    1.1100507   -7.3887499    303.61132  0.028718437  0.029160044            1 
  882000    1.1070381   -7.3688268    303.76345   0.02870025  0.029151933            4 
  883000    1.1250201   -7.3965889    302.91551  0.028587722   0.02914389            1 
  884000    1.0886284   -7.4269656     303.5971  0.028619636  0.029135762            2 
  885000     1.100876   -7.3931265     304.1304  0.028637514  0.029127697            2 
  886000    1.1055939   -7.3630544    305.82703  0.028764769  0.029119854            2 
  887000    1.1187548   -7.4277207    304.71167  0.028627553  0.029111634            3 
  888000    1.1182997   -7.4053133    303.72742  0.028502948  0.029103718            1 
  889000    1.1111376   -7.4087964    304.93938  0.028584493  0.029095597            2 
  890000    1.1059202    -7.416848    304.63486  0.028523864  0.029087241            2 
  891000    1.1145228   -7.3925582    306.08917  0.028627868  0.029079022            1 
  892000    1.1052367    -7.383651    305.71996  0.028561282  0.029070903            5 
  893000    1.1036499   -7.3946787    305.51579  0.028510246   0.02906269            2 
  894000    1.1232522   -7.3927989    306.03576  0.028526823  0.029054482            1 
  895000    1.1005183   -7.3283185    307.18822  0.028602255  0.029045874            1 
  896000    1.1057359   -7.3915152    306.61759  0.028517261  0.029037402            1 
  897000    1.1227561   -7.3872216    307.05294  0.028525914  0.029028944            2 
  898000    1.0666451   -7.4253697    306.75466  0.028466468  0.029020411            1 
  899000    1.0938418    -7.350625    306.77847  0.028437011  0.029011623            2 
  900000    1.0928136   -7.4027513    307.53344  0.028475319  0.029003112            2 
  901000    1.0995946   -7.3619285    307.85914  0.028473838  0.028994761            2 
  902000    1.0730504   -7.3794863    308.64494  0.028514868  0.028986352            1 
  903000    1.1142535   -7.4189446    308.60074  0.028479211  0.028978178            1 
  904000    1.1113631    -7.440535    308.81796  0.028467732  0.028969742            1 
  905000    1.1126893   -7.3840891    309.36187   0.02848636  0.028961426            1 
  906000    1.1174496   -7.4322416    308.75767  0.028399345  0.028952908            2 
  907000    1.1202193   -7.4375509    307.74397  0.028274896  0.028944137            2 
  908000    1.1054546   -7.4241885    308.93262  0.028352847  0.028935387            2 
  909000    1.1272292   -7.4088967    309.49493  0.028373206  0.028926771            1 
  910000    1.1052487   -7.3780312    310.15069  0.028402078  0.028918026            3 
  911000     1.086224    -7.376226    309.95208  0.028352733  0.028909445            2 
  912000    1.0845774    -7.426848    310.05223  0.028330796  0.028901192            1 
  913000    1.0985389   -7.3886051    310.89148  0.028376367  0.028892791            1 
  914000    1.0962458    -7.392957    312.34087  0.028477468   0.02888441            1 
  915000    1.1176875   -7.3807944    311.70356  0.028388302  0.028876041            2 
  916000    1.1086085   -7.3974983    310.66142  0.028262502  0.028867563            1 
  917000    1.0902217   -7.3894225    312.18813  0.028370423  0.028858896            1 
  918000    1.0987751   -7.3746181    312.38186  0.028357104  0.028850169            1 
  919000    1.0907237   -7.4169959    311.59419  0.028254823  0.028841685            1 
  920000    1.1006026   -7.4024474    313.04845  0.028355838  0.028833373            2 
  921000    1.1058033   -7.4056866    312.64316  0.028288379  0.028825019            1 
  922000    1.1438128   -7.4325909    313.70952  0.028354078  0.028816827            1 
  923000     1.116237   -7.4591585    312.57594  0.028221013  0.028808386            1 
  924000    1.1118719   -7.4024912    314.00263  0.028319141  0.028800219            2 
  925000    1.1153526   -7.4098102    313.21572  0.028217632  0.028792077            1 
  926000    1.1081355   -7.3527033    315.33128  0.028377545  0.028784142            2 
  927000    1.0857852   -7.3859542    315.20999  0.028336029  0.028776304            2 
  928000    1.0858428   -7.4233866    315.36723  0.028319615  0.028768208            1 
  929000    1.1254959   -7.4022128    314.67637  0.028227159  0.028759936            1 
  930000    1.1192105   -7.4160522    316.11152  0.028325405  0.028751812            2 
  931000    1.0883211   -7.4242671    315.45316  0.028236051   0.02874357            2 
  932000    1.0971372   -7.4172865    316.59016  0.028307418  0.028735416            1 
  933000    1.1229385   -7.4281899    315.82687  0.028208902  0.028727395            8 
  934000    1.0985735   -7.3829932    317.33226  0.028313014  0.028719208            1 
  935000    1.1171477   -7.3958475    318.00204  0.028342428  0.028711283            2 
  936000    1.1049154    -7.419941     317.9368  0.028306339  0.028703517            1 
  937000    1.1058457   -7.3728162    318.21189  0.028300595  0.028695768            1 
  938000    1.0753806   -7.3765138    318.03131  0.028254381  0.028687808            2 
  939000     1.111612   -7.3797193    318.36394   0.02825381  0.028680164            5 
  940000     1.112189    -7.410866    319.33003  0.028309399  0.028672665            2 
  941000     1.094135   -7.3972903    320.38509   0.02837275  0.028665148            1 
  942000    1.0921769    -7.419496    319.73556  0.028285169  0.028657694            2 
  943000    1.1298827   -7.3825158     320.8548  0.028354083  0.028650341            3 
  944000     1.086554   -7.4090906    320.07137  0.028254887  0.028642936            2 
  945000    1.1085098   -7.3694066    321.07891  0.028313837  0.028635594            2 
  946000    1.1314864   -7.4223262    320.95983  0.028273417  0.028628143            1 
  947000    1.0986271    -7.449779     321.3555  0.028278379  0.028620607            1 
  948000    1.1136232   -7.4233356     321.4859  0.028260012  0.028613027            1 
  949000    1.1094728   -7.4207575    321.54639  0.028235546  0.028605847            1 
  950000     1.115594   -7.4091926    322.25291  0.028267799  0.028598475            1 
  951000    1.1190136   -7.4104154    323.55817  0.028352451  0.028591423            5 
  952000    1.0854123   -7.3663242     323.8304  0.028346499  0.028584406            1 
  953000    1.1098169   -7.4259763    323.60641  0.028297168  0.028577163            1 
  954000    1.1120912   -7.4308996    322.22322  0.028146683  0.028569723            2 
  955000    1.0732251   -7.4385979    323.27728  0.028209187   0.02856208            4 
  956000    1.1335945   -7.4287385    323.37736  0.028188403  0.028554446            1 
  957000    1.1085911    -7.402885    323.58354  0.028176902  0.028547079            2 
  958000    1.1113334    -7.409662    324.45109  0.028222955  0.028539499            1 
  959000    1.0746382   -7.4496391    323.62032  0.028121335  0.028531713            2 
  960000    1.0937888   -7.4335008    324.50353   0.02816871  0.028523891            2 
  961000    1.0960338   -7.4370189    324.55088  0.028143503  0.028516327            3 
  962000    1.1207423   -7.3789223    325.39099  0.028187023  0.028508771            2 
  963000    1.0962846   -7.4099542     325.1542  0.028137262  0.028501222            1 
  964000    1.1066113   -7.4195992    326.07326  0.028187522  0.028493763            2 
  965000    1.1142403   -7.4406108    325.87857    0.0281415  0.028486288            1 
  966000    1.0976797   -7.4347498    325.57402  0.028086095  0.028478711            1 
  967000    1.1178763   -7.4178184    326.44935  0.028132485  0.028471206            2 
  968000    1.1107626   -7.4096394    327.34191  0.028180261  0.028463951            3 
  969000    1.1007572   -7.4028773    327.29768  0.028147375  0.028456549            2 
  970000    1.0950816    -7.383763    327.64419  0.028148126  0.028449087            3 
  971000    1.1017154   -7.3738449    328.54923   0.02819681  0.028441569            1 
  972000    1.0923259   -7.4511857    327.05645  0.028039819  0.028434167            1 
  973000    1.0929196   -7.4426202    327.49237  0.028048336  0.028426548            1 
  974000    1.0909625   -7.3977284    327.11714  0.027987435  0.028418963            1 
  975000    1.1257365   -7.4300425    328.42777   0.02807075   0.02841131            2 
  976000    1.1176187   -7.4135194     328.4865  0.028047003  0.028403811            3 
  977000    1.0856027   -7.4220993    328.95704  0.028058431  0.028396387            1 
  978000    1.0956727   -7.3904626    331.17184   0.02821846  0.028389072            1 
  979000    1.0929673   -7.3780122     330.3103  0.028116301  0.028381932            1 
  980000    1.1123966   -7.4391272    330.86189  0.028134515  0.028374665            1 
  981000    1.0854028   -7.4178738     330.4231  0.028068561  0.028367414            1 
  982000    1.0815848    -7.391726    331.70795  0.028149012  0.028360049            2 
  983000     1.094875   -7.4109037    330.60295    0.0280267  0.028352372            1 
  984000    1.1012758   -7.4552893    330.76613  0.028012036  0.028344818            1 
  985000    1.0760619   -7.3799778    332.43416  0.028124718  0.028337577            3 
  986000     1.101971    -7.393754     332.7497  0.028122862  0.028330296            3 
  987000    1.0769832   -7.4118497    331.57522  0.027995206  0.028323045            1 
  988000    1.0984491   -7.3836027     332.8794  0.028076873  0.028315813            1 
  989000    1.1186446   -7.4088196    332.57418  0.028022765  0.028308652            3 
  990000     1.073109   -7.4460979    331.80023  0.027929312  0.028301082            2 
  991000    1.0890445   -7.4208357    333.53704  0.028047178  0.028293494            2 
  992000    1.0853101   -7.4160751    332.90753  0.027966022  0.028286118            2 
  993000    1.1137943   -7.4487077    333.50859    0.0279883  0.028279041            1 
  994000    1.1101065   -7.4321526    333.22064  0.027936002  0.028271837            3 
  995000    1.0838357   -7.4135183    334.58425  0.028022132  0.028264583            2 
  996000     1.093328   -7.4102649    334.64075  0.027998724  0.028257634            1 
  997000    1.0887647    -7.436016    334.64686  0.027971152  0.028250524            1 
  998000    1.0839432    -7.404173    336.22899  0.028075233  0.028243683            3 
  999000    1.0810148   -7.4294726    336.00312  0.028028288  0.028236987            3 
 1000000    1.0934871   -7.4497841    335.38039  0.027948366  0.028230124            4 
 1001000    1.1009503   -7.4383416       337.16  0.028068598  0.028223236            1 
 1002000    1.0841247   -7.4198678    336.67804  0.028000502  0.028216336            1 
 1003000      1.07865   -7.4437594     335.9497  0.027912072  0.028209372            2 
 1004000    1.0987824   -7.4840415    335.66852  0.027860933  0.028202402            2 
 1005000    1.0763733    -7.417144     337.4749  0.027982993  0.028195546            2 
 1006000    1.1178413   -7.4696506    337.64689  0.027969424  0.028188786            1 
 1007000    1.0921051   -7.3872164    338.39106  0.028003233  0.028182198            1 
 1008000    1.1007381   -7.4465739    338.38567  0.027975006  0.028175533            2 
 1009000    1.0921619   -7.4950645    337.07848   0.02783932  0.028168921            1 
 1010000    1.0876607   -7.4575219    338.43866  0.027923982  0.028162076            3 
 1011000    1.0973927    -7.428619    340.49757  0.028066071   0.02815554            1 
 1012000    1.0883581   -7.4516523    338.87334   0.02790459  0.028148934            2 
 1013000    1.0864871   -7.4723334    338.91108  0.027880148  0.028142294            2 
 1014000    1.1004718    -7.417657    340.27523  0.027964763  0.028135726            2 
 1015000    1.0861091   -7.4182243    340.38977  0.027946615  0.028129255            2 
 1016000    1.0790933   -7.3657979    342.45077  0.028088154  0.028123044            1 
 1017000    1.0967816    -7.414734    341.52222  0.027984449  0.028116591            3 
 1018000    1.1110071   -7.4832067    341.62987  0.027965772  0.028109949            2 
 1019000     1.086579    -7.407457    341.57226  0.027933617  0.028103375            1 
 1020000    1.0636604   -7.4173343    342.30867  0.027966394  0.028097211            1 
 1021000    1.0808557    -7.466066    341.04411  0.027835791  0.028090475            2 
 1022000    1.0912829   -7.4604831    341.19563  0.027820909  0.028083627            1 
 1023000    1.1054037   -7.4694336    341.53659  0.027821488  0.028076729            2 
 1024000    1.0921022    -7.486915    341.22898  0.027769286  0.028069832            1 
 1025000    1.0590801   -7.4030639    343.32331  0.027912464  0.028062953            2 
 1026000    1.0707682   -7.4284566    343.60174  0.027907874  0.028056344            7 
 1027000    1.0911526    -7.428699    343.57438  0.027878479  0.028049667            1 
 1028000    1.0661031    -7.449771     343.9102  0.027878583  0.028042947            2 
 1029000    1.0779823   -7.4361881    344.30934  0.027883814  0.028036175            1 
 1030000    1.1085152   -7.4250846    343.81042  0.027816377  0.028029738            1 
 1031000    1.0898801   -7.4481724    345.04399  0.027889104  0.028023065            1 
 1032000    1.1074184     -7.48322    343.95963  0.027774518   0.02801633            3 
 1033000    1.0948524   -7.4414191    343.99306  0.027750327  0.028009586            3 
 1034000    1.0780649   -7.4988566    344.17331  0.027738016  0.028002717            2 
 1035000    1.0941845   -7.4556848    345.60049  0.027826126  0.027995961            2 
 1036000    1.0976773   -7.4516721    346.18108  0.027845969  0.027989282            1 
 1037000    1.0963976    -7.438761    345.52905  0.027766719  0.027982694            1 
 1038000    1.0820566   -7.4532129    345.70236  0.027753883  0.027976453            1 
 1039000    1.0872309   -7.4842271    346.58321  0.027797819  0.027970057            3 
 1040000    1.0722822   -7.4363554    347.02959  0.027806858  0.027963583            4 
 1041000    1.0894945   -7.4414985    347.32066  0.027803447  0.027957096            2 
 1042000    1.0894159   -7.4246274    347.75085  0.027811168  0.027950487            2 
 1043000    1.0705146    -7.459582    347.53026   0.02776688  0.027943985            2 
 1044000    1.1026701   -7.4545557    347.08342  0.027704615  0.027937288            2 
 1045000    1.0648618    -7.448824    348.09162  0.027758502  0.027930417            3 
 1046000    1.0703415   -7.4771454    346.46359  0.027602262  0.027923349            1 
 1047000     1.089516   -7.4175387    348.74496  0.027757479  0.027916317            1 
 1048000    1.0867222   -7.4460163    348.80077   0.02773543  0.027909537            1 
 1049000    1.0674129   -7.4043265    350.06273  0.027809241   0.02790309            2 
 1050000    1.0950826   -7.4121038    350.74291  0.027836739  0.027896858            3 
 1051000    1.0970287   -7.4683843    349.18142  0.027686443   0.02789037            1 
 1052000    1.0963668   -7.4458374     350.3593   0.02775343  0.027883767            2 
 1053000    1.1027429   -7.4691179    350.77855  0.027760252  0.027877263            2 
 1054000     1.074688   -7.4462433    350.27973  0.027694475  0.027870814            1 
 1055000    1.0807942   -7.4602802    350.58975  0.027692713  0.027864325            3 
 1056000    1.0739525   -7.4743634    351.06135  0.027703705  0.027857746            2 
 1057000    1.0639935   -7.4575485    352.21489   0.02776844  0.027851304            3 
 1058000    1.0839107   -7.4892377    351.34803  0.027673915  0.027844842            1 
 1059000    1.0892846   -7.4937069    351.78649  0.027682286  0.027838293            2 
 1060000    1.0913353   -7.4875809    351.16806  0.027607552  0.027831847            2 
 1061000    1.0942849   -7.4432006    352.32765  0.027672608  0.027825446            1 
 1062000    1.0782316   -7.5161826    352.28251   0.02764301  0.027819039            4 
 1063000    1.0964106   -7.4717103    352.72523  0.027651711  0.027812368            2 
 1064000    1.0715159    -7.419187    354.16587  0.027738555  0.027805945            2 
 1065000    1.0742457   -7.4565447    353.92622  0.027693757  0.027799516            1 
 1066000    1.0542638   -7.4561582    354.34986  0.027700896  0.027793272            1 
 1067000    1.0758815   -7.4615842    354.41726  0.027680199  0.027786801            1 
 1068000    1.0622909   -7.4368795    354.89128  0.027691267   0.02778043            1 
 1069000    1.0803045   -7.4823584    354.43678  0.027629933   0.02777424            1 
 1070000    1.0616683   -7.4532211    354.59519  0.027616448  0.027768133            1 
 1071000     1.064423   -7.4465096    355.16222  0.027634782   0.02776177            3 
 1072000    1.0880181   -7.4852835    355.03663   0.02759924  0.027755512            2 
 1073000    1.0749837   -7.4887822    354.92849   0.02756512  0.027749359            1 
 1074000    1.0635076   -7.4058109    356.88241  0.027691063  0.027743111            1 
 1075000    1.0756204   -7.4504328    357.54284  0.027716499  0.027736905            1 
 1076000    1.0862072   -7.5151566    356.08825  0.027578087  0.027730676            3 
 1077000    1.0578752   -7.4755118    357.17794  0.027636795  0.027724297            2 
 1078000    1.1098496   -7.4302247    357.60237  0.027643968  0.027718302            3 
 1079000    1.1022651   -7.4893728    357.59106  0.027617474  0.027712206            2 
 1080000    1.0648683   -7.4890631    358.24675  0.027642496  0.027705909            1 
 1081000    1.0941578   -7.4491162    358.39326  0.027628219  0.027699811            2 
 1082000    1.0502073   -7.4634564    359.75783  0.027707781  0.027693752            2 
 1083000    1.0989174   -7.4163773    359.85044  0.027689323  0.027687781            2 
 1084000    1.0999838   -7.4789726    359.13233  0.027608574  0.027682075            3 
 1085000    1.0706484   -7.4802342    358.52838  0.027536742  0.027676118            4 
 1086000    1.0839072   -7.4639297    360.72335  0.027679815  0.027670141            1 
 1087000    1.0347259   -7.4480872    360.82342  0.027662023  0.027664424            1 
 1088000    1.0794021   -7.4722586    361.08391   0.02765655  0.027658743            2 
 1089000    1.0755928     -7.49656    360.37743  0.027577091  0.027652868            6 
 1090000    1.0531392   -7.4679104    362.25049  0.027694991   0.02764704            1 
 1091000    1.0558036    -7.426468    362.73588  0.027706682  0.027641193            1 
 1092000    1.0860093   -7.4642452    361.36264  0.027576514  0.027635414            2 
 1093000      1.08532   -7.4548278    361.51539   0.02756293  0.027629552            1 
 1094000    1.0755881   -7.5123311    361.68326  0.027550522  0.027623458            2 
 1095000    1.0796923   -7.4562736    361.76131  0.027531302  0.027617368            2 
 1096000    1.0807214   -7.5063329    361.56009  0.027490883  0.027611139            1 
 1097000    1.0840904   -7.5120049    361.56012  0.027465825  0.027604858            4 
 1098000    1.0688536   -7.4699238    362.86832  0.027540097  0.027598625            1 
 1099000    1.0825124   -7.4795756    361.47036  0.027409036  0.027592251            2 
 1100000    1.0708357   -7.4696657     363.2011  0.027515235  0.027585862            2 
 1101000    1.0854711    -7.476776    363.40642  0.027505784  0.027579585            3 
 1102000     1.085039   -7.4767867    364.08453  0.027532103  0.027573382            1 
 1103000    1.0686245   -7.4479986    364.50017  0.027538544  0.027567147            1 
 1104000    1.0770744   -7.5079246    362.87998  0.027391303   0.02756113            4 
 1105000    1.0776904   -7.3944611    365.04916  0.027530102  0.027555089            2 
 1106000    1.0513445   -7.4384875    364.85627  0.027490677  0.027549179            2 
 1107000    1.0825439   -7.4609645    364.70667  0.027454582  0.027543071            2 
 1108000    1.0459436   -7.4904971     365.0616  0.027456498  0.027536983            2 
 1109000    1.0838415   -7.4541434    364.95773  0.027423935  0.027530942            2 
 1110000    1.0841399   -7.4614791    366.27227  0.027497918  0.027524828            2 
 1111000    1.0682268   -7.4480557    366.41712  0.027484033   0.02751868            1 
 1112000    1.0929281   -7.5023923     366.0778  0.027433888   0.02751261            1 
 1113000    1.0845239   -7.5220662     366.0278  0.027405496  0.027506204            4 
 1114000    1.0766859   -7.4923957     365.9835  0.027377581  0.027499973            2 
 1115000    1.0706062   -7.4823903    366.30162  0.027376803  0.027493586            2 
 1116000    1.0638614   -7.4531849    366.24202  0.027347821  0.027487263            3 
 1117000    1.0660339   -7.5088328    367.62603  0.027426591  0.027481049            2 
 1118000    1.0733226   -7.4757505    366.96224  0.027352582   0.02747463            1 
 1119000    1.0844196   -7.4732624    366.63241  0.027303575  0.027468283            3 
 1120000     1.075567   -7.5079672    365.48354  0.027193716  0.027461784            4 
 1121000    1.0785595   -7.4910415    368.36527  0.027383681  0.027455426            3 
 1122000    1.0622716   -7.4787396    366.90023  0.027250463  0.027448837            1 
 1123000    1.0943331   -7.4847652    367.60643  0.027278601  0.027442268            3 
 1124000    1.0322482   -7.4692625    367.18674  0.027223216   0.02743557            4 
 1125000    1.0801545   -7.5047369    367.22659  0.027201969  0.027428697            2 
 1126000    1.0719009   -7.5081204    367.23978  0.027178788  0.027421873            1 
 1127000     1.060538   -7.4990883    367.94973  0.027207167  0.027415189            2 
 1128000    1.0996033   -7.4596137    370.08508  0.027340801  0.027408688            2 
 1129000    1.0479783    -7.467701    369.18375  0.027250055  0.027402309            3 
 1130000     1.082332   -7.4739617    368.72705   0.02719226  0.027395859            3 
 1131000    1.0512692   -7.4882502    368.87787  0.027179331  0.027389359            1 
 1132000    1.0605737   -7.4773112    369.67205  0.027213785  0.027382717            2 
 1133000     1.062714   -7.4732184    370.46013   0.02724773  0.027376198            1 
 1134000    1.0878362   -7.4695254    370.93268  0.027258427   0.02736956            1 
 1135000    1.0596792   -7.5407312    369.32436  0.027116326  0.027362803            3 
 1136000    1.0668263   -7.4757372     370.1973  0.027156492  0.027356125            2 
 1137000    1.0719627   -7.4793553    370.62143  0.027163693  0.027349576            1 
 1138000    1.0769322     -7.45711    370.42378   0.02712535  0.027342959            2 
 1139000    1.0605513   -7.5039637    370.17493  0.027083328  0.027336137            1 
 1140000    1.0832376   -7.5073051    370.07594  0.027052335  0.027329233            1 
 1141000    1.0716388   -7.4654227    372.12462  0.027178252   0.02732247            2 
 1142000    1.0821803   -7.5103837    371.55294  0.027112736  0.027315796            1 
 1143000    1.0721962   -7.5096905    372.15502  0.027132912  0.027308972            2 
 1144000    1.0692858   -7.4834672    371.93449   0.02709313  0.027302138            1 
 1145000    1.0659792   -7.5106605    372.29521  0.027095721  0.027295189            1 
 1146000    1.0729379   -7.4973449    371.85462  0.027040039  0.027288331            2 
 1147000    1.0693175   -7.4990915    372.86317  0.027089739  0.027281487            2 
 1148000    1.0662234   -7.4437499     372.4053  0.027032905  0.027274569            3 
 1149000    1.0525314   -7.4586479    373.13377  0.027062211  0.027267767            1 
 1150000    1.0613558   -7.4752249    373.96767  0.027099107  0.027260823            2 
 1151000    1.0839199   -7.4538555    373.85535  0.027067431  0.027253845            2 
 1152000    1.0674306   -7.5133205     372.5326  0.026948249  0.027246863            2 
 1153000    1.0670237   -7.4913461     372.5022   0.02692268  0.027239939            2 
 1154000    1.0611348   -7.5123618    373.21342  0.026950709  0.027232982            2 
 1155000     1.033318   -7.4947912    373.65581  0.026959293  0.027225949            2 
 1156000    1.0791692   -7.4992432    374.81675  0.027019662  0.027218869            2 
 1157000    1.0685687   -7.4657827    375.05508  0.027013474  0.027211819            2 
 1158000    1.0681972    -7.461932    374.80231  0.026971957  0.027204698            2 
 1159000    1.0526189   -7.4779923    373.24044  0.026836385  0.027197684            1 
 1160000    1.0559334   -7.5114757    374.45295  0.026900356  0.027190593            4 
 1161000    1.0685737   -7.4762041    376.01248  0.026989124  0.027183464            2 
 1162000    1.0741888   -7.4858235    375.78283  0.026949428  0.027176407            2 
 1163000    1.0737447   -7.4710152    375.77364  0.026925597  0.027169287            1 
 1164000    1.0713615   -7.5205866    375.21429   0.02686242  0.027162264            6 
 1165000     1.059165    -7.506165    375.17065  0.026836241   0.02715504            1 
 1166000    1.0669431   -7.4722301    376.86623  0.026934407  0.027147891            1 
 1167000    1.0545446   -7.4714281    376.52069  0.026886653  0.027140652            2 
 1168000    1.0613698    -7.518565    376.22567  0.026842585  0.027133347            1 
 1169000    1.0310308   -7.5008364    378.25584  0.026964346  0.027126202            2 
 1170000    1.0508259    -7.510809    376.55178  0.026819927  0.027119185            2 
 1171000    1.0838393   -7.5213394     376.6968  0.026807344  0.027111928            4 
 1172000    1.0282421   -7.4618286    379.34418  0.026972709    0.0271047            1 
 1173000    1.0565686   -7.4960055     377.6687  0.026830684  0.027097621            1 
 1174000    1.0622259   -7.5006614     377.2593  0.026778769  0.027090532            2 
 1175000    1.0635583   -7.4680867    379.22791  0.026895597  0.027083508            1 
 1176000    1.0700976   -7.5025843    378.80788  0.026842962  0.027076487            1 
 1177000    1.0755624   -7.5022617    378.45443  0.026795131  0.027069342            1 
 1178000    1.0494283   -7.5335976    377.81713  0.026727301  0.027062001            2 
 1179000    1.0668604   -7.5224695    379.86813  0.026849599  0.027054781            1 
 1180000    1.0574283   -7.4995973     379.4491  0.026797253  0.027047771            2 
 1181000    1.0526368   -7.4786067    380.13227  0.026822768   0.02704065            1 
 1182000    1.0631734   -7.5330022    379.77734  0.026775052  0.027033538            1 
 1183000    1.0605155   -7.5362443    379.64375  0.026743009  0.027026325            2 
 1184000    1.0677369    -7.515185    380.12843  0.026754535  0.027019033            6 
 1185000    1.0780434    -7.510093    381.07724  0.026798681  0.027011989            5 
 1186000    1.0489329    -7.488833    381.40691  0.026799249  0.027005058            2 
 1187000    1.0674743   -7.5022506    382.14097  0.026828206  0.026997987            1 
 1188000    1.0583388   -7.4752384    381.75171  0.026778318  0.026990939            3 
 1189000     1.036565   -7.4916666    382.17486  0.026785454  0.026984059            2 
 1190000    1.0677903   -7.5252546    381.88469  0.026742626  0.026977053            1 
 1191000    1.0720611   -7.5324354    381.41645  0.026687409  0.026969876            3 
 1192000    1.0520481   -7.4986973    382.12934  0.026714859  0.026962591            1 
 1193000     1.058035   -7.5165377    381.08846  0.026619758  0.026955461            2 
 1194000    1.0526751   -7.4855998    383.15022  0.026741361  0.026948312            3 
 1195000    1.0597159   -7.4769118    383.11774  0.026716719  0.026941243            2 
 1196000    1.0773318   -7.5344914    383.81506  0.026742967  0.026934292            1 
 1197000    1.0443645   -7.5269474    383.81162  0.026720386  0.026927378            1 
 1198000    1.0584233   -7.4969648    384.57832  0.026751413  0.026920517            2 
 1199000    1.0793252   -7.4906257    385.55771  0.026797172  0.026913679            5 
 1200000    1.0582506   -7.5321731    384.36072  0.026691717  0.026906861            1 
 1201000    1.0522772   -7.5315616    384.59229   0.02668556  0.026899998            2 
 1202000    1.0639412   -7.5160387    384.29827  0.026642975  0.026892927            1 
 1203000    1.0597745   -7.5424207    384.71394  0.026649622   0.02688581       -1e+20 
 1204000    1.0589162   -7.4957829    385.65578  0.026692675  0.026878961            1 
 1205000    1.0620867    -7.532208    385.31476  0.026646941  0.026871845            1 
 1206000    1.0636565   -7.5154841    385.33699  0.026626382  0.026864747            3 
 1207000    1.0551341    -7.506444    385.46619  0.026613241   0.02685779            1 
 1208000     1.032019   -7.5217697    386.15384  0.026638648  0.026850736            3 
 1209000    1.0822733   -7.5077698    385.99366  0.026605574  0.026843683            4 
 1210000    1.0423117   -7.5122392    386.94906  0.026649384  0.026836666            1 
 1211000     1.058152   -7.5271424    385.89763  0.026555026  0.026829547            3 
 1212000    1.0600686   -7.5335856    386.41746  0.026568857   0.02682241            1 
 1213000    1.0410856   -7.5202884    387.65905  0.026632251  0.026815382            1 
 1214000    1.0805164   -7.5286103    388.04029  0.026636484  0.026808334            4 
 1215000    1.0615881   -7.4929549    388.71304  0.026660702  0.026801252            3 
 1216000    1.0566684   -7.5655543    387.35739  0.026545874  0.026794251            2 
 1217000    1.0574733   -7.4645392    388.84062  0.026625624  0.026787323            2 
 1218000    1.0550611   -7.5251384    388.59389  0.026586883  0.026780589            3 
 1219000    1.0790663   -7.5171185    388.64996  0.026568906  0.026773677            1 
 1220000    1.0615909   -7.5226404    389.42349  0.026599965  0.026766742            2 
 1221000    1.0757814   -7.4965932    389.06056   0.02655341  0.026759864            2 
 1222000    1.0825666   -7.5043583    389.20452  0.026541497  0.026753095            2 
 1223000    1.0405454   -7.4959279    390.10701   0.02658129  0.026746311            1 
 1224000    1.0548555   -7.5039367    389.15676  0.026494878  0.026739163            3 
 1225000    1.0524222   -7.5234865    390.45088  0.026561284  0.026732072            2 
 1226000    1.0609676    -7.548517    389.45123  0.026471671  0.026724842            1 
 1227000    1.0387826   -7.5159967    390.34692  0.026510929  0.026717826            2 
 1228000    1.0554677    -7.518245    389.69676   0.02644522  0.026710609            1 
 1229000    1.0686109   -7.5245567    388.98656  0.026375546  0.026703382            1 
 1230000    1.0446727   -7.5429084    389.44129  0.026384911  0.026696259            2 
 1231000    1.0629281   -7.5172265    389.31084  0.026354647  0.026688891            2 
 1232000    1.0631145   -7.5426091    390.16716  0.026391177  0.026681349            2 
 1233000    1.0571553   -7.5436734    390.04601  0.026361585  0.026673811            2 
 1234000    1.0534737   -7.5146514    390.93105   0.02639999  0.026666329            1 
 1235000    1.0484659   -7.5340208    389.83421  0.026304603  0.026658849            3 
 1236000    1.0531675   -7.5230789    391.02516  0.026363616  0.026651436            1 
 1237000    1.0658875   -7.5232828    390.71732  0.026321565  0.026643955            2 
 1238000    1.0408884   -7.5156796     391.1437  0.026329005  0.026636602            1 
 1239000     1.067022   -7.5509011    390.64536  0.026274237  0.026629069            1 
 1240000    1.0382638   -7.5738109    391.03383  0.026279155  0.026621395            1 
 1241000    1.0633331     -7.57724    390.33331  0.026210939  0.026613752            3 
 1242000    1.0588744   -7.5387502    390.98868  0.026233809  0.026606225            5 
 1243000    1.0651055   -7.5165135    393.12702  0.026356062   0.02659902            3 
 1244000    1.0663931   -7.5224759    393.67724  0.026371734  0.026591781            3 
 1245000    1.0681394   -7.5269876    392.35234   0.02626187  0.026584413            1 
 1246000    1.0283917   -7.5094177    392.75711  0.026267865  0.026577147            2 
 1247000    1.0434797   -7.5318408    394.24066  0.026345941  0.026569847            2 
 1248000    1.0612736   -7.5372309    394.32255  0.026330298  0.026562572            1 
 1249000    1.0209527   -7.5326046    393.68206  0.026266484  0.026555257            3 
 1250000     1.053264   -7.5675381    393.31799  0.026221199  0.026547868            2 
 1251000    1.0546748   -7.5300057    393.90683  0.026239464  0.026540491            4 
 1252000    1.0528264   -7.5404078    395.30106  0.026311306  0.026533204            1 
 1253000    1.0588551   -7.5380863    394.22652  0.026218843  0.026525928            1 
 1254000    1.0660623   -7.5259881    396.23447  0.026331371  0.026518723            1 
 1255000    1.0623667   -7.5629541    395.26398  0.026245948    0.0265115            2 
 1256000    1.0454079   -7.4762691    396.11237  0.026281341  0.026504461            2 
 1257000    1.0528274   -7.5415937     395.9743   0.02625128  0.026497286            1 
 1258000    1.0528865   -7.5205257    396.97991  0.026297027  0.026490012            3 
 1259000    1.0545509   -7.5555118    397.03372  0.026279701  0.026482843            2 
 1260000    1.0471207   -7.5464342    396.79375  0.026242973  0.026475669            3 
 1261000    1.0504089   -7.5628215    396.64416  0.026212276  0.026468467            2 
 1262000    1.0605201    -7.547056    397.91988  0.026275745  0.026461327       -1e+20 
 1263000    1.0303011    -7.564859    396.26547  0.026145782  0.026454055            4 
 1264000     1.063002   -7.5081444    397.15189  0.026183537  0.026446772            2 
 1265000    1.0566808   -7.5508912    397.91444  0.026213072  0.026439615            1 
 1266000     1.062185   -7.5853267    396.46472   0.02609694   0.02643231            2 
 1267000    1.0478942   -7.5375011    398.29347  0.026196624  0.026425096            1 
 1268000    1.0467237   -7.5356215    397.49317  0.026123368  0.026417822            1 
 1269000    1.0349815   -7.5164791    397.96883  0.026134018  0.026410476            1 
 1270000    1.0574777   -7.5586388    398.44039  0.026144383  0.026403172            3 
 1271000    1.0418766   -7.5438717    397.77545  0.026080216  0.026395892            1 
 1272000    1.0243732   -7.5583756    398.65057  0.026117045  0.026388505            2 
 1273000    1.0513775   -7.5450894    399.54484  0.026155069  0.026381193            3 
 1274000    1.0224585   -7.5368813    399.67518  0.026143065  0.026373969            1 
 1275000    1.0358645   -7.6084938    398.39244  0.026038721   0.02636664            2 
 1276000    1.0718789   -7.5117091    399.07554  0.026062927  0.026359252            1 
 1277000    1.0636706   -7.5207375    400.65951  0.026145883  0.026351823            2 
 1278000    1.0449338   -7.5206262    401.24791  0.026163792  0.026344522            2 
 1279000    1.0509484   -7.5554567    400.65525   0.02610472  0.026337218            3 
 1280000    1.0455307   -7.5372828    399.93008  0.026037114  0.026330023            2 
 1281000    1.0535911   -7.5355627    401.66068   0.02612937  0.026322785            2 
 1282000     1.044565    -7.521658     399.5597  0.025972419   0.02631546            1 
 1283000    1.0449938   -7.5465658    400.49287  0.026012787  0.026308016            1 
 1284000    1.0599548   -7.5346468    400.71062   0.02600666   0.02630054            3 
 1285000     1.025133   -7.5667125    401.16975  0.026016196  0.026293136            7 
 1286000    1.0502246   -7.5278446     401.2213  0.025999307  0.026285498            1 
 1287000    1.0380415   -7.5303817    402.60177  0.026068491  0.026278299            2 
 1288000    1.0487981   -7.5234469    401.76229  0.025993937  0.026271038            1 
 1289000    1.0334297   -7.5157015    403.91716  0.026113083  0.026263715            2 
 1290000    1.0448551   -7.5113227    402.02522  0.025970622  0.026256439            1 
 1291000    1.0403503   -7.5388441    401.98081  0.025947638  0.026249125            4 
 1292000    1.0414656   -7.5335308    402.85663  0.025984044   0.02624171            1 
 1293000    1.0463241   -7.5504631     402.2721  0.025926276  0.026234354            2 
 1294000    1.0488681   -7.5372235    403.05672   0.02595677  0.026227045            2 
 1295000    1.0241112   -7.5794519    402.50179  0.025901016  0.026219535            3 
 1296000    1.0443436   -7.5755471    403.24116  0.025928573  0.026212095            2 
 1297000    1.0146289   -7.5627686    404.60421  0.025996159  0.026204693            4 
 1298000    1.0500031   -7.5419562    403.69874  0.025917998  0.026197456            2 
 1299000    1.0405909    -7.538917    403.74468  0.025900993  0.026190075            2 
 1300000    1.0456179   -7.5209174    405.10515  0.025968279  0.026182829            1 
 1301000    1.0298048   -7.5665903    405.29507  0.025960484  0.026175462            4 
 1302000    1.0474519   -7.5640192    404.21851   0.02587164  0.026168108            4 
 1303000    1.0440827   -7.5243562    405.91302  0.025960157  0.026160862            4 
 1304000    1.0298721   -7.5285276    405.88966  0.025938756  0.026153523            1 
 1305000    1.0526037   -7.5626376    406.30378  0.025945324  0.026146312            4 
 1306000    1.0643043   -7.5493538    406.25742    0.0259225  0.026139109            2 
 1307000    1.0311166   -7.5467504    406.13087  0.025894598  0.026131897            2 
 1308000    1.0628919   -7.5783644    405.55208  0.025837926  0.026124693            1 
 1309000    1.0486454    -7.535448    407.45646  0.025939423  0.026117541            1 
 1310000    1.0549202   -7.5423291    406.44986  0.025855589   0.02611034            1 
 1311000    1.0676827   -7.5105271    408.30634  0.025953873  0.026103378            2 
 1312000    1.0362177   -7.5583848    407.69433  0.025895219  0.026096284            1 
 1313000    1.0560667   -7.5514234    408.82485  0.025947249  0.026089183            2 
 1314000    1.0256318   -7.5443472    407.28737  0.025829995  0.026082117            1 
 1315000    1.0626764   -7.5494183    407.70881   0.02583706  0.026075061            2 
 1316000    1.0473389   -7.5339136    409.20283  0.025912033  0.026067952            2 
 1317000    1.0678119   -7.6011384    407.75423  0.025800698  0.026060901            1 
 1318000      1.03532   -7.5683982    408.89232  0.025853081  0.026053919            3 
 1319000    1.0356858   -7.5442602    409.73861  0.025886948  0.026046886            2 
 1320000    1.0502787   -7.5498412    409.10948  0.025827619  0.026039926            2 
 1321000    1.0264288   -7.5691246     409.5599  0.025836481  0.026032847            1 
 1322000    1.0277722   -7.5398512    410.28408  0.025862587  0.026025799            2 
 1323000     1.052856   -7.5443137    410.11027  0.025832091  0.026019033            1 
 1324000    1.0333502    -7.528935    411.26963  0.025885551  0.026012171            1 
 1325000    1.0239519   -7.5947583    409.60431  0.025761277  0.026005137            2 
 1326000     1.041443   -7.5560712    410.50069  0.025798183  0.025998115            4 
 1327000    1.0314527   -7.5672898    411.91917   0.02586782  0.025991322            3 
 1328000    1.0161597   -7.5754432    412.23046  0.025867875   0.02598457            1 
 1329000    1.0437408   -7.5736976    412.44969  0.025862158  0.025977872            2 
 1330000    1.0449088   -7.5377788    412.81083   0.02586534  0.025971333            2 
 1331000    1.0443407   -7.5241241    412.23068  0.025809584  0.025964592            2 
 1332000    1.0399027   -7.5456923     412.6609  0.025817123  0.025957839            4 
 1333000    1.0483177   -7.5726062    412.98195  0.025817826  0.025951032            3 
 1334000      1.05468   -7.5607476    412.99304  0.025799166  0.025944225            2 
 1335000    1.0367188   -7.5801457    412.42327  0.025744274  0.025937428            4 
 1336000    1.0420082   -7.5445096    413.80956  0.025811474  0.025930609            1 
 1337000    1.0501487   -7.5487225    414.94914  0.025863198  0.025923889            1 
 1338000    1.0313108   -7.5802821    415.03702  0.025849341   0.02591703            3 
 1339000    1.0217251   -7.6110825    414.07617  0.025770237  0.025910273            2 
 1340000    1.0273743   -7.5652482     414.1483  0.025755491  0.025903519            2 
 1341000    1.0296241   -7.5637836    416.12438  0.025859084   0.02589693            1 
 1342000    1.0353137   -7.5406239    414.52709  0.025740629  0.025890413            1 
 1343000    1.0244408   -7.5275826    415.86763  0.025804643   0.02588388            1 
 1344000     1.021073   -7.5828154    414.66329   0.02571077  0.025877242            2 
 1345000    1.0622879   -7.5785873    415.95756  0.025771844  0.025870547            2 
 1346000    1.0407812   -7.5913825    415.98523   0.02575441  0.025863857            2 
 1347000    1.0184413   -7.5504601     417.0731  0.025802592  0.025857367            1 
 1348000    1.0159292   -7.5646627    414.92736  0.025650801    0.0258507            2 
 1349000    1.0503393   -7.5842124    417.06919  0.025764096  0.025844133            2 
 1350000    1.0346217   -7.5968389    417.90486  0.025796596  0.025837704            2 
 1351000    1.0404461    -7.562322    418.36007   0.02580558    0.0258314            1 
 1352000    1.0499179   -7.5345299    418.64156  0.025803843  0.025825077            1 
 1353000    1.0524456   -7.5842094    417.27318  0.025700491  0.025818797            3 
 1354000    1.0131592   -7.5830746    419.24446  0.025802835  0.025812465            1 
 1355000    1.0365432   -7.5867987    418.24506  0.025722328  0.025806062            1 
 1356000    1.0277438   -7.5788683    418.96624  0.025747679  0.025799702            1 
 1357000    1.0489069   -7.5445429     421.4038  0.025878396  0.025793469            1 
 1358000    1.0367555   -7.5805153    419.97036  0.025771377  0.025787256            1 
 1359000    1.0356883   -7.5998726    419.99608  0.025753991  0.025780846            3 
 1360000    1.0400827   -7.5705866    420.91385   0.02579129  0.025774554            1 
 1361000     1.062057    -7.591998    420.14712  0.025725393  0.025768222            3 
 1362000    1.0277164   -7.6012616    421.43857  0.025785522  0.025762032            1 
 1363000     1.014101   -7.5901875    421.19386  0.025751642  0.025755813            3 
 1364000    1.0150207    -7.574406    422.23956   0.02579665  0.025749592            3 
 1365000    1.0115414   -7.5727984    421.70172  0.025744916  0.025743504            1 
 1366000    1.0181056    -7.580372    422.80647  0.025793464  0.025737479            3 
 1367000    1.0502022   -7.5759583    422.47344  0.025754294  0.025731321            2 
 1368000    1.0345586   -7.5714812    423.02281  0.025768933   0.02572525            2 
 1369000    1.0266207   -7.5531906    423.30877  0.025767517  0.025719181            2 
 1370000    1.0587954   -7.5341416    422.42111  0.025694715  0.025713099            1 
 1371000    1.0219585   -7.5558428    423.77557  0.025758301  0.025706869            4 
 1372000    1.0374245   -7.6015755    422.85524  0.025683628   0.02570068            7 
 1373000    1.0246429   -7.5666498     423.8831  0.025727306  0.025694498            2 
 1374000    1.0282899   -7.5536927     423.8014  0.025703627  0.025688242            1 
 1375000    1.0456616   -7.5957352    423.40305  0.025660791  0.025682029            2 
 1376000    1.0092168   -7.5624717    423.10156  0.025623883  0.025675798            1 
 1377000    1.0418934   -7.5854118    423.06822  0.025603257  0.025669433            2 
 1378000    1.0543639   -7.5840533    423.13133  0.025588494  0.025663146            2 
 1379000    1.0542228   -7.6205206    422.99578  0.025561747    0.0256567            1 
 1380000    1.0117572    -7.605862    423.91219  0.025598562   0.02565019            2 
 1381000    1.0334754   -7.6200521    424.46182  0.025613192  0.025643725            1 
 1382000    1.0204141   -7.6172454    423.81071  0.025555397  0.025637162            1 
 1383000    1.0143579    -7.597025    423.83153  0.025538174   0.02563065            2 
 1384000    1.0159594   -7.5940981    424.07312  0.025534268  0.025624356            2 
 1385000    1.0379203   -7.5718268    425.75203  0.025616849  0.025617992            1 
 1386000    1.0405599   -7.5872073    424.72773   0.02553678  0.025611637            1 
 1387000    1.0171112   -7.5678754     424.8745  0.025527187  0.025605191            1 
 1388000    1.0240465   -7.6135651    424.26611  0.025472269  0.025598738            2 
 1389000     1.038523   -7.6065937    424.51252  0.025468714  0.025592248            4 
 1390000    1.0277158   -7.5779255    424.99705  0.025479439  0.025585776            2 
 1391000    1.0113342   -7.5719927    426.32572  0.025540721  0.025579383            2 
 1392000    1.0535238   -7.5600846    426.21764  0.025515903  0.025572929            2 
 1393000    1.0106287   -7.5760952    426.39697  0.025508313  0.025566473            3 
 1394000    1.0405007   -7.5912495    426.61625  0.025503124  0.025559901            1 
 1395000    1.0169418   -7.6312607    426.74424  0.025492487  0.025553325            2 
 1396000    1.0127667    -7.599292    425.22133  0.025383317  0.025546566            3 
 1397000    1.0016954   -7.6170905    425.85759  0.025403102  0.025539752            2 
 1398000    1.0334724   -7.5909393    426.71049   0.02543577  0.025533057            3 
 1399000    1.0095076   -7.5743829    427.41192  0.025459371  0.025526417            2 
 1400000    1.0185833   -7.5763234    426.90296   0.02541089  0.025519692            3 
 1401000    1.0140952   -7.6021134    427.60969   0.02543479     0.025513            2 
 1402000    1.0506631   -7.5744204    428.60066  0.025475551  0.025506338            3 
 1403000    1.0246913   -7.5627414    427.37387  0.025384525  0.025499761            2 
 1404000     1.003297   -7.6163059    427.24516  0.025358806  0.025493001            3 
 1405000    1.0168848   -7.6134153    426.95856  0.025323758  0.025486206            2 
 1406000    1.0222502   -7.6249128    427.57309   0.02534217  0.025479444            1 
 1407000    1.0147817   -7.6043442    427.78905  0.025336949  0.025472609            3 
 1408000    1.0193503   -7.5764034    427.61862  0.025308867  0.025465699            1 
 1409000    1.0138699    -7.610114      428.579  0.025347705  0.025458947            3 
 1410000    1.0057492    -7.602505    428.33521   0.02531532  0.025452142            1 
 1411000    1.0337076   -7.6112519    428.94594  0.025333448  0.025445341            3 
 1412000    1.0240102   -7.5567886    428.80421  0.025307142  0.025438546            1 
 1413000    1.0432057    -7.590954    428.45989  0.025268925  0.025431713            1 
 1414000    1.0023547   -7.6073721    428.02119    0.0252252  0.025424836            1 
 1415000     1.027936   -7.5678219    429.03201  0.025266903  0.025417953            3 
 1416000    1.0008407   -7.6049655    428.18554  0.025199243  0.025411116            1 
 1417000     1.030884   -7.5782213    429.35218   0.02525007  0.025404167            1 
 1418000    1.0088011    -7.600379    430.34465  0.025290588  0.025397333            1 
 1419000    1.0291789   -7.5544302    430.06895  0.025256574  0.025390555            2 
 1420000    1.0309194   -7.5620158    430.46082  0.025261785  0.025383844            2 
 1421000    1.0233011   -7.6178772    430.84223  0.025266375  0.025377066            1 
 1422000    1.0254836   -7.5579957    431.49098  0.025286625  0.025370328            3 
 1423000    1.0442999   -7.6212967    430.84335  0.025230929  0.025363633            2 
 1424000    1.0225515   -7.5894588    431.39799  0.025245669  0.025356984            5 
 1425000    1.0248173   -7.6022377    432.01456  0.025264009  0.025350359            3 
 1426000    1.0148566   -7.6145115    431.29741  0.025204383  0.025343832            2 
 1427000    1.0082903   -7.5878619    432.46933  0.025255158  0.025337303            2 
 1428000    1.0452054    -7.571181    431.42303  0.025176414  0.025330735            2 
 1429000    1.0303101   -7.5988686    434.36065  0.025330105  0.025324236            1 
 1430000    1.0268747   -7.5844434    433.84294  0.025282222  0.025317802            1 
 1431000   0.99415013   -7.6016513    434.34789  0.025293961  0.025311296            1 
 1432000    1.0310047   -7.6326351    433.14418  0.025206249  0.025304764            2 
 1433000    1.0090708   -7.6157834    433.42967  0.025205261  0.025298206            3 
 1434000     1.024713   -7.5803325    435.42308  0.025303526  0.025291775            2 
 1435000    1.0201373   -7.6036251    433.89301  0.025197039  0.025285223            1 
 1436000    1.0086289   -7.6011826    434.59218  0.025220066  0.025278692            2 
 1437000   0.98726451      -7.6605    433.18393   0.02512085  0.025272081            3 
 1438000    1.0277497   -7.5746683    435.23894   0.02522247  0.025265467            2 
 1439000    1.0288123   -7.5934577    435.20087  0.025202737  0.025258909            2 
 1440000    1.0049539   -7.5912854      435.468  0.025200695  0.025252412            3 
 1441000    1.0088041   -7.6373267    433.57328  0.025073634  0.025245817            1 
 1442000    1.0416997   -7.6107712    434.62988  0.025117307  0.025239213            2 
 1443000    1.0170645   -7.6118218    434.70389  0.025104175  0.025232581            2 
 1444000    1.0026511   -7.5935939    435.24405  0.025117962  0.025225984            1 
 1445000    1.0482751   -7.6006653    434.82465  0.025076392  0.025219369            1 
 1446000     1.033235   -7.5984058    434.32622  0.025030326   0.02521269            1 
 1447000    1.0182126   -7.6454657    435.57253  0.025084803  0.025205931            2 
 1448000    1.0330029   -7.6409853    435.53391  0.025065257  0.025199141            1 
 1449000    1.0292409   -7.6468104    435.99994  0.025074761  0.025192328            5 
 1450000    1.0372203    -7.622736    436.79401  0.025103104  0.025185667            1 
 1451000    1.0264811   -7.5655816    437.69467   0.02513753   0.02517899            2 
 1452000    1.0120059   -7.6222267    437.61869  0.025115857  0.025172389            5 
 1453000    1.0323896   -7.6255527    436.66587  0.025043925  0.025165694            1 
 1454000    1.0257846   -7.6002359    437.31489  0.025063898  0.025158992            2 
 1455000    1.0064345    -7.598227    438.59301  0.025119875  0.025152324            2 
 1456000    1.0366438   -7.5946068    438.33931  0.025088101  0.025145732            3 
 1457000    1.0216991   -7.6294272    437.88945  0.025045153  0.025139122            1 
 1458000    1.0147672    -7.646124    436.78609  0.024964912  0.025132464            2 
 1459000    1.0315772   -7.6432818    437.79195  0.025005252  0.025125554            1 
 1460000    1.0070467   -7.6457224    437.54498  0.024974028  0.025118845            1 
 1461000    1.0208837   -7.6269481    438.25803  0.024997606  0.025112066            3 
 1462000    1.0277976   -7.6191141     438.7314   0.02500749  0.025105375            2 
 1463000    1.0272195   -7.6378923    437.89527   0.02494277  0.025098617            5 
 1464000    1.0131101    -7.623319    439.40126  0.025011456  0.025091925            1 
 1465000    1.0276283   -7.6248976    439.52614  0.025001487  0.025085303            3 
 1466000    1.0139497   -7.6020683    439.94095  0.025008012  0.025078741            2 
 1467000    1.0255693   -7.5717796    439.22144  0.024950093   0.02507206            3 
 1468000    1.0040454   -7.6289029    438.95163  0.024917781  0.025065357            3 
 1469000    1.0087484   -7.6015766    440.81453  0.025006497  0.025058623            5 
 1470000    1.0258097   -7.6094883    439.84539  0.024934546  0.025051879            2 
 1471000    1.0144807   -7.6517757     439.3007  0.024886738  0.025045119            2 
 1472000    1.0237199   -7.5693352    441.75191    0.0250086  0.025038346            3 
 1473000    1.0052666   -7.6039095    439.56627  0.024867972  0.025031595            5 
 1474000    1.0055213   -7.5949197    441.66034   0.02496949  0.025024845            2 
 1475000    1.0204709   -7.6017334     441.1424  0.024923299  0.025018151            3 
 1476000    1.0234669   -7.6299836    439.79971  0.024830607  0.025011353            4 
 1477000   0.98483638   -7.6575759    440.81139  0.024870875  0.025004607            2 
 1478000    1.0190507   -7.6031224    443.01348  0.024978207   0.02499781            2 
 1479000    1.0117819   -7.6049866     440.8419  0.024838962  0.024991239            4 
 1480000    1.0030759   -7.5986649    441.71854  0.024871539   0.02498453            3 
 1481000    1.0235031   -7.6195307     440.8356  0.024805064  0.024977785            1 
 1482000    1.0228019   -7.6170762    442.09049   0.02485889  0.024971091            1 
 1483000    1.0354312   -7.6302711    442.61482  0.024871591  0.024964306            2 
 1484000    1.0076899   -7.6149153    443.24359  0.024890139  0.024957556            2 
 1485000    1.0255443    -7.643116     441.4905     0.024775  0.024950781            7 
 1486000   0.99998202   -7.6308317     442.8945  0.024837063  0.024944092            3 
 1487000    1.0288752   -7.6271058    443.09143  0.024831396  0.024937293            1 
 1488000   0.98924103   -7.5764693    443.45569  0.024835108  0.024930598            2 
 1489000    1.0097663   -7.6332991    443.20085  0.024804167  0.024923917            3 
 1490000   0.99992624   -7.6434037    443.86154  0.024824471  0.024917237            2 
 1491000    1.0057115   -7.6388629    443.46875  0.024785868  0.024910648            2 
 1492000   0.99755584    -7.618884    443.27615  0.024758498  0.024903937            2 
 1493000    1.0034818   -7.5967404      444.365   0.02480269  0.024897265            1 
 1494000    1.0238118   -7.6369603    444.87909  0.024814764  0.024890709            2 
 1495000    1.0111331    -7.643711    443.71134  0.024733074  0.024884011            2 
 1496000    1.0230424   -7.6430017    444.40843  0.024755371  0.024877286            2 
 1497000    1.0313608   -7.6600482    444.78264  0.024759666  0.024870447            1 
 1498000    1.0159066   -7.6308614    444.05705  0.024702773  0.024863647            3 
 1499000    1.0037283   -7.6196736    445.29378  0.024755047  0.024856843            4 
 1500000    1.0167337   -7.6131611    445.69805  0.024761003  0.024850137            2 
 1501000    1.0034524   -7.6209115    445.16248  0.024714772  0.024843392            2 
 1502000   0.98685831   -7.6268527    445.19222  0.024699968  0.024836688            3 
 1503000    1.0005429   -7.5812089    446.81651  0.024773592  0.024829975            4 
 1504000     1.020119   -7.6585044    445.00801  0.024656916  0.024823223            2 
 1505000    1.0012187   -7.5987338    446.89032  0.024744758  0.024816557            1 
 1506000    1.0155349    -7.641751    446.88985  0.024728301   0.02480981            2 
 1507000     0.995573   -7.6280598    446.88014  0.024711355  0.024803131            2 
 1508000    1.0031916   -7.6115304    446.87926  0.024694919  0.024796467            1 
 1509000    1.0160823   -7.6265839    447.07987  0.024689633  0.024789833            2 
 1510000    1.0078899   -7.6034905    448.16445  0.024733138  0.024783177            3 
 1511000   0.98625646   -7.5943139    448.79485  0.024751536  0.024776443            2 
 1512000    1.0233583   -7.6517775    446.52138  0.024609865   0.02476973            2 
 1513000   0.99181199   -7.6281362    448.35584  0.024694637  0.024763045            5 
 1514000    1.0090694   -7.6345609    448.70827  0.024697725   0.02475642            4 
 1515000    1.0151628   -7.6033516    448.22315  0.024654739  0.024749732            1 
 1516000    1.0080622   -7.6138987    447.68107  0.024608678  0.024742989            2 
 1517000   0.99647752   -7.6286308    447.73768  0.024595566   0.02473629            1 
 1518000    1.0134316   -7.6549164    448.02384  0.024595072  0.024729524            1 
 1519000    1.0083959   -7.6250164    449.48756  0.024659181   0.02472276            2 
 1520000    1.0042848   -7.6356751    448.70966   0.02460031  0.024715977            1 
 1521000     1.018724    -7.635811    448.22375  0.024557514  0.024709201            4 
 1522000    1.0232979   -7.6101755    448.83677  0.024574944  0.024702521            2 
 1523000    1.0164798   -7.6375226    450.62759  0.024656795  0.024695784            1 
 1524000    1.0150448   -7.6193448    450.11075  0.024612355  0.024689008            1 
 1525000   0.99884502   -7.6514104    449.60818  0.024568753  0.024682149            5 
 1526000   0.99848001   -7.6295862    449.68152  0.024556658  0.024675331            2 
 1527000    1.0067904   -7.6341895    449.08455  0.024507998   0.02466856            2 
 1528000    1.0006224   -7.6536424    450.05761  0.024545027   0.02466161            1 
 1529000    1.0141788   -7.6320422    450.86227  0.024572829  0.024654761            1 
 1530000    1.0003666   -7.6536398    450.35303  0.024529032  0.024648057            1 
 1531000    1.0118456   -7.6567016    451.28749  0.024563874  0.024641415            1 
 1532000    1.0166361   -7.6768565    450.69984  0.024515875   0.02463467            2 
 1533000   0.99483857   -7.7034253    449.55999  0.024437921  0.024627896            3 
 1534000   0.99982109   -7.6971797    450.50276  0.024473205  0.024620952            3 
 1535000    1.0060024   -7.6218382    452.10554  0.024544275  0.024614204            2 
 1536000     1.001372   -7.6581375    451.05537   0.02447132  0.024607488            3 
 1537000    1.0183065   -7.6324052    451.87536  0.024499857   0.02460071            1 
 1538000    1.0245032   -7.6326859    451.77908   0.02447871  0.024593891            1 
 1539000    1.0128284   -7.6586048    451.32211  0.024438061  0.024587081            4 
 1540000     1.003989   -7.6390936    452.74225  0.024499039  0.024580372            1 
 1541000    0.9808436   -7.6822985    451.09864  0.024394259  0.024573559            3 
 1542000    1.0296801   -7.6480482    451.32946  0.024390913  0.024566503            1 
 1543000   0.99768742   -7.6844196    451.81703  0.024401438  0.024559558            3 
 1544000    1.0026272   -7.6460659    450.64997  0.024322645  0.024552563            1 
 1545000   0.99306724   -7.7111512    450.22682  0.024284079  0.024545449            1 
 1546000   0.99800476   -7.6730891     451.8743  0.024357175  0.024538194            2 
 1547000   0.99155492   -7.6389145    451.99355  0.024347853  0.024531203            1 
 1548000    0.9895889   -7.6916201    450.47052  0.024250136  0.024524059            2 
 1549000    1.0132811   -7.6605509     452.6456  0.024351496  0.024516907            1 
 1550000    1.0093242   -7.6634665    452.50446  0.024328197  0.024509848            1 
 1551000     1.013181   -7.6741456    452.90799  0.024334192  0.024502873            4 
 1552000    1.0005696   -7.6064666    453.77679  0.024365163  0.024495922            4 
 1553000   0.99358754   -7.6690388     453.6007  0.024340025  0.024488853            1 
 1554000   0.98144966   -7.6338065    453.10789  0.024297935  0.024481801            3 
 1555000    1.0094083   -7.6516316    452.74538  0.024262882  0.024474724            1 
 1556000    1.0066806   -7.6584568     452.6951  0.024244596  0.024467613            3 
 1557000   0.98435381   -7.6610142    453.69278  0.024282422  0.024460612            3 
 1558000    1.0255694   -7.6601531    454.38117  0.024303657  0.024453655            2 
 1559000   0.98961874   -7.6223045    454.93751  0.024317805  0.024446713            1 
 1560000    1.0049354   -7.6724033    453.30971  0.024215262  0.024439657            2 
 1561000    1.0058802   -7.6400883    452.74982   0.02416986  0.024432524            2 
 1562000   0.99301112   -7.6629988    454.05713  0.024224132  0.024425502            1 
 1563000    1.0319873   -7.6786848    454.14027  0.024213066  0.024418408            1 
 1564000   0.97979098   -7.6454415    456.51964  0.024324363  0.024411394            1 
 1565000   0.99817352   -7.6897895    454.57486  0.024205264  0.024404414            1 
 1566000    0.9695662   -7.6707619    455.45937  0.024236876  0.024397382            2 
 1567000    1.0163661   -7.6337186    456.23271  0.024262535  0.024390287            3 
 1568000    1.0138732   -7.6423235    455.27665  0.024196251  0.024383214            2 
 1569000    1.0009219   -7.6771567    453.55301  0.024089283  0.024376042            2 
 1570000    1.0172453   -7.6565011     454.1558  0.024105934   0.02436887            3 
 1571000     1.013412   -7.6759793    455.56909  0.024165558  0.024361683            1 
 1572000   0.98853579   -7.6814809    456.42701  0.024195664  0.024354544            2 
 1573000    1.0116791   -7.6355844    456.15543  0.024165895  0.024347496            1 
 1574000    1.0066328    -7.653433    455.60116  0.024121196  0.024340352            2 
 1575000    1.0468702   -7.6534614    455.69317   0.02411075  0.024333096            2 
 1576000   0.98646201   -7.6758681    455.77268  0.024099655  0.024325849            6 
 1577000    0.9763497   -7.6587423    455.68421  0.024079698  0.024318644            2 
 1578000   0.99546277   -7.6555361    456.05211  0.024083867  0.024311426            1 
 1579000    1.0088341   -7.6665375    455.20651  0.024023987  0.024304151            2 
 1580000    1.0108424   -7.7090569     454.9766  0.023996656  0.024296821            1 
 1581000   0.97721594    -7.672965    456.43901   0.02405856  0.024289599            2 
 1582000    1.0048511   -7.6860451    455.92653  0.024016358  0.024282343            3 
 1583000    0.9898723   -7.6401472    457.61027  0.024089823  0.024275092            4 
 1584000   0.98830243   -7.6612541    455.42806  0.023959809  0.024267847            2 
 1585000   0.98353443   -7.6488156    457.68972  0.024063602  0.024260553            1 
 1586000   0.98349555   -7.6700038    457.98748  0.024064075  0.024253225            1 
 1587000     1.003818   -7.6894466    456.08055  0.023948779    0.0242459            2 
 1588000    1.0029032   -7.6805915    457.92759  0.024030625  0.024238509            1 
 1589000    1.0008973   -7.6776676    457.83602    0.0240107  0.024231126            1 
 1590000    1.0146784    -7.669761    457.11985  0.023958063   0.02422387            1 
 1591000    1.0080261   -7.6273939    458.67738  0.024024585   0.02421656            1 
 1592000   0.99889784    -7.665715    458.47631  0.023998969  0.024209242            3 
 1593000   0.99596369    -7.668061    459.01386  0.024012025  0.024201884            2 
 1594000   0.99831055   -7.6302697    458.28057  0.023958625   0.02419457            1 
 1595000    1.0120089    -7.692454    457.23624  0.023889041  0.024187328            5 
 1596000    1.0012682   -7.6436409    458.66745  0.023948802  0.024180013       -1e+20 
 1597000   0.98988007   -7.6340028    461.19139  0.024065508  0.024172788            8 
 1598000    1.0236936     -7.70873     458.9248  0.023932249  0.024165451            3 
 1599000    1.0076208   -7.6442156    459.35699  0.023939805  0.024158237            1 
 1600000     0.980776     -7.65854    459.86358  0.023951228  0.024151036            1 
 1601000    1.0085427   -7.6864263    458.75015  0.023878313  0.024143709            1 
 1602000   0.97322553   -7.6548123    459.65335  0.023910391  0.024136434            2 
 1603000   0.99831541   -7.6818292    457.40923  0.023778812  0.024129025            4 
 1604000    1.0127548    -7.708536    459.54594  0.023874997  0.024121668            2 
 1605000   0.99707389   -7.6452398    461.08715  0.023940143  0.024114283            1 
 1606000   0.98722446   -7.6615149    460.65476    0.0239028  0.024106888            3 
 1607000    1.0015954   -7.6553596    459.69976  0.023838403  0.024099561            2 
 1608000    1.0021301   -7.6861685    459.72026  0.023824641  0.024092236            2 
 1609000   0.99371257   -7.6897066    460.17968  0.023833627  0.024084798            1 
 1610000   0.99621884   -7.6627175    460.90608  0.023856422  0.024077318            2 
 1611000    1.0165136   -7.6841403    459.36757  0.023762031  0.024069932            1 
 1612000    0.9923777    -7.644965    461.12334  0.023838055  0.024062546            3 
 1613000    1.0099837    -7.695889    461.38062  0.023836568  0.024055234            4 
 1614000   0.96638313   -7.6434398    461.05263  0.023804865  0.024047981            2 
 1615000   0.97198304   -7.6499028     461.5211  0.023814298  0.024040703            1 
 1616000   0.99259551   -7.6611456    461.79889  0.023813887  0.024033461            2 
 1617000   0.98942215   -7.6953519    461.53242  0.023785427  0.024026213            5 
 1618000    1.0204176   -7.6994232    461.91645  0.023790505  0.024018948            2 
 1619000     1.003727   -7.6560078     462.7767   0.02382009  0.024011594            2 
 1620000   0.98708534   -7.6807165    462.21137  0.023776305  0.024004279            1 
 1621000    0.9786988   -7.7350785    461.72701  0.023736737  0.023996884            2 
 1622000   0.97029381   -7.7368862    461.54052  0.023712521   0.02398945            2 
 1623000    0.9703923   -7.6671687    464.53125  0.023851471  0.023982213            2 
 1624000   0.98452461   -7.6639416    464.33906  0.023826922  0.023975019            2 
 1625000   0.97623025   -7.6549672    463.02591  0.023744918  0.023967817            4 
 1626000   0.97884303   -7.6981228    462.93298  0.023725553   0.02396047            4 
 1627000   0.96517748   -7.6935924     463.5225  0.023741165  0.023953141            4 
 1628000   0.97398844   -7.6654406    463.32547  0.023716496  0.023945818            2 
 1629000   0.99546063   -7.6479933    464.28868  0.023751211  0.023938565            2 
 1630000   0.96013968   -7.6605505     463.1745  0.023679678   0.02393132            2 
 1631000    0.9843062   -7.6908709    462.82936  0.023647525  0.023923904            2 
 1632000   0.98774965   -7.6658637    464.06558  0.023696159  0.023916543            3 
 1633000   0.98670868    -7.693618    463.03194  0.023628901  0.023909063            3 
 1634000   0.98418136   -7.6817874    462.98414  0.023612002  0.023901667            5 
 1635000   0.99390185     -7.69275    464.33347  0.023666334  0.023894352            1 
 1636000   0.97921481   -7.6671458    464.81382  0.023676336  0.023887031            3 
 1637000    1.0215364   -7.6554432    464.22156  0.023631723  0.023879751            1 
 1638000    1.0131466    -7.642343    464.92766  0.023653218  0.023872508            1 
 1639000   0.98193625   -7.7003225    464.02775  0.023593032  0.023865184            2 
 1640000   0.95745685   -7.6822037    463.45811  0.023549701  0.023857812            2 
 1641000    1.0015424    -7.675986    464.70811  0.023598828  0.023850465            1 
 1642000   0.98018584    -7.661401    465.52335   0.02362583   0.02384318            2 
 1643000   0.98381822    -7.706753    466.63973  0.023668073  0.023835859            2 
 1644000   0.98051821    -7.693759     465.3641  0.023589016  0.023828413            1 
 1645000    1.0014569   -7.6968358    463.77706  0.023494279  0.023820951            5 
 1646000   0.99144973   -7.6653872    465.44622  0.023564511  0.023813599            4 
 1647000    1.0057118   -7.6821822    465.49592  0.023552718  0.023806218            2 
 1648000   0.98231638   -7.6676581    466.04264  0.023566072  0.023798786            2 
 1649000   0.98833523   -7.6791371    466.52546   0.02357618  0.023791321            2 
 1650000    1.0005334   -7.7076214    465.28377  0.023499181  0.023783922            2 
 1651000   0.98661527   -7.6947235    465.17103  0.023479257  0.023776553            1 
 1652000   0.95136824   -7.7055333    465.22024  0.023467526  0.023769145            4 
 1653000   0.98891918   -7.6918786    466.47976  0.023516826  0.023761645            1 
 1654000   0.98725508   -7.7037795    466.97261  0.023527439   0.02375419            2 
 1655000   0.97785941   -7.6966702    466.40891  0.023484839  0.023746752            2 
 1656000   0.99096563    -7.725548    466.50878  0.023475683  0.023739273            2 
 1657000   0.99968196   -7.7081747    466.53713  0.023462942  0.023731816            1 
 1658000   0.97336549    -7.706837    466.94375  0.023469227  0.023724316            3 
 1659000   0.96640841   -7.7040836    466.50174  0.023432878  0.023716828            2 
 1660000    1.0083714   -7.7093095    467.14553  0.023451081  0.023709364            1 
 1661000    1.0075904   -7.7018777    467.20756  0.023440074  0.023701799            3 
 1662000     1.008114   -7.7124513    467.44087  0.023437669  0.023694315            2 
 1663000    1.0056725   -7.7192613     467.8887  0.023446016  0.023686811            1 
 1664000   0.95765751     -7.68853     468.4724  0.023461158  0.023679313            2 
 1665000   0.96505356   -7.7092445    467.66136  0.023406474  0.023671861            2 
 1666000   0.95491488   -7.6651083    468.46216  0.023432481  0.023664451            2 
 1667000   0.99259407   -7.6876405    468.20562    0.0234056  0.023657165            3 
 1668000   0.97146923   -7.6730085    469.92101  0.023477268  0.023649924            3 
 1669000    0.9722195   -7.6443148     469.3307  0.023433728  0.023642681            2 
 1670000   0.95229286   -7.6760693    469.16403  0.023411379  0.023635447            2 
 1671000   0.97354702   -7.7063246    468.26243  0.023352405  0.023628119            5 
 1672000   0.98788509   -7.6573656     468.9576  0.023373086   0.02362081            1 
 1673000   0.99086166    -7.709067    470.94104  0.023457912  0.023613605            3 
 1674000   0.96082385   -7.6955111    471.16918  0.023455256  0.023606451            1 
 1675000    0.9997794   -7.6749393    470.88341  0.023427035  0.023599214            4 
 1676000   0.97713085   -7.6602817    471.61915   0.02344964  0.023592076            4 
 1677000     0.971648   -7.6784984    470.52159  0.023381116  0.023584968            2 
 1678000   0.98183619   -7.6891579    470.59921  0.023371037  0.023577849            1 
 1679000   0.98157399   -7.7376794    470.52511   0.02335344    0.0235706            1 
 1680000    0.9753899   -7.7118317    472.09139  0.023417231  0.023563398            2 
 1681000   0.97504653   -7.7088046    471.20377  0.023359299  0.023556216            1 
 1682000   0.98737697   -7.7173124    472.00963  0.023385336  0.023549043            3 
 1683000   0.98356166   -7.6908728    471.41196  0.023341848  0.023541883            2 
 1684000   0.96434246   -7.7454762    471.30563  0.023322725  0.023534753            2 
 1685000   0.97294789   -7.7049152    472.57917  0.023371868  0.023527625            1 
 1686000   0.97034531   -7.6817072    473.56733  0.023406847  0.023520508            2 
 1687000   0.97221464    -7.686162    472.83342  0.023356719  0.023513469            2 
 1688000   0.98732105   -7.6598552     475.1851   0.02345898  0.023506387            4 
 1689000   0.96496468   -7.6528893    474.09087  0.023391103  0.023499423            1 
 1690000   0.97985887   -7.6902832    474.19887  0.023382587  0.023492362            2 
 1691000   0.96188197   -7.6907489    472.29123   0.02327475  0.023485271            2 
 1692000    0.9826855   -7.6933991    473.67954   0.02332937  0.023478191            2 
 1693000   0.97897765   -7.6878921    473.97898   0.02333033  0.023471075            3 
 1694000   0.98652253   -7.6814216    474.05286  0.023320192  0.023464035            4 
 1695000   0.98534549   -7.7185146    474.18509  0.023312935  0.023456899            2 
 1696000   0.97986755    -7.705965    474.86181   0.02333244  0.023449778            2 
 1697000   0.99914484   -7.7467446    473.13473   0.02323388  0.023442617            4 
 1698000   0.98778073   -7.7115908    474.56939  0.023290606  0.023435535            2 
 1699000   0.99853946   -7.7137835    473.68766   0.02323365  0.023428476            2 
 1700000   0.97304717   -7.7407525    474.41076  0.023255429  0.023421324            3 
 1701000    1.0044893   -7.7467573    473.84535  0.023214058  0.023414162            2 
 1702000   0.98678817   -7.7220616    474.91631  0.023252855  0.023407004            2 
 1703000   0.97039681   -7.7196792    475.53702  0.023269574  0.023399885            2 
 1704000    1.0017299   -7.7127431    476.24484  0.023290534  0.023392731            1 
 1705000   0.99916467   -7.7320221    474.51091  0.023192127  0.023385553            1 
 1706000   0.98914047   -7.6944885    475.92085  0.023247404  0.023378414            2 
 1707000   0.98678524   -7.7197371    476.55125   0.02326456  0.023371323            3 
 1708000   0.97504912   -7.7012407    476.54061   0.02325042   0.02336426            1 
 1709000   0.97662572   -7.7482528    476.14076  0.023217318  0.023357161            2 
 1710000   0.98822741    -7.706139    476.72862  0.023232389  0.023350213            2 
 1711000   0.96959702   -7.7038831    476.90122  0.023227217  0.023343277            5 
 1712000   0.97973713   -7.7364292    475.70621  0.023155481  0.023336312            3 
 1713000   0.97014898   -7.7386517    475.96811  0.023154705   0.02332928            2 
 1714000    0.9691502   -7.7406056    477.25656  0.023203839  0.023322302            5 
 1715000    1.0048332   -7.6965573     478.1868   0.02323551  0.023315387            1 
 1716000   0.97373759   -7.7161201    478.38871  0.023231775  0.023308448            2 
 1717000   0.98205719   -7.7569518    478.12675   0.02320553  0.023301525            2 
 1718000   0.99639968   -7.7306874    476.03194  0.023090412  0.023294475            2 
 1719000   0.97800461   -7.7046441    477.42663  0.023144591   0.02328753            1 
 1720000   0.96946565   -7.7422932    477.69173  0.023143979  0.023280564            2 
 1721000   0.95512447   -7.7270486    477.66962  0.023129461  0.023273585            3 
 1722000    0.9639041   -7.7302459     478.3859  0.023150692  0.023266674            2 
 1723000    0.9851305   -7.6818993    480.10524  0.023220412  0.023259884            2 
 1724000    1.0031031   -7.7289977    479.13512   0.02316005  0.023253045            2 
 1725000   0.97944716   -7.7336351    478.61259  0.023121381  0.023246192            4 
 1726000   0.97575756   -7.6832434    480.32605  0.023190713  0.023239445            3 
 1727000    1.0040253   -7.7545362    481.19388  0.023219161  0.023232685            1 
 1728000   0.97471912    -7.728054    479.21905  0.023110487  0.023225874            1 
 1729000   0.97926958   -7.7405163    479.79348  0.023124806  0.023219083            3 
 1730000   0.99263559   -7.7195946    479.89733  0.023116442   0.02321215            2 
 1731000   0.98907253    -7.667195    480.80336  0.023146705  0.023205306            1 
 1732000   0.96934507   -7.7116794    479.83044   0.02308653  0.023198526            2 
 1733000   0.98589571    -7.679931    480.66761  0.023113465   0.02319172            2 
 1734000   0.97775147   -7.7208266    480.63367  0.023098504  0.023184865            2 
 1735000   0.97037649   -7.7340018    480.04469  0.023056902  0.023178016            3 
 1736000    0.9751236   -7.7258601    481.61356  0.023118931  0.023171171            2 
 1737000   0.97559882   -7.7376331    481.93193  0.023120895  0.023164283            1 
 1738000   0.96373298    -7.716361    481.72142  0.023097498  0.023157399            1 
 1739000   0.98171511   -7.7291326    479.37482  0.022971766  0.023150479            1 
 1740000   0.95683014   -7.7258662    481.74842  0.023072243  0.023143502            3 
 1741000   0.98391997   -7.7132446    481.07057  0.023026544  0.023136611            1 
 1742000   0.95802735   -7.7118804    481.68589  0.023042762   0.02312965            2 
 1743000   0.97006793   -7.6983331    482.83078  0.023084279  0.023122816            2 
 1744000   0.98647497   -7.7406395    480.50693  0.022960002  0.023115936            2 
 1745000   0.97453378   -7.7370747    480.88878   0.02296508  0.023108956            2 
 1746000   0.96425323   -7.7167666    482.17018  0.023013086  0.023102034            1 
 1747000   0.96491548    -7.731241     480.8126  0.022935155  0.023095073            1 
 1748000   0.97901199   -7.7431898    482.06392   0.02298169  0.023088199            1 
 1749000    0.9839421    -7.703327    483.27411  0.023026211  0.023081384            3 
 1750000      0.96235   -7.7203321    483.36532  0.023017396  0.023074509            1 
 1751000   0.95304622   -7.7598037    482.84869  0.022979664  0.023067653            4 
 1752000   0.97807192   -7.7527949    483.07522  0.022977322  0.023060762            3 
 1753000   0.98941371   -7.7281398     483.3193  0.022975817  0.023053921            8 
 1754000   0.97776113   -7.7369648    483.42563   0.02296777  0.023047144            1 
 1755000   0.96795434   -7.7017119    484.67135  0.023013834  0.023040339            1 
 1756000   0.97185306   -7.7790666    483.53049  0.022946588   0.02303354            1 
 1757000   0.97659493   -7.7204791    482.49181  0.022884264  0.023026719            2 
 1758000   0.98084165   -7.7568294    481.19534   0.02280979  0.023019805            1 
 1759000   0.94791104   -7.7633697    482.97793  0.022881274  0.023012786            2 
 1760000   0.99323523   -7.7742764    482.17082  0.022830058  0.023005815            3 
 1761000   0.96786501   -7.7280818    483.41525  0.022875982  0.022998761            3 
 1762000   0.98122403   -7.7670924    484.16916  0.022898655  0.022991648            4 
 1763000   0.96946367   -7.7552093    483.29855  0.022844514  0.022984706            2 
 1764000   0.99393322   -7.7173637    483.03287  0.022819013  0.022977688            3 
 1765000   0.96533776   -7.7497565    483.85322  0.022844817  0.022970723            2 
 1766000   0.97084143   -7.6798213    484.85113   0.02287897  0.022963736            6 
 1767000   0.94895518   -7.7679305      483.649  0.022809328  0.022956762            1 
 1768000   0.98265531   -7.7348547     484.2745  0.022825909  0.022949767            2 
 1769000   0.96989164   -7.7526295    484.44708  0.022821136  0.022942822            4 
 1770000   0.97465649   -7.7164848    485.49239  0.022857457  0.022935968            2 
 1771000   0.97835692   -7.7491613    485.12552  0.022827288  0.022929172            6 
 1772000   0.96384016   -7.7053793    485.28161  0.022821746  0.022922285            1 
 1773000   0.95599117   -7.7121745    486.80616   0.02288053  0.022915442            2 
 1774000   0.96457524   -7.7060044    485.90422  0.022825264  0.022908634            1 
 1775000   0.97385192   -7.7208312    485.91761  0.022813033  0.022901772            2 
 1776000   0.95023488   -7.7501946     485.0624   0.02276006  0.022894941            2 
 1777000   0.96829083   -7.7552048    485.39618  0.022762905  0.022888051            2 
 1778000    0.9865176   -7.6840975    488.69112  0.022904533  0.022881237            2 
 1779000   0.96924171   -7.7185892    486.91429  0.022808426   0.02287443            2 
 1780000   0.94705599   -7.7296088    487.10331  0.022804462  0.022867686            5 
 1781000    0.9648815   -7.7736971    485.38708  0.022711355  0.022860921            2 
 1782000   0.95278588   -7.7502982    486.84445  0.022766763  0.022854062            2 
 1783000   0.96202784   -7.7830815    486.76539  0.022750299  0.022847215            1 
 1784000   0.96216357   -7.7508989    488.42096  0.022814881  0.022840422            5 
 1785000   0.95788781   -7.7422923    488.71082  0.022815631  0.022833711            9 
 1786000   0.97371428   -7.7193516    488.73283  0.022803884  0.022827055            3 
 1787000   0.98237282   -7.7234956     488.8346  0.022795868   0.02282035            2 
 1788000   0.96673478   -7.6818245    489.56009  0.022816932  0.022813671            2 
 1789000   0.95906554   -7.7456257    488.05028  0.022733849  0.022806877            3 
 1790000   0.97151946   -7.7073197    488.49906  0.022742042  0.022800102            4 
 1791000   0.95506008   -7.7450692     487.8092  0.022697246  0.022793368            2 
 1792000   0.96876813   -7.7633526    487.87927  0.022687838  0.022786503            2 
 1793000   0.98007669    -7.775375    486.98153   0.02263346  0.022779599            2 
 1794000   0.95737167   -7.7678439    488.55039  0.022693719  0.022772703            2 
 1795000   0.95659017   -7.7383427    488.40318  0.022674242  0.022765694            1 
 1796000   0.95960093   -7.7420054    489.34283  0.022705217  0.022758732            1 
 1797000   0.93956177   -7.7435648    487.36033  0.022600646  0.022751797            2 
 1798000   0.95631863   -7.7386854     489.0538  0.022666565  0.022744805            3 
 1799000   0.96822116   -7.7695158    487.38062   0.02257646  0.022737783            1 
 1800000   0.96350913   -7.7323731    487.86975  0.022586563  0.022730783            2 
 1801000   0.97355432   -7.7598919    490.26965  0.022685066  0.022723767            2 
 1802000   0.96247863   -7.7329481    489.67132  0.022644808  0.022716853            2 
 1803000   0.97040263    -7.722129    488.59096  0.022582315  0.022709851            3 
 1804000   0.98186452   -7.7383543    488.64659  0.022572366  0.022702852            2 
 1805000   0.97300508   -7.7490931    488.28418  0.022543129  0.022695793            5 
 1806000   0.97171131   -7.6747498    487.61858  0.022499934  0.022688737            1 
 1807000   0.94214241     -7.77535    489.29294  0.022564699  0.022681708            1 
 1808000   0.98630681   -7.7476299    489.81472  0.022576269   0.02267461            1 
 1809000   0.96851843   -7.7228166    489.67174  0.022557202  0.022667584            1 
 1810000   0.98282121   -7.7464036    490.16168  0.022567296  0.022660612            1 
 1811000   0.96839819    -7.746251    489.00006  0.022501383  0.022653577            2 
 1812000   0.96815988   -7.7411042     488.9732   0.02248773  0.022646539            2 
 1813000   0.94372008   -7.7332669    489.04516  0.022478634   0.02263959            1 
 1814000   0.97988389   -7.7379085     490.2919  0.022523516  0.022632574            1 
 1815000   0.95985223   -7.7477351    490.62356  0.022526334  0.022625628            1 
 1816000   0.97668077   -7.7615035    490.56144  0.022511079   0.02261859            2 
 1817000   0.94332765   -7.7393805    489.75805  0.022461844  0.022611548            1 
 1818000   0.96799371   -7.7561567    491.01202  0.022506968  0.022604436            2 
 1819000   0.96448387   -7.7503628    488.96618   0.02240087   0.02259731            1 
 1820000   0.96823169   -7.7794289    490.02776  0.022437168   0.02259014            3 
 1821000   0.96735309   -7.7574839    489.23868  0.022388737  0.022582999            1 
 1822000   0.94458291   -7.7708072    489.64018  0.022394812  0.022575874            1 
 1823000   0.97097103   -7.7464047     489.4481  0.022373747  0.022568751            2 
 1824000    0.9797235    -7.755725    491.66865  0.022462932  0.022561681            4 
 1825000   0.96632955   -7.7605096    490.71185  0.022406934  0.022554609            1 
 1826000   0.94277853   -7.7760664    490.88969  0.022402779  0.022547614            1 
 1827000    0.9668602   -7.7546714    491.81183  0.022432578  0.022540614            3 
 1828000   0.97263968   -7.7699795    491.76974  0.022418387   0.02253349            5 
 1829000   0.97101743   -7.7464777    490.36279  0.022342026  0.022526404            2 
 1830000   0.97308841   -7.7578572    491.32371  0.022373575  0.022519269            5 
 1831000   0.95010706   -7.8038533    491.03044  0.022348008  0.022512226            4 
 1832000   0.96579952   -7.7543299    491.48779  0.022356613  0.022505261            1 
 1833000   0.95139223   -7.7355179    493.37909  0.022430401  0.022498374            3 
 1834000   0.97641439   -7.7702243    492.45593  0.022376224  0.022491366            1 
 1835000   0.96907604   -7.7348021    493.12109  0.022394237  0.022484352            4 
 1836000   0.94243801   -7.7978812    489.49948   0.02221766  0.022477282            2 
 1837000   0.96726339   -7.7641999    491.94172  0.022316355  0.022470206            2 
 1838000   0.96606092   -7.8068337    491.63409  0.022290265  0.022463109            3 
 1839000   0.95717624   -7.7428087    491.94294   0.02229214  0.022455997            2 
 1840000   0.95970777   -7.7938617    492.40448  0.022300928  0.022448805            4 
 1841000   0.96036734   -7.7608221    492.17353   0.02227836  0.022441751            3 
 1842000   0.95970267   -7.7308043    493.46583   0.02232473  0.022434749            2 
 1843000   0.93256068    -7.766117    492.87785  0.022286031  0.022427684            2 
 1844000   0.94913551   -7.7500329    493.18229  0.022287703   0.02242059            4 
 1845000   0.94727319   -7.7760973    493.08323  0.022271149  0.022413525            3 
 1846000    0.9563446   -7.7678232    492.95259  0.022253187   0.02240646            2 
 1847000   0.95350916    -7.756052     494.2114  0.022297933  0.022399439            2 
 1848000   0.94609919   -7.7795166    494.22832  0.022286631  0.022392468            2 
 1849000   0.95601942   -7.7607474    493.68198  0.022249954  0.022385487            2 
 1850000   0.93595389   -7.7368758    495.38579  0.022314675  0.022378549            3 
 1851000   0.96501558   -7.7545828    494.13885  0.022246482  0.022371646            2 
 1852000   0.96231744   -7.7703687    494.57646   0.02225416  0.022364633            3 
 1853000   0.95818298   -7.8117545    493.75459  0.022205189  0.022357639            2 
 1854000   0.94977526   -7.7857577    494.70478  0.022235921  0.022350614            2 
 1855000   0.95421159   -7.7498259    495.38448  0.022254469  0.022343658            6 
 1856000   0.93184152   -7.7685629    495.87419  0.022264466  0.022336795            1 
 1857000   0.95086274   -7.8164729    496.00051  0.022258145  0.022329851            1 
 1858000   0.97143537   -7.7854409    497.10868  0.022295868  0.022322839            3 
 1859000   0.95475135   -7.7795168     496.1839   0.02224242  0.022316013            2 
 1860000   0.94419363   -7.8041913    496.66463     0.022252  0.022309158            2 
 1861000   0.96129069   -7.7717545     495.9544  0.022208239  0.022302309            3 
 1862000   0.96540253   -7.7678336    496.43797  0.022217954  0.022295398            1 
 1863000   0.93114453   -7.7601005    496.64606  0.022215336  0.022288556            3 
 1864000   0.95417831   -7.7938118    495.42299  0.022148739   0.02228165            1 
 1865000   0.96959159    -7.778742    495.90059  0.022158203  0.022274741            2 
 1866000   0.94425356   -7.8042181    496.62629  0.022178738  0.022267835            1 
 1867000   0.96749925   -7.7549626    496.82204  0.022175596  0.022261053            2 
 1868000   0.95286235   -7.7508585    498.72151  0.022248461  0.022254291            4 
 1869000   0.95821801   -7.7730156    499.17962  0.022256983  0.022247559            1 
 1870000   0.95295221   -7.7822403    497.04451  0.022149934  0.022240746            1 
 1871000   0.95250673   -7.7923227    497.28171   0.02214866  0.022233947            2 
 1872000   0.95265273   -7.7986969    498.30796  0.022182512   0.02222713            2 
 1873000   0.92895129   -7.7710221     497.6121  0.022139709  0.022220277            4 
 1874000   0.95344789   -7.7491674    498.12933  0.022150895  0.022213448            2 
 1875000   0.93568515   -7.7926081     498.2488  0.022144391  0.022206592            1 
 1876000   0.97066998   -7.8285229    499.00446  0.022166154  0.022199744            5 
 1877000   0.95791565    -7.780369    499.68161  0.022184408  0.022192878            2 
 1878000    0.9429894    -7.772181      499.534  0.022166045  0.022186077            4 
 1879000   0.97382152   -7.7928997    499.53387  0.022154243  0.022179285            2 
 1880000   0.96838472   -7.7484265    499.74657  0.022151887  0.022172532            2 
 1881000   0.94218044   -7.7741762    499.74956  0.022140243  0.022165803            4 
 1882000   0.96078251   -7.7639203    499.46904  0.022116057  0.022159082            5 
 1883000    0.9374817   -7.7598629    499.54213  0.022107547  0.022152368            2 
 1884000   0.95932166   -7.7459025    499.67005  0.022101471  0.022145703            2 
 1885000   0.96383536   -7.8275122     500.3873  0.022121454  0.022139014            2 
 1886000   0.95004681   -7.7880695    501.23006  0.022146963  0.022132278            2 
 1887000   0.93572631   -7.7728996    501.59156  0.022151191  0.022125604            1 
 1888000   0.94480935    -7.778501    501.44957  0.022133191  0.022119008            3 
 1889000   0.97048023   -7.8011188     500.5897   0.02208354  0.022112325            3 
 1890000   0.94671881   -7.7741033    501.37936  0.022106674  0.022105679            4 
 1891000   0.93831258   -7.7805844    501.73147    0.0221105  0.022099056            2 
 1892000   0.93348463   -7.7844621    502.46172  0.022130978  0.022092478            2 
 1893000   0.93982732   -7.8206871    501.15455  0.022061743  0.022085813            1 
 1894000   0.96373617   -7.7709123    501.05796  0.022045845  0.022079248            1 
 1895000   0.96238229   -7.7669755    502.59519  0.022101811  0.022072642            4 
 1896000   0.95917164   -7.7805936    501.89373  0.022059324  0.022066035            2 
 1897000   0.96112796   -7.7829754    503.84853  0.022133568   0.02205942            2 
 1898000   0.94289592   -7.7719048    503.22924  0.022094715  0.022052841            2 
 1899000   0.94052456   -7.7708257    504.18811  0.022125159  0.022046287            3 
 1900000   0.94770467   -7.8051374    501.96962  0.022016212  0.022039641            3 
 1901000   0.93004883   -7.8121283    501.75913  0.021995403  0.022032925            1 
 1902000   0.95846057   -7.7727916    503.37468  0.022054621  0.022026313            2 
 1903000   0.94487273   -7.7741787    502.35221  0.021998258  0.022019675            1 
 1904000   0.97178782   -7.7813391    502.64936  0.021999709  0.022013026            2 
 1905000   0.95409801   -7.8199707    502.64984  0.021988182  0.022006394            2 
 1906000   0.95863713   -7.7619315    504.05205  0.022037953  0.021999784            2 
 1907000   0.93822317   -7.7861012    503.93138  0.022021123  0.021993176            3 
 1908000   0.95168853    -7.776377     503.4157  0.021987059  0.021986557            1 
 1909000    0.9389023   -7.7909143    503.73351  0.021989415  0.021979935            2 
 1910000   0.94133891   -7.7930511    503.89179  0.021984807  0.021973365            3 
 1911000   0.94501191   -7.8185325    503.04688  0.021936459  0.021966778            1 
 1912000   0.95866979   -7.8272425    503.21554  0.021932337  0.021960104            2 
 1913000   0.93233686   -7.8008896    504.53395  0.021978304  0.021953467            2 
 1914000   0.93958518   -7.8066813    503.64261  0.021928013   0.02194682            2 
 1915000    0.9539986    -7.800179    505.11335  0.021980563  0.021940183            2 
 1916000   0.92244928   -7.7919268    504.40349  0.021938217  0.021933546            4 
 1917000   0.93122545   -7.8148296    503.58192  0.021891059  0.021926852            1 
 1918000   0.94153466   -7.7801518    504.57676  0.021922869   0.02192019            2 
 1919000    0.9242948   -7.8146257     505.6157  0.021956562  0.021913572            1 
 1920000   0.92184335   -7.7905752    504.99404  0.021918144  0.021906937            1 
 1921000    0.9414317   -7.8119224    503.05131  0.021822458  0.021900204            1 
 1922000   0.91943976   -7.8057628    503.55926  0.021833128  0.021893447            2 
 1923000   0.93674401   -7.7648028    505.06951  0.021887221  0.021886832            1 
 1924000   0.93201583   -7.7836287    506.29899  0.021929097  0.021880245            2 
 1925000   0.94573785   -7.8163342    505.42413  0.021879832  0.021873687            5 
 1926000   0.93239972   -7.7903318    506.54492  0.021916966  0.021867068            1 
 1927000   0.93291602   -7.7779367    506.07347  0.021885205  0.021860428            2 
 1928000   0.92698486   -7.7787276    505.15834  0.021834299  0.021853806            1 
 1929000   0.95078648   -7.8096472    505.77511  0.021849625  0.021847142            1 
 1930000   0.93809958   -7.7955431    505.36976  0.021820801  0.021840581            2 
 1931000   0.93715069   -7.8503636    505.38625  0.021810213  0.021833939            1 
 1932000   0.93966966   -7.7985078    505.12458  0.021787637   0.02182733            2 
 1933000    0.9208581   -7.8165052    506.61857  0.021840773  0.021820754            4 
 1934000    0.9668641   -7.8593203    505.48158  0.021780489  0.021814114            2 
 1935000   0.95986924   -7.7973001    506.10671  0.021796155  0.021807482            3 
 1936000   0.95999903   -7.7905659     505.4272  0.021755647   0.02180083            1 
 1937000    0.9575122   -7.8118719      505.668  0.021754775  0.021794135            1 
 1938000   0.95123128   -7.7972004    507.27961  0.021812849  0.021787491            2 
 1939000   0.93763919   -7.7923518    507.09686  0.021793745  0.021780847            4 
 1940000   0.93106958   -7.8361705    505.46371  0.021712359  0.021774169            2 
 1941000   0.92912021   -7.8210198      507.228  0.021776919  0.021767428            1 
 1942000   0.94148726   -7.8054214    506.96236  0.021754307  0.021760717            3 
 1943000   0.95788559   -7.8098157    506.01304  0.021702395  0.021754036            2 
 1944000   0.92106258   -7.7879289    507.69414  0.021763295  0.021747417       -1e+20 
 1945000   0.95001472   -7.8181934    506.89363  0.021717807  0.021740798            1 
 1946000   0.93274686   -7.8035783    508.02026  0.021754893  0.021734096            3 
 1947000   0.94038175   -7.8163504    507.21937  0.021709441  0.021727462            1 
 1948000   0.95292732   -7.8456253    507.03722  0.021690504  0.021720803            2 
 1949000    0.9487071   -7.8302479    508.73572  0.021751997  0.021714085            4 
 1950000   0.94871184    -7.800949     506.9116  0.021662889  0.021707492            2 
 1951000   0.94740759   -7.8083582    509.67677  0.021769895  0.021700939            3 
 1952000   0.92174162   -7.8247067    508.54179  0.021710288  0.021694343            6 
 1953000   0.93787845   -7.8014999    509.08947  0.021722541  0.021687713            1 
 1954000   0.92758046   -7.8296313     507.2897  0.021634668  0.021681021            3 
 1955000   0.93426836   -7.8132121    508.31802  0.021667435  0.021674354            7 
 1956000   0.94948083   -7.8310061    506.67431  0.021586329  0.021667646            2 
 1957000   0.93390256   -7.7812504    509.13646  0.021680142  0.021661042            3 
 1958000   0.91933638   -7.8219858    507.78947  0.021611741  0.021654428            5 
 1959000   0.91919992   -7.8281918    509.39392   0.02166896  0.021647805            4 
 1960000   0.92333947   -7.8204048    508.27521  0.021610341  0.021641115            4 
 1961000   0.92739919   -7.8304431    507.82044  0.021579995   0.02163437            2 
 1962000   0.95771008   -7.8408435    507.70797  0.021564219  0.021627661            1 
 1963000   0.94989962   -7.8133011    509.63314  0.021634961  0.021620926            1 
 1964000   0.93225699   -7.7840788    508.34704  0.021569375   0.02161422            3 
 1965000   0.95351025   -7.8439599    508.09869  0.021547867  0.021607498            2 
 1966000   0.92873158   -7.8259785    508.35454  0.021547751  0.021600733            1 
 1967000   0.93617123    -7.827108    508.55752  0.021545396  0.021593968            1 
 1968000   0.94820756   -7.8243212    508.40325  0.021527915  0.021587211            1 
 1969000   0.92778324   -7.8039657     509.5795  0.021566764  0.021580445            3 
 1970000   0.92501444   -7.8254742    508.50111  0.021510199   0.02157368            2 
 1971000   0.92092853   -7.8436221    509.61348  0.021546316  0.021566953            2 
 1972000   0.95240652   -7.7976174    510.79262  0.021585219  0.021560239            3 
 1973000    0.9448173   -7.8349389    509.58488  0.021523267  0.021553483            3 
 1974000   0.94949918   -7.8378343    510.42651  0.021547894  0.021546774            2 
 1975000    0.9248476   -7.8308896    508.90789  0.021472907  0.021539958            2 
 1976000   0.93856032   -7.8803041    508.51481  0.021445463  0.021533113            2 
 1977000   0.94014713   -7.8479851    508.80238  0.021446737  0.021526307            3 
 1978000    0.9335087   -7.8504713     509.6772   0.02147275   0.02151955            1 
 1979000   0.92483497   -7.8428379    509.89855  0.021471221  0.021512722            2 
 1980000   0.92176753   -7.8590768    509.97717  0.021463686  0.021505918            2 
 1981000   0.92721698    -7.864982    509.99138  0.021453449  0.021499175            4 
 1982000   0.92022354   -7.8551349    510.78726  0.021476087  0.021492468            3 
 1983000   0.92037783   -7.8464035    509.14611   0.02139629  0.021485692            2 
 1984000   0.92404527   -7.8191938    511.28931  0.021475525  0.021478916            1 
 1985000   0.94451654   -7.8443065    509.19869  0.021376939  0.021472183            2 
 1986000   0.94393105   -7.8190413    510.73151  0.021430493  0.021465484            3 
 1987000   0.93048072   -7.8290364    511.05135  0.021433121  0.021458778            1 
 1988000   0.92125526   -7.8138268    510.66493  0.021406142  0.021452079            2 
 1989000   0.94310988   -7.8040988    512.15529  0.021457822  0.021445395            1 
 1990000   0.93400272   -7.8150109     511.9748  0.021439481   0.02143877            3 
 1991000   0.91321016   -7.8032926    512.60869  0.021455244  0.021432117            2 
 1992000   0.91213085   -7.8188644    512.53826  0.021441527  0.021425455            2 
 1993000   0.93676274   -7.8794504    510.53195  0.021346879  0.021418711            1 
 1994000   0.92151302   -7.8354161    511.94062  0.021395044  0.021411916            2 
 1995000    0.9281746   -7.8206539    512.49513  0.021407482  0.021405275            1 
 1996000   0.92847485   -7.8821939    511.57148  0.021358195  0.021398623            4 
 1997000   0.94810172   -7.7867353    513.79076  0.021440109  0.021391935            2 
 1998000   0.92895606   -7.8047149    512.35722  0.021369587  0.021385305            4 
 1999000   0.92894214   -7.7967624    512.42838  0.021361864  0.021378647            2 
 2000000    0.9299377   -7.8671386    512.85039  0.021368766  0.021371943            2 
 2001000   0.94807765   -7.8592896    511.72616  0.021311268  0.021365212            3 
 2002000   0.93862314   -7.8488575    512.39272  0.021328368  0.021358512            2 
 2003000   0.92305296   -7.8704588    511.30734  0.021272564  0.021351735            2 
 2004000   0.93334776   -7.8523169    513.99979   0.02137391   0.02134502            2 
 2005000    0.9368586   -7.9098711    511.87511  0.021274942  0.021338315            1 
 2006000   0.91247645   -7.8654433    512.16942  0.021276563  0.021331631            2 
 2007000   0.93467986    -7.852169     513.9277  0.021338968  0.021325026            2 
 2008000   0.91584206   -7.8247629    514.13077  0.021336769  0.021318431            2 
 2009000   0.94296132   -7.8316516    514.50134  0.021341519  0.021311804            2 
 2010000   0.93844439   -7.8499418    513.78758  0.021301309  0.021305176            1 
 2011000   0.93158797   -7.8415694    513.26101  0.021268896  0.021298552            1 
 2012000   0.92450514   -7.8418829    514.19027  0.021296814  0.021291878            2 
 2013000   0.93291361   -7.8228391    514.73497  0.021308783  0.021285285            1 
 2014000   0.94184896   -7.8112308    514.92883  0.021306224  0.021278705            2 
 2015000   0.92423583   -7.8600078    513.87678  0.021252141   0.02127203            3 
 2016000   0.91715859   -7.8492314    514.16495  0.021253511  0.021265394            3 
 2017000   0.92741936   -7.8160016    515.14538  0.021283481  0.021258789            2 
 2018000   0.91954673   -7.8698465    513.06631  0.021187079  0.021252194            2 
 2019000   0.93686387   -7.8127584    515.91154  0.021294021  0.021245596            3 
 2020000   0.92002386   -7.8698758    513.89799  0.021200412  0.021239028            6 
 2021000   0.92799483   -7.8539816    515.55095   0.02125808    0.0212324            1 
 2022000   0.92796612   -7.8405445     515.2047  0.021233296  0.021225808            1 
 2023000   0.92714882   -7.8513196    514.78172  0.021205377  0.021219223            2 
 2024000   0.93902885   -7.8459381     516.3446  0.021259247  0.021212636            2 
 2025000   0.92336553   -7.8410068    514.87389  0.021188226  0.021205996            2 
 2026000    0.9348268   -7.8729867    515.50371  0.021203674  0.021199394            4 
 2027000   0.92781619   -7.8374448    515.39131  0.021188592  0.021192805            2 
 2028000   0.94030968    -7.832271    517.26145  0.021254991  0.021186209            1 
 2029000   0.91462749   -7.8545566    515.92825  0.021189759  0.021179619            2 
 2030000   0.93808738   -7.8550291    516.43125  0.021199969  0.021172978            6 
 2031000    0.9192206   -7.8744254    515.65848  0.021157824  0.021166315            1 
 2032000   0.92088067   -7.8667592    515.19308  0.021128325  0.021159635            1 
 2033000    0.9218791   -7.8598907    515.60383  0.021134769  0.021152897            4 
 2034000   0.91392784   -7.8418767    516.65279  0.021167355  0.021146206            3 
 2035000   0.93070186   -7.8490905    514.90455  0.021085362  0.021139567            3 
 2036000   0.92347837   -7.8541627    515.74712  0.021109493  0.021132834            2 
 2037000   0.91545869     -7.85135    516.73655  0.021139607  0.021126138            4 
 2038000   0.92887029   -7.8386657    515.52252  0.021079593  0.021119445            3 
 2039000   0.91001281   -7.8511036    515.70453  0.021076693   0.02111276            2 
 2040000   0.92183424   -7.8822274    516.00995  0.021078838  0.021106098            3 
 2041000   0.91121026    -7.862688    516.03414  0.021069498  0.021099438            4 
 2042000   0.94532361   -7.8704627     515.7827  0.021048918  0.021092722            2 
 2043000   0.93199221   -7.8215849    517.08666  0.021091804  0.021086042            5 
 2044000   0.92511271   -7.8713063    517.02375   0.02107892  0.021079413            2 
 2045000   0.94296567   -7.8426733    515.30487  0.020998568  0.021072746            5 
 2046000   0.94345796   -7.8972884    516.77716  0.021048271  0.021066027            2 
 2047000   0.90959776   -7.8190464    517.46116  0.021065835  0.021059391            2 
 2048000   0.94787743   -7.8596778    515.95119  0.020994108  0.021052807            4 
 2049000   0.92058273   -7.8473042    517.47411  0.021045799  0.021046125            2 
 2050000   0.93706707   -7.8802583    516.99608  0.021016101  0.021039438            4 
 2051000    0.9227035   -7.9086376    516.92149  0.021002823  0.021032749            2 
 2052000   0.91856715   -7.8579537    517.66198   0.02102266  0.021026083            3 
 2053000   0.89940451   -7.8640887      516.881  0.020980719   0.02101937            2 
 2054000   0.93652348   -7.8385869    518.54308  0.021037937  0.021012693            2 
 2055000   0.94029312   -7.9065962    516.85916  0.020959414  0.021005982            4 
 2056000   0.93520497   -7.8829794    517.22235  0.020963941  0.020999233            4 
 2057000   0.94375076   -7.8690966     517.8451  0.020978978  0.020992529            1 
 2058000   0.92165694   -7.8419863    517.87295  0.020969912  0.020985863            3 
 2059000   0.93146415   -7.8323038    519.06545  0.021007991  0.020979257            4 
 2060000   0.93487075   -7.8696386    518.60816  0.020979295  0.020972662            7 
 2061000   0.92554879   -7.8700387    519.03798  0.020986495  0.020966094            1 
 2062000   0.91718016   -7.8909669    518.47013  0.020953368  0.020959494            2 
 2063000   0.92564367   -7.8800788     519.8063  0.020997184  0.020952847            2 
 2064000   0.93376404   -7.8866118    518.35777  0.020928527  0.020946234            4 
 2065000   0.91211368   -7.8794226    518.83083  0.020937483   0.02093958            1 
 2066000   0.92867077   -7.8536231    519.42437   0.02095129  0.020932954            1 
 2067000   0.94550518   -7.8817064    518.18785  0.020891302  0.020926371            3 
 2068000   0.91815778   -7.8334419    520.01003  0.020954627  0.020919843            2 
 2069000   0.91446709   -7.8623221    520.14466  0.020949922   0.02091324            3 
 2070000   0.93094584   -7.9232427    519.34272  0.020907517  0.020906649            2 
 2071000   0.92590339   -7.8462271    520.03171  0.020925145   0.02090003            2 
 2072000   0.90580751   -7.8456289    521.28455  0.020965434  0.020893496            3 
 2073000   0.92762376   -7.8531895    521.97251  0.020982976  0.020887022            2 
 2074000   0.90770003   -7.8395057    520.38814  0.020909199  0.020880571            2 
 2075000   0.92772196   -7.8292772     520.5214  0.020904474  0.020874088            2 
 2076000   0.90848151   -7.8459365    520.54857  0.020895495  0.020867605            4 
 2077000   0.88671111   -7.8694732    519.92893  0.020860573   0.02086104            2 
 2078000   0.92005269   -7.8960296     521.0187  0.020894237  0.020854463            1 
 2079000   0.92394385   -7.8887258    522.09121  0.020927177  0.020847945            2 
 2080000   0.90803597   -7.9055723    520.82069  0.020866214  0.020841383            3 
 2081000   0.91354805   -7.8717421    522.32971  0.020916615  0.020834919            1 
 2082000   0.92424321   -7.8884619    521.36095  0.020867793   0.02082844            1 
 2083000   0.92087412   -7.8800879    522.23261  0.020892647  0.020821974            3 
 2084000   0.94246896   -7.8586148    522.23077  0.020882548  0.020815512            1 
 2085000   0.93436116   -7.8727004    521.29973  0.020835321  0.020809041            5 
 2086000   0.91305516   -7.8618358    520.84395  0.020807125  0.020802539            2 
 2087000    0.9260655   -7.8940378    521.45717  0.020821641  0.020795948            3 
 2088000   0.93432806   -7.9004765    522.53161   0.02085455  0.020789398            4 
 2089000    0.9063857   -7.8869392    522.88899  0.020858824  0.020782868            3 
 2090000   0.90632158    -7.885418    524.70487  0.020921247  0.020776385            2 
 2091000   0.92087766   -7.8909607    522.54777  0.020825274  0.020769975            2 
 2092000   0.92332139   -7.8964297    521.60722  0.020777853  0.020763463            3 
 2093000   0.92372342   -7.8801803    523.42798   0.02084042  0.020756994            1 
 2094000   0.91491236   -7.8739405    524.34894  0.020867118  0.020750526            1 
 2095000   0.92095445   -7.8665744    523.60855  0.020827707  0.020744074            1 
 2096000    0.9016812   -7.8794083    523.45005  0.020811468  0.020737562       -1e+20 
 2097000    0.9085161   -7.8954977    522.88127  0.020778941   0.02073106            1 
 2098000    0.9282651   -7.8647785    524.73396  0.020842626  0.020724614            2 
 2099000   0.90525532   -7.8902478    523.44393   0.02078148  0.020718175            1 
 2100000   0.90484307   -7.9309867    522.21319  0.020722746  0.020711702            1 
 2101000   0.92774463   -7.8788461    523.65719  0.020770157  0.020705207            1 
 2102000   0.94564961   -7.8869093    523.47689  0.020753127  0.020698676            2 
 2103000   0.90455897   -7.9251737    523.38789  0.020739732  0.020692156            3 
 2104000   0.91521076   -7.8471148    525.36885  0.020808335  0.020685659            1 
 2105000   0.91471597   -7.8810339    524.63727  0.020769488  0.020679222            3 
 2106000   0.92091173   -7.8736723    524.95368  0.020772146   0.02067283            2 
 2107000   0.92147734   -7.8796757    523.41725  0.020701521  0.020666385            5 
 2108000   0.93583188   -7.8844048    523.00738  0.020675497  0.020659969            2 
 2109000   0.90326216   -7.8764253    524.21907  0.020713572  0.020653493            1 
 2110000   0.91270865   -7.8833657    524.21927  0.020703763  0.020647046            3 
 2111000   0.91977127   -7.8881612    524.40976  0.020701475  0.020640601            3 
 2112000   0.91671145   -7.8766138    523.75558  0.020665861  0.020634102            1 
 2113000    0.9162014   -7.8614783    525.41539  0.020721541  0.020627593            2 
 2114000   0.91597451   -7.8874609    524.27625  0.020666834  0.020621062            2 
 2115000   0.90640858   -7.9142862    524.72537  0.020674759  0.020614571            2 
 2116000   0.93707876   -7.8999249    524.40545  0.020652389  0.020608048            1 
 2117000    0.8982305   -7.8660799    526.15998  0.020711698  0.020601563            3 
 2118000   0.90439098   -7.9029718    523.11507  0.020582116  0.020595061            2 
 2119000   0.92328901   -7.9018965    524.97252  0.020645451   0.02058856            1 
 2120000   0.91498393   -7.8927346     525.2316  0.020645896  0.020582034            3 
 2121000   0.90480945   -7.9104373    525.41417  0.020643335  0.020575547            1 
 2122000    0.9115004   -7.8903414    525.20388  0.020625349  0.020569025            5 
 2123000   0.91480076   -7.9089201    524.45338  0.020586174  0.020562546            5 
 2124000   0.90965958   -7.8743315     526.3232  0.020649843  0.020556092            2 
 2125000    0.8774204   -7.8800952    525.89417  0.020623301  0.020549626            1 
 2126000   0.89491857   -7.8413428    526.05918  0.020620068  0.020543139            2 
 2127000   0.89084312    -7.897145    524.95246  0.020567014  0.020536673            3 
 2128000   0.91294364   -7.8997868    527.62488  0.020662002  0.020530226            3 
 2129000   0.92939241    -7.877144    526.30784  0.020600745  0.020523796            2 
 2130000   0.91173464    -7.874181    526.06224  0.020581465  0.020517374            4 
 2131000   0.91990976    -7.863129    527.60493  0.020632134  0.020510944            1 
 2132000   0.90335462   -7.8744499     526.8994   0.02059488  0.020504495            1 
 2133000   0.89974275   -7.9123163    525.33092  0.020523946  0.020498034            4 
 2134000    0.8884571   -7.8530934     526.1078  0.020544666  0.020491532            3 
 2135000   0.91111204   -7.8658634    526.45654  0.020548655  0.020485087            4 
 2136000   0.91014118   -7.8775888    528.13037  0.020604337  0.020478695            1 
 2137000   0.91354217   -7.9207536    525.47385  0.020491103  0.020472299            4 
 2138000   0.91524773   -7.8714256    526.93161  0.020538338  0.020465886            2 
 2139000   0.88981679   -7.8757853    526.87075  0.020526365   0.02045949            2 
 2140000   0.89115705   -7.8832699    527.97669   0.02055984  0.020453135            2 
 2141000   0.90170292   -7.8796488     528.2528  0.020560984  0.020446783            2 
 2142000   0.92235384   -7.8529853    528.92349  0.020577478  0.020440418            1 
 2143000   0.91063136   -7.8724587    530.23651  0.020618934  0.020434049            1 
 2144000   0.88531989   -7.8766621    528.79693  0.020553363  0.020427703            3 
 2145000   0.91064684   -7.8605491     527.9961  0.020512669   0.02042136            3 
 2146000   0.92134074   -7.8864048     527.3599  0.020478406   0.02041502            3 
 2147000   0.91610341   -7.9253588    527.39808  0.020470349  0.020408643            2 
 2148000   0.89735199   -7.8881247    528.93428  0.020520417  0.020402238            1 
 2149000   0.91837959   -7.9200779    528.46676  0.020492739  0.020395814            1 
 2150000   0.91902526   -7.8761197    528.67867  0.020491421  0.020389373            1 
 2151000   0.92605247   -7.8844858    529.10636  0.020498464  0.020382956            2 
 2152000   0.90460824   -7.8818703    529.14884  0.020490584  0.020376566            1 
 2153000   0.90101499   -7.8609705    530.81364  0.020545504   0.02037027            3 
 2154000   0.90580639   -7.8915028    529.20377  0.020473684  0.020363989            2 
 2155000    0.9070182   -7.8957637    528.57617  0.020439914  0.020357629       -1e+20 
 2156000   0.92422052   -7.9258045     528.2867  0.020419245  0.020351263            2 
 2157000    0.9091441   -7.9045311    528.90315  0.020433594   0.02034491            5 
 2158000   0.90736417   -7.8900629    531.18497   0.02051224  0.020338585            2 
 2159000   0.91770745   -7.8730232    530.65151  0.020482149  0.020332274            4 
 2160000   0.89064429   -7.9050352     530.9555  0.020484394  0.020325985            5 
 2161000   0.91961531   -7.8764016    530.80543  0.020469128  0.020319721            5 
 2162000   0.91578451    -7.917667    530.00712   0.02042889  0.020313432            1 
 2163000   0.91278863    -7.899146    529.88609  0.020414782  0.020307098            3 
 2164000   0.89831962   -7.8925604    530.37605  0.020424217  0.020300798            1 
 2165000   0.91630454   -7.9009121    530.72014  0.020428027  0.020294475            3 
 2166000   0.90748644   -7.9129485    531.36094   0.02044325  0.020288218            3 
 2167000   0.89286451   -7.8742545    531.06191  0.020422316   0.02028196            3 
 2168000   0.90815443   -7.9017139    530.14251  0.020377557  0.020275697            3 
 2169000   0.90658642   -7.8965807    531.22103  0.020409599  0.020269455            2 
 2170000   0.90933636   -7.8931095    531.30774  0.020403523   0.02026319            2 
 2171000   0.88004872   -7.9225109    531.16402  0.020388608  0.020256919            1 
 2172000   0.91272501   -7.9194271     529.8066  0.020327141  0.020250666            2 
 2173000   0.90718424    -7.881153    532.42984  0.020418386  0.020244516            1 
 2174000   0.89567903   -7.9343887    531.75859  0.020383264  0.020238344            2 
 2175000   0.91768355    -7.861981    533.17253  0.020428066  0.020232185            1 
 2176000   0.89143471   -7.9174316    532.83595  0.020405789   0.02022609            1 
 2177000   0.88537608   -7.8785298    532.42864  0.020380824  0.020219946            3 
 2178000   0.90313512   -7.8999513    531.14099  0.020322199  0.020213765            1 
 2179000   0.89615291   -7.9478813    533.55434  0.020405168  0.020207528            1 
 2180000   0.91942971   -7.8935125    532.93946  0.020372304  0.020201323            4 
 2181000   0.90232323   -7.9238691    532.10992  0.020331267  0.020195126            3 
 2182000   0.90531678   -7.9278506    532.69971  0.020344474  0.020188952            4 
 2183000   0.91496087   -7.9472712    532.77321   0.02033796  0.020182681            3 
 2184000   0.91805994   -7.8923344    532.95107  0.020335435   0.02017651            2 
 2185000   0.90252186   -7.9352493    533.04226  0.020329606  0.020170339            2 
 2186000   0.90867355   -7.9169282    533.63911  0.020343059  0.020164193            2 
 2187000   0.88906788   -7.8825661    533.97373  0.020346507   0.02015805            2 
 2188000   0.89697299    -7.909636    533.65808  0.020325186  0.020151895            4 
 2189000   0.92092363   -7.9072384    534.55821  0.020350168   0.02014573            2 
 2190000   0.89666479   -7.8829159    533.68594  0.020307684  0.020139602            2 
 2191000   0.88439247    -7.910397    533.68438  0.020298356  0.020133413            2 
 2192000   0.89621137   -7.9376274    534.86102  0.020333828  0.020127173            3 
 2193000   0.90140348   -7.9143385    533.62139   0.02027745  0.020120968            2 
 2194000   0.91625837   -7.9272421    533.55673  0.020265752  0.020114828            1 
 2195000   0.90636427   -7.9088662    535.09755  0.020315017  0.020108706            2 
 2196000   0.90584659   -7.9227657     535.2037  0.020309794  0.020102607            4 
 2197000   0.91482127   -7.9017599    534.90631   0.02028927  0.020096478            2 
 2198000   0.91443466   -7.9284876    534.17839  0.020252441  0.020090333            2 
 2199000   0.90704133   -7.9226579    534.87239  0.020269531  0.020084163            4 
 2200000   0.89672379   -7.9351556    533.97198  0.020226211  0.020077993            4 
 2201000   0.91654391   -7.9316154    534.52341    0.0202379  0.020071845            2 
 2202000   0.90200246   -7.9185418    535.33303  0.020259349  0.020065718            1 
 2203000   0.90744643   -7.9073968    536.62485  0.020299018  0.020059567            3 
 2204000   0.90305364   -7.8967201    535.80686   0.02025888  0.020053453            4 
 2205000   0.89880102   -7.8942374    536.24493  0.020266248  0.020047359            2 
 2206000   0.90036996   -7.8809253    535.81042  0.020240647    0.0200413            2 
 2207000   0.89282505   -7.9068285     534.6842  0.020188952  0.020035189            2 
 2208000   0.91191161   -7.9234097    536.12452  0.020234168   0.02002909            1 
 2209000   0.89345859   -7.9416596    535.76787  0.020211554  0.020023002            2 
 2210000   0.87577505   -7.9072724    536.25904  0.020220929  0.020016859            2 
 2211000   0.90686875    -7.907964    536.75667  0.020230539  0.020010789            1 
 2212000   0.89413882   -7.9073235    536.93679  0.020228179  0.020004713            1 
 2213000   0.92987816   -7.8767377    538.15754  0.020265008    0.0199987            1 
 2214000   0.88664025   -7.9144625    535.90845    0.0201712  0.019992671            2 
 2215000   0.92529902    -7.944612    536.11179  0.020169744   0.01998653            2 
 2216000   0.89353738   -7.9136326    537.21912  0.020202283  0.019980392            3 
 2217000   0.89294692   -7.9315446      536.357  0.020160765  0.019974284            3 
 2218000   0.90662777   -7.9244139    536.12897  0.020143108  0.019968125            2 
 2219000   0.89230785   -7.9065344    537.51781  0.020186188  0.019962035            3 
 2220000   0.88920985   -7.9496715      534.526   0.02006479  0.019955862            1 
 2221000   0.88948809   -7.9213183    537.72832  0.020175909  0.019949754            1 
 2222000   0.87893879   -7.9449469    535.13905  0.020069721  0.019943583            3 
 2223000   0.89040408   -7.9230472    535.65916   0.02008019  0.019937411            2 
 2224000   0.90395134   -7.9171147    536.87575  0.020116747  0.019931315            1 
 2225000   0.90017373   -7.9505757    536.25356  0.020084403  0.019925223            2 
 2226000    0.9112598   -7.9526795    537.46015  0.020120551  0.019919122            1 
 2227000   0.88864086   -7.8865376    537.81546  0.020124812  0.019913018            3 
 2228000   0.88927699   -7.9370412    537.55783  0.020106143  0.019906874            1 
 2229000   0.90435575   -7.9623571    536.77579  0.020067885  0.019900685            1 
 2230000   0.89382172   -7.9335497    537.74647   0.02009516  0.019894545            2 
 2231000   0.91207315   -7.9447835    536.56333  0.020041959  0.019888466            2 
 2232000   0.89406768    -7.914242     537.9857  0.020086085  0.019882383            3 
 2233000   0.90077284   -7.9378681    536.18671  0.020009953  0.019876263            2 
 2234000   0.90729558   -7.9367916    537.47737  0.020049141  0.019870058            3 
 2235000    0.8897712   -7.9539252    535.99588  0.019984932  0.019863861            1 
 2236000   0.92549615   -7.9034505    537.58089  0.020035066  0.019857734            2 
 2237000     0.900091   -7.9577587    537.13554  0.020009519  0.019851573            1 
 2238000   0.90053305   -7.9636219    536.59974  0.019980628  0.019845377            2 
 2239000    0.8827739   -7.9427346    536.96579  0.019985328  0.019839203            4 
 2240000   0.90108524   -7.9428962    537.20346  0.019985248  0.019833074            9 
 2241000   0.89409826   -7.9180764    537.90993  0.020002601  0.019826899            2 
 2242000   0.89973407    -7.909165    537.35916  0.019973207  0.019820703            1 
 2243000   0.90142803   -7.9503121    537.32671  0.019963097  0.019814545            1 
 2244000   0.88657794   -7.9485125    537.59905  0.019964314  0.019808353            1 
 2245000   0.88894087   -7.9734692    538.31127  0.019981858  0.019802219            1 
 2246000    0.9020141   -7.9516878    538.49021  0.019979601  0.019796056            3 
 2247000    0.8845162     -7.91443     538.8626   0.01998452  0.019789933            2 
 2248000   0.88500052   -7.9137824    538.79373  0.019973077  0.019783805            3 
 2249000   0.89705942   -7.9416582    537.56024  0.019918491  0.019777679            2 
 2250000   0.91244243   -7.9405273    538.07945  0.019928869   0.01977149            2 
 2251000   0.87673578   -7.9113095    539.12165  0.019958598  0.019765413            3 
 2252000   0.90094592   -7.9188175    539.86151  0.019977113  0.019759333            2 
 2253000   0.90153321   -7.9294597    539.97549  0.019972462   0.01975324            1 
 2254000   0.87972225   -7.9476415    537.72024  0.019880222  0.019747133            1 
 2255000   0.89058734   -7.9474879    538.82354  0.019912178  0.019741013            3 
 2256000   0.87999809   -7.9677389    538.91034  0.019906558  0.019734889            4 
 2257000   0.89627364   -7.9197605    540.32713  0.019950049  0.019728801            4 
 2258000   0.89443554   -7.9275726    541.07863  0.019968949  0.019722762            3 
 2259000   0.89112972   -7.9093981    541.02276  0.019958048  0.019716743            2 
 2260000   0.89614462   -7.9265597    540.47213  0.019928913  0.019710773            2 
 2261000   0.90846689   -7.9747696      540.501  0.019921163   0.01970473            1 
 2262000   0.90265922   -7.9445019    541.04436  0.019932374  0.019698656            1 
 2263000   0.90242964    -7.893654    541.62155  0.019944821   0.01969264            3 
 2264000   0.89239321   -7.9289031    540.31435  0.019887896  0.019686641            1 
 2265000   0.88268505   -7.9180528    540.42764  0.019883283   0.01968059            2 
 2266000   0.88988477   -7.9935099    539.08889  0.019825276  0.019674483            4 
 2267000   0.88520702   -7.9368245    542.09442  0.019927011  0.019668394            2 
 2268000   0.85664788   -7.9230115    541.35101   0.01989091  0.019662342            2 
 2269000   0.87880649   -7.9125529    540.20215   0.01983995   0.01965632            2 
 2270000   0.90345402   -7.9285741    540.41343  0.019838966  0.019650241            4 
 2271000   0.87294962   -7.9411935    540.77855  0.019843628  0.019644123            1 
 2272000   0.88830011   -7.9447123    541.08229  0.019846035  0.019638006            1 
 2273000   0.89914272   -7.9274388    539.78482  0.019789735  0.019631948            3 
 2274000   0.89992614   -7.9816105    539.88783  0.019784808  0.019625828            1 
 2275000    0.8951154   -7.9437276    540.10061  0.019783905  0.019619724            2 
 2276000    0.8897208   -7.9176031    541.06911  0.019810673  0.019613605            2 
 2277000   0.86897151   -7.9584223    540.39749  0.019777393  0.019607464            1 
 2278000   0.88220719   -7.8886636    540.41281  0.019769272  0.019601388            2 
 2279000   0.89792191   -7.9215264    541.53451  0.019801613  0.019595289            3 
 2280000   0.89232549   -7.9552115     540.1449  0.019742138  0.019589181            1 
 2281000    0.8821429   -7.9800403    541.32013  0.019776419  0.019583076            4 
 2282000   0.87824254   -7.9770121    540.32743  0.019731501  0.019576939            4 
 2283000   0.87457793   -7.9599661    540.90098  0.019743794  0.019570815            2 
 2284000   0.87768526   -7.9577812    542.48162   0.01979282  0.019564736            1 
 2285000   0.88891437   -7.9703609    539.78368  0.019685765  0.019558635            2 
 2286000    0.8858805   -7.9631393     539.7965  0.019677621  0.019552485            3 
 2287000   0.90267456   -7.9281127    543.07182  0.019788363  0.019546416            2 
 2288000     0.891913    -7.979703    539.83277  0.019661741  0.019540304            2 
 2289000   0.87149161    -7.987471    540.80103  0.019688402  0.019534147            2 
 2290000   0.89517089    -7.954673    541.91254  0.019720253  0.019528035            2 
 2291000   0.89292516   -7.9510847     541.4081  0.019693296  0.019521957            2 
 2292000   0.90080266   -7.9544178    542.04394  0.019707822  0.019515869            3 
 2293000   0.87163645   -7.9711988    540.40932  0.019639821  0.019509762            2 
 2294000   0.89509405   -7.9796176    542.30381   0.01970008  0.019503642            2 
 2295000   0.89470774   -7.9234983    542.25707  0.019689799  0.019497605            2 
 2296000   0.87062424    -7.931843    541.58468  0.019656819  0.019491503            1 
 2297000   0.89112935   -7.9486498    542.26942  0.019673103  0.019485406            2 
 2298000   0.90105906   -7.9936666    542.03169  0.019655922  0.019479316            4 
 2299000   0.87992622   -7.9384469    543.26044  0.019691911  0.019473184            1 
 2300000   0.88660201   -7.9455367    542.81455  0.019667194  0.019467103            1 
 2301000   0.88630504   -7.9717539    542.33889   0.01964142  0.019461006            2 
 2302000   0.87395129   -7.9261629    543.36786  0.019670137  0.019454943            3 
 2303000   0.88436041   -7.9609246    542.65345  0.019635745  0.019448867            3 
 2304000   0.87194144   -7.9526214      544.051   0.01967777  0.019442785            3 
 2305000   0.89884977   -7.9480419    543.66833  0.019655399  0.019436704            3 
 2306000   0.88057284   -7.9634704    543.67213  0.019647013  0.019430633            2 
 2307000   0.88886865   -7.9630739    543.80286  0.019643218  0.019424553            4 
 2308000   0.87995534   -7.9498204    542.24377  0.019578414  0.019418462            1 
 2309000   0.89938198   -7.9703553     541.4673  0.019541912  0.019412357            2 
 2310000   0.87938341   -8.0017076    543.33009  0.019600653  0.019406268            2 
 2311000   0.88633331   -7.9658051    542.86856  0.019575529  0.019400154            1 
 2312000   0.88316378   -7.9830734    542.24792  0.019544691  0.019394031            3 
 2313000   0.87880616   -7.9594452     542.9978  0.019563258   0.01938791            1 
 2314000   0.87562961   -7.9276671    544.06067  0.019593081  0.019381831            1 
 2315000   0.90365658   -7.9364661    542.30791  0.019521523  0.019375788            2 
 2316000   0.87930972   -7.9750978     544.0969  0.019577465  0.019369686           12 
 2317000   0.88217742   -7.9672236    544.40097  0.019579952  0.019363597            2 
 2318000   0.89012017   -7.9637234    543.20357  0.019528457  0.019357514            2 
 2319000   0.89643037   -7.9324242    544.09217  0.019551968  0.019351442            4 
 2320000   0.86915587   -7.9747753    543.07501  0.019507005  0.019345357            2 
 2321000   0.88225395   -7.9684691     544.0187  0.019532482  0.019339278            2 
 2322000   0.88117771    -8.008185     543.6789  0.019511876  0.019333187            2 
 2323000   0.89997326   -8.0026691    542.97193  0.019478115  0.019327136            1 
 2324000   0.87956984   -7.9474864    544.08334  0.019509586  0.019321096            2 
 2325000   0.87420413   -7.9624351    543.59513  0.019483697  0.019315094            1 
 2326000   0.88443213   -7.9352148    545.30835  0.019536699  0.019309101            2 
 2327000   0.87541488    -7.963301    545.04826  0.019518989  0.019303047            2 
 2328000   0.87172261   -7.9772365    545.28135  0.019518949  0.019297054            2 
 2329000   0.88357592   -7.9599323    544.82477  0.019494231  0.019291038            2 
 2330000   0.86484211   -7.9729414    544.72322  0.019482232  0.019285001            2 
 2331000   0.86782943   -7.9767933    545.19679  0.019490805  0.019278952            3 
 2332000    0.8941412   -7.9930365     544.4006  0.019453995  0.019272919            6 
 2333000   0.86732192   -7.9865255     546.1553  0.019508333  0.019266881            1 
 2334000   0.88504977   -7.9977797    545.31118  0.019469836  0.019260844            4 
 2335000   0.87232315   -7.9823559     545.6978  0.019475296  0.019254853            3 
 2336000   0.87304547    -7.971706    545.92338  0.019475006  0.019248875            1 
 2337000    0.8781053   -7.9899059    544.99454  0.019433552  0.019242873            3 
 2338000   0.86578032   -7.9631975    547.36842  0.019509852  0.019236847            6 
 2339000   0.88964574   -8.0178166    546.93316  0.019486004  0.019230844            2 
 2340000   0.89774687   -7.9881867     546.2178  0.019452201  0.019224822            2 
 2341000   0.85350395   -7.9807953    546.06592  0.019438485  0.019218843            2 
 2342000    0.8929658   -7.9865435    545.86367  0.019422988  0.019212822            3 
 2343000   0.87567733   -7.9842217    546.68325  0.019443849  0.019206762            4 
 2344000   0.88666948   -7.9965308    547.91365  0.019479297  0.019200775            1 
 2345000   0.88639226   -8.0020579    546.40711  0.019417452  0.019194783            2 
 2346000   0.87785108   -7.9875439    548.46623  0.019482318  0.019188766            2 
 2347000   0.87853069   -7.9697867    547.26018  0.019431195  0.019182838            5 
 2348000   0.88858767   -7.9560543    547.34847  0.019426053  0.019176894            3 
 2349000   0.87580343   -8.0114334    546.73593  0.019396053  0.019170934            2 
 2350000   0.87342511   -7.9681771      548.393   0.01944656  0.019164955            2 
 2351000   0.86764216   -7.9879535    546.54218  0.019372685  0.019158994            2 
 2352000   0.89482803   -8.0230644    546.21793   0.01935296  0.019153002            2 
 2353000   0.87336865   -7.9797763    547.19916  0.019379486  0.019147055            1 
 2354000   0.88230799   -7.9957838    547.03315  0.019365376  0.019141095            1 
 2355000   0.87391685   -7.9930719    548.04058  0.019392802  0.019135124            2 
 2356000   0.87805746   -7.9974516    546.89765  0.019344144  0.019129181            3 
 2357000   0.86852372   -8.0085576    548.01126   0.01937531  0.019123225            4 
 2358000    0.8770446   -7.9881843    547.75589  0.019358068  0.019117292            2 
 2359000   0.87645132   -7.9773555    548.21961  0.019366243  0.019111387            2 
 2360000   0.88272174   -7.9676575    548.75748   0.01937703  0.019105439            3 
 2361000   0.89037301   -7.9694383    548.55553  0.019361695   0.01909956            2 
 2362000   0.88220275   -7.9777007    548.69328  0.019358357  0.019093654            4 
 2363000   0.88764095   -7.9315348    549.74806  0.019387363  0.019087802            5 
 2364000   0.86734532   -7.9460304     548.5671  0.019337532  0.019081902            4 
 2365000   0.87185127   -7.9889888    548.31177  0.019320358  0.019076004            2 
 2366000   0.87765294   -7.9674038    548.81919  0.019330064  0.019070114            2 
 2367000   0.86481389   -7.9916307    547.61319  0.019279439  0.019064147            2 
 2368000   0.86780274    -7.973405    548.31847  0.019296117  0.019058227            3 
 2369000   0.85090707   -8.0335373    548.26027  0.019285925  0.019052298            3 
 2370000   0.85582596   -7.9807951    549.12469  0.019308182  0.019046336            1 
 2371000   0.87145864   -8.0170454    548.97176  0.019294663  0.019040388            2 
 2372000   0.88538904    -8.008596     548.8893  0.019283632  0.019034386            3 
 2373000   0.88232737   -8.0170338    547.21046  0.019216549  0.019028425            1 
 2374000   0.87504738   -7.9999214    548.60531  0.019257417  0.019022462            1 
 2375000   0.88475605   -8.0072971    548.78764  0.019255707  0.019016499            5 
 2376000    0.8774796   -7.9998961    549.90861  0.019286918  0.019010593            2 
 2377000     0.859316   -7.9889907    549.74441  0.019273048  0.019004678            4 
 2378000   0.86369218   -7.9744687    549.89871   0.01927035  0.018998769            5 
 2379000   0.87628194   -7.9537693    551.29916  0.019311306  0.018992834            2 
 2380000   0.86862338   -7.9982802    549.47291  0.019239248  0.018986948            2 
 2381000   0.88428238   -8.0135314    549.82431  0.019243466  0.018981043            2 
 2382000   0.85496861   -7.9858904    548.77654  0.019198731  0.018975101            3 
 2383000   0.87692689   -7.9949341    549.41436  0.019212979  0.018969192            7 
 2384000   0.88786076   -7.9956411    551.14345  0.019265361  0.018963292            3 
 2385000   0.88057592   -7.9901446    550.64721  0.019239944  0.018957447            1 
 2386000   0.88570308   -7.9795168    549.88152  0.019205138  0.018951524            2 
 2387000    0.8687962   -8.0182019    549.38441  0.019179738  0.018945618            2 
 2388000   0.87085757   -7.9829094    549.99576   0.01919304  0.018939671            3 
 2389000   0.86874795   -7.9533337    551.31939  0.019231177  0.018933739            2 
 2390000    0.8718749   -7.9873388    550.17524  0.019183237  0.018927872            2 
 2391000   0.85250979   -8.0192491    550.17557  0.019175225   0.01892196            2 
 2392000   0.86638174   -7.9909036    549.77115   0.01915312  0.018916087            2 
 2393000   0.87882485   -8.0064115    551.36833  0.019200736  0.018910205            6 
 2394000   0.85894758   -8.0023672    549.55549  0.019129612  0.018904273            7 
 2395000   0.86096749   -8.0098898    550.35126  0.019149313  0.018898377            4 
 2396000   0.85313117    -7.990742    550.43142  0.019144109  0.018892437            1 
 2397000   0.87552695   -7.9944977    549.52167  0.019104494  0.018886556            1 
 2398000   0.87392219    -7.963235    551.80214  0.019175776  0.018880685            1 
 2399000   0.87279158   -7.9795752    549.66348  0.019093493   0.01887481            1 
 2400000   0.88296368   -8.0260156    550.72958  0.019122555  0.018868911            3 
 2401000   0.86016228   -7.9963331    552.10912  0.019162471   0.01886301            2 
 2402000   0.86707728   -7.9710995    551.77621  0.019142944  0.018857096            1 
 2403000   0.88382179   -7.9708388     550.5754  0.019093335  0.018851195            5 
 2404000   0.86961266   -7.9741589    550.25184  0.019074176  0.018845271            3 
 2405000   0.87304739   -8.0009588    550.17415  0.019063553  0.018839366            1 
 2406000   0.85621346   -8.0218738     549.7406  0.019040614   0.01883341            4 
 2407000    0.8598343   -7.9822998    551.04362  0.019077815  0.018827448            3 
 2408000   0.86854074   -7.9932426    551.39135  0.019081926   0.01882151            3 
 2409000   0.90055544   -7.9920458    550.69195  0.019049811  0.018815565            2 
 2410000    0.8733802   -7.9587505    551.08184  0.019055389  0.018809624            3 
 2411000   0.86805523   -7.9990558     551.3927   0.01905823  0.018803682            5 
 2412000   0.85832818   -7.9868791    551.00937  0.019037084   0.01879774            3 
 2413000      0.85461   -8.0034992     551.3588  0.019041263  0.018791751            1 
 2414000   0.85853223   -8.0170545     550.6277  0.019008136  0.018785754            1 
 2415000   0.88639141    -8.029083    549.79704  0.018971603  0.018779748            5 
 2416000   0.86367489   -8.0250187    549.83518  0.018965066  0.018773775            1 
 2417000   0.86359318   -7.9909596     551.1984   0.01900422  0.018767807            2 
 2418000   0.85816347   -7.9805161    551.68026  0.019012967   0.01876188            2 
 2419000   0.89501998   -8.0083384    551.64866  0.019004019  0.018755955            2 
 2420000   0.87582099   -8.0124913    551.44843  0.018989271  0.018750014            3 
 2421000    0.8794288   -7.9636585    552.71628  0.019025068  0.018744096            1 
 2422000   0.86999359   -8.0388846    550.66212  0.018946536  0.018738156            3 
 2423000    0.8753061   -8.0134829    551.47906  0.018966813  0.018732207            3 
 2424000    0.8696591    -7.989459    551.30989  0.018953173  0.018726253            2 
 2425000   0.86651872   -8.0312489    550.62045  0.018921665  0.018720297            4 
 2426000   0.86824376   -7.9938065     551.3615  0.018939321  0.018714341            5 
 2427000   0.87824988   -7.9927067    551.32847  0.018930383  0.018708382            2 
 2428000   0.85983205   -8.0384408    550.93997  0.018909252   0.01870242            2 
 2429000   0.87668816   -8.0303984    552.33597  0.018949361  0.018696445            2 
 2430000   0.86112071   -8.0193409     551.7473  0.018921375  0.018690448            2 
 2431000   0.87270442   -8.0577568    550.51549  0.018871366  0.018684466            3 
 2432000   0.84068976   -7.9939958    553.48228  0.018965264  0.018678516            2 
 2433000   0.85104089   -8.0175818    551.96409   0.01890547  0.018672605            2 
 2434000   0.85549409   -8.0389965    552.34478  0.018910736  0.018666652            1 
 2435000   0.86847175    -8.052968    552.34978  0.018903141  0.018660717            3 
 2436000   0.87530973   -7.9919641     553.8559  0.018946904  0.018654779            2 
 2437000   0.87651412   -8.0225148    553.42144  0.018924273  0.018648853            2 
 2438000   0.86091338     -8.02559    552.01695  0.018868504   0.01864294            1 
 2439000   0.85923139   -8.0101186    553.69518  0.018918108  0.018637027            2 
 2440000   0.86223844   -7.9929904    552.04875  0.018854124  0.018631119            3 
 2441000   0.84358631   -8.0018766    553.56333  0.018898106  0.018625239            8 
 2442000   0.85307915   -8.0431931    552.66846   0.01885983  0.018619336            1 
 2443000   0.86169713   -8.0055037    553.23753  0.018871522  0.018613482            2 
 2444000   0.88660228   -7.9832045    554.65874  0.018912259  0.018607658            3 
 2445000    0.8564755   -8.0136554    555.22102  0.018923688  0.018601854            1 
 2446000   0.84390853    -7.995156    554.88472  0.018904495  0.018596032            3 
 2447000    0.8748928   -8.0143759    554.19845  0.018873398  0.018590193            4 
 2448000   0.86040882   -7.9913661    554.71791  0.018883371  0.018584375            1 
 2449000   0.85380741   -7.9556432    554.04298  0.018852694  0.018578561            3 
 2450000   0.85249235   -7.9991607    555.03853  0.018878862  0.018572787            4 
 2451000   0.88019785    -8.002691    554.04158  0.018837263   0.01856703            2 
 2452000   0.83391006   -8.0007915    554.86933  0.018857712  0.018561253            2 
 2453000   0.87784567   -8.0108492     554.9328  0.018852181  0.018555429            4 
 2454000   0.86039639   -7.9976486      556.298  0.018890859  0.018549616            2 
 2455000   0.86000542   -7.9972475    554.92185  0.018836451  0.018543802            3 
 2456000   0.86243248   -8.0415107    553.43226  0.018778239  0.018537972            3 
 2457000   0.86226738   -8.0236571    554.65006    0.0188119   0.01853209            3 
 2458000   0.85515701   -8.0424286    553.38997  0.018761526  0.018526228            3 
 2459000    0.8453623   -8.0341082    553.14356  0.018745545  0.018520332            2 
 2460000   0.84615286   -8.0053818    555.71127  0.018824907  0.018514466            2 
 2461000    0.8569508   -8.0151535    553.98321  0.018758743  0.018508655            1 
 2462000   0.85634738   -8.0018275    556.04873  0.018821038  0.018502796            4 
 2463000   0.84463382   -8.0141753    554.48917   0.01876063  0.018496887            3 
 2464000   0.87250461   -8.0349498    554.20808  0.018743509  0.018491029            4 
 2465000   0.85593397   -8.0064967    554.89154  0.018759011   0.01848517            2 
 2466000   0.84693558   -8.0390767    554.80375  0.018748437  0.018479363            2 
 2467000     0.845258    -8.042285    554.17321  0.018719538  0.018473498            5 
 2468000   0.84975579   -8.0222646    555.96772  0.018772546   0.01846764            5 
 2469000   0.85896482   -8.0364178    554.30499  0.018708823  0.018461795            5 
 2470000   0.86269672   -8.0503945    554.11477   0.01869483  0.018455929            2 
 2471000   0.85890032   -8.0158906    554.09834  0.018686711   0.01845005            2 
 2472000   0.84637814   -8.0310109    557.31531  0.018787598  0.018444231            4 
 2473000   0.84584802   -8.0102799    555.93278  0.018733414  0.018438416            2 
 2474000   0.85281358   -8.0230722    555.74633  0.018719561  0.018432582            1 
 2475000   0.85795183    -8.018148    555.83273  0.018714907  0.018426787            1 
 2476000   0.85567826   -8.0563576    555.36998  0.018691774  0.018420979            3 
 2477000   0.84542214   -8.0564067    555.64184  0.018693374  0.018415131            2 
 2478000   0.87297246   -8.0555029    555.58181  0.018683811   0.01840933            5 
 2479000   0.87305326   -8.0425748    555.42585  0.018671032  0.018403531            2 
 2480000   0.85474567   -8.0354591     554.8739  0.018644956  0.018397684            2 
 2481000   0.85061812   -8.0323099    556.19231  0.018681725  0.018391904            1 
 2482000   0.83406572   -8.0462834    554.52982   0.01861838  0.018386104            2 
 2483000   0.83307546   -8.0162446    557.90855  0.018724277  0.018380324            2 
 2484000   0.86288059   -8.0043068    558.13788  0.018724432  0.018374563            3 
 2485000   0.85395243   -8.0117346    556.95779  0.018677324  0.018368815            3 
 2486000   0.85872995   -8.0470861    557.82552  0.018698898  0.018363079            2 
 2487000    0.8543578   -8.0769674    555.76263  0.018622257  0.018357274            1 
 2488000   0.84151217   -8.0051782    557.27335  0.018665372  0.018351476            2 
 2489000   0.86895926   -8.0251533    557.50598  0.018665662  0.018345705            2 
 2490000   0.84949769   -8.0398801    557.04554  0.018642756  0.018339931            2 
 2491000   0.85670949   -8.0293128    555.80503  0.018593772  0.018334127            3 
 2492000   0.84631838   -8.0270015    556.38114  0.018605576  0.018328333            2 
 2493000   0.86561058   -8.0278685    557.07109  0.018621176  0.018322516            1 
 2494000   0.85882752   -8.0409312    555.92574  0.018575439  0.018316695            1 
 2495000   0.85532099   -8.0521394    556.91886  0.018601164  0.018310906            2 
 2496000    0.8531274   -8.0768094     555.9181    0.0185603  0.018305122            4 
 2497000   0.84612881   -8.0694386    556.18028  0.018561617  0.018299273            2 
 2498000   0.83850806   -8.0225619    557.67749  0.018604133  0.018293518            2 
 2499000   0.84327941   -8.0266781    556.57497  0.018559923  0.018287758            1 
 2500000   0.86446158   -8.0548472    555.51762  0.018517254  0.018281959            2 
 2501000   0.85391454   -8.0259546     557.9577  0.018591154  0.018276145            2 
 2502000   0.85464053   -8.0354472    558.43402  0.018599588  0.018270366            1 
 2503000    0.8420399   -8.0122467    557.58399  0.018563856  0.018264569            2 
 2504000   0.84605588   -8.0716201    557.92522  0.018567799  0.018258797            1 
 2505000   0.86296313   -8.0272807    557.73078  0.018553918  0.018253038            3 
 2506000   0.86161008   -8.0304697    558.98511  0.018588225  0.018247278            3 
 2507000   0.85797109   -8.0315788    558.40634  0.018561572  0.018241513            1 
 2508000   0.84982516   -8.0582532    558.53884  0.018558574  0.018235784            9 
 2509000   0.84940028   -8.0135853    559.28578  0.018575986  0.018230072            2 
 2510000   0.84016579    -8.013901     558.4202  0.018539847   0.01822437            2 
 2511000   0.84217566   -8.0309418    558.92652  0.018549267  0.018218647            6 
 2512000   0.85664691   -8.0393683    558.78026  0.018537031  0.018212989            1 
 2513000   0.83875978   -8.0205184    560.30686  0.018580278  0.018207328            1 
 2514000   0.86561969   -8.0701468     559.1429  0.018534305  0.018201603            2 
 2515000   0.85552984   -8.0174486    559.65644  0.018543951    0.0181959            1 
 2516000   0.84943018    -8.045716    558.27354  0.018490777  0.018190249            4 
 2517000   0.85223468   -8.0502249    559.89721  0.018537187  0.018184579            1 
 2518000   0.85893607   -8.0246073    560.01462  0.018533711  0.018178893            4 
 2519000   0.85142237   -8.0515003    559.02513  0.018493619  0.018173237            2 
 2520000   0.83706174   -8.0876914    558.92144  0.018482852  0.018167539            3 
 2521000   0.85656805   -8.0895247    558.46099    0.0184603  0.018161836            2 
 2522000   0.85926124   -8.0563642    559.01497  0.018471285   0.01815614            4 
 2523000   0.85359177   -8.0290162    559.57914  0.018482598  0.018150448            4 
 2524000   0.83012191   -8.0190404    562.40776  0.018568666  0.018144794            2 
 2525000   0.85879881   -8.0432586     560.9794  0.018514172  0.018139128            2 
 2526000   0.86788063   -8.0218994    561.26874  0.018516388  0.018133442            2 
 2527000   0.84935529   -8.0543492    560.95636  0.018498759  0.018127786            4 
 2528000   0.86330641   -8.0327758    560.90625  0.018489789  0.018122109            1 
 2529000   0.82987505   -8.0339926    559.34617  0.018431072  0.018116423            6 
 2530000   0.85097434   -8.0523434    560.23445  0.018453045  0.018110758            1 
 2531000   0.85517316   -8.0659465    559.86413  0.018433561  0.018105079            2 
 2532000   0.84650528   -8.0518086    559.81063   0.01842452  0.018099396            3 
 2533000    0.8532253   -8.0287322    560.98705   0.01845595  0.018093719            3 
 2534000   0.85583227   -8.0648571    559.55103  0.018401441   0.01808808            5 
 2535000   0.82986692   -8.1023558    559.46874  0.018391477  0.018082353            3 
 2536000   0.82693302   -8.0629845    560.14481  0.018406441  0.018076622            1 
 2537000   0.84550234   -8.1302235     559.2208  0.018368834   0.01807088            3 
 2538000   0.84530851   -8.0601198    560.70724  0.018410403  0.018065148            2 
 2539000   0.81699852   -8.1053409    560.56777  0.018398575  0.018059412            2 
 2540000    0.8381459   -8.0242998    559.47792  0.018355575  0.018053682            5 
 2541000   0.84120691   -8.0858387    558.41457  0.018313478  0.018047989            2 
 2542000   0.85933523   -8.0723178    560.64321  0.018379334  0.018042265            3 
 2543000    0.8420339   -8.0597231    560.63789  0.018371932  0.018036576            2 
 2544000   0.85305968   -8.0474315    561.38176  0.018389078  0.018030866            2 
 2545000   0.83911127   -8.0392443    560.74113  0.018360875  0.018025201            4 
 2546000   0.84545959   -8.0776685    560.85987   0.01835755  0.018019534            1 
 2547000    0.8622941   -8.0759231    560.53701  0.018339779   0.01801381            2 
 2548000   0.84196776   -8.0673011    558.88616   0.01827859  0.018008074            6 
 2549000   0.84906123   -8.0937573    560.35507  0.018319441  0.018002371            2 
 2550000   0.84107178   -8.0492852    560.89359  0.018329856  0.017996656            4 
 2551000   0.84058864   -8.0454051    561.29547  0.018335799  0.017990947            2 
 2552000   0.86042135   -8.0873724    560.10211  0.018289646  0.017985226            3 
 2553000   0.83596477   -8.0965167    560.46335  0.018294273  0.017979481            2 
 2554000   0.85601006   -8.1114432    559.32277  0.018249895  0.017973723            2 
 2555000   0.83107102   -8.0702843    560.59256  0.018284167  0.017967993            1 
 2556000   0.83566442   -8.0626883    561.76096  0.018315107  0.017962286            4 
 2557000   0.84105268    -8.095792    560.79871  0.018276584  0.017956575            2 
 2558000   0.85964025   -8.0385404    561.11085  0.018279608  0.017950903            2 
 2559000   0.83928107   -8.0461244    561.75214  0.018293348   0.01794525            3 
 2560000   0.84907167   -8.0754727      561.428  0.018275651  0.017939575            6 
 2561000     0.846535   -8.0817082    561.32841  0.018265274   0.01793387            3 
 2562000   0.82721652   -8.0983448    561.31265  0.018257632  0.017928154            3 
 2563000     0.833894   -8.0862038     560.1091  0.018211377  0.017922419            6 
 2564000   0.83165464   -8.0338228    562.61837  0.018285828  0.017916736            4 
 2565000   0.84279789   -8.0696368    562.64037  0.018279414  0.017911068            4 
 2566000   0.84918822   -8.0688276    562.40297  0.018264581  0.017905386            2 
 2567000   0.83976006   -8.0479707    562.52181  0.018261324  0.017899739            1 
 2568000   0.83100552   -8.0741489    562.36332  0.018249069    0.0178941            2 
 2569000    0.8469153   -8.0663529    561.83983  0.018224985  0.017888441            2 
 2570000   0.83705088   -8.0562034    563.00508  0.018255677  0.017882775            1 
 2571000   0.84999864   -8.0581283    561.67725  0.018205538  0.017877131            4 
 2572000   0.83239127   -8.0578548    562.06239  0.018210938  0.017871442            2 
 2573000   0.83731342   -8.0946493    561.47552  0.018184853  0.017865785            2 
 2574000   0.84355001    -8.098427    562.37799  0.018207006  0.017860116            2 
 2575000   0.82125065   -8.0858451    562.36939  0.018199657   0.01785445            1 
 2576000   0.84342635   -8.1258142    561.85367  0.018175908  0.017848749            2 
 2577000   0.82592493   -8.0940542    562.31292  0.018183706  0.017843054            3 
 2578000   0.84933529   -8.0783038     561.9871   0.01816612  0.017837386            4 
 2579000   0.84875986   -8.0613714    561.99885  0.018159456  0.017831749            2 
 2580000   0.84628393   -8.0919646    561.85887  0.018147896    0.0178261            1 
 2581000   0.84955704   -8.0598003     562.1487  0.018150223  0.017820478            3 
 2582000   0.83908855     -8.07523    562.01072   0.01813874  0.017814822            2 
 2583000   0.83012022   -8.0393852    564.16013  0.018201063  0.017809143            2 
 2584000   0.82591789   -8.0585752     562.0006  0.018124374  0.017803526            1 
 2585000    0.8373284   -8.0861784    562.30361  0.018127131  0.017797878            3 
 2586000    0.8361127   -8.1178853    561.91996  0.018107758  0.017792223            4 
 2587000   0.85728723   -8.0850059    562.49964  0.018119432  0.017786557            2 
 2588000   0.83895906   -8.1280095     562.4324  0.018110265  0.017780848            2 
 2589000   0.86371229    -8.091383    563.11833  0.018125348  0.017775171            4 
 2590000   0.84262495   -8.0869295    565.11713  0.018182662  0.017769545            2 
 2591000   0.84213677   -8.0353885    564.01055  0.018140054  0.017763929            2 
 2592000   0.83417878   -8.0830423    564.53234  0.018149831  0.017758344            3 
 2593000   0.84093298   -8.1273959     563.3909  0.018106148  0.017752716            3 
 2594000   0.85400226   -8.1018723    564.04637  0.018120225  0.017747113            7 
 2595000   0.84342959   -8.0648279    562.80297  0.018073313  0.017741505            2 
 2596000    0.8431685   -8.0909845    564.29758  0.018114329  0.017735905            2 
 2597000   0.83722131   -8.0920506    563.70498  0.018088339  0.017730324            3 
 2598000   0.87153274   -8.0673946    563.38781  0.018071203  0.017724754            2 
 2599000   0.85095244   -8.0959812    564.27199  0.018092599   0.01771917            4 
 2600000   0.83211507   -8.0740571    564.00409  0.018077054  0.017713563            2 
 2601000   0.84032285   -8.0835038    563.45495   0.01805251   0.01770801            3 
 2602000   0.82642965   -8.0915234    564.46369  0.018077879  0.017702454            2 
 2603000    0.8431798   -8.1005953    563.41837  0.018037469  0.017696882            3 
 2604000   0.83645297   -8.1198073    564.74304  0.018072934  0.017691308            1 
 2605000   0.83878426    -8.077232    563.91572   0.01803953  0.017685764            2 
 2606000   0.83514266   -8.0605969    565.04932  0.018068858   0.01768021            2 
 2607000   0.83119678   -8.0578539    565.84626  0.018087401   0.01767467            2 
 2608000   0.84012648   -8.0678851    567.19586   0.01812359  0.017669147            2 
 2609000   0.82000367   -8.0786185    564.22157  0.018021642  0.017663619            3 
 2610000   0.83101552   -8.0525002    565.55905  0.018057441  0.017658089            3 
 2611000   0.83610511   -8.0609973    564.24548  0.018008601  0.017652529            7 
 2612000   0.84255261   -8.0335544    565.49997  0.018041729  0.017646996            2 
 2613000   0.84693805   -8.0920621    565.79526  0.018044242  0.017641427            4 
 2614000   0.83624222   -8.0812421    565.84682  0.018038983  0.017635864            2 
 2615000   0.83128877   -8.0675728     564.5166  0.017989694  0.017630316            2 
 2616000   0.83822044   -8.0916471    565.58603  0.018016884   0.01762475            2 
 2617000   0.84007662   -8.0830383    565.78514   0.01801634  0.017619158            2 
 2618000   0.83037017   -8.1303884    565.45678  0.017999006  0.017613588            3 
 2619000   0.82082584   -8.1071966    564.47085  0.017960763  0.017608022            3 
 2620000   0.83528295   -8.0679983    566.13607  0.018006872  0.017602443            3 
 2621000    0.8183014   -8.0920871    565.19996  0.017970239  0.017596885            2 
 2622000   0.82564193   -8.0735344    564.74721  0.017948996  0.017591344            1 
 2623000   0.85323292    -8.090809    565.49924  0.017966045  0.017585792            3 
 2624000   0.83565295   -8.0785629    564.81699  0.017937531  0.017580248            5 
 2625000   0.83010316   -8.0714171    564.86011  0.017932067  0.017574721            2 
 2626000   0.84507144   -8.0994416    565.28526   0.01793873  0.017569138            1 
 2627000    0.8252315   -8.0692543    565.27813  0.017931675  0.017563573            5 
 2628000   0.84586584   -8.1275643    565.00161  0.017916083  0.017558006            1 
 2629000   0.82968794   -8.0800931    566.53718  0.017957943  0.017552449            1 
 2630000   0.81565378   -8.0848502    565.87297  0.017930069  0.017546875            2 
 2631000   0.83827528    -8.100789     564.7514   0.01788773  0.017541297            3 
 2632000   0.81516534   -8.1006721    566.30258  0.017930046  0.017535724            2 
 2633000   0.83401386   -8.0845315    566.49634  0.017929369   0.01753014            2 
 2634000   0.82304633   -8.0682294    566.66674  0.017927953  0.017524587            2 
 2635000   0.82469428   -8.1151969    564.48285  0.017852082  0.017519013            2 
 2636000   0.82406607   -8.1089945    565.51859  0.017878054  0.017513429            1 
 2637000   0.82915935   -8.0971069    566.42391  0.017899884  0.017507857            1 
 2638000    0.8191959   -8.0758332    567.25592  0.017919381  0.017502326            1 
 2639000   0.85198689   -8.1209681    565.77983  0.017865979  0.017496795            2 
 2640000   0.82864399   -8.0970152    566.75907  0.017890122  0.017491247            2 
 2641000   0.83359378   -8.0938632    566.88285  0.017887254  0.017485721            2 
 2642000   0.81793923   -8.0814017    566.37111  0.017864342  0.017480189            4 
 2643000   0.83462993   -8.0739238    568.06323  0.017910935  0.017474671            2 
 2644000   0.82250875    -8.103092    566.80131  0.017864388   0.01746917            2 
 2645000   0.83995865   -8.0986983    566.09932  0.017835517  0.017463627            2 
 2646000    0.8361635   -8.0865017    565.78484  0.017818873  0.017458081            5 
 2647000   0.82881741   -8.0821608    564.94401   0.01778567  0.017452509            2 
 2648000   0.80862626    -8.135442    565.53162  0.017797445  0.017446966            2 
 2649000   0.83482607   -8.1025098    565.77706  0.017798448  0.017441413            4 
 2650000   0.82181161   -8.1212214    567.35045  0.017841209  0.017435836            1 
 2651000   0.81977389   -8.0959636    566.14834  0.017796691  0.017430256            2 
 2652000    0.8389242   -8.1311249    566.28412  0.017794247  0.017424703            1 
 2653000   0.82161411   -8.1014983    566.90209  0.017806951  0.017419118            6 
 2654000    0.8254864   -8.1050725    567.37321  0.017815034  0.017413555            5 
 2655000   0.78988509   -8.0871394    566.55636  0.017782686  0.017407987            1 
 2656000   0.82247526   -8.1150715    566.64531  0.017778781  0.017402417            4 
 2657000   0.82659725   -8.1222893    566.22442  0.017758889  0.017396859            2 
 2658000    0.8405579   -8.1225102    564.55756  0.017699949  0.017391269            4 
 2659000   0.83955042   -8.1655243    565.68134  0.017728511   0.01738566            2 
 2660000   0.81286265   -8.0929801    566.53382  0.017748553  0.017380081            2 
 2661000   0.83311335   -8.1248899    565.55877  0.017711348   0.01737451            2 
 2662000   0.82624549   -8.1007163    566.84145  0.017744849  0.017368924            2 
 2663000   0.83488827   -8.1022545    566.50594  0.017727686   0.01736334            3 
 2664000   0.80304764   -8.1320561    565.50835  0.017689826  0.017357756            1 
 2665000   0.82358659   -8.0860604    566.05799  0.017700375  0.017352184            1 
 2666000    0.8056998   -8.1350599    566.41381  0.017704858  0.017346582            3 
 2667000   0.82743233   -8.1076868    566.79575  0.017710153  0.017340985            3 
 2668000   0.82725714   -8.1167084    566.73808  0.017701714  0.017335418            2 
 2669000   0.82326375   -8.1046668    567.02114   0.01770392  0.017329869            1 
 2670000   0.81683603   -8.1202603    566.92988  0.017694441  0.017324295            2 
 2671000   0.83922551    -8.113006    566.56398    0.0176764  0.017318684            3 
 2672000   0.82187841   -8.1142552    565.43215  0.017634486  0.017313089            2 
 2673000   0.81858277   -8.1015658    567.76316   0.01770056  0.017307509            2 
 2674000   0.82381312   -8.1455139    566.59604  0.017657568  0.017301933            3 
 2675000   0.82199788    -8.126132    566.15237  0.017637146  0.017296331            2 
 2676000   0.83883322   -8.1457961    566.65736  0.017646281  0.017290761            3 
 2677000   0.82218889   -8.1283655    567.56004  0.017667788  0.017285217            3 
 2678000   0.83893835   -8.1379766    567.70793  0.017665793  0.017279667            2 
 2679000   0.81307112   -8.1499438    567.12904  0.017641192  0.017274112            2 
 2680000   0.82162743   -8.1302514    567.22543  0.017637607  0.017268542            1 
 2681000   0.81892811   -8.1443672    568.45347  0.017669199  0.017262982            2 
 2682000   0.83074093   -8.1567547    567.11295  0.017620959  0.017257393            4 
 2683000    0.8346588   -8.1453046    567.17503   0.01761632  0.017251792            3 
 2684000   0.80882924   -8.1223383    567.08872  0.017607076  0.017246228            1 
 2685000   0.84086637   -8.1677905    565.93701  0.017564774  0.017240653            3 
 2686000   0.82194232   -8.1308891    568.91149  0.017650518  0.017235092            2 
 2687000   0.81965442   -8.1518692    566.41967  0.017566669  0.017229512            1 
 2688000   0.84029431   -8.1785366    566.32779  0.017557285  0.017223914            6 
 2689000   0.83522719   -8.1387553    567.00268  0.017571671  0.017218308            3 
 2690000    0.8173084   -8.1415136    567.52268  0.017581248  0.017212733            3 
 2691000   0.82166204   -8.1571509    568.00838  0.017589755  0.017207194            2 
 2692000   0.82907072   -8.1498441     567.6624  0.017572511  0.017201614            2 
 2693000    0.8263488   -8.1631658    567.11924  0.017549178  0.017196038            2 
 2694000   0.83784883   -8.1571187    565.96005  0.017506807  0.017190481            3 
 2695000   0.81443046   -8.1502273    567.85913  0.017559033   0.01718492            1 
 2696000   0.81935322    -8.118881    569.04801  0.017589268  0.017179389            2 
 2697000   0.82902664   -8.1254439    569.75833  0.017604694  0.017173896            2 
 2698000   0.81331042   -8.0826825    569.68164    0.0175958  0.017168421            2 
 2699000    0.8322685   -8.0878427    568.52024  0.017553422  0.017162954            2 
 2700000   0.82247306   -8.1053023    570.49085  0.017607742  0.017157471            3 
 2701000   0.82193909   -8.1090685    569.33488  0.017565558  0.017151986            2 
 2702000   0.81058596   -8.1043939    568.78266  0.017542026  0.017146502            4 
 2703000   0.81069984   -8.1259024    568.68926  0.017532657  0.017140992            2 
 2704000   0.82256083   -8.1159981    569.39256  0.017547848  0.017135505            9 
 2705000   0.81820507   -8.1288208    568.02676  0.017499284  0.017129993            4 
 2706000   0.81853909   -8.1436138    567.29337  0.017470232  0.017124477            2 
 2707000   0.80942572   -8.1447723    569.87479  0.017543246   0.01711896            3 
 2708000   0.82445014   -8.1681736    568.81502  0.017504155  0.017113434            4 
 2709000   0.82461474   -8.1338028    570.21225  0.017540674  0.017107924            4 
 2710000   0.83033768    -8.167797    569.67326  0.017517628  0.017102425            4 
 2711000    0.8418684   -8.1610045    569.60836  0.017509171  0.017096913            1 
 2712000   0.81766632   -8.1677076    568.78868  0.017477528  0.017091366            3 
 2713000   0.80763753   -8.1505262    568.72807  0.017469225  0.017085828            4 
 2714000   0.81028698   -8.1602893    568.73042   0.01746286  0.017080318            4 
 2715000   0.82190172   -8.1587117    569.21842  0.017471406  0.017074815            4 
 2716000   0.82296718   -8.1427442    569.82948  0.017483722  0.017069313            2 
 2717000   0.82123429   -8.1563989    568.93241  0.017449773  0.017063816            1 
 2718000   0.82223181   -8.1597194    568.23662   0.01742202  0.017058338            2 
 2719000   0.81512893   -8.1712025    569.46403  0.017453231   0.01705282            2 
 2720000   0.81688119   -8.1268412     569.4132  0.017445257  0.017047281            2 
 2721000   0.80544313    -8.152686    569.03299  0.017427202  0.017041779            2 
 2722000   0.84146544   -8.1691504    568.93852  0.017417907  0.017036256            2 
 2723000   0.82271696   -8.1737073    568.55883  0.017399891  0.017030758            2 
 2724000   0.83082869   -8.1299999    569.98401  0.017437103  0.017025255            6 
 2725000   0.82639446   -8.1331865    570.03157  0.017432158   0.01701977            2 
 2726000   0.80211187   -8.1355623    569.12791  0.017398139  0.017014271            1 
 2727000   0.80446313   -8.1552296    570.07921  0.017420829  0.017008796            3 
 2728000   0.82074335   -8.1527785    569.77746  0.017405225  0.017003331            2 
 2729000   0.81230141   -8.1562436    569.06999  0.017377244  0.016997838            3 
 2730000   0.81890927   -8.1295749    569.91366  0.017396632  0.016992355            2 
 2731000   0.80886657   -8.1426689    570.39091  0.017404824  0.016986896            4 
 2732000   0.81120054    -8.144038    571.11304  0.017420481  0.016981458            3 
 2733000   0.82549934   -8.1590064    570.23495  0.017387332  0.016976013            1 
 2734000   0.81542699   -8.1296559    571.58254  0.017422048  0.016970578            1 
 2735000   0.81606731   -8.1850542     570.2011  0.017373586  0.016965135            3 
 2736000   0.80057177   -8.1446477    570.19932  0.017367182  0.016959646            2 
 2737000   0.81302178   -8.1469199    569.54522  0.017340921  0.016954166            1 
 2738000   0.83262056   -8.1576666    569.06968  0.017320114  0.016948689            1 
 2739000   0.82231223   -8.1699647    569.73215  0.017333946   0.01694321            1 
 2740000   0.81102167     -8.14713    570.71651  0.017357558  0.016937751            2 
 2741000   0.83545797    -8.170951    570.78824  0.017353406   0.01693228            2 
 2742000   0.81131261   -8.1441218    570.59466  0.017341194  0.016926826            5 
 2743000   0.80836063   -8.1348785    570.05541   0.01731849  0.016921396            4 
 2744000   0.82080595    -8.137139    571.73635  0.017363227  0.016915958            2 
 2745000   0.83270067   -8.1736326    570.61976  0.017323004  0.016910522            3 
 2746000   0.80501429   -8.1296345    572.42202  0.017371389  0.016905104            2 
 2747000   0.82838489   -8.1256451    571.91225  0.017349601  0.016899654            3 
 2748000   0.83144912   -8.1583743    571.06122   0.01731748  0.016894206            2 
 2749000   0.81344347   -8.1457913    570.78327  0.017302755  0.016888771            3 
 2750000   0.81772988   -8.1446687    571.28073  0.017311537  0.016883363            2 
 2751000   0.80297377   -8.1768502    570.63368  0.017285644   0.01687791            2 
 2752000   0.80234804   -8.1659408    571.29808  0.017299482  0.016872469            2 
 2753000    0.8081513   -8.1564372    572.10891  0.017317742  0.016867028            1 
 2754000   0.82466918   -8.1676812    569.97492  0.017246881   0.01686158            2 
 2755000   0.80208553   -8.1998331    571.14208  0.017275925  0.016856099            6 
 2756000   0.79922917   -8.1984996     569.9829  0.017234606  0.016850602            2 
 2757000   0.81044683   -8.1453129    570.82774  0.017253891   0.01684512            3 
 2758000   0.82289446    -8.176692    570.81961   0.01724739  0.016839647            2 
 2759000   0.81691292    -8.163397    571.45563  0.017260349  0.016834181            2 
 2760000   0.79595625   -8.1608394    571.73987  0.017262677  0.016828721            4 
 2761000   0.81845073   -8.1692249     571.0532    0.0172357  0.016823279            2 
 2762000   0.81444411   -8.1750443    571.10044  0.017230885  0.016817819            9 
 2763000   0.80667112   -8.1539266    570.84663  0.017216993  0.016812365            2 
 2764000   0.79872976   -8.1473788    572.40652  0.017257794  0.016806923            2 
 2765000   0.80337781    -8.166807    570.85659   0.01720484  0.016801464            3 
 2766000   0.83256731   -8.1456851    570.79842  0.017196867  0.016796031            3 
 2767000   0.82204295   -8.1577756    572.15359  0.017231466  0.016790583            2 
 2768000   0.79086813   -8.1683775    571.25183  0.017198092  0.016785126            1 
 2769000   0.80831033   -8.1553794    571.16964  0.017189408  0.016779684            2 
 2770000      0.81341   -8.1557194    571.09518  0.017180962  0.016774199            3 
 2771000   0.80539452   -8.1944965    570.71566  0.017163348  0.016768744            2 
 2772000   0.82250367   -8.1469136    571.15737  0.017170436  0.016763306            2 
 2773000   0.80343583   -8.1628251     570.2501  0.017136979  0.016757851            6 
 2774000   0.80886689    -8.173498    572.70984  0.017204694  0.016752392            2 
 2775000   0.79908629   -8.1638807    571.96067  0.017175996  0.016746925            2 
 2776000   0.80525343   -8.1878325     571.0031  0.017141063  0.016741465            1 
 2777000   0.79208954   -8.1683266    572.80483  0.017188958  0.016736024            4 
 2778000   0.79850443   -8.1602803    571.20409  0.017134752  0.016730589            1 
 2779000   0.80429413   -8.2026496    571.20039  0.017128475  0.016725166            2 
 2780000   0.81479382   -8.1781256    570.71067  0.017107634  0.016719711            1 
 2781000   0.81815295   -8.1467403    572.46771  0.017154132  0.016714263            2 
 2782000    0.8121108   -8.1829423    570.43936  0.017087208  0.016708805            1 
 2783000   0.80716554   -8.1661145    572.05096  0.017129326  0.016703348            2 
 2784000   0.81862862   -8.1934558    571.87026  0.017117764  0.016697871            3 
 2785000   0.80344783   -8.1862921    572.16524  0.017120444  0.016692425            1 
 2786000   0.81219132   -8.1619127    571.67452  0.017099621  0.016686977            4 
 2787000   0.79377312   -8.2031284    570.26177  0.017051243  0.016681521            6 
 2788000   0.80046617    -8.178294    572.13227  0.017101036  0.016676076            2 
 2789000   0.78097787   -8.1998627     572.7528  0.017113446  0.016670646            2 
 2790000   0.79030479   -8.2015414    570.87003  0.017051076  0.016665197            2 
 2791000   0.79945456   -8.1845953    571.00798  0.017049086  0.016659724            6 
 2792000    0.8125784   -8.1556585    572.75376  0.017095086  0.016654278            3 
 2793000   0.80969485   -8.1608645    571.65555  0.017056198  0.016648834            4 
 2794000    0.7916739   -8.1960354    571.64214  0.017049694  0.016643369            4 
 2795000   0.79948101   -8.1378774    573.41549  0.017096467  0.016637927            3 
 2796000   0.80214625   -8.1658873    572.90181  0.017075042  0.016632521            3 
 2797000   0.80760069    -8.176931    571.45355  0.017025788  0.016627081            3 
 2798000   0.81831632   -8.1761798    571.71578  0.017027513  0.016621599            2 
 2799000    0.7992866   -8.1713009    571.17202  0.017005241  0.016616125            1 
 2800000    0.8105671   -8.1744953    572.20683  0.017029965  0.016610636            3 
 2801000   0.80317608   -8.1834938    571.43935  0.017001052  0.016605159            4 
 2802000   0.78249717   -8.1797532    571.72181  0.017003385  0.016599692            2 
 2803000   0.82065905     -8.17483    572.21635  0.017012021  0.016594224            2 
 2804000   0.81243501   -8.1939589    571.03712  0.016970908  0.016588734            2 
 2805000   0.79882166   -8.1997429     571.0833   0.01696623  0.016583258            3 
 2806000   0.78242912    -8.193547    571.05679  0.016959396  0.016577783            2 
 2807000   0.78975745   -8.1811238    572.89487  0.017007923  0.016572309            1 
 2808000   0.78205784   -8.2106622    571.63108   0.01696436  0.016566838            1 
 2809000   0.79209242    -8.173166    572.60289  0.016987151  0.016561374            1 
 2810000   0.79673855   -8.1794693     571.9206  0.016960872  0.016555944            4 
 2811000   0.80367968    -8.154773    573.33939  0.016996899  0.016550495            1 
 2812000   0.79311069   -8.2137648    571.19483  0.016927301  0.016545034            2 
 2813000   0.79649057   -8.1980675    572.11309  0.016948486  0.016539555            1 
 2814000   0.79848328   -8.1628154    572.17756  0.016944372  0.016534108            2 
 2815000   0.80464555   -8.1732487    573.84361  0.016987673  0.016528688            2 
 2816000   0.79717609   -8.1737892    573.09333  0.016959438  0.016523251            3 
 2817000   0.79433941     -8.17135    572.39771   0.01693284  0.016517818            3 
 2818000   0.81624035   -8.1666082    573.37907  0.016955851  0.016512396            3 
 2819000   0.82103222   -8.2074364    571.47929  0.016893677  0.016506984            2 
 2820000   0.79557028   -8.1875578    573.07451  0.016934826  0.016501566            2 
 2821000   0.78621354   -8.1649292    571.12797  0.016871321   0.01649611            4 
 2822000   0.80134183   -8.1826774    572.40408  0.016903026  0.016490649            3 
 2823000   0.83306173   -8.1784117    572.57731  0.016902152  0.016485231            3 
 2824000   0.79633825   -8.1792854    571.90515  0.016876332  0.016479803            5 
 2825000   0.80287252   -8.1771834      573.564  0.016919292  0.016474398            1 
 2826000   0.79916575   -8.1747891    573.31262  0.016905892  0.016468971            5 
 2827000   0.80059184   -8.1770323    571.94588  0.016859624  0.016463556            2 
 2828000   0.78886896   -8.1942298    573.15279  0.016889226  0.016458143            3 
 2829000   0.80663024   -8.1946047    573.43524  0.016891576  0.016452724            1 
 2830000   0.79724497   -8.2250911    571.62077  0.016832178  0.016447298            2 
 2831000   0.79864851    -8.233609    572.79127  0.016860687  0.016441841            2 
 2832000   0.80305798   -8.2175208    572.18062  0.016836765  0.016436391            2 
 2833000   0.78745204   -8.2041891    572.76203  0.016847924   0.01643096            3 
 2834000   0.79116197   -8.2146064    571.59031  0.016807525  0.016425548            4 
 2835000   0.80238551    -8.152116    573.24798  0.016850323  0.016420149            2 
 2836000   0.80094899   -8.1851981    574.11006  0.016869713  0.016414746            3 
 2837000   0.80612156   -8.2078062    573.10909  0.016834364  0.016409351            1 
 2838000   0.81377694   -8.1912771    572.28391  0.016804202  0.016403948            5 
 2839000    0.8050488   -8.2020122    573.40052  0.016831059  0.016398522            4 
 2840000   0.79051593    -8.197571    573.85011  0.016838325  0.016393109            1 
 2841000   0.79038001   -8.1934072    571.88579   0.01677478  0.016387711            2 
 2842000   0.78460196   -8.1800268    571.45968  0.016756383  0.016382298            4 
 2843000   0.81037365   -8.1856343    571.51418  0.016752086  0.016376876            3 
 2844000   0.79983249   -8.1584059    574.38368  0.016830277  0.016371455            2 
 2845000    0.7884174   -8.2076005    572.46182  0.016768067  0.016366048            3 
 2846000   0.80331594   -8.1696401    573.32466   0.01678744  0.016360662            2 
 2847000   0.79074017   -8.1653013     573.2558  0.016779528   0.01635526            1 
 2848000   0.79505563    -8.199291    573.44841  0.016779272  0.016349872            3 
 2849000   0.81214291   -8.1849328    574.53674  0.016805216  0.016344473            5 
 2850000   0.81705695    -8.192577    573.64094  0.016773127   0.01633906            3 
 2851000   0.79690491   -8.2040969    572.28002  0.016727465  0.016333622            2 
 2852000   0.78950929   -8.2051366     573.8143   0.01676643  0.016328235            3 
 2853000   0.79908947   -8.1918792    573.38108  0.016747899  0.016322822            6 
 2854000    0.7986291   -8.2034782    573.06308  0.016732746  0.016317433            3 
 2855000   0.78946952   -8.2262138    572.64775  0.016714762  0.016312033            2 
 2856000   0.80745536   -8.2233156    573.11176  0.016722449  0.016306645            1 
 2857000   0.80567565   -8.1853453    575.03496  0.016772692  0.016301282            2 
 2858000   0.79354224     -8.19463    573.84927  0.016732251  0.016295919            2 
 2859000   0.79002998   -8.1986609    573.47534  0.016715499  0.016290551            5 
 2860000   0.79102637   -8.2081868    573.28979  0.016704248  0.016285166            5 
 2861000   0.79366679   -8.2077271    573.14467  0.016694182  0.016279756            3 
 2862000   0.78492498   -8.2325731    571.22223  0.016632373  0.016274347            6 
 2863000   0.79402908      -8.2098    573.42471  0.016690672  0.016268949            2 
 2864000   0.78694454   -8.2166907     573.1431   0.01667665  0.016263557            3 
 2865000   0.79029099   -8.2258282    572.81367  0.016661247  0.016258154            3 
 2866000   0.81594207   -8.2003558    574.55904  0.016706183  0.016252761            2 
 2867000   0.78346921   -8.1907479    573.35755  0.016665433  0.016247365            2 
 2868000   0.78964045   -8.2040414    572.45265  0.016633329  0.016241988            3 
 2869000     0.795848   -8.1839159     574.4763   0.01668631  0.016236595            1 
 2870000   0.79609985    -8.216505    574.18273  0.016671972  0.016231221            2 
 2871000   0.77074313   -8.2339215    572.73066  0.016624018  0.016225821            3 
 2872000   0.78935537   -8.2134126    574.26478  0.016662743  0.016220406            3 
 2873000     0.794598   -8.2241842    572.89318  0.016617159  0.016214992            2 
 2874000   0.79110898   -8.2254549      572.539  0.016601108  0.016209586            2 
 2875000   0.79249215   -8.2036895    574.60402  0.016655189  0.016204171            7 
 2876000   0.78691927   -8.2018458    573.08746  0.016605455   0.01619874            1 
 2877000   0.80134906   -8.2425636    572.39863  0.016579731  0.016193312            2 
 2878000   0.79556491   -8.2214217    573.27211  0.016599262  0.016187883            1 
 2879000   0.80981653   -8.1915097    573.86717   0.01661072  0.016182477            2 
 2880000   0.78016931   -8.2078334    573.35818  0.016590225  0.016177106            4 
 2881000   0.78358392   -8.2440205    573.10209  0.016577059  0.016171697            6 
 2882000   0.78231281    -8.251821    573.44514  0.016581227  0.016166294            4 
 2883000   0.79308965    -8.215569     573.3943  0.016574006   0.01616089            2 
 2884000   0.79771759   -8.2282416     573.1878  0.016562292  0.016155511            2 
 2885000   0.77853502   -8.2193746    573.10753  0.016554233   0.01615011            1 
 2886000   0.79652714     -8.21577    575.21031  0.016609214  0.016144751            4 
 2887000   0.79737752   -8.1924886    574.96233  0.016596303  0.016139385            2 
 2888000    0.7946176    -8.189892    574.56338  0.016579045  0.016134058            1 
 2889000   0.80285499   -8.1896803    574.39057  0.016568322  0.016128725            2 
 2890000    0.7795972   -8.2183561    575.10891  0.016583302  0.016123404            1 
 2891000   0.79479364   -8.2369343    574.91641  0.016572017  0.016118071            4 
 2892000   0.77813125   -8.2353837    575.58056  0.016585424  0.016112725            1 
 2893000   0.80236729   -8.2307106    574.59849  0.016551402   0.01610737            3 
 2894000    0.7973037   -8.2054574    575.37173  0.016567949  0.016102034            6 
 2895000   0.77389421   -8.2028404    575.34329  0.016561407  0.016096699            2 
 2896000   0.79534117   -8.1726553    575.15881   0.01655038   0.01609137            4 
 2897000   0.79485736    -8.182844     575.4833  0.016554001  0.016086055            2 
 2898000   0.80451203   -8.2201272    575.75763  0.016556178  0.016080745            9 
 2899000   0.79284116   -8.1896575    576.33603  0.016567093  0.016075449            1 
 2900000   0.79758369   -8.2159361    574.39537  0.016505614  0.016070165            2 
 2901000   0.80365159   -8.2344864    574.16905  0.016493423  0.016064862            4 
 2902000   0.78957441   -8.2301333    575.49383  0.016525782  0.016059583            2 
 2903000    0.7972514   -8.2231569    575.92408   0.01653244  0.016054302            3 
 2904000   0.78427635    -8.214697    577.03704  0.016558685  0.016049046            2 
 2905000   0.78045638    -8.182563    575.90848   0.01652061  0.016043792            1 
 2906000   0.81153567   -8.2208958    575.97089  0.016516715  0.016038497            3 
 2907000   0.79471613   -8.2032084    576.58679  0.016528689  0.016033247            1 
 2908000   0.79848049   -8.2035242    575.02877  0.016478358  0.016027964            2 
 2909000   0.78669826   -8.1931397    575.69709  0.016491838  0.016022673            1 
 2910000   0.79128014   -8.2083797    575.43168   0.01647857  0.016017385            4 
 2911000   0.78930996   -8.2233397    575.38611  0.016471605  0.016012082            3 
 2912000   0.78941658   -8.2375157    576.23392  0.016490211   0.01600676            3 
 2913000   0.78046193   -8.1948911    576.86037  0.016502471  0.016001476            1 
 2914000   0.79218201   -8.2249312    576.08668  0.016474682  0.015996183            2 
 2915000     0.791941   -8.1934598    576.47746  0.016480202    0.0159909            1 
 2916000   0.78263067   -8.2359709    575.23698    0.0164391  0.015985618            2 
 2917000   0.77278473   -8.2189834    577.65682  0.016502595  0.015980324            3 
 2918000   0.78911629   -8.2238437    575.92225  0.016447403  0.015975043            3 
 2919000   0.77588591   -8.2431824    575.41002  0.016427145  0.015969749            4 
 2920000   0.78968739   -8.2175882     576.1408  0.016442375  0.015964455            2 
 2921000   0.78719091    -8.240826    574.98932  0.016403895  0.015959171            1 
 2922000   0.79035949   -8.1752335    577.01297  0.016455994    0.0159539            1 
 2923000   0.78036863   -8.2408708    576.38704  0.016432519  0.015948648            7 
 2924000   0.76696224   -8.2172758    577.54947  0.016460028  0.015943385            5 
 2925000   0.77620987   -8.2509663    575.56368  0.016397826  0.015938114            3 
 2926000   0.78168242   -8.2282589    575.27783   0.01638408  0.015932821            2 
 2927000    0.7741492   -8.2329407     575.7592  0.016392188  0.015927532            3 
 2928000   0.77870925   -8.2236836    575.54573  0.016380514  0.015922231            2 
 2929000   0.78559929   -8.2124599    577.72234  0.016436848  0.015916954            1 
 2930000   0.79664791   -8.2451224    576.22164  0.016388556  0.015911675            2 
 2931000   0.77440656   -8.2154341    575.52644  0.016363199   0.01590639            3 
 2932000   0.78233467   -8.2100325    575.57807  0.016359086   0.01590112            2 
 2933000   0.78287247   -8.2098036    577.02257   0.01639455  0.015895856            3 
 2934000   0.79075149   -8.2404578    577.75354  0.016409723   0.01589059            2 
 2935000   0.78049419   -8.2299246    574.20221  0.016303299  0.015885302            2 
 2936000   0.77301942    -8.236266    576.22289    0.0163551  0.015880025            1 
 2937000    0.7814255   -8.2855002    573.66007  0.016276815  0.015874692            2 
 2938000    0.7839147   -8.2269964    575.19424   0.01631479  0.015869373            4 
 2939000   0.77749346   -8.2242375    575.62169  0.016321359  0.015864051            1 
 2940000   0.76946944   -8.2343187    575.92566  0.016324423  0.015858733            2 
 2941000   0.78371058   -8.2498659    574.45983  0.016277338  0.015853418            3 
 2942000    0.7870197   -8.2810854    574.92607  0.016285012  0.015848073            2 
 2943000   0.77168305   -8.2631034    574.00158  0.016253301  0.015842741            4 
 2944000   0.78624905   -8.2676316    575.36898  0.016286486  0.015837412            5 
 2945000    0.7730863   -8.2390598      575.438  0.016282909  0.015832084            2 
 2946000   0.76867111   -8.1964705    575.69328  0.016284603  0.015826789            2 
 2947000    0.7693706   -8.2194362    575.40374   0.01627089  0.015821496            3 
 2948000   0.79355638   -8.2446344    577.25051  0.016317574  0.015816219            2 
 2949000   0.75298847   -8.2583652    576.22372  0.016283026  0.015810937            2 
 2950000   0.78188562   -8.2601268      574.329  0.016223983  0.015805614            4 
 2951000   0.78231978   -8.2380599    575.51258  0.016251908  0.015800282            2 
 2952000   0.77439111   -8.2271357    575.59884  0.016248838  0.015794959            2 
 2953000   0.78711128   -8.2332517    575.53273   0.01624147  0.015789644            6 
 2954000   0.78257384   -8.2514043    575.12149  0.016224371  0.015784345            2 
 2955000   0.78115309   -8.2737721    574.22361  0.016193559  0.015779054            2 
 2956000   0.77495213   -8.2685722    575.60845  0.016227122  0.015773754            2 
 2957000   0.76478327   -8.2366405    575.57146  0.016220591  0.015768464            2 
 2958000   0.78095518    -8.257435    575.65251  0.016217391  0.015763162            1 
 2959000   0.77198699   -8.2395023    576.16414  0.016226319  0.015757868            1 
 2960000   0.77960505   -8.2209258    576.98997  0.016244087  0.015752613            4 
 2961000   0.76479572   -8.2231962    576.52389  0.016225484  0.015747358            3 
 2962000   0.74474361   -8.2682626    575.75818  0.016198463  0.015742087            1 
 2963000   0.76830277   -8.2495257    576.30475  0.016208369  0.015736811            3 
 2964000    0.7713688   -8.2626134    576.37477  0.016204869  0.015731519            1 
 2965000   0.77973327   -8.2604254    575.61937  0.016178172  0.015726221            4 
 2966000   0.78585437   -8.2276816    577.30737  0.016220144  0.015720933            1 
 2967000   0.78948394   -8.2799461    575.99238  0.016177743  0.015715644            1 
 2968000   0.79261567   -8.2458168    575.97917  0.016171922  0.015710363            2 
 2969000   0.78455262   -8.2809088       575.99  0.016166779  0.015705072            1 
 2970000   0.77652609   -8.2283183    575.69045  0.016152931  0.015699799            4 
 2971000   0.79399497   -8.2525017    575.68011  0.016147204  0.015694522            3 
 2972000   0.78121771    -8.250111    576.54013  0.016165885  0.015689246            1 
 2973000   0.78485719   -8.2820194    575.78529   0.01613929  0.015683971            3 
 2974000    0.7834984   -8.2483145    576.48579  0.016153491  0.015678714            5 
 2975000   0.76787752   -8.2957123    574.75364  0.016099542  0.015673459            4 
 2976000   0.75493057   -8.2669903    576.02222  0.016129654  0.015668197            2 
 2977000   0.79333657   -8.2750081    575.98362  0.016123156  0.015662952            5 
 2978000   0.77141507   -8.2578101    576.52403  0.016132864  0.015657686            3 
 2979000   0.77796477   -8.2655267     576.2792    0.0161206  0.015652434            2 
 2980000    0.7898997   -8.2453116    577.04993  0.016136743  0.015647178            2 
 2981000   0.76407347   -8.2459849    575.57906  0.016090212  0.015641918            8 
 2982000   0.78623553   -8.2704665    576.51855  0.016111071  0.015636651            4 
 2983000   0.79088102   -8.2730206    576.20996  0.016097049  0.015631401            2 
 2984000   0.78437806    -8.260633    576.54043  0.016100883  0.015626116            3 
 2985000   0.77374393   -8.2758966    576.34677  0.016090083  0.015620834            6 
 2986000   0.78353345   -8.2644529    575.25295  0.016054168  0.015615564            4 
 2987000   0.79889244   -8.2981194    574.94046  0.016040075  0.015610281            8 
 2988000    0.7691772   -8.2671717    575.32293  0.016045374  0.015604993           12 
 2989000   0.78331021   -8.2696107    577.25451  0.016093858  0.015599737            3 
 2990000   0.77823303   -8.2698283    577.61233  0.016098449  0.015594478            3 
 2991000   0.77627775   -8.2838343    576.58303  0.016064388  0.015589203            3 
 2992000   0.75324967   -8.2789538    576.57428  0.016058776  0.015583903            1 
 2993000   0.77931072   -8.3129007    576.43888   0.01604964  0.015578625            2 
 2994000   0.75605741   -8.2921712    575.68771  0.016023372  0.015573341            3 
 2995000   0.76176379   -8.3023839    576.49644  0.016040524  0.015568076            3 
 2996000   0.76782044   -8.2633485    575.27477   0.01600119  0.015562808            1 
 2997000   0.76998688   -8.2731947    576.07012  0.016017966  0.015557562            1 
 2998000   0.78281236    -8.254433    576.84874  0.016034266  0.015552329            6 
 2999000   0.77588481   -8.2877987    576.71732  0.016025267  0.015547086            4 
 3000000   0.78629773   -8.2431512    576.56515  0.016015698  0.015541861            6 
 3001000   0.75713609   -8.2639454     577.0505  0.016023839  0.015536645            3 
 3002000   0.78455278   -8.2620282    577.47819  0.016030374  0.015531416            3 
 3003000   0.78089498    -8.231584    577.90656  0.016036923  0.015526202            2 
 3004000   0.75727458   -8.2608893    576.13909  0.015982554   0.01552099            7 
 3005000   0.77112792   -8.2863255    577.01896  0.016001635  0.015515752            3 
 3006000   0.78025829    -8.283497    576.60877   0.01598494  0.015510516            4 
 3007000   0.75918144   -8.2739933    577.79478  0.016012492  0.015505283            6 
 3008000   0.76944808      -8.2443    577.72142  0.016005137  0.015500056            6 
 3009000   0.73930238    -8.299047    577.23019  0.015986213  0.015494835            2 
 3010000   0.77824798   -8.2448442    576.97391  0.015973807  0.015489606            3 
 3011000   0.77479727   -8.2536591    576.98637  0.015968847  0.015484383            2 
 3012000    0.7651929   -8.2918893    577.64526  0.015981774  0.015479145            3 
 3013000    0.7695122   -8.2806556    577.09195  0.015961167  0.015473933            3 
 3014000   0.76070003   -8.2917438    576.64748  0.015943582    0.0154687            2 
 3015000   0.76537561   -8.2724766    578.33701  0.015984992  0.015463474            3 
 3016000    0.7649009   -8.2627579    576.61752  0.015932182  0.015458261            2 
 3017000   0.76883384    -8.261073    578.48094  0.015978371  0.015453046            2 
 3018000   0.76049713   -8.2738422    577.88067  0.015956502  0.015447837            1 
 3019000   0.76126419    -8.258075    578.66214  0.015972787   0.01544261            2 
 3020000   0.78419084   -8.2647257    578.07811  0.015951383  0.015437384            3 
 3021000   0.77242357   -8.2520848    577.32337  0.015925283  0.015432181            1 
 3022000   0.76180443   -8.2738172    576.34352  0.015892994  0.015426992            2 
 3023000   0.76101418   -8.2536449    577.57145  0.015921586  0.015421798            2 
 3024000   0.78561394   -8.2442829    577.84534  0.015923869  0.015416603            1 
 3025000   0.76696098   -8.2487752    578.96776  0.015949525  0.015411408            2 
 3026000   0.76534303   -8.2704963    577.39367  0.015900905  0.015406234            2 
 3027000   0.77739399   -8.2609967     578.1953  0.015917721   0.01540106            1 
 3028000   0.76244963   -8.2702929    578.33942  0.015916431  0.015395889            3 
 3029000   0.76570477   -8.2696178    577.19606   0.01587972  0.015390687            2 
 3030000   0.79356783   -8.2696156    577.09906  0.015871811  0.015385506            3 
 3031000   0.76443985   -8.2728508    578.45081  0.015903739  0.015380334            1 
 3032000   0.77767808   -8.2688129    578.36135  0.015896035  0.015375153            4 
 3033000   0.77455648   -8.2821276    577.78784  0.015875037  0.015369978            4 
 3034000   0.76215676   -8.2882725    577.33327  0.015857319  0.015364781            2 
 3035000   0.74821044   -8.2900772    578.00713  0.015870597  0.015359581            2 
 3036000   0.76631212   -8.2935378    577.86619  0.015861501  0.015354405            3 
 3037000   0.76676945   -8.2750182     578.4473  0.015872223  0.015349237            3 
 3038000   0.74699058    -8.274771    577.22816  0.015833557  0.015344072            6 
 3039000     0.750604   -8.2920452    578.90571  0.015874348  0.015338894            3 
 3040000   0.76287499   -8.3054594    577.21653  0.015822821  0.015333714            2 
 3041000   0.75607777   -8.2959799    577.59888  0.015828096  0.015328533            3 
 3042000   0.76458561    -8.296644    578.22969  0.015840173  0.015323351            1 
 3043000   0.73296044    -8.296386    577.05622  0.015802832  0.015318176            6 
 3044000   0.76060455     -8.31253    577.79135  0.015817766  0.015313012            2 
 3045000    0.7775294   -8.2940474     578.9127  0.015843259   0.01530782            1 
 3046000   0.78183163   -8.3114411     578.8679  0.015836832  0.015302633            2 
 3047000   0.76481537   -8.3192156    577.55904  0.015795839  0.015297448            6 
 3048000   0.77680715   -8.3042418    578.08614  0.015805067  0.015292272            1 
 3049000    0.7635495   -8.3008393    578.34235  0.015806886  0.015287109            1 
 3050000   0.75938603   -8.3333468     577.5447   0.01577991  0.015281942            2 
 3051000   0.77300224   -8.2918969    577.65432  0.015777732  0.015276796            2 
 3052000   0.76318412   -8.2976502    577.95982  0.015780904  0.015271654            2 
 3053000   0.76121132   -8.2759698    579.70832  0.015823461   0.01526651            1 
 3054000   0.75704358   -8.2934804    578.94102  0.015797343   0.01526138            2 
 3055000   0.76457438   -8.3039545    578.63325  0.015783777  0.015256218            4 
 3056000   0.75870472   -8.3038624     578.2178  0.015767283  0.015251076            3 
 3057000   0.76770124   -8.3089749    577.32973  0.015737916  0.015245946            2 
 3058000   0.75305895    -8.280626    577.57035  0.015739327  0.015240801            1 
 3059000   0.74285886   -8.3125753    577.73962  0.015738793  0.015235643            2 
 3060000   0.76717424   -8.2889023    577.57004  0.015729032  0.015230491            2 
 3061000   0.75891683   -8.2998679     577.6214  0.015725291  0.015225356            1 
 3062000   0.76834802   -8.2847727    578.23467  0.015736846  0.015220221            1 
 3063000   0.76108714   -8.2844246     579.2216  0.015758559  0.015215094            2 
 3064000   0.75112152   -8.2989921    577.98111  0.015719678  0.015209962            2 
 3065000   0.76003734   -8.3017051    578.41415  0.015726323   0.01520483            3 
 3066000   0.76242437   -8.3280797    578.03273  0.015710827  0.015199695            2 
 3067000   0.75831749   -8.3008612    577.68199  0.015696174   0.01519456            2 
 3068000   0.76833984   -8.2955821    578.11239  0.015702748  0.015189403            3 
 3069000   0.75277066   -8.3241448    578.07759  0.015696687  0.015184252            2 
 3070000   0.74555599    -8.307421    578.17608  0.015694247  0.015179088            3 
 3071000   0.77800358   -8.2946589    579.45654  0.015723883  0.015173949            2 
 3072000   0.76345235   -8.2917664    579.50646  0.015720119  0.015168828            2 
 3073000   0.76158849   -8.2856711    578.78675  0.015695486  0.015163682            1 
 3074000   0.76792193    -8.280889    578.88034  0.015692918  0.015158575            2 
 3075000   0.75585059    -8.282715    578.09784  0.015666608  0.015153445            1 
 3076000   0.75102456   -8.2978121    578.22589  0.015664984  0.015148308            3 
 3077000   0.75625936   -8.3076716    578.23233  0.015660067  0.015143175            1 
 3078000   0.76582244   -8.2875047    578.72584  0.015668341  0.015138034            3 
 3079000    0.7487324   -8.2999711    578.67663   0.01566192  0.015132916            4 
 3080000   0.73422603    -8.281781    578.28332  0.015646194  0.015127802            8 
 3081000   0.74565916   -8.2846244    579.09518  0.015663074  0.015122679            6 
 3082000   0.77198186   -8.3157661    577.68891  0.015619968  0.015117557            6 
 3083000   0.76692712   -8.2896686    579.34393  0.015659637   0.01511244            2 
 3084000   0.74251264    -8.304327    579.95265  0.015671008   0.01510731            2 
 3085000   0.76026592   -8.3202999    580.01894  0.015667719  0.015102188            4 
 3086000   0.73857994   -8.3208177    577.44666   0.01559318   0.01509706            3 
 3087000   0.76439356   -8.3083008    578.40387  0.015613969  0.015091928            3 
 3088000   0.76632463   -8.3239155     577.3347   0.01558006    0.0150868            2 
 3089000    0.7472895   -8.3421132    577.30182  0.015574129  0.015081663            1 
 3090000   0.74705399   -8.3251019    577.56846   0.01557628  0.015076517            3 
 3091000   0.76291598   -8.3161669     578.1917  0.015588043  0.015071388            2 
 3092000   0.75701769   -8.3198704    580.57678  0.015647283  0.015066259            2 
 3093000   0.75404356   -8.3118477    579.04353  0.015600914  0.015061149            2 
 3094000   0.75374271   -8.3403246    578.64664  0.015585182  0.015056022            3 
 3095000   0.77928956   -8.3364238     578.4703  0.015575399  0.015050886            2 
 3096000   0.77831688   -8.3481357    577.79757   0.01555226  0.015045745            2 
 3097000   0.75366117   -8.3305652    578.53736  0.015567145  0.015040608            2 
 3098000     0.745405   -8.3321958    577.87595  0.015544328  0.015035475            1 
 3099000   0.74839249    -8.311814    578.65146  0.015560166  0.015030344            3 
 3100000    0.7447218   -8.3038329    578.70537  0.015556596  0.015025225            2 
 3101000   0.74772031   -8.3052324    579.30114  0.015567589  0.015020116            1 
 3102000   0.75977272   -8.3076687    579.81074  0.015576261  0.015015012            2 
 3103000   0.75388471   -8.2975168     578.2635  0.015529689  0.015009903            1 
 3104000   0.73810119    -8.303498    579.33427  0.015553433  0.015004809            2 
 3105000    0.7496447   -8.3026839    579.36111  0.015549144  0.014999712            4 
 3106000    0.7622833   -8.2892333    578.43344  0.015519249  0.014994624            1 
 3107000   0.76887012    -8.303797    579.27567  0.015536843  0.014989543            2 
 3108000   0.76687613   -8.3259576    579.98444  0.015550848  0.014984435            1 
 3109000   0.76239903    -8.273763    579.16961  0.015524006  0.014979357            2 
 3110000   0.73669692     -8.30731    579.56794  0.015529688  0.014974286            3 
 3111000   0.77089219   -8.3111482    579.22944  0.015515628   0.01496922            1 
 3112000   0.75972109   -8.3325707    579.00572  0.015504652  0.014964135            1 
 3113000   0.77472073   -8.3221595    579.11133  0.015502498  0.014959041            2 
 3114000   0.75109321   -8.2959955    579.61108  0.015510894  0.014953962            2 
 3115000   0.76379845   -8.3183412    578.79711  0.015484139  0.014948886            2 
 3116000    0.7432699   -8.2946322    579.72819   0.01550407  0.014943836            4 
 3117000   0.75499093   -8.3464696    578.44916  0.015464901  0.014938767            2 
 3118000   0.73280765   -8.3399031     577.8846  0.015444853  0.014933686            4 
 3119000   0.76191506   -8.3131188    578.42378  0.015454306  0.014928613            2 
 3120000   0.74783639    -8.318206    578.81256  0.015459737  0.014923546            2 
 3121000   0.74350682   -8.3106924    579.45486  0.015471934  0.014918496            3 
 3122000   0.75496837   -8.3434694    578.82704   0.01545022  0.014913423            4 
 3123000   0.74760554   -8.3156183    579.53245  0.015464096  0.014908336            2 
 3124000   0.75735093    -8.324436    578.56333  0.015433294  0.014903273            1 
 3125000   0.74896466   -8.3039028    580.49987  0.015479996  0.014898224            3 
 3126000   0.76175124   -8.3135397    579.65478  0.015452516  0.014893184            2 
 3127000   0.76849088    -8.283095    580.51984  0.015470628  0.014888168            2 
 3128000   0.75113158   -8.2857286    580.39301  0.015462303  0.014883136            2 
 3129000   0.76609391   -8.3008006    580.46672  0.015459324  0.014878092            4 
 3130000   0.74535566   -8.2947292     580.7337  0.015461493  0.014873056            3 
 3131000   0.74786426   -8.3022732     579.5508  0.015425072  0.014867994            4 
 3132000   0.76240726   -8.3030041    579.39953  0.015416122  0.014862925            2 
 3133000   0.77718195   -8.3283816    579.01203  0.015400895  0.014857864            3 
 3134000   0.75889649   -8.3184174    579.21297  0.015401323  0.014852792            1 
 3135000   0.72957534   -8.3229207    578.28794  0.015371822   0.01484771            1 
 3136000   0.75266814   -8.3343704    578.97178  0.015385092  0.014842619            2 
 3137000   0.76077061   -8.2958925    578.97134  0.015380176  0.014837551            2 
 3138000   0.76353492    -8.298672    580.59008  0.015418262  0.014832505            2 
 3139000    0.7327021   -8.3140445    579.87242  0.015394298  0.014827468            4 
 3140000   0.73305927   -8.3335645    580.30913  0.015400985  0.014822433            4 
 3141000   0.74204375   -8.3322173    577.48732  0.015321217   0.01481737            1 
 3142000   0.74570365   -8.3130512    579.24121  0.015362858  0.014812296            4 
 3143000   0.75926151   -8.3392018      579.451  0.015363533  0.014807237            4 
 3144000   0.74231693   -8.3113942    578.40318  0.015330873   0.01480216            5 
 3145000    0.7501074   -8.3184557    578.29248  0.015323065  0.014797104            8 
 3146000    0.7486558   -8.3027661    580.10678  0.015366253  0.014792043            1 
 3147000   0.75263543   -8.3467785    578.76785  0.015325915  0.014786975            1 
 3148000   0.74809816   -8.3282946    579.00051  0.015327205   0.01478191            3 
 3149000   0.74279778   -8.3013047    579.98181  0.015348307  0.014776837            2 
 3150000   0.73141903   -8.3068326    579.04356  0.015318613  0.014771799            5 
 3151000   0.74961456   -8.3191061    579.07604   0.01531461  0.014766768            6 
 3152000   0.74945642   -8.3235819    578.89658  0.015305007  0.014761746            5 
 3153000   0.75022072   -8.3226187    579.33603  0.015311767  0.014756698            3 
 3154000   0.75074148   -8.3288705    578.44002  0.015283239   0.01475166            2 
 3155000   0.75300769   -8.3252008    578.69534  0.015285138  0.014746614            2 
 3156000   0.74876914   -8.3252166    580.67314  0.015332519  0.014741557            2 
 3157000   0.75574047   -8.3400751    578.77839  0.015277647  0.014736494            1 
 3158000    0.7148713   -8.3176225    579.28345  0.015286137  0.014731431            4 
 3159000   0.73832373   -8.3125767    578.28597  0.015254985  0.014726383            5 
 3160000   0.75687271   -8.3289303    580.27842  0.015302701  0.014721328            2 
 3161000   0.73527771   -8.3872486    578.07474  0.015239764  0.014716256            4 
 3162000    0.7544238   -8.3527352    578.14424  0.015236776  0.014711189            2 
 3163000   0.74261035   -8.3265449    579.63181  0.015271151   0.01470613            4 
 3164000   0.74841938   -8.3258192    579.61192  0.015265801  0.014701072            1 
 3165000   0.74373635   -8.3546507    577.82619   0.01521396  0.014696014            3 
 3166000   0.75557628   -8.3733464    578.50634  0.015227057  0.014690953            3 
 3167000    0.7451187   -8.3198862    578.97434  0.015234563  0.014685892            1 
 3168000   0.73233814   -8.3185957    578.52291   0.01521788  0.014680843            3 
 3169000   0.75138088   -8.3324988    578.78604  0.015219997  0.014675798            6 
 3170000   0.78016481   -8.3267638    578.73685  0.015213903  0.014670755            2 
 3171000    0.7376333   -8.3273185    580.40754   0.01525301  0.014665717            3 
 3172000   0.76043049   -8.3457582    579.27217  0.015218374  0.014660653            2 
 3173000   0.73054464   -8.3497116    580.01785  0.015233161  0.014655586            2 
 3174000   0.75909552   -8.3291402    580.11205  0.015230835  0.014650528            2 
 3175000   0.75592345   -8.3511276    578.87271  0.015193509  0.014645478            1 
 3176000   0.73953561   -8.3293236    581.21972  0.015250308  0.014640448            2 
 3177000   0.73939439    -8.340645    579.28773  0.015194831  0.014635423            2 
 3178000   0.75052527   -8.3250808    580.28319  0.015216152  0.014630412            4 
 3179000   0.73872446    -8.338366    579.33367  0.015186476  0.014625381            1 
 3180000   0.75856945   -8.3321568    578.60938   0.01516272  0.014620353            2 
 3181000   0.73206133   -8.3368166    579.02934  0.015168955  0.014615339            1 
 3182000   0.73883235   -8.3146995     579.7293  0.015182519  0.014610326            2 
 3183000   0.75384802   -8.3269772    579.99837  0.015184794  0.014605317            2 
 3184000   0.73509592   -8.3057286    579.57936  0.015169058  0.014600314            1 
 3185000   0.75152762   -8.3336767    580.32934  0.015183918  0.014595329            2 
 3186000   0.75081747   -8.3203701    581.15713  0.015200804  0.014590328            3 
 3187000   0.73822642   -8.3378547    580.16409  0.015170068  0.014585342            1 
 3188000   0.73211505   -8.3411917    580.20493  0.015166377  0.014580351            3 
 3189000   0.74611623   -8.3426716    579.15396  0.015134158  0.014575364            2 
 3190000   0.74978767   -8.3374014    579.86966   0.01514811  0.014570378            3 
 3191000      0.73339   -8.3197299    581.26735  0.015179864  0.014565401            2 
 3192000   0.73096727   -8.3404452    579.62642  0.015132269  0.014560416            1 
 3193000   0.73894611   -8.3364128     579.7039  0.015129552  0.014555438            1 
 3194000   0.73755481   -8.3649299    579.40644  0.015117054  0.014550452            2 
 3195000   0.72520019   -8.3304836    579.94182  0.015126286  0.014545455            5 
 3196000   0.72402865   -8.3531982    579.55552  0.015111481  0.014540462            1 
 3197000   0.73476654   -8.3566114    580.61123  0.015134273  0.014535477            3 
 3198000   0.73982851    -8.342133    579.97636  0.015112997    0.0145305            3 
 3199000   0.72783363   -8.3254035    580.58416  0.015124105  0.014525541            6 
 3200000   0.73815983   -8.3167558    580.42777  0.015115307  0.014520583            3 
 3201000   0.74400027   -8.3254663    580.14404  0.015103198  0.014515625            4 
 3202000   0.73474211   -8.3384129     580.8492  0.015116833   0.01451068            1 
 3203000   0.73949715   -8.3315774    579.69197  0.015082006   0.01450572            2 
 3204000   0.72326083   -8.3530265     579.4647  0.015071387  0.014500749            6 
 3205000   0.72854857   -8.3442565    580.26246  0.015087427  0.014495778            1 
 3206000   0.73050383   -8.3263513    580.51335  0.015089243  0.014490811            3 
 3207000   0.72784916   -8.3358119    578.62804  0.015035548   0.01448586            3 
 3208000   0.74984333     -8.33613    580.67157  0.015083945  0.014480893            3 
 3209000   0.73864252   -8.3800831    580.26098  0.015068583  0.014475921            4 
 3210000   0.73417336   -8.3722644    579.31284  0.015039274  0.014470935            3 
 3211000   0.75686572   -8.3432796    579.50907  0.015039683  0.014465964            2 
 3212000    0.7215216   -8.3406343    580.39581  0.015058007  0.014460994            3 
 3213000   0.75778177   -8.3774415    579.23778  0.015023285  0.014456023            3 
 3214000   0.75390292   -8.3573434    579.70784  0.015030799  0.014451041            5 
 3215000   0.73312266   -8.3548329    579.96543    0.0150328  0.014446066            1 
 3216000   0.73370612   -8.3645388    579.52516  0.015016717  0.014441095            3 
 3217000   0.71685488   -8.3676623    579.80538  0.015019308  0.014436092            1 
 3218000   0.74248375   -8.3673652     579.4476  0.015005376    0.0144311            2 
 3219000   0.73298144   -8.3633794    579.97263  0.015014307  0.014426096            1 
 3220000   0.72999036   -8.3725979    578.50151  0.014971571  0.014421099            3 
 3221000   0.73514366   -8.3702449    579.99778  0.015005634  0.014416099            3 
 3222000   0.73368225   -8.3667897    579.32638  0.014983612  0.014411109            2 
 3223000    0.7258573   -8.3731404      580.376  0.015006102  0.014406116            3 
 3224000   0.72999899   -8.3768427    580.10892  0.014994544  0.014401137            4 
 3225000   0.73802761   -8.3454763    580.20631  0.014992411  0.014396162            3 
 3226000     0.725927   -8.3626235    580.90764   0.01500588  0.014391202            2 
 3227000    0.7326264   -8.3708735    579.88132  0.014974727  0.014386249            1 
 3228000   0.73606716   -8.3331156    580.11464  0.014976111  0.014381306            3 
 3229000   0.74612174   -8.3887946     579.4738  0.014954934  0.014376358            2 
 3230000   0.73428231    -8.395403      579.721  0.014956682  0.014371388            2 
 3231000   0.71865402   -8.3700196    580.03816  0.014960233  0.014366406            3 
 3232000   0.74120819   -8.3762689    581.31152  0.014988436  0.014361443            4 
 3233000   0.73067608   -8.4106899     579.1839  0.014928959  0.014356487            2 
 3234000   0.73710089   -8.3593097    580.89963  0.014968554  0.014351529            4 
 3235000   0.73095619   -8.3921188    579.90877  0.014938402  0.014346587            2 
 3236000   0.73954221    -8.385254    580.63072  0.014952377  0.014341628            3 
 3237000   0.73536551   -8.3834597    580.01551   0.01493192  0.014336668            4 
 3238000   0.74110561   -8.3664083    579.08316  0.014903314  0.014331716            4 
 3239000      0.74428   -8.3861243    579.84076  0.014918204   0.01432676            1 
 3240000   0.73487862   -8.3778573    580.72561  0.014936358  0.014321807            2 
 3241000   0.73033678    -8.383176    580.08004  0.014915151  0.014316864            1 
 3242000   0.73659648   -8.3990567    580.32677  0.014916892  0.014311904            4 
 3243000   0.74011906     -8.39696    579.99987  0.014903892  0.014306936            3 
 3244000   0.72981957   -8.3931336    580.19114  0.014904211  0.014301983            1 
 3245000   0.74366923   -8.4154846    578.95232  0.014867805   0.01429704            2 
 3246000   0.73102623   -8.3673038    578.48375  0.014851195  0.014292103            2 
 3247000   0.73482411   -8.3614801    581.11159  0.014914064  0.014287171            1 
 3248000   0.71697869   -8.3851678    580.31933  0.014889145  0.014282252            1 
 3249000    0.7224491   -8.3439023    579.60188  0.014866161  0.014277323            2 
 3250000   0.72517178   -8.3817366     579.5447   0.01486012  0.014272382            2 
 3251000   0.76134443   -8.3838485    580.46567  0.014879157  0.014267437            2 
 3252000   0.72946893   -8.3831646    580.18212  0.014867316  0.014262492            3 
 3253000   0.74993024   -8.3637605    579.80445   0.01485307  0.014257561            7 
 3254000   0.72533202   -8.3905436    580.03217  0.014854338  0.014252625            2 
 3255000   0.73865163   -8.3794298    579.25675  0.014829922  0.014247689            3 
 3256000   0.73253606   -8.3509498    580.69221  0.014862106  0.014242742            3 
 3257000    0.7173267   -8.3735708    579.07443  0.014816151  0.014237793            1 
 3258000   0.74113494   -8.3620632    580.35138  0.014844265  0.014232856            5 
 3259000    0.7294372   -8.3792798    579.81206   0.01482592  0.014227917            3 
 3260000   0.71825895   -8.3709446    580.75733  0.014845535  0.014222988            2 
 3261000   0.72840292   -8.3876164     580.7558  0.014840943  0.014218046            2 
 3262000    0.7660286   -8.3471962    579.52996  0.014805078  0.014213113            6 
 3263000   0.71536908   -8.3769186    579.26431  0.014793756  0.014208184            2 
 3264000   0.71453002   -8.3646955    580.44927  0.014819477  0.014203253            3 
 3265000   0.71416392   -8.3649811    579.92109  0.014801457  0.014198319            3 
 3266000   0.72286555   -8.3973009    579.10971  0.014776223  0.014193384            2 
 3267000   0.73103349   -8.3854869    580.34886  0.014803307  0.014188454            2 
 3268000   0.73180997   -8.3972378    578.50453  0.014751747   0.01418352            6 
 3269000   0.72246983    -8.365876    580.48602  0.014797747    0.0141786            6 
 3270000   0.72686937   -8.3794506    579.21731   0.01476089  0.014173671            2 
 3271000   0.71954732   -8.3598864    579.84002  0.014772241  0.014168746            5 
 3272000   0.72857183   -8.4022961    579.06204  0.014747912  0.014163814            1 
 3273000   0.71222534   -8.3958338    580.17987  0.014771868  0.014158878            3 
 3274000   0.72869634    -8.385647    580.28451  0.014770019  0.014153957            1 
 3275000    0.7341816   -8.3801705    580.32894   0.01476664  0.014149021            4 
 3276000   0.71587799   -8.4038826    578.62069  0.014718679  0.014144092            3 
 3277000   0.72247651   -8.3988098    579.58602  0.014738735  0.014139162            5 
 3278000   0.70861903   -8.3721146    580.12016  0.014747818  0.014134247            3 
 3279000   0.72226479   -8.3853948    580.28957  0.014747625  0.014129333            3 
 3280000   0.72933238   -8.4079902    579.32379  0.014718592   0.01412442            1 
 3281000   0.73700037   -8.3832905    579.74659  0.014724845  0.014119498            2 
 3282000   0.73293881   -8.3625673    580.06548  0.014728455  0.014114595            4 
 3283000   0.70630062   -8.3793312    578.92971  0.014695139  0.014109687            2 
 3284000   0.72561973   -8.3606204    579.23575  0.014698431  0.014104749            3 
 3285000   0.72643064   -8.4167143    578.80726  0.014683086  0.014099808            5 
 3286000   0.72158886   -8.3891007    578.81757  0.014678879  0.014094875            4 
 3287000   0.71954376   -8.3952169    578.83344  0.014674816  0.014089945            5 
 3288000   0.73700825    -8.366219     579.5902  0.014689533  0.014085027            2 
 3289000   0.71215151   -8.3993203    579.02019  0.014670624  0.014080115            2 
 3290000   0.74351185   -8.3804646    579.77412  0.014685261  0.014075204            2 
 3291000   0.71506525   -8.3620637    579.57071  0.014675648  0.014070297            2 
 3292000   0.71933394   -8.3753424    579.30382  0.014664435  0.014065386            1 
 3293000   0.74327631   -8.3658311    579.82172  0.014673087   0.01406049            2 
 3294000    0.7187487   -8.4172574    579.15445  0.014651752  0.014055598            2 
 3295000   0.72234031   -8.3811951     579.9532  0.014667506  0.014050694            5 
 3296000   0.72019804   -8.3995556    579.15033  0.014642757  0.014045788            3 
 3297000   0.71870656   -8.3881556     579.2045  0.014639685  0.014040881            1 
 3298000   0.70715872   -8.4044227    578.81526  0.014625411  0.014035977            1 
 3299000   0.71759086   -8.3646162    579.85551  0.014647254  0.014031088            1 
 3300000   0.71407807   -8.3826111    579.55519  0.014635232  0.014026194            3 
 3301000   0.72032403   -8.3884808    580.01793   0.01464248  0.014021307            3 
 3302000   0.73232986   -8.3926322     580.7521  0.014656574  0.014016428            1 
 3303000   0.72205798   -8.3840249     580.1786  0.014637668  0.014011549            2 
 3304000   0.71432008   -8.3900754    579.55148   0.01461742  0.014006674            2 
 3305000   0.72496892    -8.369889    580.50791  0.014637113  0.014001799            5 
 3306000   0.72829849   -8.3819056    580.71881  0.014638002  0.013996926            2 
 3307000   0.71124883   -8.3860563    580.31206  0.014623326  0.013992055            2 
 3308000   0.72058642   -8.3734577    581.48478  0.014648448   0.01398718            2 
 3309000   0.73607096   -8.4128217    580.44112  0.014617737  0.013982319            2 
 3310000   0.73286023   -8.3919361    579.95977  0.014601203  0.013977456            1 
 3311000   0.70834229   -8.3971216    580.26503  0.014604476  0.013972601            2 
 3312000    0.7400255   -8.3998084    579.29712  0.014575713   0.01396774            2 
 3313000   0.71586838      -8.3983    579.97642    0.0145884  0.013962872            2 
 3314000   0.71542534   -8.4124578    581.04067  0.014610759  0.013958008            2 
 3315000   0.72220828   -8.4131589    579.12755  0.014558259  0.013953138            2 
 3316000   0.73563799   -8.4004452    580.64701  0.014592054  0.013948257            2 
 3317000   0.72197499   -8.4036871     579.8822   0.01456844  0.013943387            2 
 3318000   0.69929996   -8.4186381    578.60672  0.014532015  0.013938514            1 
 3319000   0.71986497   -8.4131617    579.20304  0.014542609  0.013933625            2 
 3320000     0.727631   -8.4149235    580.12379   0.01456134  0.013928749            3 
 3321000   0.70830566   -8.4026467    579.93339  0.014552178  0.013923865            4 
 3322000    0.7238267   -8.4179559    580.51083  0.014562282  0.013919003            1 
 3323000   0.70926012   -8.3990995    579.58574  0.014534701  0.013914137            2 
 3324000   0.72370437   -8.4141965     579.0996  0.014518141  0.013909285            1 
 3325000     0.705987   -8.4148237    580.87144  0.014558181  0.013904431            1 
 3326000   0.70243036   -8.4120568    579.33187   0.01451523  0.013899593            2 
 3327000   0.70792165   -8.4057939    580.41475  0.014537991  0.013894745            3 
 3328000   0.71159707   -8.4057524    580.63939  0.014539248   0.01388991            3 
 3329000     0.707682   -8.4131052    581.39449  0.014553782  0.013885066            1 
 3330000   0.72927812   -8.4048404    581.28009  0.014546549  0.013880232            1 
 3331000   0.70364725   -8.4024616    580.40845  0.014520376  0.013875397            2 
 3332000   0.71861732   -8.4024725    580.79807  0.014525762  0.013870558            1 
 3333000   0.72296454   -8.4171222    578.00619    0.0144516  0.013865701            2 
 3334000   0.71877089   -8.4222837    580.41781  0.014507544  0.013860853            2 
 3335000   0.70891433   -8.4484291    579.87932  0.014489738  0.013855986            1 
 3336000   0.69976617    -8.420521    581.49198  0.014525679  0.013851124            2 
 3337000   0.71770194   -8.4142827    579.14419  0.014462696  0.013846268            7 
 3338000   0.72416181   -8.4023941    578.84962  0.014451009  0.013841413            8 
 3339000   0.71178395   -8.4295488    580.34503  0.014484003  0.013836554            5 
 3340000   0.72898013   -8.4493272    578.70824  0.014438828  0.013831682            4 
 3341000   0.70171459   -8.4329129    579.17188  0.014446071  0.013826822            3 
 3342000   0.71167395   -8.4641551     579.5617  0.014451469  0.013821945            5 
 3343000   0.70432184   -8.4354061    579.88175  0.014455124  0.013817067            2 
 3344000   0.70275293   -8.4341167    579.64279  0.014444846  0.013812199            3 
 3345000   0.72334362   -8.4732743     579.0473  0.014425693   0.01380731            4 
 3346000   0.71143476   -8.4227947    579.56579  0.014434294  0.013802446            3 
 3347000   0.70115933   -8.4708235     578.0436  0.014392083  0.013797571            2 
 3348000   0.71814443   -8.4339568    578.22545   0.01439231  0.013792695            4 
 3349000   0.71829583   -8.4447219    578.82969  0.014403048  0.013787829            3 
 3350000   0.72305093   -8.4308072    579.12924    0.0144062  0.013782973            2 
 3351000   0.71541987   -8.4357687    578.31986  0.014381773  0.013778119            3 
 3352000   0.71913438   -8.4554615    578.55134  0.014383237  0.013773269            3 
 3353000   0.71476893   -8.4540197    578.91996  0.014388109  0.013768412            3 
 3354000   0.71765978   -8.4437051    578.96794  0.014385011  0.013763557            5 
 3355000   0.71930454   -8.4534072    578.77764  0.014375997  0.013758707            3 
 3356000    0.7200458   -8.4690002    578.18831   0.01435708  0.013753848            3 
 3357000   0.72892486   -8.4436427    579.52897  0.014386083  0.013748997            3 
 3358000   0.69675355   -8.4199511    579.39425  0.014378456  0.013744156            3 
 3359000   0.73069935   -8.4385194    579.18603  0.014369009  0.013739326            3 
 3360000   0.72505808   -8.4209542    580.05591  0.014386307  0.013734509            4 
 3361000   0.72540251   -8.4483702    578.57422   0.01434529  0.013729687            4 
 3362000   0.72754339    -8.437561     579.1899  0.014356284  0.013724858            2 
 3363000   0.71520067   -8.4306495    579.78956  0.014366874  0.013720034            5 
 3364000   0.70271899   -8.4332411    580.12334  0.014370871  0.013715227            2 
 3365000   0.72374715   -8.4205658    579.14859  0.014342461  0.013710409            3 
 3366000   0.70918216   -8.4216035    579.77951   0.01435382   0.01370559            7 
 3367000   0.70614833   -8.4498566    578.93407  0.014328633  0.013700782            2 
 3368000   0.71836331    -8.442701    579.77592  0.014345208  0.013695978            2 
 3369000    0.7172519   -8.4508166    579.50164  0.014334165  0.013691192            3 
 3370000   0.72424773   -8.4357785    579.68467  0.014334438  0.013686396            2 
 3371000   0.69153503   -8.4062533     579.8596   0.01433451  0.013681605            3 
 3372000   0.71841942   -8.4361745    580.08103  0.014335731  0.013676822            3 
 3373000   0.70994572   -8.4372434    580.21225  0.014334723   0.01367203            1 
 3374000   0.70309933   -8.4386003    580.35334  0.014333959  0.013667251            4 
 3375000   0.69852979   -8.4252252    579.64053  0.014312112  0.013662462            3 
 3376000   0.71978814   -8.4688862    580.70832   0.01433423  0.013657693            4 
 3377000     0.711972   -8.4602309    580.36416  0.014321493  0.013652913            1 
 3378000   0.72375308    -8.458646    579.39205  0.014293271  0.013648131            5 
 3379000   0.72378011   -8.4440269    578.81151  0.014274724   0.01364335            4 
 3380000    0.7187204   -8.4249374    580.04129  0.014300821  0.013638569            2 
 3381000   0.71228404   -8.4613283     578.9089   0.01426868  0.013633787            2 
 3382000   0.70980042   -8.4308356    579.82419  0.014287014  0.013629002            1 
 3383000   0.71186962   -8.4361386    579.74947  0.014280951  0.013624223            2 
 3384000   0.71293388   -8.4629687    579.64816  0.014274236  0.013619448            1 
 3385000   0.70271714   -8.4512855    580.45826  0.014289962   0.01361467            1 
 3386000    0.7067088   -8.4765226    579.23342  0.014255597  0.013609888            3 
 3387000   0.70859712   -8.4426496    580.24314  0.014276231  0.013605109            9 
 3388000   0.68975791   -8.4708023    579.57516  0.014255587  0.013600337            3 
 3389000   0.70335659   -8.4337685    580.57604  0.014275992  0.013595556            6 
 3390000   0.71033707    -8.445526    581.21673   0.01428753  0.013590794            3 
 3391000   0.70083991   -8.4482592    579.67273  0.014245373  0.013586029            3 
 3392000   0.70373296    -8.456679    580.34408  0.014257667  0.013581257            2 
 3393000   0.70287129   -8.4592807    579.13957  0.014223882  0.013576478            2 
 3394000    0.7136238   -8.4671513     578.8403  0.014212343  0.013571689            3 
 3395000   0.72168525    -8.457235    579.61132  0.014227082  0.013566912            3 
 3396000   0.70742602   -8.4640464    579.37863  0.014217183   0.01356212            2 
 3397000   0.71954389    -8.471976    579.26731  0.014210267  0.013557344            4 
 3398000   0.70014776   -8.4761611    578.71452  0.014192528  0.013552562            3 
 3399000   0.72075856   -8.4599686    578.85207  0.014191725  0.013547786            3 
 3400000   0.70356595   -8.4295555    580.11307  0.014218458  0.013543012            4 
 3401000   0.69559795   -8.4523452    580.42213   0.01422185  0.013538238            4 
 3402000   0.71184978   -8.4487997    580.59806  0.014221979   0.01353346            2 
 3403000   0.70336121   -8.4701107    579.07535  0.014180511  0.013528703            3 
 3404000    0.7161523   -8.4726951    579.29891  0.014181818  0.013523936            3 
 3405000   0.69977067   -8.4591892    579.25491  0.014176576  0.013519175            1 
 3406000   0.70363109    -8.482916    580.59699   0.01420525  0.013514425            3 
 3407000   0.69816983   -8.4473447    580.40947  0.014196494  0.013509663            3 
 3408000   0.68817167   -8.4559965    578.66946  0.014149781  0.013504886            6 
 3409000   0.70037415   -8.4538694    579.49788  0.014165882  0.013500126            4 
 3410000    0.7039808   -8.4413416    579.32189  0.014157427  0.013495375            3 
 3411000   0.69640887   -8.4500885    580.17371  0.014174087  0.013490627            3 
 3412000   0.71475634   -8.4595556    579.52421  0.014154069  0.013485871            3 
 3413000   0.69756615   -8.4752447    577.68973  0.014105131   0.01348111            2 
 3414000   0.70155676   -8.4453138     579.9925  0.014157208  0.013476347            2 
 3415000   0.70688855   -8.4818742     578.5743  0.014118455   0.01347158            1 
 3416000   0.70332326   -8.4602424    579.19769   0.01412953  0.013466805            2 
 3417000   0.69976187   -8.4886202    579.80227  0.014140139  0.013462047            2 
 3418000   0.69837097   -8.4691867    579.37816  0.014125662  0.013457293            4 
 3419000   0.69654916   -8.4697748    580.54933  0.014150076  0.013452542            3 
 3420000   0.69996854    -8.463281    579.47703  0.014119811  0.013447794            1 
 3421000   0.70441136   -8.4890436    579.23372  0.014109756  0.013443048            2 
 3422000   0.70890145   -8.4575325    578.98551  0.014099589  0.013438308            2 
 3423000   0.70202499   -8.4704146    578.89003  0.014093145  0.013433565            2 
 3424000   0.70101224   -8.4709195    579.86287  0.014112706  0.013428835            3 
 3425000   0.71317415   -8.4731121    580.59905  0.014126498   0.01342409            1 
 3426000   0.70265815   -8.4717154    579.57519   0.01409747  0.013419343            2 
 3427000   0.70474381   -8.4717008    578.25065  0.014061148  0.013414599            2 
 3428000   0.70944546   -8.4436433    579.88224  0.014096709  0.013409855            5 
 3429000   0.70565139   -8.4656849    580.04039  0.014096442  0.013405115            2 
 3430000    0.7083832    -8.440673    580.87976  0.014112725  0.013400381            1 
 3431000   0.71216976   -8.4498443    580.19469  0.014091973  0.013395661            2 
 3432000   0.71765063   -8.4859526    579.84566  0.014079391   0.01339093            2 
 3433000    0.7217258    -8.443886    579.59546  0.014069217  0.013386199            1 
 3434000   0.72179649   -8.4767107    579.82241  0.014070627  0.013381486            2 
 3435000   0.69444084   -8.4910534    580.80715  0.014090421  0.013376753            1 
 3436000   0.71323714   -8.4656232    579.77025  0.014061172  0.013372028            1 
 3437000   0.70488782   -8.4733972    579.51023  0.014050777  0.013367312            3 
 3438000   0.72257864   -8.4482892    578.40922  0.014020003  0.013362598            3 
 3439000   0.70979732   -8.4742322    581.62595  0.014093873  0.013357883            3 
 3440000   0.69774474   -8.4678198    579.54182  0.014039288   0.01335318            3 
 3441000   0.69985064   -8.4858081    580.06635  0.014047911  0.013348454            3 
 3442000   0.71539858   -8.4518447    579.19519  0.014022739  0.013343738            4 
 3443000    0.7046864   -8.4530036    579.73246   0.01403167  0.013339042            1 
 3444000   0.71449744   -8.4487936    579.00715  0.014010045  0.013334343            1 
 3445000   0.70595282   -8.4344091    578.82972  0.014001687   0.01332963            1 
 3446000   0.70745078   -8.4638862    579.32714  0.014009652  0.013324914            2 
 3447000   0.69297967   -8.4562333    578.64643  0.013989131  0.013320214            2 
 3448000   0.70350249   -8.4557928    579.49732  0.014005639  0.013315511            5 
 3449000   0.69816865    -8.458486    579.98129  0.014013272  0.013310809            3 
 3450000   0.68256792   -8.4732107     580.9418  0.014032411  0.013306107            2 
 3451000   0.69648412   -8.4663125    580.35022  0.014014059  0.013301408            3 
 3452000    0.7012085   -8.4690866    579.18652  0.013981907  0.013296719            2 
 3453000   0.69970378   -8.4698359    580.54719  0.014010696  0.013292031            1 
 3454000   0.69408749   -8.4601641    579.75028  0.013987413  0.013287348            2 
 3455000   0.69672608   -8.4988327    578.42369  0.013951367  0.013282659            1 
 3456000   0.69722431   -8.4852301    580.35726  0.013993954   0.01327797            1 
 3457000   0.69280887   -8.4762919     578.2913  0.013940105  0.013273267            2 
 3458000   0.69311102   -8.4877654     580.0094  0.013977477  0.013268574            3 
 3459000    0.7070655   -8.4874832    580.10681  0.013975783  0.013263892            2 
 3460000   0.69415044   -8.4983556    580.68627    0.0139857   0.01325921            2 
 3461000   0.69602083   -8.4866348    578.63066  0.013932165  0.013254535            3 
 3462000   0.69637463   -8.4429739     580.5244  0.013973724  0.013249864            2 
 3463000   0.68940154   -8.4833809    579.86138  0.013953734  0.013245193            5 
 3464000   0.69295564   -8.4963546    579.83478  0.013949066  0.013240534            4 
 3465000   0.69634069   -8.5006661    579.00343  0.013925046  0.013235867            2 
 3466000   0.69977955   -8.4757361    580.97446  0.013968418  0.013231198            2 
 3467000    0.7077015    -8.477935    579.24568  0.013922836  0.013226541            4 
 3468000    0.6941401   -8.4839231    580.48743   0.01394866  0.013221881            3 
 3469000   0.71012388   -8.4605781    580.12735  0.013935989  0.013217226            3 
 3470000   0.69070926   -8.4727136    580.37578  0.013937939  0.013212572            2 
 3471000   0.70777601   -8.4650807    579.14819  0.013904451  0.013207922            2 
 3472000   0.70110048   -8.4778925    579.52171  0.013909411  0.013203274            2 
 3473000   0.70388123   -8.4697406    579.77366  0.013911452  0.013198629            2 
 3474000   0.68367207   -8.4514687    581.27218  0.013943393  0.013193984            1 
 3475000   0.69453274   -8.4936867    579.60359  0.013899367  0.013189342            5 
 3476000    0.6889086   -8.4586809    579.88986  0.013902231   0.01318469            3 
 3477000   0.69932965   -8.4705427    580.06667   0.01390247  0.013180048            2 
 3478000   0.68985242   -8.4619547    580.88882  0.013918172  0.013175406            1 
 3479000   0.71032923   -8.4827261     579.7032  0.013885772  0.013170763            2 
 3480000   0.69230303   -8.4652635     579.4165  0.013874916  0.013166122            4 
 3481000   0.70008012   -8.4702859    580.49639  0.013896782  0.013161487            1 
 3482000   0.71851427   -8.4768349    579.66427  0.013872876  0.013156835            2 
 3483000   0.68232596   -8.4680029    579.05106  0.013854222  0.013152189            1 
 3484000   0.69093291   -8.4649752    579.78731  0.013867856   0.01314755            1 
 3485000   0.69665706   -8.4636603     579.7534  0.013863065  0.013142905            4 
 3486000   0.69491863   -8.4663991    580.79404  0.013883965  0.013138264            2 
 3487000   0.69693792   -8.4837655     580.2049  0.013865904  0.013133633            7 
 3488000   0.70523799    -8.475714    580.06297  0.013858538  0.013129009            2 
 3489000   0.68831076   -8.5017145    580.79341  0.013872012  0.013124389            1 
 3490000   0.67706687   -8.4715191    579.94171  0.013847701  0.013119762            3 
 3491000   0.68327287   -8.4698319    580.60318  0.013859524  0.013115139            2 
 3492000   0.69107486   -8.4883213     578.6898  0.013809894  0.013110508            2 
 3493000   0.68876909   -8.4691149    579.76814  0.013831667  0.013105892            3 
 3494000   0.68829879   -8.4832793    580.91782  0.013855128   0.01310128            3 
 3495000   0.69101334   -8.4968286    580.40893   0.01383903  0.013096663            2 
 3496000   0.69945325   -8.4775433    580.12861   0.01382839  0.013092046            1 
 3497000   0.69637033   -8.4831881     579.8498  0.013817791  0.013087435            3 
 3498000   0.68457581   -8.4742192    580.45507  0.013828261  0.013082827            3 
 3499000   0.68228932   -8.4571555    579.50213  0.013801613  0.013078218            2 
 3500000   0.69506451   -8.4832356    579.95127  0.013808364  0.013073614            3 
 3501000   0.69188308   -8.4736808    579.52732  0.013794328  0.013068995            2 
 3502000   0.69392629   -8.4905928      580.746  0.013819389  0.013064381            2 
 3503000   0.70378657   -8.4794037    579.66358  0.013789694  0.013059769            7 
 3504000   0.69281092   -8.4893187    579.86355  0.013790515  0.013055157            4 
 3505000   0.69361722   -8.4837907    580.43318  0.013800123  0.013050548            3 
 3506000   0.69191499   -8.4874473    581.35199  0.013818026  0.013045946            1 
 3507000   0.68831358   -8.5037872    579.68006  0.013774357  0.013041348            9 
 3508000   0.69548426   -8.4983269    579.93373  0.013776457  0.013036755            5 
 3509000   0.70655021   -8.4557431    580.31137  0.013781499  0.013032166            2 
 3510000   0.68093153   -8.4929551     581.5037  0.013805881  0.013027579            3 
 3511000   0.70088913   -8.4932887    579.96708  0.013765477  0.013022983            3 
 3512000   0.70781934   -8.4825792    580.20463  0.013767194  0.013018386            4 
 3513000   0.69358082   -8.4861262    579.45166  0.013745414  0.013013787            2 
 3514000   0.67925171    -8.493827    580.86823  0.013775096  0.013009202            2 
 3515000   0.68823557   -8.4904663    579.48035  0.013738273  0.013004617            2 
 3516000   0.68142498   -8.5054438    580.95178   0.01376924  0.013000027            4 
 3517000   0.69716199   -8.5057523    580.47509   0.01375403  0.012995446            2 
 3518000    0.6858984   -8.4911692    581.17594  0.013766722  0.012990859            2 
 3519000   0.70067268   -8.4937907    580.06848  0.013736584   0.01298628            3 
 3520000   0.68428064   -8.4887784    579.89511  0.013728577  0.012981693            2 
 3521000   0.69385948   -8.4971494    579.48487  0.013714969  0.012977113            2 
 3522000   0.68381314   -8.5014204    581.17126  0.013750976  0.012972538            2 
 3523000   0.68110632   -8.4851726    581.56854   0.01375647  0.012967954            3 
 3524000   0.66974972   -8.4926248    579.66112  0.013707461   0.01296338            2 
 3525000   0.67966527   -8.5282287    580.66781  0.013727371  0.012958804            3 
 3526000     0.687953   -8.5034896     579.8281  0.013703632   0.01295423            2 
 3527000   0.69702565   -8.4936509    580.39466  0.013713133  0.012949664            3 
 3528000   0.67994784   -8.4787455    580.19247  0.013704471  0.012945091            3 
 3529000   0.69311128   -8.4807846    580.26453  0.013702289  0.012940516            3 
 3530000    0.6902477   -8.5133827    579.11462  0.013671261  0.012935949            6 
 3531000   0.68188032    -8.521323    579.40391  0.013674217  0.012931385            2 
 3532000   0.67922536   -8.5259196    580.42718  0.013694488  0.012926811            2 
 3533000   0.69802846   -8.4988754     579.9588  0.013679564  0.012922247            4 
 3534000   0.68452241   -8.5046744    581.05989  0.013701657  0.012917678            2 
 3535000   0.68831155   -8.5190724      579.127  0.013652216  0.012913113            2 
 3536000   0.69548886   -8.4884569    580.01656  0.013669319   0.01290855            1 
 3537000   0.66440506   -8.4972147    579.99821  0.013665022  0.012903998            2 
 3538000   0.68788072   -8.5006516    579.18529  0.013642013  0.012899443            1 
 3539000   0.68471773   -8.5155659    579.86587  0.013654184  0.012894889            3 
 3540000    0.6914077   -8.5079377    579.68775  0.013646134   0.01289033            1 
 3541000   0.69681543   -8.5022516     579.7593  0.013643964  0.012885775            2 
 3542000   0.70717436   -8.4956335    578.82132  0.013618044  0.012881213            2 
 3543000   0.68664968   -8.4914147     579.9648  0.013641095  0.012876647            1 
 3544000   0.68407905   -8.5194201     580.8603  0.013658303  0.012872094            1 
 3545000   0.69222424   -8.5218683    580.17002  0.013638223  0.012867539            1 
 3546000   0.68343931    -8.492638    580.48402  0.013641756  0.012862985            2 
 3547000   0.68537026   -8.5257229    579.18493   0.01360739  0.012858426            1 
 3548000   0.67818176   -8.4857724    580.86296  0.013642967  0.012853873            3 
 3549000   0.68018828   -8.5251285    579.22403  0.013600639  0.012849323            5 
 3550000   0.68058759   -8.5207661    579.35085  0.013599785   0.01284478            2 
 3551000   0.67923846   -8.5452785     578.1345  0.013567411  0.012840227            1 
 3552000   0.67828106    -8.518581    579.75544   0.01360162  0.012835684            1 
 3553000   0.68936713   -8.5421098    580.78219  0.013621873  0.012831144            1 
 3554000   0.70320279   -8.5015188    579.13765   0.01357948  0.012826593            1 
 3555000   0.68044547     -8.51844    579.32358  0.013580018   0.01282205            3 
 3556000   0.69286089   -8.5250685    579.89932  0.013589692  0.012817499            2 
 3557000   0.67940158   -8.5396582    579.59528  0.013578748   0.01281295            2 
 3558000   0.69380105   -8.5146327     579.7686  0.013578991  0.012808403            2 
 3559000   0.68021898   -8.5138703    578.93596  0.013555679  0.012803862            3 
 3560000   0.68409315   -8.4930548    580.33807  0.013584693  0.012799323            1 
 3561000   0.68097304   -8.5398817    579.86931  0.013569908  0.012794775            1 
 3562000    0.6829511   -8.5349535    579.63649  0.013560652  0.012790233            1 
 3563000   0.68058721   -8.5190337    579.37643  0.013550763  0.012785695            2 
 3564000    0.6785824   -8.5365309    580.18708  0.013565916  0.012781152            1 
 3565000   0.67928736   -8.5236748    579.15679  0.013538027  0.012776612            4 
 3566000   0.69104314   -8.5415802     578.3704  0.013515853  0.012772078            2 
 3567000   0.67086289   -8.5263461    579.11212  0.013529393  0.012767537            1 
 3568000   0.68622094   -8.5409618    579.31909  0.013530435  0.012763004            2 
 3569000   0.68999129   -8.5055192    579.29668   0.01352612  0.012758479            1 
 3570000   0.66568561   -8.5369426    578.90995  0.013513304  0.012753947            1 
 3571000   0.65291724   -8.5240529    580.77918  0.013553141  0.012749412            1 
 3572000   0.66474507   -8.5212935    579.23458  0.013513311  0.012744882            1 
 3573000   0.66193844   -8.5337435    579.28378  0.013510677   0.01274035            2 
 3574000   0.67731278   -8.5341547    579.46324  0.013511081   0.01273582            2 
 3575000   0.68707545   -8.5560637    578.35349  0.013481433  0.012731282            2 
 3576000   0.69340612   -8.5462065    578.61904  0.013483852  0.012726748            1 
 3577000   0.69138186   -8.5480557    578.42016  0.013475449  0.012722216            2 
 3578000   0.67010419    -8.517978    579.42753  0.013495145  0.012717689            3 
 3579000   0.67908639   -8.5283692    579.07296  0.013483118   0.01271316            2 
 3580000   0.67450956   -8.5377969    578.88254   0.01347492  0.012708633            2 
 3581000   0.66594373   -8.5106145    579.77329  0.013491885    0.0127041            1 
 3582000   0.68230155   -8.5558616     578.1014  0.013449223  0.012699559            1 
 3583000   0.68178643   -8.5641565    577.96277  0.013442245  0.012695015            1 
 3584000   0.68650294   -8.5516518     578.0446  0.013440397  0.012690471            3 
 3585000   0.66954457   -8.5460679    577.75128   0.01342983  0.012685934            2 
 3586000   0.65906417   -8.5363411     580.0365   0.01347919  0.012681398            2 
 3587000   0.68510514   -8.5618754    578.62435  0.013442625  0.012676876            1 
 3588000   0.68124161   -8.5517197    578.62859  0.013438977  0.012672344            2 
 3589000   0.68229833   -8.5521828    578.17297  0.013424653  0.012667809            1 
 3590000    0.6761983   -8.5477355    579.36512  0.013448587  0.012663285            3 
 3591000    0.6737331   -8.5379123    579.02868  0.013437034  0.012658752       -1e+20 
 3592000   0.68394925   -8.5380735    579.72647  0.013449482  0.012654228            1 
 3593000   0.67681289   -8.5504981     579.4732  0.013439865  0.012649711            2 
 3594000   0.66445695   -8.5289345    579.20153  0.013429826   0.01264519            2 
 3595000   0.68487441   -8.5259122    579.56233  0.013434454  0.012640684            2 
 3596000   0.68688406   -8.5725015    578.80458  0.013413158  0.012636171            2 
 3597000   0.67046333   -8.5727966    578.46372  0.013401532  0.012631653            2 
 3598000   0.66716341   -8.5305588      578.945  0.013408954  0.012627136            2 
 3599000   0.69419118   -8.5631065    579.33374  0.013414229   0.01262263            4 
 3600000   0.68586996    -8.550162    577.99844  0.013379594  0.012618124            4 
 3601000   0.68506541   -8.5400438    579.07499  0.013400791  0.012613607            2 
 3602000   0.67954145   -8.5622446    578.74128   0.01338935  0.012609093            2 
 3603000   0.67420202   -8.5186153    578.29882  0.013375401   0.01260459            2 
 3604000   0.67342028   -8.5380264    578.63312  0.013379419  0.012600088            1 
 3605000   0.67773403   -8.5628753    578.69336    0.0133771  0.012595578            3 
 3606000   0.66094292   -8.5572022    578.10456  0.013359784  0.012591065            1 
 3607000   0.66182036   -8.5724816    578.14762  0.013357075  0.012586558            3 
 3608000   0.67662138   -8.5499947    578.59784  0.013363771  0.012582055            2 
 3609000   0.66854327   -8.5643372    578.16537  0.013350083  0.012577559            2 
 3610000   0.67664398   -8.5338546    578.29193  0.013349306  0.012573064            2 
 3611000   0.67457595   -8.5653538    578.03381  0.013339652  0.012568558            2 
 3612000   0.69069557   -8.5575553    577.49106  0.013323437  0.012564043            1 
 3613000   0.68448096   -8.5786138    576.96795  0.013307684  0.012559532            1 
 3614000   0.66913489   -8.5666259    577.83392   0.01332397  0.012555018            2 
 3615000   0.68060118   -8.5721941    577.25283  0.013306889  0.012550522            2 
 3616000   0.67182211   -8.5511491    578.30718  0.013327507  0.012546017            4 
 3617000   0.69293952   -8.5895322     577.4501  0.013304076  0.012541523            2 
 3618000    0.6638968   -8.5705698    577.60069  0.013303867  0.012537029            3 
 3619000   0.65946709   -8.5464991    577.17894   0.01329048  0.012532549            1 
 3620000   0.67804052   -8.5694966    578.10545  0.013308136  0.012528068            2 
 3621000   0.68985311    -8.566038    578.83554  0.013321264  0.012523569            5 
 3622000   0.66959586   -8.5434365    578.50603  0.013310004  0.012519082            3 
 3623000   0.66284215   -8.5506927    578.24783  0.013300392  0.012514591            2 
 3624000   0.67038303   -8.5664913    577.97374  0.013290419  0.012510106            2 
 3625000    0.6848548   -8.5720999    578.60264   0.01330121  0.012505629            1 
 3626000    0.6718413   -8.5692985    578.79655  0.013301998  0.012501152            3 
 3627000   0.67411862   -8.5626208    578.37314  0.013288603  0.012496671            1 
 3628000    0.6810945   -8.5759221    578.57973  0.013289685  0.012492192            4 
 3629000    0.6763288   -8.5876717    578.77396  0.013290483   0.01248772            2 
 3630000   0.66798385   -8.5788978    577.64574  0.013260921  0.012483242            4 
 3631000   0.67115763   -8.5931039    577.80707  0.013260972  0.012478769            2 
 3632000   0.67560752    -8.582838    578.67554  0.013277247  0.012474286            1 
 3633000   0.65665813   -8.5496561    578.38219  0.013266864  0.012469807            3 
 3634000   0.67326733   -8.5710133    578.62895  0.013268872  0.012465335            1 
 3635000   0.67175018   -8.5621348    577.87859  0.013248019  0.012460876            2 
 3636000    0.6702248    -8.558446    577.92453  0.013245428  0.012456418            2 
 3637000   0.67192924    -8.587854    578.80433  0.013261945  0.012451951            2 
 3638000   0.67175413   -8.5841453    578.16059  0.013243554  0.012447483            3 
 3639000   0.67081071   -8.5806312    578.12462  0.013239091  0.012443023            2 
 3640000   0.67333425   -8.5545261    579.76624  0.013273037  0.012438561            1 
 3641000   0.67219192   -8.5786254     577.8566  0.013225684  0.012434105            3 
 3642000   0.66952921   -8.5713527     577.6418  0.013217138  0.012429649            4 
 3643000   0.65636692   -8.5837867    577.74164  0.013215794  0.012425198            4 
 3644000   0.67768075   -8.5888504    577.23643  0.013200614  0.012420744            3 
 3645000   0.66631872   -8.5683839    579.70466  0.013253422  0.012416297            3 
 3646000   0.67330903   -8.5842314    577.77739  0.013205737  0.012411848            2 
 3647000   0.67912595   -8.5539232    578.66165  0.013222321  0.012407406            3 
 3648000   0.66563762    -8.566284    577.61207   0.01319472  0.012402965            2 
 3649000   0.67351946   -8.5609771    578.04996  0.013201104  0.012398531            4 
 3650000   0.67398629   -8.5730986    577.13251  0.013176541  0.012394082            2 
 3651000   0.66893317   -8.5560451     579.1328  0.013218589  0.012389654            1 
 3652000   0.67244312   -8.5692876    579.14506  0.013215249  0.012385223            1 
 3653000   0.66611039   -8.5617334    577.67536  0.013178104  0.012380798            5 
 3654000   0.66173348   -8.5738963    578.78979  0.013199913  0.012376374            3 
 3655000   0.66662046   -8.5760928    577.86556  0.013175229  0.012371938            1 
 3656000   0.65932759   -8.5781191    578.05261  0.013175889  0.012367512            2 
 3657000   0.66355977   -8.5665338    577.78141  0.013166106  0.012363077            3 
 3658000   0.65159668   -8.5988461    578.16895  0.013171336   0.01235864            2 
 3659000   0.67255607   -8.5810852    578.22825  0.013169087  0.012354207            2 
 3660000    0.6595765   -8.5643489    578.24328  0.013165831  0.012349777            2 
 3661000   0.67834148   -8.5826496     578.4229  0.013166323  0.012345353            1 
 3662000    0.6663496   -8.5521078    578.69882  0.013169007  0.012340932            4 
 3663000   0.65750394   -8.5873319    576.83529  0.013123016  0.012336505            3 
 3664000    0.6696105   -8.5886488    577.20467  0.013127835   0.01233207            3 
 3665000   0.66329909   -8.5581181    577.83847  0.013138665  0.012327628            1 
 3666000   0.65233248    -8.592323    576.96395  0.013115202  0.012323196            2 
 3667000   0.66148716   -8.5984048    578.06138  0.013136564  0.012318765            3 
 3668000   0.66057697   -8.5658284    578.10495  0.013133973  0.012314333            2 
 3669000   0.65515291   -8.5599254    578.47827  0.013138872  0.012309914            2 
 3670000   0.64005262   -8.5681444    578.39757   0.01313346    0.0123055            1 
 3671000   0.68478991   -8.5919763    577.93977   0.01311949  0.012301091            1 
 3672000    0.6726533   -8.5710174    576.59311  0.013085356  0.012296678            1 
 3673000   0.65668521   -8.5711689    577.73418  0.013107682  0.012292273            2 
 3674000   0.65346122    -8.569074    577.51029  0.013099036  0.012287868            1 
 3675000    0.6854342   -8.5673958    578.95467  0.013128224  0.012283461            4 
 3676000   0.66856435   -8.5847165    578.71743  0.013119274  0.012279055            2 
 3677000   0.67023157   -8.5963094    577.66406  0.013091834  0.012274657            1 
 3678000   0.66004328   -8.5572641    578.42239  0.013105456  0.012270265            1 
 3679000   0.65641799   -8.5632055    577.82707  0.013088409  0.012265864            1 
 3680000   0.66149635   -8.5953601    576.83349  0.013062353  0.012261464            2 
 3681000   0.66558996   -8.5831725    577.73799  0.013079281  0.012257066            2 
 3682000   0.65283764   -8.5932199    577.36024  0.013067179  0.012252664            1 
 3683000   0.68324062    -8.590479    579.24277  0.013106226  0.012248265            2 
 3684000    0.6573977   -8.5962031    577.30263  0.013058782  0.012243872            1 
 3685000   0.66145607   -8.5992267    578.20594  0.013075666  0.012239482            4 
 3686000   0.66859055   -8.5783805    578.89644  0.013087729  0.012235101            1 
 3687000    0.6800048   -8.5641419    578.47603  0.013074677  0.012230716            1 
 3688000    0.6581142   -8.5665248    577.78015  0.013055408  0.012226335            2 
 3689000   0.67195166   -8.5922441     579.4464  0.013089509  0.012221948            3 
 3690000   0.66789655   -8.5662905    578.93482  0.013074409  0.012217573            3 
 3691000   0.66301915   -8.5730087     577.1047  0.013029547  0.012213197            2 
 3692000   0.67502973   -8.5783611    579.39719  0.013077763  0.012208822            1 
 3693000   0.65160391   -8.5710474    579.01484  0.013065593  0.012204452            2 
 3694000   0.65444648   -8.5848841    578.43476   0.01304897  0.012200087            1 
 3695000   0.64514367   -8.5814041    577.56389  0.013025798  0.012195719            2 
 3696000   0.66432414   -8.5877436    578.19619   0.01303653   0.01219135            1 
 3697000   0.68074482   -8.5850019    577.51356  0.013017617  0.012186982            3 
 3698000   0.65305704   -8.5704879    577.22909  0.013007686   0.01218262            2 
 3699000    0.6687717   -8.5794825    577.98259  0.013021145  0.012178259            3 
 3700000   0.65756983   -8.5831773    578.31761  0.013025171  0.012173899            2 
 3701000    0.6551003   -8.5770465    577.87753  0.013011743  0.012169538            3 
 3702000   0.66645092   -8.5492509    579.48562  0.013044427  0.012165181            5 
 3703000   0.65006327   -8.5813192     578.4766  0.013018197  0.012160824            2 
 3704000   0.66139546   -8.5714097    578.36949  0.013012272  0.012156468            2 
 3705000   0.64551893   -8.5697903    577.33884  0.012985579  0.012152115            3 
 3706000   0.65829846   -8.5757071    578.23624  0.013002254  0.012147756            3 
 3707000   0.65586038   -8.5955513    577.71291  0.012986982  0.012143399            2 
 3708000   0.64439002   -8.6042724    577.41529  0.012976791  0.012139042            2 
 3709000   0.64528494   -8.5826249    577.48732  0.012974911  0.012134692            5 
 3710000   0.66229306   -8.5934976    577.37891  0.012968978  0.012130342            3 
 3711000   0.66829175   -8.5777893    578.75427  0.012996368  0.012126002            2 
 3712000   0.67726705   -8.5544887    578.66625  0.012990891  0.012121668            2 
 3713000   0.65151944   -8.5788787    578.28983  0.012978944  0.012117328            3 
 3714000   0.64257739   -8.5964402     577.7876  0.012964181  0.012112984            1 
 3715000   0.66916027   -8.5924111    578.98244  0.012987493  0.012108646            4 
 3716000   0.66112509   -8.5740503     577.8927   0.01295956  0.012104307            2 
 3717000   0.65472586    -8.586482    578.17507  0.012962404  0.012099972            1 
 3718000   0.66449739   -8.5871788    578.25035  0.012960605   0.01209564            2 
 3719000   0.66032505   -8.5785947    578.09417   0.01295362  0.012091315            3 
 3720000   0.67315573    -8.571754    579.41085  0.012979634  0.012086994            4 
 3721000    0.6614174   -8.5779981    577.98969  0.012944318  0.012082672            2 
 3722000   0.66702377   -8.6002982    579.45702  0.012973693  0.012078351            2 
 3723000   0.64066948   -8.5959417    577.83289  0.012933855  0.012074029            6 
 3724000   0.65240916   -8.5934964    577.88134  0.012931466  0.012069706            2 
 3725000   0.65787677   -8.5810128    579.17695  0.012956979  0.012065385            3 
 3726000   0.65454828   -8.5881034    577.00672  0.012904963  0.012061064            1 
 3727000   0.65995254   -8.5856428    577.82401  0.012919775  0.012056747            3 
 3728000   0.66237344    -8.562849    577.83848  0.012916633  0.012052438            1 
 3729000   0.65364643   -8.5676734    577.84274  0.012913264   0.01204813            2 
 3730000   0.66344002   -8.5735684    578.74725   0.01293001  0.012043832            4 
 3731000   0.65300967   -8.5751582    578.08662  0.012911789  0.012039527            2 
 3732000   0.64780079   -8.5753693    579.21621  0.012933552  0.012035232            3 
 3733000    0.6469288   -8.5666506    577.14804  0.012883919  0.012030934            3 
 3734000   0.64460015   -8.5844607    577.62323  0.012891074  0.012026631            4 
 3735000   0.65434188   -8.5811298    577.61034  0.012887335  0.012022325            2 
 3736000   0.66599919   -8.5637418     576.7695   0.01286513  0.012018017            1 
 3737000    0.6558231   -8.6106445    576.26141  0.012850357  0.012013704            1 
 3738000    0.6586624    -8.592135    578.07367  0.012887321  0.012009395            2 
 3739000   0.64374139   -8.5867325     578.0066  0.012882379  0.012005089            3 
 3740000   0.64692685    -8.563727    577.82186  0.012874819  0.012000789            1 
 3741000   0.64244355   -8.5645301    578.95087  0.012896527  0.011996491            2 
 3742000   0.63820176   -8.5996411    577.09689  0.012851793  0.011992198            2 
 3743000   0.67060745   -8.5775599    577.43827  0.012855959  0.011987901            3 
 3744000   0.63663902   -8.5828844    577.30016  0.012849452  0.011983605            1 
 3745000   0.64836001   -8.6112674    577.44504  0.012849244  0.011979314            2 
 3746000   0.64645031    -8.605598    577.36067  0.012843937  0.011975016            1 
 3747000   0.65413141   -8.5832573    578.26573  0.012860638  0.011970724            2 
 3748000   0.65212018   -8.6094893    578.05897   0.01285261   0.01196643            1 
 3749000    0.6499477   -8.5984999    577.87159  0.012845016  0.011962143            1 
 3750000   0.63727133      -8.6133    577.06265  0.012823614   0.01195785            2 
 3751000   0.65457304   -8.6047415     577.7209   0.01283482  0.011953553            3 
 3752000   0.65585804    -8.577139    576.43232  0.012802779   0.01194926            1 
 3753000    0.6621186   -8.6234198    576.80861  0.012807723  0.011944959            2 
 3754000   0.65641182    -8.618451      576.017  0.012786739   0.01194066            3 
 3755000   0.64202329   -8.5966912    577.68847  0.012820428  0.011936366            2 
 3756000   0.66590818   -8.5935095    577.24495  0.012807174   0.01193208            3 
 3757000   0.63427624   -8.5820252    577.24831   0.01280384  0.011927798            1 
 3758000   0.65740254   -8.5886424    577.99159  0.012816915  0.011923524            2 
 3759000   0.67000216     -8.61373    577.13959  0.012794617  0.011919242            2 
 3760000   0.65248384   -8.5822071    578.24666   0.01281575  0.011914968            1 
 3761000    0.6527709   -8.5968353    577.89016  0.012804444  0.011910695            2 
 3762000    0.6708826   -8.5897067    577.58488  0.012794278  0.011906413            3 
 3763000   0.65153714   -8.6136237    576.96756  0.012777207  0.011902139            3 
 3764000   0.64895162    -8.590474    577.78059  0.012791813  0.011897863            1 
 3765000   0.64665659    -8.589407    578.23299  0.012798428   0.01189359            2 
 3766000   0.64341586   -8.5960132    577.75365  0.012784423  0.011889321            2 
 3767000   0.63474457   -8.6052319    577.34267  0.012771938  0.011885044            3 
 3768000   0.65627786   -8.6086371    576.60758  0.012752291  0.011880767            2 
 3769000   0.65052433   -8.5834853    577.64959  0.012771946  0.011876492            2 
 3770000   0.62896203   -8.5941362    578.43939  0.012786017  0.011872233            4 
 3771000   0.63508866   -8.6040911    576.10275   0.01273099   0.01186797            5 
 3772000   0.66078859   -8.5980411    577.82328  0.012765626  0.011863706            4 
 3773000   0.63652886    -8.609576    577.57892  0.012756845   0.01185944            2 
 3774000   0.65305106   -8.6171635    576.33106  0.012725911  0.011855173            1 
 3775000   0.64709133   -8.6280882    576.79694  0.012732824   0.01185091            2 
 3776000   0.64973417   -8.6085872    577.70065  0.012749396  0.011846645            3 
 3777000    0.6432073   -8.5983743    577.55517  0.012742811  0.011842384            3 
 3778000    0.6583505   -8.6047422    577.59132  0.012740235  0.011838126            2 
 3779000   0.64987214   -8.6170471    576.41492  0.012710923  0.011833864            1 
 3780000   0.64791472   -8.6234238    576.44769  0.012708282  0.011829598            1 
 3781000   0.64860377   -8.6286844    575.96742  0.012694336  0.011825325            4 
 3782000   0.64554249     -8.62077    576.37202  0.012699895  0.011821054            2 
 3783000   0.64990284   -8.6148224     575.9644  0.012687558  0.011816784            3 
 3784000   0.65560736   -8.6138113    576.24372  0.012690357  0.011812522            1 
 3785000    0.6432089   -8.6319942    575.31059  0.012666459  0.011808252            4 
 3786000   0.66061763   -8.6344013    577.07437  0.012701936  0.011803989            2 
 3787000   0.63634608   -8.6296046    576.39509  0.012683635  0.011799731            1 
 3788000   0.65336966   -8.6120424    577.06738  0.012695076  0.011795473            1 
 3789000   0.63761486   -8.6198529    577.39289  0.012698885  0.011791228            1 
 3790000   0.62471137   -8.6161954     577.4652  0.012697124   0.01178699            2 
 3791000    0.6628884   -8.6055407    577.10282  0.012685809  0.011782743            3 
 3792000   0.64687995   -8.6132948    576.01649   0.01265859  0.011778499            2 
 3793000   0.65372336   -8.6132269    577.36833  0.012684953  0.011774253            1 
 3794000   0.62958256   -8.6191806    576.73544  0.012667709  0.011770016            4 
 3795000   0.63262434   -8.6138475    577.58036  0.012682924   0.01176578            2 
 3796000   0.63060197   -8.6180402    575.90392   0.01264278  0.011761544            1 
 3797000   0.65117622     -8.62507    576.13933  0.012644617  0.011757305            1 
 3798000   0.63756024    -8.654735    576.12139  0.012640894  0.011753056            3 
 3799000   0.65366861   -8.6338016    576.48159  0.012645468  0.011748816            1 
 3800000   0.64965903   -8.6030383    576.95965  0.012652624  0.011744583            3 
 3801000   0.64072507    -8.626206     577.5824  0.012662948  0.011740356            1 
 3802000   0.62554071   -8.6493313    576.33725  0.012632326  0.011736122            2 
 3803000   0.64323748   -8.6233175    576.16585  0.012625249  0.011731892            2 
 3804000   0.62445323   -8.6377537    576.73246  0.012634342  0.011727663            2 
 3805000   0.63266876    -8.623265    576.85526  0.012633711  0.011723429            2 
 3806000   0.64721244   -8.6331193    576.31492  0.012618561    0.0117192            5 
 3807000   0.63412111   -8.6290085    576.43309  0.012617833  0.011714968            2 
 3808000   0.63708617   -8.6223131    576.31275  0.012611886  0.011710739            2 
 3809000    0.6367129   -8.6086161    576.86598  0.012620679  0.011706526            2 
 3810000   0.63792499   -8.6325696    577.47074  0.012630594  0.011702305            1 
 3811000   0.64146535   -8.6247498    577.34529  0.012624536  0.011698086            1 
 3812000   0.64204821   -8.6167011    577.14094  0.012616757  0.011693873            4 
 3813000   0.64683512   -8.6245104    578.13718  0.012635221  0.011689663            3 
 3814000   0.63944165   -8.6531926    576.85008  0.012603786  0.011685449            3 
 3815000   0.63828538   -8.6250459    576.78334  0.012599024  0.011681241            3 
 3816000   0.64214088   -8.6139748     575.8169  0.012574618  0.011677034            3 
 3817000   0.65663911   -8.6420222    576.55888  0.012587522  0.011672826            3 
 3818000   0.63407459   -8.6327266    575.85561  0.012568876  0.011668612            1 
 3819000    0.6588092   -8.6263567    576.73744  0.012584827  0.011664403            4 
 3820000   0.63533875   -8.6295212    577.72255  0.012603023  0.011660205            2 
 3821000   0.64215455    -8.609672    577.63005  0.012597707  0.011656003            2 
 3822000   0.64983792    -8.627567    576.96467  0.012579903  0.011651802            3 
 3823000   0.64895872   -8.6191024    576.93572  0.012575981  0.011647612            2 
 3824000   0.64531089   -8.6093913      576.473  0.012562609  0.011643426            2 
 3825000    0.6253347   -8.6026099    576.44242  0.012558658  0.011639234            6 
 3826000   0.63553581   -8.6236341     576.0428  0.012546672  0.011635038            3 
 3827000   0.64995128   -8.6141602    577.35585  0.012571985  0.011630846            3 
 3828000    0.6307635   -8.6569347    577.04628  0.012561962  0.011626655            2 
 3829000   0.64409461   -8.6180347    577.26844  0.012563516   0.01162246            1 
 3830000   0.65233832   -8.6535879    576.49924    0.0125435  0.011618272            5 
 3831000   0.63254721   -8.6595189    577.10199  0.012553337  0.011614084            1 
 3832000   0.63448005   -8.6522869    575.26477  0.012510107  0.011609898            2 
 3833000   0.63458672   -8.6410071    576.42398  0.012532046  0.011605708            1 
 3834000    0.6407259   -8.6488541    576.15707  0.012522976  0.011601529            2 
 3835000   0.64119545   -8.6286627    575.10052  0.012496752  0.011597345            2 
 3836000   0.64758468   -8.6387385    575.54507  0.012503152  0.011593164            2 
 3837000   0.65064127   -8.6330455    577.15354  0.012534826  0.011588988            2 
 3838000   0.63306147   -8.6426736    575.62047  0.012498273  0.011584818            3 
 3839000   0.63316671   -8.6416415    576.71231  0.012518718  0.011580647            1 
 3840000   0.64619056   -8.6301853    576.31077  0.012506744  0.011576475            1 
 3841000   0.64607809    -8.646454    576.41164  0.012505677  0.011572304            3 
 3842000    0.6240197   -8.6478048    576.28147  0.012499598  0.011568129            2 
 3843000   0.63990661   -8.6499682    576.46506  0.012500327  0.011563959            3 
 3844000   0.64172247   -8.6267824    576.01487  0.012487315  0.011559792            2 
 3845000   0.63749635   -8.6469752    575.84165  0.012480313  0.011555621            4 
 3846000    0.6516451   -8.6349405    576.27369  0.012486429  0.011551456            1 
 3847000   0.63696437   -8.6348125    576.56087  0.012489405  0.011547288            1 
 3848000   0.62983901   -8.6527808      575.862  0.012471024  0.011543114            1 
 3849000   0.64564591   -8.6276102     575.3837  0.012457428   0.01153894            2 
 3850000   0.64247125   -8.6489074     575.9915  0.012467349  0.011534767            1 
 3851000   0.64216008   -8.6501191    574.97767  0.012442172  0.011530595            1 
 3852000    0.6419312   -8.6450211    575.04831  0.012440471  0.011526418            3 
 3853000   0.62831333   -8.6558096    575.83201  0.012454192  0.011522241            1 
 3854000   0.63468819   -8.6625781    575.39086  0.012441421  0.011518068            3 
 3855000   0.63633894   -8.6375643    576.69948  0.012466482  0.011513895            2 
 3856000    0.6322513   -8.6409161    576.14799  0.012451331  0.011509731            2 
 3857000   0.63734992    -8.678286    574.12838  0.012404468  0.011505564            1 
 3858000   0.63734971   -8.6457117    575.52992  0.012431526  0.011501398            2 
 3859000   0.64653428   -8.6499893    575.67815  0.012431505  0.011497238            3 
 3860000   0.64466244   -8.6405867    576.40314  0.012443937   0.01149308            2 
 3861000   0.63732361   -8.6450778     576.3631  0.012439849  0.011488925            3 
 3862000   0.63477025   -8.6602904    575.61687  0.012420526  0.011484765            2 
 3863000   0.63790722   -8.6251426    576.30018  0.012432052  0.011480609            4 
 3864000   0.64128929   -8.6555137    574.39358  0.012387715  0.011476466            3 
 3865000   0.63073834   -8.6487153    575.89156  0.012416808   0.01147232            3 
 3866000   0.62270513   -8.6273749    575.38603  0.012402699  0.011468174            3 
 3867000   0.63238421   -8.6546051    575.59895   0.01240408  0.011464024            1 
 3868000   0.63960769   -8.6446713    574.74674  0.012382513  0.011459883            2 
 3869000   0.64344983   -8.6596724    575.61169  0.012397943  0.011455732            1 
 3870000   0.62646115   -8.6583599    575.72953  0.012397277  0.011451586            3 
 3871000   0.62979772   -8.6562983    575.87055   0.01239711  0.011447441            3 
 3872000   0.63909159   -8.6459714    575.32013  0.012382062  0.011443301            2 
 3873000   0.63016779   -8.6511451    576.89741  0.012412802  0.011439157            1 
 3874000   0.62228394   -8.6268596     575.6761  0.012383327  0.011435021            3 
 3875000   0.63101092   -8.6593387    575.79817  0.012382756  0.011430893            4 
 3876000   0.63754264   -8.6508444    576.95914  0.012404522  0.011426756            2 
 3877000   0.63269436   -8.6610273    575.63346  0.012372828  0.011422621            2 
 3878000   0.64722912   -8.6586325    576.33714  0.012384759  0.011418489            3 
 3879000   0.63799242   -8.6655024    574.71824  0.012346787  0.011414359            2 
 3880000   0.62427819   -8.6548628      575.319  0.012356508  0.011410224            1 
 3881000    0.6268703   -8.6638724    576.34184  0.012375286  0.011406098            1 
 3882000   0.62804445   -8.6721582      575.941  0.012363494  0.011401977            1 
 3883000   0.62354404   -8.6528872     575.6275  0.012353582  0.011397863            3 
 3884000   0.63734858   -8.6646054    575.31577  0.012343713  0.011393746            2 
 3885000   0.62289361   -8.6635607     574.7462  0.012328318  0.011389627            2 
 3886000   0.62468432   -8.6637358    576.69828  0.012367007  0.011385513            1 
 3887000   0.62426447   -8.6523611    576.26541  0.012354545  0.011381395            1 
 3888000   0.63065431   -8.6309562    575.97395  0.012345121  0.011377282            3 
 3889000    0.6268649     -8.66684    574.83448   0.01231753  0.011373164            2 
 3890000   0.63640291    -8.688076    574.77201  0.012313025  0.011369048            4 
 3891000   0.62502493   -8.6989435    573.56002  0.012283904   0.01136493            2 
 3892000   0.63071226   -8.6700159     575.4661  0.012321559  0.011360809            1 
 3893000   0.63484987   -8.6686843    574.81443  0.012304444  0.011356698            2 
 3894000   0.62471914   -8.6553515    574.69775  0.012298788  0.011352591            5 
 3895000   0.63729093   -8.6837221    574.88159  0.012299563  0.011348488            3 
 3896000   0.63550467   -8.6614061    575.93609  0.012318961  0.011344384            2 
 3897000   0.63271224   -8.6496195     576.5894  0.012329771  0.011340279            2 
 3898000   0.62917527   -8.6478897    574.99256   0.01229247  0.011336177            2 
 3899000   0.62816646   -8.6671193    574.14029  0.012271101  0.011332072            3 
 3900000   0.61531499   -8.6763844    574.52019  0.012276073  0.011327968            1 
 3901000   0.63386746   -8.6710007    575.05033   0.01228425  0.011323869            3 
 3902000   0.62650194   -8.6864278    575.48281  0.012290339  0.011319766            6 
 3903000   0.63679974   -8.6790914    576.03158  0.012298906  0.011315665            5 
 3904000   0.63071544   -8.6938744    575.68419  0.012288341  0.011311568            7 
 3905000   0.62014767   -8.6658791    574.69484  0.012264081  0.011307475            3 
 3906000   0.62198318   -8.6533704    574.12385  0.012248759  0.011303381            8 
 3907000   0.63238724   -8.6665902    574.73525  0.012258665  0.011299291            3 
 3908000   0.62509188   -8.6570023    575.05003   0.01226224  0.011295197            6 
 3909000   0.61600516   -8.6473572    575.82878  0.012275705  0.011291106            4 
 3910000   0.63184756   -8.6706145    575.51112  0.012265795  0.011287026            1 
 3911000   0.61917662   -8.6652458     574.7013  0.012245404  0.011282935            2 
 3912000   0.62197145   -8.6881523    575.24434  0.012253842  0.011278856            2 
 3913000   0.61472646   -8.6634973    575.05552  0.012246689  0.011274776            1 
 3914000    0.6211509    -8.675399    574.97828  0.012241915  0.011270705            2 
 3915000   0.61443153   -8.6630187    574.62683  0.012231308  0.011266629            3 
 3916000   0.62302835   -8.6357609    576.39769  0.012265868  0.011262559            3 
 3917000   0.62987424    -8.665786    574.54664  0.012223356  0.011258493            5 
 3918000   0.63864399    -8.676608    574.26722  0.012214293  0.011254425            4 
 3919000   0.63086833   -8.6710161     574.6444  0.012219197  0.011250352            3 
 3920000   0.62039969   -8.6698007    574.69375  0.012217129  0.011246283            2 
 3921000   0.63208201   -8.6488421    575.10664  0.012222788  0.011242225            1 
 3922000   0.61729919   -8.6724549    576.91017  0.012257993   0.01123816            1 
 3923000   0.61885769   -8.6686412    575.55699  0.012226124  0.011234097            3 
 3924000   0.60202826   -8.6788778    575.70083  0.012226062  0.011230039            2 
 3925000   0.61584403   -8.6641977    574.68297  0.012201337  0.011225983            6 
 3926000    0.6277366   -8.6563439    575.67868  0.012219364  0.011221933            5 
 3927000   0.61517805   -8.6444286    575.49843  0.012212427  0.011217881            3 
 3928000   0.63028179   -8.6774515    575.35832  0.012206346  0.011213827            3 
 3929000   0.63007476   -8.6901765    574.78222   0.01219102  0.011209777            2 
 3930000   0.62085193   -8.6841899    574.38537  0.012179503  0.011205728            6 
 3931000   0.62563516    -8.689515    575.58953  0.012201932  0.011201677            2 
 3932000   0.62821186   -8.6641548    574.82545  0.012182635  0.011197625            2 
 3933000   0.62894848   -8.6597745    575.11728  0.012185721  0.011193578            4 
 3934000    0.6135053   -8.6777645    574.33969  0.012166152  0.011189529            3 
 3935000   0.63144354   -8.6756237    574.08544  0.012157676  0.011185487            2 
 3936000   0.63464531   -8.6903648    574.91977  0.012172251  0.011181441            6 
 3937000   0.62628561   -8.6821195    574.11707  0.012152169  0.011177398            3 
 3938000   0.62793762   -8.6980971    574.98387  0.012167426   0.01117336            1 
 3939000   0.61219981   -8.7046351     574.4695  0.012153455  0.011169312            3 
 3940000   0.61252258   -8.6788455    575.28955  0.012167715  0.011165274            4 
 3941000   0.62036526   -8.6763307    575.49595  0.012168992  0.011161232            4 
 3942000   0.62180427   -8.6902814    573.88102  0.012131765  0.011157196            4 
 3943000   0.62122148   -8.6861753    574.77259  0.012147531  0.011153158            5 
 3944000   0.61856244   -8.6949829    573.85258  0.012125012  0.011149123            6 
 3945000   0.62817893   -8.6896644    575.15727  0.012149499  0.011145091            3 
 3946000   0.62624888   -8.6913554    576.17744  0.012167964  0.011141059            3 
 3947000   0.62965653   -8.6975703    574.35816  0.012126471  0.011137025            4 
 3948000    0.6167539   -8.6771892    574.88397  0.012134498  0.011132988            7 
 3949000   0.61220287   -8.7058762     573.8816  0.012110273  0.011128955            4 
 3950000   0.60763795   -8.6841672    574.49073  0.012120058  0.011124933            7 
 3951000   0.62238983     -8.67611    574.09303  0.012108602  0.011120906            1 
 3952000   0.62451989   -8.6977289    574.91717  0.012122916  0.011116876            3 
 3953000   0.61783489   -8.6902532    574.51682  0.012111409  0.011112859            1 
 3954000   0.61260598   -8.7195729    575.00809    0.0121187  0.011108836            3 
 3955000   0.61733555   -8.6786794    575.56938  0.012127463  0.011104822            2 
 3956000   0.61816047   -8.6923885    575.73816  0.012127952  0.011100808            3 
 3957000   0.61523941   -8.7054107    574.93722   0.01210802  0.011096793            2 
 3958000   0.61167351   -8.6692985    573.90352  0.012083197  0.011092787            2 
 3959000   0.61736725   -8.6991139    574.40755  0.012090754  0.011088783            4 
 3960000   0.62702004   -8.6600441    575.47623   0.01211019  0.011084779            2 
 3961000   0.63082201   -8.7054284    575.16323  0.012100548  0.011080778            2 
 3962000   0.62091177   -8.6734701    575.10984   0.01209637  0.011076783            4 
 3963000   0.60512557   -8.6787452    575.18654  0.012094931  0.011072787            2 
 3964000   0.60891676   -8.6990911    575.06167  0.012089255  0.011068789            6 
 3965000   0.61782325   -8.7039248    575.10104  0.012087033  0.011064789            1 
 3966000   0.60498541   -8.6803687     574.2715  0.012066555  0.011060787            2 
 3967000    0.6217235   -8.7074344    573.75222  0.012052605  0.011056793            2 
 3968000    0.6189926   -8.6857902    575.48951  0.012086053  0.011052799            4 
 3969000   0.62257132   -8.6824423     574.4415  0.012061004  0.011048807            2 
 3970000   0.62718718   -8.6832313    575.06054   0.01207096  0.011044821            6 
 3971000    0.6143146   -8.6914776    575.28759  0.012072685  0.011040834            5 
 3972000   0.60607843   -8.6924606    575.53106  0.012074754   0.01103685            2 
 3973000   0.61714745   -8.6613008    576.01101  0.012081781  0.011032873            5 
 3974000   0.61317513   -8.6922164    574.17777  0.012040299  0.011028894            2 
 3975000   0.62568121   -8.6803739    574.89107  0.012052224  0.011024916            3 
 3976000   0.61821504   -8.7090568    574.71979  0.012045603  0.011020934            3 
 3977000   0.63524819   -8.6933054    575.30762  0.012054891  0.011016963            4 
 3978000   0.62709207   -8.7135446    574.09126   0.01202638  0.011012988            2 
 3979000   0.62864085   -8.7048916    574.66317  0.012035335  0.011009013            4 
 3980000   0.61217555   -8.6682693    575.53439  0.012050553  0.011005039            3 
 3981000   0.60973654   -8.6972742    574.32194  0.012022146  0.011001071            1 
 3982000    0.6296521   -8.6708043    575.80345  0.012050131  0.010997107            4 
 3983000   0.60140548   -8.6811553    574.75553  0.012025181  0.010993141            3 
 3984000   0.60597218    -8.690955     574.7457  0.012021957  0.010989177            3 
 3985000   0.62938919   -8.6957787    575.27472  0.012030003  0.010985215            4 
 3986000   0.60607561    -8.713495    575.09022  0.012023127  0.010981252            5 
 3987000   0.61224726   -8.6938071    575.90534  0.012037149  0.010977289            2 
 3988000   0.62924866   -8.7021893    574.37429  0.012002137  0.010973326            3 
 3989000   0.62468435   -8.7014919    574.69781  0.012005887  0.010969368            1 
 3990000   0.61904313   -8.6820341    574.18331  0.011992133  0.010965411            3 
 3991000   0.60570712   -8.7012836    574.44898  0.011994675  0.010961451            6 
 3992000   0.61194588   -8.6927314    573.67595  0.011975533  0.010957494            4 
 3993000   0.61949153    -8.710419    575.09305  0.012002109  0.010953537            3 
 3994000   0.60634237    -8.692726    574.77621  0.011992493  0.010949587            4 
 3995000   0.61186653   -8.7009101    574.31985  0.011979972  0.010945644            3 
 3996000   0.60790423   -8.7109218    573.60553  0.011962077  0.010941691            2 
 3997000   0.60139629   -8.7250525    574.48424  0.011977405  0.010937741            6 
 3998000   0.60254401    -8.698161    574.27615  0.011970072  0.010933789            4 
 3999000   0.62113202   -8.6988547    573.69017  0.011954867   0.01092985            3 
 4000000   0.61401189   -8.6992557    574.05259  0.011959429  0.010925903            3 
 4001000   0.60670979    -8.715955     573.2492  0.011939707  0.010921962            2 
 4002000   0.60438331   -8.6964957     575.4611  0.011982782  0.010918024            3 
 4003000   0.60553063   -8.7106922    574.62835  0.011962452  0.010914088            4 
 4004000   0.61884787   -8.7249537    574.38345  0.011954368  0.010910152            2 
 4005000   0.60990914   -8.6909026    575.67131   0.01197818  0.010906224            4 
 4006000    0.6116127    -8.715079    574.11776  0.011942872  0.010902288            2 
 4007000    0.6160702   -8.7066529    575.29624  0.011964401  0.010898353            4 
 4008000   0.61589303   -8.6735919    574.15191  0.011937623  0.010894422            1 
 4009000   0.60463725   -8.7098416    574.77381  0.011947572  0.010890494            3 
 4010000   0.60783502   -8.7231702    574.97099  0.011948691  0.010886567            3 
 4011000   0.61218156   -8.7165471    574.82512  0.011942681  0.010882639            7 
 4012000    0.5989277    -8.717015    574.85847  0.011940397  0.010878708            3 
 4013000   0.60884617   -8.7299081    574.02914    0.0119202  0.010874783            2 
 4014000   0.62148102   -8.7132894    574.20665  0.011920915  0.010870857            4 
 4015000   0.61421702   -8.7108419    574.67559  0.011927679  0.010866935            2 
 4016000     0.605393   -8.7157923    574.10889   0.01191295  0.010863011            3 
 4017000   0.61169136   -8.6931003    574.33921  0.011914762  0.010859093            2 
 4018000   0.60695299   -8.7141247    574.49834  0.011915097  0.010855182            4 
 4019000   0.61797017   -8.6942019    574.51345  0.011912446  0.010851273            2 
 4020000   0.59416443   -8.7203191    573.71908  0.011893016  0.010847363            1 
 4021000    0.6118003    -8.719205    573.73195  0.011890325  0.010843454            5 
 4022000   0.61665662   -8.7036446    574.98592   0.01191335  0.010839545            3 
 4023000   0.61045453   -8.7243817    574.71226   0.01190472  0.010835638            5 
 4024000   0.61865968   -8.7252292     574.0256  0.011887541  0.010831736            3 
 4025000   0.61465622   -8.7133792    573.42913  0.011872239   0.01082783            2 
 4026000   0.61333027   -8.7033581    573.86102  0.011878229  0.010823938            2 
 4027000   0.60751052   -8.7232895    574.27646  0.011883877  0.010820043            2 
 4028000   0.60155022   -8.6988152    575.13241  0.011898635  0.010816153            1 
 4029000   0.61747903   -8.7102016    574.38554  0.011880234  0.010812263            1 
 4030000   0.60399947   -8.6902954    574.85145   0.01188692  0.010808372            1 
 4031000   0.61275713   -8.7027633    574.45707  0.011875818  0.010804481            4 
 4032000   0.59398406   -8.7027599    574.94008  0.011882856  0.010800594            2 
 4033000   0.60588877    -8.719549    574.33041  0.011867311  0.010796708            4 
 4034000   0.60139318    -8.690754    574.67171   0.01187142  0.010792825            2 
 4035000    0.6183488   -8.6988896    576.42342  0.011904656  0.010788938            1 
 4036000    0.5917559   -8.7201311    574.94971  0.011871278   0.01078506            2 
 4037000    0.6043774   -8.7070177    573.88571  0.011846373  0.010781181            2 
 4038000   0.59415893   -8.7186893    573.57237  0.011836973  0.010777302            2 
 4039000   0.60225709   -8.7174388    573.89834  0.011840768  0.010773426            1 
 4040000   0.61237236    -8.720164    573.66165  0.011832955  0.010769547            1 
 4041000   0.60675018   -8.7042643    574.51344  0.011847592  0.010765673            2 
 4042000   0.60289896   -8.7177616     574.5734  0.011845897  0.010761802            1 
 4043000   0.60634041    -8.705357    574.76878  0.011846994  0.010757934            2 
 4044000   0.61565232   -8.6942434    574.39475  0.011836357  0.010754067            3 
 4045000   0.59164344   -8.7151921    573.92663  0.011823787  0.010750196            2 
 4046000   0.59015553   -8.7270425    574.13816  0.011825222  0.010746329            3 
 4047000    0.5951781   -8.7054775    573.97701  0.011818981   0.01074246            2 
 4048000   0.59217016   -8.7189782    573.93822  0.011815263  0.010738594            4 
 4049000   0.61096915   -8.7065487    574.91106  0.011832367  0.010734732            1 
 4050000   0.58296445   -8.7055134    573.70716  0.011804674  0.010730868            4 
 4051000   0.59108402   -8.7344167    574.89507  0.011826197  0.010727002            2 
 4052000   0.60548668   -8.7303713    575.26871  0.011830962  0.010723145            2 
 4053000   0.60693186   -8.7322189    574.13808  0.011804797  0.010719286            2 
 4054000   0.61638651   -8.7322875    574.24925   0.01180417  0.010715431            4 
 4055000   0.59756347   -8.7324685     574.4614  0.011805618  0.010711575            2 
 4056000   0.60216152   -8.7256556    574.19723   0.01179728  0.010707718            2 
 4057000   0.59825268    -8.700754    574.51081  0.011800814  0.010703862            2 
 4058000   0.61441858   -8.7325073    574.93584  0.011806634  0.010700008            1 
 4059000   0.60335279    -8.708529    574.44845  0.011793719  0.010696157            1 
 4060000   0.59808976   -8.7306205    574.16445  0.011784985   0.01069231            2 
 4061000    0.6017128   -8.7456078    573.30553  0.011764457  0.010688459            2 
 4062000   0.59153119   -8.7300862    573.81459  0.011772005  0.010684609            2 
 4063000   0.59613419   -8.7194323    574.16752  0.011776346  0.010680764            3 
 4064000   0.60967023    -8.724024    575.17822  0.011794173   0.01067692            2 
 4065000    0.5942903   -8.7119343    573.87117  0.011764477  0.010673077            1 
 4066000   0.61158833   -8.7242856    573.78051  0.011759725  0.010669237            3 
 4067000   0.60744327   -8.7013687    574.32937   0.01176808    0.0106654            2 
 4068000   0.59337941   -8.7041977    574.71795  0.011773147  0.010661563            1 
 4069000   0.59931509   -8.7311534    573.81927  0.011751849  0.010657724            1 
 4070000   0.59536723   -8.7159801    574.93852  0.011771878  0.010653888            1 
 4071000   0.59977529   -8.7202255    574.09959  0.011751813  0.010650053            3 
 4072000   0.59785003   -8.7097331    574.60245  0.011759218  0.010646222            2 
 4073000   0.61709622   -8.7327677    574.33122  0.011750782  0.010642394            3 
 4074000   0.59821232   -8.7141063    573.65409  0.011734047  0.010638566            2 
 4075000   0.59709677   -8.7389109    574.53156  0.011749112  0.010634742            2 
 4076000   0.60064823   -8.7356994    573.08418  0.011716638  0.010630911            2 
 4077000   0.60733026   -8.7290621    573.85833  0.011729587  0.010627086            4 
 4078000   0.61014343   -8.7606331    573.68001  0.011723067  0.010623261            2 
 4079000   0.61362416   -8.7261208    573.26981  0.011711813  0.010619441            2 
 4080000   0.59429641   -8.7209512    573.82171  0.011720215  0.010615629            2 
 4081000   0.60295013   -8.7080931    572.83407  0.011697175  0.010611811            2 
 4082000   0.59893604   -8.7021893    574.07864  0.011719717  0.010607994            3 
 4083000   0.61213504   -8.7247754    575.19132  0.011739557  0.010604183            2 
 4084000   0.59791891    -8.714343    574.18757  0.011716201  0.010600372            1 
 4085000   0.59111509   -8.7112112    574.35395  0.011716727  0.010596561            2 
 4086000   0.60090583   -8.7250086    574.39251  0.011714646  0.010592749            1 
 4087000    0.6167159   -8.7379881    574.21415  0.011708143  0.010588937            1 
 4088000    0.5937606   -8.7316222    573.69404  0.011694676  0.010585135            3 
 4089000   0.60876076   -8.7455326    573.18575  0.011681457  0.010581333            2 
 4090000   0.59375917   -8.7514143    573.94695  0.011694111   0.01057753            3 
 4091000   0.59273391   -8.7443124    573.39421  0.011679993  0.010573731            3 
 4092000   0.59827728   -8.7077211    574.67486  0.011703219  0.010569937            2 
 4093000   0.59754146   -8.7278903    573.17433  0.011669809  0.010566141            4 
 4094000   0.59741659   -8.7218371    573.41252  0.011671807   0.01056235            2 
 4095000   0.60209083   -8.7274295     574.7523  0.011696221  0.010558554            3 
 4096000   0.58801528   -8.7365507    574.44474  0.011687108  0.010554763            3 
 4097000   0.58865081    -8.727834    573.82633  0.011671677  0.010550978            2 
 4098000   0.60124327   -8.7424975    574.29542  0.011678368  0.010547191            2 
 4099000   0.58403441   -8.7440663    575.40019  0.011697979  0.010543409            3 
 4100000   0.58116491   -8.7308009    573.64111  0.011659372  0.010539623            2 
 4101000   0.58488981   -8.7278827    574.11685  0.011666196  0.010535846            1 
 4102000    0.6088133   -8.7304104    573.68622  0.011654604  0.010532069            2 
 4103000   0.58416052   -8.7335432    574.03957   0.01165894  0.010528292            1 
 4104000   0.60129696   -8.7086892    574.27327  0.011660845  0.010524516            2 
 4105000    0.5978882   -8.7519768    573.05226  0.011633217  0.010520742            3 
 4106000   0.60078665   -8.7384838    573.58939  0.011641285  0.010516963            1 
 4107000     0.600721    -8.739056    573.45175  0.011635658  0.010513193            1 
 4108000   0.60966873   -8.7357639    574.51447  0.011654383  0.010509423            2 
 4109000   0.58864934   -8.7322434    574.03591  0.011641841  0.010505658            2 
 4110000   0.60207376   -8.7254915    574.43188  0.011647037  0.010501891            3 
 4111000   0.58825921   -8.7167097    573.65079  0.011628371  0.010498123            2 
 4112000   0.59598191    -8.724695      574.432  0.011641375  0.010494358            4 
 4113000   0.58791651   -8.7363643    573.93234  0.011628421  0.010490601            8 
 4114000   0.60337485   -8.7239017    574.15598  0.011630124  0.010486845            3 
 4115000   0.59666716   -8.7291972    574.71534  0.011638626  0.010483088            2 
 4116000   0.59110194   -8.7375633    574.62682  0.011634006  0.010479334            2 
 4117000   0.59199802   -8.7292985    573.22107  0.011602726   0.01047558            3 
 4118000   0.58645473   -8.7377567     573.7273  0.011610153  0.010471823            1 
 4119000   0.59084451   -8.7365862    573.47271  0.011602183   0.01046807            2 
 4120000   0.59071541   -8.7358343    573.56096  0.011601152  0.010464318            1 
 4121000   0.60071365    -8.734003    573.92038  0.011605605  0.010460561            2 
 4122000   0.60481717   -8.7226187    573.92368  0.011602856   0.01045681            3 
 4123000   0.58780349   -8.7299752    572.96072  0.011580579  0.010453067            2 
 4124000   0.59302397   -8.7381897    573.15681  0.011581733  0.010449325            1 
 4125000   0.59481177   -8.7366578    573.66258  0.011589143  0.010445577            1 
 4126000   0.59063991   -8.7455832    573.92655  0.011591666  0.010441835            4 
 4127000    0.6032874   -8.7136491    574.76537  0.011605795  0.010438099            2 
 4128000   0.59689838   -8.7447162    574.93767  0.011606461   0.01043436            5 
 4129000   0.60348154   -8.7266168    573.76348  0.011579952  0.010430624            1 
 4130000   0.59649563   -8.7348928    572.74194  0.011556536  0.010426888            8 
 4131000   0.58397562   -8.7369415     573.5102  0.011569237  0.010423151            3 
 4132000   0.60023747   -8.7429851    573.41686  0.011564554  0.010419416            4 
 4133000   0.59195482   -8.7535605     573.5901  0.011565249  0.010415684            3 
 4134000   0.57345168   -8.7323705    572.70888  0.011544688   0.01041195            1 
 4135000   0.57929882   -8.7605824    573.53291  0.011558503  0.010408223            4 
 4136000   0.59279987   -8.7242322    573.30961  0.011551209  0.010404494            3 
 4137000   0.58377294   -8.7201328    574.20793  0.011566512  0.010400771            2 
 4138000   0.59586901   -8.7456265     574.0677  0.011560893  0.010397049            2 
 4139000   0.57998074   -8.7467452    573.69238  0.011550543  0.010393323            2 
 4140000   0.58644965   -8.7476532    573.58896  0.011545672  0.010389599            1 
 4141000   0.59571337   -8.7451126    573.47563  0.011540603  0.010385876            3 
 4142000   0.58810504   -8.7186381    573.46975  0.011537698   0.01038216            3 
 4143000   0.59071426   -8.7374999    574.15959  0.011548789  0.010378444            3 
 4144000   0.59309155   -8.7117333    573.68819  0.011536522  0.010374731            4 
 4145000   0.58001072   -8.7313268    573.74532  0.011534888  0.010371019            1 
 4146000   0.59575322   -8.7324382    574.16024  0.011540445  0.010367307            3 
 4147000   0.59087158   -8.7407243    573.56888  0.011525779  0.010363597            3 
 4148000   0.57129184   -8.7378326    573.72692  0.011526176  0.010359889            6 
 4149000   0.59190085   -8.7493976    574.49651  0.011538855   0.01035618            3 
 4150000   0.57664683   -8.7372988    574.43138  0.011534767  0.010352477            2 
 4151000    0.5783274   -8.7540721    573.63088  0.011515917  0.010348775            2 
 4152000   0.57311745   -8.7431461    574.04299  0.011521415  0.010345074            4 
 4153000   0.58964293   -8.7272519     573.1934  0.011501593  0.010341372            2 
 4154000   0.58227575   -8.7469957     574.0383  0.011515774  0.010337669            2 
 4155000   0.60382724   -8.7548623    573.51176  0.011502442   0.01033397            2 
 4156000   0.59656506   -8.7609609    572.57128  0.011480817  0.010330277            2 
 4157000   0.59616416   -8.7452512    573.89049    0.0115045  0.010326579            4 
 4158000   0.58411159   -8.7371403    573.37243  0.011491351  0.010322885            7 
 4159000   0.59914744   -8.7238372    573.63116  0.011493772  0.010319191            5 
 4160000   0.59079097   -8.7535175     573.8123  0.011494637  0.010315503            9 
 4161000   0.58071772   -8.7379704    574.41516  0.011503949  0.010311823            4 
 4162000    0.5842733   -8.7468617    574.70419  0.011506972  0.010308139            4 
 4163000   0.58660593   -8.7455158    574.23568  0.011494829  0.010304452            6 
 4164000   0.59157654   -8.7478153     573.2014   0.01147137  0.010300769            7 
 4165000   0.59502187    -8.765041    573.84409  0.011481474  0.010297086            4 
 4166000   0.58966179   -8.7430539    573.79812  0.011477799  0.010293406            1 
 4167000    0.5892726   -8.7447529    573.10891  0.011461261  0.010289728            4 
 4168000   0.59060123   -8.7333066    573.36596  0.011463651  0.010286052            2 
 4169000   0.58914127   -8.7403253    572.87145  0.011451016  0.010282378            3 
 4170000   0.58464964   -8.7518448     572.1856  0.011434564  0.010278708            4 
 4171000   0.57906403    -8.740843    572.80749  0.011444248   0.01027503            5 
 4172000   0.58759008    -8.737853    572.74814  0.011440319  0.010271362            2 
 4173000   0.57757009   -8.7498411    573.21934  0.011446987  0.010267694            3 
 4174000   0.56935411   -8.7502343    573.14237  0.011442708   0.01026403            3 
 4175000    0.5735992   -8.7525627     573.5849    0.0114488  0.010260364            2 
 4176000   0.59416211   -8.7443846    573.62112  0.011446782  0.010256702            2 
 4177000   0.57317349   -8.7230138    572.71643  0.011425992  0.010253046            2 
 4178000   0.56256832   -8.7517944    573.29572  0.011434812  0.010249385            4 
 4179000   0.57274383   -8.7551006    573.41488  0.011434452  0.010245725            2 
 4180000   0.58484361   -8.7486248    573.69371  0.011437275  0.010242066            3 
 4181000   0.58415225   -8.7538037    572.90479  0.011418815  0.010238411            6 
 4182000   0.57498289   -8.7610424    573.93493  0.011436612  0.010234756            4 
 4183000   0.57061811   -8.7600789    573.30766  0.011421381  0.010231103            3 
 4184000   0.58339352   -8.7422082    573.70368  0.011426539  0.010227448            2 
 4185000   0.57618422   -8.7417548    572.92661  0.011408336  0.010223798            5 
 4186000   0.58858253   -8.7407841    575.00177  0.011446922  0.010220149            1 
 4187000   0.58220462   -8.7501249    572.89781  0.011402313  0.010216499            3 
 4188000   0.56557167   -8.7483907    572.85537  0.011398746  0.010212851            4 
 4189000   0.58141716    -8.769222    571.93243  0.011377664  0.010209209            4 
 4190000    0.5770236   -8.7699226    573.07843  0.011397741  0.010205564            3 
 4191000   0.57885333   -8.7372678    573.69369  0.011407255  0.010201922            3 
 4192000   0.57854038   -8.7490562    573.21688  0.011395056  0.010198284            3 
 4193000   0.58239829   -8.7737141    572.53633  0.011378812  0.010194645            2 
 4194000   0.56424664   -8.7539941    573.80286  0.011401265  0.010191008            8 
 4195000     0.588185    -8.758482    573.45315    0.0113916  0.010187372            3 
 4196000   0.57980684   -8.7601225    573.25594  0.011384969  0.010183736            4 
 4197000   0.58421043   -8.7548384    572.67323  0.011370686  0.010180101            1 
 4198000   0.59199959   -8.7681939    573.86589  0.011391653  0.010176473            2 
 4199000   0.58506212   -8.7364519    574.00679  0.011391736  0.010172849            3 
 4200000   0.59071638   -8.7507618    573.51052  0.011379177  0.010169218            3 
 4201000    0.5732999   -8.7405917    573.08832  0.011368093  0.010165591            2 
 4202000   0.57964035   -8.7755368    572.55844  0.011354879  0.010161965            2 
 4203000     0.579548   -8.7684541    572.36412  0.011348325  0.010158335            2 
 4204000   0.58448547   -8.7743926    573.38077  0.011365778  0.010154708            4 
 4205000   0.57150351   -8.7470002    572.33272  0.011342305  0.010151085            3 
 4206000   0.57811946    -8.763012     573.7197  0.011367089  0.010147463            3 
 4207000   0.57757084   -8.7499758    572.51556  0.011340535  0.010143847            2 
 4208000   0.57271104   -8.7831144    572.77008   0.01134288  0.010140227            2 
 4209000   0.58212213   -8.7691907     571.8472  0.011321913  0.010136604            1 
 4210000   0.58729158   -8.7770443    572.79347  0.011337955  0.010132986            2 
 4211000   0.59439088   -8.7478567    573.35594  0.011346393   0.01012937            4 
 4212000   0.57594648   -8.7827356    571.96988  0.011316277  0.010125754            3 
 4213000   0.58420493   -8.7475742    571.98154  0.011313821   0.01012214            1 
 4214000   0.57618907   -8.7619028    573.26857  0.011336588  0.010118525            4 
 4215000   0.57996312   -8.7717669    573.54733  0.011339409  0.010114913            2 
 4216000   0.58739788   -8.7725629    573.59535  0.011337669  0.010111307            3 
 4217000   0.57221764   -8.7658909     572.9534  0.011322295  0.010107701            2 
 4218000     0.579226   -8.7652186    573.53513  0.011331103  0.010104093            3 
 4219000   0.57405741   -8.7532411    573.59247   0.01132955  0.010100491            2 
 4220000   0.57484631   -8.7625919    572.26154  0.011300583  0.010096888            3 
 4221000   0.57435884    -8.783048    572.64914  0.011305558  0.010093287            4 
 4222000   0.57359329   -8.7608173    573.51991  0.011320068  0.010089691            3 
 4223000   0.59076851   -8.7724844    573.44072  0.011315824  0.010086095            2 
 4224000   0.57319151   -8.7655639    573.26586  0.011309696    0.0100825            5 
 4225000   0.58425678   -8.7589796    574.19866  0.011325417  0.010078911            8 
 4226000   0.58353325   -8.7677236    573.35976  0.011306195  0.010075324            3 
 4227000   0.58883933   -8.7649387      573.721  0.011310642  0.010071739            2 
 4228000   0.57810473   -8.7704512    573.14451  0.011296604  0.010068151            2 
 4229000   0.57410942   -8.7848493    572.57561  0.011282723  0.010064561            3 
 4230000   0.58143799    -8.766679    574.30066   0.01131404  0.010060973            2 
 4231000   0.57653585   -8.7821781    572.16492    0.0112693  0.010057384            2 
 4232000   0.57191173   -8.7622981    573.02662  0.011283605  0.010053798            3 
 4233000   0.56861668     -8.78309    572.99486  0.011280315  0.010050216            1 
 4234000    0.5821039   -8.7796371    573.50733  0.011287737  0.010046636            2 
 4235000   0.57940879   -8.7658861    573.28989  0.011280793  0.010043057            5 
 4236000   0.57131752   -8.7534686    573.50932  0.011282446  0.010039476            1 
 4237000   0.55691747   -8.7533628    572.63027  0.011262495  0.010035896            3 
 4238000   0.57377807   -8.7785293    573.05594  0.011268207  0.010032322            3 
 4239000   0.56727947   -8.7775699    573.36974  0.011271718   0.01002875            2 
 4240000   0.58014473   -8.7735011    571.85885  0.011239364  0.010025182            2 
 4241000   0.57067126   -8.7814741    572.85601  0.011256308  0.010021614            1 
 4242000   0.57702508   -8.7684731    572.62667  0.011249149  0.010018044            1 
 4243000   0.57060099   -8.7575229    572.31835  0.011240442   0.01001447            3 
 4244000   0.58781199   -8.7880819    571.96185  0.011230793  0.010010901            3 
 4245000     0.572796   -8.7805445    573.40939  0.011256564  0.010007333            1 
 4246000   0.57619474   -8.7786535    572.76533  0.011241273  0.010003767            2 
 4247000   0.56987379   -8.7629939    572.59223  0.011235229  0.010000204            2 
 4248000   0.56705017   -8.7893305    572.43084  0.011229418 0.0099966443            2 
 4249000   0.57600661   -8.7973887    572.53397  0.011228798 0.0099930796            4 
 4250000   0.57974932   -8.7794535    572.70631  0.011229535 0.0099895213            1 
 4251000   0.57842332   -8.7738171    572.12291  0.011215457 0.0099859611            3 
 4252000   0.57185756   -8.7761865    572.55089  0.011221207 0.0099824018            4 
 4253000   0.57066519   -8.7882348    573.55949  0.011238332 0.0099788433            3 
 4254000   0.56777199   -8.7658171    572.49388  0.011214815 0.0099752915            2 
 4255000   0.57388799    -8.781912    572.48253  0.011211957 0.0099717431            2 
 4256000   0.55501898   -8.7839719    572.02459  0.011200356 0.0099681964            2 
 4257000   0.55647567   -8.7772237    573.15923  0.011219936 0.0099646477            1 
 4258000   0.57741952   -8.7711861    572.36998  0.011201855 0.0099611053            3 
 4259000   0.56870778   -8.7718035    572.98666  0.011211291 0.0099575664            3 
 4260000   0.56501926   -8.7737548    572.03589   0.01119006 0.0099540289            2 
 4261000   0.56361741   -8.7390755    572.42844  0.011195111 0.0099504905            3 
 4262000   0.56206171   -8.7838821    572.58649  0.011195575 0.0099469525            2 
 4263000    0.5711968    -8.777805    572.80657  0.011197251 0.0099434165            2 
 4264000    0.5723688   -8.7561501    574.24042  0.011222647 0.0099398835            4 
 4265000   0.55728461   -8.7841521    572.87083  0.011193256 0.0099363485            4 
 4266000   0.56713186   -8.7777433    572.25826  0.011178666 0.0099328111            2 
 4267000   0.57695072   -8.7872636    571.59489   0.01116309 0.0099292788            2 
 4268000    0.5694357   -8.7831974    572.79824  0.011183971 0.0099257523            3 
 4269000   0.57868589   -8.7785585     572.5488  0.011176482 0.0099222238            2 
 4270000   0.54772261   -8.7861107    572.30205  0.011169049 0.0099186972            3 
 4271000   0.56938732   -8.7782744    571.82801  0.011157184 0.0099151728            4 
 4272000   0.57285365   -8.8007901    571.61709  0.011150458 0.0099116494            3 
 4273000   0.57006024   -8.7771091    571.46026   0.01114479  0.009908125            2 
 4274000    0.5568724   -8.7742395    573.59852  0.011183874  0.009904605            3 
 4275000   0.57588837   -8.7887183    571.89327  0.011148017 0.0099010844            4 
 4276000   0.57308776   -8.7886091    572.90404  0.011165108 0.0098975621            2 
 4277000   0.56504803   -8.7974738    571.48457  0.011134841 0.0098940402            4 
 4278000   0.55922922   -8.7798894    572.29495  0.011148024 0.0098905209            2 
 4279000   0.57561774   -8.7880349    571.96582  0.011139009 0.0098870031            4 
 4280000   0.56561972   -8.7863398    572.84165  0.011153459 0.0098834907            4 
 4281000   0.58215291     -8.78932    572.10629  0.011136539 0.0098799741            3 
 4282000   0.55780012   -8.7660326      572.012  0.011132103 0.0098764591            4 
 4283000   0.56000647   -8.7858973    571.60022  0.011121492 0.0098729482            4 
 4284000   0.56055407   -8.7875661    572.90573  0.011144291 0.0098694323            3 
 4285000   0.57835151   -8.7809005    572.26696  0.011129268 0.0098659239            2 
 4286000    0.5622641    -8.796623    572.44056  0.011130047   0.00986242            1 
 4287000   0.56824104   -8.7803866     572.0159  0.011119196 0.0098589173            2 
 4288000   0.56099268   -8.7948397    572.08763  0.011117996 0.0098554145            3 
 4289000   0.56318424   -8.7759995     572.4506  0.011122457 0.0098519152            3 
 4290000   0.56479684   -8.7720148    573.64496  0.011143064 0.0098484192            1 
 4291000    0.5677183   -8.7902593    572.69755  0.011122068 0.0098449229            3 
 4292000    0.5680319    -8.798296    572.19939  0.011109805 0.0098414275            3 
 4293000   0.55446316   -8.7922809     572.0115   0.01110357 0.0098379325            2 
 4294000   0.55463582   -8.8026143     571.9389  0.011099575  0.009834435            2 
 4295000    0.5577112   -8.7954055     571.5945  0.011090309 0.0098309398            2 
 4296000   0.57272743   -8.7908029    572.21792   0.01109982 0.0098274477            3 
 4297000   0.56511207     -8.75748    572.42132  0.011101181 0.0098239596            2 
 4298000   0.56665804   -8.7875939    572.59759  0.011102016 0.0098204718            2 
 4299000    0.5480279   -8.7941986    572.91931   0.01110567 0.0098169859            3 
 4300000   0.55220302   -8.7916608    571.77112  0.011080836 0.0098135019            1 
 4301000   0.57232441   -8.7969883    571.75336  0.011077915 0.0098100204            4 
 4302000   0.55653976   -8.7973335    571.84611  0.011077137 0.0098065378            4 
 4303000   0.56393918   -8.7817972    572.51119  0.011087443 0.0098030552            3 
 4304000   0.56393939   -8.7934105     572.6017  0.011086619  0.009799574            2 
 4305000   0.55437765   -8.8031551    572.42848  0.011080691 0.0097960921            4 
 4306000   0.57045996   -8.7846377    573.26242  0.011094256 0.0097926159            1 
 4307000   0.56345219   -8.8013431    572.29363  0.011072936  0.009789139            3 
 4308000   0.55370804   -8.7936014    572.40647  0.011072549 0.0097856664            3 
 4309000   0.57331167    -8.787102    572.58556  0.011073442 0.0097821956            2 
 4310000   0.55951302   -8.7939071    572.45792  0.011068405 0.0097787227            2 
 4311000   0.55592661   -8.7772706     573.8159  0.011092088 0.0097752531            3 
 4312000   0.56881602   -8.7940232    573.19469   0.01107751 0.0097717842            5 
 4313000    0.5635108   -8.7725285    572.16777    0.0110551 0.0097683212            3 
 4314000   0.56802173   -8.7946468      572.726  0.011063321 0.0097648555            2 
 4315000   0.56572152   -8.7945669    572.37602  0.011053998 0.0097613917            2 
 4316000   0.55275001   -8.8015283    572.70556    0.0110578  0.009757937            2 
 4317000   0.56968625   -8.8203503    571.10175  0.011024279 0.0097544747            6 
 4318000   0.55359359    -8.796249    572.58247  0.011050303  0.009751017            3 
 4319000   0.56363272   -8.8110601    571.94582   0.01103546 0.0097475582            3 
 4320000   0.55966691   -8.7944119    572.32915    0.0110403 0.0097441028            2 
 4321000   0.55978389   -8.7915155     573.0853  0.011052328 0.0097406524            3 
 4322000   0.56470977   -8.7999515    571.40029  0.011017282 0.0097372003            2 
 4323000   0.56298077     -8.81166    570.68543  0.011000953 0.0097337479            2 
 4324000   0.55905611   -8.7795314    572.62185  0.011035728 0.0097302972            4 
 4325000   0.56749397   -8.8000935    572.52111  0.011031235 0.0097268501            3 
 4326000   0.56412378   -8.7816388    572.20606  0.011022616 0.0097234017            2 
 4327000   0.55282521   -8.8042381    572.68125  0.011029221 0.0097199565            2 
 4328000   0.55569436   -8.8021045     571.6928   0.01100764 0.0097165147            2 
 4329000   0.55862291   -8.7992319    571.59549  0.011003224 0.0097130763            6 
 4330000   0.55579765   -8.8038733    571.43589  0.010997612 0.0097096372            2 
 4331000   0.56217245   -8.8155599     571.6956  0.011000069 0.0097061968            4 
 4332000   0.55959822   -8.8006811    571.96191  0.011002653 0.0097027602            5 
 4333000   0.55701471   -8.7889584    572.00485   0.01100094 0.0096993221            2 
 4334000   0.54270942   -8.7983643    572.76744  0.011013064  0.009695886            6 
 4335000   0.57196599   -8.7984242     571.8721  0.010993312 0.0096924511            4 
 4336000   0.55830165   -8.8037689    572.35872  0.011000129 0.0096890224            2 
 4337000   0.56148773   -8.8100334    571.18307  0.010975003 0.0096855908            2 
 4338000   0.55190553   -8.8104563    572.11044  0.010990288 0.0096821654            1 
 4339000   0.57016376   -8.7857281    571.63639  0.010978651  0.009678738            2 
 4340000   0.56826152   -8.8320339    571.71805  0.010977689 0.0096753114            4 
 4341000   0.55238254   -8.8096315     571.7028  0.010974868 0.0096718881            3 
 4342000   0.56269725   -8.8180137    571.17227  0.010962158 0.0096684657            3 
 4343000     0.556489   -8.8072206    572.57598  0.010986568 0.0096650465            4 
 4344000   0.54399467    -8.803669    570.58073  0.010945763 0.0096616234            2 
 4345000   0.57051876   -8.8196282    571.87787  0.010968122 0.0096582063            1 
 4346000   0.56282271   -8.8124543    571.31074  0.010954724 0.0096547872            2 
 4347000   0.54584953   -8.8158475    572.45763   0.01097419 0.0096513716            5 
 4348000   0.55636543   -8.8152413    571.87528  0.010960504 0.0096479567            3 
 4349000   0.55615119    -8.800518    571.82777  0.010957074 0.0096445444            2 
 4350000   0.55726153   -8.8010539    571.38461  0.010946065 0.0096411344            3 
 4351000   0.55280229   -8.7844755    572.73312  0.010969377 0.0096377261            4 
 4352000   0.54659617   -8.7874606    571.82163  0.010949403 0.0096343236            3 
 4353000   0.55154698   -8.8008929    572.19893  0.010954111 0.0096309153            3 
 4354000    0.5452651   -8.7945465    571.99424  0.010947677 0.0096275117            3 
 4355000   0.55023786   -8.8011129    572.21392  0.010949367 0.0096241046            3 
 4356000   0.55092176   -8.8174291    571.75666  0.010938106 0.0096207046            2 
 4357000    0.5475719   -8.7984812    571.55421  0.010931723 0.0096173066            3 
 4358000   0.56168065    -8.804526    571.68013  0.010931622 0.0096139083            4 
 4359000   0.55331695   -8.8012607    571.60016  0.010927586 0.0096105108            4 
 4360000    0.5588617   -8.8222035    572.58779  0.010943956 0.0096071131            4 
 4361000   0.54622462   -8.7994941    572.01862  0.010930571 0.0096037137            5 
 4362000   0.55500278   -8.8018568    571.81689  0.010924211 0.0096003187            1 
 4363000   0.56043921   -8.7976172    572.67126  0.010938025 0.0095969247            3 
 4364000   0.56145911   -8.8190496    572.31041  0.010928628 0.0095935301            2 
 4365000   0.55921446   -8.8137872    571.25861  0.010906045 0.0095901363            4 
 4366000   0.54922352   -8.8006658    571.66089  0.010911225 0.0095867448            2 
 4367000   0.55073157   -8.8259444    571.01041  0.010896313 0.0095833503            3 
 4368000   0.55816631   -8.8057903    572.35195  0.010919413 0.0095799652            7 
 4369000   0.57075267   -8.8287017    572.17481  0.010913535 0.0095765782            4 
 4370000   0.55349245   -8.8044548    571.24151   0.01089324 0.0095731914            5 
 4371000   0.55155304    -8.812152    571.73087  0.010900078 0.0095698067            2 
 4372000   0.55676255   -8.8119477    572.17355  0.010906022 0.0095664295            4 
 4373000   0.55584595   -8.8206293    572.82786  0.010915997 0.0095630471            2 
 4374000   0.54964062   -8.8132662    572.45868  0.010906468 0.0095596686            2 
 4375000   0.55185481   -8.8112532    571.77719  0.010890994 0.0095562918            2 
 4376000   0.54458065   -8.8260222    572.07268  0.010894132 0.0095529107            3 
 4377000   0.53287887   -8.8002386    571.57787  0.010882223 0.0095495381            4 
 4378000   0.55810523   -8.8281131    570.64652  0.010862009 0.0095461636            2 
 4379000   0.56277797   -8.8087823    572.16719  0.010888468 0.0095427917            2 
 4380000   0.55472251   -8.8131311    571.24216  0.010868382 0.0095394231            2 
 4381000   0.54962496   -8.8149516    572.61691  0.010892051 0.0095360534            2 
 4382000   0.54993569   -8.8266419    571.83593  0.010874713 0.0095326895            2 
 4383000   0.54924757   -8.8222499    572.00411   0.01087543 0.0095293238            8 
 4384000   0.54657834   -8.8072512     571.8121  0.010869299  0.009525964            2 
 4385000   0.55406902   -8.8243375    572.28305  0.010875771 0.0095225985            3 
 4386000   0.55760461   -8.8349216    570.94116  0.010847795 0.0095192322            4 
 4387000   0.55302192   -8.8150547     571.7024  0.010859783 0.0095158747            4 
 4388000   0.54171265   -8.8054055     570.2279  0.010829305 0.0095125192            1 
 4389000   0.54340091   -8.8198846     570.9125  0.010839836 0.0095091622            1 
 4390000   0.55374551   -8.8186934    571.27737  0.010844293 0.0095058039            4 
 4391000   0.55696983   -8.8108673    571.22431  0.010840817 0.0095024516            1 
 4392000   0.54498721   -8.8100279    571.79616  0.010849199 0.0094991019            2 
 4393000   0.54903562   -8.8274227    571.52156   0.01084152 0.0094957511            1 
 4394000   0.54714295   -8.8239835    572.26434  0.010853139 0.0094923995            2 
 4395000   0.55214848   -8.8284096    570.98872  0.010826483 0.0094890506            5 
 4396000   0.54708085   -8.8060542     571.2157  0.010828323 0.0094857074            2 
 4397000   0.54106026   -8.8296757    571.43144  0.010829949 0.0094823599            2 
 4398000   0.54402844    -8.810559    572.38517  0.010845558 0.0094790143            2 
 4399000   0.56126816   -8.8052078    571.70124  0.010830136 0.0094756712            3 
 4400000   0.54704785   -8.8187735    572.06782  0.010834618 0.0094723337            2 
 4401000   0.53563587   -8.8069765    572.31195  0.010836779 0.0094689934            2 
 4402000   0.53399749   -8.8170568    571.54308  0.010819761 0.0094656549            4 
 4403000   0.54749045   -8.8134103    571.85319  0.010823173 0.0094623196            2 
 4404000   0.54202844   -8.8042909    570.36015  0.010792464 0.0094589869            3 
 4405000   0.53838775   -8.8324316    571.19008  0.010805715 0.0094556558            2 
 4406000   0.54757023   -8.8313748    571.47726  0.010808694 0.0094523223            2 
 4407000   0.54019332   -8.8295848    572.67909  0.010828967 0.0094489901            1 
 4408000   0.55286205   -8.8210662    571.80806  0.010810043 0.0094456606            1 
 4409000   0.53443321   -8.8266439    570.93056  0.010791006 0.0094423332            2 
 4410000   0.53462314   -8.8049544    571.63215  0.010801817 0.0094390035            3 
 4411000   0.54867283   -8.8082159    571.67723   0.01080022 0.0094356769            5 
 4412000   0.53771453   -8.8121524    572.14712  0.010806647  0.009432355            2 
 4413000   0.54112962   -8.8257504    571.37404    0.0107896 0.0094290329            4 
 4414000   0.54401427   -8.8233782     571.4573  0.010788727 0.0094257153            4 
 4415000   0.54374444   -8.8157637    570.29337  0.010764314 0.0094223982            2 
 4416000   0.54986298   -8.8178881    571.25962  0.010780111  0.009419079            4 
 4417000   0.54878138   -8.8183345    572.48669  0.010800821 0.0094157648            3 
 4418000   0.53843593    -8.810585    571.49888  0.010779743 0.0094124507            8 
 4419000   0.54258787   -8.8258971    570.30706  0.010754829 0.0094091404            2 
 4420000   0.55695909   -8.8154446    570.38751  0.010753912 0.0094058267            5 
 4421000   0.55048187   -8.8212349    571.33238   0.01076929  0.009402517            1 
 4422000   0.53969077   -8.8299753    571.02895  0.010761137 0.0093992085            3 
 4423000   0.54461072   -8.8253856    571.34497  0.010764658 0.0093959012            3 
 4424000   0.53643166   -8.8333373    572.17727  0.010777902 0.0093925934            3 
 4425000   0.54569117   -8.8194424    571.07849  0.010754774 0.0093892908            5 
 4426000   0.54905058   -8.8233151    571.28495  0.010756231 0.0093859853            3 
 4427000   0.54016971   -8.8151382     571.6217   0.01076014 0.0093826804            3 
 4428000   0.53685451   -8.8254114     570.9382  0.010744847 0.0093793799            4 
 4429000   0.54615994   -8.8288641    571.76939   0.01075806 0.0093760789            2 
 4430000   0.54942503   -8.8293258    571.60156  0.010752475 0.0093727789            4 
 4431000   0.55145738   -8.8401006    571.48577  0.010747871 0.0093694813            3 
 4432000   0.54705208   -8.8371136    571.90678  0.010753361 0.0093661852            2 
 4433000   0.53663519   -8.8239859    571.03899  0.010734623 0.0093628869            2 
 4434000    0.5427827   -8.8120246    572.18981   0.01075383 0.0093595969            2 
 4435000   0.55199618   -8.8342244    572.10359  0.010749786 0.0093563077            2 
 4436000   0.54750106   -8.8310421    571.54747  0.010736915 0.0093530145            2 
 4437000   0.55224423    -8.847248    572.18528  0.010746474 0.0093497242            4 
 4438000   0.53443464   -8.8246058    571.47967  0.010730803 0.0093464333            2 
 4439000   0.54002851   -8.8288307    572.20019  0.010741912 0.0093431468            3 
 4440000   0.54353187   -8.8212308     571.5006  0.010726363 0.0093398628            1 
 4441000   0.53309263   -8.8321349    571.46172  0.010723218 0.0093365771            2 
 4442000   0.53597525   -8.8221467    571.06687  0.010713396 0.0093332953            4 
 4443000   0.54301406   -8.8278676    571.55604   0.01072016 0.0093300138            3 
 4444000   0.53496738   -8.8351683    571.27438  0.010712466 0.0093267356            3 
 4445000   0.54395713   -8.8244383    570.88929  0.010702836 0.0093234573            4 
 4446000   0.55652321   -8.8297252    571.94385  0.010720195 0.0093201834            1 
 4447000   0.54739983   -8.8328283    570.07154  0.010682699 0.0093169092            2 
 4448000   0.54213667   -8.8220581    570.63708  0.010690892 0.0093136355            5 
 4449000   0.53550396    -8.814718    572.28171  0.010719295 0.0093103642            3 
 4450000   0.54237499   -8.8296746    571.41919  0.010700734 0.0093070936            3 
 4451000   0.53871089   -8.8285774    570.91149  0.010688824 0.0093038253            1 
 4452000   0.54660052   -8.8220136    571.53828  0.010698156 0.0093005583            2 
 4453000   0.53218057   -8.8387013    570.51475  0.010676599 0.0092972929            3 
 4454000   0.54094841   -8.8411751    570.89745  0.010681362 0.0092940294            2 
 4455000   0.54039706   -8.8255661    571.22751  0.010685139 0.0092907637            5 
 4456000   0.53163292   -8.8219341    570.90691  0.010676745 0.0092875048            2 
 4457000    0.5374606   -8.8263732    571.52357  0.010685879 0.0092842441            1 
 4458000   0.54299938   -8.8285472     571.8058  0.010688758 0.0092809871            2 
 4459000   0.52871084   -8.8324041    571.76067  0.010685517 0.0092777312            3 
 4460000   0.54547901    -8.851605    570.24573  0.010654816 0.0092744742            3 
 4461000   0.52211678   -8.8441551    571.28848  0.010671906 0.0092712175            3 
 4462000    0.5444639   -8.8289602    572.25683    0.0106876 0.0092679625            4 
 4463000   0.54167215   -8.8236733    570.79587  0.010657926 0.0092647086            4 
 4464000   0.53995168   -8.8499283    570.09095  0.010642379 0.0092614555            2 
 4465000   0.54440467   -8.8334588    571.72094  0.010670417 0.0092582064            5 
 4466000   0.54260437   -8.8316465     571.3266   0.01066067  0.009254957            4 
 4467000   0.53300982   -8.8263843    570.97123  0.010651653 0.0092517095            4 
 4468000   0.53089537   -8.8371111    570.77142  0.010645543 0.0092484652            2 
 4469000   0.54940316   -8.8370915    570.32697  0.010634873 0.0092452187            3 
 4470000   0.52984554   -8.8472208    571.17081  0.010648225 0.0092419773            4 
 4471000   0.54560002   -8.8301995    571.60919  0.010654015  0.009238735            2 
 4472000   0.53561636    -8.846739    571.33397  0.010646504 0.0092354928            3 
 4473000   0.53668807     -8.82972    570.70829  0.010632467 0.0092322527            3 
 4474000   0.54222652    -8.829502    571.08897  0.010637181 0.0092290141            2 
 4475000   0.53577726   -8.8498079    570.67102  0.010627021 0.0092257766            1 
 4476000   0.54180545   -8.8258862    570.72082  0.010625574 0.0092225423            4 
 4477000   0.53612516   -8.8319556    570.65381  0.010621953 0.0092193042            3 
 4478000   0.51835785   -8.8449426    570.81482  0.010622577 0.0092160704            2 
 4479000   0.53837725    -8.852262    571.36774  0.010630493 0.0092128342            1 
 4480000   0.53891454   -8.8509398    571.86825   0.01063743 0.0092096041            2 
 4481000   0.53401871   -8.8200116    570.81386  0.010615448 0.0092063748            2 
 4482000   0.53004313   -8.8484382    572.07953  0.010636612 0.0092031496            4 
 4483000   0.53285402   -8.8242665    570.36698  0.010602405 0.0091999289            2 
 4484000   0.52743527   -8.8252141    570.78074   0.01060773 0.0091967043            3 
 4485000   0.53416848   -8.8432125    571.21814  0.010613492 0.0091934802            3 
 4486000   0.53034733   -8.8344482    571.71528  0.010620361 0.0091902578            4 
 4487000   0.52694554   -8.8413521    571.07756   0.01060615 0.0091870374            2 
 4488000   0.53783008   -8.8184599    570.13618  0.010586308 0.0091838212            2 
 4489000   0.53111454   -8.8447025    569.89934  0.010579553 0.0091806046            3 
 4490000   0.53151413   -8.8432833    570.45523  0.010587514 0.0091773891            3 
 4491000   0.53656608    -8.846183    571.10728  0.010597255 0.0091741759            2 
 4492000   0.53794639   -8.8392277    570.06046  0.010575476  0.009170961            2 
 4493000    0.5326435   -8.8482238    569.61945  0.010564943 0.0091677497            2 
 4494000    0.5251053   -8.8396111    571.06345  0.010589368 0.0091645347            1 
 4495000   0.52169674   -8.8234925    571.21572  0.010589835 0.0091613237            2 
 4496000   0.53043222   -8.8588513    571.25924  0.010588287 0.0091581137            4 
 4497000   0.51829703   -8.8506123    570.94852  0.010580174  0.009154905            2 
 4498000   0.53397107   -8.8387999    570.29373  0.010565691 0.0091517003            3 
 4499000   0.51828475   -8.8419582     570.0641  0.010559089  0.009148494            2 
 4500000   0.54687573   -8.8411692    569.96571  0.010554921  0.009145291            3 
 4501000   0.53437838    -8.844556    570.90151  0.010569901  0.009142088            1 
 4502000   0.53910251   -8.8636802    571.16706  0.010572469 0.0091388865            2 
 4503000   0.52678887   -8.8488081    570.82187  0.010563733 0.0091356865            4 
 4504000   0.54767437   -8.8446302     571.0747  0.010566065 0.0091324891            2 
 4505000   0.52317248   -8.8228898    570.38856  0.010551028  0.009129293            3 
 4506000   0.53806978   -8.8574461    570.45475   0.01054991 0.0091261011            2 
 4507000   0.53213753   -8.8645005    571.04456  0.010558475 0.0091229084            2 
 4508000   0.53723307    -8.840736    569.29701  0.010523828 0.0091197163            2 
 4509000    0.5400996   -8.8360956    571.00187  0.010553003 0.0091165249            3 
 4510000   0.54000301   -8.8642169      569.786  0.010528197 0.0091133341            2 
 4511000   0.53584007   -8.8459622     570.7541  0.010543747 0.0091101493            2 
 4512000   0.52789074   -8.8624455    569.97694  0.010527056 0.0091069633            5 
 4513000   0.51512349   -8.8401774    570.90187  0.010541803 0.0091037763            2 
 4514000   0.53265275   -8.8443559    571.08598  0.010542866 0.0091005925            3 
 4515000   0.52613889    -8.835111    570.90399  0.010537172 0.0090974079            2 
 4516000   0.52483291   -8.8498234    570.36391  0.010524873 0.0090942259            5 
 4517000   0.52292121   -8.8513945    569.68848  0.010510082 0.0090910461            2 
 4518000   0.52406728   -8.8532897    569.75017  0.010508894 0.0090878667            3 
 4519000    0.5308442   -8.8556141    570.23461  0.010515501 0.0090846879            3 
 4520000   0.53167606   -8.8442513     570.5683  0.010519327 0.0090815169            2 
 4521000   0.53977334   -8.8406847    570.47828  0.010515341 0.0090783417            2 
 4522000   0.51455132   -8.8553723     570.8718  0.010520268   0.00907517            3 
 4523000    0.5277052   -8.8349296    570.07778  0.010503312 0.0090719964            2 
 4524000   0.50953893   -8.8506977     570.0618  0.010500696 0.0090688273            2 
 4525000   0.53863847   -8.8411659     571.5315  0.010525442 0.0090656604            3 
 4526000   0.53407758   -8.8605154    570.14847  0.010497652 0.0090624951            4 
 4527000   0.52272749   -8.8413345    570.40775  0.010500106 0.0090593284            5 
 4528000   0.52576387   -8.8484314    571.18373  0.010512068 0.0090561635            2 
 4529000   0.53333991   -8.8472984    571.30505  0.010511979 0.0090529997            3 
 4530000   0.52512734    -8.861292    570.30965  0.010491348 0.0090498368            7 
 4531000   0.52787935   -8.8370461    570.41021  0.010490882  0.009046674            4 
 4532000   0.52861305   -8.8393257    569.81441  0.010477611 0.0090435142            1 
 4533000   0.54073429   -8.8525376    570.06013  0.010479817 0.0090403563            4 
 4534000   0.52928209   -8.8519367    570.59576   0.01048735 0.0090371981            4 
 4535000   0.52210327   -8.8698059    571.05282  0.010493437 0.0090340398            4 
 4536000   0.52941761   -8.8536873    570.34832  0.010478181 0.0090308873            2 
 4537000   0.51505717   -8.8580649    571.08774  0.010489452  0.009027732            2 
 4538000   0.53083959   -8.8637084    569.95665   0.01046637 0.0090245856            4 
 4539000   0.51904051   -8.8650076    569.89735  0.010462976 0.0090214357            3 
 4540000   0.52318874   -8.8460458    570.71774  0.010475729 0.0090182868            3 
 4541000   0.51798218   -8.8493227    570.81793  0.010475261 0.0090151396            4 
 4542000   0.51567838   -8.8548056    570.32171  0.010463851 0.0090119985            3 
 4543000   0.52492627   -8.8715085    570.45701  0.010464029  0.009008857            2 
 4544000   0.52173936   -8.8437516    569.82632   0.01045016 0.0090057152            1 
 4545000   0.51716694   -8.8549125    569.50492  0.010441968 0.0090025742            4 
 4546000   0.54127556   -8.8571485    569.99552  0.010448664 0.0089994327            2 
 4547000   0.52064891   -8.8614703    570.29852  0.010451919 0.0089962951            3 
 4548000   0.52116474   -8.8513972    571.11955  0.010464665 0.0089931605            2 
 4549000   0.52531246   -8.8508417    571.65168  0.010472112  0.008990026            3 
 4550000   0.52475668   -8.8527833    570.36072  0.010446167 0.0089868948            4 
 4551000   0.52363232   -8.8612562    571.40211  0.010462941 0.0089837659            3 
 4552000   0.52599815   -8.8570907    570.74175  0.010448553  0.008980633            5 
 4553000   0.52134103   -8.8501659     569.2981  0.010419835 0.0089775012            3 
 4554000   0.52285968   -8.8646919    570.87127  0.010446334 0.0089743727            4 
 4555000   0.52753829   -8.8601654    570.05351   0.01042908 0.0089712441            2 
 4556000   0.52394735   -8.8612259    569.96061  0.010425092 0.0089681183            3 
 4557000   0.53183476   -8.8653218    570.89756  0.010439938 0.0089649989            3 
 4558000   0.52725482   -8.8534169    570.31724  0.010427037  0.008961877            4 
 4559000   0.52290458   -8.8450766    570.38788  0.010426042 0.0089587584            3 
 4560000   0.51591859   -8.8552176     570.7431  0.010430247 0.0089556398            2 
 4561000   0.52479162   -8.8543953    570.34712  0.010420725 0.0089525249            5 
 4562000    0.5192159   -8.8549042    570.44417  0.010420214 0.0089494092            3 
 4563000   0.52041027   -8.8696404    571.20126  0.010431757 0.0089462941            2 
 4564000   0.52580381   -8.8650962    571.17088  0.010428916 0.0089431815            3 
 4565000   0.51804759   -8.8694265    569.70184  0.010399814 0.0089400666            4 
 4566000   0.51826838   -8.8432034    571.16551   0.01042425 0.0089369561            3 
 4567000   0.50631071   -8.8766665     570.0149  0.010400973 0.0089338464            2 
 4568000   0.52866161   -8.8561554     570.1043  0.010400327 0.0089307398            2 
 4569000   0.51642828   -8.8617883     570.3769  0.010403022 0.0089276347            2 
 4570000   0.51289984   -8.8659609    569.66944  0.010387845 0.0089245296            3 
 4571000   0.51903735   -8.8645007     569.2456  0.010377846 0.0089214274            3 
 4572000   0.51318388   -8.8789661    569.61716  0.010382348  0.008918324            2 
 4573000   0.52437973   -8.8656312    570.93716  0.010404132 0.0089152225            1 
 4574000   0.52224913   -8.8576965    570.41921  0.010392421 0.0089121263            1 
 4575000   0.52198785   -8.8636847    570.13337  0.010384943 0.0089090277            2 
 4576000   0.52740151   -8.8522626    570.80838  0.010394966 0.0089059342            3 
 4577000   0.51679784   -8.8623752    570.02208  0.010378379 0.0089028421            2 
 4578000   0.52716688    -8.837263    570.35305  0.010382136 0.0088997513            3 
 4579000   0.52106372   -8.8664434    570.34251  0.010379677 0.0088966604            2 
 4580000   0.51904979   -8.8607135     569.9547  0.010370355 0.0088935722            3 
 4581000   0.51526143   -8.8663219    570.87666  0.010384863 0.0088904846            4 
 4582000   0.52946436   -8.8525884    570.36988  0.010373379 0.0088873967            2 
 4583000    0.5281835   -8.8640285    571.24242  0.010386981 0.0088843113            1 
 4584000   0.50078237   -8.8515946    569.69298  0.010356548 0.0088812256            3 
 4585000   0.50712645   -8.8691378    571.03442   0.01037867   0.00887814            3 
 4586000   0.51688801   -8.8807283    569.97923  0.010357233 0.0088750557            2 
 4587000    0.5165227   -8.8785301    570.17862  0.010358597  0.008871973            5 
 4588000   0.53148466   -8.8667105    570.17626  0.010356296  0.008868892            1 
 4589000   0.52069077   -8.8581703    570.32449  0.010356731  0.008865814            1 
 4590000   0.51876083    -8.860794    571.12774  0.010369059 0.0088627348            2 
 4591000   0.52495323   -8.8688826    569.90987  0.010344694 0.0088596588            2 
 4592000   0.51226733    -8.842213     570.6778  0.010356377 0.0088565877            5 
 4593000   0.51416508   -8.8656064    569.75586  0.010337395 0.0088535177            2 
 4594000   0.51449474   -8.8866061    569.47512  0.010330052 0.0088504467            1 
 4595000   0.51092116    -8.875219    570.20072  0.010340963  0.008847376            4 
 4596000   0.52620582   -8.8752358    569.85311  0.010332411  0.008844306            3 
 4597000   0.52086615   -8.8420052    570.57478  0.010343245 0.0088412372            4 
 4598000   0.51275797   -8.8679669    569.82938  0.010327486 0.0088381726            2 
 4599000   0.51700025   -8.8670637    570.19654  0.010331894 0.0088351036            4 
 4600000   0.50428244   -8.8908443    569.77069  0.010321933  0.008832039            3 
 4601000   0.52344026   -8.8779123    569.76091  0.010319512 0.0088289743            3 
 4602000   0.50132272   -8.8664318    570.56874  0.010331898 0.0088259136            4 
 4603000   0.51861734   -8.8767285    569.28746  0.010306457 0.0088228513            2 
 4604000   0.52447813   -8.8764239    569.95624  0.010316324 0.0088197925            3 
 4605000   0.52446269   -8.8943367    570.59836  0.010325703 0.0088167367            5 
 4606000   0.51556963   -8.8731326    569.58646  0.010305154 0.0088136795            2 
 4607000   0.51393942   -8.8568049     569.9555  0.010309592 0.0088106247            3 
 4608000   0.50868901   -8.8774324    570.55048  0.010318115 0.0088075701            3 
 4609000   0.50077699   -8.8821845    570.94581  0.010323024 0.0088045184            2 
 4610000   0.51889325   -8.8759219    571.34785  0.010328052 0.0088014674            4 
 4611000   0.51429212   -8.8712678    569.45968  0.010291688 0.0087984141            2 
 4612000   0.51884927   -8.8857919    569.22655  0.010285244 0.0087953633            2 
 4613000   0.51473001   -8.8628774    570.10604  0.010298902  0.008792316            6 
 4614000    0.5200782   -8.8671425    570.35058  0.010301087 0.0087892693            2 
 4615000   0.51582238   -8.8646276    569.47616  0.010283065 0.0087862207            5 
 4616000   0.52061761   -8.8737714    569.68751  0.010284653 0.0087831757            2 
 4617000   0.51855279   -8.8902768    570.12871  0.010290389  0.008780135            2 
 4618000   0.51571622   -8.8733125    570.42653  0.010293535 0.0087770946            3 
 4619000   0.51187838   -8.8688002    569.87308  0.010281321 0.0087740536            2 
 4620000   0.51687795   -8.8610785    570.70457  0.010294094 0.0087710149            4 
 4621000   0.51906039   -8.8977767    569.41146  0.010268547 0.0087679766            6 
 4622000   0.52755733   -8.8724695    571.10378  0.010296837 0.0087649417            2 
 4623000   0.50995374   -8.8925565    569.96632  0.010274106 0.0087619081            2 
 4624000     0.518707   -8.8831535    570.45603   0.01028071 0.0087588756            3 
 4625000   0.52255914   -8.8646717    569.75055  0.010265776 0.0087558428            2 
 4626000   0.51560403   -8.8839746    570.72694  0.010281145  0.008752813            4 
 4627000   0.50858635   -8.8894537    570.08821   0.01026742 0.0087497846            3 
 4628000   0.51845055    -8.873483    570.22424   0.01026765 0.0087467566            3 
 4629000   0.50636529   -8.8874591     569.8623  0.010258917 0.0087437291            3 
 4630000   0.51931088    -8.892174    569.61111   0.01025218 0.0087407039            4 
 4631000   0.51610754   -8.8820287    568.74854  0.010234444 0.0087376828            2 
 4632000   0.51519912   -8.8841851    569.74006  0.010250073 0.0087346587            1 
 4633000   0.50503809   -8.8823877    569.49574  0.010243466 0.0087316349            2 
 4634000   0.50924328   -8.8739258    570.97272  0.010267816 0.0087286167            3 
 4635000   0.51566733    -8.887139    569.55626  0.010240134 0.0087255978            3 
 4636000   0.50656113   -8.8704949    570.10252  0.010247744 0.0087225818            1 
 4637000   0.51214529   -8.8913784    569.95975  0.010242969  0.008719567            7 
 4638000   0.51069022   -8.8788405    569.91421  0.010239942  0.008716552            3 
 4639000   0.51044737   -8.8773699    569.07776  0.010222709 0.0087135371            2 
 4640000   0.51077088   -8.8798262    569.77056  0.010232948 0.0087105195            4 
 4641000   0.50205653   -8.8845001    569.54567  0.010226705 0.0087075053            6 
 4642000   0.49695069   -8.8827707    570.15409  0.010235425 0.0087044933            2 
 4643000   0.50818414   -8.8928084    569.69598  0.010224998 0.0087014834            4 
 4644000   0.50645098   -8.8887713     570.3862  0.010235182 0.0086984746            4 
 4645000   0.50550002   -8.8855598    569.59951  0.010218865 0.0086954672            6 
 4646000   0.50674923   -8.8760177    569.71611  0.010218756 0.0086924609            3 
 4647000   0.51143857   -8.8704939    569.42717  0.010211376 0.0086894566            2 
 4648000   0.50573487   -8.8699797    568.85847  0.010198983 0.0086864563            2 
 4649000   0.50935842   -8.8813931    569.45092  0.010207409 0.0086834512            4 
 4650000   0.50432587    -8.888035    570.18185  0.010218313 0.0086804496            3 
 4651000   0.48878806   -8.8853923      569.534  0.010204508  0.008677447            4 
 4652000   0.50974991   -8.8953386    569.80065  0.010207091 0.0086744494            3 
 4653000   0.50999582   -8.8765944    569.86132  0.010205984 0.0086714526            4 
 4654000   0.49165616   -8.8925742    569.48973  0.010197137 0.0086684535            3 
 4655000   0.50789829   -8.8877951     570.7268  0.010217093 0.0086654591            3 
 4656000   0.50752345   -8.9047421    569.09022  0.010185607 0.0086624649            3 
 4657000   0.51072093   -8.8980279    569.14445   0.01018439 0.0086594718            3 
 4658000   0.50501665   -8.8988716    570.36502   0.01020404 0.0086564817            4 
 4659000   0.50647945   -8.8931039    569.56189  0.010187485 0.0086534936            3 
 4660000    0.5026987   -8.9034078    569.40633  0.010182517 0.0086505048            3 
 4661000   0.50096603   -8.8923199    570.43266  0.010198682 0.0086475208            1 
 4662000   0.50802518   -8.8712144    569.28947  0.010176059 0.0086445351            2 
 4663000   0.50854628   -8.8793362    569.59698  0.010179373 0.0086415499            2 
 4664000   0.50027144   -8.8918209    569.39575  0.010173595 0.0086385672            3 
 4665000   0.50752405   -8.9033431    569.49284  0.010173148 0.0086355876            4 
 4666000   0.49489458   -8.8868415    568.66804  0.010156237 0.0086326077            3 
 4667000   0.50923955   -8.8940147    569.51096  0.010169112  0.008629629            6 
 4668000   0.50534847   -8.8971542    570.51725  0.010184898 0.0086266524            2 
 4669000   0.50869849   -8.8745704    569.61123  0.010166546 0.0086236764            4 
 4670000    0.5067117   -8.8916669    570.51702  0.010180532 0.0086207002            2 
 4671000    0.5006997    -8.881015    569.20887  0.010155014 0.0086177271            7 
 4672000   0.49890569   -8.8902728    569.73094  0.010162153 0.0086147543            8 
 4673000   0.50487529   -8.8864683    569.75686  0.010160441 0.0086117831            3 
 4674000   0.49364914   -8.8891698    568.74323  0.010140194 0.0086088141            2 
 4675000   0.50103057   -8.8613936    569.84291  0.010157628 0.0086058471            2 
 4676000   0.50779699    -8.899239    569.56152  0.010150441 0.0086028838            2 
 4677000   0.51184707   -8.8926347     568.2184  0.010124339 0.0085999184            2 
 4678000   0.49905369   -8.8892134    569.45501  0.010144204  0.008596956            4 
 4679000   0.50870823    -8.890673    569.76219  0.010147506  0.008593996            3 
 4680000   0.50858789   -8.8899729    569.66928  0.010143684 0.0085910336            1 
 4681000   0.50320265   -8.8873913    569.47302  0.010138023 0.0085880755            2 
 4682000   0.50708191   -8.8985124    569.78286  0.010141372 0.0085851188            4 
 4683000   0.48833609   -8.8904389    569.84152  0.010140251  0.008582162            1 
 4684000   0.51650905   -8.8980542    569.86869  0.010138569 0.0085792054            2 
 4685000   0.49733314   -8.8913384    570.12147  0.010140901 0.0085762513            4 
 4686000   0.49797863   -8.8894268    569.88415  0.010134517  0.008573303            2 
 4687000   0.50184486   -8.8974843    568.85484  0.010114054 0.0085703508            2 
 4688000    0.4918666    -8.881834    568.73705  0.010109803 0.0085673986            5 
 4689000   0.49781074     -8.89883    568.94878  0.010111409 0.0085644478            3 
 4690000   0.49636975   -8.8875659    569.73967  0.010123306    0.0085615            4 
 4691000   0.49785051   -8.9000078    569.62424  0.010119098 0.0085585548            3 
 4692000   0.50624591   -8.8805068    568.82232  0.010102698 0.0085556064            2 
 4693000   0.49969174   -8.9107949    569.40329  0.010110862 0.0085526614            1 
 4694000   0.50164267   -8.9023825    569.10146  0.010103349 0.0085497158            4 
 4695000   0.51067183   -8.9173553    568.97059  0.010098875 0.0085467695            4 
 4696000    0.5029802   -8.8902301    569.97145  0.010114485 0.0085438278            2 
 4697000   0.50530357   -8.8811126    569.91765  0.010111377 0.0085408874            2 
 4698000   0.49317325   -8.8924259    569.03664  0.010093597 0.0085379502            2 
 4699000   0.50307636   -8.9038968    570.00722  0.010108662 0.0085350145            2 
 4700000   0.49299313    -8.894908    569.99252   0.01010625  0.008532077            7 
 4701000   0.49599604   -8.9048786    569.66161  0.010098235  0.008529144            2 
 4702000   0.50584658   -8.9119192    569.41706  0.010091753 0.0085262103            2 
 4703000   0.48938109   -8.9012938    570.02818  0.010100436 0.0085232753            3 
 4704000   0.50620508    -8.891015    568.38642  0.010069204 0.0085203436            3 
 4705000   0.50147916   -8.9103516    569.69477  0.010090237 0.0085174158            1 
 4706000   0.49699829   -8.8876015    568.91354  0.010074259  0.008514486            2 
 4707000   0.49736731   -8.8982251    568.31377    0.0100615  0.008511559            2 
 4708000   0.49449646   -8.8910431    569.68066  0.010083557 0.0085086308            2 
 4709000   0.51255767    -8.906225    569.83345   0.01008412 0.0085057067            6 
 4710000   0.49902064   -8.9004465    569.01522  0.010067502  0.008502783            1 
 4711000   0.49343326   -8.9149784    569.02496  0.010065537  0.008499859            3 
 4712000   0.49576175   -8.9097078    568.72572  0.010058109 0.0084969363            5 
 4713000    0.4930492   -8.8992219    569.06398  0.010061956 0.0084940171            2 
 4714000   0.49798351   -8.9000042    569.11182  0.010060667  0.008491098            1 
 4715000    0.4993644   -8.9027917    568.21545  0.010042691 0.0084881783            1 
 4716000   0.49603618   -8.8896323    568.81904  0.010051227   0.00848526            2 
 4717000   0.50156533   -8.9122376    568.63747  0.010045889 0.0084823451            1 
 4718000   0.49375911   -8.9011928    569.02015  0.010050518 0.0084794322            2 
 4719000   0.49077916   -8.8903577    568.45588  0.010038424 0.0084765174            2 
 4720000   0.49592592   -8.9110774    570.35496  0.010069826 0.0084736058            1 
 4721000   0.49732703   -8.8955233    568.90304  0.010042064 0.0084706975            2 
 4722000    0.4960085   -8.9004319    569.22977  0.010045704 0.0084677888            7 
 4723000   0.49283631   -8.9254639    569.22777  0.010043542 0.0084648801            2 
 4724000   0.50442369   -8.9048557    568.95016  0.010036519 0.0084619721            3 
 4725000   0.49679768   -8.9130791    569.97382  0.010052448 0.0084590671            4 
 4726000   0.50663897   -8.8990887    569.05094  0.010034048 0.0084561647            3 
 4727000   0.49015168   -8.9091688    570.03399  0.010049256 0.0084532635            3 
 4728000   0.49211267   -8.9060751    569.31106  0.010034388 0.0084503623            4 
 4729000   0.48489257     -8.90674    569.01041  0.010026969 0.0084474619            5 
 4730000   0.49472112   -8.9000005    568.73239   0.01001995 0.0084445644            3 
 4731000   0.48740514   -8.9087031    569.18156  0.010025744 0.0084416677            2 
 4732000   0.49134387    -8.889752    568.98315  0.010020132 0.0084387689            3 
 4733000   0.49978336   -8.9010037    569.00602  0.010018417 0.0084358714            4 
 4734000   0.49516213   -8.8888278    569.14509  0.010018749 0.0084329788            3 
 4735000   0.48433579   -8.8924605    569.77183  0.010027663 0.0084300884            4 
 4736000   0.49907297   -8.9151365    569.35872  0.010018277 0.0084271981            1 
 4737000   0.49313612    -8.911821    568.60283  0.010002864 0.0084243106            3 
 4738000    0.4862085   -8.9233822    568.77051  0.010003703  0.008421421            2 
 4739000   0.48923597   -8.9131178     568.2204 0.0099919181 0.0084185323            2 
 4740000   0.48543727   -8.8959972    569.82156   0.01001796 0.0084156418            2 
 4741000   0.49643721   -8.9145865    568.72212 0.0099965218 0.0084127588            5 
 4742000   0.49792761   -8.9041823    569.14845  0.010001906 0.0084098728            3 
 4743000   0.49226535   -8.9164869    568.74452 0.0099927001 0.0084069896            4 
 4744000   0.48878684   -8.9125021    568.53277 0.0099868741 0.0084041078            2 
 4745000   0.49565133   -8.9050718    570.04011  0.010011242 0.0084012296            1 
 4746000   0.49280087   -8.9061727    567.99767   0.00997327 0.0083983504            3 
 4747000   0.48887827   -8.9035464    569.17359 0.0099918123 0.0083954711            5 
 4748000   0.48857109   -8.9217454    569.13064 0.0099889539 0.0083925946            2 
 4749000   0.50110951   -8.9053728    568.52972  0.009976306 0.0083897191            2 
 4750000   0.48728777   -8.9116865    568.62215 0.0099758272 0.0083868467            3 
 4751000   0.50098842   -8.9000762    568.54484 0.0099723715 0.0083839742            3 
 4752000   0.48802091   -8.9104443    569.64805 0.0099896194 0.0083811051            2 
 4753000   0.48663688   -8.9079669    568.48814 0.0099671811  0.008378234            3 
 4754000   0.48064847   -8.9182885    567.68138 0.0099509427 0.0083753631            1 
 4755000   0.49253846   -8.8833345    568.91314 0.0099704372 0.0083724966            2 
 4756000   0.49456547   -8.9163013    569.15074 0.0099725039 0.0083696312            3 
 4757000   0.49687113   -8.9075084    568.95311 0.0099669454  0.008366767            3 
 4758000   0.48708503   -8.9107135    568.57354 0.0099582027 0.0083639015            3 
 4759000   0.49136853   -8.9064881    569.67918 0.0099754707 0.0083610396            2 
 4760000   0.48941587   -8.9189416     569.0213 0.0099618575 0.0083581781            2 
 4761000   0.49701303   -8.9219211    568.94588  0.009958445 0.0083553177            4 
 4762000   0.48143126   -8.9189648    568.30376 0.0099451169 0.0083524571            4 
 4763000    0.4862862   -8.9234154      568.285 0.0099427007 0.0083495991            3 
 4764000   0.48027408   -8.9093377      569.401 0.0099601351 0.0083467435            3 
 4765000   0.48986088   -8.9197268    568.83584 0.0099481609 0.0083438908            1 
 4766000   0.48214767   -8.9117708    568.39743 0.0099384079 0.0083410354            3 
 4767000   0.49430938   -8.9276628    567.64371 0.0099231472 0.0083381815            1 
 4768000   0.49233483   -8.9239304    569.07919 0.0099461547 0.0083353269            1 
 4769000   0.49627689   -8.9024304    569.33174 0.0099484821 0.0083324775            3 
 4770000   0.48169053   -8.9269526    569.30399 0.0099459117  0.008329627            1 
 4771000   0.49144784   -8.9227916    568.92299 0.0099371724 0.0083267777            2 
 4772000   0.49470825   -8.9173786    568.82404 0.0099333619   0.00832393            2 
 4773000   0.48361607   -8.9126602    568.63461 0.0099279736 0.0083210848            3 
 4774000   0.48833227   -8.9219377    568.60695 0.0099254111 0.0083182409            3 
 4775000    0.5049598   -8.9141181    568.59619 0.0099231446 0.0083153973            2 
 4776000   0.48220407   -8.9161551    568.22614 0.0099146102 0.0083125553            2 
 4777000   0.48302379   -8.9158603    569.35161 0.0099321682 0.0083097157            3 
 4778000   0.49239953   -8.9282871     568.8715 0.0099217158 0.0083068771            2 
 4779000   0.48561659   -8.9145482     569.0524 0.0099227942 0.0083040373            2 
 4780000   0.49577936   -8.9275679    567.98198 0.0099020568 0.0083012032            2 
 4781000   0.47976785   -8.9134865    569.45044 0.0099255811 0.0082983691            1 
 4782000   0.48137647   -8.9156803    568.62284 0.0099090833 0.0082955326            3 
 4783000   0.48610704   -8.9153317    569.60675 0.0099241541 0.0082926997            4 
 4784000   0.47962462   -8.9211144    569.48463 0.0099199525 0.0082898674            2 
 4785000   0.49164992   -8.9229835    569.20119 0.0099129431 0.0082870361            2 
 4786000   0.47874623   -8.9258351    568.73874 0.0099028197 0.0082842058            3 
 4787000   0.49264686   -8.9058968    568.70408 0.0099001476 0.0082813762            2 
 4788000   0.48375594   -8.9213164    568.36681 0.0098922099 0.0082785463            6 
 4789000   0.48645374   -8.9103893     568.7869 0.0098974542 0.0082757197            2 
 4790000   0.48066212   -8.9166004    568.27315   0.00988645 0.0082728925            3 
 4791000   0.49028386   -8.9342354    568.61392 0.0098903137 0.0082700689            2 
 4792000   0.47830014   -8.9140933    568.34103 0.0098835042 0.0082672462            3 
 4793000   0.48729599   -8.9106837    568.78381 0.0098891406 0.0082644251            2 
 4794000   0.47477532   -8.9197174    569.29986 0.0098960483 0.0082616042            2 
 4795000   0.48273652    -8.921309    568.91334  0.009887267 0.0082587845            3 
 4796000   0.48030338   -8.9205164    568.84962 0.0098840982 0.0082559669            1 
 4797000   0.49027054   -8.9112831     567.8458 0.0098645993 0.0082531478            2 
 4798000   0.48407932    -8.929537    568.69217 0.0098772435 0.0082503321            4 
 4799000   0.48005809   -8.9171977    568.58402 0.0098733072 0.0082475197            2 
 4800000    0.4788718   -8.9179625    568.43441 0.0098686529  0.008244709            2 
 4801000   0.49251292   -8.9190152     569.2735 0.0098811619 0.0082418965            2 
 4802000   0.48875926   -8.9277542    568.35716 0.0098632022 0.0082390851            2 
 4803000   0.48317444   -8.8961046    568.87989 0.0098702181 0.0082362742            3 
 4804000   0.48197807   -8.9355339    569.06666 0.0098714034 0.0082334671            2 
 4805000   0.48108513   -8.9247589    568.09981 0.0098525807 0.0082306619            2 
 4806000   0.47986052   -8.9215279    568.75043 0.0098618121 0.0082278571            2 
 4807000   0.48151191   -8.9180703    568.01436 0.0098470002 0.0082250528            3 
 4808000   0.48311517   -8.9177917    568.54661 0.0098541772 0.0082222489            3 
 4809000   0.48774745   -8.9061535    568.13129 0.0098449312  0.008219447            2 
 4810000   0.47935536   -8.9159178    569.33364 0.0098637153 0.0082166465            3 
 4811000    0.4753712   -8.9389042    569.31866 0.0098614055 0.0082138452            5 
 4812000   0.47851286   -8.9071808    569.34644 0.0098598372 0.0082110467            3 
 4813000   0.47323362    -8.937776    568.35628 0.0098406447 0.0082082472            2 
 4814000   0.48653578   -8.9196013    567.92052 0.0098310573 0.0082054511            2 
 4815000   0.48575257   -8.9409182    569.27779 0.0098525059 0.0082026557            3 
 4816000   0.47947993   -8.9589779    568.46364 0.0098363725 0.0081998623            2 
 4817000    0.4757738   -8.9117159    568.51597 0.0098352358 0.0081970697            2 
 4818000   0.47645811   -8.9209534    568.58877 0.0098344535 0.0081942783            2 
 4819000   0.48358729   -8.9298178    568.66063 0.0098336555 0.0081914886            3 
 4820000   0.48003328   -8.9218939    568.48122 0.0098285135 0.0081887018            2 
 4821000   0.47652293   -8.9326776     567.5957 0.0098111681 0.0081859113            2 
 4822000    0.4709127   -8.9361981    569.11968 0.0098354707 0.0081831263            2 
 4823000   0.47922192   -8.9274206    569.25022 0.0098356869 0.0081803424            2 
 4824000    0.4682788   -8.9361274    568.70326 0.0098241994 0.0081775581            3 
 4825000    0.4841796   -8.9389096    568.18301  0.009813178 0.0081747757            2 
 4826000   0.48037154   -8.9184456    567.95241 0.0098071628 0.0081719937            2 
 4827000   0.47391046   -8.9243596    567.51278 0.0097975413 0.0081692128            2 
 4828000   0.48189219   -8.9352603    568.87297 0.0098189894 0.0081664359            3 
 4829000   0.48010805   -8.9282473    567.70389 0.0097967814 0.0081636589            1 
 4830000   0.47112323   -8.9210234    568.67898 0.0098115766 0.0081608836            2 
 4831000   0.48289982   -8.9262254    568.61532 0.0098084475 0.0081581122            7 
 4832000   0.47741035   -8.9289666    568.70575 0.0098079773 0.0081553387            3 
 4833000   0.47284621   -8.9062874    568.89252 0.0098091682 0.0081525657            2 
 4834000     0.478231   -8.9330366    568.22917 0.0097957035 0.0081497962            4 
 4835000    0.4667664   -8.9126639    568.55054 0.0097992164 0.0081470255            3 
 4836000   0.47328455    -8.941858     569.0585 0.0098059432 0.0081442557            3 
 4837000   0.47485985   -8.9188382    568.19582 0.0097890535 0.0081414893            3 
 4838000   0.48095451   -8.9300346    568.91778 0.0097994657 0.0081387224            2 
 4839000   0.47079296    -8.933194    567.88692  0.009779688  0.008135958            2 
 4840000   0.48257095   -8.9250387    568.98342 0.0097965466  0.008133195            2 
 4841000   0.47464065   -8.9283405    568.56511  0.009787322 0.0081304331            2 
 4842000   0.47369486   -8.9432017    568.38459 0.0097821939 0.0081276728            2 
 4843000   0.46909819   -8.9275084    568.80861 0.0097874701 0.0081249137            2 
 4844000   0.48469907   -8.9347002    568.65598 0.0097828239 0.0081221524            2 
 4845000    0.4688161   -8.9100442    568.67314 0.0097810998 0.0081193929            3 
 4846000   0.47052714   -8.9264295    568.79851 0.0097812373 0.0081166362            2 
 4847000   0.47590264   -8.9242061    569.41427 0.0097898058 0.0081138796            2 
 4848000   0.47603575   -8.9320543    567.98945  0.009763295 0.0081111268            1 
 4849000   0.48057532    -8.952489    569.54017 0.0097879318 0.0081083766            2 
 4850000   0.47408986   -8.9256037     568.7803 0.0097728574 0.0081056235            4 
 4851000   0.47991979   -8.9427304    568.75302 0.0097703742 0.0081028738            3 
 4852000   0.47552058   -8.9359144    568.75774 0.0097684415  0.008100125            3 
 4853000   0.46675976   -8.9152129     568.5813 0.0097633989 0.0080973774            2 
 4854000   0.46363362   -8.9499368    568.96143 0.0097679136 0.0080946291            1 
 4855000   0.47304185   -8.9231773    568.44694 0.0097570707 0.0080918808            4 
 4856000   0.47400761   -8.9308076     568.4992 0.0097559582 0.0080891367            2 
 4857000   0.45955564     -8.94748    567.72419 0.0097406525 0.0080863935            2 
 4858000   0.47037023   -8.9386914    568.46392 0.0097513366 0.0080836505            3 
 4859000   0.47749694   -8.9416715    568.06994 0.0097425729 0.0080809082            5 
 4860000   0.47503389   -8.9233224    569.21223 0.0097601548 0.0080781687            2 
 4861000    0.4669446   -8.9387826    568.25193 0.0097416844 0.0080754313            2 
 4862000    0.4642145   -8.9280321    568.10084  0.009737091 0.0080726951            6 
 4863000   0.46764387   -8.9353989    568.10847 0.0097352196 0.0080699601            2 
 4864000   0.47100495   -8.9375634    568.54339 0.0097406694 0.0080672258            2 
 4865000   0.46576056    -8.930538     568.6115 0.0097398339 0.0080644926            3 
 4866000    0.4706483   -8.9451227    568.18253 0.0097304859 0.0080617609            3 
 4867000    0.4839783   -8.9360515    569.09668 0.0097441387 0.0080590272            1 
 4868000   0.47729482   -8.9389021    567.97436 0.0097229246 0.0080562974            2 
 4869000   0.45941042   -8.9286418    568.04674 0.0097221664 0.0080535687            2 
 4870000   0.46765125   -8.9406629    568.77543 0.0097326391 0.0080508419            3 
 4871000   0.47382756   -8.9275426    568.33591 0.0097231217 0.0080481134            4 
 4872000   0.47446834   -8.9370809    568.67015  0.009726843 0.0080453893            2 
 4873000   0.47702916   -8.9420897    568.64708 0.0097244525 0.0080426648            3 
 4874000   0.47176573   -8.9545235    568.39883 0.0097182128 0.0080399435            3 
 4875000   0.47547761   -8.9322514    567.50683 0.0097009715 0.0080372221            1 
 4876000    0.4740978   -8.9416624    568.60834 0.0097178073 0.0080344991            1 
 4877000   0.47961652   -8.9504321    568.24822 0.0097096613 0.0080317781            2 
 4878000   0.46966491   -8.9428431    567.50703 0.0096950087  0.008029058            2 
 4879000   0.47223929   -8.9367591    568.37051 0.0097077698 0.0080263396            2 
 4880000   0.46788164   -8.9447852    568.25052 0.0097037316 0.0080236225            3 
 4881000   0.46197952   -8.9400541    567.37732 0.0096868353 0.0080209063            2 
 4882000    0.4679055   -8.9415173    568.04725 0.0096962865 0.0080181923            4 
 4883000   0.46299933   -8.9198122    566.88062  0.009674391 0.0080154793            2 
 4884000   0.46827796   -8.9509421    567.88173 0.0096894918 0.0080127689            1 
 4885000   0.47256086   -8.9332642    568.87574 0.0097044651 0.0080100572            3 
 4886000   0.47523088   -8.9233901    567.41291 0.0096775295  0.008007348            2 
 4887000     0.469069   -8.9592901    567.71861  0.009680762 0.0080046428            2 
 4888000   0.47557875   -8.9446074    567.36502 0.0096727533 0.0080019322            2 
 4889000   0.46008162   -8.9299096     567.7423 0.0096772056 0.0079992242            3 
 4890000   0.45874675   -8.9494117    568.77232 0.0096927798 0.0079965175            2 
 4891000    0.4669328   -8.9506956    568.32306 0.0096831436  0.007993811            2 
 4892000   0.47070276    -8.944878    567.73359 0.0096711227 0.0079911079            2 
 4893000   0.45662577   -8.9510765    567.68216 0.0096682703 0.0079884067            2 
 4894000   0.45777698   -8.9486075     568.5635 0.0096813019 0.0079857039            4 
 4895000   0.47379726   -8.9504999    568.24828 0.0096739578 0.0079830031            6 
 4896000   0.46759369   -8.9445301    567.50629 0.0096593527 0.0079803041            2 
 4897000   0.46932484   -8.9511655    568.71698 0.0096779827 0.0079776073            2 
 4898000   0.46528267   -8.9513625    568.09219 0.0096653768 0.0079749102            3 
 4899000   0.46418229   -8.9370604     567.9839 0.0096615618 0.0079722125            2 
 4900000    0.4624338   -8.9478715    567.86825 0.0096576233 0.0079695209            2 
 4901000   0.46994047   -8.9380771    568.12621  0.009660039  0.007966828            4 
 4902000   0.46718846   -8.9513898    567.74552 0.0096515966 0.0079641355            2 
 4903000   0.45999055   -8.9576799    567.39038  0.009643592 0.0079614426            3 
 4904000   0.46671021   -8.9358152    567.30407  0.009640159 0.0079587535            2 
 4905000   0.46758043   -8.9406934    568.14593 0.0096524962 0.0079560634            3 
 4906000   0.46388965    -8.944887    567.35968 0.0096371736  0.007953375            2 
 4907000   0.46672435   -8.9667481    567.66936 0.0096404688 0.0079506887            3 
 4908000     0.467347   -8.9473305    568.57018 0.0096537996 0.0079480016            3 
 4909000   0.46827049   -8.9386929    567.52114 0.0096340249 0.0079453156            3 
 4910000    0.4713253   -8.9470804    567.17515 0.0096261905 0.0079426321            3 
 4911000    0.4767143   -8.9473808    568.42982 0.0096455207 0.0079399526            4 
 4912000   0.46351312   -8.9345301    567.40098 0.0096261024 0.0079372715            2 
 4913000   0.47340315   -8.9510066    568.18982 0.0096375233 0.0079345931            2 
 4914000    0.4542122   -8.9538736    566.87364 0.0096132417 0.0079319152            3 
 4915000   0.46752811   -8.9442614    567.73356 0.0096258657 0.0079292384            1 
 4916000   0.45931879   -8.9712316     568.5511 0.0096377661 0.0079265615            1 
 4917000   0.46935347   -8.9468585    568.20176 0.0096298854 0.0079238885            2 
 4918000   0.46792861   -8.9582376    567.59347 0.0096176201  0.007921215            3 
 4919000   0.45603679   -8.9523388     568.3554 0.0096285729 0.0079185433            2 
 4920000   0.45564093   -8.9566909    567.02045  0.009604005 0.0079158702            3 
 4921000   0.46677062    -8.955051    568.12977 0.0096208387 0.0079131995            3 
 4922000   0.45963198   -8.9420759    567.76356 0.0096126838 0.0079105317            2 
 4923000   0.46127969    -8.961376    568.49844 0.0096231708 0.0079078664            1 
 4924000   0.46256423   -8.9352544     567.4046 0.0096027044 0.0079052003            2 
 4925000   0.46675349    -8.959703    567.20465 0.0095973713 0.0079025362            2 
 4926000   0.46348054   -8.9649147    567.32966 0.0095975379 0.0078998725            2 
 4927000   0.45499891   -8.9587479    567.06948 0.0095911894 0.0078972075            3 
 4928000   0.46291742   -8.9279854     567.8249 0.0096020175 0.0078945453            2 
 4929000   0.47060169   -8.9491081    567.59189 0.0095961299 0.0078918852            2 
 4930000   0.45625886   -8.9462862    568.13649  0.009603389 0.0078892261            2 
 4931000   0.46168501   -8.9395587    568.08527 0.0096005758 0.0078865662            3 
 4932000   0.45917274   -8.9435816     568.5944 0.0096072317 0.0078839122            6 
 4933000   0.45386495   -8.9600576    567.93711 0.0095941804 0.0078812578            4 
 4934000   0.46343363   -8.9553551    567.94654 0.0095923954 0.0078786056            2 
 4935000   0.45954992   -8.9484153     567.6133 0.0095848245 0.0078759523            3 
 4936000   0.45053684   -8.9524563    567.18094 0.0095755831 0.0078732996            1 
 4937000   0.46434734   -8.9580783    568.21723 0.0095911355 0.0078706474            2 
 4938000   0.45877141   -8.9712998      568.524 0.0095943702 0.0078679981            3 
 4939000   0.46906176   -8.9493089    566.67199 0.0095611796  0.007865349            2 
 4940000   0.45510096   -8.9506987    567.44685 0.0095723153 0.0078627015            2 
 4941000   0.46468953   -8.9541039    567.14575 0.0095652997 0.0078600541            3 
 4942000   0.47208618    -8.948389    567.76192 0.0095737542 0.0078574093            3 
 4943000   0.46472032   -8.9640612    567.14106 0.0095613505 0.0078547666            2 
 4944000    0.4614544   -8.9565146    567.57948 0.0095668063 0.0078521272            1 
 4945000   0.45988767    -8.965995    567.02721 0.0095555647 0.0078494875            2 
 4946000   0.46912255   -8.9440144    567.90827 0.0095684774 0.0078468465            3 
 4947000   0.46346945   -8.9437219    569.25282 0.0095891925 0.0078442087            3 
 4948000   0.45780377   -8.9461555    567.05855 0.0095502989 0.0078415734            4 
 4949000   0.45693763   -8.9581545    567.75245 0.0095600534 0.0078389358            2 
 4950000   0.44653673   -8.9658667    568.60492 0.0095724734 0.0078362994            2 
 4951000   0.45016326   -8.9474427    567.55515 0.0095528707  0.007833663            3 
 4952000   0.45295106   -8.9602451     567.6478 0.0095525007  0.007831026            6 
 4953000   0.45906256   -8.9573354    567.57127 0.0095492845 0.0078283948            2 
 4954000   0.47565516   -8.9646706    568.11041  0.009556426 0.0078257625            2 
 4955000   0.46552649   -8.9560661    567.31481 0.0095411168 0.0078231327            2 
 4956000   0.45608528   -8.9610887    567.62318 0.0095443768 0.0078205027            4 
 4957000   0.45191863   -8.9482004    567.68034 0.0095434124 0.0078178736            2 
 4958000   0.45224146   -8.9494955    568.14352 0.0095492726 0.0078152461            3 
 4959000   0.45532184   -8.9744891     568.7482 0.0095575082  0.007812621            5 
 4960000   0.46487963   -8.9569945    567.63107 0.0095368124 0.0078099963            2 
 4961000   0.44856541   -8.9636345    567.61217 0.0095345724 0.0078073709            4 
 4962000   0.46008992   -8.9518338    566.46511  0.009513387 0.0078047485            3 
 4963000   0.46407383   -8.9589291     568.0052 0.0095373295 0.0078021276            2 
 4964000   0.46354821   -8.9608625    567.51788 0.0095272274 0.0077995059            2 
 4965000   0.46472492     -8.96909    567.57738 0.0095263072 0.0077968851            2 
 4966000   0.47135669   -8.9645698    566.69665 0.0095096095 0.0077942673            5 
 4967000   0.46090602   -8.9542962    567.98477 0.0095293062 0.0077916507            2 
 4968000   0.45638204   -8.9604892    567.55337 0.0095201518 0.0077890345            1 
 4969000   0.45807511   -8.9754658    566.80696 0.0095057181 0.0077864188            2 
 4970000   0.45539943   -8.9791748    567.73913 0.0095194355 0.0077838052            1 
 4971000   0.46083052   -8.9735938    567.08739 0.0095065947 0.0077811914            3 
 4972000   0.45137812    -8.955863    567.45357 0.0095108201 0.0077785788            1 
 4973000   0.46132991   -8.9557524    567.18923  0.009504478 0.0077759683            5 
 4974000   0.46240286   -8.9570051    566.72534 0.0094947953 0.0077733594            3 
 4975000   0.44430029   -8.9598526    566.67928 0.0094921153 0.0077707503            6 
 4976000   0.45360856   -8.9747002     567.7037 0.0095073638 0.0077681422            1 
 4977000   0.45768806   -8.9655484    566.73283 0.0094891975 0.0077655363            3 
 4978000   0.45341313   -8.9587814    567.74193  0.009504184 0.0077629302            3 
 4979000   0.46188278   -8.9656898    566.57817 0.0094827973 0.0077603257            3 
 4980000   0.45888258   -8.9512949    567.28774 0.0094927668  0.007757721            2 
 4981000    0.4704119   -8.9571494    567.57308 0.0094956348 0.0077551187            2 
 4982000   0.45418924   -8.9728328    567.17817 0.0094871231 0.0077525175            3 
 4983000   0.45184477   -8.9656208    568.05356 0.0094998589 0.0077499146            2 
 4984000   0.46556984   -8.9762698    567.69542 0.0094919646 0.0077473148            5 
 4985000   0.45205844   -8.9522486    566.96758 0.0094778934 0.0077447159            3 
 4986000   0.46060762   -8.9684482    567.33139 0.0094820729 0.0077421186            4 
 4987000   0.45669454   -8.9511903    567.44784 0.0094821176 0.0077395217            3 
 4988000   0.44098128   -8.9677601    567.42559 0.0094798447 0.0077369269            2 
 4989000   0.45091692   -8.9631739    566.44731  0.009461604 0.0077343343            3 
 4990000   0.45610023    -8.963036    567.17682 0.0094718908 0.0077317415            4 
 4991000   0.45374045   -8.9668137    567.53052 0.0094758987 0.0077291481            2 
 4992000   0.45952285   -8.9736316    567.18518 0.0094682355  0.007726558            4 
 4993000   0.44918025   -8.9642111    568.23981 0.0094839409 0.0077239675            3 
 4994000   0.45529871   -8.9853081    567.58297 0.0094710815 0.0077213794            2 
 4995000   0.45088288   -8.9639796    567.27959 0.0094641239 0.0077187923            2 
 4996000   0.45243083   -8.9621369    567.59252 0.0094674492 0.0077162056            2 
 4997000   0.45395312   -8.9778915    567.34784 0.0094614742 0.0077136216            2 
 4998000   0.46421814   -8.9677754    567.78181 0.0094668169 0.0077110383            2 
 4999000   0.45042378   -8.9423395    566.57717 0.0094448418 0.0077084559            2 
 5000000   0.46101962   -8.9528609    567.17739 0.0094529564 0.0077058766            4 
 5001000   0.45696104   -8.9689412    567.65326 0.0094589958 0.0077032971            2 
 5002000   0.44852583   -8.9769904    566.54533 0.0094386468 0.0077007184            3 
 5003000   0.44774468   -8.9773391    567.23215 0.0094482003 0.0076981407            2 
 5004000   0.45270785   -8.9598524    567.31551 0.0094477004 0.0076955632            4 
 5005000   0.44393991   -8.9505435    568.10762 0.0094590013 0.0076929859            3 
 5006000   0.44555504   -8.9641078    567.65016 0.0094494966 0.0076904123            2 
 5007000   0.45076632   -8.9659255    566.50733 0.0094285887  0.007687838            3 
 5008000   0.44990823   -8.9686085    567.42218 0.0094419293  0.007685268            3 
 5009000   0.45815397   -8.9688575    567.61435 0.0094432413 0.0076826994            2 
 5010000   0.44313359   -8.9669778    568.17469 0.0094506768 0.0076801308            2 
 5011000   0.44615292   -8.9767193    566.99518 0.0094291754 0.0076775594            2 
 5012000   0.44589557   -8.9832613    567.87099 0.0094418561 0.0076749921            2 
Loop time of 12283.8 on 48 procs for 5000000 steps with 4000 atoms

Performance: 70336.622 tau/day, 407.041 timesteps/s
99.4% CPU use with 48 MPI tasks x no OpenMP threads

MPI task timing breakdown:
Section |  min time  |  avg time  |  max time  |%varavg| %total
---------------------------------------------------------------
Pair    | 830.09     | 888.55     | 946.42     |  90.9 |  7.23
Neigh   | 80.691     | 84.143     | 87.14      |  18.6 |  0.68
Comm    | 774.46     | 840.32     | 911.22     |  99.6 |  6.84
Output  | 16.216     | 16.221     | 16.309     |   0.3 |  0.13
Modify  | 10329      | 10344      | 10376      |   9.7 | 84.21
Other   |            | 110.2      |            |       |  0.90

Nlocal:        83.3333 ave          93 max          76 min
Histogram: 3 5 7 5 9 11 3 3 1 1
Nghost:        2160.33 ave        2177 max        2144 min
Histogram: 3 1 5 10 6 5 6 9 2 1
Neighs:        14348.9 ave       16124 max       12697 min
Histogram: 2 2 6 7 11 3 9 3 3 2
FullNghs:      28696.7 ave       32181 max       25807 min
Histogram: 2 4 6 7 6 13 6 1 2 1

Total # of neighbors = 1377443
Ave neighs/atom = 344.36075
Neighbor list builds = 267077
Dangerous builds = 0

#clear
#
#next RN
#
#jump SELF
Total wall time: 3:24:47
