
units lj                  # Use reduced LJ style units
atom_style atomic         # Uncharged point particles
atom_modify map hash      # Needed for indexing of clusters etc
                          # Used to be able to find where atoms are in relation to each other.

lattice fcc 1.0 spacing 1 1 1
Lattice spacing in x,y,z = 1.5874011 1.5874011 1.5874011
region box block 0 10 0 10 0 10 units lattice
create_box 2 box
Created orthogonal box = (0.0000000 0.0000000 0.0000000) to (15.874011 15.874011 15.874011)
  3 by 4 by 4 MPI processor grid
create_atoms 1 box
Created 4000 atoms
  using lattice units in orthogonal box = (0.0000000 0.0000000 0.0000000) to (15.874011 15.874011 15.874011)
  create_atoms CPU = 0.003 seconds
set type 1 type/fraction 2 0.88 78393
Setting atom values ...
  3511 settings made for type/fraction
mass 1 1.0
mass 2 1.0
pair_style lj/cut  3.5
pair_modify tail  yes
pair_coeff 1  1  1.0  1.0   # Intearaction between 1 and 1 set with epsilon = 1 and sigma = 1
pair_coeff 1  2  1.5  0.8
pair_coeff 2  2  0.5  0.88

write_data data.0
System init for write_data ...
Neighbor list info ...
  update every 1 steps, delay 10 steps, check yes
  max neighbors/atom: 2000, page size: 100000
  master list distance cutoff = 3.8
  ghost atom cutoff = 3.8
  binsize = 1.9, bins = 9 9 9
  1 neighbor lists, perpetual/occasional/extra = 1 0 0
  (1) pair lj/cut, perpetual
      attributes: half, newton on
      pair build: half/bin/atomonly/newton
      stencil: half/bin/3d
      bin: standard
WARNING: Not all mixed pair coeffs generated from mixing. Use write_data with 'pair ij' option to store all pair coeffs. (../write_data.cpp:312)


#############################
#   M E L T   S Y S T E M   #
#############################

velocity all create 2.4 5300450 mom yes dist gaussian # Assign velocities
                                                    # Temperature 2.4, random number seed, zero linear momentum
                                                                                # Gaussian distribution

timestep 0.002   # simulation timestep
thermo 1000       # output thermodynamic data every 1000 steps bf 100

# Define a fix  in this case with index 1 applied to all
# particles in the simulation. This fix is for simulations
# in the anisotropic NPT ensemble. Note that we use the MTK
# correction.
fix 1 all npt temp 2.4 2.4 0.1 iso 5.68 5.68 0.5 mtk yes tchain 5 pchain 5 # Use NPT ensemble
                                                                         # Set temperature and pressure and damping
                                                                         # Numbers of thermostats in chain and in barostat
run 10000          # run for 10000 steps
Per MPI rank memory allocation (min/avg/max) = 3.642 | 3.644 | 3.648 Mbytes
Step Temp E_pair E_mol TotEng Press Volume 
       0          2.4   -3.2921436            0   0.30695645   -2.7369977         4000 
    1000    2.4117312   -2.4389749            0    1.1777175    5.5983335    3934.9816 
    2000    2.4442062   -2.3915763            0    1.2738164    5.7084373    3968.0317 
    3000    2.4258203   -2.4112167            0    1.2266041    5.6601563    3953.5921 
    4000    2.4004911   -2.3876456            0    1.2121909    5.8069273    3940.1693 
    5000    2.4246988   -2.3828412            0    1.2532978    5.6618475    3975.6359 
    6000    2.4064755   -2.4137977            0    1.1950131    5.2856826    4008.3462 
    7000    2.4036185   -2.3715952            0    1.2329312     5.840995    3953.0304 
    8000    2.3982921   -2.3684805            0    1.2280582    5.4101686    4015.6527 
    9000     2.425487   -2.3966749            0     1.240646    5.8356147    3946.3213 
   10000    2.4009222   -2.4170509            0     1.183432    5.4782052    3969.8021 
Loop time of 2.58838 on 48 procs for 10000 steps with 4000 atoms

Performance: 667599.396 tau/day, 3863.422 timesteps/s
99.6% CPU use with 48 MPI tasks x no OpenMP threads

MPI task timing breakdown:
Section |  min time  |  avg time  |  max time  |%varavg| %total
---------------------------------------------------------------
Pair    | 1.0697     | 1.1643     | 1.3067     |   3.5 | 44.98
Neigh   | 0.20696    | 0.21744    | 0.24168    |   1.4 |  8.40
Comm    | 0.73465    | 0.90703    | 0.99355    |   4.7 | 35.04
Output  | 0.0002445  | 0.00025001 | 0.0003203  |   0.0 |  0.01
Modify  | 0.22485    | 0.28425    | 0.33548    |   4.9 | 10.98
Other   |            | 0.01514    |            |       |  0.59

Nlocal:        83.3333 ave          96 max          69 min
Histogram: 1 3 3 4 7 12 8 9 0 1
Nghost:        1649.04 ave        1674 max        1613 min
Histogram: 2 2 1 4 4 9 12 8 3 3
Neighs:        9614.73 ave       11512 max        7678 min
Histogram: 1 2 6 3 8 12 9 5 1 1

Total # of neighbors = 461507
Ave neighs/atom = 115.37675
Neighbor list builds = 911
Dangerous builds = 220

# Equilibrate just above the melting temperature to avoid step fn in T

fix 1 all npt temp 1.25 1.25 0.1 iso 5.68 5.68 0.5 mtk yes tchain 5 pchain 5
run 2000
Per MPI rank memory allocation (min/avg/max) = 3.643 | 3.645 | 3.649 Mbytes
Step Temp E_pair E_mol TotEng Press Volume 
   10000    2.4009222   -2.4170509            0     1.183432    5.4782052    3969.8021 
   11000    1.2760397   -3.5784328            0   -1.6648518    5.8256697     3057.379 
   12000    1.2434119    -3.561974            0   -1.6973225    5.9609798    3043.6539 
Loop time of 0.625775 on 48 procs for 2000 steps with 4000 atoms

Performance: 552274.741 tau/day, 3196.034 timesteps/s
99.7% CPU use with 48 MPI tasks x no OpenMP threads

MPI task timing breakdown:
Section |  min time  |  avg time  |  max time  |%varavg| %total
---------------------------------------------------------------
Pair    | 0.26552    | 0.29547    | 0.35359    |   2.8 | 47.22
Neigh   | 0.040184   | 0.042918   | 0.050897   |   0.8 |  6.86
Comm    | 0.17227    | 0.23781    | 0.27178    |   3.4 | 38.00
Output  | 5.2945e-05 | 5.4899e-05 | 6.9201e-05 |   0.0 |  0.01
Modify  | 0.040748   | 0.044821   | 0.048953   |   1.1 |  7.16
Other   |            | 0.004702   |            |       |  0.75

Nlocal:        83.3333 ave          95 max          74 min
Histogram: 4 2 2 11 11 8 6 2 1 1
Nghost:        1973.02 ave        1998 max        1943 min
Histogram: 2 1 7 4 7 5 5 9 6 2
Neighs:        12549.6 ave       14995 max       10506 min
Histogram: 1 4 3 8 12 14 3 1 1 1

Total # of neighbors = 602381
Ave neighs/atom = 150.59525
Neighbor list builds = 147
Dangerous builds = 14

#############################
# L I N E A R  Q U E N C H  #
#############################

# Define solid atoms. This closely follows ten Wolde  Ruiz-Montero and Frenkel  Faraday Discuss  1996  104  93-110
# Compute components of the per-atom q6 vector
compute q6 all orientorder/atom degrees 1 6 components 6 nnn NULL cutoff 1.3 # compute the Q6 parameter.
                                                                             # Use all neighbours within 1.3 unit cell.

# get number of connections
compute coord_number all coord/atom orientorder q6 0.5

# An atom is solid if it has 8 or more connections (of a possible 14)
variable is_solid atom c_coord_number>=8
group solid dynamic all var is_solid    # Must be dynamic to update
dynamic group solid defined

# do clustering
compute cluster solid cluster/atom 1.3 # Create a cluster where all atoms within are solid and max 1.3 units from another member

# define chunks one chunk per cluster
compute clus_chunks solid chunk/atom c_cluster nchunk every compress yes  # Says which atoms are in which chunk

# count the size of each chunk
compute size_chunks solid property/chunk clus_chunks count


# Find the maximum entry in the vector of chunk sizes
variable max_n equal max(c_size_chunks)


# Thermo style which includes this variable
# thermo_style custom step temp pe vol v_max_n

thermo ${N}  # Print the thermo information every 100 steps
thermo 1000  

# Reset the npt fix at a lower temperature (below freezing)
fix 1  all npt temp  ${temp} ${temp}  0.1  iso  5.68  5.68  0.5  mtk yes tchain  5  pchain  5
fix 1  all npt temp  0.45 ${temp}  0.1  iso  5.68  5.68  0.5  mtk yes tchain  5  pchain  5
fix 1  all npt temp  0.45 0.45  0.1  iso  5.68  5.68  0.5  mtk yes tchain  5  pchain  5

dump dmp2 all dcd ${N} traj.dcd
dump dmp2 all dcd 1000 traj.dcd


compute msd all msd com yes
variable twopoint equal c_msd[4]/6/(step*dt+1.0e-6)
fix 9 all vector 10 c_msd[4]
variable fit equal slope(f_9)/6/(10*dt)
thermo_style custom step temp pe c_msd[4] v_twopoint v_fit v_max_n

fix 1 all npt temp 1.25 ${temp} 0.1 iso 5.68 5.68 0.5 mtk yes tchain 5 pchain 5
fix 1 all npt temp 1.25 0.45 0.1 iso 5.68 5.68 0.5 mtk yes tchain 5 pchain 5
run 500000 # 5000000  # Run for this many steps
Neighbor list info ...
  update every 1 steps, delay 10 steps, check yes
  max neighbors/atom: 2000, page size: 100000
  master list distance cutoff = 3.8
  ghost atom cutoff = 3.8
  binsize = 1.9, bins = 8 8 8
  4 neighbor lists, perpetual/occasional/extra = 1 3 0
  (1) pair lj/cut, perpetual
      attributes: half, newton on
      pair build: half/bin/atomonly/newton
      stencil: half/bin/3d
      bin: standard
  (2) compute orientorder/atom, occasional
      attributes: full, newton on
      pair build: full/bin/atomonly
      stencil: full/bin/3d
      bin: standard
  (3) compute coord/atom, occasional
      attributes: full, newton on
      pair build: full/bin/atomonly
      stencil: full/bin/3d
      bin: standard
  (4) compute cluster/atom, occasional
      attributes: full, newton on
      pair build: full/bin/atomonly
      stencil: full/bin/3d
      bin: standard
Per MPI rank memory allocation (min/avg/max) = 9.826 | 9.831 | 9.836 Mbytes
Step Temp PotEng c_msd[4] v_twopoint v_fit v_max_n 
   12000    1.2434119    -3.561974 2.5251438e-30 1.753572e-32 8.3333333e+20            2 
   13000    1.2432368   -3.5434706   0.92634326 0.0059380976  0.079107704            2 
   14000    1.2502465   -3.6540231    1.9083864  0.011359442  0.079802045            3 
   15000    1.2373837   -3.5960952    2.9179988  0.016211104  0.081277449            2 
   16000    1.2481385    -3.578171    3.9837898  0.020748904  0.083486649            1 
   17000    1.2397834    -3.559479    5.0232312  0.024623682  0.084196523            3 
   18000    1.2489548   -3.5917131    6.0775383  0.028136751  0.085079175            3 
   19000    1.2385964    -3.547067    7.2142535  0.031641462  0.085891592            4 
   20000    1.2031017   -3.6128905    8.1645217   0.03401884  0.086423542            2 
   21000    1.2331956   -3.6088145    9.1742221  0.036405642  0.086511333            1 
   22000    1.2319207   -3.5755811    10.145919  0.038431511  0.086163765            3 
   23000    1.2165933   -3.5957877    11.494053  0.041645118  0.086562267            2 
   24000    1.2500498   -3.5878349    12.535117  0.043524712  0.087377213            1 
   25000     1.194052   -3.6248769    13.329384   0.04443128  0.087442395            2 
   26000    1.1966782    -3.606908    14.413172  0.046196064  0.087221191            2 
   27000    1.2254387   -3.5922045    15.448337  0.047680051   0.08700574            2 
   28000    1.2246055   -3.6128477    16.405039  0.048824519  0.086735884            2 
   29000    1.2173147    -3.615391    17.552091  0.050437044    0.0865874            1 
   30000    1.2072117   -3.6025866    18.638035  0.051772319    0.0867242            2 
   31000    1.2521733   -3.6308832    19.624969  0.052755293  0.086780018            2 
   32000    1.2048942    -3.616403    20.495227  0.053372986  0.086703693       -1e+20 
   33000    1.2089677   -3.6024575    21.608434  0.054566752  0.086571789            2 
   34000    1.2139656   -3.6456086    22.535114  0.055233121  0.086393875            3 
   35000    1.1881591   -3.6067598    23.481294  0.055907843  0.086260522            2 
   36000    1.2090142   -3.6244027    24.443069  0.056581177  0.086024452            1 
   37000    1.2094934   -3.6569842    25.307285  0.056998389  0.085766948            2 
   38000    1.2150081   -3.5946369    26.291348  0.057656463  0.085505719            1 
   39000    1.1883783   -3.6486963    27.056944  0.057813982  0.085173008            1 
   40000    1.2005058   -3.6467995    27.841362  0.058002836  0.084850348            3 
   41000    1.2206084   -3.6549457    28.920521  0.058781546  0.084521997            1 
   42000    1.1827989   -3.6484322    29.924673  0.059374351  0.084198874            3 
   43000    1.1771955   -3.6147679    30.920265  0.059922994  0.083860195            3 
   44000    1.1856734   -3.6334382    31.916314  0.060447563  0.083655824            3 
   45000    1.1943106   -3.6555414    32.904219  0.060933737  0.083480703            1 
   46000    1.1839576   -3.6489015     34.00111  0.061596214  0.083376829            3 
   47000    1.2029309   -3.6714604    34.917831  0.061911047  0.083287342            2 
   48000    1.1980993   -3.6523437    35.872279  0.062278262  0.083205369            1 
   49000    1.2073027   -3.6555934    36.613315  0.062267541  0.083023865            3 
   50000    1.1841097   -3.6648449    37.691448   0.06281908  0.082862949            1 
   51000    1.1586425   -3.6536488    38.751538  0.063319506  0.082778644            3 
   52000    1.1522278   -3.6731098     39.31142   0.06299907  0.082622128            2 
   53000     1.163944   -3.6564356    40.342518  0.063431632  0.082434135            2 
   54000    1.1943936   -3.6743802    40.925656  0.063156876   0.08222519            4 
   55000     1.166235   -3.6667784    42.109851  0.063802804  0.082047498            2 
   56000    1.1810562   -3.6763196    43.103489  0.064142096  0.081906158            2 
   57000    1.1850993   -3.6982174    44.067996  0.064426894   0.08174678            2 
   58000    1.1573338   -3.6745253    45.099306  0.064797853  0.081606115            1 
   59000    1.1884826   -3.6644928    45.679286  0.064518765  0.081458612            1 
   60000    1.1666258   -3.6826741    46.567548   0.06467715  0.081250983            1 
   61000    1.1800885   -3.7032849    47.283745   0.06459528  0.081030505            2 
   62000    1.1606978   -3.6770991    48.314508  0.064938854  0.080817174            3 
   63000    1.1641299   -3.6813782    49.322385   0.06524125  0.080636383            1 
   64000    1.1868467   -3.6669242    49.663256  0.064665697  0.080425262            1 
   65000    1.1597153   -3.7021772    50.594292  0.064864476  0.080199976            3 
   66000    1.1688389   -3.7064859    51.530137  0.065063303  0.079969143            2 
   67000    1.1588938   -3.6991854    52.364505  0.065129981  0.079784017            2 
   68000    1.1358097   -3.6865502    53.594527  0.065679567  0.079612493            1 
   69000    1.1405372   -3.7210466      54.1845  0.065440217  0.079453503            1 
   70000    1.1633277   -3.6782928    54.986109  0.065459654  0.079307041            2 
   71000    1.1517388   -3.7211929    56.072916  0.065813281  0.079161455            2 
   72000    1.1602871   -3.6513363    57.016395  0.065991198  0.079014802            9 
   73000    1.1480004   -3.6851182      57.7341  0.065906506  0.078874363            3 
   74000     1.150414   -3.6903022    58.550255  0.065934972  0.078708938            2 
   75000     1.151775   -3.7226398    59.438326  0.066042584  0.078534198            3 
   76000     1.145939   -3.7075067    60.490716  0.066327539  0.078385781            2 
   77000    1.1502093   -3.7036427     61.10275  0.066128517  0.078241747            1 
   78000    1.1462718   -3.6915933     62.12166  0.066369294  0.078109764            2 
   79000    1.1347592   -3.7529116    62.524369  0.065953975   0.07796843            4 
   80000    1.1312637   -3.7281345    63.625163  0.066276211  0.077820637            2 
   81000    1.1429909   -3.7134748    64.707847  0.066571858  0.077701242            4 
   82000    1.1462761   -3.7500298    65.420558  0.066484306  0.077590833            4 
   83000     1.139337    -3.708924    66.777771  0.067045954  0.077490336            1 
   84000    1.1322944   -3.7449058    67.422127   0.06688703   0.07740215            6 
   85000    1.1239007    -3.757018    68.532044  0.067188278  0.077330592            1 
   86000    1.1529177   -3.7555345    69.446598  0.067293215  0.077274955            1 
   87000    1.1342302   -3.7407271     70.50775  0.067536159  0.077222491            2 
   88000    1.1205924   -3.7391433     71.00775  0.067242187   0.07715657            1 
   89000    1.1326846   -3.7197255    72.081561  0.067492098   0.07708611            1 
   90000    1.0908704   -3.7530054    72.896666  0.067496913  0.077020351            2 
   91000     1.112097    -3.752087    73.745435  0.067532449  0.076950145            2 
   92000     1.117614   -3.7445421    74.611087  0.067582506  0.076874428            1 
   93000    1.1351317     -3.75839    75.518896  0.067669261  0.076808728            6 
   94000    1.1038063   -3.7544324    76.161026   0.06751864  0.076728107            2 
   95000    1.1299477   -3.7508193    77.060776  0.067597171  0.076653687            2 
   96000    1.1131928   -3.7512523    77.862175  0.067588693  0.076565523            1 
   97000    1.0789184    -3.746643    78.509816  0.067448295  0.076467547            2 
   98000    1.1301289   -3.7725881     79.09625  0.067258716   0.07636359            4 
   99000    1.1097729   -3.7745117    80.050541   0.06738261  0.076279743            2 
  100000    1.1214713   -3.7619942    81.081189  0.067567657  0.076193766            3 
  101000    1.1004511   -3.7528231    81.755679   0.06745518  0.076108019            2 
  102000    1.1080898   -3.8223659    82.205713   0.06716153  0.076003753            2 
  103000    1.1153305   -3.7905968    82.734607  0.066937384  0.075880315            1 
  104000     1.108652   -3.8022376    83.744404  0.067102887  0.075752869            3 
  105000    1.0802938   -3.7818551    84.297243  0.066902574  0.075636031            1 
  106000    1.0754563   -3.7999167    84.945044  0.066780695  0.075516649            2 
  107000    1.0993343   -3.8138511    85.426269  0.066531362  0.075388579            3 
  108000    1.1073173   -3.8017463    86.654752  0.066863234  0.075261585            2 
  109000    1.0914059   -3.7842228    87.086833  0.066580148  0.075126055            3 
  110000      1.09542   -3.7821664    88.099171  0.066741796  0.074990261            2 
  111000    1.0956529   -3.8236972    89.065074  0.066865671  0.074861952            2 
  112000    1.0722125   -3.8313646    89.230065  0.066391417  0.074738587            3 
  113000    1.0876693   -3.7849274    90.637549   0.06684185  0.074616828            1 
  114000    1.0789713   -3.8123261    91.247438  0.066701343   0.07450225            2 
  115000    1.0873142    -3.836937    92.291635  0.066877996  0.074397632            4 
  116000    1.0988945   -3.8067349    92.907723  0.066744054  0.074299241            2 
  117000    1.0930458    -3.805888    93.744764  0.066769775  0.074190238            4 
  118000    1.0601958   -3.8327356    95.008803  0.067096612  0.074090413            1 
  119000    1.0836174   -3.7836882    96.404901  0.067510435  0.073993473            3 
  120000    1.0737217   -3.8412221    96.431253  0.066966148  0.073902734            3 
  121000    1.0576182   -3.8340493    97.387923  0.067071572  0.073818092            2 
  122000    1.0714144   -3.8036541    98.443368  0.067242737  0.073744394            5 
  123000    1.0814407   -3.8215789    99.265617  0.067253128  0.073668571            9 
  124000    1.0867407   -3.8361466    99.676356  0.066986798  0.073588883            4 
  125000    1.0773384   -3.8332012    99.950948  0.066633965  0.073495725            2 
  126000    1.0701099   -3.8371585     101.2188   0.06694365  0.073399902            2 
  127000    1.0680037   -3.7996586     102.1568  0.067032022  0.073310628            2 
  128000    1.0568846   -3.8294073    102.08427  0.066461116  0.073208377            1 
  129000    1.0619602    -3.823579    102.96762   0.06651655  0.073096583            3 
  130000     1.051061   -3.8251846    103.55778  0.066383195  0.072993075            2 
  131000    1.0551186   -3.8155045     104.3145  0.066357823  0.072886579            3 
  132000    1.0720701   -3.8419188    105.41032   0.06654692  0.072785881            1 
  133000    1.0521978   -3.8851492    105.59227  0.066160571  0.072680499            3 
  134000    1.0317591    -3.855121    106.50079  0.066231835  0.072572952            5 
  135000    1.0533541   -3.8963296    107.12757  0.066128129  0.072468336            3 
  136000    1.0323693   -3.8653752    107.70007   0.06599269  0.072356367            6 
  137000     1.057632   -3.8666532     108.2436  0.065841605  0.072248862            2 
  138000    1.0345467    -3.856226    108.79322  0.065696386  0.072142779            2 
  139000    1.0369551    -3.861885    109.78587  0.065818869  0.072037455            2 
  140000    1.0570501   -3.8568292    110.54807  0.065802425  0.071929969            2 
  141000    1.0456109    -3.870683    111.48193  0.065887666  0.071824966            6 
  142000    1.0276667   -3.9032968    111.91299  0.065676638  0.071720949            3 
  143000    1.0577638   -3.8701982     112.5198  0.065570981  0.071614479            3 
  144000     1.033336   -3.8839112    113.39448  0.065621804  0.071516041            1 
  145000    1.0180932    -3.868393    114.44021  0.065770236  0.071414456            3 
  146000    1.0478237   -3.8944049    115.32365  0.065824001  0.071318211            3 
  147000    1.0407454   -3.8668618    116.63834  0.066121507  0.071225084            2 
  148000    1.0488675   -3.8716474    116.78548  0.065757588  0.071132658            2 
  149000    1.0150436   -3.8940102    118.00112  0.065996152  0.071041317            4 
  150000     1.032251    -3.883496    117.90505  0.065502807  0.070945727            2 
  151000    1.0438289   -3.8808204    119.56179  0.065983328  0.070855713            3 
  152000     1.044395   -3.9082088    119.57042  0.065553957  0.070765077            3 
  153000    1.0488113   -3.9129448    119.56516  0.065122634  0.070664389            2 
  154000     1.029435   -3.9174638    120.32588  0.065111404  0.070558101            3 
  155000     1.035425   -3.9125275    120.81049  0.064951875  0.070449422            3 
  156000    1.0059536   -3.8677005     121.7116   0.06501688  0.070345161            3 
  157000    1.0282156   -3.8947228    122.24936  0.064888193  0.070239579            2 
  158000   0.98439636   -3.9243479    122.68649  0.064708067  0.070129535            2 
  159000    1.0224049   -3.8964678    123.49196  0.064723248  0.070023102            2 
  160000    1.0546973   -3.9296559    123.96067   0.06456285  0.069915791            2 
  161000    1.0160784   -3.9299416    125.28741  0.064848557  0.069808218            2 
  162000    1.0101019   -3.9451466    125.34516  0.064477963  0.069701556            3 
  163000    1.0169375    -3.934725    126.81292  0.064832782  0.069605482            4 
  164000    1.0164618   -3.9328215    127.01614  0.064540723  0.069509007            3 
  165000    1.0208849   -3.9272393    127.93856  0.064615432  0.069408718            2 
  166000    1.0111761   -3.9253574    128.77254  0.064644847   0.06930667            1 
  167000    1.0086033   -3.9051701    129.31698   0.06452943  0.069208058            5 
  168000     1.031002   -3.9589529    130.32348  0.064644581  0.069111527            1 
  169000   0.98402257   -3.8996669     131.3065  0.064746793  0.069021157            2 
  170000    1.0046622   -3.9299363    131.73597  0.064576453  0.068937724            2 
  171000   0.97705801   -3.9481693    132.57985  0.064610061  0.068853958            4 
  172000   0.99780154   -3.9620263    132.60006  0.064244214  0.068767816            5 
  173000   0.96878655   -3.9505331    132.98735  0.064059417  0.068674308            3 
  174000   0.98147495     -3.95318    133.48882  0.063931427  0.068578763            3 
  175000     1.004055   -3.9278482    134.66571   0.06412653   0.06847872            1 
  176000    1.0074384   -3.9615598    134.62373  0.063742296  0.068380529            2 
  177000   0.98437215   -3.9652965    135.08454  0.063599126  0.068279069            7 
  178000   0.98596967   -3.9502294    135.99388  0.063667544  0.068175122            5 
  179000   0.98980376   -3.9605632    136.40046  0.063501144  0.068067744            2 
  180000   0.97027228    -3.958755    136.94011  0.063398197  0.067964208            1 
  181000   0.97787546   -3.9927661    137.95122  0.063513455  0.067859462            2 
  182000   0.98403615   -4.0063274    137.75591  0.063075048  0.067751509            7 
  183000   0.97884034   -3.9852321    139.04147  0.063315787    0.0676456            2 
  184000   0.97107357   -4.0152458      139.382  0.063125904  0.067540678            3 
  185000   0.98072512   -3.9679851    140.71553  0.063385372  0.067437387            2 
  186000   0.96147676   -3.9916171    140.95164  0.063150378  0.067336191            3 
  187000   0.96214258   -3.9900056    141.55675  0.063082329  0.067238626            2 
  188000   0.95824757   -3.9681858    142.04746  0.062964298  0.067136117            3 
  189000   0.97255231   -3.9770575     142.9107  0.063011772  0.067031738            2 
  190000   0.94810311   -3.9840366      142.935   0.06269079  0.066925401            2 
  191000   0.95478009   -4.0115382    143.23482  0.062493376  0.066815516            2 
  192000   0.96186062   -3.9952621    143.73237   0.06238384  0.066709808            3 
  193000   0.96737896   -4.0253419    144.30708  0.062308754  0.066604277            2 
  194000   0.96327838   -4.0135616    144.82152  0.062208557  0.066495055            3 
  195000   0.96559257   -4.0043605    145.71359  0.062270764  0.066388108            3 
  196000   0.94918917   -3.9867653     145.7106  0.061951784  0.066279151            3 
  197000    0.9731298    -4.011034    146.16749  0.061830581  0.066167544            3 
  198000   0.96424635   -4.0006095    147.19938  0.061952601  0.066052456            6 
  199000   0.93223691   -4.0231053    147.37185  0.061713503   0.06593672            3 
  200000   0.95142724   -4.0296504    147.65245  0.061521856  0.065817353            5 
  201000   0.93982503   -4.0523013    148.31745  0.061491478  0.065703434            5 
  202000   0.95045573   -4.0134763    148.69801  0.061344062  0.065589707            6 
  203000   0.95154309   -4.0370115    149.95627  0.061558402  0.065472626            3 
  204000   0.94600468   -4.0363468     150.4787  0.061470056  0.065358147            4 
  205000    0.9323052    -4.031458    149.89894  0.060934528  0.065244058            2 
  206000   0.95812489   -4.0695136     151.0321  0.061097127  0.065126242            6 
  207000   0.93512474   -4.0010809    151.74277  0.061088073  0.065008232            6 
  208000    0.9405067   -4.0266377    152.30039  0.061017785    0.0648936            7 
  209000   0.95254792   -4.0513749    152.23231  0.060698689  0.064771288            2 
  210000   0.92655916   -4.0616681    152.50488  0.060517811  0.064649522            2 
  211000   0.94044605   -4.0264416    153.28821  0.060540367  0.064529256            5 
  212000   0.93566006   -4.0462916    153.09121  0.060177364  0.064407333            3 
  213000   0.93457941   -4.0495749    154.31873  0.060375088  0.064286393            3 
  214000   0.90660873   -4.0494498    154.17344  0.060036385  0.064166663            4 
  215000   0.92069312    -4.072287    155.25771  0.060177408  0.064046995           10 
  216000   0.93657545   -4.0777715    156.44384  0.060356418   0.06392831            2 
  217000   0.91671317    -4.082251    155.55487  0.059736891  0.063810927            5 
  218000   0.91711456   -4.0859018    156.71702  0.059907117  0.063694646            3 
  219000   0.93423043   -4.0746914    157.38679  0.059888428     0.063575            3 
  220000   0.91139705   -4.0531299    157.86522  0.059797433  0.063456509            3 
  221000   0.93416062   -4.0540599    158.05432  0.059598161  0.063335623            3 
  222000   0.92100006   -4.0932325    158.46088  0.059482312  0.063214974            2 
  223000   0.89928658   -4.1047273    158.06161   0.05906637   0.06309493            3 
  224000   0.90874729   -4.0962316    160.04654  0.059541125  0.062976036            4 
  225000   0.91669539   -4.0998491      159.255  0.058983332  0.062853924            5 
  226000   0.91227529   -4.0989922    159.31037  0.058742761  0.062731773            3 
  227000   0.89944848    -4.095017    160.12024  0.058781292     0.062608            5 
  228000   0.90105825   -4.0833476    160.82583   0.05878137  0.062484541            2 
  229000   0.88448342   -4.1216882    160.86951  0.058540578  0.062361522            3 
  230000   0.92746932   -4.1007356    161.62548  0.058559957  0.062236437            2 
  231000   0.90213461   -4.1130419    162.01399  0.058446607  0.062111757            5 
  232000   0.91684079    -4.110914    161.94372   0.05816944  0.061985519            2 
  233000   0.89033959   -4.0930825    161.95381  0.057923392  0.061858034            2 
  234000   0.88497068    -4.128241    162.63947  0.057920039  0.061727498            2 
  235000   0.90467539   -4.1439665    162.63102  0.057670576  0.061596118            4 
  236000   0.88758137   -4.1210886    163.39888  0.057697343  0.061466052            3 
  237000   0.87542657   -4.1082588     163.9322  0.057641422  0.061335404            5 
  238000   0.89586653    -4.113314    164.48729  0.057593588  0.061206302            3 
  239000   0.91113723    -4.101856    164.53008  0.057367532  0.061076733            3 
  240000   0.87294693   -4.1040625    165.01844  0.057298068  0.060949313            3 
  241000   0.89257577   -4.1342951     165.6175  0.057267461  0.060820282            3 
  242000   0.89378862   -4.1126122    166.22156   0.05723883   0.06069369            4 
  243000   0.88030527   -4.1425686    165.88985  0.056889523   0.06056415            3 
  244000   0.87130418   -4.1279941    166.48173  0.056858516  0.060435139            3 
  245000   0.88683371   -4.1250729    166.37419   0.05658986  0.060304195            2 
  246000    0.8647634   -4.1586342    166.42483  0.056376975  0.060174833            5 
  247000   0.86997157   -4.1686203    167.13582  0.056388603  0.060044434            5 
  248000   0.86221213   -4.1218698    168.04242  0.056465867  0.059916272            2 
  249000   0.86345154   -4.1596565    168.01258   0.05622911  0.059787692            8 
  250000   0.87336243   -4.1572049    168.83544   0.05627848   0.05965856            3 
  251000   0.86430068   -4.1585205    169.59729    0.0563072  0.059532925            4 
  252000    0.8781196   -4.1575446    169.72234  0.056125113  0.059406514            8 
  253000   0.87362461   -4.1887426    169.56911  0.055852804  0.059280356            2 
  254000   0.86232372   -4.1527157     170.8571   0.05605548   0.05915353            3 
  255000    0.8473497   -4.1817199    170.54519  0.055733722  0.059027779            4 
  256000   0.87953121   -4.1743667    171.83741  0.055936656  0.058904431            6 
  257000   0.84877643   -4.1615825    172.11891  0.055810283  0.058783716            2 
  258000   0.84372857    -4.173774    172.07373  0.055579369   0.05866378            3 
  259000    0.8607097   -4.1860074    172.66121    0.0555538  0.058543326            5 
  260000   0.85138492   -4.1883788     172.6463  0.055335352  0.058420999            4 
  261000   0.85869091   -4.1711502    173.69145   0.05545704  0.058297391            9 
  262000   0.84853894   -4.1856166    174.12029  0.055381772   0.05817767            4 
  263000   0.84635809   -4.1923723    173.67237  0.055029267  0.058055413            4 
  264000   0.84767333   -4.2155157    174.31947  0.055025085  0.057930761           11 
  265000   0.83621669   -4.1904881    174.60925   0.05490857   0.05780738            3 
  266000   0.85302011   -4.2004984    174.83421  0.054772623  0.057684015            4 
  267000   0.83284369   -4.2046873    175.18749  0.054677743  0.057561659            3 
  268000   0.81674093   -4.2327173    175.40545  0.054541497  0.057438871            4 
  269000   0.85096034   -4.1832165    176.32615  0.054623961   0.05731884            3 
  270000   0.84276301   -4.2305256    175.76054  0.054247079  0.057197783            5 
  271000    0.8368526   -4.2050435    176.74773  0.054350471  0.057075465            3 
  272000   0.82187374   -4.2171004    176.74724  0.054150502  0.056952879            2 
  273000    0.8415846   -4.2069331    177.74552  0.054256873  0.056831782            6 
  274000   0.80927234   -4.2291735    178.16498  0.054186431  0.056712025            4 
  275000   0.83736491   -4.2126587    178.25623   0.05401704  0.056593021            7 
  276000   0.81772071     -4.21963    178.65719  0.053942387  0.056474499            5 
  277000    0.8235467    -4.234241    178.68061  0.053754695  0.056357406            9 
  278000   0.81592922   -4.2193968    179.47721  0.053800122  0.056239757            4 
  279000   0.82651778   -4.2487244     179.3633  0.053573267  0.056120915           15 
  280000   0.82223887   -4.2214576    179.48777  0.053418979  0.056000873            7 
  281000   0.81754589   -4.2486889    180.36443  0.053488859  0.055883326            4 
  282000   0.81344599   -4.2315776    179.51466  0.053048068  0.055764132            4 
  283000   0.82522037   -4.2290459    180.10839   0.05303545  0.055644314            3 
  284000   0.78751899   -4.2568098     179.7943  0.052756544  0.055523019            2 
  285000   0.82089176   -4.2589931    180.41908  0.052754116  0.055399344            5 
  286000   0.80517761   -4.2536227     181.0097  0.052741753  0.055276975            4 
  287000   0.81330203   -4.2882362    180.97831   0.05254887  0.055154877            7 
  288000   0.81189726   -4.2539911    182.12588   0.05269846  0.055035189            5 
  289000   0.80576455   -4.2625261    182.19821  0.052536969   0.05491646            6 
  290000   0.80262151   -4.2562962    182.40709   0.05241583  0.054797707            7 
  291000   0.80631824   -4.2947944    182.22523  0.052183629   0.05467778            3 
  292000   0.79564937   -4.2815414    182.89078  0.052194857  0.054559107            5 
  293000   0.79684439   -4.3024485    182.68431  0.051957996  0.054439844            5 
  294000   0.78462103   -4.2730783    183.48677  0.052008723   0.05432217            3 
  295000   0.79216571   -4.2798896    183.75706  0.051908773  0.054204151            4 
  296000   0.79077232   -4.2803159    184.68846  0.051995626  0.054088349            3 
  297000   0.79332018   -4.2773251    184.47808  0.051761527  0.053971884            6 
  298000   0.78640535   -4.2715434    185.23144    0.0517985    0.0538547            3 
  299000   0.80100488   -4.3063376    183.99689  0.051281183  0.053737256            9 
  300000   0.79489377   -4.2946802    184.78743  0.051329842   0.05361799            4 
  301000    0.7890842   -4.3059323    185.20825  0.051275816  0.053498735            4 
  302000   0.77178656   -4.3122243    185.32078   0.05113708  0.053378528            9 
  303000   0.77344093   -4.2907768     185.4396  0.051000989  0.053257875            6 
  304000   0.78893426   -4.3070788    185.47892  0.050844003  0.053137517            4 
  305000   0.77187958   -4.3128505    186.07255  0.050839493  0.053017284            4 
  306000   0.78825203   -4.3248768    185.92231  0.050632438  0.052896231            3 
  307000   0.75537388   -4.3216512    186.04022  0.050499518  0.052776464            3 
  308000   0.77337772   -4.3247562    186.08517   0.05034772   0.05265741            4 
  309000   0.77665728   -4.3339057    187.26741  0.050503616  0.052539128            6 
  310000   0.79045944   -4.3213557    187.67367  0.050449911  0.052422946            7 
  311000   0.76585609   -4.3363072     187.3262  0.050194586  0.052306175            4 
  312000   0.78941534    -4.325482    188.06343  0.050230617  0.052191212            6 
  313000   0.77349697   -4.3343204    188.54602  0.050198621  0.052075848            4 
  314000   0.77057428   -4.3344987    188.47952  0.050021105  0.051960885            3 
  315000   0.77636021   -4.3509643    189.11452  0.050030296  0.051846854            5 
  316000   0.75223218    -4.350679    189.40563  0.049948743  0.051732664            9 
  317000   0.77509667    -4.326956    189.64914  0.049855188  0.051619898            4 
  318000   0.75904853   -4.3585971    189.89704  0.049763375  0.051508387            5 
  319000   0.75816646   -4.3316917    190.10409  0.049661465   0.05139684            6 
  320000   0.74934349   -4.3457198    190.40018  0.049583379  0.051284001            6 
  321000   0.74039073   -4.3664467    190.09398  0.049349422  0.051169652            6 
  322000   0.74502762   -4.3528751    190.80956  0.049381355  0.051056872            3 
  323000   0.74378697   -4.3649194    190.72496  0.049206647  0.050944687            5 
  324000   0.75786763   -4.3571138    190.57826  0.049017043  0.050832654            6 
  325000   0.76601339   -4.3614876    190.92624  0.048955445   0.05072026            7 
  326000   0.76360029   -4.3865586    191.38268  0.048921953  0.050607425            5 
  327000    0.7500357   -4.3715805    190.59687  0.048572088  0.050494317            5 
  328000    0.7342701    -4.371129    191.66622  0.048695687  0.050379901           10 
  329000    0.7247622   -4.3745116    191.29013  0.048452413  0.050265359            7 
  330000   0.73689897   -4.3700704    192.07493  0.048503769  0.050150774            5 
  331000   0.73523949   -4.3762502    192.05834  0.048353055  0.050037607           14 
  332000   0.74032532   -4.3989413    192.50683  0.048319987  0.049924618            7 
  333000   0.73898481   -4.3806499    192.57069  0.048190864   0.04981222            4 
  334000   0.74040094   -4.4005531    192.09482   0.04792785   0.04969905            5 
  335000   0.73255287   -4.4366383    192.32475  0.047841977  0.049584808            7 
  336000   0.71457506   -4.4039521    192.64154  0.047778159  0.049472067            5 
  337000   0.72220515   -4.4319227     192.5735  0.047619561  0.049358176            7 
  338000   0.72895833   -4.4023969     193.9163  0.047809738  0.049245108            5 
  339000    0.7306824   -4.4127446    193.59752  0.047590343  0.049132694            4 
  340000    0.7162896    -4.423672    193.61286  0.047454132  0.049020792            9 
  341000   0.72307732   -4.4171845    194.16649  0.047450266    0.0489089           10 
  342000   0.72471333    -4.412458    193.96179  0.047261644  0.048796551            5 
  343000   0.72333814   -4.4121001    194.42969  0.047237535  0.048684071            3 
  344000   0.72199413    -4.419834    194.50092  0.047117471   0.04857194           10 
  345000   0.72920434   -4.4409917    194.18091  0.046903602   0.04846041            8 
  346000   0.71864696   -4.4331165     194.8532  0.046929962  0.048348696            6 
  347000   0.70910831   -4.4269987    195.09294   0.04685229  0.048237257           15 
  348000   0.72788519   -4.4441833    194.50279  0.046576337  0.048126021           10 
  349000   0.70345146   -4.4420281    195.03612   0.04657023  0.048013965            5 
  350000   0.71457718    -4.436065    195.52906  0.046554538  0.047902712            6 
  351000   0.71249321   -4.4610899    195.40192   0.04639172  0.047791984           14 
  352000   0.70158128   -4.4195335    196.42351  0.046501778   0.04768233           10 
  353000   0.71241282   -4.4296601    196.15719  0.046307175  0.047572662            9 
  354000   0.71406249   -4.4471405    196.20584  0.046187816   0.04746433            6 
  355000   0.68011843   -4.4472684     196.4381  0.046112229  0.047355693            4 
  356000   0.70973341   -4.4572778    197.30986  0.046186765  0.047247626            3 
  357000   0.68850674   -4.4549672    196.84874  0.045949752  0.047138703            1 
  358000   0.70382237   -4.4731039    196.68959  0.045784355  0.047030739            7 
  359000   0.68187509   -4.4737398    197.59377  0.045866705  0.046922584            5 
  360000   0.69835863   -4.4905679    197.27686  0.045665939  0.046814375            7 
  361000    0.6948493     -4.48993    197.07336  0.045492466  0.046705903            7 
  362000    0.6868399   -4.4706564    197.45021  0.045453546  0.046597723           11 
  363000   0.69323794   -4.4750726    196.67082  0.045149409  0.046490086            9 
  364000   0.69215863     -4.47233    197.78393  0.045280204  0.046381651            5 
  365000   0.69418621   -4.5093849    197.29568  0.045044675   0.04627343            4 
  366000   0.66088543   -4.4948291    197.97555    0.0450764  0.046165141           12 
  367000   0.69725466   -4.5025222    197.62283  0.044873485  0.046056774            6 
  368000   0.68737741   -4.5046182    197.70356  0.044769829  0.045948575            4 
  369000    0.6738099   -4.4993244    198.21684  0.044764417  0.045840563            9 
  370000   0.68071035   -4.5126976     198.0917  0.044615248  0.045732101            6 
  371000   0.67517083   -4.5429125      198.254  0.044531447  0.045623517            6 
  372000   0.67744392   -4.5087106    198.87539  0.044550938  0.045515412            6 
  373000   0.67744283    -4.515541    198.61411  0.044373125  0.045408095            5 
  374000   0.68854175   -4.5043791     198.5284  0.044235382  0.045300402            8 
  375000   0.68382821   -4.4897869    199.25279  0.044278397  0.045193874            6 
  376000   0.66173559   -4.5454367    198.83375  0.044067763  0.045087867            9 
  377000   0.66916582   -4.5317513    198.85361  0.043955264  0.044981045           14 
  378000   0.66780655   -4.5145116    199.25561  0.043927604  0.044873813            4 
  379000   0.67198448   -4.5408659    199.28886   0.04381901  0.044766609           14 
  380000   0.67387726   -4.5369032    199.28432  0.043702703  0.044659619           14 
  381000   0.65568564   -4.5373257    199.42364  0.043618468  0.044552894            9 
  382000   0.66686685   -4.5585252    199.75478  0.043576522  0.044446932            7 
  383000   0.65571494   -4.5623492    199.64091  0.043437969  0.044340467            7 
  384000      0.65658   -4.5728753    199.31704  0.043254566  0.044234179            6 
  385000   0.65601787   -4.5403212    200.05258  0.043301425  0.044128066            9 
  386000   0.65189895   -4.5655817    200.20016  0.043221106    0.0440223            8 
  387000   0.64249521   -4.5765433    199.75609    0.0430138  0.043916295           13 
  388000   0.65354905   -4.5432249     200.0322  0.042962243  0.043810399           10 
  389000   0.65067866   -4.5861563    199.73789   0.04278875  0.043704427           12 
  390000   0.65214623   -4.5685885    200.21881  0.042781798   0.04359926            7 
  391000   0.64443585   -4.5857127    200.36369  0.042703259  0.043494615            5 
  392000   0.65295755   -4.5874862    200.18667   0.04255669  0.043389213           17 
  393000   0.65078886   -4.5773278    200.47568  0.042509687  0.043284301            5 
  394000   0.64728073   -4.6078154    200.08101  0.042318318   0.04317909            6 
  395000   0.64087224   -4.5775353    200.78562  0.042359836  0.043074613           13 
  396000   0.63165198   -4.5879107     200.4528  0.042182829  0.042970315           10 
  397000    0.6377658   -4.5664868     201.5534  0.042307599  0.042866096            7 
  398000   0.62976176   -4.6013593    201.52385  0.042195111  0.042762336            5 
  399000   0.62348859   -4.6004453    200.59621  0.041895616  0.042657719            9 
  400000   0.61999023   -4.5767818     200.6023  0.041792146   0.04255368            4 
  401000   0.62532592   -4.6082437    201.38482  0.041850544  0.042449632           24 
  402000   0.61180293   -4.5863292    201.89991  0.041853214  0.042347059            6 
  403000   0.62372354   -4.6072867    201.21857  0.041608471  0.042244908            9 
  404000   0.62592297   -4.6128875    201.60854   0.04158592  0.042141969           10 
  405000   0.62363618   -4.6254888    201.64895  0.041491553  0.042039186            3 
  406000   0.63045078   -4.6133997    201.07397   0.04127134  0.041935785           11 
  407000   0.60684786   -4.6496856     201.4167  0.041240111  0.041832237            5 
  408000   0.60422424   -4.6202384     201.1341  0.041081311  0.041728992           15 
  409000   0.61776631   -4.6588208    201.27729  0.041010044   0.04162617            9 
  410000   0.61472903   -4.6439015    201.45096  0.040945317  0.041523832            9 
  411000   0.61100451   -4.6428242    201.33384  0.040821946  0.041421072            6 
  412000   0.62062678   -4.6414833    201.36801  0.040729775  0.041318621           21 
  413000     0.614573    -4.632468    201.75287  0.040708811   0.04121689           15 
  414000   0.60183904   -4.6657187    201.28174  0.040515648  0.041115487            8 
  415000   0.61763398    -4.657743    201.31902  0.040425506  0.041014081           17 
  416000   0.60400851   -4.6298081    202.12465  0.040489714  0.040912425            8 
  417000   0.60576516   -4.6570494    202.05036  0.040377769  0.040810942            6 
  418000   0.60938575   -4.6663007    202.22744  0.040316475  0.040710364            8 
  419000   0.59802652   -4.6624464     202.1284  0.040200556   0.04060982           14 
  420000   0.60011509   -4.6638794    202.10473  0.040100145   0.04050952            8 
  421000   0.59039311   -4.6736101    202.23206  0.040030098  0.040409177           19 
  422000   0.60514883   -4.6734311    202.74926  0.040037373  0.040308987           11 
  423000   0.60055759   -4.6719899    202.27286   0.03984887  0.040209082           15 
  424000   0.59725666   -4.6862648    202.67256  0.039833443  0.040109746           23 
  425000   0.57454702   -4.6774406    203.05248  0.039814212  0.040010597           12 
  426000   0.58459798    -4.696684      201.972  0.039509389  0.039911142           14 
  427000   0.59382805   -4.6913234     202.5801  0.039535538  0.039811819           20 
  428000    0.5792235   -4.6951756    202.78607   0.03948327  0.039712952           29 
  429000   0.57606484    -4.704429     202.9511   0.03942329  0.039614353           12 
  430000   0.58662528   -4.7037047    203.01072  0.039343163  0.039515549           16 
  431000    0.5768549   -4.7019267    203.13673  0.039276244  0.039417065           14 
  432000   0.57429695   -4.7041072    202.96464   0.03915213  0.039318844            8 
  433000   0.57615884   -4.7005725    202.80031  0.039030083  0.039220949           11 
  434000   0.56704976   -4.6970009    202.11778  0.038809097  0.039123044           30 
  435000   0.56641791   -4.7062662    202.34402  0.038763223  0.039025013           16 
  436000   0.56970415   -4.7255353    203.08291   0.03881554  0.038927307            7 
  437000   0.56284197   -4.7133789    202.59506  0.038633688  0.038829426            9 
  438000   0.56502314   -4.7361831    202.23789  0.038477528  0.038730978           26 
  439000   0.56579192   -4.7354268    202.71532  0.038480509  0.038632607            5 
  440000   0.56861617   -4.7148663    203.01595   0.03844999  0.038534954           11 
  441000   0.56553603   -4.7191377    203.34586  0.038425144  0.038438018           11 
  442000   0.57222124   -4.7452011    203.08034  0.038288149  0.038340825            8 
  443000   0.55403337   -4.7584057    203.02613  0.038191521   0.03824348            7 
  444000   0.55233431   -4.7277182    203.10627  0.038120546  0.038146451           11 
  445000   0.55246993   -4.7544167    203.05481  0.038025245  0.038049842           11 
  446000   0.55152042    -4.751615    202.36878  0.037811806   0.03795296            7 
  447000   0.54449211   -4.7632631    202.70846  0.037790541  0.037856181           10 
  448000   0.53693144   -4.7611984    202.62998  0.037691588  0.037759897            8 
  449000   0.54925441   -4.7506227    203.53382  0.037775393   0.03766376           14 
  450000   0.53365685   -4.7864283    203.11223  0.037613376  0.037568189           15 
  451000   0.54955138   -4.7859968    202.88354   0.03748772  0.037472571           15 
  452000   0.54656886   -4.7748565    202.75632  0.037381327  0.037376868           17 
  453000   0.54658569   -4.7819146    202.35949  0.037225808  0.037280467           16 
  454000   0.53946122   -4.7936759    202.56813  0.037182109  0.037184123           29 
  455000   0.55423841   -4.7728285    202.75255  0.037134167  0.037087998           28 
  456000   0.53299464   -4.8087481    202.55509  0.037016646  0.036991981           19 
  457000   0.53574476   -4.7929291    202.95117  0.037007871  0.036896268           21 
  458000   0.54110187   -4.7913464     202.9743  0.036931276  0.036801012           28 
  459000   0.53208523   -4.8010783    202.93837  0.036844293  0.036706381           37 
  460000   0.53875638   -4.7965403    202.60326  0.036703489  0.036612021           32 
  461000   0.53754495   -4.8054855    202.97337  0.036690776   0.03651717           21 
  462000   0.53129795   -4.8011857    202.56844  0.036538319   0.03642226           34 
  463000   0.52959982   -4.8173529    202.80742  0.036502415  0.036327378           29 
  464000   0.53318755   -4.7968361    203.17598   0.03648994  0.036232782           39 
  465000   0.51931485     -4.80517    202.81346  0.036346499  0.036138859           15 
  466000   0.51730264   -4.8131365    202.60794  0.036231749  0.036044781            9 
  467000   0.51493199   -4.8133813    202.62501  0.036157211   0.03595121           19 
  468000   0.51388417   -4.8247372    202.71794    0.0360965   0.03585765           71 
  469000   0.52187365   -4.8270259    203.35405   0.03613256  0.035764578           56 
  470000   0.51806575   -4.8244565    202.67639  0.035935531  0.035671246            7 
  471000   0.51710849   -4.8424857     202.6773  0.035859395  0.035578298           22 
  472000   0.51235062   -4.8434828    203.05527  0.035850153  0.035485688           43 
  473000   0.51293974    -4.850793    202.95491   0.03575668  0.035393019           21 
  474000   0.51350678   -4.8525031    202.83076  0.035659417  0.035300691           27 
  475000   0.50287634   -4.8571341     202.4507  0.035517666  0.035208305           43 
  476000   0.51096049   -4.8601218    202.55748  0.035461744  0.035116401           18 
  477000   0.50710561    -4.855818    202.79615  0.035429097  0.035024735           37 
  478000   0.51665637   -4.8614803    202.56002  0.035313811  0.034933059           33 
  479000   0.51050006   -4.8584564    202.93406   0.03530516  0.034841708           20 
  480000   0.49756849   -4.8681123    203.01222  0.035245177   0.03475092           15 
  481000   0.49306333   -4.8890077    202.63836  0.035107132  0.034659805           29 
  482000   0.49814765   -4.8702482    202.46645  0.035004574  0.034568869           53 
  483000   0.49070697    -4.893612    202.33851  0.034910026  0.034477855           30 
  484000   0.50600136   -4.8753723    202.59818  0.034882606  0.034386972           39 
  485000     0.479552   -4.8829166    202.58646  0.034808671   0.03429601           73 
  486000   0.48182043    -4.907158    202.49711  0.034721727  0.034204994           54 
  487000   0.49185383   -4.9027056    202.12222  0.034586279  0.034114053           96 
  488000   0.49355125   -4.8999135    202.03898  0.034501191   0.03402352          133 
  489000   0.48249317   -4.9074259    202.24729  0.034466137  0.033933094           81 
  490000   0.48859101   -4.9082085    202.22164  0.034391436  0.033842744          100 
  491000    0.4879483   -4.9071329    202.00153  0.034284035  0.033752568           49 
  492000   0.47967093   -4.9120694    202.62582  0.034320092   0.03366283           65 
  493000   0.48347331   -4.9269315    202.16722  0.034172958  0.033573269          105 
  494000   0.47231675   -4.9249219    202.13084  0.034097645  0.033483873           55 
  495000   0.48812379   -4.9207208    201.70443  0.033956975  0.033394736           37 
  496000   0.46377079   -4.9230396    201.68462  0.033885186  0.033305536           61 
  497000   0.48677882   -4.9365869    201.99562  0.033869151  0.033216362           37 
  498000   0.47507174   -4.9391713    201.61655  0.033737709  0.033127164           34 
  499000   0.46072375   -4.9212771    201.64408  0.033674696  0.033038535           32 
  500000   0.46303607   -4.9459431    201.94865  0.033658109  0.032950258           43 
  501000   0.46106754   -4.9400304    201.13082  0.033454893  0.032861858          107 
  502000   0.47047829   -4.9675277    201.27533  0.033412239  0.032773374          125 
  503000   0.45920981   -4.9565355     201.4216  0.033370047  0.032685091           56 
  504000   0.46401645   -4.9512828    201.20084  0.033267335   0.03259688           74 
  505000   0.46018236   -4.9548078    201.19763  0.033200929  0.032508633           47 
  506000   0.46943242   -4.9591166    200.69943  0.033053265   0.03242052           38 
  507000   0.44994639   -4.9405436    201.35422  0.033095697   0.03233269          128 
  508000   0.45049642   -4.9693952    200.71702   0.03292602   0.03224512          146 
  509000   0.44914795   -4.9762436    201.37715  0.032969409  0.032157647          114 
  510000   0.45394142   -4.9812695    200.99269  0.032841943  0.032070272          155 
  511000   0.45154318   -4.9611507    201.08945  0.032793453  0.031983338          121 
  512000   0.45249036   -4.9868136     201.0482  0.032722689  0.031896622          124 
Loop time of 1298.24 on 48 procs for 500000 steps with 4000 atoms

Performance: 66551.512 tau/day, 385.136 timesteps/s
99.4% CPU use with 48 MPI tasks x no OpenMP threads

MPI task timing breakdown:
Section |  min time  |  avg time  |  max time  |%varavg| %total
---------------------------------------------------------------
Pair    | 87.037     | 91.689     | 97.208     |  25.7 |  7.06
Neigh   | 8.7816     | 9.0713     | 9.4754     |   5.0 |  0.70
Comm    | 77.493     | 84.782     | 93.307     |  45.1 |  6.53
Output  | 0.88213    | 0.88295    | 0.91003    |   0.4 |  0.07
Modify  | 1092.2     | 1099.2     | 1107.5     |  12.0 | 84.67
Other   |            | 12.64      |            |       |  0.97

Nlocal:        83.3333 ave          95 max          74 min
Histogram: 1 3 9 10 7 10 3 1 3 1
Nghost:        2278.33 ave        2292 max        2262 min
Histogram: 2 2 6 4 5 5 9 5 7 3
Neighs:        15381.5 ave       17464 max       13354 min
Histogram: 2 1 5 9 7 11 5 3 3 2
FullNghs:      30764.5 ave       34970 max       27092 min
Histogram: 1 2 7 9 9 10 4 2 3 1

Total # of neighbors = 1476696
Ave neighs/atom = 369.17400
Neighbor list builds = 27019
Dangerous builds = 0

#clear
#
#next RN
#
#jump SELF
Total wall time: 0:21:41
