
units lj                  # Use reduced LJ style units
atom_style atomic         # Uncharged point particles
atom_modify map hash      # Needed for indexing of clusters etc
                          # Used to be able to find where atoms are in relation to each other.

lattice fcc 1.0 spacing 1 1 1
Lattice spacing in x,y,z = 1.5874011 1.5874011 1.5874011
region box block 0 10 0 10 0 10 units lattice
create_box 2 box
Created orthogonal box = (0.0000000 0.0000000 0.0000000) to (15.874011 15.874011 15.874011)
  3 by 4 by 4 MPI processor grid
create_atoms 1 box
Created 4000 atoms
  using lattice units in orthogonal box = (0.0000000 0.0000000 0.0000000) to (15.874011 15.874011 15.874011)
  create_atoms CPU = 0.011 seconds
set type 1 type/fraction 2 0.97 78393
Setting atom values ...
  3879 settings made for type/fraction
mass 1 1.0
mass 2 1.0
pair_style lj/cut  3.5
pair_modify tail  yes
pair_coeff 1  1  1.0  1.0   # Intearaction between 1 and 1 set with epsilon = 1 and sigma = 1
pair_coeff 1  2  1.5  0.8
pair_coeff 2  2  0.5  0.88

write_data data.0
System init for write_data ...
Neighbor list info ...
  update every 1 steps, delay 10 steps, check yes
  max neighbors/atom: 2000, page size: 100000
  master list distance cutoff = 3.8
  ghost atom cutoff = 3.8
  binsize = 1.9, bins = 9 9 9
  1 neighbor lists, perpetual/occasional/extra = 1 0 0
  (1) pair lj/cut, perpetual
      attributes: half, newton on
      pair build: half/bin/atomonly/newton
      stencil: half/bin/3d
      bin: standard
WARNING: Not all mixed pair coeffs generated from mixing. Use write_data with 'pair ij' option to store all pair coeffs. (../write_data.cpp:312)


#############################
#   M E L T   S Y S T E M   #
#############################

velocity all create 2.4 9580093 mom yes dist gaussian # Assign velocities
                                                    # Temperature 2.4, random number seed, zero linear momentum
                                                                                # Gaussian distribution

timestep 0.002   # simulation timestep
thermo 1000       # output thermodynamic data every 1000 steps bf 100

# Define a fix  in this case with index 1 applied to all
# particles in the simulation. This fix is for simulations
# in the anisotropic NPT ensemble. Note that we use the MTK
# correction.
fix 1 all npt temp 2.4 2.4 0.1 iso 5.68 5.68 0.5 mtk yes tchain 5 pchain 5 # Use NPT ensemble
                                                                         # Set temperature and pressure and damping
                                                                         # Numbers of thermostats in chain and in barostat
run 10000          # run for 10000 steps
Per MPI rank memory allocation (min/avg/max) = 3.642 | 3.644 | 3.648 Mbytes
Step Temp E_pair E_mol TotEng Press Volume 
       0          2.4   -2.8451072            0   0.75399283    -1.976462         4000 
    1000    2.4105495   -1.6678457            0    1.9470746     5.754884    4159.1204 
    2000    2.4271935   -1.6506644            0    1.9892157    5.8564129    4165.4918 
    3000    2.3667855   -1.6511292            0    1.8981615    5.9370513    4146.1138 
    4000     2.368992   -1.6847253            0    1.8678744    5.8171758    4135.3728 
    5000    2.3779891   -1.6999197            0    1.8661722    5.6341949    4156.5676 
    6000    2.3893676   -1.6559262            0    1.9272292    5.8671315    4158.2937 
    7000    2.3544829   -1.6648145            0     1.866027    5.6760716    4172.7252 
    8000    2.3956599   -1.6893579            0    1.9032336    5.5065525     4192.119 
    9000    2.4227273   -1.6418183            0    1.9913641    5.6607879    4213.7287 
   10000    2.3805054   -1.6759463            0     1.893919    5.6731147    4169.4569 
Loop time of 2.48604 on 48 procs for 10000 steps with 4000 atoms

Performance: 695080.788 tau/day, 4022.458 timesteps/s
99.6% CPU use with 48 MPI tasks x no OpenMP threads

MPI task timing breakdown:
Section |  min time  |  avg time  |  max time  |%varavg| %total
---------------------------------------------------------------
Pair    | 1.0608     | 1.1147     | 1.2652     |   4.4 | 44.84
Neigh   | 0.20476    | 0.21327    | 0.2549     |   1.9 |  8.58
Comm    | 0.71725    | 0.87752    | 0.96327    |   5.8 | 35.30
Output  | 0.00023963 | 0.00024652 | 0.00031022 |   0.0 |  0.01
Modify  | 0.21985    | 0.2654     | 0.33438    |   5.3 | 10.68
Other   |            | 0.01488    |            |       |  0.60

Nlocal:        83.3333 ave          90 max          75 min
Histogram: 4 1 4 6 2 5 8 6 8 4
Nghost:        1599.90 ave        1633 max        1560 min
Histogram: 3 1 5 2 4 12 9 7 2 3
Neighs:        9150.88 ave       10052 max        8043 min
Histogram: 3 3 2 7 4 6 7 7 6 3

Total # of neighbors = 439242
Ave neighs/atom = 109.81050
Neighbor list builds = 912
Dangerous builds = 256

# Equilibrate just above the melting temperature to avoid step fn in T

fix 1 all npt temp 1.25 1.25 0.1 iso 5.68 5.68 0.5 mtk yes tchain 5 pchain 5
run 2000
Per MPI rank memory allocation (min/avg/max) = 3.643 | 3.645 | 3.649 Mbytes
Step Temp E_pair E_mol TotEng Press Volume 
   10000    2.3805054   -1.6759463            0     1.893919    5.6731147    4169.4569 
   11000     1.242359   -2.5570521            0  -0.69397951    5.7452813    3253.7217 
   12000    1.2304342   -2.5208835            0  -0.67569357    5.9647494    3257.2826 
Loop time of 0.582377 on 48 procs for 2000 steps with 4000 atoms

Performance: 593430.002 tau/day, 3434.201 timesteps/s
99.7% CPU use with 48 MPI tasks x no OpenMP threads

MPI task timing breakdown:
Section |  min time  |  avg time  |  max time  |%varavg| %total
---------------------------------------------------------------
Pair    | 0.25686    | 0.27866    | 0.30856    |   1.9 | 47.85
Neigh   | 0.03873    | 0.040971   | 0.046307   |   0.6 |  7.04
Comm    | 0.18255    | 0.21151    | 0.24116    |   2.6 | 36.32
Output  | 5.1079e-05 | 5.2662e-05 | 6.9515e-05 |   0.0 |  0.01
Modify  | 0.039923   | 0.046542   | 0.052687   |   1.6 |  7.99
Other   |            | 0.00464    |            |       |  0.80

Nlocal:        83.3333 ave          90 max          76 min
Histogram: 2 1 8 3 7 9 4 7 4 3
Nghost:        1885.83 ave        1909 max        1866 min
Histogram: 5 1 6 6 8 9 6 2 2 3
Neighs:        11726.1 ave       13125 max       10231 min
Histogram: 2 5 2 8 6 5 8 7 3 2

Total # of neighbors = 562853
Ave neighs/atom = 140.71325
Neighbor list builds = 145
Dangerous builds = 12

#############################
# L I N E A R  Q U E N C H  #
#############################

# Define solid atoms. This closely follows ten Wolde  Ruiz-Montero and Frenkel  Faraday Discuss  1996  104  93-110
# Compute components of the per-atom q6 vector
compute q6 all orientorder/atom degrees 1 6 components 6 nnn NULL cutoff 1.3 # compute the Q6 parameter.
                                                                             # Use all neighbours within 1.3 unit cell.

# get number of connections
compute coord_number all coord/atom orientorder q6 0.5

# An atom is solid if it has 8 or more connections (of a possible 14)
variable is_solid atom c_coord_number>=8
group solid dynamic all var is_solid    # Must be dynamic to update
dynamic group solid defined

# do clustering
compute cluster solid cluster/atom 1.3 # Create a cluster where all atoms within are solid and max 1.3 units from another member

# define chunks one chunk per cluster
compute clus_chunks solid chunk/atom c_cluster nchunk every compress yes  # Says which atoms are in which chunk

# count the size of each chunk
compute size_chunks solid property/chunk clus_chunks count


# Find the maximum entry in the vector of chunk sizes
variable max_n equal max(c_size_chunks)


# Thermo style which includes this variable
# thermo_style custom step temp pe vol v_max_n

thermo ${N}  # Print the thermo information every 100 steps
thermo 1000  

# Reset the npt fix at a lower temperature (below freezing)
fix 1  all npt temp  ${temp} ${temp}  0.1  iso  5.68  5.68  0.5  mtk yes tchain  5  pchain  5
fix 1  all npt temp  0.45 ${temp}  0.1  iso  5.68  5.68  0.5  mtk yes tchain  5  pchain  5
fix 1  all npt temp  0.45 0.45  0.1  iso  5.68  5.68  0.5  mtk yes tchain  5  pchain  5

dump dmp2 all dcd ${N} traj.dcd
dump dmp2 all dcd 1000 traj.dcd


compute msd all msd com yes
variable twopoint equal c_msd[4]/6/(step*dt+1.0e-6)
fix 9 all vector 10 c_msd[4]
variable fit equal slope(f_9)/6/(10*dt)
thermo_style custom step temp pe c_msd[4] v_twopoint v_fit v_max_n

fix 1 all npt temp 1.25 ${temp} 0.1 iso 5.68 5.68 0.5 mtk yes tchain 5 pchain 5
fix 1 all npt temp 1.25 0.45 0.1 iso 5.68 5.68 0.5 mtk yes tchain 5 pchain 5
run 500000 # 5000000  # Run for this many steps
Neighbor list info ...
  update every 1 steps, delay 10 steps, check yes
  max neighbors/atom: 2000, page size: 100000
  master list distance cutoff = 3.8
  ghost atom cutoff = 3.8
  binsize = 1.9, bins = 8 8 8
  4 neighbor lists, perpetual/occasional/extra = 1 3 0
  (1) pair lj/cut, perpetual
      attributes: half, newton on
      pair build: half/bin/atomonly/newton
      stencil: half/bin/3d
      bin: standard
  (2) compute orientorder/atom, occasional
      attributes: full, newton on
      pair build: full/bin/atomonly
      stencil: full/bin/3d
      bin: standard
  (3) compute coord/atom, occasional
      attributes: full, newton on
      pair build: full/bin/atomonly
      stencil: full/bin/3d
      bin: standard
  (4) compute cluster/atom, occasional
      attributes: full, newton on
      pair build: full/bin/atomonly
      stencil: full/bin/3d
      bin: standard
Per MPI rank memory allocation (min/avg/max) = 9.811 | 9.820 | 9.826 Mbytes
Step Temp PotEng c_msd[4] v_twopoint v_fit v_max_n 
   12000    1.2304342   -2.5208835 2.1311077e-30 1.4799359e-32 8.3333333e+20            1 
   13000    1.2386482   -2.5683805    1.1078387 0.0071015299  0.094016247            1 
   14000    1.2548004   -2.5275333    2.4068335   0.01432639   0.10053094            2 
   15000    1.2512026   -2.5552417    3.7222162  0.020678978   0.10519133            1 
   16000    1.2469054   -2.5684321    5.0894941  0.026507781   0.10735664            2 
   17000    1.2619146   -2.5592068    6.3873602  0.031310588   0.10900067            1 
   18000    1.2458254   -2.5673403    7.7902146  0.036065807   0.10948815            1 
   19000    1.2617351   -2.5591165     9.101866  0.039920464   0.11022113            2 
   20000    1.2300047   -2.5386689    10.344234  0.043100975   0.11019354            3 
   21000    1.2209715   -2.5661914    11.693615  0.046403234   0.10997284            2 
   22000    1.2278098   -2.5795582    12.931528   0.04898306   0.10978803            1 
   23000    1.2258806   -2.5677033    14.154374  0.051283961   0.10938856            1 
   24000    1.1998057   -2.5433411    15.378351  0.053397051   0.10891535            1 
   25000    1.2196716    -2.585256     16.59952  0.055331732   0.10823938            1 
   26000    1.2040883   -2.5903606    17.757679  0.056915636   0.10756389            1 
   27000    1.2026295   -2.5857135    18.914438  0.058377893    0.1069999            1 
   28000    1.2298887   -2.5912155    20.080578  0.059763623   0.10639162            1 
   29000    1.2006245   -2.6186037     21.38357   0.06144704    0.1059622            1 
   30000    1.2256309   -2.5905883    22.643196  0.062897767   0.10562516            1 
   31000    1.2072211   -2.5702807    23.998768  0.064512815   0.10532746            3 
   32000    1.2391258   -2.5726199    25.071193  0.065289565   0.10507357            1 
   33000    1.2207017    -2.568863     26.11135  0.065937752    0.1047421            2 
   34000    1.2192089   -2.5770403    27.355869  0.067048698   0.10438888            1 
   35000    1.2144784    -2.598556    28.371574  0.067551365   0.10401801            2 
   36000    1.2153519   -2.5933961    29.671041  0.068682964    0.1035345            2 
   37000    1.2111803   -2.5832751    30.809881  0.069391624   0.10316648            1 
   38000    1.2083367   -2.5769886    32.171361   0.07055123   0.10289237            1 
   39000     1.221668   -2.5605371    33.150565  0.070834541    0.1026119            1 
   40000    1.2168433   -2.5674818    34.423336  0.071715283   0.10235639            1 
   41000    1.2045263    -2.626186    35.549505  0.072255091    0.1021381       -1e+20 
   42000    1.2076863    -2.595461    36.843643  0.073102466   0.10195369            1 
   43000    1.2012117   -2.6083329    37.980716  0.073606037   0.10176592            2 
   44000    1.1748795   -2.6199454    38.948385  0.073765879   0.10154154            1 
   45000    1.1854809   -2.6229177    40.225136  0.074490992     0.101359            2 
   46000    1.2072616   -2.6080901    41.391478   0.07498456   0.10124489            3 
   47000    1.2035493   -2.6118074    42.334342   0.07506089    0.1011121            1 
   48000    1.1955802   -2.5998316    43.547786  0.075603794   0.10092989            2 
   49000    1.1892993   -2.5710107    44.520369  0.075714913   0.10069554            3 
   50000    1.1800831   -2.6042461    45.778623  0.076297704   0.10045663            3 
   51000    1.1837341   -2.6258383    46.835679  0.076528887   0.10021135            3 
   52000    1.2045456   -2.6361553     48.31291  0.077424535   0.10007057            1 
   53000    1.1726625   -2.6184989    49.304371  0.077522595  0.099960652            1 
   54000    1.1800354   -2.6368843    50.507127  0.077943096   0.09978918            1 
   55000    1.1822825   -2.6021877    51.636756  0.078237508  0.099612209            2 
   56000    1.1796356   -2.6147078    52.594506  0.078265634  0.099446665            3 
   57000    1.1551806   -2.6029636    53.326801  0.077963158  0.099245459            2 
   58000    1.1841237   -2.6823791      54.5409  0.078363361  0.098986787            1 
   59000    1.1723909   -2.6363214    55.409558  0.078262087  0.098733789            1 
   60000    1.1541563    -2.595636    56.644806  0.078673341  0.098470727            3 
   61000    1.1749659   -2.6470614    57.177079  0.078110764  0.098184521            3 
   62000    1.1939309   -2.6336436    58.440926  0.078549631  0.097885841            2 
   63000    1.1878953   -2.6392066    59.321111  0.078467078  0.097580613            1 
   64000    1.1575814    -2.656828    60.772889  0.079131366  0.097330716            2 
   65000    1.1607814   -2.6792561    61.591165  0.078963032  0.097130531            1 
   66000    1.1739929   -2.6631896    63.122382  0.079699977  0.096958221            2 
   67000    1.1639414   -2.6472098    64.388325  0.080084981  0.096818259            1 
   68000    1.1927632   -2.6670534      65.4281  0.080181495  0.096693573            4 
   69000    1.1504765   -2.6351833    66.597059   0.08043123  0.096581229            4 
   70000    1.1607088   -2.6537423     67.44073  0.080286583  0.096454327            2 
   71000    1.1564334   -2.6453217    68.432213  0.080319498  0.096319977            1 
   72000    1.1525734   -2.6945535    69.394789  0.080318042  0.096166008            2 
   73000    1.1495158   -2.6489021    70.617003  0.080613017  0.096013806            3 
   74000    1.1443653   -2.6505184    72.143503  0.081242683  0.095885523            2 
   75000    1.1309473   -2.6504233    72.330746  0.080367495  0.095744639       -1e+20 
   76000    1.1438724   -2.6634331    73.784793  0.080904378  0.095580001            1 
   77000    1.1339445   -2.6622721    74.855634  0.081012591  0.095424349            2 
   78000    1.1304739   -2.6365034    75.585492   0.08075373  0.095266878            1 
   79000    1.1555613   -2.6281925    77.007892  0.081231953  0.095099341            1 
   80000    1.1650583   -2.6668623    77.381244  0.080605462  0.094943156            2 
   81000    1.1652829   -2.6775312    78.577939    0.0808415  0.094761344            3 
   82000    1.1293257   -2.6825031     79.51266  0.080805548  0.094573657            3 
   83000    1.1349532   -2.6731692    80.435019  0.080758051  0.094394905            1 
   84000    1.1609627   -2.6725429    81.271384  0.080626372  0.094219819            1 
   85000    1.1500216      -2.6894    82.895343  0.081269943  0.094047379            3 
   86000    1.1190497   -2.6858163    83.784957  0.081186973  0.093896351            2 
   87000    1.1347414   -2.6500523    85.158025  0.081568989  0.093769691            2 
   88000     1.116101   -2.6830341    86.129853   0.08156236  0.093669828            3 
   89000    1.1209539   -2.6844366    87.487516  0.081917149  0.093578669            3 
   90000    1.1452377   -2.7002317    89.214516  0.082606033  0.093509185            2 
   91000    1.1183198   -2.6815604    89.289142  0.081766613  0.093435529            1 
   92000    1.1150114   -2.6757909    91.001834  0.082429197   0.09335497            1 
   93000    1.1067727   -2.7021095    91.539707  0.082024827   0.09327234            2 
   94000    1.1269532      -2.6849    92.833379  0.082299095  0.093185054            3 
   95000    1.1265249   -2.6928205    93.548394  0.082059994  0.093103696            2 
   96000    1.1102794   -2.6871532    94.559431  0.082082839  0.093002893            2 
   97000    1.1118799   -2.6990973    96.195732  0.082642381  0.092897155            2 
   98000    1.1214218   -2.6964574    96.191294  0.081795318  0.092776616            3 
   99000    1.1254499   -2.6986902     96.82836  0.081505353  0.092646689            1 
  100000    1.1042824   -2.7006732    98.011223  0.081676019  0.092517332            2 
  101000    1.1271511   -2.7278702    98.230288  0.081048092  0.092383751            1 
  102000    1.0910815   -2.6905272    99.261235   0.08109578  0.092242006            2 
  103000    1.0925512   -2.6886072     100.7931  0.081547813  0.092091801            1 
  104000    1.0975655   -2.6842849    101.74888   0.08152955  0.091943915            1 
  105000    1.0941085   -2.7119712    102.88349  0.081653566  0.091800554            3 
  106000    1.1078038   -2.6969113    103.94781  0.081719974  0.091661229            1 
  107000    1.0893424    -2.709891    105.22354  0.081949796  0.091544167            3 
  108000    1.0920575   -2.6836408    106.13794  0.081896556  0.091414956            2 
  109000    1.1060607   -2.7126164    106.96476  0.081777341  0.091284158            5 
  110000    1.1111813    -2.736026     107.2978  0.081286214  0.091166111            1 
  111000    1.0994748   -2.7480592    108.12954  0.081178333  0.091026582            1 
  112000    1.0913832   -2.7364687    109.82856  0.081717676  0.090905064            1 
  113000    1.1008454   -2.7216102    110.71805  0.081650481  0.090791922            2 
  114000    1.1076842   -2.6903059    112.20676  0.082022488  0.090703279            2 
  115000    1.0659531   -2.7192117    113.09849  0.081955426  0.090615143            4 
  116000    1.0674318   -2.7195314    114.24622  0.082073432  0.090530063            2 
  117000    1.0591783   -2.7410042    115.48395  0.082253527  0.090447552            1 
  118000    1.0805388   -2.7424539    115.29984  0.081426437  0.090348327            2 
  119000    1.1015635   -2.7513476    116.70596  0.081726865  0.090249151            2 
  120000     1.073384   -2.7614259    118.44803  0.082255579  0.090162536            1 
  121000    1.0665511   -2.7378228     119.1404  0.082052613  0.090076282            3 
  122000    1.0767866   -2.7583921    119.34635  0.081520734  0.089980974            2 
  123000    1.0639838   -2.7674176    120.68002  0.081761534  0.089888798            3 
  124000    1.0477868   -2.7276298     121.7265  0.081805444  0.089789595            1 
  125000    1.0899368   -2.7213743    122.78343  0.081855621  0.089683615            3 
  126000    1.0542652    -2.706059    123.61497  0.081755935  0.089587137            2 
  127000    1.0671124   -2.7395716    125.01175  0.082028708   0.08949896            2 
  128000    1.0837685   -2.7582027    125.80232  0.081902554  0.089406009            1 
  129000    1.0748242    -2.724795    126.38144  0.081641759  0.089317001            3 
  130000    1.0477279   -2.7724909    127.76763  0.081902329  0.089237545            2 
  131000     1.047672   -2.7465282    128.87286  0.081980192  0.089157677            3 
  132000    1.0859658   -2.7575783    130.58781    0.0824418  0.089085098            2 
  133000    1.0543766   -2.7637302    130.98766  0.082072469  0.089011078            2 
  134000    1.0661138   -2.7650031    131.90776  0.082032189  0.088928132            1 
  135000    1.0219189   -2.7638737    131.84727  0.081387206  0.088834256            3 
  136000    1.0430909   -2.7786831     133.0967  0.081554351  0.088736125            1 
  137000    1.0452299   -2.7550247    133.64906  0.081295049  0.088643126            1 
  138000    1.0200483   -2.7315994    135.23681  0.081664739  0.088540795            3 
  139000    1.0657177   -2.7595668    135.59387  0.081291291  0.088436734            2 
  140000    1.0667632   -2.7785886    136.51552   0.08125924  0.088328178            1 
  141000    1.0723495    -2.771372     137.0398  0.080992791  0.088223685            4 
  142000    1.0528803     -2.77468    138.25088  0.081133146  0.088116065            3 
  143000    1.0388394   -2.7538808    138.57293  0.080753453  0.088004603            2 
  144000    1.0260421   -2.7595807    139.40122  0.080672003   0.08789552            1 
  145000    1.0309809   -2.7807451    140.40497  0.080692511  0.087785115            3 
  146000    1.0636877   -2.7776347    141.84095  0.080959448  0.087678726            1 
  147000    1.0342703   -2.8019788    142.97473  0.081051435  0.087579386            4 
  148000    1.0406548      -2.8049    144.07393  0.081122706  0.087491206            2 
  149000     1.034155    -2.781248    145.77421  0.081529201  0.087403195            2 
  150000    1.0388925    -2.798782      145.294  0.080718888  0.087313457            1 
  151000    1.0504762   -2.7860174     146.4354  0.080814238  0.087215463            3 
  152000    1.0129929   -2.8246806     146.7111  0.080433716  0.087110354            4 
  153000    1.0129066   -2.8177027     147.9584  0.080587364  0.087002311            3 
  154000    1.0332172    -2.793693    148.83653  0.080539247  0.086899136            4 
  155000    1.0370907   -2.7803454    149.39072  0.080317589  0.086788504            2 
  156000   0.98353817   -2.7989873    150.74161  0.080524366   0.08667331            3 
  157000     1.031467   -2.8041611    150.66376  0.079970147  0.086556419            1 
  158000    1.0155527   -2.8088169    151.69057  0.080005573  0.086434136            2 
  159000    1.0171433   -2.8076923    152.51632  0.079935176  0.086315574            7 
  160000   0.99364901   -2.7943268    153.68576  0.080044667   0.08619879            2 
  161000   0.99978127   -2.8300408    154.63285  0.080037705  0.086079401            3 
  162000    1.0077774   -2.8228362    154.91541  0.079688996  0.085967706            3 
  163000    1.0059627   -2.8422317    155.64526   0.07957324  0.085854717            3 
  164000     1.028245   -2.8255059    157.03882  0.079796146  0.085743423            3 
  165000    1.0340369   -2.8002672    158.27093  0.079934813  0.085633677            3 
  166000   0.99989794   -2.8042994    158.04675  0.079340736  0.085518485            5 
  167000   0.99307493   -2.8180457    159.96437  0.079822539  0.085403392            2 
  168000    1.0082117   -2.8042161    159.84442  0.079287906  0.085285429            3 
  169000   0.99319751     -2.84365    160.30513  0.079045921  0.085159923            3 
  170000   0.98358628   -2.8370625    161.10438  0.078972735  0.085037126            1 
  171000   0.99148928   -2.8360837    162.11095  0.079001438  0.084922889            3 
  172000    0.9962886   -2.8585211    162.90236   0.07892556  0.084798642            2 
  173000   0.97894141   -2.8119897    163.94759  0.078972826  0.084674343            2 
  174000   0.99606898   -2.8507965    163.81914  0.078457441  0.084545649            3 
  175000   0.98625677   -2.8584758    164.25663  0.078217445   0.08441238            2 
  176000   0.95645356   -2.8300295    165.13965   0.07819112  0.084273472            2 
  177000   0.98475076   -2.8420266    165.20899  0.077782011  0.084133951            2 
  178000   0.98886586   -2.8329354    166.59279  0.077992879  0.083988722            2 
  179000   0.97585097   -2.8599766     167.0798   0.07778389  0.083845443            4 
  180000   0.96755208    -2.850686     168.0938  0.077821202  0.083700294            2 
  181000   0.98820127   -2.8482404    168.29056  0.077481842  0.083557032            4 
  182000   0.98314564   -2.8540403    170.03434  0.077854552   0.08341773            5 
  183000   0.97433855   -2.8583688    169.45126  0.077163599  0.083277909            3 
  184000   0.96505524    -2.827402    170.75461  0.077334517  0.083138136            5 
  185000   0.97928746   -2.8480779    171.38493  0.077200419  0.082995285            5 
  186000   0.93937505   -2.8737236    172.26402  0.077179222  0.082857305            2 
  187000   0.97448168    -2.831259    173.49976  0.077317184  0.082724503            3 
  188000   0.96659774   -2.8563244    174.38077   0.07729644  0.082589774            2 
  189000   0.97271316   -2.8855812    175.01434  0.077166817  0.082462626            3 
  190000   0.94791824   -2.8961123     175.2834  0.076878686  0.082333125            1 
  191000   0.95630616   -2.8862674    176.36616  0.076948584  0.082203998            3 
  192000   0.97771156   -2.8986306    176.73457  0.076707714  0.082068977            2 
  193000   0.94703621   -2.8611892    177.29942  0.076554155   0.08193398            3 
  194000   0.96088843   -2.8919424    178.55715  0.076699805  0.081804235            1 
  195000   0.94376207    -2.855286    179.51655  0.076716473  0.081674418            2 
  196000   0.95824189   -2.8941597    179.67343  0.076391764  0.081543987            3 
  197000   0.94894638   -2.8862302     180.8349  0.076495306  0.081415103            2 
  198000   0.93708056   -2.8916354    181.54393  0.076407377  0.081289449            5 
  199000   0.94975704   -2.9016635    181.94651  0.076192004  0.081163431            2 
  200000   0.92965169   -2.8918267    182.90244  0.076209348  0.081038526            1 
  201000   0.95458746   -2.9025704    182.80038  0.075787886  0.080906702            5 
  202000   0.95194384   -2.8854516     184.4176  0.076079868  0.080779729            1 
  203000   0.95948716   -2.8757997    185.04124  0.075961098  0.080655958            4 
  204000   0.94118567   -2.8726644    185.59667  0.075815632  0.080532715            1 
  205000   0.93317871   -2.9201169    186.36314  0.075757372  0.080412087            3 
  206000   0.94625241   -2.9107333    187.07135   0.07567611  0.080291324            6 
  207000   0.93896755   -2.9179871    186.99691  0.075280558  0.080162549            4 
  208000   0.94521779   -2.8974729    188.03336  0.075333879  0.080034475            1 
  209000   0.93280877   -2.9072665      188.416  0.075125997  0.079908237            2 
  210000   0.92359802   -2.8738643    189.68162  0.075270486  0.079782957            3 
  211000   0.93365646    -2.931217    190.16363  0.075104117  0.079652918            1 
  212000   0.92060174   -2.8796651    191.26962  0.075184599  0.079530031            4 
  213000   0.93006734    -2.895852    192.07843  0.075148056  0.079409793            2 
  214000   0.91687974   -2.9304652    193.25327  0.075254388  0.079293747            2 
  215000   0.92802998   -2.9119922    193.91485  0.075160794  0.079176999            2 
  216000   0.94783325   -2.9301535    194.46113  0.075023584  0.079059576            2 
  217000   0.93943742   -2.9165781    195.19796  0.074960812  0.078939339            3 
  218000   0.91482197   -2.9448092    195.16968  0.074606148  0.078822659            4 
  219000   0.90662901   -2.9339489     196.3608   0.07471872  0.078706134            2 
  220000   0.90599913   -2.9247171    196.96565    0.0746082  0.078589409            3 
  221000   0.91245855   -2.9166613    197.43257  0.074446672  0.078470014            5 
  222000   0.91578254   -2.9411082    197.23535  0.074037294  0.078349632            3 
  223000   0.89874796   -2.9481551    198.36753  0.074128375  0.078224467            5 
  224000   0.93347202   -2.9213487    199.67258  0.074282954  0.078107599            3 
  225000   0.92528519   -2.9429949    199.92631  0.074046783  0.077987474            5 
  226000   0.88894865   -2.9100973    200.67765  0.073996183  0.077868662            3 
  227000   0.90551815   -2.9510848    201.46125  0.073957876  0.077747823            2 
  228000   0.91836004   -2.9528537    202.18544  0.073898187  0.077632834            5 
  229000   0.88347757   -2.9700933    203.03195  0.073883534  0.077516761            6 
  230000   0.89778539   -2.9528979    203.77932  0.073833088  0.077405169            2 
  231000   0.89706921   -2.9664832    203.89303  0.073554482   0.07728867            4 
  232000   0.89855093   -2.9567032    204.32305    0.0733919  0.077173558            5 
  233000   0.91074802   -2.9722063     203.9467  0.072942309  0.077052686            6 
  234000   0.90183407   -2.9716833    204.65899  0.072884257  0.076932187            5 
  235000   0.88431942    -2.961976    205.73774  0.072956647  0.076808316            8 
  236000   0.88730004   -2.9526851    205.46839  0.072552396  0.076682076            3 
  237000   0.89051956   -2.9743976    207.10015  0.072820023  0.076555015            2 
  238000   0.88946449   -2.9821834    207.58671  0.072684422  0.076433634            3 
  239000   0.87770392   -2.9885481    207.30799  0.072283121  0.076308768            5 
  240000   0.87056378   -2.9614186    208.98495  0.072564218  0.076185705            2 
  241000   0.88121235   -2.9771774     209.9405  0.072593534  0.076064712            3 
  242000   0.88752104   -2.9764683     209.1933  0.072036261  0.075941146            3 
  243000   0.86582998   -2.9825786    209.85041  0.071965161   0.07581498            4 
  244000   0.89923265   -2.9687243     210.2551  0.071808435   0.07568758            2 
  245000    0.8943191   -2.9620478    211.02099  0.071775846  0.075557855            4 
  246000    0.8814687   -2.9660376    211.84173  0.071762103  0.075432881            3 
  247000   0.86980131    -2.968862    212.42703  0.071669037  0.075305962            2 
  248000   0.86525522   -2.9954732    212.23392  0.071315162  0.075177833            3 
  249000    0.8787883   -2.9752831    213.06319   0.07130629   0.07505055            3 
  250000   0.88052591   -3.0124695    213.42099  0.071140331  0.074921678            3 
  251000   0.86280054   -3.0224072     213.6202  0.070923041  0.074789495            3 
  252000   0.85457443   -3.0095049    214.29964  0.070866284  0.074658558            3 
  253000   0.88390223   -3.0162072    214.59117  0.070682202  0.074529302            3 
  254000   0.84539253   -3.0260495    215.95024  0.070849816  0.074400946            2 
  255000   0.86583955   -2.9911107    217.00888  0.070917935  0.074275394            2 
  256000    0.8750918   -2.9839341    216.65991  0.070527316  0.074146223            4 
  257000   0.85812831   -3.0022786    218.25762  0.070770953  0.074018472            4 
  258000   0.85105861   -3.0446967    216.62184  0.069968295  0.073886981            2 
  259000   0.84849191   -3.0160882    217.66003  0.070032183  0.073755641            1 
  260000     0.853652   -3.0173617    218.53784  0.070044178  0.073625829            3 
  261000    0.8538579   -3.0252947    218.93533  0.069902723  0.073498041            2 
  262000   0.85736824   -3.0204888    220.17778  0.070031102  0.073368273            3 
  263000   0.83223803   -3.0182811    219.79429   0.06964331  0.073239933            4 
  264000   0.85176005   -3.0219076    220.20562  0.069509351  0.073110214            5 
  265000   0.84776044   -3.0469308    220.84156  0.069447032  0.072978354            3 
  266000   0.84408727   -3.0268077    221.01335  0.069239771  0.072847081            6 
  267000   0.85638894   -3.0466179    222.29516  0.069380511  0.072716602            3 
  268000   0.86266026   -3.0505012    222.89997  0.069309691  0.072587213            4 
  269000   0.84558191     -3.03586    223.64984  0.069284337  0.072457305            1 
  270000   0.85173892   -3.0242248    223.63185  0.069022175  0.072326942            3 
  271000   0.83028276   -3.0475064    223.02988  0.068582375  0.072195159            5 
  272000   0.85238586   -3.0445655    224.29661  0.068718325  0.072065864           10 
  273000   0.85345924   -3.0793003    223.34367  0.068175722   0.07193241            2 
  274000   0.82385759   -3.0413686    223.68021  0.068029261   0.07179824            3 
  275000   0.83544555   -3.0388092    225.59965  0.068363529  0.071663095            8 
  276000   0.83150798   -3.0516248    225.12907  0.067973753  0.071530341            7 
  277000   0.83398488   -3.0292625    226.10717  0.068022614  0.071394899            4 
  278000   0.82534232   -3.0302951    226.90504  0.068017099   0.07126071            2 
  279000   0.82594932   -3.0503209    226.25843  0.067580175   0.07112619            6 
  280000   0.81680562   -3.0452854    227.20163  0.067619533  0.070990172            2 
  281000    0.8151784   -3.0465964    226.73238  0.067239732  0.070852728            4 
  282000   0.82492327   -3.0699462     226.7715  0.067012854  0.070714473            3 
  283000   0.80083911   -3.0691273    227.09533  0.066871415  0.070576137            6 
  284000   0.81525097    -3.076157    229.40681  0.067314204  0.070439522            2 
  285000   0.81141009   -3.0766095    228.58029  0.066836341  0.070301343            3 
  286000   0.80318608   -3.0759848    229.48145  0.066865224  0.070164623            4 
  287000   0.82476522   -3.0847685    230.16014  0.066829308  0.070027731            4 
  288000   0.80567027   -3.0791567    230.01379  0.066554915  0.069890969            7 
  289000    0.8188944   -3.0932584    230.24649  0.066391722  0.069756009            4 
  290000    0.8160313    -3.061152    231.70012  0.066580494  0.069620893            2 
  291000   0.81763263   -3.1023502    231.39111  0.066263205  0.069489973            2 
  292000   0.79895467    -3.075767    232.62593  0.066388679  0.069356501            4 
  293000    0.8090522   -3.0904892    232.50231  0.066126937  0.069223692            6 
  294000   0.79626783   -3.1049353    232.32166  0.065850811   0.06908882            3 
  295000    0.7905231   -3.0808228    232.75744  0.065750689  0.068954051            2 
  296000   0.78979732   -3.0942407    233.43985  0.065720678  0.068820165            5 
  297000   0.78405502   -3.1022493    233.21161  0.065435356  0.068686071            6 
  298000   0.78792432   -3.0955532    234.02563  0.065443408  0.068552371            7 
  299000   0.79504234   -3.0860376    235.40676  0.065609463  0.068418648            6 
  300000   0.79447448   -3.1032145    234.78055  0.065216819  0.068285131            6 
  301000   0.81477591    -3.107901    235.18751  0.065112822  0.068151526            7 
  302000   0.78971535   -3.1177265    235.75058  0.065052589  0.068018111            4 
  303000   0.79096932   -3.1035527    235.91222  0.064882347  0.067885358            8 
  304000   0.79066446   -3.1096616    236.52244  0.064836194  0.067751547            1 
  305000   0.79242902   -3.1343488    236.29551  0.064561614  0.067620009            3 
  306000   0.78283094   -3.1384384    237.47366  0.064671475  0.067488316            4 
  307000   0.78146478   -3.1144366    237.72361  0.064528667  0.067357446            4 
  308000   0.75449829   -3.1397571    238.03498  0.064403403  0.067226659            4 
  309000   0.77336282   -3.1155874    238.93864  0.064438683  0.067096973            4 
  310000   0.78124769   -3.1590419    239.29819  0.064327469  0.066967308            4 
  311000   0.78067615   -3.1147357    238.93594  0.064023565  0.066835689            5 
  312000   0.78206652    -3.151719    240.13565  0.064138796   0.06670568            5 
  313000   0.77761892   -3.1318922    240.22956  0.063958882  0.066575168            6 
  314000   0.76307879   -3.1312946    240.32643  0.063780899  0.066444937            5 
  315000   0.76714998   -3.1540101    240.20216  0.063545546  0.066313726            4 
  316000   0.76741821   -3.1336816    241.38139   0.06365543  0.066182025            5 
  317000   0.76830502     -3.16545    241.27932  0.063427792  0.066048651            3 
  318000   0.76320176   -3.1427621    241.58499  0.063308435  0.065915827            4 
  319000   0.74569917   -3.1626966    240.90457  0.062932229  0.065783227            4 
  320000   0.72931168   -3.1574814    241.24006  0.062822933   0.06564978            6 
  321000   0.75084212   -3.1522918    242.37634  0.062922207  0.065516702            4 
  322000   0.74249133   -3.1603097    242.33451  0.062715969  0.065383612            7 
  323000   0.74974197   -3.1581621    243.09229  0.062717308  0.065252302            7 
  324000   0.76279512    -3.170884    242.44596    0.0623575   0.06512096            4 
  325000   0.73545333   -3.1587801    243.94153  0.062549109  0.064987416            3 
  326000   0.74765873   -3.1755492    243.19592  0.062166646  0.064855516            2 
  327000   0.74607683    -3.183151    243.70098  0.062105244  0.064724269            4 
  328000   0.76471169   -3.1511903    244.09897  0.062017014  0.064592522            5 
  329000   0.72008386   -3.1811987     244.3463  0.061891159  0.064462741            2 
  330000   0.73464403   -3.1693889    244.80767  0.061820118   0.06433195            7 
  331000   0.73799933   -3.1542473    245.23969  0.061742118  0.064201655            6 
  332000   0.73648603     -3.16876    245.57023  0.061639113  0.064071952            6 
  333000   0.74190623   -3.1813735    245.48032  0.061431512  0.063941928            4 
  334000   0.72358377   -3.2028516    246.23984  0.061437085  0.063810595            8 
  335000   0.71924786   -3.2038305    246.00694  0.061195755  0.063677882            8 
  336000      0.72389   -3.1963787    246.45201  0.061124011  0.063547242            4 
  337000   0.73020296   -3.2255189    247.15617  0.061116759  0.063414958            4 
  338000   0.74679295   -3.1972437     247.3826  0.060991766  0.063285595            4 
  339000   0.71892833   -3.2097541    248.06718  0.060980133   0.06315697            3 
  340000   0.72378934   -3.1731606    248.53493  0.060915423  0.063029778            7 
  341000   0.72439352   -3.1776532    249.37286  0.060941558  0.062903294            3 
  342000   0.72743593   -3.2012593    248.83168  0.060631501  0.062775826            4 
  343000   0.70196061   -3.2108897     248.5334  0.060382265  0.062646556            3 
  344000   0.72138288   -3.2087257    249.08557  0.060340497  0.062518257            6 
  345000   0.73586011   -3.2117927    249.33941  0.060226911  0.062389761            9 
  346000   0.71656097   -3.2138921    250.43352  0.060316358  0.062262325            4 
  347000   0.71368529   -3.2184526    250.07062  0.060055383   0.06213496            2 
  348000   0.72078079    -3.230531    251.18727  0.060150208  0.062008767            4 
  349000   0.71555733     -3.21314    250.19749   0.05974152  0.061881627            5 
  350000   0.69927357   -3.2286139    250.87915   0.05973313  0.061754374            4 
  351000   0.70598866    -3.236206    250.91777  0.059572119  0.061626429            7 
  352000    0.7174328   -3.2290136     250.8001  0.059375024   0.06149953            5 
  353000   0.72228995   -3.2417164    251.15049   0.05928954  0.061372295            4 
  354000   0.69827717   -3.2273507    251.70416  0.059252392  0.061245404            8 
  355000   0.70493348   -3.2441384    251.54433  0.059047966  0.061118784            3 
  356000   0.69553382   -3.2394338    252.11609  0.059015939  0.060993026            7 
  357000   0.70693678   -3.2549204    252.02502  0.058829369  0.060866805            5 
  358000   0.70311989   -3.2304717    253.04352  0.058902123   0.06074152            4 
  359000   0.68619625   -3.2326888     253.3324  0.058805108  0.060616366            4 
  360000   0.68592051   -3.2478089    253.15319  0.058600276  0.060491138            4 
  361000   0.69043614   -3.2438752     253.2984  0.058471467  0.060365201            6 
  362000   0.69210548    -3.266322    252.34329  0.058090075  0.060238245            5 
  363000   0.70536173   -3.2448305    253.98603  0.058307169  0.060111868            4 
  364000   0.69293154   -3.2796178    252.42805  0.057790304  0.059984955           13 
  365000   0.68307635    -3.262551    253.63552  0.057907654  0.059856201           19 
  366000   0.68545281   -3.2690995    254.25786  0.057891133  0.059729542            7 
  367000   0.68057613   -3.2808179     253.9866  0.057671798  0.059601488           11 
  368000   0.68383641   -3.2605449     255.4571  0.057848075  0.059475184            5 
  369000   0.67639382   -3.2893139    254.89978  0.057565442  0.059349002            6 
  370000   0.67192935   -3.3095359    254.84086  0.057396591  0.059223501            7 
  371000   0.68669905   -3.2647002    255.82908  0.057463854  0.059098982            2 
  372000   0.67597875   -3.2944657     255.9568  0.057337992  0.058975302            6 
  373000   0.65911444   -3.2787063     255.9487  0.057182462    0.0588525            8 
  374000   0.67629348   -3.2950629    256.89445  0.057240297  0.058730975            4 
  375000   0.67192914   -3.3209632    256.99229  0.057109398  0.058609534           13 
  376000   0.66017965   -3.2822613    257.52635  0.057075876  0.058486849            6 
  377000   0.67099622   -3.2890241    257.77702  0.056979889   0.05836638           10 
  378000   0.65674892   -3.2915937    258.21897  0.056926581   0.05824439            4 
  379000   0.65516516   -3.2840098    257.57281  0.056634302  0.058122814            5 
  380000    0.6631552   -3.2909498    258.46455  0.056680823   0.05800157            7 
  381000   0.65882884   -3.3055078    258.38523  0.056514704  0.057880757            5 
  382000   0.65120143   -3.3220103    257.95502  0.056272909  0.057759226            4 
  383000   0.65486371   -3.2878715    258.85546  0.056321901  0.057638988            8 
  384000    0.6556184   -3.3147185    258.58059  0.056115579  0.057518031            5 
  385000   0.65772513   -3.3309923    258.80825  0.056019101  0.057396828            4 
  386000   0.64402881   -3.3196135    259.17951  0.055954125   0.05727583           14 
  387000   0.65373536    -3.323832     258.8082  0.055729587  0.057153576            6 
  388000   0.64389807   -3.3351286    258.23748  0.055463376  0.057031588            8 
  389000   0.64280573   -3.3405628     259.4948  0.055590146  0.056909265            6 
  390000   0.63872855   -3.2999967    260.08988  0.055574761  0.056788011            5 
  391000   0.63951003   -3.3314297    259.84653  0.055380761  0.056667154           11 
  392000   0.64009911   -3.3333246    259.23795  0.055110109  0.056545807            7 
  393000   0.63402728   -3.3287656    259.38904  0.055001918  0.056424881            6 
  394000   0.64099332    -3.346599    260.36059  0.055067806  0.056304542            9 
  395000   0.62256363   -3.3583624    260.48375  0.054954377  0.056184493            5 
  396000   0.62927659   -3.3465215    259.83948  0.054680025  0.056064081            5 
  397000   0.63084434   -3.3583573    260.75804  0.054735104  0.055943203           12 
  398000   0.63517771   -3.3597378    260.49235   0.05454195  0.055822825            7 
  399000   0.64282145   -3.3494984    260.80963  0.054471518  0.055703639            5 
  400000   0.61605614   -3.3470643    261.10369  0.054396601  0.055584873            6 
  401000    0.6398699   -3.3787747    262.00038  0.054447294  0.055466878            6 
  402000   0.61376557   -3.3588728    262.18365  0.054349845  0.055349791            6 
  403000   0.63562558   -3.3410613    262.28826  0.054236614  0.055233618            7 
  404000   0.61986459    -3.364663    262.02315   0.05404768  0.055117154           12 
  405000   0.61221577   -3.3586296    262.95729  0.054106439  0.055001013            8 
  406000   0.62573252   -3.3597572    262.77731  0.053936229  0.054884232            6 
  407000   0.62359239   -3.3598211    263.04368  0.053858246  0.054767922           10 
  408000    0.6110574   -3.3556777    263.13505  0.053744904  0.054652292            5 
  409000    0.6122359   -3.3808564    263.05301  0.053596783  0.054536321            6 
  410000   0.61001028   -3.3946972    263.00782  0.053456873  0.054420288            9 
  411000   0.60276751   -3.3908876    263.85369  0.053498315  0.054304596            9 
  412000   0.61683617   -3.3928615     264.0799  0.053414219  0.054189624            6 
  413000   0.61019931   -3.3830131    264.16001  0.053301052  0.054074848            5 
  414000   0.59734369   -3.3944783    264.25542   0.05319151  0.053960261            4 
  415000   0.61777503   -3.4008423    263.57459  0.052926624  0.053846284            8 
  416000    0.6117032   -3.3903938    264.82487  0.053049854  0.053731948            7 
  417000   0.60857719    -3.407948    264.21947  0.052801653  0.053617836            8 
  418000   0.61375837   -3.3802851    264.52784   0.05273681  0.053503513            6 
  419000   0.60792295   -3.3921534    264.32193  0.052569994   0.05338926            8 
  420000   0.60293483   -3.4091985    264.12439  0.052405632  0.053274462            8 
  421000   0.58538051   -3.4085905    265.36259  0.052526246  0.053159575            8 
  422000   0.58861819   -3.3919267    265.46958  0.052422902  0.053047107            9 
  423000   0.59692616   -3.4158663    265.13212   0.05223249  0.052933945            6 
  424000   0.58747649   -3.4085208    265.38412  0.052158828  0.052820908            7 
  425000   0.58352874   -3.4186651    265.58241  0.052074982  0.052708518            6 
  426000   0.58126152   -3.4107665    265.43654  0.051924206  0.052595572           14 
  427000   0.58773794   -3.4299916    266.35323  0.051981504  0.052483908            8 
  428000   0.57692851   -3.4328984    266.09297  0.051809378  0.052371835            9 
  429000   0.58349614   -3.4390808    266.39485  0.051747251  0.052259441            5 
  430000   0.58569999   -3.4161849    266.57921  0.051662638  0.052147396           10 
  431000   0.56683132    -3.433336     266.3611    0.0515006  0.052035185            8 
  432000   0.58496211   -3.4334684    267.11176  0.051526188   0.05192339           11 
  433000    0.5807534    -3.430644    266.00427  0.051194047  0.051811847            8 
  434000   0.58063154   -3.4614915    265.92741  0.051061331  0.051699665           12 
  435000   0.57083581   -3.4363064    267.01552  0.051152398  0.051587081            7 
  436000   0.56898201   -3.4375001     266.1773  0.050874865  0.051474515            5 
  437000   0.57081678   -3.4656139    266.27929  0.050777897  0.051361903           17 
  438000   0.56254148   -3.4527865    266.98404   0.05079605  0.051249402            5 
  439000   0.56873244   -3.4523654    266.06147  0.050505215  0.051136481            7 
  440000   0.56428666   -3.4376208    265.59182   0.05030148  0.051023935            8 
  441000    0.5688157   -3.4551017    266.35457  0.050331552  0.050911335           14 
  442000   0.55550268   -3.4696881    266.08166  0.050166226  0.050798749            4 
  443000   0.56550749   -3.4695521    266.28047  0.050090382  0.050685759            9 
  444000   0.55111209   -3.4815234    267.15313  0.050141353   0.05057238           13 
  445000   0.55129897   -3.4699746    266.78287  0.049959339  0.050459563           11 
  446000   0.56967612   -3.4835621    265.36798  0.049582956  0.050346675           10 
  447000   0.55413477   -3.4902945    266.59036  0.049699918  0.050233555            7 
  448000   0.55649914   -3.4768128    267.06991  0.049678183  0.050120845            5 
  449000    0.5632022   -3.4763628    267.58766  0.049663633  0.050009302            7 
  450000   0.55217324    -3.476418    266.93208  0.049431866  0.049897554           13 
  451000   0.54731055   -3.4866984    267.73569  0.049470748  0.049785837            6 
  452000   0.54833049   -3.4928731    267.27366  0.049276116  0.049674509           13 
  453000    0.5324854   -3.5124171    267.03049  0.049122606  0.049563398            7 
  454000   0.52335902   -3.4914522    267.29846  0.049063594  0.049452634           11 
  455000   0.53927617   -3.5097745    266.84417  0.048872559  0.049342002           11 
  456000   0.54931744   -3.4967288    267.74507   0.04893002   0.04923122           10 
  457000   0.52959173   -3.5217738    267.68003  0.048811092  0.049120677            9 
  458000     0.543347   -3.5029044    268.14515  0.048789147  0.049010669           15 
  459000   0.54558739   -3.5183472    267.71502  0.048604761  0.048900263           14 
  460000    0.5218294   -3.5207712     268.0605  0.048561684   0.04879003            8 
  461000   0.54058155    -3.520371    267.14087  0.048290107  0.048679381           11 
  462000   0.54235111   -3.5308499     267.2926  0.048212952  0.048569104           15 
  463000   0.52440423   -3.5354378    267.75685  0.048192378  0.048459309           10 
  464000   0.52022782   -3.5252751    267.39555  0.048023625  0.048349348            7 
  465000   0.50532353   -3.5274998    267.87585  0.048006425  0.048239284           15 
  466000   0.51989604   -3.5277902    267.82864  0.047894965  0.048129419            7 
  467000   0.52764783   -3.5501801     267.3611  0.047708976   0.04801953           12 
  468000   0.52307224   -3.5455025    266.81887  0.047510483  0.047909209           10 
  469000      0.51692   -3.5515096     267.6712  0.047560625  0.047799186           21 
  470000   0.51879943    -3.559582    268.23431  0.047559274  0.047689296           16 
  471000   0.51867857   -3.5543881    267.61612  0.047348924  0.047579531           12 
  472000   0.50902663   -3.5349989    267.57677  0.047241661  0.047469889           14 
  473000   0.51716992   -3.5573322     267.8185  0.047184373  0.047361051           14 
  474000   0.50225469   -3.5648504    267.66094  0.047057128  0.047251685           11 
  475000   0.51855951   -3.5465557    267.81313   0.04698476  0.047142485            7 
  476000   0.50958998   -3.5600408     267.5665  0.046842875  0.047033619           13 
  477000   0.50249622   -3.5593875    267.98792  0.046818294  0.046924538           23 
  478000   0.50018532   -3.5521824    267.93553  0.046711215  0.046816281           10 
  479000   0.49900052   -3.5508947    267.48683  0.046535636  0.046708492           26 
  480000   0.50727989   -3.5516313    267.66831  0.046470192  0.046600669           16 
  481000   0.49626538   -3.5802632    267.96389   0.04642479  0.046492347           21 
  482000   0.49730934   -3.5614576    267.31522  0.046216325  0.046384294           11 
  483000   0.50495594   -3.5784925    267.34496  0.046125769  0.046276046           12 
  484000   0.49342337    -3.589854    267.57092  0.046069374   0.04616784           12 
  485000   0.49044254   -3.5923469    268.04264  0.046055437  0.046059523           21 
  486000   0.48335465   -3.6017468    267.86762  0.045930662  0.045951545           17 
  487000   0.47933163   -3.6103076    267.64638   0.04579849  0.045843568           13 
  488000   0.48832348   -3.5865608    268.11815  0.045785203  0.045736237           19 
  489000   0.47883093   -3.5948716    267.79959  0.045637285  0.045629651           27 
  490000   0.49415717   -3.5882903    267.75918  0.045537275  0.045522918           24 
  491000   0.48015565   -3.6034632    267.55697  0.045410213  0.045415696            8 
  492000   0.47876753    -3.597714     267.6037  0.045325829  0.045308786           14 
  493000   0.47655398    -3.597774    268.07883  0.045314203   0.04520236           29 
  494000   0.47665585   -3.6084854    267.77122  0.045170584  0.045096041           41 
  495000   0.46727299   -3.6300729    267.66927  0.045062166  0.044989414           15 
  496000   0.47666697   -3.6131129     268.0036  0.045027486  0.044882897            7 
  497000   0.48574507   -3.6355179    267.60424  0.044869926  0.044776921           17 
  498000   0.46286967   -3.6114162     268.1799  0.044876154  0.044670961           13 
  499000   0.46568977   -3.6298731    268.69032  0.044871462  0.044565141           16 
  500000   0.46530969   -3.6210862     268.0481  0.044674683  0.044459763           21 
  501000   0.47308806   -3.6210981    267.79032  0.044542634  0.044354201           13 
  502000   0.48218146   -3.6363636     268.1929  0.044520734  0.044248875           20 
  503000   0.47209367   -3.6463831    267.78159  0.044364081  0.044143412           21 
  504000    0.4749132   -3.6453041     267.7703  0.044274189  0.044038189           29 
  505000   0.46747721   -3.6422021    267.52039  0.044145278  0.043933277           29 
  506000    0.4511895   -3.6437601    267.96655  0.044131514  0.043828558           12 
  507000   0.46277852   -3.6378901     267.8031  0.044017604  0.043724267           14 
  508000   0.44677488   -3.6554474    267.64994  0.043905831  0.043620108           21 
  509000   0.44672895   -3.6387309    267.67339   0.04382341  0.043516122           33 
  510000   0.46234607   -3.6505217    267.78491  0.043755705    0.0434128           24 
  511000   0.45964634   -3.6574099    267.81836  0.043675532  0.043309363           21 
  512000   0.45125732   -3.6521091    267.52096  0.043541824  0.043205903           34 
Loop time of 1206.42 on 48 procs for 500000 steps with 4000 atoms

Performance: 71616.656 tau/day, 414.448 timesteps/s
99.4% CPU use with 48 MPI tasks x no OpenMP threads

MPI task timing breakdown:
Section |  min time  |  avg time  |  max time  |%varavg| %total
---------------------------------------------------------------
Pair    | 78.317     | 83.801     | 91.099     |  31.1 |  6.95
Neigh   | 8.1191     | 8.4591     | 8.799      |   6.2 |  0.70
Comm    | 75.573     | 84.048     | 90.662     |  35.3 |  6.97
Output  | 0.8564     | 0.85684    | 0.8662     |   0.1 |  0.07
Modify  | 1015       | 1018.2     | 1020.3     |   4.0 | 84.40
Other   |            | 11.04      |            |       |  0.92

Nlocal:        83.3333 ave          89 max          77 min
Histogram: 3 1 4 6 3 16 3 3 6 3
Nghost:        2188.21 ave        2206 max        2167 min
Histogram: 2 2 2 4 12 5 7 9 3 2
Neighs:        14508.4 ave       16286 max       12843 min
Histogram: 2 0 8 8 6 7 10 4 2 1
FullNghs:      29016.8 ave       31069 max       26519 min
Histogram: 1 3 3 6 5 8 9 4 7 2

Total # of neighbors = 1392807
Ave neighs/atom = 348.20175
Neighbor list builds = 27150
Dangerous builds = 0

#clear
#
#next RN
#
#jump SELF
Total wall time: 0:20:09
