
units lj                  # Use reduced LJ style units
atom_style atomic         # Uncharged point particles
atom_modify map hash      # Needed for indexing of clusters etc
                          # Used to be able to find where atoms are in relation to each other.

lattice fcc 1.0 spacing 1 1 1
Lattice spacing in x,y,z = 1.5874011 1.5874011 1.5874011
region box block 0 10 0 10 0 10 units lattice
create_box 2 box
Created orthogonal box = (0.0000000 0.0000000 0.0000000) to (15.874011 15.874011 15.874011)
  3 by 4 by 4 MPI processor grid
create_atoms 1 box
Created 4000 atoms
  using lattice units in orthogonal box = (0.0000000 0.0000000 0.0000000) to (15.874011 15.874011 15.874011)
  create_atoms CPU = 0.043 seconds
set type 1 type/fraction 2 0.46 78393
Setting atom values ...
  1843 settings made for type/fraction
mass 1 1.0
mass 2 1.0
pair_style lj/cut  3.5
pair_modify tail  yes
pair_coeff 1  1  1.0  1.0   # Intearaction between 1 and 1 set with epsilon = 1 and sigma = 1
pair_coeff 1  2  1.5  0.8
pair_coeff 2  2  0.5  0.88

write_data data.0
System init for write_data ...
Neighbor list info ...
  update every 1 steps, delay 10 steps, check yes
  max neighbors/atom: 2000, page size: 100000
  master list distance cutoff = 3.8
  ghost atom cutoff = 3.8
  binsize = 1.9, bins = 9 9 9
  1 neighbor lists, perpetual/occasional/extra = 1 0 0
  (1) pair lj/cut, perpetual
      attributes: half, newton on
      pair build: half/bin/atomonly/newton
      stencil: half/bin/3d
      bin: standard
WARNING: Not all mixed pair coeffs generated from mixing. Use write_data with 'pair ij' option to store all pair coeffs. (../write_data.cpp:312)


#############################
#   M E L T   S Y S T E M   #
#############################

velocity all create 2.4 3143649 mom yes dist gaussian # Assign velocities
                                                    # Temperature 2.4, random number seed, zero linear momentum
                                                                                # Gaussian distribution

timestep 0.002   # simulation timestep
thermo 1000       # output thermodynamic data every 1000 steps bf 100

# Define a fix  in this case with index 1 applied to all
# particles in the simulation. This fix is for simulations
# in the anisotropic NPT ensemble. Note that we use the MTK
# correction.
fix 1 all npt temp 2.4 2.4 0.1 iso 5.68 5.68 0.5 mtk yes tchain 5 pchain 5 # Use NPT ensemble
                                                                         # Set temperature and pressure and damping
                                                                         # Numbers of thermostats in chain and in barostat
run 10000          # run for 10000 steps
Per MPI rank memory allocation (min/avg/max) = 3.642 | 3.644 | 3.648 Mbytes
Step Temp E_pair E_mol TotEng Press Volume 
       0          2.4   -5.5244938            0   -1.9253938   -4.2019961         4000 
    1000    2.4306451   -4.9499569            0   -1.3049008     5.640604    3778.4114 
    2000    2.4301195   -4.9300652            0   -1.2857972    5.8901367    3776.0039 
    3000    2.3349936   -4.9436655            0   -1.4420508    5.6745437    3770.7895 
    4000    2.4215321   -5.0539243            0   -1.4225343    5.7372186    3730.9059 
    5000    2.4392364   -4.9629566            0   -1.3050167    5.7467507    3771.2744 
    6000    2.3922215   -5.0207825            0   -1.4333473    5.1231425    3790.1761 
    7000    2.4194139   -5.0160744            0   -1.3878609    5.9802692    3731.3419 
    8000    2.3952421   -4.9705811            0   -1.3786161    5.9521271    3751.9358 
    9000     2.384865   -4.9666751            0   -1.3902719    5.5095157    3780.4567 
   10000    2.4324146   -4.9996714            0   -1.3519616    6.2233774    3710.5783 
Loop time of 2.574 on 48 procs for 10000 steps with 4000 atoms

Performance: 671328.777 tau/day, 3885.004 timesteps/s
99.6% CPU use with 48 MPI tasks x no OpenMP threads

MPI task timing breakdown:
Section |  min time  |  avg time  |  max time  |%varavg| %total
---------------------------------------------------------------
Pair    | 1.1518     | 1.2237     | 1.2937     |   2.8 | 47.54
Neigh   | 0.21055    | 0.21901    | 0.22827    |   0.8 |  8.51
Comm    | 0.77564    | 0.86255    | 0.94871    |   3.8 | 33.51
Output  | 0.00023925 | 0.00024637 | 0.00031936 |   0.0 |  0.01
Modify  | 0.22537    | 0.25294    | 0.2875     |   3.0 |  9.83
Other   |            | 0.01557    |            |       |  0.60

Nlocal:        83.3333 ave          92 max          71 min
Histogram: 2 1 3 3 5 6 10 12 3 3
Nghost:        1730.56 ave        1763 max        1691 min
Histogram: 2 3 4 4 4 8 9 7 3 4
Neighs:        10289.6 ave       12153 max        8705 min
Histogram: 4 4 3 5 9 13 6 3 0 1

Total # of neighbors = 493902
Ave neighs/atom = 123.47550
Neighbor list builds = 902
Dangerous builds = 180

# Equilibrate just above the melting temperature to avoid step fn in T

fix 1 all npt temp 1.25 1.25 0.1 iso 5.68 5.68 0.5 mtk yes tchain 5 pchain 5
run 2000
Per MPI rank memory allocation (min/avg/max) = 3.644 | 3.645 | 3.649 Mbytes
Step Temp E_pair E_mol TotEng Press Volume 
   10000    2.4324146   -4.9996714            0   -1.3519616    6.2233774    3710.5783 
   11000    1.2560826    -7.046119            0   -5.1624661    5.6879074    2957.8546 
   12000    1.2658818     -7.10474            0   -5.2063919    5.7911397    2938.7267 
Loop time of 0.624696 on 48 procs for 2000 steps with 4000 atoms

Performance: 553228.983 tau/day, 3201.557 timesteps/s
99.7% CPU use with 48 MPI tasks x no OpenMP threads

MPI task timing breakdown:
Section |  min time  |  avg time  |  max time  |%varavg| %total
---------------------------------------------------------------
Pair    | 0.27904    | 0.3067     | 0.33332    |   1.9 | 49.10
Neigh   | 0.039166   | 0.041562   | 0.043965   |   0.5 |  6.65
Comm    | 0.19834    | 0.22731    | 0.26062    |   2.6 | 36.39
Output  | 5.0014e-05 | 5.1967e-05 | 6.6839e-05 |   0.0 |  0.01
Modify  | 0.039718   | 0.044154   | 0.047615   |   1.0 |  7.07
Other   |            | 0.004925   |            |       |  0.79

Nlocal:        83.3333 ave          91 max          77 min
Histogram: 2 3 7 7 7 10 5 5 1 1
Nghost:        2030.81 ave        2045 max        2013 min
Histogram: 2 2 4 5 3 11 7 9 2 3
Neighs:        13000.0 ave       14549 max       11731 min
Histogram: 3 3 5 7 11 9 3 3 2 2

Total # of neighbors = 624000
Ave neighs/atom = 156.00000
Neighbor list builds = 140
Dangerous builds = 7

#############################
# L I N E A R  Q U E N C H  #
#############################

# Define solid atoms. This closely follows ten Wolde  Ruiz-Montero and Frenkel  Faraday Discuss  1996  104  93-110
# Compute components of the per-atom q6 vector
compute q6 all orientorder/atom degrees 1 6 components 6 nnn NULL cutoff 1.3 # compute the Q6 parameter.
                                                                             # Use all neighbours within 1.3 unit cell.

# get number of connections
compute coord_number all coord/atom orientorder q6 0.5

# An atom is solid if it has 8 or more connections (of a possible 14)
variable is_solid atom c_coord_number>=8
group solid dynamic all var is_solid    # Must be dynamic to update
dynamic group solid defined

# do clustering
compute cluster solid cluster/atom 1.3 # Create a cluster where all atoms within are solid and max 1.3 units from another member

# define chunks one chunk per cluster
compute clus_chunks solid chunk/atom c_cluster nchunk every compress yes  # Says which atoms are in which chunk

# count the size of each chunk
compute size_chunks solid property/chunk clus_chunks count


# Find the maximum entry in the vector of chunk sizes
variable max_n equal max(c_size_chunks)


# Thermo style which includes this variable
# thermo_style custom step temp pe vol v_max_n

thermo ${N}  # Print the thermo information every 100 steps
thermo 1000  

# Reset the npt fix at a lower temperature (below freezing)
fix 1  all npt temp  ${temp} ${temp}  0.1  iso  5.68  5.68  0.5  mtk yes tchain  5  pchain  5
fix 1  all npt temp  0.45 ${temp}  0.1  iso  5.68  5.68  0.5  mtk yes tchain  5  pchain  5
fix 1  all npt temp  0.45 0.45  0.1  iso  5.68  5.68  0.5  mtk yes tchain  5  pchain  5

dump dmp2 all dcd ${N} traj.dcd
dump dmp2 all dcd 1000 traj.dcd


compute msd all msd com yes
variable twopoint equal c_msd[4]/6/(step*dt+1.0e-6)
fix 9 all vector 10 c_msd[4]
variable fit equal slope(f_9)/6/(10*dt)
thermo_style custom step temp pe c_msd[4] v_twopoint v_fit v_max_n

fix 1 all npt temp 1.25 ${temp} 0.1 iso 5.68 5.68 0.5 mtk yes tchain 5 pchain 5
fix 1 all npt temp 1.25 0.45 0.1 iso 5.68 5.68 0.5 mtk yes tchain 5 pchain 5
run 5000000 # 5000000  # Run for this many steps
Neighbor list info ...
  update every 1 steps, delay 10 steps, check yes
  max neighbors/atom: 2000, page size: 100000
  master list distance cutoff = 3.8
  ghost atom cutoff = 3.8
  binsize = 1.9, bins = 8 8 8
  4 neighbor lists, perpetual/occasional/extra = 1 3 0
  (1) pair lj/cut, perpetual
      attributes: half, newton on
      pair build: half/bin/atomonly/newton
      stencil: half/bin/3d
      bin: standard
  (2) compute orientorder/atom, occasional
      attributes: full, newton on
      pair build: full/bin/atomonly
      stencil: full/bin/3d
      bin: standard
  (3) compute coord/atom, occasional
      attributes: full, newton on
      pair build: full/bin/atomonly
      stencil: full/bin/3d
      bin: standard
  (4) compute cluster/atom, occasional
      attributes: full, newton on
      pair build: full/bin/atomonly
      stencil: full/bin/3d
      bin: standard
Per MPI rank memory allocation (min/avg/max) = 9.836 | 9.840 | 9.845 Mbytes
Step Temp PotEng c_msd[4] v_twopoint v_fit v_max_n 
   12000    1.2658818     -7.10474 8.0390843e-30 5.5826972e-32 8.3333333e+20            3 
   13000    1.2369254   -7.1788056   0.46753824 0.0029970399  0.038759361            2 
   14000    1.2516872   -7.1429203   0.85557615  0.005092715  0.034494361            1 
   15000    1.2667854   -7.1377495    1.2579644 0.0069886909  0.033694184            2 
   16000    1.2158347    -7.138169    1.6373123 0.0085276682   0.03294884            2 
   17000    1.2575099   -7.1069562    2.0720981  0.010157343  0.033412712            1 
   18000    1.2719693   -7.1432511    2.4704199  0.011437129  0.033587158            3 
   19000    1.2361345   -7.1351382    2.8609948  0.012548222  0.033532835            1 
   20000    1.2358879   -7.1295019    3.2611313  0.013588047  0.033348637            1 
   21000    1.2692457   -7.1431955    3.6594496  0.014521625  0.033427215            4 
   22000    1.2648841   -7.1242997    4.1080521  0.015560803  0.033536895            1 
   23000    1.2408959    -7.131581    4.4812536  0.016236426  0.033649238            2 
   24000    1.2365452   -7.1594376    4.9171626  0.017073481  0.033710919            2 
   25000    1.2306726   -7.1109485    5.3336175  0.017778725  0.033837116            2 
   26000    1.2717375    -7.094199    5.7446704  0.018412405  0.033853573            3 
   27000    1.2628654   -7.2093243    6.1483856  0.018976498  0.033900332            4 
   28000    1.2450163    -7.155016     6.522358  0.019411779  0.033873411            1 
   29000    1.2500309   -7.1546326    6.8732213  0.019750636  0.033767424            2 
   30000    1.2708744   -7.1568234     7.336071  0.020377975  0.033725621            1 
   31000    1.2578604   -7.2345621    7.8020849  0.020973346  0.033796872            4 
   32000    1.2220595    -7.214477    8.2616864  0.021514808   0.03396771            3 
   33000    1.2713839   -7.1278149    8.6635024  0.021877531  0.034047534            4 
   34000     1.249044   -7.1551006    9.1107492  0.022330267  0.034114827            1 
   35000    1.2405572   -7.1720467    9.5369231   0.02270696  0.034223933            2 
   36000    1.2396175   -7.1767965    10.002395  0.023153691   0.03433931            3 
   37000    1.2500258   -7.1376374    10.432327  0.023496231  0.034467035            2 
   38000    1.2764045   -7.1482152    10.726871  0.023523841   0.03451535            2 
   39000    1.2397507   -7.1296708    11.250749  0.024040062  0.034543978            2 
   40000     1.241582   -7.1269965    11.668974  0.024310363  0.034598653            2 
   41000    1.2685008   -7.1615694     12.18834  0.024773048  0.034694487            1 
   42000    1.2593802   -7.1464748    12.626077  0.025051739  0.034806374            1 
   43000    1.2442444   -7.1648479    13.081435  0.025351618   0.03488396            2 
   44000    1.2524861   -7.1748619    13.405045  0.025388342  0.034931141            1 
   45000    1.2671593   -7.1349306    13.786684  0.025530895  0.034955833            1 
   46000    1.2507231   -7.1364647    14.349468  0.025995414   0.03499982            1 
   47000    1.2765013   -7.1291931    14.676722  0.026022556  0.035053909            2 
   48000    1.2752635   -7.1562658      15.0441  0.026118229  0.035058491            3 
   49000    1.2587681   -7.1895706    15.411246  0.026209601  0.035059862            1 
   50000    1.2528151    -7.131757    15.797294  0.026328822  0.035039433            1 
   51000    1.2243717   -7.1328245    16.331207  0.026684978  0.035034622            2 
   52000    1.2645652   -7.1490463    16.660746  0.026699913  0.035035579            4 
   53000    1.2308332   -7.1145176    17.007038  0.026740626  0.035018357            3 
   54000    1.2411888   -7.1367434    17.391788  0.026839178  0.034976515            1 
   55000    1.2703901   -7.1398981    17.779813   0.02693911  0.034927272            2 
   56000     1.251565   -7.1468342     18.08581  0.026913407  0.034861832            1 
   57000     1.217778   -7.1475762    18.472555  0.027006659  0.034787694            1 
   58000    1.2606543   -7.1578079    18.836123  0.027063395  0.034709493            2 
   59000    1.2107977   -7.2081755    19.102007  0.026980236  0.034633763            1 
   60000    1.2654735   -7.1776755    19.498852  0.027081738  0.034549222            2 
   61000    1.2379721   -7.1310244    19.984173  0.027300783  0.034478803            4 
   62000     1.246214   -7.2045305    20.289498  0.027270831  0.034408033       -1e+20 
   63000    1.2254376   -7.1545228    20.905203  0.027652385  0.034354993            5 
   64000    1.2770318   -7.1543395    21.148185  0.027536699   0.03429891            1 
   65000     1.251416   -7.1737989    21.392684  0.027426518   0.03423482            1 
   66000    1.2362349   -7.1465358    21.652368  0.027338848  0.034146733            2 
   67000    1.2312743   -7.1914482    22.052008   0.02742787  0.034047237            1 
   68000    1.2370554   -7.1062549    22.478469  0.027547143  0.033958073            2 
   69000    1.2511703   -7.1638277      22.7498  0.027475604  0.033872184            1 
   70000    1.2520549   -7.1495021    23.186854  0.027603397   0.03379175            3 
   71000    1.2663517   -7.1968353    23.516667  0.027601722  0.033717293            3 
   72000    1.2661652   -7.1095223    23.964225  0.027736371  0.033638992            1 
   73000     1.231333   -7.1211358    24.377557  0.027828261  0.033571532            1 
   74000    1.2274645   -7.1369645     24.70752  0.027823784  0.033508577            2 
   75000    1.2204107   -7.1913396     24.98258  0.027758422  0.033445582            3 
   76000    1.2665292   -7.2070702    25.386752  0.027836351  0.033384985            3 
   77000    1.2281577    -7.182711    25.846195  0.027972073  0.033324842            2 
   78000    1.2486448   -7.2121962    26.043278  0.027824015  0.033266767            2 
   79000    1.2406178   -7.1156292    26.513496  0.027967823  0.033211681            1 
   80000    1.2608899   -7.1719299    26.736391  0.027850408  0.033149419            1 
   81000    1.2400973   -7.1566699    27.249004  0.028033955  0.033094094            1 
   82000    1.2575059   -7.1203922    27.816477  0.028268777  0.033051842            1 
   83000    1.2151587   -7.1438354    28.156597  0.028269676  0.033016345            2 
   84000    1.2361007   -7.1436187    28.466581  0.028240656  0.032977159            3 
   85000    1.2665701   -7.1447202    28.956984    0.0283892  0.032946642            1 
   86000    1.2659479   -7.1553433    29.302241  0.028393645  0.032913458            3 
   87000    1.2355103   -7.1575217    29.536323  0.028291497  0.032873981            1 
   88000    1.2512141   -7.1592733    29.783596  0.028204163  0.032826495            4 
   89000    1.2343709   -7.1473679     30.08632  0.028170711  0.032781876            2 
   90000    1.2379523   -7.1627318    30.706262  0.028431724  0.032739662            1 
   91000    1.2287325   -7.1349943    31.362729  0.028720448  0.032716028            2 
   92000    1.2634952   -7.1903895     31.47946  0.028514003  0.032696296            2 
   93000     1.227467   -7.1768396    32.007777  0.028680803  0.032681018            3 
   94000    1.2264224   -7.1799458    32.434068  0.028753607  0.032672819            2 
   95000     1.236022   -7.1904903    32.775659  0.028750578  0.032666115            1 
   96000    1.2035424   -7.1975732    33.346364  0.028946496  0.032661844            1 
   97000    1.2581554   -7.1397282    33.849475  0.029080305  0.032660093            3 
   98000    1.2380348    -7.170027     34.13976  0.029030408  0.032654935            1 
   99000    1.2262695   -7.1637276    34.532813  0.029068024  0.032653432            2 
  100000    1.2449906   -7.1860558    34.922873  0.029102394  0.032648719            1 
  101000    1.2544889   -7.1667128    35.284948  0.029112994   0.03264092            2 
  102000    1.2395988   -7.1853395    35.585612  0.029073212  0.032634083            1 
  103000    1.2339694   -7.1835033    36.020883  0.029143109  0.032625944            1 
  104000    1.2083068   -7.2107898    36.393148  0.029161176  0.032622032            3 
  105000    1.2420419   -7.1505939    36.721308  0.029143895  0.032621424            3 
  106000    1.2174694    -7.176956    37.326654  0.029344854  0.032617661            1 
  107000    1.2436689   -7.1958401    37.726985  0.029382387  0.032618833            2 
  108000    1.2347845     -7.18742    38.038097  0.029350383  0.032619551            2 
  109000    1.2582394   -7.2219177    38.354944  0.029323351  0.032617722            2 
  110000    1.2401183   -7.1665733    38.730862  0.029341562  0.032612212            2 
  111000    1.2367428   -7.1727109    39.121624  0.029370588  0.032608944            1 
  112000     1.231702   -7.1915246    39.443946  0.029348174  0.032604529            2 
  113000    1.2467312   -7.1767124    39.965448  0.029473044  0.032599254            1 
  114000    1.2401272   -7.1760966    40.447627  0.029566979  0.032602351            2 
  115000    1.2700695   -7.2253389    40.859006  0.029607975  0.032606496            4 
  116000    1.2522077    -7.194084     41.07285  0.029506358  0.032607986            2 
  117000    1.2256865   -7.1895696    41.696113  0.029698086  0.032610078            1 
  118000    1.2488508   -7.2424591    41.868621  0.029568235  0.032614583            7 
  119000    1.2291658   -7.1973045    42.518305  0.029774723  0.032617548            3 
  120000     1.211029   -7.2405682    42.726592  0.029671244  0.032624511            4 
  121000    1.2341793   -7.1733149    43.241108  0.029780378  0.032622334            2 
  122000    1.2353083   -7.2039252    43.636536  0.029806377  0.032623537            1 
  123000    1.2362424   -7.2221464    43.865854  0.029719413  0.032624215            1 
  124000    1.2358493   -7.1974733    44.307966  0.029776859  0.032627954            3 
  125000    1.2556612   -7.2014686    44.736842  0.029824561  0.032629713            2 
  126000    1.2506474   -7.1848392    45.080416   0.02981509  0.032629434            3 
  127000    1.2662265   -7.1736181    45.653191  0.029956162  0.032629169            1 
  128000    1.1964675   -7.1978445    46.059079   0.02998638  0.032631362            2 
  129000    1.2298052   -7.2139084    46.508284  0.030044111  0.032638176            1 
  130000    1.2164131   -7.2015916    46.871961  0.030046129  0.032642215            2 
  131000    1.2276935   -7.1803545    47.245226  0.030054215  0.032641886            2 
  132000    1.2324091   -7.2348309    47.499143  0.029986833  0.032644843            4 
  133000    1.2180659    -7.200502    47.816135  0.029959984  0.032647151            3 
  134000    1.2330895   -7.2109273    48.222616  0.029989189  0.032647528            1 
  135000    1.2266855   -7.2245108    48.586496  0.029991664  0.032648456            4 
  136000    1.2626424   -7.1846946    49.081058  0.030074178  0.032649636            2 
  137000    1.2248115   -7.1640357    49.690351  0.030225274  0.032653105            1 
  138000    1.2298772   -7.1894071    49.845703  0.030100062  0.032655765            3 
  139000     1.217553   -7.1563233     50.30719  0.030160186  0.032656711            3 
  140000    1.2620535   -7.1898202    50.782612  0.030227745  0.032660442            1 
  141000    1.2107664   -7.1650995    51.157967  0.030235205  0.032662783            3 
  142000    1.2567235   -7.1667689    51.486921  0.030215329  0.032664397            1 
  143000    1.2362365   -7.1722665    51.779414  0.030174484  0.032663331            2 
  144000    1.2048944   -7.1889055    52.214996  0.030217011  0.032662957            2 
  145000    1.2535507   -7.2114303    52.618718  0.030240643  0.032664106            1 
  146000    1.2223621   -7.1613251    53.046653   0.03027777  0.032665843            3 
  147000    1.2215657   -7.2054557    53.543258  0.030353321  0.032670223            2 
  148000    1.2266733   -7.2187778    53.876308  0.030335759   0.03267393            2 
  149000    1.2474891   -7.2321398    54.130533  0.030274347   0.03267522            1 
  150000    1.2251651   -7.1526222    54.847806  0.030471003   0.03267704            1 
  151000    1.2018325    -7.226078     54.88235  0.030288273  0.032682058            1 
  152000    1.2221528   -7.2004068     55.31031  0.030323635  0.032679315            8 
  153000    1.1866629   -7.1785638    55.364826  0.030155134  0.032674298            6 
  154000    1.2348807   -7.2062935    55.575398  0.030073267  0.032667123            2 
  155000    1.2305549   -7.1477053    56.348533   0.03029491  0.032661837            5 
  156000    1.2098613   -7.1960512    56.633024  0.030252683  0.032656431            3 
  157000    1.2130734   -7.1830728    56.917489  0.030210981  0.032649998            2 
  158000    1.2165742   -7.1741745    57.423539  0.030286677  0.032642645            1 
  159000    1.2414745   -7.1912235    57.827828  0.030308086  0.032636635            2 
  160000    1.2317652   -7.1803432    58.464683  0.030450355  0.032631316            2 
  161000    1.2230743   -7.1912752    58.554286  0.030307602  0.032627318            3 
  162000    1.2305931   -7.1590611    59.034898  0.030367746  0.032624902            1 
  163000    1.1987487   -7.2131119    59.362128  0.030348736  0.032621182            1 
  164000    1.2238459   -7.1762971    60.134351  0.030556073  0.032618611            1 
  165000    1.2546149    -7.176813    60.483513  0.030547229  0.032621495            2 
  166000    1.2479608   -7.2360191    60.774525  0.030509299  0.032621787            2 
  167000    1.2086046   -7.2162205    61.434474  0.030655925   0.03262421            2 
  168000    1.2137054   -7.2051134    61.874371  0.030691652  0.032629337            1 
  169000    1.2346142   -7.2265267    62.176434  0.030658991  0.032632815            2 
  170000    1.2455987   -7.2299047    62.493649  0.030634142  0.032639493            3 
  171000    1.2261537   -7.2209547    63.064394  0.030733135  0.032646188            1 
  172000    1.2007192   -7.1752416    63.767297  0.030895008  0.032652697            1 
  173000     1.236769   -7.1665583    64.210208  0.030929772  0.032662855            1 
  174000    1.2258762   -7.1933107    64.444708  0.030864323  0.032673584            1 
  175000    1.2241782   -7.1856218    64.984179  0.030944847  0.032683869            1 
  176000    1.2347008   -7.2103657    65.329561  0.030932557  0.032693341            2 
  177000    1.2128134   -7.2022823    65.519194  0.030847078  0.032701334            2 
  178000    1.2357669   -7.2558192    65.747966  0.030780883  0.032706167            2 
  179000    1.2211928    -7.218783    66.361645  0.030894621  0.032713817            1 
  180000    1.1956726   -7.2215645    67.123566  0.031075725  0.032721987            1 
  181000    1.2086174   -7.2549758    67.164809  0.030923024  0.032731812            2 
  182000    1.2323046   -7.1960646     67.78202  0.031035723  0.032741006            3 
  183000    1.2202138   -7.1622872    68.210449  0.031061224  0.032748562            2 
  184000    1.2265716   -7.2249346    68.821184  0.031169014  0.032756883            2 
  185000    1.2089034   -7.2323679    69.143908  0.031145904  0.032770121            1 
  186000    1.2255787   -7.2153049    69.593788  0.031180012  0.032784049            2 
  187000    1.2135434   -7.2053841    69.823003   0.03111542  0.032798354            3 
  188000    1.2060043    -7.173917    70.599567  0.031294134  0.032811756            1 
  189000    1.2456133   -7.2003525    71.099029  0.031348778  0.032827167            2 
  190000    1.2110875   -7.1950517    71.300885  0.031272318  0.032839666            1 
  191000    1.2133375   -7.2737927    71.302189  0.031109157  0.032849143            2 
  192000    1.2353926   -7.2097164    71.958474  0.031231977   0.03285716            2 
  193000    1.2197955   -7.1937292    72.282737  0.031210163  0.032864748            1 
  194000    1.1971848   -7.1919365    72.880319  0.031305979  0.032871796            2 
  195000    1.2345401   -7.2068384    73.145883  0.031258924  0.032881981            1 
  196000    1.2229455   -7.2143389    73.736712  0.031350643  0.032894964            1 
  197000    1.2106532   -7.2460368    74.246896  0.031407316  0.032906192            1 
  198000    1.2176076    -7.197081    74.842631  0.031499424   0.03291936            4 
  199000    1.2102981   -7.1876528    75.061965  0.031432984  0.032934025            2 
  200000    1.2306492   -7.2015476    75.668247  0.031528436  0.032946443            1 
  201000    1.2296791   -7.2042251    76.048023  0.031529031  0.032958984            1 
  202000     1.227178   -7.1829468    76.356493  0.031500204   0.03297154            1 
  203000    1.2258916   -7.2449647    76.408732  0.031366474  0.032981242            3 
  204000    1.2013495   -7.2398685    77.053028   0.03147591  0.032990353            2 
  205000    1.2281634   -7.1788397    77.565779  0.031530804  0.033001992            1 
  206000      1.21217   -7.2442059    77.717483  0.031439111  0.033012364            1 
  207000    1.2178184   -7.2445077    77.856138  0.031343051  0.033019665            1 
  208000     1.220746   -7.2129166    78.133313   0.03130341  0.033023736            3 
  209000    1.1974098   -7.2276708    78.342086  0.031236876  0.033026489            1 
  210000     1.194122   -7.2090395    78.987476  0.031344237  0.033029554            2 
  211000     1.199565   -7.2089145    79.218249  0.031286828  0.033031058            4 
  212000    1.2186671   -7.2335166     79.38997  0.031206749  0.033029158            2 
  213000    1.2124061   -7.2118387    79.656914  0.031164677  0.033028602            2 
  214000    1.2326805   -7.2260693    80.224459  0.031240054   0.03302653            1 
  215000    1.2189342   -7.2138962    80.659412  0.031263338  0.033026266            3 
  216000    1.2119893    -7.240724    80.848585  0.031191583  0.033024697            2 
  217000    1.2373248   -7.2206972    81.139289  0.031159481  0.033021748            2 
  218000    1.2117509   -7.2869399    80.961075  0.030948423  0.033017233            3 
  219000    1.2139615   -7.2794902    81.779746  0.031118625  0.033011825            2 
  220000    1.2354616   -7.2276286     82.16909  0.031124655  0.033006513            1 
  221000    1.2254273    -7.211939    82.516499  0.031114819  0.033000698            2 
  222000    1.2299914   -7.1814154    83.415427  0.031312097  0.032996769            1 
  223000      1.20912   -7.2049856    83.917794  0.031359415  0.032995357            1 
  224000    1.2273609   -7.2231745    84.134909  0.031300189   0.03299419            1 
  225000    1.1984245   -7.1945384    83.967988  0.031099255   0.03299207            7 
  226000    1.2098969   -7.2318146     84.49021  0.031154207  0.032986967            2 
  227000    1.2239843   -7.2285114    84.754252  0.031113896  0.032981125            2 
  228000    1.2065662   -7.2625225    84.830201   0.03100519  0.032975748            2 
  229000    1.2170652   -7.2587179    85.354479  0.031060582  0.032969615            1 
  230000     1.218537   -7.2601517    85.446763  0.030958972  0.032962566            2 
  231000    1.2198079   -7.2035979    86.517765  0.031211315  0.032955106            2 
  232000    1.2298569   -7.2717383    86.374429  0.031025298  0.032946567            2 
  233000    1.2465319   -7.2845587    86.642571  0.030988044  0.032936579            1 
  234000    1.2079337   -7.2220004    87.332101  0.031101175  0.032927778            2 
  235000     1.225119   -7.2267599    87.619764  0.031070838  0.032920354            2 
  236000    1.2089852   -7.2066467    87.879518  0.031030903  0.032910924            1 
  237000    1.1954896   -7.1769745    88.126097  0.030986673  0.032901484            2 
  238000    1.1993544   -7.2815779    88.132238  0.030858627   0.03288972            3 
  239000    1.1794723   -7.2477806    88.962284  0.031018928  0.032878569            2 
  240000    1.1961899   -7.1985544    89.613546  0.031115815  0.032871245            1 
  241000    1.2051833   -7.2226579    90.065766  0.031143073  0.032863163            3 
  242000    1.1903255   -7.2052314    90.647356  0.031214654  0.032856701            2 
  243000    1.2105866   -7.2211674    90.638035  0.031083002  0.032850029            2 
  244000    1.2116356   -7.2242138    91.380827  0.031209299   0.03284406            1 
  245000     1.200549   -7.1748971     91.65792  0.031176163  0.032838552            1 
  246000    1.1940651   -7.2266527    91.674324  0.031054988  0.032831926            2 
  247000    1.2077664   -7.1910042    92.339479   0.03115367  0.032824701            4 
  248000    1.2158533   -7.2540307    92.538782  0.031095021  0.032817283            1 
  249000    1.1822967   -7.2153241     93.13765  0.031170565  0.032809432            2 
  250000    1.1919225   -7.2472105    93.435285  0.031145095  0.032803816            4 
  251000    1.2085404   -7.2313472    93.626054  0.031084347  0.032797431            1 
  252000    1.2054858   -7.2405626    93.659592  0.030972087  0.032790951            2 
  253000    1.1903573   -7.2124004    94.133813  0.031005867   0.03278189            1 
  254000    1.2202448   -7.1968463    94.360082  0.030958032  0.032770757            2 
  255000    1.2234516   -7.1909075    94.771912  0.030971213  0.032758452            3 
  256000    1.2039601   -7.2619834    94.756859  0.030845332  0.032747642            1 
  257000    1.1968144    -7.239851    95.338972  0.030914063  0.032736377            1 
  258000     1.198752    -7.296632    95.539034  0.030858861  0.032725333            5 
  259000    1.2045245   -7.2547058    95.890031  0.030852648  0.032713167            1 
  260000    1.1762311   -7.2785812    95.868779  0.030727173  0.032700237            1 
  261000     1.203398   -7.2775303    96.388537  0.030775395  0.032685891            3 
  262000    1.2091591   -7.2720326    96.872362   0.03081182  0.032672134            1 
  263000    1.2329013   -7.2295844    97.182745  0.030793012  0.032658885            1 
  264000    1.2502605   -7.1762181    97.598569  0.030807629  0.032645354            1 
  265000    1.2329706   -7.2296183    97.805779  0.030756534  0.032631804            3 
  266000    1.2442982   -7.2470814    98.317562  0.030801241  0.032619203            2 
  267000    1.2119995   -7.2126701    98.881972  0.030862039  0.032605929            3 
  268000    1.1891864   -7.2060673    98.920942  0.030758999  0.032591492            2 
  269000    1.2080102   -7.2216486      99.1095  0.030703067  0.032578448            9 
  270000    1.2244845    -7.233931    99.589671  0.030737553  0.032564699            2 
  271000     1.215801   -7.2307393    100.20069  0.030812021  0.032550857            1 
  272000    1.2280797   -7.2594814    99.945397  0.030620526  0.032536027            3 
  273000    1.1990399   -7.2990124    100.41954  0.030653096  0.032519725            1 
  274000    1.2435056   -7.2150168    101.18178  0.030773047  0.032505809            1 
  275000    1.1909101   -7.2542265    101.05306  0.030622138  0.032492826            2 
  276000    1.2191926   -7.2315393    101.56586   0.03066602  0.032479094            4 
  277000    1.2129765   -7.2749373     101.4732  0.030527436   0.03246264            2 
  278000    1.2022348   -7.2468352    101.45512  0.030412207  0.032445539            1 
  279000    1.2130045   -7.2848106    101.97618  0.030458835  0.032427511            2 
  280000    1.2199499    -7.253854    102.32163  0.030452867  0.032408707            2 
  281000    1.2061306   -7.2552097    102.37038  0.030358952  0.032390452            2 
  282000    1.2009876   -7.2523247    102.84782  0.030392381  0.032372246            2 
  283000     1.228687   -7.2861599    103.08835  0.030355815  0.032353249            1 
  284000    1.2070632   -7.2779816    103.48835  0.030366301  0.032335033            2 
  285000     1.191185   -7.2661599    104.11409  0.030442718   0.03231712            1 
  286000    1.1904236   -7.2360083    104.13136  0.030341305  0.032300015            2 
  287000    1.1797349   -7.2358125    105.01636  0.030492554  0.032282746            2 
  288000    1.2190118   -7.2357443    105.08728  0.030407199  0.032264833            3 
  289000    1.2010435   -7.2752934    105.35821  0.030380106  0.032247172            2 
  290000    1.1972204   -7.2371399     106.0981  0.030487959  0.032230592            3 
  291000    1.2105515   -7.2953546    105.91217  0.030329946  0.032214082            1 
  292000    1.2039734   -7.2698095    106.54229  0.030405904  0.032196771            5 
  293000    1.1835124   -7.2394737     107.4985   0.03057409  0.032180364            1 
  294000    1.2201347   -7.3003124    107.11727  0.030362037  0.032165506            1 
  295000    1.1919593   -7.2243793    107.43897  0.030349991   0.03214954            7 
  296000     1.190649   -7.2564605    107.76503  0.030339253  0.032132441            2 
  297000    1.1879995   -7.2931934    107.98408  0.030298562  0.032114987            1 
  298000    1.2367437   -7.2243982    108.50523  0.030342625  0.032099305            3 
  299000    1.1844594   -7.2324288    108.85182  0.030337743  0.032084109            1 
  300000    1.2090711   -7.2515585    109.15319   0.03032033  0.032067916            2 
  301000    1.1938113   -7.2335532    109.81973  0.030404135  0.032052412            2 
  302000    1.2106938   -7.2726256    109.89091  0.030323098  0.032036773            5 
  303000    1.2173704   -7.2760018    110.65474  0.030433095  0.032021123            4 
  304000    1.1811624   -7.2566406    110.56228  0.030307642  0.032005254            1 
  305000    1.1872875   -7.2448307    111.05071  0.030341725  0.031989548            1 
  306000    1.2099187   -7.2225527    111.15572  0.030271166  0.031973811            2 
  307000    1.2036633    -7.285085    111.80309  0.030348287  0.031958506            3 
  308000    1.1816791   -7.2475776     112.0898  0.030327328  0.031942423            1 
  309000    1.1840174   -7.2720322    111.74144  0.030135232  0.031924745            1 
  310000    1.1929281   -7.1907611    112.61294  0.030272296  0.031906838            1 
  311000    1.1817197   -7.2708195    112.67384  0.030191276  0.031890751            1 
  312000    1.1576598    -7.262764    113.48029  0.030309906  0.031874277            2 
  313000    1.2004488   -7.2624168     113.5471  0.030230856  0.031859991            3 
  314000    1.2114442   -7.2647951    114.54033  0.030398177  0.031845754            2 
  315000    1.2102287   -7.2530471    115.04533  0.030435273  0.031832102            4 
  316000    1.2088237   -7.2645046    115.26457  0.030396775  0.031819619            2 
  317000    1.2059729   -7.2463633    115.62951  0.030396823  0.031806022            1 
  318000    1.1917742    -7.248791    116.11132  0.030427495  0.031792575            2 
  319000    1.1972363   -7.2704066    116.00495  0.030304324  0.031779559            1 
  320000    1.1757891   -7.2852917    116.17586   0.03025413  0.031766527            2 
  321000    1.2157544   -7.3278658    116.25864  0.030181371  0.031752234            2 
  322000    1.1993651   -7.2986637    116.89903  0.030253373  0.031737665            2 
  323000    1.1952001   -7.3185843    116.48035   0.03005169  0.031722893            3 
  324000    1.1795375   -7.2314306    117.66142   0.03026271  0.031708039            2 
  325000     1.217722   -7.2691996     118.2047  0.030308896  0.031694312            2 
  326000    1.2118898   -7.2449357    118.48383  0.030287279  0.031680574            2 
  327000    1.1942055    -7.289869    118.67381  0.030243071  0.031666039            1 
  328000    1.2133844   -7.2606685    119.17362   0.03027785  0.031652063            1 
  329000    1.2014015   -7.2783443    119.34944  0.030230354  0.031638565            1 
  330000    1.1812813   -7.2281796    119.71283  0.030230513  0.031625513            2 
  331000    1.1988959   -7.2556061    119.79423  0.030159676  0.031612344            4 
  332000    1.1874957   -7.2937391    120.68436   0.03029226  0.031598746            2 
  333000    1.1922604   -7.2997552    120.62169  0.030185608  0.031585066            3 
  334000    1.1930394   -7.2706753    121.25452  0.030253125   0.03157275            2 
  335000    1.2204361   -7.2502021    121.09432  0.030122966  0.031560118            2 
  336000    1.2013921   -7.2928586     121.4365   0.03011818  0.031545907            2 
  337000    1.1879278   -7.2703688    121.78328  0.030114559  0.031530268            3 
  338000    1.1889087   -7.2490675    121.86488  0.030045582  0.031514671            4 
  339000    1.1940411   -7.2954093    122.05596  0.030003924  0.031499158            4 
  340000    1.2129616    -7.282203    122.93201  0.030130395  0.031484249            2 
  341000    1.1878748    -7.247375    123.59988  0.030205248   0.03147022            2 
  342000    1.2088374   -7.2540791     123.7279  0.030148123  0.031456521            1 
  343000    1.2135029   -7.2574651    123.98831  0.030123497  0.031443194            2 
  344000    1.1901621   -7.3005838    124.21631  0.030091161  0.031431078            1 
  345000    1.2200229   -7.3051301    124.45624  0.030061895  0.031418145            2 
  346000    1.2189935   -7.2156565    125.65844  0.030264558    0.0314058            1 
  347000    1.1659145    -7.316173    125.10512  0.030044456  0.031393566            2 
  348000    1.1713377   -7.3222015    125.38416  0.030024942   0.03138111            2 
  349000    1.1754919   -7.2778658    125.87086  0.030055124  0.031367856            2 
  350000    1.2277831   -7.2552552    126.04667  0.030011113  0.031355563            4 
  351000    1.1989633   -7.3025638    126.33862  0.029994924  0.031342418            4 
  352000    1.2068305   -7.3034901    126.82413  0.030024652  0.031329211            1 
  353000    1.2071243   -7.3170016    126.33418  0.029823933  0.031315496            3 
  354000    1.1906141   -7.2508937    127.44307  0.030000722  0.031302431            2 
  355000    1.1829259   -7.2977568     127.8721  0.030016926  0.031289548            3 
  356000     1.191148   -7.2879765    127.43946  0.029831335   0.03127661            1 
  357000    1.2112298   -7.2971262    128.64184   0.03002844  0.031263841            2 
  358000    1.1856623   -7.3060008    128.92361   0.03001015  0.031252098            3 
  359000    1.1866583   -7.2872439    129.53765  0.030069093  0.031241056            3 
  360000    1.2101152   -7.2841208    130.12465  0.030121447  0.031231145            4 
  361000    1.2060651   -7.2520846     130.9284  0.030223545   0.03122105            3 
  362000    1.1804383   -7.2804481    130.71658  0.030091293  0.031210474            4 
  363000    1.2031967   -7.2352026    130.86001  0.030041324  0.031199841            1 
  364000     1.163348   -7.2756434    130.78056  0.029940604  0.031188702            3 
  365000     1.192434   -7.2693262    131.48539  0.030019496  0.031177602            2 
  366000    1.1897768   -7.2627378    131.80729  0.030010768   0.03116604            1 
  367000    1.1794705   -7.2804279    132.51099  0.030088781  0.031154904            4 
  368000    1.2254095   -7.2466286    132.75046  0.030061244  0.031144349            1 
  369000    1.1802694   -7.3224389    132.86848  0.030006433  0.031134177            1 
  370000    1.1764067   -7.2882756    133.44438   0.03005504  0.031124398            1 
  371000    1.2164286   -7.2876905    133.71031  0.030033762  0.031114518            2 
  372000     1.204035   -7.3022588    134.07148  0.030033934  0.031105822            1 
  373000    1.1966606   -7.2934349    134.56688  0.030064092  0.031094998            2 
  374000    1.1962459   -7.3065346    134.64109  0.030000243  0.031084218            2 
  375000      1.20817   -7.2655749     135.7103  0.030157845  0.031073472            2 
  376000     1.183542   -7.3181095    135.31204  0.029989371  0.031063719            2 
  377000    1.2067541   -7.2744758    135.89502  0.030038687  0.031054242            1 
  378000    1.1846547   -7.3491371    136.09225    0.0300027   0.03104432            1 
  379000    1.1817132   -7.2744804     136.6938  0.030055804  0.031034343            2 
  380000    1.1984497   -7.2959438    136.91534  0.030025293  0.031025044            4 
  381000     1.153276   -7.2680453    137.21939   0.03001299  0.031015507            2 
  382000    1.2018983   -7.2779282    137.55298  0.030007196  0.031005213            1 
  383000    1.2091742   -7.2570691    137.58054  0.029934844  0.030995505            2 
  384000    1.1848131   -7.2621612    138.05218  0.029959241  0.030985268            4 
  385000    1.1897028   -7.3196873    138.38667  0.029953825  0.030974752            1 
  386000    1.1658273   -7.2712431    138.89214  0.029985349  0.030965406            1 
  387000    1.1889844   -7.2563785    139.62874  0.030066481  0.030955345            1 
  388000    1.1550315   -7.3235251    139.69472  0.030003161  0.030946491            2 
  389000    1.1821033   -7.2963999    139.71587  0.029930563   0.03093753            1 
  390000    1.1764192    -7.285582     139.7935  0.029870407   0.03092761            1 
  391000    1.2063992   -7.3055025    140.06881  0.029852687  0.030918271            1 
  392000    1.1817467   -7.2862004    141.05028  0.029985178  0.030908325            2 
  393000    1.1928082   -7.3398256    141.25402  0.029952081  0.030898655            2 
  394000    1.1765602   -7.3025958    141.31377  0.029888699  0.030889577            2 
  395000    1.1948677   -7.3053587    141.79656  0.029914886  0.030879883            2 
  396000       1.1695   -7.2499248     142.4957  0.029986469  0.030870217            2 
  397000    1.1888122   -7.2838424    142.44965   0.02990127  0.030860688            2 
  398000    1.2132179   -7.2850844    142.69006  0.029876478  0.030851105            2 
  399000    1.2036062   -7.3134854    142.72145  0.029808157  0.030841605            2 
  400000    1.1860841   -7.2598553    143.23931  0.029841524  0.030832109            3 
  401000    1.1980282   -7.3270754    143.26664  0.029772785  0.030821981            2 
  402000    1.1994443   -7.3252288    143.15537  0.029675657  0.030811099            1 
  403000    1.1630146   -7.2949293     143.6612  0.029706616  0.030799258            4 
  404000    1.1781836   -7.2651001    144.23031  0.029750477    0.0307866            2 
  405000     1.168238   -7.2724854    144.43314  0.029718753   0.03077416            2 
  406000    1.1829239   -7.3350114    144.59296  0.029678357  0.030761773            2 
  407000    1.2106143   -7.3018587    145.03078  0.029695082  0.030749899            2 
  408000    1.1598818   -7.3184559    145.22514  0.029661998  0.030737695            4 
  409000    1.1596247   -7.3321556    145.17449  0.029579155  0.030726318            1 
  410000    1.1859879   -7.3303565    145.78409  0.029630913  0.030713855            5 
  411000    1.1923624    -7.257315    145.86912  0.029576059  0.030701767            3 
  412000    1.1990708   -7.3095329    146.70003  0.029672337  0.030690673            3 
  413000    1.2099032   -7.2931587    146.50171  0.029560475  0.030678561            2 
  414000     1.193961   -7.2819047    147.73654  0.029737629  0.030667795            3 
  415000    1.1967946   -7.2823254    148.01017  0.029720917  0.030657415            3 
  416000    1.2017174    -7.316597    148.17713  0.029682918  0.030647879            2 
  417000    1.1828373   -7.3464779    148.75783  0.029727783  0.030638845            2 
  418000    1.1532052   -7.3257989    149.47036  0.029798715  0.030629893            4 
  419000    1.1874547   -7.3156939    149.73857  0.029780941   0.03062115            5 
  420000    1.1730734   -7.3008316    150.05651  0.029773116  0.030612636            2 
  421000    1.1928456   -7.3340898    150.56707  0.029803459  0.030604353            2 
  422000    1.1846977   -7.2818717    151.05501  0.029829188   0.03059579            1 
  423000    1.1804964   -7.3037476    151.31523  0.029809936  0.030587317            1 
  424000    1.1574077   -7.3409914    151.49192  0.029774356  0.030578774            3 
  425000     1.195541   -7.3032118    151.68192  0.029741554  0.030569569            2 
  426000    1.2151537   -7.3544893    151.03069  0.029544345  0.030560806            2 
  427000    1.1776652    -7.348355    151.23846  0.029515702  0.030550233            2 
  428000    1.1813853   -7.2880883    152.43872  0.029680436  0.030538952            2 
  429000    1.1865124   -7.3037086    152.19846   0.02956458  0.030528964            2 
  430000    1.1630358   -7.3227061    152.69494  0.029592042  0.030518366            4 
  431000     1.159331    -7.345343    153.03026  0.029588217  0.030507445            3 
  432000    1.1869452   -7.3039298    153.46558    0.0296037  0.030497481            3 
  433000    1.1811697   -7.2724506    153.41621  0.029525829  0.030487112            1 
  434000    1.1811562   -7.3434365    153.63198  0.029499229  0.030476588            2 
  435000    1.1810541   -7.3608658    153.97678  0.029497468  0.030466094            2 
  436000    1.1817542   -7.2640789    154.82262  0.029591479  0.030456068            3 
  437000    1.1695449   -7.3244086    155.37428  0.029628964  0.030445704            1 
  438000    1.1689998   -7.3420759    155.16833  0.029522133  0.030435757            9 
  439000    1.1948086    -7.383584    155.36449   0.02949212  0.030425251            2 
  440000    1.1662198   -7.3215006    155.92719  0.029531665  0.030414835            1 
  441000    1.1628459   -7.2933675    156.50615  0.029574103  0.030404945            2 
  442000    1.2074424   -7.3092849     157.2881  0.029654619  0.030395413            2 
  443000    1.1798169   -7.3499099    156.50705  0.029440755  0.030386242            2 
  444000    1.1610341   -7.3506207    156.43813   0.02936151   0.03037586            1 
  445000    1.1845151   -7.3553999    157.90479  0.029570185  0.030365366            5 
  446000    1.1768275    -7.363603    157.57952  0.029443109  0.030354516            2 
  447000    1.1694415   -7.2802237    158.14418   0.02948251  0.030343845            3 
  448000    1.1742066   -7.3104918    158.66191  0.029513004   0.03033331            3 
  449000    1.1700615   -7.3439897    158.75671  0.029464868  0.030322583            3 
  450000     1.199373   -7.3090108    159.33498  0.029506478  0.030312009            2 
  451000    1.1644809   -7.3534003     159.1777  0.029411991  0.030302438            2 
  452000    1.1798948   -7.3225117    159.95426  0.029490092  0.030292291            2 
  453000    1.2121933   -7.3299562    160.15039  0.029461072  0.030282093            2 
  454000    1.1848485   -7.2811066    161.24992  0.029598002  0.030273548            2 
  455000    1.2093304   -7.3254124    161.14542  0.029513813  0.030264364            5 
  456000    1.1864571   -7.3203261    161.32436  0.029481792  0.030255496            1 
  457000    1.1678976   -7.3141881    161.51252  0.029451589  0.030246743            2 
  458000    1.1726339   -7.2924809    162.33002   0.02953603  0.030237555            1 
  459000    1.1553857   -7.3075396    162.36182  0.029477454  0.030229003            2 
  460000    1.1728905   -7.3263913    163.10816  0.029548579  0.030220377            4 
  461000    1.1662567   -7.3080831    162.52439  0.029378956  0.030210807            3 
  462000    1.1764593   -7.2958146    162.71056  0.029348947  0.030200896            3 
  463000    1.1559529   -7.2710316    163.22526  0.029378196  0.030191023            2 
  464000    1.1845926   -7.3717452    163.06738  0.029286527  0.030181467            1 
  465000    1.1829181   -7.3125484    164.28649  0.029442023  0.030172079            1 
  466000    1.1855098   -7.3028464    164.39413  0.029398092  0.030162959            2 
  467000     1.210946   -7.2698349    165.37218  0.029509668   0.03015415            3 
  468000    1.1925119   -7.3194977    165.18772  0.029413768  0.030145999            4 
  469000    1.1587532   -7.3023747     165.4994  0.029406432  0.030137585            2 
  470000    1.1887992   -7.3537999    165.23843  0.029297594  0.030128566            3 
  471000    1.1794029   -7.3471798    166.46937   0.02945318  0.030119424            3 
  472000    1.1784708   -7.3111627    166.86624  0.029460847  0.030111194            1 
  473000    1.1585729   -7.3817411    166.23048  0.029286554  0.030103018            3 
  474000    1.1560926   -7.3244798    167.42053  0.029433988  0.030093881            5 
  475000    1.1654054   -7.3285655    167.43108  0.029373873  0.030085129            2 
  476000    1.1605384   -7.3198561    167.91133  0.029396242  0.030076274            2 
  477000    1.1823925   -7.3332946    167.87552  0.029328357  0.030067513            2 
  478000    1.1795577   -7.2792649    168.71827  0.029413925  0.030059879            4 
  479000    1.1705484   -7.3244552    169.38465   0.02946845  0.030052309            3 
  480000    1.1653303   -7.2977982     170.0103  0.029515677  0.030045785            2 
  481000    1.1885092   -7.2877217    170.34524  0.029512342  0.030039121            1 
  482000    1.1806049   -7.3351489    170.39769  0.029460182  0.030031645            1 
  483000     1.148217   -7.3145316    170.60125  0.029434308   0.03002398            1 
  484000    1.1793099   -7.3197596    170.73963   0.02939732  0.030016306            2 
  485000    1.2067096   -7.3478039     170.5024  0.029295946  0.030008301            2 
  486000    1.1797231    -7.342224    171.62337  0.029427876  0.030000835            1 
  487000    1.1752811   -7.3656896    171.61304  0.029365681  0.029992708            3 
  488000    1.1889215   -7.3115966    171.60659  0.029304404  0.029984369            1 
  489000    1.1788393   -7.2952596    171.70339  0.029260974  0.029976161            1 
  490000    1.1729398   -7.3372868    172.35213  0.029311586  0.029967701            2 
  491000    1.1912962     -7.31454    173.07842  0.029375156  0.029959428            2 
  492000    1.1874938   -7.3501416    172.47795  0.029213745  0.029951337            1 
  493000    1.2022202   -7.2971502    173.48143  0.029324109  0.029943732            1 
  494000    1.1747299   -7.3051367    173.41392   0.02925336  0.029935497            1 
  495000    1.1902341   -7.3145003    173.88124  0.029272937  0.029926965            5 
  496000    1.1559941   -7.2776089    174.69502  0.029350642  0.029918486            1 
  497000    1.1832112    -7.318508    174.49919  0.029258752  0.029910041            1 
  498000    1.1491775   -7.3044884    174.92092  0.029270569  0.029901549            3 
  499000    1.1232551   -7.3388624    175.76634  0.029353096  0.029894071            3 
  500000     1.142525   -7.3254855      175.826  0.029304333   0.02988598            1 
  501000     1.151075   -7.3170775     175.1944  0.029140786  0.029877727            2 
  502000    1.1896338    -7.368039    175.53164  0.029138719  0.029869125            5 
  503000    1.1760777   -7.3422713    176.20663  0.029192617  0.029860461            3 
  504000    1.1719017   -7.3816125    175.88015  0.029080712  0.029851345            3 
  505000    1.1729862   -7.3370978    176.84006  0.029181528  0.029842248            4 
  506000    1.1850156   -7.3412042    177.76488  0.029276166  0.029834146            2 
  507000    1.1536046   -7.3499719    176.94409  0.029083513  0.029825708            3 
  508000    1.1742759   -7.3218371    178.00486  0.029200272  0.029816657            5 
  509000    1.1890624   -7.3276774     178.6276  0.029244859  0.029808899            1 
  510000    1.1723684   -7.3515846    178.66209  0.029193151  0.029801048            3 
  511000    1.1732764     -7.34446    178.88977  0.029173152  0.029792928            1 
  512000    1.1622583    -7.275268    179.56063  0.029225362  0.029784938            2 
  513000    1.2077208   -7.3134051    180.29772  0.029288129  0.029777411            2 
  514000    1.1541568    -7.374655    179.75772  0.029143599  0.029769115            4 
  515000    1.1587741   -7.3569083    179.66812  0.029072511  0.029760354            1 
  516000    1.1618483   -7.3477074    180.11086  0.029087671  0.029751861            1 
  517000    1.1678914   -7.3525243    180.22307  0.029049496  0.029743227            1 
  518000    1.1727667   -7.3267594    180.81411    0.0290885  0.029734758            1 
  519000    1.1993873   -7.2911917    181.39574  0.029125842  0.029726655            2 
  520000     1.162165   -7.3148849    181.61459  0.029104902  0.029718446            1 
  521000    1.1703956   -7.3518641    181.86961  0.029089829  0.029710312            3 
  522000    1.1775832   -7.3947611    181.59723  0.028990618  0.029701876            3 
  523000    1.1654468   -7.3235701    182.38992  0.029061492  0.029693314            2 
  524000    1.1329638   -7.3527418    182.15481  0.028968641  0.029684372            2 
  525000      1.18246   -7.3659263    182.50563  0.028969148  0.029676008            1 
  526000    1.1611152   -7.3371876    183.42272  0.029059366  0.029667681            4 
  527000    1.1807191   -7.3164313    183.80016  0.029063909  0.029659075            1 
  528000    1.1487223   -7.3754638    183.47068  0.028956862  0.029650151            2 
  529000    1.1699126   -7.3573569    184.16503  0.029011505  0.029640658            2 
  530000    1.1516682   -7.3564769    183.83219  0.028904433   0.02963129            3 
  531000    1.1759184   -7.4096617    183.64982  0.028821379  0.029621169            3 
  532000    1.1667076   -7.3394756     184.6637  0.028926018  0.029610816            4 
  533000    1.1722089   -7.3698362    184.15843  0.028792751  0.029600854            1 
  534000    1.1375157   -7.3365962    185.27027   0.02891234  0.029590535            3 
  535000    1.1631927   -7.3678663    185.13454  0.028837155  0.029580394            1 
  536000    1.1363192   -7.3219516    186.70325  0.029027246  0.029571344            2 
  537000    1.1658852   -7.3903501     185.6983  0.028817241  0.029561972            1 
  538000    1.1772524   -7.3397286    185.94601  0.028802046   0.02955212            2 
  539000    1.1658451    -7.383224    186.21538  0.028790257  0.029541789            2 
  540000    1.1566689   -7.3670427    186.37611  0.028761745  0.029531363            2 
  541000    1.1616342   -7.3864706    186.38573  0.028710064  0.029520933            1 
  542000    1.1867437   -7.3574467     187.0852  0.028764638  0.029510894            1 
  543000    1.1377419   -7.2643069    188.07751  0.028863951  0.029501066            1 
  544000     1.171002   -7.3304506    188.32285  0.028848476  0.029491812            3 
  545000    1.1604098   -7.3350616    188.43901  0.028813304  0.029481757            2 
  546000      1.14981   -7.3223401    189.11055  0.028863026  0.029472237            2 
  547000    1.1748761   -7.3497422    189.02729  0.028797576  0.029463027            1 
  548000    1.1687952   -7.3517094    189.54027  0.028823033  0.029453606            3 
  549000    1.1446688    -7.343119    190.06092  0.028849563  0.029444788            2 
  550000    1.1576114   -7.3690832    190.31432  0.028835503  0.029436209            3 
  551000    1.1299539   -7.3916039    190.45503  0.028804451  0.029427933            2 
  552000     1.139682   -7.3499345    191.08564  0.028847469  0.029419628            2 
  553000    1.1662235   -7.3311603    192.45232  0.029001253  0.029412027            1 
  554000    1.1624896   -7.3225296      192.086  0.028893803  0.029405051            4 
  555000    1.1627482   -7.3733857       191.98  0.028825826  0.029398034            1 
  556000    1.2160225   -7.3989399    192.80299   0.02889733  0.029390427            2 
  557000    1.1678782   -7.3736215    193.51574  0.028952086  0.029382383            5 
  558000    1.1598617   -7.3172819    193.58184  0.028910071  0.029374803            2 
  559000    1.1660235   -7.3670974    193.37276  0.028827185  0.029367547            3 
  560000     1.153383    -7.373949    193.70976  0.028825857  0.029359887            1 
  561000    1.1897827   -7.3944262    193.33122  0.028718245  0.029351725            1 
  562000    1.1605229   -7.3735214    194.20407   0.02879657  0.029342919            3 
  563000    1.1650181   -7.3503985    194.93709   0.02885392   0.02933426            2 
  564000    1.1555235   -7.3445838     195.0655  0.028821735   0.02932611            1 
  565000    1.1484828   -7.3704299    195.29513  0.028804591  0.029317985            2 
  566000    1.1437509   -7.4021839    195.24207  0.028745888  0.029310169            1 
  567000    1.1513261   -7.3697319    196.36831  0.028860716  0.029302916            2 
  568000    1.1615442   -7.4088057    196.11431  0.028772639  0.029295722            3 
  569000    1.1632395   -7.3924686    196.60559  0.028794023  0.029288253            3 
  570000    1.1319398   -7.3209692    197.39969  0.028859604  0.029280573            2 
  571000    1.1787464   -7.4153323    196.99002  0.028749273  0.029272704            4 
  572000    1.1735531    -7.383532    198.12142  0.028863843  0.029265271            3 
  573000    1.1548735   -7.3774651    199.17477  0.028966662  0.029258238            2 
  574000    1.1652033    -7.342597    198.88643  0.028874336  0.029251706            3 
  575000    1.1491332   -7.3470225    199.42352   0.02890196  0.029245579            2 
  576000    1.1953703   -7.3694001    199.60897  0.028878613  0.029239445            2 
  577000    1.1371077   -7.3698631    199.82284  0.028859451   0.02923335            2 
  578000    1.1638444   -7.3848979    200.55436  0.028914989  0.029227249            3 
  579000    1.1462321   -7.3297595    201.23985   0.02896371   0.02922127            1 
  580000    1.1836797   -7.3618968     200.9939  0.028878434   0.02921553            1 
  581000    1.1441488   -7.3436029    201.76151  0.028938829  0.029209652            3 
  582000    1.1826758   -7.3701105    201.56377  0.028860791  0.029203939            2 
  583000    1.1600276   -7.3621044    202.79411  0.028987151   0.02919791            6 
  584000     1.147966   -7.3544768    203.05262  0.028974403   0.02919211            3 
  585000    1.1557777   -7.3557676    202.23348  0.028808187   0.02918583            3 
  586000    1.1633513   -7.3779451    202.95979  0.028862314  0.029179415            2 
  587000    1.1624025   -7.4011307    202.45885  0.028742028  0.029172772            3 
  588000    1.1600062   -7.3928379    203.23569  0.028803243  0.029166373            9 
  589000    1.1852459   -7.3529782    203.84883   0.02884109  0.029160563            2 
  590000    1.1677743   -7.3756754    203.40122  0.028728985   0.02915476            1 
  591000    1.1508857   -7.3759948    204.76673  0.028872918  0.029148715            3 
  592000    1.1478626   -7.3487661    205.43304  0.028917939  0.029143019            2 
  593000     1.162564   -7.3883283    205.16458  0.028831447  0.029136796            2 
  594000    1.1410695   -7.3957181    205.13408  0.028778631  0.029130178            2 
  595000    1.1319976    -7.398849    204.81889  0.028686119  0.029123573            2 
  596000    1.1560599   -7.3699999    206.04564  0.028809514  0.029117166            2 
  597000    1.1474318   -7.3421991    206.50702  0.028825659  0.029110985            1 
  598000    1.1567734   -7.3615988    206.36461   0.02875761  0.029105368            2 
  599000    1.1523778   -7.3650564    206.85127  0.028777306  0.029099305            1 
  600000    1.1589067   -7.3890312    207.06468  0.028758984  0.029093464            2 
  601000    1.1590017   -7.3715116    207.65996  0.028793672  0.029087249            4 
  602000    1.1461418   -7.3617554    207.88597  0.028777127  0.029081544            1 
  603000      1.15131   -7.3296437    208.85258  0.028862987  0.029075668            2 
  604000     1.132023   -7.3287532    208.96414  0.028830593  0.029070271            8 
  605000    1.1557806   -7.3825387    209.15005  0.028808547  0.029064465            5 
  606000    1.1427852   -7.3703097    209.71543  0.028838756  0.029058988            3 
  607000     1.168631   -7.3543085    209.49428  0.028760884  0.029053708            1 
  608000    1.1448718    -7.359134    210.25444  0.028817768  0.029048282            1 
  609000    1.1468207   -7.4151758    210.25288  0.028770236  0.029042722            1 
  610000    1.1385261   -7.3881359    210.16534  0.028711112  0.029036836            3 
  611000    1.1573661   -7.3709494    210.86728  0.028759857  0.029030941            2 
  612000     1.124854   -7.3682341    211.09593  0.028743999   0.02902478            5 
  613000    1.1425663   -7.3832742    210.99393  0.028683243  0.029018965            3 
  614000    1.1283852   -7.3669632    211.49508  0.028704544  0.029013002            3 
  615000    1.1405592   -7.4149129    211.21856  0.028620401  0.029006934            1 
  616000    1.1630736   -7.3554666    212.03832  0.028684837  0.029000801            1 
  617000    1.1697306   -7.3975952    211.79669  0.028605711  0.028994335            3 
  618000    1.1392817    -7.362277     212.2732  0.028623679  0.028987786            1 
  619000    1.1639331   -7.3731144    213.15764  0.028696506  0.028981184            2 
  620000    1.1401992   -7.4055282    212.85709  0.028609823  0.028974643            1 
  621000    1.1210102   -7.3447551    213.45489  0.028643973  0.028968122            3 
  622000      1.16024   -7.3783433    214.40636  0.028725397  0.028962008            2 
  623000    1.1583031   -7.3755416    214.67095   0.02871468  0.028955755            3 
  624000    1.1373092   -7.3856541     214.4519   0.02863941  0.028950031            1 
  625000    1.1415756   -7.3800533    215.26678  0.028702237  0.028944325            2 
  626000    1.1578758   -7.3312592    216.01374  0.028755823  0.028938689            2 
  627000    1.1477219   -7.4002849    215.77753  0.028678566  0.028933281            2 
  628000    1.1244205   -7.3967425    216.34291  0.028707923  0.028927577            3 
  629000    1.1459181     -7.38073    216.79973  0.028722804  0.028922173            2 
  630000    1.1598726   -7.3765538    216.35353  0.028618191  0.028916423            1 
  631000    1.1470408   -7.4014643     216.2554  0.028559879  0.028910173            3 
  632000    1.1856151   -7.3719498    217.47669  0.028675724  0.028904258            1 
  633000     1.152479   -7.3986614    217.38553  0.028618421  0.028898092            2 
  634000    1.1534428   -7.3710182     217.8027  0.028628115  0.028891957            2 
  635000    1.1378537   -7.3941865    217.39778  0.028529893  0.028885596            2 
  636000    1.1576615   -7.3463958    218.33632  0.028608009  0.028879355            3 
  637000    1.1568782     -7.33495    219.05371  0.028656948  0.028873122            1 
  638000    1.1492717   -7.3549191     218.8135  0.028580656  0.028867431            4 
  639000    1.1652382   -7.4311745    219.19527  0.028585716  0.028861015            3 
  640000    1.1640858   -7.3862256    220.08339  0.028656692   0.02885494            2 
  641000    1.1487563   -7.3643971    220.57333   0.02867568  0.028849195            2 
  642000    1.1534044   -7.3831709    220.17282  0.028579027   0.02884295            2 
  643000    1.1517889   -7.3366565    220.44049   0.02856927  0.028836953            1 
  644000    1.1440875   -7.4417543    220.44486  0.028525474  0.028831136            3 
  645000    1.1543544   -7.4137669    221.31173  0.028593247  0.028825266            2 
  646000    1.1504461   -7.4115216    221.06186  0.028516752  0.028819521            2 
  647000     1.150133   -7.4166959    221.13168  0.028481669  0.028813799            3 
  648000    1.1141431   -7.3731035    222.23139  0.028579139  0.028807875            3 
  649000    1.1188153   -7.3725358    223.42657  0.028688568  0.028802378            1 
  650000    1.1597258   -7.3869977     222.9914  0.028588641   0.02879721            2 
  651000    1.1363993   -7.3788548    222.97066  0.028542071  0.028791752            1 
  652000     1.131295   -7.3479066    223.91428  0.028618901     0.028786            4 
  653000    1.1509205   -7.4243407    222.55729    0.0284019   0.02877979            2 
  654000     1.132776   -7.4140046    223.49867  0.028478424  0.028773488            2 
  655000    1.1251027   -7.3412226     224.8654  0.028608829  0.028767526            4 
  656000     1.124078   -7.3801934    223.99564  0.028454731  0.028761833            2 
  657000    1.1581275   -7.4173119    223.99728  0.028411628     0.028756            1 
  658000    1.1559372    -7.367292    225.07437   0.02850486  0.028750219            2 
  659000    1.1434649   -7.4178366    224.50711  0.028389872  0.028743805            3 
  660000    1.1485312    -7.414365     224.9516   0.02840298  0.028737316            1 
  661000    1.1671071   -7.4009939    225.54406  0.028434703  0.028731418            2 
  662000    1.1498486   -7.3966647    226.54456  0.028517694  0.028725764            2 
  663000    1.1469109   -7.3525918    226.22645  0.028434698  0.028720228            4 
  664000    1.1341671   -7.3941386    227.68495  0.028574919  0.028714403            5 
  665000    1.1479625   -7.3965653    227.09942  0.028458574  0.028708298            2 
  666000    1.1215351    -7.401511      227.147  0.028421796  0.028702346            5 
  667000     1.140613   -7.3750028    227.78779  0.028459244  0.028696445            3 
  668000     1.152992   -7.3924004    227.83824  0.028422934  0.028690776            4 
  669000    1.1368843   -7.3719295    228.64739   0.02848124  0.028685126            2 
  670000    1.1190564    -7.448863    228.64377  0.028438279  0.028679522            2 
  671000    1.1216806   -7.3839871    229.37705  0.028486965  0.028673995            1 
  672000    1.1543367   -7.3820679    229.65538   0.02847909  0.028668704            3 
  673000    1.1322284   -7.3929478    230.07489  0.028488719  0.028663373            2 
  674000    1.1457455   -7.4085718     230.3705  0.028482999  0.028657905            3 
  675000     1.159266   -7.3870831    230.48594  0.028455054  0.028652531            1 
  676000    1.1282186   -7.4341683     230.7439  0.028444761  0.028646778            2 
  677000    1.1202208   -7.4228136    231.03326  0.028438362  0.028641445            1 
  678000    1.1748575   -7.4359278    231.36342  0.028436998  0.028635902            2 
  679000    1.1161211     -7.37943    231.53459  0.028416125  0.028630554            1 
  680000    1.1239788   -7.4290951    231.91501  0.028420957  0.028625049            2 
  681000    1.1341431   -7.4263564    231.95869  0.028384568  0.028619446            3 
  682000    1.1272097   -7.4007641    232.88306  0.028455897  0.028613984            1 
  683000    1.1596062   -7.4055054    232.63613  0.028384106  0.028608417            2 
  684000     1.162738   -7.3838182    233.50721  0.028448735  0.028602765            1 
  685000    1.1555615   -7.4289291    233.40362  0.028394601  0.028596994            1 
  686000    1.1409567   -7.3943103    232.82197  0.028282552  0.028591046            1 
  687000    1.1406024   -7.4379496    232.67508  0.028223567  0.028584529            1 
  688000    1.1387083     -7.38931    233.36409  0.028265999  0.028578034            3 
  689000    1.1575113   -7.4059818    233.74273  0.028270771  0.028571964            2 
  690000    1.1494756   -7.3775343     234.7486   0.02835128  0.028565618            1 
  691000    1.1488724   -7.4212274     234.1894  0.028242812  0.028559005            2 
  692000    1.1393609   -7.4107249     234.3724  0.028224037  0.028552023            2 
  693000    1.1371598   -7.3982643    234.41692  0.028188663  0.028545134            1 
  694000    1.1276482   -7.4339467    235.08749  0.028228564  0.028538422            2 
  695000     1.138223   -7.4322933    235.45159  0.028231606  0.028531588            2 
  696000    1.1085216   -7.4160832    235.71602  0.028222704  0.028525103            2 
  697000    1.1349883   -7.4150429    235.34954  0.028138396   0.02851824            1 
  698000    1.1526881   -7.4119962      236.656  0.028254059  0.028511524            2 
  699000    1.1263995     -7.44679    236.00977  0.028136597  0.028504415            4 
  700000    1.1219669   -7.3783749    236.38865  0.028141506  0.028497508            2 
  701000    1.1295694   -7.4476419    236.41476  0.028104465  0.028490534            1 
  702000    1.1192487   -7.3954551    237.27809  0.028166914  0.028483772            1 
  703000    1.1429745   -7.3887953    237.63198  0.028168798  0.028477301            1 
  704000    1.1503623   -7.4427764    236.69147  0.028017457  0.028470167            2 
  705000     1.144847   -7.3894646    237.79273  0.028107888  0.028463038            2 
  706000    1.1274053   -7.4417705    238.16196  0.028111657  0.028455948            1 
  707000    1.1415366   -7.4478678    237.82603    0.0280323  0.028448993            2 
  708000     1.114395   -7.4169978    238.35664   0.02805516  0.028442169            2 
  709000    1.1383251   -7.4028739    239.60801  0.028162672  0.028435208            4 
  710000    1.1230892   -7.3855396    239.98193  0.028166893  0.028428498            2 
  711000    1.1609722   -7.3959615    240.20474  0.028153392  0.028422089            1 
  712000    1.1498773   -7.3818095    241.08707   0.02821712  0.028415985            3 
  713000    1.1330805   -7.3973372    240.40255   0.02809754  0.028409544            2 
  714000    1.1275618   -7.4208369    240.32293  0.028048895   0.02840294            4 
  715000    1.1507107   -7.3802123    240.80634  0.028066007  0.028396514            2 
  716000    1.1194102   -7.4519981      241.376   0.02809311  0.028389999            2 
  717000    1.1446342   -7.4548042    241.90171  0.028115029  0.028383357            3 
  718000    1.1408172   -7.4288129    242.46969  0.028141793   0.02837658            2 
  719000     1.130761   -7.4167784    242.24303  0.028076383  0.028369547            2 
  720000    1.1280408   -7.4555402    242.36255  0.028051221  0.028362595            2 
  721000    1.1425013   -7.3793996    243.10662  0.028098315  0.028355747            7 
  722000    1.1281968   -7.3912232    242.58469  0.027999156  0.028349069            1 
  723000    1.1668183    -7.452474     242.6893  0.027972487  0.028342346            1 
  724000    1.1512898   -7.4224125    242.85163  0.027952535  0.028335529            2 
  725000    1.1430323   -7.4406805    243.79469  0.028022379   0.02832878            3 
  726000    1.1512011   -7.4458182    243.28752  0.027925565  0.028321868            2 
  727000    1.1308336   -7.4078406    244.47457  0.028023219  0.028314466            5 
  728000    1.1143598   -7.4602155     243.4845  0.027871395   0.02830675            2 
  729000    1.1174003   -7.4335763    244.24513  0.027920111  0.028299238            3 
  730000    1.1384432   -7.4169999    245.22664  0.027993909  0.028292023            4 
  731000    1.1335928   -7.4214744     244.2666  0.027846169  0.028284562            3 
  732000    1.1268218   -7.4259337      245.446  0.027942395  0.028277481            1 
  733000     1.135914   -7.3886577     246.0052  0.027967849  0.028270531            2 
  734000    1.1291914   -7.4604481    245.61411  0.027885344   0.02826302            5 
  735000    1.1125965   -7.3908401    246.05399  0.027897278  0.028255715            1 
  736000    1.1574324   -7.3825924     246.8003  0.027943874  0.028248498            1 
  737000    1.1309476   -7.4067062    245.90765  0.027805026  0.028241091            2 
  738000    1.1125023   -7.4353383     246.2926  0.027810817  0.028233412            2 
  739000    1.1548144   -7.4460445    246.00956  0.027741268  0.028225763            1 
  740000     1.128025   -7.4115854    247.02639  0.027818288  0.028218145            5 
  741000    1.1320428   -7.4225657    246.72845  0.027747239  0.028210202            2 
  742000    1.1259668   -7.4703997    246.70598   0.02770732  0.028202177            1 
  743000    1.1402655   -7.4318977    247.10457  0.027714735   0.02819398            2 
  744000     1.155386   -7.4685592    247.22096   0.02769052  0.028185698            1 
  745000    1.1276739   -7.4694099    247.12631  0.027642763   0.02817748            2 
  746000    1.1276832   -7.4397616    247.60127  0.027658766  0.028169271            2 
  747000    1.1121273    -7.334811    249.48229   0.02783158  0.028161531            3 
  748000    1.1447008   -7.4194944    249.07725  0.027749247  0.028153793            1 
  749000    1.1140439   -7.4737959    248.78508  0.027679693  0.028146023            2 
  750000    1.1470996   -7.4025877    249.17995  0.027686661  0.028137952            2 
  751000    1.1240676     -7.41103    248.94251  0.027623448  0.028130147            3 
  752000    1.1206078   -7.4429619     249.1366  0.027608223   0.02812233            4 
  753000    1.1237207   -7.4330407    250.40621  0.027712064  0.028114248            1 
  754000    1.1370599   -7.4140993    250.64035  0.027701188  0.028106512            1 
  755000     1.141522   -7.4676436    250.29856  0.027626772  0.028098779            1 
  756000    1.1427979    -7.416928    251.37047  0.027708385  0.028091102            1 
  757000    1.1322221   -7.4364036    251.37962   0.02767279  0.028083685            1 
  758000    1.1154913   -7.4148823    252.18598  0.027724931  0.028076386            1 
  759000    1.1474485   -7.4042761    252.06408   0.02767502  0.028068898            1 
  760000    1.1232064   -7.4780158    252.20287  0.027653823  0.028060998            2 
  761000     1.134548   -7.4730964    251.34885  0.027523965  0.028052629            1 
  762000    1.1367896    -7.488317    251.89893  0.027548002  0.028044539            2 
  763000    1.1308703   -7.4552753     252.8776  0.027618786  0.028036598            2 
  764000     1.128312   -7.4467358    253.56106  0.027657184  0.028029003            2 
  765000    1.1163126   -7.4532851    253.43191  0.027606962  0.028021307            2 
  766000     1.128391   -7.4417351    253.79512  0.027610435  0.028013482            4 
  767000    1.1150513   -7.4802887    253.42317  0.027534026   0.02800551            2 
  768000    1.1042679   -7.4443762    254.30328  0.027593672  0.027997597            1 
  769000    1.1350665   -7.4486314    254.40757  0.027569091  0.027989417            2 
  770000    1.1497554   -7.4559286    255.43919  0.027644935  0.027981725            3 
  771000    1.1257502   -7.4620139    255.49094  0.027614672  0.027973897            2 
  772000    1.1523621   -7.4635167    254.87294  0.027512192  0.027965909            2 
  773000    1.1344525   -7.4724349    254.83985  0.027473033  0.027958078            4 
  774000    1.1265311   -7.4259309    256.49246  0.027615467  0.027950319            1 
  775000    1.1076794    -7.432545    256.70107  0.027602265   0.02794249            3 
  776000    1.1431538   -7.4473662    256.09737  0.027501865  0.027934444            1 
  777000    1.1237659   -7.4370238    256.08256  0.027464882   0.02792664            4 
  778000    1.1421376   -7.4432712    257.48568  0.027579872  0.027918853            2 
  779000    1.1172501   -7.4701844    257.40258  0.027535578  0.027911274            3 
  780000    1.1341624   -7.4339459    258.29149  0.027595245   0.02790373            2 
  781000    1.1322317   -7.4250797    258.22117  0.027552408  0.027896475            2 
  782000    1.1182432    -7.460241    259.12247  0.027613222  0.027889355            2 
  783000    1.1169062   -7.4697543    258.69815  0.027532796  0.027882678            3 
  784000    1.1250157   -7.4879016    258.56097  0.027483097  0.027875174            2 
  785000    1.1456984   -7.4369628    259.10928  0.027506293  0.027867376            2 
  786000    1.1240144   -7.4666827    259.12854   0.02747334   0.02785998            4 
  787000    1.1405198   -7.4474919    259.72945   0.02750206  0.027852396            2 
  788000    1.1286388    -7.508928     259.6906   0.02746305  0.027844851            3 
  789000    1.1236777   -7.4848742    260.43219  0.027506568  0.027837345            1 
  790000    1.1298074   -7.4572275     260.6408  0.027493755  0.027829632            2 
  791000    1.1010552   -7.3959359    262.48683   0.02765348  0.027822215            1 
  792000     1.138099   -7.4451122    260.72912   0.02743362  0.027814977            1 
  793000    1.1424836   -7.4666694    261.27375  0.027456258  0.027807539            2 
  794000    1.0962377   -7.4578107    261.35328  0.027430025  0.027800116            1 
  795000    1.1463555   -7.4983043    261.45939  0.027406645  0.027792295            2 
  796000    1.1292241   -7.4799727    261.42816  0.027368944  0.027784566            3 
  797000    1.1464715   -7.4546585    262.56554  0.027453527  0.027777015            2 
  798000    1.1069317   -7.4945332    262.96598  0.027460941  0.027769495            3 
  799000    1.1269043   -7.5088868    262.82133  0.027411486  0.027761913            2 
  800000    1.1038411   -7.4788406    263.26678  0.027423623  0.027754427            2 
  801000    1.1029905   -7.4952447    263.03958  0.027365749  0.027747216            3 
  802000    1.1266974   -7.4616248    264.05903  0.027437555   0.02773983            2 
  803000    1.1417306   -7.4670185    263.61278  0.027357075  0.027732789            2 
  804000    1.1444551   -7.4573837    264.83556  0.027449789  0.027725865            2 
  805000    1.1172982     -7.43904    264.84422  0.027416586  0.027719143            2 
  806000    1.1157197   -7.4613451    265.21452  0.027420856  0.027712404            2 
  807000    1.1258849   -7.4880291    265.60532  0.027427233  0.027705634            3 
  808000    1.0988021   -7.4754669    266.08304  0.027442557   0.02769853            3 
  809000    1.1194494   -7.4736955    265.51302  0.027349919  0.027691588            3 
  810000    1.1093527    -7.469122    266.22452  0.027389354  0.027684682            1 
  811000    1.1300903   -7.4663378    266.25287  0.027358494  0.027677771            1 
  812000    1.0763089   -7.4775542    266.95538  0.027396899  0.027670879            3 
  813000    1.1107217   -7.4628352    267.77592  0.027447306  0.027664556            3 
  814000    1.1160042   -7.4165755    268.76665  0.027515013  0.027658192            2 
  815000     1.136972   -7.5124999    267.89871  0.027392506  0.027651699            1 
  816000    1.1220168   -7.5138763    267.62923  0.027331416  0.027645286            1 
  817000    1.1035896   -7.4472858    269.00746  0.027438542  0.027638799            1 
  818000    1.1207656   -7.4838427    269.34725  0.027439614  0.027632459            3 
  819000    1.1175324   -7.4792755    268.39797   0.02730952  0.027625769            3 
  820000    1.1000031   -7.4322156    269.88096  0.027426926  0.027619246            2 
  821000    1.1168955   -7.4401046    268.88152  0.027292075  0.027612734            1 
  822000    1.1534016   -7.4541221     270.2974  0.027402412  0.027605914            2 
  823000    1.1052069   -7.4849585    269.85488  0.027324309  0.027598929            4 
  824000    1.1093647   -7.4089108    270.63521  0.027370066  0.027592232            1 
  825000    1.1326492   -7.4861488    269.75471   0.02724795  0.027585328            4 
  826000    1.1281884   -7.4423182     271.3749   0.02737842  0.027578398            2 
  827000    1.1142621   -7.4923804    270.37001  0.027244056  0.027571168            1 
  828000    1.1027779   -7.4758302    270.59388  0.027233684  0.027563917            2 
  829000    1.1100456   -7.4236214     271.4007  0.027281936  0.027556673            2 
  830000    1.1215672   -7.4238004    272.31009   0.02734037  0.027549639            1 
  831000    1.1020532    -7.457745    272.15391  0.027291808  0.027542856            1 
  832000    1.1158429   -7.4759277    272.33076  0.027276718  0.027535924            2 
  833000    1.1483584   -7.4313026    272.49312  0.027260216  0.027528895            1 
  834000    1.1127535   -7.4351658    272.92468  0.027270652  0.027521867            1 
  835000     1.101009   -7.5101044    271.88909   0.02713464  0.027514606            1 
  836000    1.1037141   -7.4534093    273.75842  0.027288519  0.027507721            2 
  837000    1.1042329   -7.4623594    273.76105  0.027256178   0.02750074            3 
  838000    1.1325423   -7.4740574    273.05551  0.027153492  0.027493699            2 
  839000    1.0998391   -7.4528258    274.34884  0.027249587  0.027486728            4 
  840000    1.1207121   -7.4118504    275.19526  0.027301117  0.027480016            2 
  841000    1.1172964   -7.4505792    274.81809  0.027231281  0.027473306            2 
  842000    1.1057184   -7.4805096     274.9239  0.027209412   0.02746638            2 
  843000    1.1219462   -7.4843173    275.17255  0.027201715  0.027459276            1 
  844000    1.1083408   -7.4781419    274.60917   0.02711386   0.02745212            2 
  845000    1.1363933    -7.538874    273.87562   0.02700943  0.027444795            1 
  846000    1.0779984   -7.4838385     275.2458  0.027112471  0.027437354            4 
  847000    1.1134126   -7.4611587    275.51643  0.027107087  0.027430003            2 
  848000    1.0947722   -7.4969583    274.89905  0.027014451  0.027422571            2 
  849000    1.1125248   -7.4655884    275.55699  0.027047211  0.027414962            4 
  850000    1.1143936    -7.441547    276.33776  0.027091937  0.027407289            2 
  851000    1.1333104   -7.5043723     275.5882  0.026986702  0.027399612            3 
  852000    1.1065709   -7.4628987    276.45129  0.027039445  0.027391684            2 
  853000    1.1032863   -7.4940731    275.48234  0.026913085  0.027383816            6 
  854000    1.1282243    -7.483781    276.33097   0.02696438   0.02737603            3 
  855000    1.0985375   -7.4910987    277.14456   0.02701214  0.027368186            7 
  856000    1.1285592   -7.4592268    277.52616  0.027017734  0.027360471            2 
  857000    1.1260855   -7.4586505     278.2775  0.027059267  0.027352891            1 
  858000    1.0981833   -7.4813542     278.0573  0.027006343  0.027345527            2 
  859000    1.1043423   -7.4741615    278.25313  0.026993901  0.027338032            5 
  860000     1.115833   -7.4804199    277.97199  0.026935271  0.027330407            3 
  861000    1.1084933   -7.4836943    279.05763  0.027009062  0.027322662            3 
  862000    1.1321472   -7.5045604    278.11259  0.026886368  0.027314618            4 
  863000    1.1237049   -7.4788397    278.68042  0.026910044  0.027306611            3 
  864000    1.1154928   -7.4581706    279.08783  0.026918193  0.027298559            1 
  865000    1.1018829   -7.4542152    278.77679  0.026857109  0.027290618            1 
  866000     1.131885   -7.4755775    279.57326  0.026902738  0.027282543            2 
  867000    1.1228482   -7.5054522    278.82389  0.026799682  0.027274174            5 
  868000    1.0878328   -7.5004992    279.83645  0.026866018  0.027265998            2 
  869000    1.1176069   -7.5423184    279.21218  0.026775237  0.027257804            3 
  870000     1.113393   -7.5039451    280.34873  0.026853326  0.027249728            1 
  871000    1.1108563   -7.4731793    280.83709   0.02686922  0.027241808            1 
  872000    1.1177091   -7.4759757    280.74973  0.026830059  0.027233789            2 
  873000    1.1168251   -7.4785274    281.00099   0.02682331  0.027225791            2 
  874000    1.1066399   -7.4838749    281.21469  0.026812995  0.027217642            2 
  875000    1.1448851   -7.4918607    282.41392  0.026896564  0.027209671            3 
  876000    1.1535847   -7.4623967    281.16646  0.026747189  0.027202019            2 
  877000      1.12376   -7.5019798    281.90181  0.026786565  0.027194186            3 
  878000     1.096843   -7.4529526    282.79133  0.026840483  0.027186446            2 
  879000    1.1297509   -7.4886219    283.03343    0.0268329  0.027179062            2 
  880000    1.0815959   -7.4641824    283.78877  0.026873937  0.027171708            1 
  881000     1.119233   -7.4716475    284.03655   0.02686687  0.027164198            1 
  882000    1.0856792   -7.4724179    284.73678  0.026902568  0.027156553            1 
  883000    1.1165327   -7.5020752    284.03265  0.026805649  0.027148857            2 
  884000    1.1152482   -7.4830147    285.02411  0.026868789  0.027141531            1 
  885000    1.1223481   -7.4908686    284.36592  0.026776452   0.02713402            4 
  886000    1.1067862   -7.5039352    284.47625  0.026756608  0.027126475            1 
  887000    1.1244178   -7.4857381    284.80207  0.026757053  0.027118676            3 
  888000    1.1218899   -7.4741957    285.11818  0.026756586  0.027110578            2 
  889000    1.0993309   -7.4905081    285.62833  0.026774309  0.027102779            4 
  890000    1.1169796   -7.5197653    284.43742  0.026632718  0.027094509            2 
  891000    1.0958135   -7.5362447    284.92464  0.026648395  0.027086218            5 
  892000    1.1099933   -7.4727004    287.18923  0.026830085  0.027078222            3 
  893000    1.1366688   -7.4892915    286.87079  0.026770324  0.027070378            2 
  894000    1.0819232   -7.4941555    286.32705  0.026689695  0.027062387            1 
  895000    1.1178167   -7.4864998    286.08269  0.026637122  0.027054495            4 
  896000    1.0944709   -7.5020223    286.95695  0.026688704  0.027046638            1 
  897000    1.0983436    -7.486959    286.78358  0.026642844  0.027038656            4 
  898000    1.1010998   -7.4858674    287.22627  0.026654256  0.027030515            3 
  899000    1.1086999    -7.474129     288.0127  0.026697507  0.027022464            2 
  900000     1.101836   -7.5128866    287.60494  0.026630087  0.027014812            3 
  901000    1.1150738    -7.472198    288.73725  0.026705258  0.027006989            2 
  902000    1.0968146   -7.4889265    288.50067  0.026653794  0.026999203            3 
  903000    1.0876596   -7.5142634    287.19354  0.026503649  0.026991335            2 
  904000    1.1040217   -7.4893895    288.13695  0.026561297  0.026983061            2 
  905000    1.1025782   -7.4969161    287.95002  0.026514734  0.026975166            3 
  906000    1.1304651   -7.4977206    289.21946  0.026602231  0.026967191            4 
  907000    1.0962785   -7.4664095     288.6649  0.026521949  0.026958958            5 
  908000    1.0882737   -7.5134249    288.60813  0.026487531   0.02695043            2 
  909000    1.0953216   -7.5076232    288.81414  0.026477277  0.026941847            1 
  910000    1.1233125   -7.5535299    288.59865  0.026428448  0.026933212            2 
  911000    1.1271472   -7.4747852    290.20222  0.026546123  0.026924915            2 
  912000    1.1156863    -7.474911    290.08123   0.02650596  0.026916543            1 
  913000    1.1038664   -7.4911084    289.80424  0.026451647  0.026907963            2 
  914000    1.1097938    -7.486922    290.21161  0.026459848  0.026899464            3 
  915000    1.1290453   -7.5294443    290.02989   0.02641438  0.026891123            2 
  916000    1.1156557   -7.4698863    290.48772  0.026427194  0.026882595            2 
  917000    1.0973311   -7.4844864    290.97234  0.026442415  0.026874052            1 
  918000    1.1007052   -7.5093146    291.16239  0.026430863  0.026865402            1 
  919000    1.1226736   -7.5229004    291.14667  0.026400677  0.026856665            1 
  920000    1.1022769   -7.4979503    291.61221  0.026414149     0.026848            2 
  921000    1.1006705   -7.5041042    292.24145  0.026442404  0.026839396            2 
  922000    1.1118249   -7.5344882    290.96503  0.026298357   0.02683063            2 
  923000     1.078867   -7.5212323    291.98272  0.026361748  0.026821721            2 
  924000    1.1070306   -7.4763181    292.58431  0.026387474  0.026813076            2 
  925000    1.1131866   -7.5307529    292.43982   0.02634593  0.026804369            7 
  926000     1.095014    -7.544156    292.68786    0.0263398  0.026795768            2 
  927000    1.1083767   -7.4996419    293.37184  0.026372873   0.02678718            3 
  928000     1.127578    -7.576717    292.67086  0.026281506  0.026778644            5 
  929000     1.094824     -7.54557    293.41772  0.026320212  0.026770093            4 
  930000    1.0938114   -7.5047871    294.20569  0.026362517  0.026761857            4 
  931000    1.1081063   -7.4718424    295.60434  0.026459393   0.02675403            1 
  932000    1.1184452   -7.4999091     294.7161  0.026351582   0.02674608            3 
  933000    1.1084125   -7.4836377    295.27142  0.026372938  0.026737968            3 
  934000    1.1214784   -7.5278129      294.689  0.026292737  0.026730115            1 
  935000    1.0954642   -7.5278668    295.60012  0.026345822  0.026721955            2 
  936000    1.1047747   -7.4932884    295.98497  0.026351939    0.0267139            1 
  937000    1.0852365   -7.4988284    295.98358  0.026323691  0.026705825            2 
  938000    1.1370489   -7.4874991    297.18633  0.026402481  0.026697823            4 
  939000    1.0809391   -7.4873071    296.72953  0.026333824  0.026689886            1 
  940000    1.1027056   -7.5013283    297.40839  0.026365992  0.026681798            2 
  941000    1.1040897   -7.5129202    296.71937  0.026276954  0.026673617            2 
  942000    1.1006172   -7.5510517    296.74082  0.026250957  0.026665314            5 
  943000      1.10428   -7.5196085    297.17814  0.026261766  0.026657269            3 
  944000    1.1124081   -7.5144862     297.3812  0.026251871  0.026649453            2 
  945000    1.1154985   -7.5223738    298.62195  0.026333505  0.026641484            2 
  946000    1.0664433    -7.532384    298.04241  0.026254617  0.026633591            2 
  947000    1.1012733   -7.4994946    298.52691  0.026269527  0.026625558            2 
  948000    1.1165236   -7.5752858    297.95749  0.026191763  0.026617454            1 
  949000    1.1269783   -7.4928745    299.22326  0.026275313  0.026609325            2 
  950000      1.08691   -7.5021463    298.94994  0.026223679  0.026601321            1 
  951000    1.0739695   -7.5369697    298.70719  0.026174833  0.026593348            2 
  952000    1.0809564   -7.5456528    299.52022  0.026218507  0.026585161            3 
  953000    1.0787215   -7.5424857    299.97013  0.026230337  0.026577002            3 
  954000    1.1078724    -7.517581    300.52378  0.026251204  0.026569137            2 
  955000    1.1148756   -7.5101036    300.91838  0.026258148  0.026561454            4 
  956000    1.1116493    -7.548323     300.1943  0.026167565  0.026553685            2 
  957000     1.101473   -7.5117925    299.98127  0.026121671  0.026545787            2 
  958000    1.1001412   -7.5058585    301.61429  0.026236456  0.026537963            1 
  959000    1.0902237   -7.5404364    301.71562  0.026217902   0.02653017            3 
  960000    1.1061073   -7.5209145    302.18601  0.026231424  0.026522344            2 
  961000    1.0953039   -7.5307518    301.90221  0.026179518  0.026514519            6 
  962000    1.0841279   -7.4937343    303.57401  0.026297125  0.026506888            4 
  963000    1.0933077   -7.5226468     302.8121  0.026203885  0.026499352            2 
  964000    1.0834232   -7.5227914    303.25867  0.026215307  0.026491804            4 
  965000    1.0943419   -7.4940697    304.70782  0.026313283  0.026484266            3 
  966000    1.0667881   -7.5042799    304.33267  0.026253681  0.026476686            2 
  967000    1.0917567   -7.5493977    303.88229  0.026187719  0.026469138            5 
  968000    1.0939562    -7.509344    303.47495  0.026125598  0.026461334            2 
  969000    1.0936184   -7.5339551    304.40569   0.02617868  0.026453759            2 
  970000    1.1022216   -7.5603663    303.88769   0.02610719  0.026446034            2 
  971000    1.1005906   -7.5327635     305.0782  0.026182475   0.02643837            3 
  972000    1.0922842   -7.5098596    305.56027  0.026196868  0.026430937            1 
  973000     1.105647   -7.5187918    305.49141  0.026164046  0.026423422            3 
  974000    1.0766815   -7.5213868    305.01032  0.026096023  0.026416086            5 
  975000     1.107888   -7.4859761    306.49471  0.026196129  0.026408984            2 
  976000    1.0981048   -7.5357821    305.89127  0.026117765  0.026401675            1 
  977000    1.1047817   -7.4868405    308.05444  0.026275541  0.026394505            2 
  978000    1.0995387   -7.5770888    306.61229  0.026125792  0.026387206            3 
  979000    1.1084804   -7.5173312    308.16863  0.026231583  0.026379689            2 
  980000    1.1173614   -7.5364791    307.63935  0.026159809   0.02637225            1 
  981000    1.0998074   -7.5349888    306.56237  0.026041656  0.026364729            4 
  982000    1.0748569    -7.542832    307.45472  0.026090862  0.026357495            1 
  983000    1.1137322   -7.5824482    306.75168   0.02600472  0.026350219            3 
  984000    1.0831353   -7.5002614    309.22253  0.026187545  0.026342889            1 
  985000    1.0937395   -7.5166082    308.90667  0.026134236  0.026335748            2 
  986000    1.1092917   -7.5020242    309.79274  0.026182618  0.026328669            5 
  987000    1.1123826   -7.5112786    309.94712  0.026169125  0.026321694            5 
  988000    1.0934619   -7.5010129    309.15747  0.026076035  0.026314665            3 
  989000    1.0935932   -7.5527275    310.28463  0.026144644  0.026307643            2 
  990000    1.0967231   -7.5423195    310.52869  0.026138779   0.02630056            3 
  991000    1.1084661   -7.5420467    310.12615  0.026078553  0.026293476            2 
  992000    1.1269427   -7.5341555    309.47129  0.025997252  0.026286165            3 
  993000    1.0978481   -7.5268844    310.40069  0.026049068  0.026278977            1 
  994000    1.0818406    -7.515045    310.89628   0.02606441  0.026271827            2 
  995000    1.0923891    -7.494654    311.13452  0.026058168  0.026264659            3 
  996000    1.0805849   -7.5601725    310.76688  0.026001245  0.026257175            3 
  997000    1.1054323   -7.5424667    311.51892  0.026038024  0.026249648            3 
  998000    1.1075344   -7.5235189    311.81458  0.026036622  0.026242419            1 
  999000    1.1068801   -7.5192669    312.54268  0.026071295  0.026235143            2 
 1000000    1.0834165   -7.5460978    312.81214  0.026067678  0.026227919            2 
 1001000    1.0940699   -7.5143791    312.30673  0.025999561  0.026220741            2 
 1002000    1.0787759   -7.5879205    311.90136  0.025939901  0.026213537            2 
 1003000    1.0976868   -7.5243702    312.95854  0.026001873   0.02620612            2 
 1004000    1.1189296   -7.5257331    314.18511  0.026077781  0.026198685            1 
 1005000    1.0689877   -7.5633847    312.26128  0.025892312  0.026191401            4 
 1006000    1.0818189   -7.5373986    312.73926  0.025906168  0.026183805            3 
 1007000    1.0775922   -7.5013962    313.56778  0.025949005  0.026176224            1 
 1008000     1.083467   -7.5851653    312.21689  0.025811581  0.026168535            2 
 1009000    1.0837623   -7.5607725    312.37335  0.025798922   0.02616063            1 
 1010000    1.0744573   -7.5463983    314.02927  0.025910006  0.026152862            2 
 1011000    1.0864185   -7.5378804    314.02486  0.025884014  0.026145061            3 
 1012000    1.0744623   -7.5222039    314.63115  0.025908362  0.026137205            5 
 1013000     1.084722   -7.5653106    313.70794   0.02580684  0.026129611            1 
 1014000    1.0551461   -7.5733746     314.5643  0.025851767  0.026121967            2 
 1015000    1.0798701   -7.5322566     315.1168  0.025871658  0.026114213            3 
 1016000    1.0713395   -7.5600884    313.88302  0.025744998  0.026106386            2 
 1017000    1.0993506   -7.5173609    315.41665   0.02584535  0.026098538            3 
 1018000    1.0905539    -7.521406    315.68117  0.025841615  0.026090925            4 
 1019000    1.0887417   -7.5671521    315.51608  0.025802754  0.026083371            2 
 1020000    1.1267804   -7.5612359    315.58692  0.025783245  0.026075681            2 
 1021000    1.1059429    -7.580233    315.37994  0.025741098  0.026068187            3 
 1022000    1.1140183   -7.5858746    315.74665  0.025745813  0.026060565            1 
 1023000     1.087581   -7.5483525    316.23491   0.02576042  0.026052811            1 
 1024000     1.097781   -7.5765185    316.51351  0.025757936  0.026045183            4 
 1025000    1.0646391   -7.5434848     316.5197  0.025733309   0.02603754            3 
 1026000    1.0643524   -7.5656016    317.24249  0.025766934  0.026029964            4 
 1027000    1.0901959   -7.5459634    317.85577  0.025791607  0.026022309            2 
 1028000    1.0933549   -7.5107839    318.26522   0.02579971  0.026014894            1 
 1029000    1.0636431   -7.5318286    318.50618  0.025794151  0.026007435            4 
 1030000     1.067179   -7.5303411    318.12421  0.025738204  0.026000018            3 
 1031000    1.0811467   -7.5660536    318.27693  0.025725584  0.025992491            3 
 1032000    1.0755524   -7.5664197    318.96826  0.025756481  0.025984868            1 
 1033000    1.0783684   -7.5362248    319.14949  0.025746167  0.025977426            3 
 1034000    1.0806237   -7.5848576    318.39298  0.025660299  0.025970071            1 
 1035000     1.095945    -7.510352    319.48987  0.025723822  0.025962619            1 
 1036000    1.0963258   -7.5589085    319.77591     0.025722  0.025955091            4 
 1037000    1.0862239   -7.5787197    319.85876  0.025703854  0.025947525            1 
 1038000    1.0732668   -7.5294802    321.04131  0.025774029  0.025939926            2 
 1039000    1.0958254   -7.5523782    320.02646  0.025667826  0.025932581            3 
 1040000    1.0794735   -7.5675942     320.9042  0.025713478  0.025925219            3 
 1041000    1.0941259   -7.5183643    321.86106  0.025765375   0.02591801            3 
 1042000    1.0604355   -7.5804535    320.87464  0.025661759  0.025910663            2 
 1043000    1.0960075   -7.5348468    322.46849  0.025764501  0.025903389            2 
 1044000    1.0775229   -7.5041251    323.22906  0.025800532  0.025896141            4 
 1045000    1.0925361   -7.5284005    322.53848  0.025720772  0.025889044            2 
 1046000     1.074583   -7.5499321    321.92345  0.025647184  0.025881641            2 
 1047000    1.0775589   -7.5643822    323.05055  0.025712397  0.025874243            2 
 1048000    1.0831819   -7.5570609    323.12138  0.025693494  0.025866946            2 
 1049000    1.0791353   -7.5710265    322.71954  0.025637078  0.025859786            3 
 1050000    1.0890565   -7.5325978    323.89622  0.025706049  0.025852704            4 
 1051000    1.0706509    -7.569766    324.18609  0.025704574  0.025845449            2 
 1052000      1.10367   -7.5426256    324.09049  0.025672567  0.025838351            3 
 1053000    1.0576191   -7.5525408    323.41091  0.025594405  0.025831061            3 
 1054000    1.0919801   -7.5758946     323.9283  0.025611029  0.025823742            1 
 1055000    1.0759718   -7.5782221    323.99347  0.025591901  0.025816292            2 
 1056000    1.0741546   -7.5935675    323.80507  0.025552799   0.02580888            2 
 1057000    1.0953785   -7.5524387    324.85711  0.025611567   0.02580163            2 
 1058000    1.0843051   -7.5714866    324.42009  0.025552937  0.025794326            5 
 1059000     1.075878   -7.5461952    325.04307   0.02557783  0.025786948            2 
 1060000    1.0727881   -7.5626651    323.90736  0.025464415  0.025779553            2 
 1061000    1.0674235   -7.5762899    325.10772  0.025534694  0.025772123            3 
 1062000    1.0440521   -7.5668889    325.58441  0.025548054   0.02576483            2 
 1063000    1.0926681   -7.5390829     325.4002  0.025509579  0.025757409            2 
 1064000    1.0694202    -7.572312     325.3236  0.025479605  0.025750096            1 
 1065000    1.0908324   -7.5292549    327.04346  0.025590255  0.025742792            8 
 1066000    1.0769035   -7.5624331    326.98772  0.025561892  0.025735386            3 
 1067000    1.0695148   -7.5470169    327.33469  0.025565034  0.025727972            1 
 1068000    1.0734809   -7.5676553    326.66423  0.025488782  0.025720645            4 
 1069000    1.0727301   -7.5636921    328.18359   0.02558338  0.025713513            1 
 1070000    1.0874848   -7.5874708    327.52719  0.025508348  0.025706471            1 
 1071000    1.0829806   -7.5920525    326.79168  0.025427302  0.025699273            4 
 1072000    1.0561344    -7.601396    327.17029  0.025433014   0.02569194            2 
 1073000    1.0630972   -7.5514331    329.33145  0.025577156  0.025684824            4 
 1074000    1.0656321   -7.5737374    328.92103  0.025521495  0.025677977            8 
 1075000    1.0851493   -7.5291213    329.07381  0.025509598  0.025671267            1 
 1076000    1.0909763   -7.5629093    329.31428  0.025504514  0.025664339            1 
 1077000    1.0790756   -7.5923319    330.12921  0.025543888  0.025657481            1 
 1078000    1.0859398   -7.6028879    330.00741  0.025510777  0.025650665            2 
 1079000    1.0802958   -7.5876129    330.98382  0.025562544  0.025643908            1 
 1080000    1.0895225   -7.5784023    330.68947  0.025516162  0.025637025            4 
 1081000    1.0656863   -7.5532473    331.31777  0.025540994  0.025630254            2 
 1082000    1.0854449   -7.5264394    331.70359  0.025547103  0.025623553            2 
 1083000    1.0931563   -7.6179994    331.26679  0.025489904  0.025616745            1 
 1084000    1.0830427    -7.568299    331.67998  0.025498154  0.025609967            2 
 1085000    1.0742341   -7.5471409    333.44107  0.025609914  0.025603482            1 
 1086000    1.0731002    -7.532667    332.42689  0.025508509  0.025596866            1 
 1087000    1.0713221   -7.5935472    332.24849  0.025471365  0.025590049            4 
 1088000    1.1075027   -7.5862924    332.73554  0.025485259  0.025583192            2 
 1089000    1.0866762   -7.5809888    332.68193  0.025457754  0.025576426            2 
 1090000    1.0826976   -7.5948968    332.13684  0.025392725  0.025569676            1 
 1091000    1.0845569    -7.581705    333.38673   0.02546492  0.025562793            1 
 1092000     1.055052   -7.5758932     334.2531  0.025507716  0.025555937            1 
 1093000    1.0769916   -7.5747943    333.02375  0.025390649  0.025549093            2 
 1094000    1.0779489   -7.5804617    333.73323  0.025421483  0.025542124            2 
 1095000    1.0691395   -7.5957066    333.54863  0.025384218  0.025535142            3 
 1096000    1.0585489   -7.5706569    334.92422  0.025465649  0.025528118            2 
 1097000    1.0900949   -7.5656058    333.55732    0.0253386  0.025521019            8 
 1098000    1.0767671   -7.5542066    333.77468  0.025332019  0.025513758            1 
 1099000    1.0712779   -7.5661364    333.74752  0.025306909  0.025506549            2 
 1100000    1.0917985   -7.5496834    333.54233  0.025268359  0.025499232            1 
 1101000    1.0704609   -7.5817538    335.00514  0.025356126  0.025492142            2 
 1102000    1.1116472   -7.5715648    333.41024   0.02521251  0.025484794            4 
 1103000    1.0577145   -7.5798349    334.20834   0.02524995  0.025477373            5 
 1104000    1.0950539   -7.5328953    335.15529  0.025298557  0.025469995            5 
 1105000    1.0975464   -7.5580649    334.60533  0.025234188  0.025462634            3 
 1106000    1.0779722   -7.5962476    334.29879  0.025188275  0.025455234            3 
 1107000     1.082813   -7.6112927    334.67552  0.025193881   0.02544775            1 
 1108000     1.068042   -7.6166769    334.79262  0.025179951  0.025440174            2 
 1109000    1.0815783   -7.6394412    334.26211  0.025117381  0.025432328            2 
 1110000    1.0843391   -7.5680048    335.43557  0.025182851  0.025424614            2 
 1111000    1.0797093   -7.6562612    334.08525    0.0250589  0.025417019            2 
 1112000    1.0915864   -7.5799859    335.76611  0.025162328  0.025409304            2 
 1113000    1.0665467   -7.5536913    336.04634  0.025160702  0.025401709            2 
 1114000    1.0562135   -7.5506309    336.18893  0.025148783  0.025394117            2 
 1115000    1.0615476   -7.5994092    335.92793  0.025106721  0.025386426            4 
 1116000    1.0783213   -7.5755057    336.53286  0.025129395  0.025378716            2 
 1117000    1.0480984   -7.5769146    337.05323   0.02514572  0.025371154            5 
 1118000    1.0784629   -7.5804199    335.90595  0.025037712  0.025363321            2 
 1119000    1.0687606   -7.6101639    336.83997  0.025084895   0.02535559            1 
 1120000    1.0488695   -7.5467185    336.86453  0.025064325  0.025347896            3 
 1121000     1.054394   -7.5509965    338.06429  0.025131154  0.025340398            2 
 1122000    1.0913234   -7.5845165    337.96965  0.025101727  0.025332837            5 
 1123000    1.0584148   -7.5648261    338.07314  0.025087054  0.025325432            3 
 1124000    1.0768762   -7.5951357    337.93646  0.025054601  0.025317828            2 
 1125000    1.0701802   -7.6003718    338.14624   0.02504787  0.025310231            5 
 1126000    1.0720761   -7.6016306    338.75689  0.025070818  0.025302699            2 
 1127000    1.0900671   -7.6016443    338.62609  0.025038901  0.025295045            1 
 1128000    1.0789514   -7.5614341    339.56468  0.025086043  0.025287253            3 
 1129000    1.0749432   -7.6045016    339.31252  0.025045211  0.025279492            2 
 1130000    1.0830864   -7.5688289    340.07112  0.025078991   0.02527206            3 
 1131000    1.0563835   -7.5829167    338.37357   0.02493174  0.025264554            3 
 1132000    1.0474496    -7.652356    339.13063  0.024965447  0.025256904            3 
 1133000    1.0426541   -7.6142371    338.64988  0.024908053  0.025249252            2 
 1134000    1.0284504   -7.5740854     340.5816  0.025028042   0.02524165            4 
 1135000    1.0574392   -7.5769667    340.42814  0.024994724   0.02523404            1 
 1136000    1.0931283   -7.5769656    341.20026  0.025029362  0.025226767            5 
 1137000    1.0863104   -7.5980845    340.52812  0.024958086  0.025219562            4 
 1138000    1.0845235   -7.5540679    342.64255  0.025090989  0.025212318            2 
 1139000     1.071497    -7.602041     342.0543  0.025025922  0.025205043            1 
 1140000    1.0834994   -7.5590509    341.96208  0.024997228  0.025197606            4 
 1141000    1.0545334   -7.6091634    342.12104  0.024986929  0.025190253            4 
 1142000    1.0816645    -7.625755    341.31118  0.024905953  0.025182887            2 
 1143000    1.0631376   -7.5710633    343.50077  0.025043801  0.025175569            1 
 1144000    1.0955003   -7.5436553    343.60497  0.025029499  0.025168309            2 
 1145000     1.074882   -7.5434853    342.27055   0.02491052  0.025161061            3 
 1146000    1.0795325     -7.58663    343.55504  0.024982187  0.025153616            3 
 1147000    1.0411526   -7.6554263    342.67665  0.024896589  0.025146089            2 
 1148000    1.0493829   -7.6314555    342.29017  0.024846848  0.025138374            1 
 1149000     1.063181   -7.6095527    343.36705  0.024903326  0.025130882            2 
 1150000    1.0574927   -7.6258332    343.95111  0.024923994  0.025123717            1 
 1151000    1.0772628   -7.5793117    343.97569  0.024904119  0.025116483            2 
 1152000    1.0643515   -7.6501526     344.0174  0.024885518  0.025109128            1 
 1153000    1.0504078   -7.6753927     343.7225  0.024842621  0.025101424            3 
 1154000    1.0710354   -7.6359673    344.36708   0.02486764  0.025093953            2 
 1155000    1.0603566   -7.5916126    345.59551  0.024934741   0.02508664            6 
 1156000    1.0717364   -7.5605777    346.67243  0.024990804  0.025079517            1 
 1157000    1.0818713   -7.6211886    345.80283  0.024906571  0.025072319            2 
 1158000    1.1000603   -7.6327938    346.71939  0.024951021  0.025065216            4 
 1159000    1.0617392   -7.5832037    346.11346  0.024885926  0.025058089            4 
 1160000    1.0598527   -7.5832619    347.92214  0.024994406  0.025050901            3 
 1161000    1.0878181   -7.6164728    346.28995  0.024855724  0.025043711            5 
 1162000    1.0484869   -7.5987036    347.54046  0.024924015  0.025036554            1 
 1163000    1.0599052   -7.6335273     346.5993  0.024835146   0.02502947            4 
 1164000     1.082901   -7.5966646    347.12031  0.024851111  0.025022223            4 
 1165000    1.0292767   -7.5749786    348.17995  0.024905576  0.025015154            4 
 1166000     1.048072   -7.5979684    347.75275  0.024853684  0.025007939            2 
 1167000    1.0464697   -7.5800892    348.50919  0.024886403  0.025000751            2 
 1168000    1.0785838   -7.5690282    349.51882   0.02493713  0.024993452            4 
 1169000    1.0547451   -7.5696931    348.04138  0.024810478  0.024986379            3 
 1170000    1.0865521   -7.6112184    347.73743  0.024767623    0.0249793            3 
 1171000    1.0851502   -7.6438534    348.13781  0.024774965  0.024972151            3 
 1172000    1.0488454   -7.6086381    349.95738  0.024883204  0.024964948            3 
 1173000    1.0832123   -7.5860366    349.58264  0.024835368  0.024957959            3 
 1174000    1.0858193   -7.6049221    349.63154  0.024817685  0.024950872            2 
 1175000    1.0842189   -7.6267609    348.56317  0.024720792  0.024943746            2 
 1176000    1.0689445   -7.5688261    350.66766  0.024848899  0.024936461            1 
 1177000    1.0725085   -7.6155058    350.17613  0.024792986  0.024929387            3 
 1178000    1.0557529   -7.6090812     350.1362  0.024769114   0.02492227            3 
 1179000    1.0435725   -7.5832596    351.02032  0.024810597  0.024915117            1 
 1180000    1.0518247   -7.6352175    350.12088  0.024726051  0.024907904            2 
 1181000    1.0542634   -7.6105749     350.6463  0.024742189  0.024900657            3 
 1182000    1.0770014   -7.6354569    349.78216  0.024660333  0.024893292            2 
 1183000    1.0579795    -7.665175    349.77863  0.024639239  0.024885807            4 
 1184000    1.0631125   -7.5951489    350.69454  0.024682893  0.024878348            2 
 1185000    1.0800979   -7.6304617    349.41461  0.024572054   0.02487079            3 
 1186000    1.0368171   -7.6470471    349.79877  0.024578328  0.024863166            4 
 1187000    1.0809624    -7.606412    351.14112  0.024651861  0.024855602            4 
 1188000    1.0592036   -7.6089729    349.87128  0.024542037  0.024847994            2 
 1189000    1.0722556   -7.6313231    350.76891  0.024584308  0.024840367            3 
 1190000    1.0522141   -7.6451685    351.39576  0.024607546  0.024832953            4 
 1191000    1.0602029   -7.5838457    352.66818  0.024675915   0.02482557            1 
 1192000    1.0693438   -7.5961195    351.73271  0.024589815  0.024818115            3 
 1193000    1.0562936   -7.6469866    351.90873  0.024581498  0.024810628            3 
 1194000    1.0590537   -7.6322076    352.64425  0.024612245  0.024803286            4 
 1195000    1.0719657    -7.643393    352.62036  0.024589983  0.024796029            3 
 1196000    1.0592362   -7.6221285    352.95784  0.024592937  0.024788802            2 
 1197000    1.0686392    -7.604118     353.5153  0.024611201  0.024781427            1 
 1198000    1.0663232   -7.6433695    353.04598  0.024558012  0.024774189            2 
 1199000    1.0397688   -7.6346634    353.47706  0.024567491  0.024767005            1 
 1200000    1.0588814   -7.6280444    353.27877  0.024533248  0.024759638            2 
 1201000     1.067529   -7.5760237    354.46288  0.024594982  0.024752337            3 
 1202000    1.0536359   -7.6177333    354.92437  0.024606515  0.024744914            1 
 1203000    1.0835929   -7.6349311    354.60334  0.024563822  0.024737619            5 
 1204000    1.0743233   -7.6054139    354.48017  0.024534895  0.024730425            3 
 1205000    1.0756691   -7.6237055    356.10004  0.024626559  0.024723219            2 
 1206000    1.0395663    -7.588308    356.04944  0.024602643  0.024716267            5 
 1207000    1.0655659   -7.5414319    358.06848  0.024721657   0.02470939            1 
 1208000    1.0612708   -7.5674868    357.23175   0.02464347  0.024702543            5 
 1209000    1.0693648   -7.6651112    354.94944  0.024465773  0.024695378            2 
 1210000    1.0683615   -7.6127533    356.06747  0.024522553   0.02468832            2 
 1211000    1.0467944   -7.5999594    358.23948  0.024651767  0.024681285            1 
 1212000     1.078592   -7.6725074    356.12103  0.024485769  0.024674117            3 
 1213000    1.0506112   -7.5909406    357.72777  0.024575967  0.024667042            1 
 1214000    1.0353603   -7.6761083    356.83236  0.024494259  0.024659945            1 
 1215000    1.0646897     -7.61268     357.8266  0.024542291  0.024652875            2 
 1216000    1.0465006   -7.5971366    358.36109  0.024558737  0.024645951            2 
 1217000    1.0732775   -7.6472635    358.10563  0.024521065  0.024639133            2 
 1218000     1.063907   -7.5514785    359.54991  0.024599747  0.024632465            6 
 1219000    1.0890866    -7.614061    358.85945  0.024532366  0.024625764            1 
 1220000    1.0452047   -7.6049919    359.46592  0.024553683   0.02461892            2 
 1221000    1.0621995   -7.6214046    359.09414    0.0245082   0.02461209            3 
 1222000     1.048645   -7.6200697    359.21187  0.024496172  0.024605299            3 
 1223000    1.0612126   -7.6082794     360.2889   0.02454953  0.024598552            7 
 1224000    1.0384053   -7.6053852    360.84853  0.024567574  0.024591774            2 
 1225000    1.0505662   -7.6606664    358.47346   0.02438595   0.02458487            6 
 1226000    1.0715148   -7.6560896    360.44956  0.024500378  0.024577825            4 
 1227000    1.0555872    -7.640117    360.44129  0.024479849  0.024570909            2 
 1228000    1.0475303   -7.6765899    359.74133  0.024412413  0.024564037            3 
 1229000    1.0654281   -7.6310585    360.96139  0.024475278  0.024557144            3 
 1230000    1.0622848   -7.6527657    360.72105  0.024439095  0.024550305            3 
 1231000    1.0496659   -7.6203438     361.7426  0.024488397  0.024543437            3 
 1232000    1.0673139   -7.6090993    362.50246  0.024519917  0.024536672            2 
 1233000    1.0572168   -7.6473511    362.61132  0.024507388  0.024529898            3 
 1234000    1.0535843   -7.6762312    361.44255    0.0244086  0.024523136            4 
 1235000    1.0535825   -7.6456737    362.43711  0.024455945  0.024516301            1 
 1236000    1.0506478   -7.6551094    361.75989    0.0243905  0.024509465            2 
 1237000     1.069724   -7.6637583     362.5432  0.024423552  0.024502772            2 
 1238000    1.0542308   -7.6510347    362.91423  0.024428799  0.024496095            2 
 1239000    1.0201564   -7.6490324    363.01142  0.024415618  0.024489361            2 
 1240000    1.0476085    -7.651027    363.33801  0.024417877  0.024482754            3 
 1241000    1.0737163   -7.6175215    364.04735  0.024445833  0.024476206            2 
 1242000    1.0448464   -7.6442848     363.5757  0.024394505   0.02446944            4 
 1243000    1.0551184   -7.6461744     363.8317  0.024392042  0.024462727            3 
 1244000    1.0304678   -7.6253006    363.64009  0.024359598  0.024456078            2 
 1245000    1.0566518   -7.6372549    363.90747  0.024357929  0.024449316            1 
 1246000    1.0589363   -7.6398176    364.74698  0.024394528  0.024442729            1 
 1247000    1.0314703   -7.6847179     364.0767  0.024330172  0.024435889            6 
 1248000     1.038493   -7.6371241    364.23715  0.024321391  0.024429093            1 
 1249000    1.0714759   -7.6490049    365.79291  0.024405718  0.024422222            5 
 1250000    1.0502824   -7.7022975     363.8526   0.02425684  0.024415319            2 
 1251000    1.0477549   -7.6615059    365.26846  0.024331765  0.024408489            1 
 1252000     1.027859   -7.6211407    365.96705  0.024358829  0.024401553            1 
 1253000    1.0704706   -7.6343849    365.95187  0.024338379  0.024394843            2 
 1254000    1.0240816   -7.6075194     366.5027  0.024355575  0.024388014            1 
 1255000    1.0569366   -7.6279042    366.88301  0.024361422  0.024381384            4 
 1256000    1.0456019   -7.6663882    366.95114  0.024346546  0.024374798            1 
 1257000    1.0499206   -7.6222761    366.65256  0.024307383  0.024368035            2 
 1258000     1.056785   -7.6091132    367.31611  0.024332016  0.024361475            2 
 1259000    1.0494311   -7.6834654    365.84405  0.024215253   0.02435475            3 
 1260000    1.0471664   -7.6556323    367.05849  0.024276355  0.024348013            3 
 1261000    1.0435982   -7.5991302    368.32511  0.024340808  0.024341417            1 
 1262000    1.0398058    -7.645018    367.95196  0.024296881  0.024334697            3 
 1263000    1.0475859   -7.6113907    368.68463  0.024325985  0.024328043            2 
 1264000    1.0645081   -7.6309089    367.93181  0.024257108  0.024321453            3 
 1265000    1.0475931   -7.6645382    367.99039  0.024241791  0.024314793            2 
 1266000    1.0770461    -7.604697    369.98495  0.024353933  0.024308123            2 
 1267000    1.0439815   -7.6256698    369.86357  0.024326728  0.024301648            1 
 1268000    1.0380424   -7.6393826     369.5177  0.024284812  0.024295099            1 
 1269000      1.04607   -7.6515917    369.73018  0.024279628  0.024288498            3 
 1270000       1.0351   -7.6407304    369.63638  0.024254356  0.024281957            2 
 1271000     1.034395   -7.6096162    370.43279  0.024287489  0.024275426            1 
 1272000    1.0310702   -7.6314614    369.85374   0.02423046  0.024268934            3 
 1273000    1.0399766   -7.6681318    370.56543  0.024258015  0.024262391            2 
 1274000    1.0585319   -7.6478502    370.79538  0.024254015  0.024255836            2 
 1275000    1.0519427   -7.6392253    371.40228  0.024274659  0.024249261            1 
 1276000    1.0507888   -7.6445212    372.31914  0.024315513  0.024242873            5 
 1277000    1.0288637   -7.5969675    371.93004  0.024271081  0.024236563            3 
 1278000    1.0346181   -7.6389736    371.80553   0.02424397  0.024230224            1 
 1279000    1.0571534   -7.6446919    371.89308  0.024230719   0.02422383            3 
 1280000    1.0540263   -7.6023295    373.40215  0.024310036   0.02421752            1 
 1281000    1.0350341   -7.6609966    371.89394  0.024192944  0.024211087            1 
 1282000    1.0360171   -7.6519527    372.73522  0.024228759   0.02420468            5 
 1283000    1.0568101    -7.669814    373.11081  0.024234269  0.024198386            1 
 1284000    1.0538751   -7.6949112    373.24648  0.024224201  0.024192185            2 
 1285000    1.0613418   -7.6507704    373.68553  0.024233822  0.024185849            1 
 1286000    1.0525436   -7.6918259    372.99624  0.024170311  0.024179438            3 
 1287000    1.0458153   -7.6650455    373.78717  0.024202744  0.024173011            2 
 1288000    1.0124619    -7.624896     375.2781  0.024280415  0.024166658            4 
 1289000    1.0633706   -7.6850057    373.18186  0.024126058  0.024160296            3 
 1290000    1.0383407   -7.6637767     375.0389  0.024227319  0.024153933            3 
 1291000    1.0603269    -7.680667    374.71837  0.024187863  0.024147555            3 
 1292000    1.0581487    -7.654963    373.96002  0.024120228  0.024141079            7 
 1293000    1.0356695   -7.6333213    374.81447  0.024156643  0.024134659            3 
 1294000    1.0516424   -7.6448462    375.10526  0.024156701  0.024128259            2 
 1295000    1.0288974   -7.6361826    375.31999  0.024151866  0.024121988            2 
 1296000    1.0448573   -7.6481258    376.11466  0.024184328  0.024115702            2 
 1297000    1.0396519   -7.6125794    377.29626    0.0242416  0.024109634            2 
 1298000    1.0374951   -7.6306312    375.67336  0.024118731  0.024103486            2 
 1299000    1.0444672   -7.6854833    375.64296  0.024098214   0.02409726            2 
 1300000     1.047664   -7.6451962    375.78617  0.024088857  0.024090992            3 
 1301000    1.0478047   -7.6410332     376.8433  0.024138054  0.024084711            1 
 1302000    1.0324491   -7.6651246    376.94964  0.024126321  0.024078489            1 
 1303000    1.0267733    -7.667413    377.55376  0.024146442  0.024072137            2 
 1304000    1.0456936   -7.6630509    376.69706  0.024073176  0.024065843            1 
 1305000     1.061574   -7.6929846    376.33762  0.024031776  0.024059464            4 
 1306000    1.0259847   -7.6793909    377.56586  0.024091747   0.02405308            2 
 1307000    1.0455181   -7.6672207    377.18526  0.024049047  0.024046812            4 
 1308000    1.0513479   -7.6392526    378.72147  0.024128534  0.024040644            3 
 1309000    1.0517093   -7.7165681    377.44152  0.024028617  0.024034411            2 
 1310000    1.0643877   -7.6843621    377.51938  0.024015228   0.02402804            2 
 1311000    1.0307139   -7.6871341    378.13912  0.024036303  0.024021717            1 
 1312000    1.0442134   -7.6618846    378.07521  0.024013923  0.024015536            1 
 1313000    1.0425645   -7.6912674     379.4268  0.024081417  0.024009435            2 
 1314000    1.0336949   -7.6494418    380.69827  0.024143726  0.024003275            1 
 1315000    1.0580361   -7.6217823    380.90252  0.024138309  0.023997225            1 
 1316000    1.0352235   -7.6732496    379.47136  0.024029341  0.023991309            5 
 1317000    1.0182216   -7.6864017    380.99183  0.024107304  0.023985229            3 
 1318000    1.0356316   -7.6778763    381.09353  0.024095443   0.02397919            2 
 1319000    1.0323764   -7.6930438    381.37866  0.024095189  0.023973182            1 
 1320000     1.029436   -7.6812175    381.11764  0.024060457  0.023967238            3 
 1321000    1.0408271   -7.6893755     381.0212   0.02403616  0.023961169            1 
 1322000    1.0259323   -7.6650256    380.99209  0.024016143  0.023955076            3 
 1323000    1.0382184    -7.654455    382.09628  0.024067541  0.023949013            2 
 1324000    1.0407826   -7.6634683    381.98432  0.024042316  0.023942948            4 
 1325000    1.0484934   -7.6711438    381.71594  0.024007292  0.023936908            1 
 1326000     1.027407    -7.678048    381.86186  0.023998357  0.023930877            3 
 1327000    1.0484168   -7.6938891    382.06353  0.023992937  0.023924758            7 
 1328000    1.0734104   -7.6460148    383.20694   0.02404662  0.023918715            2 
 1329000    1.0335378   -7.6984907    381.86168  0.023944173  0.023912625            4 
 1330000    1.0476536   -7.6645097    382.24223  0.023950014  0.023906408            3 
 1331000    1.0319233   -7.7102755    382.46955  0.023946253  0.023900216            2 
 1332000    1.0545297   -7.6937204    382.87277  0.023953501  0.023893987            2 
 1333000    1.0216354   -7.6314649    383.27352  0.023960585  0.023887867            2 
 1334000    1.0345714   -7.7082519    382.67754  0.023905393  0.023881642            7 
 1335000    1.0348927   -7.6827983    383.72798  0.023953057   0.02387534            3 
 1336000    1.0748748   -7.6812137    383.75298  0.023936688  0.023869169            4 
 1337000    1.0287909   -7.7144061    382.29675   0.02382802  0.023862858            6 
 1338000     1.033902    -7.675611    384.64524   0.02395648  0.023856559            4 
 1339000    1.0379956    -7.676635    383.99759  0.023898282   0.02385024            3 
 1340000    1.0689385   -7.6965342    383.72564  0.023863535  0.023843789            2 
 1341000    1.0529305   -7.6678069    383.42309  0.023826938  0.023837304            2 
 1342000    1.0613545   -7.6995207     383.4917  0.023813444  0.023830832            4 
 1343000    1.0427757   -7.6875677    383.66016  0.023806165  0.023824361            2 
 1344000    1.0568567   -7.6502845     385.6197  0.023909952  0.023818072            3 
 1345000    1.0474082   -7.6995006    384.54471  0.023825571  0.023811674            3 
 1346000    1.0340591   -7.6806497    385.02671  0.023837711  0.023805263            1 
 1347000    1.0433802   -7.6559735    386.85155   0.02393291  0.023798969            2 
 1348000    1.0370828   -7.6491174    385.93841  0.023858705  0.023792733            4 
 1349000    1.0371676   -7.7209152    384.98343  0.023782025  0.023786464            3 
 1350000    1.0228145   -7.6651722    386.32258  0.023847073  0.023780131            2 
 1351000     1.022336   -7.7016571    385.75824  0.023794611  0.023773785            4 
 1352000    1.0543493   -7.6976644    386.48176  0.023821608  0.023767437            3 
 1353000    1.0233421   -7.6487584    386.48098  0.023803953  0.023761021            4 
 1354000    1.0491522   -7.7317243    385.68842  0.023737594  0.023754651            5 
 1355000    1.0365526   -7.6483796    386.25633  0.023755002  0.023748287            3 
 1356000    1.0515018   -7.6566934    386.97775  0.023781818  0.023742036            2 
 1357000    1.0222127   -7.6996588    385.42681   0.02366905  0.023735551            3 
 1358000    1.0106936   -7.7067601    387.17332  0.023758795  0.023729227            2 
 1359000    1.0373474    -7.681084    386.77486  0.023716879  0.023722885            2 
 1360000    1.0213956   -7.6185644    389.13535  0.023844078  0.023716702            2 
 1361000    1.0273413   -7.6547915    388.83836  0.023808374  0.023710511            1 
 1362000    1.0436112   -7.6825961    388.16767  0.023749858   0.02370413            2 
 1363000    1.0374536   -7.6763427    387.98137  0.023721042    0.0236976            2 
 1364000    1.0312117   -7.6898796    387.68781  0.023685717  0.023691262            5 
 1365000    1.0374211   -7.7136949    387.77934  0.023673952  0.023684892            2 
 1366000    1.0128789   -7.6957001    388.73081  0.023714667  0.023678526            2 
 1367000    1.0271672   -7.6805565    389.53361  0.023746257  0.023672183            7 
 1368000    1.0384964   -7.6646441    389.70299  0.023739217  0.023665775            2 
 1369000     1.029793   -7.6907024    388.93516  0.023675138  0.023659247            4 
 1370000    1.0539813   -7.7026539    388.18135  0.023612004   0.02365269            7 
 1371000    1.0274522   -7.7241648    388.27292  0.023600348  0.023646053            3 
 1372000    1.0233533   -7.6729911    388.08457  0.023571706   0.02363944            4 
 1373000    1.0367868   -7.7027746     389.7172   0.02365363  0.023632956            2 
 1374000    1.0567375   -7.7424062    387.81594  0.023521102  0.023626301            3 
 1375000    1.0287704   -7.7102372    389.20169  0.023587981  0.023619768            5 
 1376000    1.0266933   -7.6947934    389.96147  0.023616853  0.023613239            2 
 1377000     1.033255   -7.6648283    389.68286  0.023582841  0.023606733            1 
 1378000    1.0081679   -7.6951398    389.80249  0.023572961   0.02360031            3 
 1379000    1.0567879   -7.6815462    389.76348   0.02355351  0.023593802            2 
 1380000    1.0101405    -7.705137    390.01107  0.023551393  0.023587245            3 
 1381000    1.0327551   -7.6686037    391.57426  0.023628667  0.023580797            1 
 1382000    1.0265623   -7.7047427    390.53731  0.023549042  0.023574339            2 
 1383000    1.0547457   -7.6825738    391.37642  0.023582575  0.023567823            3 
 1384000    1.0597956   -7.6539744    391.95057  0.023600107  0.023561436            1 
 1385000    1.0278075   -7.7136497    391.29914  0.023543871  0.023554916            3 
 1386000    1.0310522   -7.7236416    390.49165  0.023478334  0.023548349            5 
 1387000    1.0314722   -7.7178027    391.09005  0.023497359  0.023541748            2 
 1388000    1.0622471   -7.7250679     391.8767   0.02352766  0.023535091            2 
 1389000    1.0291772   -7.6766071    393.47787  0.023606783  0.023528608            2 
 1390000    1.0607208   -7.6878649    392.81634   0.02355014  0.023522058            3 
 1391000    1.0309138   -7.6796582    393.14489  0.023552893   0.02351556            2 
 1392000    1.0143639   -7.6984461    392.12143  0.023474703  0.023509016            6 
 1393000    1.0220846   -7.7372624    392.17321  0.023460948  0.023502443            3 
 1394000    1.0331102   -7.6907354    393.27405  0.023509926  0.023495779            2 
 1395000    1.0278991   -7.7313711    392.91072  0.023471369  0.023489117            3 
 1396000    1.0177549    -7.671287    393.40962  0.023484337  0.023482488            3 
 1397000    1.0310029   -7.7286434    393.74003  0.023487236   0.02347582            3 
 1398000    1.0085498   -7.6768675    393.95504  0.023483252  0.023469283            4 
 1399000    1.0224376   -7.6985553     393.7479  0.023454128  0.023462746            4 
 1400000    1.0176974   -7.7430146    392.59992  0.023369043  0.023456063            4 
 1401000    1.0152843   -7.6762857    393.12444  0.023383562  0.023449315            3 
 1402000    1.0319452   -7.6943703     393.9776  0.023417594  0.023442681            3 
 1403000    1.0109834   -7.6827858    393.39932  0.023366555  0.023435899            8 
 1404000    1.0230687   -7.6993972    392.54091  0.023298962  0.023429178            2 
 1405000    1.0194825   -7.6868547    394.11726  0.023375876  0.023422412            3 
 1406000    1.0297175   -7.6600543    395.21753  0.023424463  0.023415674            1 
 1407000    1.0250613   -7.6962673    393.79987  0.023323849  0.023408845            3 
 1408000    1.0309102   -7.6439915    395.22476  0.023391617  0.023402132            2 
 1409000     1.031088   -7.7055243    394.85242  0.023352994  0.023395392            3 
 1410000    1.0293309   -7.7043444    394.61824  0.023322591  0.023388448            3 
 1411000    1.0306949   -7.6960885    395.37874  0.023350977  0.023381568            1 
 1412000    1.0243129   -7.7201426    395.46027  0.023339251  0.023374783            2 
 1413000    1.0377839   -7.6599384    395.11115  0.023302144  0.023367917            2 
 1414000    1.0275462   -7.7252671      394.452  0.023246818  0.023361111            2 
 1415000    1.0473265   -7.6984918    394.23252  0.023217463  0.023354182            2 
 1416000    1.0441292   -7.7192624    395.32948  0.023265624  0.023347251            2 
 1417000   0.99600796   -7.7285553    394.92866  0.023225632   0.02334016            9 
 1418000   0.99192562   -7.6833179    394.44275  0.023180698  0.023333051            4 
 1419000    1.0323232   -7.7037172    395.52111   0.02322769   0.02332609            2 
 1420000    1.0370447   -7.7135967    396.09402  0.023244954  0.023319107            4 
 1421000    1.0151288   -7.7349928    395.95533  0.023220463  0.023312047            2 
 1422000    1.0084157   -7.7117892    395.99655  0.023206549  0.023304862            6 
 1423000    1.0287771   -7.6955596    395.35645  0.023152755  0.023297744            4 
 1424000    1.0383788   -7.6984599    396.65884  0.023212713  0.023290732            2 
 1425000    1.0215557   -7.6970885    396.29204  0.023174973   0.02328373            4 
 1426000    1.0251569   -7.6997265      395.652  0.023121318  0.023276769            1 
 1427000    1.0237769   -7.6755871    397.01898  0.023184944  0.023269761            3 
 1428000    1.0404675   -7.7273662     397.1563  0.023176721  0.023262832            2 
 1429000    1.0371791   -7.7223526    396.59777  0.023127932  0.023255895            1 
 1430000    1.0096851   -7.7794408    396.39433  0.023099903  0.023248871            7 
 1431000    1.0267213   -7.6982873    397.99018  0.023176694  0.023241877            1 
 1432000    1.0224998     -7.73934    398.32988  0.023180277  0.023234994            2 
 1433000    1.0357124    -7.711878     397.7067  0.023127861  0.023228142            4 
 1434000     1.020033   -7.6596321     400.3486   0.02326526  0.023221338            1 
 1435000    1.0034547   -7.6790524    399.96668  0.023226869  0.023214602            2 
 1436000    1.0181999     -7.71138    398.82464   0.02314442  0.023207856            2 
 1437000    1.0272881   -7.7133663     398.6745  0.023119607  0.023201009            2 
 1438000    1.0274747   -7.7467666    399.19803  0.023133868  0.023194078            3 
 1439000    1.0126694   -7.7510062    397.10154  0.022996383   0.02318718            3 
 1440000    1.0168776   -7.7352577     398.5732  0.023065579    0.0231803            4 
 1441000    1.0283838   -7.7069087    399.39499  0.023097097  0.023173475            5 
 1442000    1.0266067   -7.7177932    399.71453  0.023099545  0.023166683            6 
 1443000    1.0386393   -7.7062068    400.34675  0.023120048  0.023159986            3 
 1444000    1.0120349   -7.7148841    401.21176  0.023153957  0.023153321            2 
 1445000    1.0387079   -7.7479092    400.67665  0.023107073  0.023146713            2 
 1446000    1.0123384     -7.72303    401.10379  0.023115709  0.023140085            2 
 1447000    1.0257128   -7.7623959    400.67894  0.023075267  0.023133361            2 
 1448000    1.0133507   -7.7068961    400.57869  0.023053562  0.023126664            2 
 1449000    1.0246506   -7.7299877    401.05941  0.023065298  0.023119921            4 
 1450000    1.0198626   -7.7118754    401.95348  0.023100775  0.023113338            3 
 1451000    1.0149979   -7.7502775    400.95784  0.023027673  0.023106618            2 
 1452000    1.0059664   -7.7384812    401.19361  0.023025345  0.023099926            2 
 1453000    1.0420439   -7.7115293    401.48162  0.023026017  0.023093241            5 
 1454000    1.0127469   -7.7234388    401.96545   0.02303791  0.023086556            3 
 1455000    1.0174437   -7.6988932    401.55967  0.022998836  0.023079826            3 
 1456000    1.0196963   -7.7330157    401.75688  0.022994327  0.023073043            4 
 1457000    1.0047671   -7.7517536    402.00476  0.022992723  0.023066259            2 
 1458000    1.0111758   -7.7579741    401.80902  0.022965765  0.023059557            2 
 1459000    0.9997126    -7.704628    403.79502  0.023063458  0.023052928            2 
 1460000    1.0318533   -7.7492481    403.70332  0.023042427  0.023046413            4 
 1461000    1.0302533   -7.7080407    404.53647  0.023074177  0.023039779            4 
 1462000    0.9943516   -7.7182598    402.99351  0.022970447  0.023033042            3 
 1463000    1.0254239   -7.7433559    403.05952  0.022958506  0.023026425            2 
 1464000     1.006293   -7.7558393    402.70092  0.022922411  0.023019732            4 
 1465000    1.0033718    -7.726152    402.96779  0.022921945  0.023012974            3 
 1466000    1.0261227   -7.7479166    403.53894  0.022938776  0.023006407            3 
 1467000    1.0038558    -7.732421     403.7186  0.022933345  0.022999662            2 
 1468000    1.0096781   -7.7834253    403.65984  0.022914387  0.022992913            4 
 1469000    1.0301063   -7.7449709    404.30871  0.022935597  0.022986102            3 
 1470000    1.0140857   -7.7587054    403.46501  0.022872166  0.022979359            4 
 1471000     1.034727   -7.7367989     405.6901   0.02298267  0.022972656            2 
 1472000    1.0053951   -7.7045938    404.85691  0.022919888  0.022965968            2 
 1473000    1.0037422   -7.7105349    404.29244  0.022872394  0.022959122            2 
 1474000    1.0140379   -7.7300058    405.27757  0.022912572  0.022952239            2 
 1475000    1.0299818   -7.7268108    405.17781  0.022891402  0.022945526            5 
 1476000    1.0093384   -7.7175186    406.00661  0.022922686  0.022938757            4 
 1477000   0.99934519   -7.7375815    405.53504   0.02288056  0.022932013            3 
 1478000    1.0097017    -7.713912      406.112   0.02289761  0.022925277            6 
 1479000   0.99963661    -7.711402    408.04162  0.022990851   0.02291852            2 
 1480000    1.0363787   -7.7400763    406.35362  0.022880271  0.022911806            2 
 1481000    1.0170938   -7.7227316    406.70322  0.022884494  0.022905108            2 
 1482000    1.0096275   -7.7032109    407.73584  0.022927116  0.022898487            3 
 1483000    1.0193258   -7.7577098    406.04861  0.022816847  0.022891761            2 
 1484000    1.0102835   -7.7432083    406.96849  0.022853127  0.022885053            2 
 1485000    1.0273811   -7.7476614     407.0327  0.022841341  0.022878361            2 
 1486000   0.99312632   -7.7114732    407.01177  0.022824797  0.022871599            2 
 1487000    1.0236654   -7.7165718     408.7076  0.022904483  0.022864937            2 
 1488000    1.0223547   -7.7094718    407.30395  0.022810481   0.02285828            3 
 1489000    1.0126471   -7.7277028    408.16414  0.022843303  0.022851703            4 
 1490000   0.98798967   -7.7830864    406.79848  0.022751593  0.022845058            1 
 1491000    1.0273068   -7.7507263    408.25182  0.022817562  0.022838344            2 
 1492000    1.0308104   -7.7033805     409.0002  0.022844068  0.022831764            5 
 1493000    1.0273896   -7.7129941    408.93939  0.022825373  0.022825157            2 
 1494000   0.99705633   -7.7475645    408.83107  0.022804054  0.022818535            3 
 1495000    1.0085474   -7.7322752    408.99887  0.022798153  0.022811794            2 
 1496000    1.0322965   -7.8194914    407.62189  0.022706211  0.022805006            1 
 1497000    1.0245843   -7.7546114    408.96169  0.022765625  0.022798198            2 
 1498000       1.0096   -7.7099982    409.76928  0.022795354  0.022791477            2 
 1499000    1.0277118   -7.7534047    408.74656  0.022723291  0.022784734            3 
 1500000    1.0173642   -7.7006634    409.11965  0.022728869  0.022778025            1 
 1501000    1.0133592   -7.7383297     408.7094   0.02269095  0.022771264            3 
 1502000   0.99959254   -7.7594878    408.77462  0.022679462  0.022764506            3 
 1503000    1.0158255   -7.7732946     409.5581  0.022707812  0.022757671            2 
 1504000     1.007451   -7.7698398    410.00584  0.022717522  0.022750779            1 
 1505000    1.0341054    -7.788216    408.87689  0.022639916  0.022743803            3 
 1506000     1.030903   -7.7814446    409.42698  0.022655322  0.022736843            1 
 1507000   0.98767897    -7.734573    409.31054   0.02263385  0.022729949            5 
 1508000    1.0071812   -7.7534459    409.13101   0.02260892  0.022723127            2 
 1509000   0.98548688   -7.7917724    410.36026  0.022661821  0.022716337            2 
 1510000   0.98947024   -7.7436846    408.99239  0.022571324   0.02270958            2 
 1511000    1.0053436   -7.7501925    411.29786  0.022683535  0.022702748            1 
 1512000    1.0156883   -7.7514476    410.45685  0.022622181  0.022696044            2 
 1513000    1.0020785   -7.7641979    410.41424  0.022604882  0.022689284            2 
 1514000   0.99755888   -7.7490726    410.99447  0.022621888  0.022682591            3 
 1515000    1.0123784    -7.775024    410.34047  0.022570983  0.022675921            3 
 1516000    1.0261425   -7.7587153    411.25557  0.022606397  0.022669167            2 
 1517000     1.015946   -7.7503416    412.30959  0.022649395  0.022662365            3 
 1518000    1.0288186   -7.7217915    411.60196  0.022595628  0.022655636            7 
 1519000    1.0225084   -7.7172059    412.50898  0.022630512  0.022648927            1 
 1520000    1.0198827   -7.7431585    411.82702  0.022578236    0.0226421            2 
 1521000    1.0084355   -7.7707278    411.33872  0.022536638   0.02263521            6 
 1522000    1.0187662   -7.7595704    411.88972     0.022552  0.022628412            2 
 1523000    1.0105329   -7.7741657    411.32826  0.022506471  0.022621549            3 
 1524000    1.0254659   -7.7251844    412.92066  0.022578776  0.022614726            5 
 1525000    1.0034498   -7.7424784    412.59343  0.022546089  0.022607886            3 
 1526000    0.9987102   -7.7375593    413.62907   0.02258787  0.022601217            3 
 1527000   0.99441393   -7.7907035    412.36212  0.022503936  0.022594377            1 
 1528000    1.0295241   -7.7770854    412.36172  0.022489186  0.022587419            2 
 1529000    1.0036015    -7.794807    411.86118  0.022447197   0.02258056            1 
 1530000    1.0030623   -7.8057908     413.4295  0.022517947  0.022573704            2 
 1531000    1.0076695   -7.7755439    412.53141  0.022454355   0.02256682            3 
 1532000   0.98806888   -7.7312826    414.82356   0.02256438  0.022559985            3 
 1533000    1.0153868   -7.7456604    413.10276  0.022456119   0.02255317            2 
 1534000    1.0147236   -7.7402001    413.74438  0.022476335  0.022546341            3 
 1535000    1.0122931   -7.7775627    413.18706  0.022431437  0.022539387            2 
 1536000    1.0063901   -7.7524753    414.47746  0.022486841  0.022532515            3 
 1537000    0.9973686   -7.7746971    413.44319  0.022416135  0.022525646            3 
 1538000    1.0200809   -7.7529363    414.79395  0.022474748  0.022518708            2 
 1539000    1.0058555   -7.7541573     414.0001   0.02241716   0.02251183            3 
 1540000    1.0130439   -7.7638875    415.57286  0.022487709  0.022504981            3 
 1541000    0.9951183   -7.7484209    413.23609  0.022346749  0.022498143            2 
 1542000   0.98311398   -7.7629746    414.00603  0.022373866  0.022491161            4 
 1543000    1.0117845   -7.7757066    414.42282  0.022381876  0.022484226            3 
 1544000   0.98850098   -7.7772921    414.24873  0.022357984  0.022477174            2 
 1545000   0.99480955   -7.7546428    415.79463  0.022426895  0.022470211            3 
 1546000    1.0017624   -7.7928167     414.7871   0.02235808  0.022463187            3 
 1547000   0.99704314   -7.7785347    414.46344  0.022326193  0.022456111            4 
 1548000   0.99557424    -7.755309    415.44873  0.022364811  0.022449115            3 
 1549000   0.98665916   -7.7498185     415.8272  0.022370734  0.022442184            3 
 1550000    1.0101759   -7.7429557    415.79625  0.022354637  0.022435266            2 
 1551000    0.9942071   -7.8094333    414.78132  0.022285693  0.022428116            1 
 1552000   0.99206441   -7.7718083    415.01187  0.022283713  0.022420994            3 
 1553000    1.0175445   -7.7446617    416.19751  0.022332985  0.022413907            6 
 1554000   0.98776271   -7.7592639     415.7174  0.022292868   0.02240679            2 
 1555000    1.0093135    -7.790671    414.34556  0.022205014  0.022399562            3 
 1556000   0.96986423   -7.7713917    416.41607  0.022301632  0.022392386            4 
 1557000    1.0048892   -7.7683969     415.3302  0.022229191  0.022385232            6 
 1558000   0.99432855   -7.7719339    415.71745  0.022235636  0.022378138            3 
 1559000   0.99129436   -7.7498673    416.41912   0.02225888  0.022371022            5 
 1560000    1.0036273   -7.7645246    417.25995  0.022289527  0.022364041            3 
 1561000    1.0151417   -7.7255982    416.95485  0.022258961  0.022357206            3 
 1562000   0.99967412   -7.7566273    418.41105  0.022322399  0.022350353            4 
 1563000   0.99797445   -7.7829895    416.95759  0.022230624  0.022343398            3 
 1564000   0.98548288   -7.7934885    418.58103  0.022302911  0.022336477            5 
 1565000    1.0165748   -7.7803974    417.52857  0.022232618   0.02232967            3 
 1566000   0.96501766   -7.7915699    416.73849  0.022176377  0.022322755            7 
 1567000    1.0050184   -7.7952406    418.59877  0.022261155  0.022315873            2 
 1568000    1.0144446   -7.7740081    418.36673  0.022234626  0.022309021            2 
 1569000   0.99914739   -7.7852716    419.28303  0.022269122  0.022302035            3 
 1570000    1.0017679   -7.7771443    418.60972    0.0222192  0.022295046            3 
 1571000    1.0194741    -7.765568    419.19309  0.022236001  0.022288205            4 
 1572000    1.0132559    -7.726767    419.84292  0.022256304  0.022281386            2 
 1573000     1.005723   -7.7524151     421.0615  0.022306712  0.022274745            5 
 1574000   0.98842066   -7.7626972    419.81409  0.022226498  0.022267999            1 
 1575000   0.96930515   -7.7703813    420.78987  0.022264014  0.022261155            2 
 1576000   0.98929882   -7.7672106    420.02353  0.022209366  0.022254303            2 
 1577000   0.99348569   -7.7967759    418.79567  0.022130399  0.022247459            1 
 1578000   0.99499256   -7.7792064    419.40201  0.022148395  0.022240628            3 
 1579000   0.97930179   -7.8055646    419.17106   0.02212218   0.02223379            2 
 1580000    1.0112407   -7.7383498    421.07251  0.022208466  0.022227046            1 
 1581000   0.99355059   -7.7884878    420.43569  0.022160852  0.022220264            2 
 1582000    1.0218235   -7.7767284    421.62008  0.022209233  0.022213435            1 
 1583000    1.0011703   -7.7795021    420.20849  0.022120893  0.022206582            1 
 1584000    1.0201346   -7.7802229     420.1326  0.022102935  0.022199758            2 
 1585000    1.0182735   -7.8113565    419.91221  0.022077403  0.022192851            6 
 1586000   0.99700491   -7.7383313    421.37921  0.022140564  0.022185974            7 
 1587000    1.0070154   -7.8060969     418.9832  0.022000798  0.022178916            3 
 1588000    1.0091314   -7.8041444     420.6301  0.022073368  0.022171756            1 
 1589000   0.98029622   -7.7939912    420.28413  0.022041332  0.022164668            2 
 1590000   0.96423282    -7.816069    420.69208  0.022048851  0.022157584            2 
 1591000    1.0120739   -7.8336082    419.31813  0.021963028  0.022150516            3 
 1592000    0.9944726   -7.8003016    419.42194  0.021954666   0.02214345            4 
 1593000   0.97423294   -7.8273391    419.40223  0.021939853  0.022136369            2 
 1594000    0.9829014   -7.7595538    421.49464  0.022035479  0.022129325            4 
 1595000   0.99870642   -7.7623607    421.50552  0.022022232  0.022122321            2 
 1596000    1.0069478   -7.7298171    421.28874  0.021997115  0.022115378            2 
 1597000    1.0192776    -7.779341    421.84623  0.022012431  0.022108446            4 
 1598000    0.9855541   -7.8067257    421.66236  0.021989068  0.022101456            2 
 1599000   0.99226929   -7.7773041    421.67418  0.021975932  0.022094406            4 
 1600000   0.98840618   -7.7939143    421.86585   0.02197218  0.022087341            3 
 1601000     1.008803   -7.7976719    421.53527  0.021941249  0.022080308            2 
 1602000   0.98723732   -7.8164618    421.90433  0.021946751  0.022073115            4 
 1603000   0.99988991   -7.8029261    422.14817  0.021945735  0.022065966            4 
 1604000   0.99690537   -7.8105187    420.42053  0.021842297  0.022058751            3 
 1605000   0.98304441   -7.7899393    423.34442    0.0219805  0.022051661            1 
 1606000   0.98517404   -7.8028166    422.61854  0.021929148  0.022044536            6 
 1607000    1.0038607   -7.7826376    421.81117  0.021873635  0.022037336            5 
 1608000   0.98294098   -7.7766298    423.61617  0.021953574  0.022030195            5 
 1609000    1.0167876    -7.767798    422.50996  0.021882637  0.022023148            3 
 1610000   0.99355443   -7.7506963    422.39723   0.02186321  0.022016112            4 
 1611000   0.98990668   -7.7901993    421.91542  0.021824716  0.022009025            2 
 1612000   0.97939761    -7.810746    423.73496   0.02190524  0.022001938            5 
 1613000   0.99372994   -7.7961722    423.74496  0.021892176  0.021994899            6 
 1614000   0.96873198   -7.7816908    423.51793   0.02186689  0.021987836            2 
 1615000     1.017384   -7.8010271    423.57048  0.021856062  0.021980822            5 
 1616000   0.98219552   -7.7672026    424.76515  0.021904144  0.021973753            3 
 1617000   0.98071204   -7.8521821    423.07397  0.021803441  0.021966661            2 
 1618000   0.97255674   -7.8159393    424.36979  0.021856705  0.021959542            2 
 1619000    0.9983396    -7.804002    423.98628  0.021823465  0.021952436            2 
 1620000    1.0178209   -7.7877919    424.66637  0.021844978   0.02194541            3 
 1621000   0.99598042   -7.8014283    424.04572  0.021799595  0.021938372            2 
 1622000    1.0086664   -7.8231603    425.18157  0.021844512  0.021931287            3 
 1623000   0.99779669   -7.8238245    424.87571  0.021815348  0.021924245            4 
 1624000    1.0074686   -7.8190474    423.72977  0.021743112   0.02191723            2 
 1625000   0.99188458   -7.8075332     424.8811  0.021788774  0.021910083            2 
 1626000   0.97021836   -7.8335261    423.76517  0.021718182  0.021902854            3 
 1627000   0.97545293   -7.8041748    424.55207  0.021745138  0.021895654            1 
 1628000   0.95780168   -7.8191528    425.51849   0.02178125  0.021888505            3 
 1629000    1.0003699   -7.7805172    427.20508  0.021854158  0.021881475            3 
 1630000   0.98986782   -7.7856378    424.53874  0.021704435   0.02187449            2 
 1631000   0.98866175    -7.745029    427.24634  0.021829467  0.021867499            2 
 1632000   0.98326554   -7.8313699    424.44948  0.021673278  0.021860554            2 
 1633000   0.98572967   -7.7835835    426.71135  0.021775431  0.021853573            4 
 1634000   0.99987378   -7.8266475     427.1235  0.021783124  0.021846544            1 
 1635000    1.0029387   -7.7955829    426.82249  0.021754459  0.021839508            2 
 1636000    0.9952984   -7.7658921    427.80883  0.021791403  0.021832496            4 
 1637000     0.991821   -7.7720534    427.15056  0.021744581  0.021825659            6 
 1638000   0.98790659   -7.8322993     426.5341  0.021699944  0.021818737            4 
 1639000    1.0100204   -7.7607046    429.12337  0.021818353  0.021811767            4 
 1640000   0.98628905   -7.8035211    427.92721  0.021744269  0.021804879            2 
 1641000   0.98111106   -7.8168071    426.90414  0.021679064  0.021798054            3 
 1642000   0.98426909   -7.7675065    429.42769  0.021793935  0.021791136            7 
 1643000   0.99354755   -7.7816214     428.1884  0.021717813  0.021784332            2 
 1644000   0.98845672   -7.8084383    427.89263   0.02168961   0.02177741            3 
 1645000    1.0158478   -7.7956922    428.89082  0.021726992  0.021770516            1 
 1646000    1.0002739   -7.8005205    428.43494  0.021690712  0.021763571            4 
 1647000    0.9842865   -7.8205493      428.455  0.021678557  0.021756594            2 
 1648000   0.99111132   -7.8115523    427.75466  0.021629989  0.021749619            3 
 1649000   0.97843947   -7.8225919    428.09823  0.021634235  0.021742621            1 
 1650000    1.0010325   -7.8296435    428.50556  0.021641695  0.021735555            1 
 1651000   0.99695636   -7.7825557    429.76108  0.021691959  0.021728598            7 
 1652000   0.98106463   -7.8175281    429.67394  0.021674432  0.021721649            4 
 1653000   0.98646909   -7.8432252    428.71532  0.021612992  0.021714663            5 
 1654000   0.98014249   -7.8255026    428.72407  0.021600366   0.02170765           11 
 1655000    0.9698398   -7.8196092    429.39739  0.021621218  0.021700747            2 
 1656000   0.98039721   -7.7818186    429.83063  0.021629963  0.021693917            2 
 1657000   0.98005127    -7.794145    431.54111  0.021702933  0.021687162            2 
 1658000    1.0021697   -7.8118509    430.82068  0.021653633  0.021680466            2 
 1659000   0.98165941    -7.772274    432.52795  0.021726339  0.021673847            2 
 1660000    0.9859791   -7.8788246    430.28361  0.021600583  0.021667073            3 
 1661000   0.99705778    -7.804621    431.84424  0.021665876  0.021660271            2 
 1662000   0.97120995   -7.8362104    431.95166  0.021658226  0.021653583            8 
 1663000   0.99584479   -7.8541313    431.22668  0.021608874  0.021646862            3 
 1664000   0.99100405   -7.8674676    432.11469  0.021640359  0.021640208            3 
 1665000   0.99794064    -7.815339    433.53159  0.021698278  0.021633553            3 
 1666000    1.0013409   -7.8247154    433.19948  0.021668642  0.021626934            9 
 1667000   0.98083674   -7.7935593    433.66052   0.02167869  0.021620316            3 
 1668000   0.99422415    -7.841951    431.42069  0.021553791  0.021613642            5 
 1669000   0.97806092   -7.8407083    432.39177  0.021589364  0.021606953            3 
 1670000   0.98958673   -7.8102026    433.05645  0.021609603  0.021600425            4 
 1671000   0.98064964   -7.8365831    433.47668  0.021617628  0.021593793            4 
 1672000    0.9636488   -7.8005509    433.80367  0.021620996   0.02158713            7 
 1673000   0.99176359   -7.8121531    434.11006  0.021623334  0.021580578            3 
 1674000   0.98128895   -7.8154034    434.02438  0.021606152  0.021574064            2 
 1675000   0.97039443   -7.8251699    434.46948  0.021615397  0.021567488            2 
 1676000   0.95877619   -7.8165789    433.56347  0.021557452   0.02156098            1 
 1677000   0.98722612    -7.820542    434.12175  0.021572339  0.021554517            4 
 1678000   0.98951768   -7.8614431    435.42203  0.021624058  0.021548033            3 
 1679000   0.97845519   -7.8196029     435.2211  0.021601206   0.02154149            2 
 1680000   0.98203424   -7.8263373    434.28936  0.021542131  0.021534925            2 
 1681000   0.99264309   -7.8167648    435.72536  0.021600504  0.021528395            6 
 1682000    1.0031161   -7.8280172    434.71352  0.021537531  0.021521824            3 
 1683000   0.99404159   -7.8010019    435.86306  0.021581653   0.02151528            3 
 1684000   0.96962568   -7.8524044    435.09539  0.021530849  0.021508797            2 
 1685000   0.99600351   -7.8225007    436.21588  0.021573486  0.021502233            2 
 1686000   0.98679561   -7.7500931     437.4825  0.021623295  0.021495864            4 
 1687000   0.96628888   -7.8042868    436.25318  0.021549752  0.021489466            3 
 1688000   0.99330075   -7.8468429    436.00008   0.02152449   0.02148297            2 
 1689000   0.98462445   -7.8052427    436.24431  0.021523796  0.021476581            2 
 1690000   0.97817952   -7.8595099    436.36052  0.021516791  0.021470169            2 
 1691000   0.99520956   -7.8530166    436.51302  0.021511582  0.021463792            2 
 1692000   0.97715678   -7.8397166    437.60595  0.021552697  0.021457336            3 
 1693000   0.99169078   -7.8457721    437.34011  0.021526881  0.021450978            2 
 1694000   0.96472921   -7.8169428    437.86422  0.021539956  0.021444579            4 
 1695000   0.96498726   -7.8433244    436.73836  0.021471896  0.021438159            2 
 1696000   0.97635522   -7.8131527     438.7038  0.021555808  0.021431751            1 
 1697000   0.98736544   -7.8005914    438.58497   0.02153727   0.02142548            1 
 1698000   0.96369226   -7.8170174    438.29299  0.021510256  0.021419139            3 
 1699000   0.97774254     -7.79506    438.78634  0.021521794  0.021412735            2 
 1700000   0.98099751   -7.8182115    438.56186   0.02149813  0.021406367            1 
 1701000   0.99942962   -7.8688005    438.04227  0.021460037  0.021400007            6 
 1702000   0.98118694    -7.818215    439.16569  0.021502433  0.021393565            4 
 1703000   0.99436075   -7.8549989    439.27196  0.021495007  0.021387176            2 
 1704000    1.0022076   -7.8501592    438.57523  0.021448319  0.021380723            3 
 1705000   0.98346004    -7.809943      438.329  0.021423705  0.021374317            2 
 1706000   0.97837061   -7.8359366    438.67464   0.02142803  0.021367892            4 
 1707000    0.9740162   -7.8275485    438.40049  0.021402094  0.021361514            4 
 1708000   0.99393326   -7.8233463    438.44729  0.021391847  0.021355223            2 
 1709000   0.96521625   -7.8465675    439.99622  0.021454857   0.02134889            5 
 1710000   0.96544191   -7.8193835    439.20222  0.021403617  0.021342568            8 
 1711000   0.98179608   -7.8066686    440.73523  0.021465772  0.021336227            1 
 1712000   0.97303724   -7.8112271    441.35117  0.021483215  0.021329935            3 
 1713000    1.0062443    -7.864013    438.96312  0.021354501  0.021323546            2 
 1714000   0.97635251   -7.8190101    440.76733  0.021429761  0.021317241            4 
 1715000   0.99016895   -7.8402761    440.48729  0.021403658  0.021310951            3 
 1716000   0.97511822   -7.8443713     440.7716  0.021404992   0.02130462            4 
 1717000   0.96664748   -7.8440011    440.23747  0.021366602  0.021298252            3 
 1718000   0.98010966   -7.8826225    439.51635  0.021319186  0.021291829            4 
 1719000       0.9769   -7.8453652       441.15   0.02138598  0.021285409            4 
 1720000   0.95927592   -7.8373705    442.24647   0.02142667   0.02127903            2 
 1721000   0.95951411   -7.8580907    440.16479  0.021313422  0.021272715            2 
 1722000   0.99392675   -7.8344623    441.45528  0.021363496  0.021266401            3 
 1723000    0.9903796   -7.8523394    440.86136  0.021322372  0.021260088            3 
 1724000    0.9713357   -7.8440396    439.78715  0.021258079  0.021253684            3 
 1725000   0.94637147   -7.8819463    441.31064  0.021319354  0.021247222            3 
 1726000   0.96817057    -7.802722    441.58379  0.021320191  0.021240758            3 
 1727000   0.97956729   -7.8016749    441.94254  0.021325156  0.021234451            3 
 1728000   0.96639255   -7.8482982    442.30998  0.021330535  0.021228158            4 
 1729000   0.98165792   -7.8355006    442.68275  0.021336165  0.021221792            4 
 1730000   0.98157049   -7.8681368    441.64015   0.02127361  0.021215399            2 
 1731000   0.97119876   -7.8529527    441.25496  0.021242777  0.021209004            2 
 1732000   0.98505145   -7.8145054    442.08486  0.021270442  0.021202572            6 
 1733000   0.99352708   -7.8430375    442.88084  0.021296444  0.021196171            3 
 1734000    0.9508395   -7.8414571    442.73262  0.021277039  0.021189787            4 
 1735000   0.98340156   -7.8550699    442.45982  0.021251673  0.021183473            2 
 1736000   0.98833089   -7.8226861    443.52911   0.02129076  0.021177182            3 
 1737000   0.97755192   -7.8477454    443.76068  0.021289612  0.021170811            2 
 1738000   0.97670294   -7.8438772    442.78821  0.021230735  0.021164504            3 
 1739000   0.98015851    -7.834746    442.49933  0.021204683  0.021158155            6 
 1740000    0.9599017   -7.8461731    442.80418  0.021207097  0.021151733            5 
 1741000   0.98593476   -7.8670319    441.92395  0.021152783  0.021145348            2 
 1742000   0.97636132   -7.8518828    443.85451  0.021232994  0.021138993            3 
 1743000   0.98459773   -7.8563562    444.46425  0.021249964  0.021132568            3 
 1744000   0.96698212   -7.8348471    443.82354  0.021207165  0.021126169            2 
 1745000   0.95767558     -7.84554    444.45324  0.021225083  0.021119792            2 
 1746000   0.98637891   -7.8427733    444.44325   0.02121245   0.02111339            1 
 1747000   0.96524709   -7.8523493    444.66898  0.021211075  0.021107067            3 
 1748000   0.97179434   -7.8478656    444.35412   0.02118393  0.021100701            5 
 1749000   0.96609999   -7.8617575    444.73553  0.021189991   0.02109438            3 
 1750000   0.98688232    -7.879338    443.75064  0.021130983  0.021088015            3 
 1751000   0.97698165   -7.8564173    446.02365  0.021227091   0.02108158            4 
 1752000    0.9734698   -7.8473393    445.03442  0.021167924  0.021075135            4 
 1753000    0.9667557   -7.8580689    444.24616  0.021118376  0.021068704            5 
 1754000   0.96588591   -7.8657473     445.8007  0.021180193  0.021062381            3 
 1755000   0.99165793    -7.865949    444.52127  0.021107373   0.02105595            3 
 1756000   0.96517959   -7.8544631     445.7582  0.021154053  0.021049574            2 
 1757000   0.94804602   -7.8502438    445.69512  0.021139021  0.021043281            3 
 1758000   0.97734133    -7.871495    444.92753  0.021090611  0.021036956            2 
 1759000    0.9520721   -7.8567284    446.51077  0.021153628  0.021030607            3 
 1760000    0.9694183   -7.8776308    446.49043  0.021140645  0.021024262            2 
 1761000   0.97670805   -7.8702501    445.40382   0.02107722  0.021017992            2 
 1762000   0.96506207   -7.8648456     445.6269  0.021075809  0.021011663            3 
 1763000   0.95860961   -7.8736108    445.69243  0.021066952  0.021005325            2 
 1764000   0.95496712   -7.8358339    446.58655  0.021097248  0.020999015            3 
 1765000   0.95994973   -7.8641149    447.37149  0.021122356  0.020992723            5 
 1766000   0.96317329   -7.8359424    447.67909   0.02112491  0.020986479            6 
 1767000   0.98246933   -7.8560583     447.2546  0.021092935  0.020980309            1 
 1768000   0.96864001   -7.8137437    448.84321  0.021155883  0.020974075            3 
 1769000   0.97776434   -7.8942247    446.34443  0.021026212  0.020967853            6 
 1770000   0.94780832    -7.846183     448.1634  0.021099972  0.020961626            4 
 1771000    0.9635764   -7.8731314    448.50965   0.02110435  0.020955429            3 
 1772000    0.9528036     -7.86949    448.13927  0.021075022  0.020949236            4 
 1773000   0.96361192   -7.8522086    449.13132  0.021109763  0.020943045            2 
 1774000   0.97721262   -7.8924403    446.95688   0.02099572  0.020936778            2 
 1775000    0.9737383   -7.8540069    449.51062  0.021103785  0.020930573            5 
 1776000   0.95907856   -7.8507142    449.39456  0.021086457  0.020924444            2 
 1777000   0.96097029   -7.8586052    449.11336  0.021061403  0.020918239            2 
 1778000   0.96889962   -7.8911147     448.6901   0.02102972   0.02091209            2 
 1779000   0.97724208   -7.8807513    448.74613  0.021020523   0.02090581            3 
 1780000   0.97653052   -7.8224292     449.9557  0.021065342  0.020899667            3 
 1781000   0.93045158   -7.8186117    449.38348   0.02102674  0.020893534            2 
 1782000   0.95946509    -7.867714    450.42712  0.021063745  0.020887316            3 
 1783000   0.98425015   -7.8755299    449.62461  0.021014424  0.020881162            1 
 1784000   0.93819613   -7.8546573    449.31022  0.020987959  0.020874942            3 
 1785000   0.94308229   -7.8990097    450.18801   0.02101718  0.020868646            1 
 1786000   0.95403295   -7.8415578    450.00386  0.020996821  0.020862405            3 
 1787000   0.94941914    -7.892307    449.27572  0.020951116  0.020856093            5 
 1788000   0.94632535   -7.8541529    451.10404  0.021024611  0.020849827            3 
 1789000   0.95542993   -7.8486309    449.46391   0.02093646  0.020843599            1 
 1790000   0.94326044   -7.8619949    451.06287  0.020999202  0.020837431            2 
 1791000   0.96544938   -7.8836777    450.37632  0.020955533  0.020831284            5 
 1792000   0.96297404   -7.8576531    451.06801  0.020976005  0.020825075            4 
 1793000   0.95667282   -7.8718282    450.71857  0.020948065  0.020818854            6 
 1794000   0.95513803   -7.9099861    449.97206  0.020901712  0.020812651            2 
 1795000   0.95787604   -7.8541503    451.41433  0.020957026  0.020806394            5 
 1796000   0.95493805   -7.8726297    450.69697  0.020912072  0.020800135            2 
 1797000   0.97442391    -7.886704    450.79226  0.020904854  0.020793916            1 
 1798000    0.9825634   -7.8714718    452.15146  0.020956223  0.020787785            5 
 1799000   0.96624571   -7.8743415    450.74395  0.020879375  0.020781618            1 
 1800000   0.96290701   -7.9167279    450.90893  0.020875413  0.020775378            3 
 1801000   0.95530242   -7.8919952     449.9478   0.02081935  0.020769096            9 
 1802000    0.9507398   -7.8551127    452.07548  0.020906191  0.020762769            4 
 1803000   0.96656606    -7.856207    453.12415  0.020943065  0.020756541            8 
 1804000   0.97427515   -7.8532965    451.60763  0.020861402  0.020750393            1 
 1805000     0.938639   -7.8556222    452.36868  0.020884981  0.020744184            4 
 1806000   0.95356499   -7.8910112    451.36066  0.020826904  0.020737952            3 
 1807000   0.96291154   -7.8652482    452.98398  0.020890241  0.020731713            2 
 1808000   0.97581021   -7.9114746    452.91602  0.020875554   0.02072547            3 
 1809000   0.97007391   -7.8884393    451.71571  0.020808721  0.020719153            4 
 1810000   0.95172073   -7.8788649    450.70154  0.020750531  0.020712857            6 
 1811000   0.96678171   -7.9138333    451.73382  0.020786574  0.020706652            2 
 1812000   0.96968249   -7.8711973    452.10608  0.020792222  0.020700377            2 
 1813000    0.9485068   -7.8928747    452.57261  0.020802197  0.020694074            3 
 1814000   0.96244098    -7.906533    451.34255  0.020734222  0.020687788            3 
 1815000   0.97360106   -7.8862698    453.10759  0.020803838  0.020681532            3 
 1816000   0.97534849   -7.8908705    453.24548  0.020798709  0.020675249            2 
 1817000   0.95139385   -7.8681864    453.34285  0.020791729  0.020668943            4 
 1818000   0.98040852   -7.8594989    455.11438  0.020861495  0.020662849            3 
 1819000    0.9688872   -7.8749772    454.02166  0.020799966  0.020656675            1 
 1820000   0.95686105   -7.8570938    454.21003  0.020797163  0.020650539            5 
 1821000   0.97151615   -7.8523182    454.38087   0.02079356  0.020644402            5 
 1822000   0.97330158   -7.8895272      453.433  0.020738795   0.02063827            3 
 1823000   0.96429192   -7.8519536    453.46197  0.020728742  0.020632119            3 
 1824000   0.96037407    -7.851522    454.22211  0.020752107   0.02062595            4 
 1825000   0.95149053   -7.8939965    454.71432  0.020763211  0.020619787            1 
 1826000   0.96848188   -7.8794197    454.58377  0.020745882  0.020613701            2 
 1827000   0.94296652   -7.8989476    453.74751  0.020696383  0.020607607            3 
 1828000   0.94459439   -7.8920167    454.32349  0.020711319   0.02060155            3 
 1829000   0.97747671    -7.891199    455.34819  0.020746683  0.020595371            3 
 1830000   0.97847405   -7.9113217    455.21519  0.020729289  0.020589239            2 
 1831000   0.96039282    -7.912536    454.92713  0.020704858  0.020583108            2 
 1832000   0.95352496   -7.9119324     455.1963    0.0207058  0.020576974            9 
 1833000   0.96349079   -7.8869837    455.32708  0.020700449  0.020570787            3 
 1834000    0.9675518   -7.9033261    454.48788  0.020651031  0.020564621            3 
 1835000    0.9637563   -7.9119359     454.4782  0.020639337  0.020558382            4 
 1836000   0.94331311   -7.9021689    454.05529    0.0206089  0.020552238            3 
 1837000   0.96740031   -7.8790192    457.22697  0.020741561  0.020546061            7 
 1838000   0.94827374    -7.879262    456.85613  0.020713462  0.020539993            4 
 1839000   0.96749179   -7.8717864    456.00343  0.020663559  0.020533941            8 
 1840000   0.94807803   -7.9122994     456.0972  0.020656576  0.020527791            4 
 1841000   0.95210908   -7.9086028    455.46573  0.020616772  0.020521695            3 
 1842000   0.95340697   -7.9130654    456.22944   0.02064013  0.020515585            3 
 1843000   0.95377837   -7.9082624    456.89439  0.020658998  0.020509396            7 
 1844000   0.94478901   -7.8502893    457.01058  0.020653045   0.02050326            6 
 1845000   0.94780999   -7.9041521    456.78482  0.020631654   0.02049716            2 
 1846000   0.95693735   -7.8751909    457.37321  0.020647039  0.020490944            3 
 1847000   0.96484255   -7.8629248    458.07957   0.02066773  0.020484781            2 
 1848000   0.95697196   -7.8821899    457.04339  0.020609821   0.02047864            5 
 1849000   0.94870186   -7.8894837    458.53935  0.020666097  0.020472537            2 
 1850000   0.96637822   -7.8723744    457.60216   0.02061271  0.020466366            2 
 1851000   0.94930925   -7.9040446    456.72788  0.020562213  0.020460215            1 
 1852000    0.9510695    -7.940286     457.4675  0.020584391  0.020453958            4 
 1853000   0.94837192   -7.8980258    458.03489  0.020598799  0.020447783            5 
 1854000    0.9625412   -7.8799067      457.815  0.020577805  0.020441631            5 
 1855000   0.94938271   -7.9291893    457.34461   0.02054558  0.020435448            4 
 1856000   0.95238538    -7.920022    458.45684  0.020584449  0.020429306            4 
 1857000   0.94719812   -7.8960742    459.14022  0.020604031   0.02042316            2 
 1858000   0.95579019   -7.9107172    458.50026  0.020564238  0.020417025            3 
 1859000   0.92774636   -7.9315971    457.93821  0.020527981  0.020410821            2 
 1860000    0.9444541   -7.8841462    458.86827  0.020558614  0.020404688            8 
 1861000   0.95746197   -7.8741693    459.19606  0.020562245  0.020398556            3 
 1862000   0.96209649   -7.8951153    459.95482   0.02058516  0.020392485            5 
 1863000    0.9297075   -7.9001487    457.84867  0.020479901  0.020386335            5 
 1864000   0.95781283   -7.8948004    458.08144   0.02047932  0.020380145            6 
 1865000   0.94505028   -7.9353992    458.60584  0.020491771  0.020373926            2 
 1866000   0.95933524   -7.8370079    460.05218  0.020545381  0.020367818            2 
 1867000   0.95836308   -7.9187418    458.47022  0.020463766  0.020361621            2 
 1868000   0.93736741   -7.9098435    459.22184  0.020486342  0.020355472            2 
 1869000   0.96392088   -7.9233607    459.64741  0.020494356  0.020349363            1 
 1870000   0.94608366   -7.9252654     459.8259   0.02049135  0.020343173            3 
 1871000   0.96612564   -7.9237899      461.059   0.02053532  0.020337074           10 
 1872000   0.96860359   -7.9223547    460.08917  0.020481177  0.020330963            8 
 1873000   0.96418241   -7.8840308    460.70965  0.020497849  0.020324878            1 
 1874000   0.92229399   -7.9269615    461.11315  0.020504854  0.020318816            3 
 1875000   0.95288246   -7.9362413    461.32068  0.020503141  0.020312707            8 
 1876000   0.95897003    -7.910523     461.0414  0.020479806  0.020306608            2 
 1877000   0.94724452   -7.9514203    460.53085  0.020446229  0.020300511            6 
 1878000    0.9538783   -7.9511681    461.94207  0.020497962  0.020294448            5 
 1879000   0.94728757   -7.8995857    461.42703  0.020464211  0.020288344            3 
 1880000   0.94330873   -7.9194463    460.91189  0.020430492   0.02028231            9 
 1881000   0.94727519   -7.9034195    461.52356  0.020446729  0.020276223            3 
 1882000   0.95587794    -7.944464    461.44888  0.020432558  0.020270215            9 
 1883000   0.94518896   -7.9242687    460.46117  0.020377995  0.020264139            9 
 1884000   0.93780931   -7.9231316     461.3716  0.020407449  0.020258034            4 
 1885000   0.94853437   -7.9333337    461.78847  0.020415052  0.020252024            8 
 1886000   0.96067479   -7.8912797    463.09989  0.020462172  0.020245923            3 
 1887000   0.94566973   -7.9104328    461.71662  0.020390241  0.020239892            5 
 1888000   0.95635441   -7.9416678     461.0287  0.020349078  0.020233798            2 
 1889000   0.96259573   -7.9223261     462.6493  0.020409798  0.020227721            3 
 1890000   0.93721699   -7.9119661    462.00828  0.020370736  0.020221707            3 
 1891000   0.96220352   -7.9347609    461.41545  0.020333838   0.02021568            2 
 1892000   0.97034999   -7.9068058     463.8645  0.020430959  0.020209607            2 
 1893000   0.94169428   -7.9453847    462.28896  0.020350808  0.020203623            2 
 1894000   0.93007054   -7.9074427    463.75436  0.020404539  0.020197577            4 
 1895000   0.94466033   -7.9230752    463.26674  0.020372328  0.020191553            1 
 1896000   0.94033213   -7.9576103    463.35837   0.02036561  0.020185472            2 
 1897000    0.9593473   -7.9605418    463.19494  0.020347695  0.020179351            4 
 1898000   0.95866025   -7.9193248    463.10293  0.020332935  0.020173248            4 
 1899000   0.96976285   -7.9403421     463.8843  0.020356517  0.020167223            5 
 1900000   0.95139651     -7.91483    463.85116  0.020344349  0.020161184            3 
 1901000   0.95414463   -7.9033434    463.69294  0.020326711  0.020155158            4 
 1902000   0.92467741   -7.9370031    463.97213  0.020328257  0.020149139            2 
 1903000   0.96259757   -7.9494804    464.68289  0.020348699  0.020143085            3 
 1904000   0.94941012    -7.967469    462.26822  0.020232328  0.020136976            3 
 1905000   0.94663277   -7.9820119    462.98907   0.02025324  0.020130828            5 
 1906000   0.95069577    -7.910285     464.1475  0.020293263  0.020124657            3 
 1907000   0.94263025   -7.9190892    464.15951  0.020283146  0.020118559            2 
 1908000   0.95105419   -7.8997458    464.99714  0.020309099  0.020112546            2 
 1909000   0.93836855   -7.9543997    464.71814  0.020286282   0.02010651            4 
 1910000   0.95274573   -7.9340197    464.00247  0.020244436   0.02010047            7 
 1911000   0.94930668    -7.952733    464.05624  0.020236187  0.020094441            3 
 1912000   0.92913231    -7.945131    466.12576  0.020315802  0.020088358            2 
 1913000   0.93511263   -7.9558769    464.75362   0.02024541  0.020082351            4 
 1914000   0.94354983    -7.941687    463.80726  0.020193628  0.020076251            3 
 1915000   0.96254925   -7.9568944    465.32439  0.020249103  0.020070204            2 
 1916000   0.94708069   -7.9192963    466.67257  0.020297172  0.020064173            2 
 1917000   0.95083159   -7.9188301    466.39003  0.020274301  0.020058182            5 
 1918000   0.94509957   -7.9369559    464.74576  0.020192291  0.020052168            2 
 1919000   0.95082921   -7.9321866    466.33256  0.020250676  0.020046151            2 
 1920000   0.94270149   -7.9090977    465.94417  0.020223271  0.020040096            5 
 1921000   0.94001814   -7.9282645    466.40967  0.020232937  0.020034102            3 
 1922000   0.95523151   -7.9325778    467.09503  0.020252126  0.020028092            2 
 1923000   0.93556981   -7.9275153    466.09271  0.020198159  0.020022033            3 
 1924000   0.94316557   -7.9539286    465.06374  0.020143093  0.020015975            3 
 1925000   0.92888976   -7.9277716    467.11322  0.020221351  0.020009915            4 
 1926000   0.95204013   -7.9653212    466.07067  0.020165744  0.020003905            5 
 1927000   0.93997964   -7.9308099    467.58948   0.02022096  0.019997918            3 
 1928000   0.94398239   -7.9018026    467.51155  0.020207104  0.019991987            2 
 1929000    0.9577098   -7.9368905    467.56502  0.020198938  0.019986057            2 
 1930000   0.95051325   -7.9214617    467.66757    0.0201929  0.019980203            6 
 1931000   0.92655026    -7.960008    466.41088   0.02012821  0.019974175            2 
 1932000   0.93668775   -7.9241375    466.81656   0.02013529  0.019968149            2 
 1933000   0.94356391   -7.9452061    468.04946  0.020178025  0.019962168            2 
 1934000   0.91680293    -7.963325    465.83486  0.020072167  0.019956181            2 
 1935000   0.92878591   -7.9154308    467.51693  0.020134235  0.019950175            3 
 1936000   0.93934096    -7.932023    468.36579  0.020160373   0.01994422            3 
 1937000   0.95706686   -7.9361151    468.34606  0.020149116  0.019938263            6 
 1938000   0.92098752   -7.9539729    467.81722  0.020115979  0.019932313            2 
 1939000   0.94444425   -7.9258704    470.32576  0.020213416  0.019926435            2 
 1940000   0.96609464   -7.9229598    468.68127  0.020132357  0.019920579            5 
 1941000    0.9406935   -7.9409348    468.72186  0.020123727  0.019914672            3 
 1942000   0.92388023   -7.9314477     469.1565  0.020132016  0.019908756            6 
 1943000   0.92576077   -7.9251494    470.80961  0.020192555  0.019902905            5 
 1944000   0.93448791   -7.8674805    469.97571  0.020146421  0.019897056            3 
 1945000    0.9598892   -7.9264123    470.04761  0.020139143  0.019891273            2 
 1946000   0.94835142   -7.9613858    469.10562  0.020088456  0.019885393            8 
 1947000   0.93958528   -7.9520076    470.80586   0.02015091  0.019879511            2 
 1948000   0.91742599   -7.9805568    468.89272  0.020058723  0.019873545           13 
 1949000   0.91999213   -7.9729195    468.19371  0.020018544  0.019867615            2 
 1950000   0.92305872   -8.0193744    468.06559  0.020002803  0.019861683            4 
 1951000   0.92659531   -7.9539357    469.26352  0.020043718  0.019855755            5 
 1952000   0.92457877   -7.9441512    470.00986  0.020065312  0.019849815            5 
 1953000   0.93599242   -7.9696395    469.90793  0.020050688  0.019843946            2 
 1954000   0.93549542   -7.9199232    470.62323  0.020070933  0.019838043            1 
 1955000   0.92006904   -7.9618333    470.20161  0.020042694    0.0198322            2 
 1956000   0.95089182   -7.9495192    469.94027  0.020021314  0.019826284            3 
 1957000   0.95007511   -7.9403298    469.22713  0.019980716  0.019820363            5 
 1958000   0.93603812   -7.9385647     471.4831  0.020066526  0.019814442            2 
 1959000   0.93010596    -7.966955    470.66201  0.020021355  0.019808553            2 
 1960000   0.93007307   -7.9232016     471.5992  0.020050986  0.019802675            2 
 1961000   0.93169546   -7.9573291    470.58592  0.019997702  0.019796802            5 
 1962000   0.92039512   -7.9284754    472.05177  0.020049769  0.019790866            3 
 1963000   0.92338802   -7.9495114    471.49285  0.020015828  0.019785006            3 
 1964000   0.93302438   -7.9600686    472.20722  0.020035948  0.019779114            4 
 1965000   0.93957668   -7.9430179    470.76056    0.0199644  0.019773273            3 
 1966000   0.92557102   -7.9213836    472.92865  0.020046145  0.019767391            5 
 1967000   0.95323951   -7.9374684    471.98168  0.019995835  0.019761483            2 
 1968000   0.95101383    -7.983136    470.79181   0.01993529  0.019755546            5 
 1969000    0.9580019   -7.9573648    471.49156  0.019954781  0.019749623            4 
 1970000   0.95245103    -7.948143    472.42271   0.01998404  0.019743703            6 
 1971000   0.93581304   -7.9627716    471.40651  0.019930937  0.019737842            3 
 1972000   0.91426145   -7.9682192    473.05163  0.019990349  0.019731994            4 
 1973000   0.93346947   -7.9614813    471.68087  0.019922321  0.019726174            3 
 1974000   0.95469058   -7.9474306    473.77482  0.020000626  0.019720383            7 
 1975000   0.93069936   -7.9700656    473.31565  0.019971125   0.01971453            4 
 1976000   0.91661233   -7.9833514    472.78605  0.019938683  0.019708706            2 
 1977000   0.94736545   -7.9796492    471.85339  0.019889285  0.019702831            4 
 1978000   0.93067933   -7.9599674    472.34636  0.019899998  0.019696993            2 
 1979000   0.94605426   -7.8949759    475.14633  0.020007846  0.019691236            2 
 1980000   0.93069574   -7.9189618    473.24759  0.019917828  0.019685478            3 
 1981000   0.93565056   -7.9678374    474.03324  0.019940823  0.019679621            5 
 1982000   0.91710916   -7.9660815    472.86203  0.019881518  0.019673785            3 
 1983000   0.92929235   -7.9447037    473.10662  0.019881771  0.019667878            3 
 1984000   0.94712199   -7.9312013    473.39459  0.019883845  0.019662025            9 
 1985000   0.92687245   -7.9475497    473.35375  0.019872114  0.019656119            8 
 1986000   0.92105916    -7.948159    474.19907  0.019897577  0.019650267            3 
 1987000   0.91747978    -7.922757    474.03603  0.019880726  0.019644334            4 
 1988000    0.9254344   -7.9826104    472.29925  0.019797923  0.019638356            5 
 1989000   0.92722972   -8.0002552    472.68436  0.019804104  0.019632328            3 
 1990000   0.93279682    -7.973874    472.60766  0.019790941  0.019626334            3 
 1991000   0.93339897   -7.9403981    472.49493  0.019776282  0.019620315            2 
 1992000   0.94735641    -8.003614    472.70011  0.019774937  0.019614251            6 
 1993000   0.92830436   -7.9911923    472.55719  0.019759039  0.019608179            5 
 1994000   0.93543259    -7.973069    473.21175  0.019776486  0.019602096            3 
 1995000   0.92838157   -7.9528906    472.33902  0.019730118  0.019596015            4 
 1996000   0.93688382   -7.9821994    473.04304  0.019749626  0.019589929            4 
 1997000      0.91556   -7.9736032    472.80839  0.019729945  0.019583906            2 
 1998000   0.93460508    -7.972388    474.46758  0.019789272  0.019577814            6 
 1999000   0.92801789   -7.9602666    472.72956  0.019706918  0.019571789            2 
 2000000    0.9207102   -7.9771148    473.05845  0.019710769  0.019565732            3 
 2001000   0.94104409   -7.9913948    473.16073  0.019705178  0.019559687            3 
 2002000   0.92666261   -7.9827274    473.88798  0.019725607  0.019553636            3 
 2003000   0.92035193    -7.965137    474.15756  0.019726975  0.019547622            6 
 2004000   0.92802079   -7.9754183    474.24293  0.019720681   0.01954155            7 
 2005000   0.93940193   -7.9529886     473.7796  0.019691588  0.019535548            6 
 2006000    0.9391693   -7.9495849    475.29968  0.019744919  0.019529564            2 
 2007000   0.92241153   -7.9561139    474.55751  0.019704264  0.019523659            3 
 2008000   0.92051509   -7.9894816    474.03917   0.01967294  0.019517722            2 
 2009000   0.92604107   -7.9554399    475.46097  0.019722124  0.019511772            1 
 2010000   0.91857861   -7.9575097    475.77305  0.019725251  0.019505888            1 
 2011000   0.91391211   -7.9313008    475.40241  0.019700083  0.019500003            4 
 2012000   0.94498043   -7.9898957    475.68211  0.019701877   0.01949412            4 
 2013000   0.93353358   -7.9616572    476.42036  0.019722651  0.019488224            2 
 2014000   0.93655462   -7.9895039    477.00673  0.019737121  0.019482318            3 
 2015000    0.9332631   -7.9442511    476.44538   0.01970411  0.019476498            8 
 2016000   0.93912223    -7.992672    475.89836  0.019671725   0.01947062            4 
 2017000   0.94217934   -7.9798547    475.58889  0.019649186  0.019464698            7 
 2018000   0.92227197   -7.9854962    476.72968  0.019686558  0.019458759            7 
 2019000   0.91947347   -7.9595492    476.19067   0.01965456  0.019452804            2 
 2020000   0.91554894   -7.9674118    476.38061  0.019652666  0.019446835            6 
 2021000   0.94459391    -7.970569    475.83943  0.019620626  0.019440901            2 
 2022000   0.93445308   -7.9966096    476.47389  0.019637071  0.019434945            4 
 2023000   0.92087169   -7.9961295    476.91328  0.019645464  0.019429014            3 
 2024000   0.92645766   -7.9860515    477.95463  0.019678633  0.019423079            3 
 2025000   0.92440495   -8.0201984     476.2486  0.019598708  0.019417157            5 
 2026000   0.91321881   -7.9931676    477.69927  0.019648703  0.019411261            1 
 2027000   0.92553762   -8.0078876    475.46671  0.019547225  0.019405336            3 
 2028000   0.92408302   -7.9752891    477.93251   0.01963891  0.019399395            4 
 2029000   0.92007143   -7.9907433    476.71375  0.019579175   0.01939347            3 
 2030000   0.93068703   -8.0044624    475.99976   0.01954022  0.019387553            3 
 2031000   0.91793304   -7.9681839    477.10273  0.019575854  0.019381643            2 
 2032000   0.90265196   -7.9545474    477.63656  0.019588114  0.019375735            3 
 2033000   0.92254834   -7.9422927     477.7922  0.019584858  0.019369855            9 
 2034000   0.94019502   -7.9947132    477.29478   0.01955485  0.019363979            4 
 2035000   0.94656904   -8.0043292    478.72315  0.019603733  0.019358104            4 
 2036000    0.9374648   -7.9712451    478.84355  0.019599032   0.01935225            2 
 2037000   0.91078231   -7.9934258    478.18444  0.019562446  0.019346418            3 
 2038000   0.92333693   -7.9762259    477.82668  0.019538219  0.019340564            2 
 2039000   0.92907371    -8.002902    478.22187  0.019544788  0.019334713            4 
 2040000   0.93421505   -7.9689878    478.65726  0.019552992  0.019328864            2 
 2041000   0.94094444     -7.95988     478.8975  0.019553222  0.019322998            4 
 2042000   0.91369507   -7.9868363    478.90652  0.019544014  0.019317138            3 
 2043000   0.91678155   -7.9777614    478.45173  0.019515897  0.019311281            3 
 2044000   0.92753692   -7.9526351    479.91552  0.019566028  0.019305474            2 
 2045000   0.93430607   -7.9517783    479.79857  0.019551694  0.019299719            7 
 2046000   0.92662148   -7.9421067    480.63252  0.019576104  0.019293997            5 
 2047000   0.93962217   -7.9447158     479.8469  0.019534559  0.019288234            5 
 2048000   0.92194849   -7.9544343    480.80426  0.019563975  0.019282478            7 
 2049000   0.95941714   -7.9744213    480.04197  0.019523425  0.019276614            1 
 2050000   0.91543283   -7.9934725    480.56699  0.019535244  0.019270755            2 
 2051000    0.9200644   -7.9679832    479.40025  0.019478313  0.019264928            2 
 2052000   0.90676823   -7.9970096    479.30602  0.019464994  0.019259082            2 
 2053000   0.93284793   -7.9995975    479.10305  0.019447274   0.01925322            1 
 2054000   0.93256485   -7.9668707    479.23252  0.019443059  0.019247376            3 
 2055000   0.91889787   -7.9832999    480.50738  0.019485295   0.01924156            3 
 2056000   0.91700178   -7.9636635    479.94602  0.019453065   0.01923567            2 
 2057000   0.91195805   -8.0612949     479.1451  0.019411161  0.019229732            4 
 2058000   0.91302359   -7.9851065    478.77166  0.019386607   0.01922379            3 
 2059000   0.92416758   -7.9990282    480.25324  0.019437156  0.019217854            3 
 2060000   0.92194861   -7.9953307    481.01137  0.019458389  0.019211915            5 
 2061000   0.91729182   -8.0055407    480.57223  0.019431192  0.019205998           10 
 2062000   0.93467172   -7.9859614    480.00469  0.019398832  0.019200138            6 
 2063000   0.91994941   -7.9892016    479.80883  0.019381517  0.019194256           12 
 2064000   0.91876185   -7.9735319    480.08706   0.01938336  0.019188386            3 
 2065000   0.94203968   -8.0031233    480.89263  0.019406482  0.019182519            5 
 2066000   0.92292788   -7.9829189    479.69235  0.019348675  0.019176635            5 
 2067000   0.93822181   -7.9796554    480.96685  0.019390697  0.019170709            4 
 2068000   0.91369606   -7.9909558    481.34232  0.019396451  0.019164827            4 
 2069000   0.93950611   -8.0236182    480.02926   0.01933419  0.019158908            3 
 2070000   0.93725564   -7.9706724    482.00872  0.019404538  0.019153013            4 
 2071000   0.91077673   -7.9702864    479.96917  0.019313101  0.019147163            5 
 2072000   0.90707331   -7.9880381    481.38202  0.019360602  0.019141242            3 
 2073000   0.91693465   -7.9835398      481.545  0.019357815  0.019135305           10 
 2074000   0.90152731   -7.9580663    481.11691   0.01933128  0.019129343           12 
 2075000    0.9166102   -8.0021169    480.80559  0.019309462  0.019123418            4 
 2076000   0.90828237   -7.9797369    481.49028  0.019327644  0.019117421            6 
 2077000   0.93328489   -7.9852582    481.49026  0.019318338  0.019111426            3 
 2078000   0.91312295   -7.9696357     480.4884  0.019268864  0.019105431            5 
 2079000   0.92790124    -7.959273    481.27854  0.019291267  0.019099416            3 
 2080000   0.92415108   -7.9870793    481.31213  0.019283339  0.019093452            7 
 2081000   0.92462952   -7.9384871    481.86079  0.019296043  0.019087541            1 
 2082000   0.93222261   -7.9705329    480.92605  0.019249362  0.019081673            2 
 2083000    0.9404767   -8.0008245    481.71964  0.019271869  0.019075794            4 
 2084000   0.92968597   -8.0014421    482.36156   0.01928829  0.019069864            7 
 2085000   0.93012409   -8.0174842    481.41632   0.01924126  0.019063909            7 
 2086000    0.9309826   -7.9883478    481.60696  0.019239652  0.019057978            5 
 2087000   0.90546764     -8.00286    482.32718  0.019259191  0.019052029            3 
 2088000   0.91702836   -8.0291893    482.98733  0.019276314  0.019046077            3 
 2089000   0.92793713   -8.0042605    482.10919  0.019232056  0.019040085            4 
 2090000   0.92880976   -8.0282034    481.34577  0.019192415  0.019034086            5 
 2091000   0.92488132    -8.027392    481.95311  0.019207441  0.019028093            3 
 2092000     0.897121   -8.0352791    481.03516  0.019161694  0.019022082            2 
 2093000   0.90405913   -8.0273383    481.96255  0.019189463  0.019016092            3 
 2094000   0.92910332   -8.0456655    482.40838  0.019198041  0.019010073            3 
 2095000   0.92675022   -8.0403516    481.81254  0.019165177  0.019004022            4 
 2096000   0.89648505   -8.0574386    480.83271  0.019117076  0.018997956            4 
 2097000   0.91882112   -8.0354436    481.52793  0.019135588    0.0189919            7 
 2098000   0.90647043   -8.0056128    482.58435  0.019168428  0.018985864            2 
 2099000   0.89949902   -8.0369841    482.34386  0.019149748  0.018979867            2 
 2100000   0.90413285   -8.0255946     482.6102  0.019151198  0.018973852            3 
 2101000   0.93124177    -8.050593     482.1985  0.019125753  0.018967819            4 
 2102000   0.92608931   -8.0259539     483.0438  0.019150166   0.01896182            5 
 2103000   0.90676801   -8.0173783    483.88189   0.01917427  0.018955867            6 
 2104000    0.9149368     -8.00608    483.20447  0.019138326  0.018949869            4 
 2105000    0.9266589   -7.9938291    483.32334  0.019133941  0.018943907            3 
 2106000   0.90592689    -8.012381     484.3323  0.019164779  0.018937964            2 
 2107000   0.90235816   -8.0221813     483.4558  0.019121017  0.018931983            1 
 2108000   0.90727006   -7.9866596    483.79687   0.01912543  0.018926019            1 
 2109000    0.9112782   -8.0172893    483.97842  0.019123535  0.018920063            3 
 2110000   0.93409704   -8.0118952    483.72791  0.019104578  0.018914116            4 
 2111000   0.91778946   -8.0088993    482.53691  0.019048512   0.01890816            2 
 2112000   0.93109141   -8.0420141    483.34216  0.019071266  0.018902215            2 
 2113000   0.91786035   -8.0057482     484.7713  0.019118603  0.018896298            2 
 2114000    0.9087836   -8.0393091    483.03321  0.019041044   0.01889038            7 
 2115000   0.90944744   -8.0047348    484.25887  0.019080334  0.018884433            3 
 2116000   0.89580741   -8.0159268    483.33577  0.019034963   0.01887849            3 
 2117000   0.91208769    -8.048523    485.08129  0.019094681  0.018872547            6 
 2118000   0.91121581   -8.0463122    485.10707  0.019086681  0.018866675            9 
 2119000    0.8968889   -8.0222987    485.06778  0.019076128  0.018860818            5 
 2120000   0.91517361   -8.0292964    484.95824  0.019062824  0.018855014            2 
 2121000   0.91218495   -8.0090427    484.94814   0.01905344  0.018849194            2 
 2122000   0.90817222   -7.9998708    486.56582  0.019107989  0.018843361            3 
 2123000   0.89860772   -7.9943472    486.61338  0.019100855  0.018837589            2 
 2124000   0.91039253   -8.0345814     486.1425  0.019073387  0.018831779            3 
 2125000   0.91317066   -8.0061662    487.01374  0.019098578  0.018826008            2 
 2126000   0.90499611    -8.003603    487.14939  0.019094912  0.018820349            2 
 2127000   0.90099374   -8.0003877     486.9569  0.019078393  0.018814646            3 
 2128000   0.88400053   -8.0231864    485.66906  0.019018995  0.018808881            1 
 2129000   0.92891149    -8.033204    486.79817  0.019054257  0.018803141            1 
 2130000   0.91596178   -8.0447745     486.2318  0.019023153  0.018797342            2 
 2131000   0.90939514    -8.024418    486.12955  0.019010228  0.018791543            2 
 2132000   0.91556738   -8.0483888    487.93738  0.019071974  0.018785762            3 
 2133000   0.91642871   -8.0510182    485.71697  0.018976284  0.018779895            3 
 2134000   0.89073265   -8.0371681    486.72622  0.019006803  0.018774071            3 
 2135000   0.91089145   -8.0723184    485.79998  0.018961748  0.018768243            4 
 2136000   0.91352775   -8.0679727     486.2853  0.018971805  0.018762318           11 
 2137000   0.90053062   -8.0652204    487.03337  0.018992098  0.018756469            3 
 2138000   0.92019241   -8.0701529    486.36158  0.018957031  0.018750622            2 
 2139000   0.92387829    -8.046195    486.96867   0.01897182  0.018744804            4 
 2140000   0.90641189   -7.9929483     488.5291  0.019023719   0.01873903            4 
 2141000   0.91081886   -8.0163998    487.59096  0.018978318  0.018733246            4 
 2142000   0.92113818   -8.0699063    486.98143  0.018945745  0.018727436            4 
 2143000   0.89738486   -8.0544093    487.92849  0.018973732  0.018721583            8 
 2144000   0.91016211   -8.0236305    488.70235  0.018994961  0.018715773           10 
 2145000   0.91425388   -8.0110957    488.28275  0.018969804  0.018710001            2 
 2146000   0.91913217    -8.018329     487.6766  0.018937426  0.018704197            5 
 2147000   0.91212742   -8.0318613     487.5123  0.018922229  0.018698432            3 
 2148000   0.89608139   -8.0197387    487.62784  0.018917902  0.018692653            2 
 2149000   0.92324968   -7.9849987    488.75972   0.01895299  0.018686888            5 
 2150000    0.8993626   -8.0565644    487.08359  0.018879209  0.018681137           15 
 2151000   0.91860442   -8.0566498    487.05738  0.018869417  0.018675343            6 
 2152000   0.90145927   -8.0359476    487.63953  0.018883191  0.018669529            2 
 2153000   0.90720764   -8.0601177    488.41887  0.018904585  0.018663671            2 
 2154000   0.90978413   -8.0426131    488.24614  0.018889127  0.018657849            2 
 2155000   0.89568814   -8.0407117     488.0535  0.018872912  0.018652003            4 
 2156000   0.90049681   -8.0786268     487.5624  0.018845176  0.018646162            4 
 2157000   0.88832544   -8.0656036    488.58833  0.018876075  0.018640322           13 
 2158000   0.89039776   -8.0341757    488.31612  0.018856817  0.018634522            7 
 2159000   0.90732594   -8.0385405    488.04908  0.018837775  0.018628706            2 
 2160000   0.91297627   -8.0081028    491.06607   0.01894545  0.018622936            3 
 2161000   0.91624135    -8.043443    489.73826   0.01888548  0.018617152            3 
 2162000   0.91345517   -8.0643932    487.98772  0.018809271  0.018611389            3 
 2163000   0.90542683   -8.0460662    489.90438  0.018874418  0.018605619            3 
 2164000    0.8969493   -8.0617224    489.56648  0.018852683  0.018599843            2 
 2165000   0.92050178    -8.045966    488.96894  0.018820975  0.018594084            2 
 2166000   0.90441668   -8.0217397    489.68858  0.018839973  0.018588331            3 
 2167000   0.92545945   -8.0723259    489.56642  0.018826581   0.01858256            4 
 2168000   0.90654817   -8.0519515    489.80978  0.018827252  0.018576816            2 
 2169000   0.92086296    -8.030219    490.69431  0.018852555  0.018571109            2 
 2170000    0.9056153   -8.0285105    490.73663  0.018845493  0.018565364            5 
 2171000   0.90836375   -8.0435095    489.12694  0.018775025  0.018559578            2 
 2172000   0.92263025   -8.0517838    490.06726  0.018802458  0.018553812            4 
 2173000   0.89236912   -8.0174426    490.90709  0.018826012  0.018548077            4 
 2174000   0.91163976   -8.0520068    489.60446   0.01876742  0.018542315            5 
 2175000   0.89027246    -8.013418    490.93987  0.018809957  0.018536569            1 
 2176000   0.87941304    -8.026436    491.11824  0.018808143  0.018530832            3 
 2177000   0.89640313   -8.0290168    491.20293  0.018802746   0.01852514            6 
 2178000    0.9205542    -8.013107     491.4094  0.018802013  0.018519383            2 
 2179000   0.91826638     -8.07926    489.50501  0.018720553   0.01851361            4 
 2180000   0.90956862   -8.0820335    489.89232  0.018726771  0.018507807            4 
 2181000   0.88729064   -8.0516396    490.67637  0.018748142  0.018501992            7 
 2182000   0.88461496   -8.0587618    491.19196  0.018759241  0.018496186            3 
 2183000   0.89067998   -8.0738482     489.7299  0.018694835  0.018490365            3 
 2184000   0.89675365    -8.057572    490.88127  0.018730207  0.018484545            7 
 2185000   0.90102953   -8.0542626    490.65668  0.018713069  0.018478726            3 
 2186000    0.9071513   -8.0272807    491.64635  0.018742237  0.018472988            3 
 2187000   0.89519308   -8.0519203    489.94277  0.018668754  0.018467287            5 
 2188000   0.90899403   -8.0718988    491.17077  0.018706991  0.018461567            3 
 2189000   0.90394029    -8.094038    491.63779  0.018716224  0.018455808           10 
 2190000   0.89092027    -8.075796    491.73661  0.018711439  0.018450053            8 
 2191000   0.88538647   -8.1022994    491.58489  0.018697128  0.018444314            4 
 2192000   0.91552365   -8.0786392    491.99517  0.018704196   0.01843858            4 
 2193000   0.89870012   -8.0343019    491.03133  0.018659041  0.018432868            6 
 2194000   0.91149283   -8.0861883    491.35736   0.01866292  0.018427155            3 
 2195000   0.90697387    -8.078992    492.67821  0.018704564  0.018421412            3 
 2196000   0.89243567   -8.0531425    492.76521  0.018699348  0.018415704           10 
 2197000   0.90524371   -8.0417217    493.43699  0.018716317  0.018409976            8 
 2198000   0.91816375   -8.0360086    491.78238  0.018645071  0.018404263           14 
 2199000   0.90533634   -8.0336193     492.3569  0.018658364  0.018398578            8 
 2200000   0.91425627   -8.0525458    492.82358   0.01866756  0.018392865           10 
 2201000   0.90186172    -8.072023    491.93378  0.018625389  0.018387125            6 
 2202000   0.89939639   -8.0643451    491.88149  0.018614952  0.018381345            4 
 2203000    0.9194748   -8.0666625    490.63059  0.018559184  0.018375577            6 
 2204000   0.89239126   -8.0597494    492.02708  0.018603565  0.018369848            2 
 2205000   0.89841253    -8.046137    492.75275  0.018622553  0.018364162            2 
 2206000   0.87998975   -8.0394173    491.74003  0.018575855  0.018358466            3 
 2207000   0.90697416   -8.0822997    492.77737  0.018606607  0.018352741            2 
 2208000   0.89835723   -8.0786661    492.57223  0.018590437  0.018347007            2 
 2209000   0.89361809   -8.0830826    492.33849  0.018573204  0.018341183            5 
 2210000   0.91044226   -8.0742231    492.31094  0.018563761  0.018335324            6 
 2211000   0.89504888   -8.0641251    491.80869  0.018536435  0.018329504            5 
 2212000   0.90261115   -8.1057672    491.31165   0.01850933  0.018323683            5 
 2213000   0.90762946   -8.0897945    491.73016  0.018516725  0.018317834            8 
 2214000   0.88616173   -8.0672523    492.88407  0.018551794  0.018311984            9 
 2215000   0.91267364   -8.0836528    492.84205  0.018541838  0.018306132            6 
 2216000   0.88002946   -8.0518335    494.07425  0.018579808  0.018300367            5 
 2217000     0.884581   -8.0394126    494.66919   0.01859379   0.01829459            3 
 2218000   0.90354248   -8.0560064    493.21238  0.018530673  0.018288876            2 
 2219000   0.90177572   -8.0424918    493.35858  0.018527812  0.018283141            3 
 2220000   0.89801331   -8.0727831    493.38083  0.018520301  0.018277413            3 
 2221000   0.90174899   -8.0177711    495.23502  0.018581533  0.018271728            3 
 2222000   0.89390402   -8.0554145    494.44527  0.018543552  0.018266005            2 
 2223000   0.87899718   -8.0509338    493.65634  0.018505636  0.018260269            2 
 2224000   0.87761906   -8.0893326     493.4052  0.018487905  0.018254498            4 
 2225000   0.89896626    -8.071997    493.16247  0.018470504   0.01824876            3 
 2226000   0.90107755   -8.0892413    492.70093  0.018444928  0.018242953            2 
 2227000   0.90684565   -8.0778699    494.13111  0.018490163  0.018237215            4 
 2228000   0.91511214   -8.0776628     493.4215  0.018455323  0.018231412            5 
 2229000   0.89699709   -8.1052079    494.51794  0.018488034  0.018225604            3 
 2230000   0.88871406   -8.0471696    496.03943    0.0185366  0.018219849           11 
 2231000   0.91537548   -8.0757972     493.9393  0.018449847  0.018214073            3 
 2232000   0.88480549    -8.051147    494.39313  0.018458525  0.018208295            3 
 2233000    0.9151189   -8.0612768    494.96381  0.018471556  0.018202516            2 
 2234000    0.9046643   -8.0646049    494.19656  0.018434667  0.018196743            3 
 2235000   0.93030933   -8.0930605    493.93347   0.01841661  0.018190912            4 
 2236000   0.90100594   -8.0585949    493.51136  0.018392642   0.01818506            3 
 2237000   0.90615362   -8.0795745    493.76898  0.018394016  0.018179266            2 
 2238000   0.90920253   -8.0824825    494.64364  0.018418366  0.018173453            4 
 2239000    0.9115299   -8.0635807     495.0278  0.018424438  0.018167639            5 
 2240000   0.90423095   -8.0726098    493.80398  0.018370684  0.018161809            4 
 2241000   0.90189811   -8.0694108    494.64717  0.018393841     0.018156            4 
 2242000   0.87699983   -8.0715021    495.80962  0.018428844  0.018150175            5 
 2243000   0.92144001   -8.0601131    494.82672   0.01838411  0.018144349            4 
 2244000   0.89284438   -8.0714266    495.05417  0.018384365  0.018138531            4 
 2245000   0.89964973   -8.1114969     492.9941  0.018299707  0.018132695            3 
 2246000    0.8903752   -8.0631507    495.26743  0.018375907  0.018126895            7 
 2247000   0.90290742   -8.0386352    495.79115  0.018387152  0.018121138            2 
 2248000   0.90937103    -8.096475    494.28971  0.018323314  0.018115346            5 
 2249000   0.89099662   -8.0380906    497.26676  0.018425477  0.018109545            2 
 2250000   0.90287133   -8.0914382    495.03906   0.01833478  0.018103746            6 
 2251000   0.89345408   -8.0629265    495.19009  0.018332226  0.018097931            3 
 2252000   0.88313367   -8.0723665    495.72069   0.01834372  0.018092144            2 
 2253000   0.89722627   -8.0664513    495.10808  0.018312919  0.018086322            8 
 2254000   0.90326721   -8.0702757    495.83878  0.018331809   0.01808053            5 
 2255000   0.90919043   -8.1075715    495.29099  0.018303437  0.018074733            2 
 2256000   0.88960431   -8.0428476    495.17197  0.018290927  0.018068987            7 
 2257000    0.9074543   -8.0589769    498.26716  0.018397104  0.018063208            3 
 2258000   0.89672769   -8.0915031    496.49034  0.018323381  0.018057413            2 
 2259000   0.88584784   -8.0934618    496.24789  0.018306326  0.018051667            2 
 2260000   0.86268324    -8.083282    496.46669  0.018306294  0.018045878            1 
 2261000   0.88441702   -8.0869014    495.29929  0.018255171  0.018039999            6 
 2262000   0.90005847   -8.1157034    495.14024  0.018241241  0.018034163            2 
 2263000   0.89877681   -8.1298651    495.27974  0.018238317  0.018028339            3 
 2264000   0.88516691     -8.09577    496.54479  0.018276825   0.01802255            4 
 2265000    0.8977737   -8.1095883    497.31242  0.018296999  0.018016708            4 
 2266000   0.88263685    -8.118159    497.42904  0.018293213  0.018010914            3 
 2267000     0.895306   -8.0837697    496.56211  0.018253275  0.018005109            3 
 2268000   0.88483323    -8.121378    494.34121  0.018163625  0.017999242            3 
 2269000   0.88095099   -8.1136535    495.76011  0.018207731  0.017993374            5 
 2270000   0.89535603   -8.0848153    495.66109  0.018196075  0.017987529            3 
 2271000   0.88540385   -8.1182298    494.87465  0.018159205  0.017981703           10 
 2272000    0.8719684    -8.090347    497.01014  0.018229538  0.017975885            2 
 2273000   0.87189171   -8.1035265    497.16516  0.018227202  0.017970028            7 
 2274000   0.87915199   -8.1240767    495.93683  0.018174173  0.017964204            4 
 2275000    0.8803317   -8.1001156    495.26403  0.018141539  0.017958388            4 
 2276000   0.88425288   -8.0882082     497.1583  0.018202926  0.017952577            6 
 2277000   0.87601699   -8.1044781    496.51727  0.018171471  0.017946757            3 
 2278000   0.86665949   -8.1012116    496.03776  0.018145953  0.017940966            4 
 2279000   0.86187762   -8.1266389    496.27946  0.018146828  0.017935153            2 
 2280000   0.89444306   -8.1154525    496.95757  0.018163654  0.017929337            8 
 2281000   0.88963688   -8.0613314    497.42311  0.018172699  0.017923569            3 
 2282000   0.88424701   -8.1293208    496.16572  0.018118818  0.017917753            7 
 2283000   0.89713191   -8.0651788     498.1567  0.018183556   0.01791199            8 
 2284000   0.87777205   -8.0798302    498.20957  0.018177524  0.017906267            4 
 2285000   0.89246399   -8.0885704    498.05277   0.01816385  0.017900566            4 
 2286000   0.88569373   -8.0813964    497.30023  0.018128471   0.01789482            3 
 2287000   0.89046645   -8.1131843    496.82564  0.018103252  0.017889059            5 
 2288000   0.87994241   -8.1161327    496.40122  0.018079881   0.01788325            2 
 2289000   0.88178814   -8.1019407    497.09447  0.018097221  0.017877488            3 
 2290000    0.8730897   -8.1079104    495.96557  0.018048238   0.01787169            2 
 2291000   0.88507146   -8.0919141    497.71138  0.018103862  0.017865911            3 
 2292000   0.87692968   -8.0739017    497.84611  0.018100862  0.017860171            4 
 2293000   0.86332948   -8.0932839    498.67137   0.01812296  0.017854416            3 
 2294000   0.88802453   -8.0728779    499.06253  0.018129269  0.017848642            5 
 2295000   0.87188591   -8.1120448     498.3699   0.01809622  0.017842868            4 
 2296000   0.87517723   -8.1088446    497.49593  0.018056618  0.017837099            4 
 2297000   0.88244958   -8.0358144    500.15498  0.018145225  0.017831334            3 
 2298000   0.89041094    -8.064598    500.19071  0.018138624  0.017825654            3 
 2299000   0.88714899   -8.0799969    498.91609  0.018084533  0.017819972            2 
 2300000   0.89378274   -8.0573365    499.49075  0.018097491  0.017814305            5 
 2301000   0.87095787   -8.0781158     499.8939  0.018104227  0.017808668            6 
 2302000   0.87968533   -8.0987219    499.50358  0.018082232  0.017803002            5 
 2303000    0.8712764   -8.1006823    500.25879  0.018101708  0.017797316            3 
 2304000   0.88538114   -8.0848237    499.34795  0.018060907  0.017791683            3 
 2305000   0.88772618   -8.1365295    499.47454  0.018057648  0.017786022            8 
 2306000   0.88470145   -8.1463376    498.48065    0.0180139  0.017780359            5 
 2307000   0.88698172   -8.0981094    499.08574  0.018027949   0.01777468            2 
 2308000     0.897017   -8.1300197    500.20627  0.018060596  0.017769003            3 
 2309000   0.85893937    -8.133279     499.5261  0.018028226  0.017763335            7 
 2310000   0.88282684    -8.112727     499.9714  0.018036486  0.017757646           12 
 2311000   0.86705935    -8.126484    498.46267  0.017974278  0.017751948            3 
 2312000   0.87841716   -8.0767075    500.07775  0.018024717  0.017746288            6 
 2313000   0.88259144   -8.1181958    500.26135  0.018023539  0.017740574            2 
 2314000   0.88575219   -8.1052354    500.34719  0.018018841  0.017734879            3 
 2315000   0.87761928   -8.0998146    500.57422   0.01801923   0.01772915            3 
 2316000   0.89950664   -8.1300335     500.3648  0.018003915  0.017723427            2 
 2317000   0.87532505   -8.1315883    499.48221  0.017964401  0.017717697            4 
 2318000   0.88094674   -8.0882542    500.27549   0.01798517  0.017711959            9 
 2319000   0.87507282   -8.1483202    498.85974  0.017926539  0.017706282            4 
 2320000   0.87354132   -8.1368145    500.78703   0.01798804   0.01770056            6 
 2321000   0.88321092   -8.1102843    501.43929  0.018003709  0.017694866            4 
 2322000     0.890129   -8.0978274    499.94896  0.017942469  0.017689209            3 
 2323000   0.88199823   -8.0854913    500.11755  0.017940793  0.017683516            3 
 2324000   0.88575674   -8.1219931    500.71598  0.017954532   0.01767779            2 
 2325000   0.88429845   -8.1606953    499.73473  0.017911639  0.017672064            3 
 2326000   0.86532199    -8.126094    499.81682   0.01790688  0.017666365            3 
 2327000   0.87669948   -8.0832102    500.39489  0.017919886   0.01766069            2 
 2328000   0.86946953   -8.0816677    502.74669  0.017996373  0.017655053            1 
 2329000   0.86890587   -8.1130321    501.42931   0.01794151  0.017649402            2 
 2330000    0.9042899   -8.1255683    500.98311  0.017917851  0.017643706            2 
 2331000   0.87569346   -8.1608053    499.91416  0.017871949  0.017637956            5 
 2332000   0.86793022   -8.1376253    499.58647  0.017852576  0.017632211            3 
 2333000   0.88341067    -8.127702    501.41355  0.017910185  0.017626475            2 
 2334000    0.8718739   -8.1304832     500.9109  0.017884565  0.017620728            5 
 2335000   0.88352999   -8.1195527    502.88918  0.017947508  0.017615047            7 
 2336000   0.86671147   -8.1242473    500.79037  0.017864953  0.017609355           13 
 2337000   0.87236405   -8.1234702    502.42495  0.017915595  0.017603706            5 
 2338000   0.87282081   -8.1258495    501.67504  0.017881203  0.017598028            4 
 2339000   0.89237239   -8.1339146    501.30206   0.01786027  0.017592399            5 
 2340000   0.87485833    -8.141854     501.5534  0.017861588  0.017586743            8 
 2341000   0.87336683   -8.1106966    502.02212  0.017870644  0.017581054            6 
 2342000    0.8961355   -8.1224431    503.83739  0.017927604  0.017575449            4 
 2343000   0.88946759   -8.1165199    501.53268  0.017837981  0.017569876            2 
 2344000   0.88176395   -8.1060495    504.16537  0.017923968  0.017564278            2 
 2345000     0.859779   -8.1085743    503.10799  0.017878749  0.017558685            2 
 2346000   0.85995682   -8.1283141    502.23886  0.017840255  0.017553068            8 
 2347000     0.881305   -8.1046354    503.81094  0.017888473  0.017547478            3 
 2348000   0.88690936   -8.1276732    503.76629  0.017879269  0.017541915            6 
 2349000   0.86492337   -8.1300994    502.45988  0.017825312  0.017536338            3 
 2350000   0.87962754    -8.137045    502.07811  0.017804188  0.017530765            4 
 2351000   0.86946217   -8.1291241    502.55498  0.017813519  0.017525128            4 
 2352000   0.88041002   -8.1334967    502.73533  0.017812335  0.017519504            9 
 2353000   0.87415549   -8.1477385    500.67365  0.017731748  0.017513884           14 
 2354000   0.87356328   -8.1499061    501.87164  0.017766626   0.01750826            6 
 2355000    0.8661787    -8.132396    502.88356  0.017794889  0.017502641            6 
 2356000   0.87558645   -8.1119237     503.8759  0.017822436  0.017497032            2 
 2357000   0.85871896   -8.1443208    501.52064  0.017731602  0.017491382            4 
 2358000   0.85630556   -8.0922906    502.98934  0.017775987  0.017485793            4 
 2359000   0.86343838   -8.0979525    504.41894  0.017818954  0.017480235            3 
 2360000   0.88155454   -8.1090067    502.93844  0.017759126  0.017474627            2 
 2361000   0.88913528   -8.0932775    503.97349  0.017788137  0.017469037            4 
 2362000   0.85910481   -8.1148231    503.33797  0.017758184  0.017463493            3 
 2363000    0.8800537   -8.1292779    502.66457  0.017726921  0.017457916            2 
 2364000   0.86223616   -8.1513284    502.72632  0.017721599   0.01745234            3 
 2365000   0.89875361     -8.12742    503.70649  0.017748643  0.017446773            2 
 2366000   0.88709159   -8.1486944    504.18467  0.017757984  0.017441181            3 
 2367000   0.86980735   -8.1591541    502.85507  0.017703671  0.017435549            4 
 2368000   0.86094607   -8.1552331    503.97968  0.017735771  0.017429916            9 
 2369000   0.87817345   -8.1051584    504.70058  0.017753644  0.017424313            5 
 2370000   0.86655087   -8.1610796    502.46236  0.017667453  0.017418727            8 
 2371000   0.88817355   -8.1238919    505.11153  0.017753112  0.017413127            3 
 2372000   0.87743111   -8.1592556    504.20873   0.01771391  0.017407574            3 
 2373000   0.87791866   -8.1374896    503.29039  0.017674195  0.017402035            3 
 2374000   0.87931939   -8.1259579    504.78802  0.017719321   0.01739651            6 
 2375000   0.86430062   -8.1337907    504.89774   0.01771571  0.017390976            3 
 2376000   0.87851311   -8.1185666    505.36482  0.017724636  0.017385437            4 
 2377000   0.86970132   -8.1412526    503.51378  0.017652285  0.017379902            5 
 2378000   0.86011334   -8.1425358    504.20129  0.017668955  0.017374365            8 
 2379000   0.87479867   -8.1169174    505.05152   0.01769131  0.017368802            6 
 2380000   0.87529661   -8.1488027    504.35033  0.017659325  0.017363244            2 
 2381000   0.88170185   -8.1084584    505.73921  0.017700518  0.017357692            5 
 2382000   0.86542816     -8.14965    504.46549  0.017648527  0.017352092            3 
 2383000    0.8785363   -8.1870283    503.14156  0.017594823  0.017346456            5 
 2384000   0.85031925   -8.1549138    504.23471  0.017625654  0.017340823            3 
 2385000   0.87690132   -8.1258213    503.88768  0.017606138  0.017335218            4 
 2386000   0.86983936    -8.120093    504.82558  0.017631517  0.017329662            5 
 2387000    0.8583643   -8.1298658     505.3427  0.017642183  0.017324146            4 
 2388000   0.87208215   -8.1296588    505.99956  0.017657718  0.017318587            6 
 2389000   0.84681492   -8.1390326    505.20523  0.017622619   0.01731305            9 
 2390000   0.86095555   -8.1405284    505.17121  0.017614059  0.017307476            9 
 2391000    0.8674768   -8.1415222    505.79078  0.017628286  0.017301897            5 
 2392000   0.85202887   -8.1511423    504.87543  0.017589027  0.017296329            3 
 2393000   0.85579976   -8.1401622    504.61136  0.017572481   0.01729079            7 
 2394000   0.86724768   -8.1317252    506.13152  0.017618056  0.017285254            7 
 2395000   0.87720093   -8.1559271     506.2253  0.017613963  0.017279757            2 
 2396000   0.86960523   -8.1124409    505.95987   0.01759738  0.017274222            6 
 2397000   0.89451968   -8.0937754    507.41198  0.017640522  0.017268776            6 
 2398000   0.87874168   -8.1119907    506.61796  0.017605573  0.017263355            3 
 2399000   0.87398241   -8.1311446    506.97483   0.01761063  0.017257932            3 
 2400000   0.87850532    -8.134267    506.64639  0.017591888  0.017252513            4 
 2401000   0.85464782   -8.1186505    507.80499  0.017624774  0.017247094            2 
 2402000   0.87255564   -8.0887712    509.24175  0.017667283   0.01724168            4 
 2403000   0.86211144    -8.120707    508.34466   0.01762882  0.017236298            3 
 2404000   0.86830658   -8.1307543    507.11485  0.017578856  0.017230899            8 
 2405000   0.87565549   -8.1318267    507.44466  0.017582975  0.017225492            3 
 2406000   0.85482117   -8.1350383    507.85515  0.017589885  0.017220057            6 
 2407000   0.85779222   -8.1383588    507.41711  0.017567411  0.017214596            5 
 2408000   0.85891713   -8.1620335    506.66906  0.017534228  0.017209134            5 
 2409000   0.86467617   -8.1634957    507.56532  0.017557954  0.017203629            2 
 2410000   0.85667234   -8.1903549    507.36783  0.017543839  0.017198185            6 
 2411000   0.86806982   -8.1773396    506.96488  0.017522635  0.017192728            5 
 2412000   0.86570032   -8.1732292    507.65084   0.01753907  0.017187294            2 
 2413000   0.86748424   -8.1662617    507.43679  0.017524409  0.017181857            2 
 2414000   0.84930095   -8.1146582    508.61604  0.017557858  0.017176412            5 
 2415000   0.86213331   -8.1828357    507.80992  0.017522771     0.017171            3 
 2416000   0.85465591   -8.1684675    508.86069  0.017551762  0.017165541            6 
 2417000   0.85452908   -8.1488781      507.809   0.01750824  0.017160092            7 
 2418000   0.85502725   -8.1236106    507.11723  0.017477158  0.017154631            3 
 2419000   0.85873196   -8.1538001     508.0395  0.017501705  0.017149209            4 
 2420000   0.86197905   -8.1945135    507.14799  0.017463774  0.017143781            8 
 2421000   0.85137304   -8.1742428    508.99242  0.017520047  0.017138303            4 
 2422000    0.8714913   -8.1598655    507.76347   0.01747053  0.017132835            2 
 2423000   0.87096649   -8.1388979    508.62852  0.017493071  0.017127372            4 
 2424000   0.87789303   -8.1499034    508.22412  0.017471951  0.017121931            4 
 2425000    0.8832154   -8.1788855    507.74326  0.017448222  0.017116488           12 
 2426000   0.87756333   -8.1053637    510.21076  0.017525789   0.01711108            3 
 2427000   0.86124994   -8.1372773    509.29905  0.017487263  0.017105671            3 
 2428000    0.8566048   -8.1561244    508.23714  0.017443614   0.01710022            4 
 2429000   0.87031775   -8.1585621    507.54448  0.017412669  0.017094744            3 
 2430000   0.84503598   -8.1939785    507.13213  0.017391363  0.017089246           11 
 2431000   0.86571118   -8.1466083    508.04863  0.017415626  0.017083757            1 
 2432000   0.85151054   -8.1489899    507.69633  0.017396393    0.0170783            9 
 2433000   0.84723418   -8.1472382    508.73962  0.017424977  0.017072846            5 
 2434000   0.86042828   -8.1481635     509.5079  0.017444121  0.017067403            3 
 2435000   0.85332903   -8.1541143    509.21439  0.017426913  0.017061935           16 
 2436000   0.86417348   -8.1612925     508.4164   0.01739246  0.017056508            5 
 2437000   0.84161464   -8.1446582    508.45473  0.017386634  0.017051041            5 
 2438000   0.83956856   -8.1809447    508.68316  0.017387311  0.017045551            5 
 2439000   0.87549904   -8.2025883    509.30097   0.01740129   0.01704009           13 
 2440000   0.86956859   -8.1780789    508.29913  0.017359943   0.01703465           12 
 2441000   0.83925306   -8.1785609    508.36875  0.017355208  0.017029184            6 
 2442000   0.84533497   -8.1635565     509.3075  0.017380136  0.017023734            5 
 2443000   0.85978135   -8.1484405    509.64595  0.017384566   0.01701831            6 
 2444000   0.88500853   -8.1437322    508.69609  0.017345066  0.017012896            6 
 2445000   0.86061934   -8.1620792    510.41186  0.017396451  0.017007467            8 
 2446000   0.85056121   -8.2016197    509.47093  0.017357282  0.017001983           10 
 2447000   0.86948663   -8.1665663    509.43102  0.017348829  0.016996505            4 
 2448000   0.85918685   -8.2080725    506.90784   0.01725585  0.016991043            3 
 2449000   0.85708688    -8.170297    508.92253  0.017317359  0.016985558            6 
 2450000   0.87946511   -8.1864026    508.74189  0.017304146  0.016980074            6 
 2451000   0.86825507    -8.179379    507.84669  0.017266649   0.01697454            5 
 2452000   0.86886775   -8.1806052     508.6051  0.017285383  0.016969022            9 
 2453000   0.85790939   -8.1726355    509.04879  0.017293409  0.016963513            5 
 2454000   0.84761741    -8.194379    509.32273  0.017295665  0.016957994            6 
 2455000   0.86173079   -8.1771642    508.78998  0.017270536  0.016952506            4 
 2456000   0.84287564   -8.1837356    509.78314  0.017297202  0.016947012           10 
 2457000   0.86049914   -8.1848991    508.90147  0.017260259  0.016941484            5 
 2458000   0.85537301   -8.1917461    508.96687  0.017255454   0.01693596            5 
 2459000   0.86141431    -8.188662    507.39304  0.017195101  0.016930445            3 
 2460000   0.85072834   -8.1605704    510.43059  0.017291009  0.016924934            4 
 2461000   0.85086336   -8.1447555    510.42928  0.017283939  0.016919455            2 
 2462000   0.85661216   -8.1864773    510.24329  0.017270623  0.016913986            7 
 2463000   0.85875247   -8.1347646    510.59877  0.017275638  0.016908513            2 
 2464000   0.85198999   -8.1634566    510.31943   0.01725918  0.016903068            6 
 2465000   0.86163856   -8.2043907    510.08912  0.017244392  0.016897613            7 
 2466000   0.87356098   -8.1681707    510.47586  0.017250468  0.016892134            3 
 2467000   0.89048249   -8.1577502    510.65164  0.017249414  0.016886669            8 
 2468000   0.85904444   -8.1971118     509.0964  0.017189911   0.01688117            9 
 2469000   0.85886912   -8.2207185    508.29212  0.017155803  0.016875647            3 
 2470000   0.86599472   -8.1837435    510.65152  0.017228459  0.016870122            5 
 2471000   0.86251682    -8.185758    509.25252  0.017174306  0.016864634            3 
 2472000   0.86751274   -8.2002546    510.49522  0.017209251  0.016859157            2 
 2473000   0.85696261   -8.1983119    509.51593  0.017169293  0.016853698            8 
 2474000   0.84361784   -8.1724271    510.30604  0.017188967  0.016848198            5 
 2475000   0.85063657   -8.1683705    511.20768   0.01721238   0.01684271            7 
 2476000   0.84654526   -8.1619276    509.96411  0.017163574  0.016837276            3 
 2477000   0.84801043   -8.1682089    512.09246  0.017228248  0.016831847            3 
 2478000   0.85845078   -8.1653953    512.00385  0.017218316  0.016826441            2 
 2479000   0.85042841   -8.2067269     510.4234  0.017158243  0.016821038            5 
 2480000   0.83789713   -8.1827805    511.48596  0.017187028  0.016815607            4 
 2481000   0.84854255   -8.2291294    510.48472   0.01714647   0.01681016            4 
 2482000   0.85694905   -8.1998849    509.82515  0.017117417  0.016804719            3 
 2483000   0.86077772   -8.1623275    512.07808  0.017186135  0.016799312            3 
 2484000     0.849376   -8.2160367    509.24997  0.017084339  0.016793879            6 
 2485000    0.8430458   -8.1950281    511.72297  0.017160395  0.016788461            2 
 2486000   0.85118509    -8.218403    510.59804  0.017115783  0.016783023            3 
 2487000   0.84741884   -8.1776193    511.00081  0.017122397  0.016777603            3 
 2488000   0.85322628   -8.1753025    511.22755  0.017123109  0.016772165            4 
 2489000   0.85712673   -8.1866244    511.76477  0.017134216  0.016766747            2 
 2490000   0.84188899   -8.1955352    511.37019   0.01711413  0.016761322            2 
 2491000   0.83947763   -8.1959594    511.45546  0.017110112  0.016755895            3 
 2492000   0.84378841   -8.2282718    511.04117  0.017089392  0.016750482            5 
 2493000   0.84468166   -8.1778763     511.8383  0.017109182  0.016745063           10 
 2494000   0.85909879   -8.2042248    511.17682   0.01708022  0.016739632            3 
 2495000   0.84819176   -8.1829268    512.94429  0.017132408  0.016734237            5 
 2496000   0.86477286   -8.2032588    511.54888  0.017078956  0.016728853            5 
 2497000   0.83288475   -8.1869241    511.36591   0.01706601  0.016723454            2 
 2498000   0.84186169   -8.2090624    513.91077  0.017144074  0.016718087            2 
 2499000   0.84731806   -8.1814069    512.60462  0.017093658  0.016712734            5 
 2500000   0.84878073   -8.1698622    512.57129   0.01708571  0.016707371            4 
 2501000   0.86935585   -8.1977959    512.17513  0.017065678  0.016702013            5 
 2502000   0.85750803   -8.1945155    512.84638  0.017081214  0.016696669            3 
 2503000   0.84618424   -8.1609586     513.5719  0.017098545  0.016691322            4 
 2504000   0.84616635   -8.1955572    512.26757  0.017048308  0.016685985            6 
 2505000    0.8461799   -8.1562728    513.55091  0.017084195   0.01668065            5 
 2506000    0.8521435   -8.1868585    511.63949  0.017013817  0.016675297            4 
 2507000   0.85451474    -8.182388    514.04829  0.017087099  0.016669946            2 
 2508000   0.84146509   -8.1697612     512.7008  0.017035513  0.016664599            5 
 2509000    0.8460313   -8.2179513    512.71641  0.017029242  0.016659229            2 
 2510000   0.85566854   -8.2097171    513.54931   0.01705011  0.016653867            2 
 2511000   0.84393948   -8.2216365    512.06441   0.01699404  0.016648519            7 
 2512000   0.86291365   -8.2069313    512.68644   0.01700791  0.016643128            9 
 2513000   0.84872058   -8.2050054    513.62445  0.017032247   0.01663776            5 
 2514000   0.84863219    -8.193557    514.43098  0.017052207   0.01663241            5 
 2515000   0.84276933   -8.1807715    514.01553  0.017031661  0.016627066            4 
 2516000   0.85934436   -8.1963806    513.26877  0.017000158  0.016621721            3 
 2517000   0.84499136   -8.2209988    514.11556   0.01702144  0.016616351            3 
 2518000   0.87372937   -8.2498898    512.72949  0.016968808  0.016610982            5 
 2519000   0.84191616    -8.238948    512.91359  0.016968162  0.016605592            5 
 2520000   0.85545198   -8.2283212    512.84696  0.016959225  0.016600205            4 
 2521000   0.83436867   -8.2527766    513.07266  0.016959958  0.016594785            8 
 2522000   0.84682985   -8.2365434    513.34176  0.016962125  0.016589376            8 
 2523000   0.84173737   -8.2569993    513.46575  0.016959497  0.016584035            3 
 2524000   0.83420919   -8.2043009    513.72325   0.01696128  0.016578704            2 
 2525000   0.84991788   -8.1868714    514.72031  0.016987469  0.016573428            6 
 2526000   0.83147751   -8.1920783    514.43228  0.016971242  0.016568185            4 
 2527000    0.8504078   -8.1955826    513.79256   0.01694343   0.01656289            2 
 2528000   0.82977445   -8.1629806     514.6227  0.016964092  0.016557633            4 
 2529000   0.84142364   -8.1779004    516.04536  0.017004263  0.016552381            3 
 2530000   0.83808494   -8.2153794    514.80562  0.016956707  0.016547092            3 
 2531000     0.831859   -8.1959078    516.38676  0.017002066  0.016541827            2 
 2532000   0.84280277   -8.2211741     514.7037  0.016939959  0.016536549            3 
 2533000   0.83770486   -8.2107305    514.86934   0.01693872  0.016531263            3 
 2534000   0.84824054   -8.2122222    515.96023  0.016967911  0.016526012            3 
 2535000   0.84975511   -8.1674304    515.40922  0.016943104  0.016520758            4 
 2536000   0.84192683   -8.2050947    514.49542  0.016906395  0.016515514            5 
 2537000   0.83099633   -8.1801767    515.18513  0.016922386  0.016510257            6 
 2538000   0.86376228   -8.2096223    514.57146  0.016895569  0.016504977            7 
 2539000   0.84792209   -8.1916849    514.36932   0.01688228  0.016499705            9 
 2540000    0.8394387   -8.1696077    515.49543   0.01691258  0.016494456            7 
 2541000   0.84828441   -8.1805767    515.83159  0.016916948  0.016489204            6 
 2542000   0.85130957   -8.2290552    515.15208  0.016888017   0.01648395            4 
 2543000   0.85379998   -8.2007809     514.8135  0.016870281  0.016478692            3 
 2544000   0.84445702   -8.2457519    514.30496  0.016846992  0.016473383            2 
 2545000   0.83523605   -8.2206407    515.89532  0.016892447  0.016468117            5 
 2546000   0.86161256   -8.2219304    516.71933  0.016912783  0.016462857            6 
 2547000   0.83482875   -8.1814975     516.5329  0.016900042  0.016457573            3 
 2548000   0.82824729   -8.2081452    515.65362  0.016864653  0.016452307            2 
 2549000   0.85074184   -8.2059366    515.61382  0.016856735  0.016446996            3 
 2550000   0.83965282   -8.2298894    515.21943  0.016837236  0.016441718            4 
 2551000   0.84751931   -8.2092178    516.19697  0.016862569  0.016436452            6 
 2552000   0.84296174   -8.2348842    515.12319  0.016820898   0.01643117            3 
 2553000   0.85097962   -8.2259447    516.25015  0.016851095  0.016425917            6 
 2554000   0.84609171   -8.2225028    515.61879  0.016823897  0.016420638            9 
 2555000   0.84596837   -8.2205085    515.76554  0.016822098  0.016415385            7 
 2556000   0.83021628   -8.1988789    515.90039  0.016819914  0.016410103            2 
 2557000   0.84397825    -8.207615    516.21833  0.016823698  0.016404834            2 
 2558000   0.83063915   -8.2159809    516.04769  0.016811561  0.016399582            2 
 2559000   0.84546079   -8.1982486    517.76688  0.016860977  0.016394364            5 
 2560000   0.84441507   -8.2563272    515.22127  0.016771526  0.016389109            4 
 2561000   0.83827724   -8.2263286    516.40325  0.016803438  0.016383831            5 
 2562000   0.84001144   -8.2204024    515.50949  0.016767808  0.016378583           12 
 2563000   0.84530586   -8.2373751     517.9367  0.016840184  0.016373334            3 
 2564000    0.8276054   -8.1915552    517.26276  0.016811712  0.016368071            8 
 2565000   0.85116068   -8.2050914    516.48974  0.016780044  0.016362826            5 
 2566000   0.82566085   -8.1979457    516.56168   0.01677584  0.016357584            2 
 2567000    0.8409572   -8.1875633    516.88191  0.016779701  0.016352351            5 
 2568000   0.83904877   -8.2209509    515.40526  0.016725249  0.016347098            2 
 2569000   0.84392432   -8.1867565    516.20335  0.016744627  0.016341816            6 
 2570000    0.8371749   -8.2233928    516.06639   0.01673367  0.016336558            7 
 2571000   0.83132045   -8.2034167    516.99055  0.016757116  0.016331273            4 
 2572000   0.84009672   -8.2260246    515.92689  0.016716138  0.016325988           23 
 2573000   0.84156253   -8.2440995    515.64307  0.016700449  0.016320649            6 
 2574000   0.83378087   -8.2810796    515.09681  0.016676276   0.01631527            7 
 2575000   0.83592908   -8.2621568    515.30404  0.016676506  0.016309891            2 
 2576000   0.84426915   -8.2470674    515.44687  0.016674653  0.016304542            4 
 2577000    0.8339232   -8.2408146    515.73951  0.016677645  0.016299181            8 
 2578000   0.83697189   -8.2317144    515.27469  0.016656151  0.016293825            6 
 2579000   0.83028034   -8.2361053    516.72562  0.016696576  0.016288489            3 
 2580000   0.84501685   -8.2520895    515.55997  0.016652454  0.016283152            9 
 2581000   0.83847198    -8.256884    516.77896   0.01668536  0.016277854            4 
 2582000   0.84072656   -8.2350352    517.42824  0.016699853   0.01627259            4 
 2583000   0.85097019   -8.2190409    517.05656  0.016681396   0.01626732            4 
 2584000   0.82950898    -8.220992    517.17246  0.016678679  0.016262053            3 
 2585000   0.83650256   -8.2337269    516.61905  0.016654386  0.016256759            4 
 2586000     0.849592   -8.2290938    516.13625  0.016632388  0.016251479            4 
 2587000   0.83848352   -8.2376892    517.11595  0.016657517    0.0162462            5 
 2588000   0.83427752   -8.2325887    517.26316   0.01665582  0.016240912            5 
 2589000   0.82103978   -8.2697808    515.81505  0.016602776  0.016235608            4 
 2590000   0.83790839   -8.2203684    517.30033  0.016644155  0.016230332            6 
 2591000    0.8396395   -8.2300957    515.58589   0.01658259  0.016225065            6 
 2592000   0.81820851   -8.2349761    517.03996  0.016622941   0.01621976            4 
 2593000    0.8420335   -8.2479852    516.34382  0.016594158  0.016214459            7 
 2594000   0.84140104   -8.2839713    515.97217  0.016575822  0.016209158            4 
 2595000   0.83244588   -8.2550634    515.76299  0.016562716  0.016203836            3 
 2596000   0.83876612   -8.2366597    515.74394  0.016555725  0.016198537            3 
 2597000   0.84294264   -8.2507049    517.23835  0.016597303  0.016193257            3 
 2598000   0.84203296   -8.2587688    515.58295  0.016537816  0.016187989            8 
 2599000   0.84023708   -8.2255922    518.14658  0.016613652  0.016182737            6 
 2600000   0.84967087   -8.2309282    518.40498  0.016615544  0.016177498           11 
 2601000    0.8304747   -8.2360518    517.34971  0.016575346  0.016172213            7 
 2602000    0.8351676   -8.2512396    517.47008  0.016572831  0.016166955            6 
 2603000   0.82669751   -8.2009593    518.55179  0.016601094  0.016161747            9 
 2604000   0.81630136   -8.2388106    518.50006  0.016593064  0.016156562            6 
 2605000   0.84495036   -8.2348684    518.01106  0.016571051  0.016151354            8 
 2606000   0.81225199   -8.2550271    518.37736  0.016576406  0.016146128            3 
 2607000   0.84907501   -8.2517269    516.73687  0.016517609  0.016140892            3 
 2608000   0.83339303    -8.254708    518.77245  0.016576318  0.016135654            2 
 2609000   0.83539168   -8.2436537     517.5163  0.016529842  0.016130402            5 
 2610000   0.83349784   -8.2404965    518.47513  0.016554123   0.01612517           10 
 2611000   0.81058295   -8.2363591    517.88076  0.016528813  0.016119948            6 
 2612000   0.81071993    -8.243778    518.06081  0.016528229  0.016114735            4 
 2613000    0.8365174   -8.2272135    517.98225  0.016519398  0.016109541            4 
 2614000   0.82913624   -8.2092601    519.00207   0.01654559  0.016104379            5 
 2615000   0.84377319   -8.2140717    519.97806  0.016570365  0.016099203            5 
 2616000   0.81488471   -8.2458375    518.40466   0.01651391  0.016094011            3 
 2617000   0.83746071   -8.2713788    518.78839  0.016519819  0.016088818           19 
 2618000     0.853615   -8.2733481    518.25742  0.016496608  0.016083612           11 
 2619000   0.84658372   -8.2461291    519.76502  0.016538279   0.01607839            7 
 2620000   0.82313567   -8.2546289    519.21535  0.016514483  0.016073166            7 
 2621000   0.84415599   -8.2708565    519.20624  0.016507893  0.016067963            4 
 2622000   0.82853271   -8.2341228    519.00978  0.016495353  0.016062782           12 
 2623000    0.8289651   -8.2347142    519.66279   0.01650981  0.016057602            6 
 2624000   0.82725765   -8.2558778    519.32752  0.016492871  0.016052417            5 
 2625000   0.83833988    -8.254631    521.92826  0.016569151  0.016047246            8 
 2626000    0.8369463   -8.2484764    519.80185  0.016495362  0.016042075            9 
 2627000   0.83867469   -8.2292614    520.41235  0.016508449  0.016036933            3 
 2628000   0.84959021   -8.2426415    520.13408  0.016493343  0.016031762            3 
 2629000   0.84291209   -8.2943481    520.27089  0.016491406  0.016026598            7 
 2630000   0.82917846   -8.2586963     519.0726  0.016447167   0.01602145            3 
 2631000   0.82595584   -8.2648479    519.51249  0.016454849  0.016016278            8 
 2632000    0.8279469   -8.2506313    519.71512  0.016455013  0.016011096            7 
 2633000   0.84301281   -8.2827559     519.5402  0.016443227  0.016005904            5 
 2634000    0.8438184   -8.2697628     519.6483  0.016440404   0.01600075            3 
 2635000   0.83752506    -8.274102    519.31158  0.016423516  0.015995546            9 
 2636000   0.81920763   -8.2863624     519.4441  0.016421475  0.015990371            7 
 2637000   0.81380623   -8.2363409    520.48872  0.016448259  0.015985183            4 
 2638000   0.81585964   -8.2305374    520.62362  0.016446286  0.015980035            2 
 2639000   0.84112489   -8.2640271    520.18199  0.016426108  0.015974933            4 
 2640000   0.82047907   -8.2657678    520.76484  0.016438284    0.0159698            4 
 2641000   0.82710617   -8.2452648     521.9255  0.016468683  0.015964681            3 
 2642000   0.81040982   -8.2647918    521.12208  0.016437108  0.015959561            7 
 2643000   0.83822317   -8.2385571    521.24341  0.016434715  0.015954451            4 
 2644000   0.82734892   -8.2596301    520.37022  0.016400978  0.015949348            3 
 2645000   0.83665513   -8.2362693    520.98847  0.016414255   0.01594425            5 
 2646000   0.84124029   -8.2503597    519.80047  0.016370637  0.015939136            7 
 2647000    0.8456359   -8.2981343    520.75301   0.01639444  0.015934025            5 
 2648000   0.84920502   -8.2735031    520.94577  0.016394316  0.015928902           11 
 2649000   0.81514308   -8.2714761    519.87487  0.016354438  0.015923773            4 
 2650000   0.81209188   -8.2664431    519.65395  0.016341319  0.015918609            4 
 2651000   0.81563824   -8.2651322    520.26251  0.016354285  0.015913468            5 
 2652000   0.84479839   -8.2661275    520.09759  0.016342936  0.015908326            4 
 2653000   0.83116945   -8.2506997    521.07592  0.016367506  0.015903198            9 
 2654000   0.82877669   -8.2432941    521.25405  0.016366932  0.015898081            5 
 2655000   0.81117501   -8.2550075    520.87943  0.016349009  0.015892974            6 
 2656000   0.82452934   -8.2711736    521.03002  0.016347579  0.015887847            5 
 2657000   0.81900454    -8.288915    521.19211   0.01634651   0.01588272           13 
 2658000   0.81761499   -8.2609169    521.45221  0.016348514  0.015877601            9 
 2659000   0.83688881   -8.2831853    521.77166  0.016352378  0.015872499            6 
 2660000   0.83549501   -8.2593019    521.43982  0.016335834  0.015867407            5 
 2661000   0.84145243     -8.24282    522.42665  0.016360599  0.015862335            5 
 2662000   0.82559415   -8.2836016     521.5729  0.016327727  0.015857266           10 
 2663000   0.81908873   -8.2500745    521.94908  0.016333367   0.01585217            2 
 2664000   0.82310983   -8.2711358    523.04853  0.016361628  0.015847112            3 
 2665000   0.84367682   -8.2425236    522.25834   0.01633078  0.015842023            3 
 2666000   0.83237236   -8.2902713    519.94336  0.016252293  0.015836921            2 
 2667000   0.83247818   -8.2921871    522.08147  0.016313007  0.015831799            3 
 2668000   0.82416352   -8.3069309    521.00357  0.016273225  0.015826677            7 
 2669000   0.83478601   -8.2844725    521.18688  0.016272851  0.015821552            9 
 2670000   0.82844569   -8.2743525    522.12306  0.016295976  0.015816441            7 
 2671000   0.81549483   -8.3067649    522.17027  0.016291347  0.015811333            3 
 2672000   0.82911299   -8.2805266    521.80207  0.016273767  0.015806223            2 
 2673000    0.8228114   -8.3121878    521.44852  0.016256657  0.015801101            8 
 2674000   0.82446667   -8.2966188    522.16194   0.01627281  0.015796025            5 
 2675000   0.81537932   -8.2916873     521.3169  0.016240402  0.015790929            3 
 2676000   0.84240756   -8.2926758    521.76649  0.016248334  0.015785851            5 
 2677000   0.84084855   -8.3050444    522.28265  0.016258332  0.015780766            4 
 2678000    0.8258539   -8.2780485    521.09353  0.016215258  0.015775684            2 
 2679000   0.84058801   -8.2888796    522.21769  0.016244173  0.015770613            4 
 2680000   0.81731386   -8.2725968    522.24511  0.016238965  0.015765555            2 
 2681000   0.80817775   -8.2981285    522.15878  0.016230224  0.015760499            6 
 2682000   0.80907882   -8.2598129    524.63283  0.016301045  0.015755438            4 
 2683000   0.82292212   -8.2732509    522.27521  0.016221742   0.01575039            3 
 2684000   0.81835385    -8.281773    522.57357  0.016224962  0.015745314            6 
 2685000   0.79452936   -8.2925145    521.97812  0.016200438  0.015740232            6 
 2686000   0.82722723    -8.281331    521.93006  0.016192916  0.015735146            3 
 2687000   0.82814715   -8.2795442    523.44469  0.016233863  0.015730067            5 
 2688000   0.81868666   -8.2882797    524.03185  0.016246027  0.015725002            7 
 2689000   0.83241229   -8.2599572    523.77498  0.016232025  0.015719966            5 
 2690000   0.82080551   -8.2814783    523.52842  0.016218353  0.015714951            5 
 2691000   0.83921407   -8.2669096    523.29455  0.016205083  0.015709935            5 
 2692000   0.83584834   -8.2479304    524.05093  0.016222478  0.015704916            7 
 2693000   0.82151711   -8.2666922    523.57101  0.016201603  0.015699914            6 
 2694000   0.84474225   -8.2805969    524.14508  0.016213347    0.0156949            4 
 2695000    0.8102602   -8.2684771    524.08107  0.016205352  0.015689877            6 
 2696000    0.8117415   -8.2971987    523.61475  0.016184927  0.015684864            2 
 2697000   0.83413194   -8.2738284    523.24242  0.016167421   0.01567985            3 
 2698000   0.81385209   -8.2460357    523.41238  0.016166678  0.015674827            3 
 2699000   0.82565847   -8.2667693    525.32042    0.0162196  0.015669798            3 
 2700000    0.8261526    -8.271338    522.98516  0.016141517  0.015664801            3 
 2701000   0.80771701   -8.2994103    523.62569  0.016155303  0.015659743            4 
 2702000   0.81282393   -8.3085206    523.34457  0.016140654  0.015654695            5 
 2703000    0.8271129   -8.2900503    524.12687  0.016158801  0.015649649            6 
 2704000   0.82058938   -8.3110838    523.41057   0.01613075  0.015644604            6 
 2705000   0.82521542   -8.2921945    524.01411   0.01614338  0.015639539            1 
 2706000   0.81852634   -8.3136221    522.46187  0.016089612  0.015634492            7 
 2707000   0.80030767   -8.3296304    523.92413  0.016128683  0.015629443            8 
 2708000   0.82829822   -8.3066991    524.09485   0.01612798  0.015624392            9 
 2709000   0.80521695     -8.31293    522.48292  0.016072441  0.015619313            6 
 2710000   0.81937225    -8.294533    522.07354  0.016053922   0.01561425            3 
 2711000   0.82982989   -8.2915422    523.94884  0.016105645  0.015609188            5 
 2712000   0.81199385   -8.3316206    523.00222  0.016070619   0.01560412            6 
 2713000   0.83422544   -8.3227906    523.65901  0.016084869  0.015599067            6 
 2714000   0.80622949   -8.3058347    523.79904  0.016083242  0.015593995            5 
 2715000   0.83336171    -8.327151    522.13015  0.016026094  0.015588929            5 
 2716000    0.8195986   -8.2876589    524.52952  0.016093812   0.01558387            4 
 2717000   0.82269435   -8.3044492    522.95445  0.016039579  0.015578818            2 
 2718000   0.81894238   -8.3186096    522.44586  0.016018085  0.015573778            5 
 2719000   0.80857313   -8.3194282     524.2911  0.016068748  0.015568736            2 
 2720000   0.82758036   -8.2925971    524.21312  0.016060451  0.015563706           10 
 2721000   0.82549515   -8.3073258    524.08116  0.016050507  0.015558644            6 
 2722000   0.84087524   -8.2995358    525.02237  0.016073425  0.015553574            4 
 2723000   0.80895272   -8.3200919    522.59591  0.015993265    0.0155485            3 
 2724000   0.81730791   -8.3142778    524.29487  0.016039368  0.015543392            7 
 2725000   0.82921851   -8.3180241    523.53386   0.01601021  0.015538301            6 
 2726000   0.80555813   -8.3068481     523.2914  0.015996925  0.015533199            4 
 2727000   0.81264356   -8.3050515    523.98283  0.016012188  0.015528112            5 
 2728000   0.81085348   -8.3520998    522.13723   0.01594994  0.015523007            2 
 2729000   0.80316026   -8.3010121    522.45211   0.01595371  0.015517919            4 
 2730000   0.82299083   -8.3010798    523.08941   0.01596732  0.015512813            8 
 2731000   0.82383257   -8.3251887    522.98845  0.015958393  0.015507729           10 
 2732000   0.83121674   -8.2891307    523.11514  0.015956416  0.015502623           10 
 2733000   0.82720745   -8.3107699    523.04385  0.015948404  0.015497539            7 
 2734000   0.82063907   -8.3627102    522.83306  0.015936146  0.015492445            6 
 2735000   0.79746518   -8.3059315     524.3706  0.015977166  0.015487363            3 
 2736000   0.81543551   -8.3133996    523.84531  0.015955327  0.015482301           33 
 2737000   0.79851697   -8.3033424    523.00068  0.015923781  0.015477221           24 
 2738000   0.81073263   -8.2797939    523.23427  0.015925075  0.015472171            9 
 2739000   0.81931838   -8.3027968    524.16422  0.015947554  0.015467124            7 
 2740000   0.81327047   -8.3167958    524.79454  0.015960905  0.015462082           11 
 2741000   0.82175025   -8.3155329    522.84911  0.015895936  0.015457025           19 
 2742000   0.81580883   -8.3136357    522.19875  0.015870373  0.015451941            4 
 2743000   0.80279353   -8.2694396    525.20043  0.015955779  0.015446875            7 
 2744000   0.81739828   -8.2638416    523.21249  0.015889592  0.015441814           22 
 2745000   0.81849171   -8.2874316    523.47044  0.015891635  0.015436741           30 
 2746000   0.80008748   -8.3007272    524.06724  0.015903958  0.015431664           35 
 2747000   0.82953627   -8.3396679    523.52034  0.015881578  0.015426572           23 
 2748000    0.8172191    -8.328149    522.58898  0.015847555  0.015421476           28 
 2749000   0.81591263   -8.3186499    523.77773  0.015877826  0.015416365            9 
 2750000   0.81280891   -8.2944942    524.34943  0.015889377  0.015411256           16 
 2751000   0.82843955   -8.3403917    523.43159  0.015855798  0.015406179           30 
 2752000   0.82462779   -8.3336805    522.89925  0.015833916   0.01540107           23 
 2753000    0.8135639   -8.3381381    522.66115  0.015820957  0.015395945           16 
 2754000   0.80685079   -8.3188048    523.22951  0.015832411   0.01539083           12 
 2755000   0.82202526   -8.3084887    524.13532  0.015854063  0.015385716            5 
 2756000    0.8166042   -8.3549209    524.10197  0.015847302  0.015380606           16 
 2757000   0.83491287   -8.2949736    523.51516  0.015823817  0.015375501           33 
 2758000   0.79448857   -8.2947632    524.00036   0.01583274  0.015370415           15 
 2759000   0.81622115    -8.321559    523.29076  0.015805568  0.015365311           24 
 2760000   0.82205704    -8.308233    524.39189  0.015833089  0.015360231           12 
 2761000   0.80313981   -8.3201544    523.50201  0.015800495  0.015355148           13 
 2762000   0.81323961   -8.3428606     522.7549  0.015772233  0.015350045           20 
 2763000   0.80074342   -8.3290495    523.98396  0.015803594  0.015344951            9 
 2764000   0.80837818   -8.2949828    525.08491  0.015831069  0.015339881            7 
 2765000     0.816612    -8.322534    523.86854  0.015788684   0.01533484            8 
 2766000    0.8177102   -8.2912118    523.85534  0.015782578  0.015329808           11 
 2767000   0.81848354   -8.2892679    525.75694  0.015834145  0.015324756            7 
 2768000   0.82110016     -8.32253    525.63374  0.015824715  0.015319737            3 
 2769000   0.82863075   -8.2788458    525.19158  0.015805693  0.015314711           11 
 2770000   0.79300193    -8.302876    523.75303   0.01575671  0.015309683            7 
 2771000   0.81374388   -8.3166784    523.45961  0.015742199  0.015304633           12 
 2772000   0.82305839   -8.3315067    524.33572  0.015762858  0.015299573            3 
 2773000   0.79934487   -8.2924481    524.09848  0.015750044  0.015294494            7 
 2774000   0.81219497   -8.2929149    524.26513  0.015749373  0.015289428            8 
 2775000   0.78605394   -8.2905417    524.20304  0.015741833  0.015284372            4 
 2776000   0.81344937    -8.282886     524.3392   0.01574025  0.015279328           10 
 2777000    0.8225389   -8.3116248    524.33709  0.015734518  0.015274276            4 
 2778000   0.80218678   -8.3160322    525.26163  0.015756588  0.015269238            6 
 2779000   0.79817783   -8.2585216    524.98083  0.015742498  0.015264175            3 
 2780000   0.81784057   -8.3073305    523.96158  0.015706282  0.015259114            3 
 2781000    0.8008077   -8.2613632    524.98117  0.015731187  0.015254053            3 
 2782000   0.79054081   -8.3108782    523.95097  0.015694673  0.015248991           18 
 2783000     0.800816   -8.3126996    524.06203  0.015692359  0.015243928            5 
 2784000   0.80284706   -8.3122998    524.73449  0.015706851  0.015238876            7 
 2785000   0.82315302   -8.2697172    524.36014   0.01569001  0.015233836            4 
 2786000    0.7924951   -8.3055699    524.18136  0.015679031  0.015228783            9 
 2787000   0.79828157   -8.3460699    523.91235  0.015665362  0.015223695            4 
 2788000   0.80201186   -8.3461845    523.78934  0.015656066  0.015218601            8 
 2789000    0.8012161   -8.2992456    523.88701  0.015653371  0.015213541           13 
 2790000    0.8258235   -8.3224389    524.76833  0.015674084  0.015208507            4 
 2791000   0.80350054   -8.3018372    524.76516  0.015668373  0.015203446            9 
 2792000    0.8027131   -8.3107703    524.25455  0.015647521  0.015198382            8 
 2793000   0.82368675   -8.3165377    525.01632  0.015664647   0.01519332            5 
 2794000   0.80892613   -8.3327817    525.09306   0.01566133  0.015188271            7 
 2795000    0.7937861   -8.3132224    524.03454  0.015624166  0.015183202            4 
 2796000   0.81888038   -8.3362909    523.94084  0.015615786  0.015178137            8 
 2797000   0.81809365   -8.3232293     525.8144  0.015666023  0.015173084            5 
 2798000    0.8182219   -8.3550911    524.76031   0.01562903  0.015168023           12 
 2799000   0.81162419   -8.2980034     524.0505  0.015602313  0.015162937            4 
 2800000   0.81865604   -8.3197958    525.17648  0.015630252  0.015157853            3 
 2801000   0.79744638   -8.3385712    525.04715  0.015620824  0.015152772            6 
 2802000   0.82088106    -8.342986    525.21633  0.015620281  0.015147697            5 
 2803000   0.78961091   -8.3555385    524.81602  0.015602807  0.015142612           11 
 2804000   0.81430204   -8.3491439    523.88561  0.015569591  0.015137562           12 
 2805000   0.81365071   -8.3321052    525.40831  0.015609278  0.015132523            6 
 2806000   0.79439923   -8.3374888    524.64782   0.01558113  0.015127457            9 
 2807000   0.79539485   -8.3287212    524.15957  0.015561085   0.01512238           16 
 2808000   0.79965257   -8.3464621    524.75489   0.01557321    0.0151173            5 
 2809000    0.8055066   -8.3544196    524.29893  0.015554139  0.015112191            3 
 2810000    0.8035657   -8.3621127    524.45689  0.015553288  0.015107062            6 
 2811000   0.80750491   -8.3482274    523.77466  0.015527531  0.015101958           11 
 2812000   0.79482141   -8.3423956    524.89905   0.01555533  0.015096871            3 
 2813000   0.79099129    -8.344331    525.30493  0.015561824  0.015091781           12 
 2814000   0.79436904   -8.3446461    525.14568  0.015551578  0.015086705            9 
 2815000    0.7939227   -8.3578974    524.79741  0.015535743  0.015081609           18 
 2816000    0.8067178   -8.3703044    524.48662  0.015521029  0.015076542            8 
 2817000    0.7891737   -8.3777317    525.07223  0.015532843  0.015071472            7 
 2818000    0.8155549   -8.3534866    524.31952  0.015505072  0.015066404            4 
 2819000    0.8109724   -8.3267879    526.68391  0.015569466  0.015061354            7 
 2820000   0.80567782   -8.3713608    524.69722  0.015505237  0.015056302            7 
 2821000   0.78198235   -8.3166656    525.25854  0.015516322  0.015051266            2 
 2822000   0.79830486   -8.3308439    525.36306   0.01551391  0.015046225            8 
 2823000    0.7942705   -8.3580014    525.02545  0.015498449  0.015041175            4 
 2824000   0.81168361   -8.3269892    526.88343  0.015547788   0.01503614            1 
 2825000   0.81167654   -8.3274407    526.53606  0.015532037  0.015031122            4 
 2826000   0.80231225   -8.3517839     527.1846  0.015545665  0.015026104            4 
 2827000   0.80117141   -8.3095187    525.99174  0.015505003  0.015021108           10 
 2828000    0.8080945   -8.3630498     525.1685  0.015475262  0.015016055            5 
 2829000   0.81084918   -8.3627924    525.08432  0.015467312  0.015010982            5 
 2830000   0.79610112   -8.3424648    525.57512  0.015476299  0.015005909            3 
 2831000   0.80380051   -8.3319688    525.30096  0.015462762  0.015000873            3 
 2832000   0.81313542   -8.3110682    526.24644  0.015485124  0.014995847            3 
 2833000   0.80002722   -8.3414133    525.92293  0.015470141  0.014990813            3 
 2834000   0.80708511   -8.3391564    525.41998  0.015449894  0.014985781            7 
 2835000   0.79427986   -8.3585515    526.44977  0.015474714  0.014980754            6 
 2836000   0.80697249   -8.3201467    526.42055  0.015468399   0.01497572            5 
 2837000    0.7898328   -8.3338825    525.58731  0.015438471  0.014970675            7 
 2838000   0.80513635   -8.3509646    524.33768  0.015396338  0.014965618            3 
 2839000   0.81588039   -8.3416894     525.1193  0.015413858  0.014960567            7 
 2840000   0.80460521   -8.3549739    524.33804  0.015385506  0.014955537            4 
 2841000   0.79576512    -8.352019    524.45065  0.015383394  0.014950483            3 
 2842000   0.79654654   -8.3808415    524.34128  0.015374774  0.014945405            6 
 2843000   0.78964148   -8.3753118    524.64177  0.015378174  0.014940317            3 
 2844000   0.81453365   -8.3359133    525.36103  0.015393842  0.014935252            6 
 2845000   0.79219594   -8.3420656    525.41228  0.015389932  0.014930217            7 
 2846000   0.78969213   -8.3310765    525.55522   0.01538871  0.014925157           10 
 2847000    0.7986022   -8.3667995    523.93051  0.015335748  0.014920101            4 
 2848000   0.78400813   -8.3393758    524.31878  0.015341725  0.014915033            6 
 2849000   0.80300448   -8.3397676    524.13591  0.015330991  0.014909932           10 
 2850000   0.80325998   -8.3999172    524.29928  0.015330388  0.014904836            5 
 2851000   0.79235949   -8.3745579    525.08235    0.0153479  0.014899732            5 
 2852000   0.78655795   -8.3835668     523.5885  0.015298869  0.014894622            5 
 2853000   0.80532401   -8.3569749    523.22718  0.015282953  0.014889509           10 
 2854000   0.78708557   -8.3757836    525.72193  0.015350442  0.014884411            7 
 2855000   0.80078164   -8.3642709     524.5975  0.015312245  0.014879301            9 
 2856000   0.79883888   -8.3595172    524.32742  0.015299003  0.014874205            5 
 2857000   0.79145383   -8.3558004    526.51812  0.015357546  0.014869134            7 
 2858000   0.80157053   -8.3344377     526.0516   0.01533857  0.014864069            5 
 2859000   0.79528381   -8.3668447    524.77186  0.015295903  0.014859014            4 
 2860000     0.792814   -8.3392162    524.76573  0.015290377  0.014853948            6 
 2861000   0.79343241   -8.3552629    524.08976  0.015265343  0.014848876           11 
 2862000   0.80620104     -8.37369    525.14917  0.015290856  0.014843794           12 
 2863000   0.79704757   -8.3593594    524.59934  0.015269512  0.014838725           10 
 2864000   0.80779501   -8.3689942    524.53704  0.015262367  0.014833642           14 
 2865000   0.78560944   -8.3583285    524.81249  0.015265052  0.014828557            8 
 2866000   0.78387444   -8.3587064    524.97659  0.015264497  0.014823461            4 
 2867000   0.78679792   -8.3645765    525.41604  0.015271946  0.014818397            5 
 2868000   0.80422097   -8.3591026     524.5957  0.015242785   0.01481332            7 
 2869000   0.78757085   -8.3730606    525.01896  0.015249766   0.01480825            3 
 2870000   0.76597609   -8.3614177     525.4302  0.015256394  0.014803178           10 
 2871000   0.80545749    -8.345748    526.51863  0.015282673   0.01479811            4 
 2872000   0.80215752   -8.3429594    526.10919  0.015265471  0.014793083            5 
 2873000   0.80451462   -8.3388941    525.60091  0.015245414  0.014788046            3 
 2874000   0.78970251   -8.3395934    525.83499  0.015246897   0.01478301            2 
 2875000   0.79247566   -8.3307981     525.9345  0.015244478  0.014777969            5 
 2876000   0.79756006   -8.3618039     525.1194   0.01521556  0.014772895            3 
 2877000    0.7915283   -8.3273157    525.44051  0.015219572  0.014767825            4 
 2878000   0.77874308   -8.3940596    523.73971  0.015165037  0.014762732            5 
 2879000   0.79347422   -8.3803492    524.60603  0.015184845  0.014757621            3 
 2880000    0.7832636   -8.3755477    524.28568  0.015170303  0.014752511            4 
 2881000   0.79040193   -8.3819893      524.256  0.015164179  0.014747406            2 
 2882000   0.79443404    -8.399828    525.31435   0.01518952  0.014742294            5 
 2883000   0.77669214   -8.3754269    525.56583   0.01519152  0.014737178            7 
 2884000   0.79151828   -8.3800201    525.65018   0.01518869  0.014732082           15 
 2885000   0.81075978   -8.3608715    524.98312  0.015164157  0.014726965            8 
 2886000   0.79161218   -8.3739719    524.25892  0.015137991  0.014721864           14 
 2887000   0.80377328   -8.3648149    524.45947  0.015138537  0.014716765            6 
 2888000    0.7944762   -8.3906908    523.90442  0.015117279   0.01471167            3 
 2889000    0.7825589   -8.3597787    524.23748  0.015121653  0.014706582            4 
 2890000   0.78380552    -8.373149    525.59037  0.015155432  0.014701489            8 
 2891000    0.7973336   -8.3836878    524.63318  0.015122598   0.01469637            8 
 2892000   0.79314826   -8.3830891    523.53825  0.015085819  0.014691249            6 
 2893000    0.7876537   -8.4045167    524.08838  0.015096451  0.014686119            4 
 2894000   0.79656948   -8.3701522    524.03089  0.015089579  0.014681005            6 
 2895000   0.78985575   -8.3969645    525.38505  0.015123346  0.014675901           18 
 2896000   0.78917684   -8.3913953     525.5418  0.015122635   0.01467081           27 
 2897000   0.78215957   -8.3901342    524.61771  0.015090833  0.014665733           27 
 2898000   0.78793774   -8.3616528    525.67515  0.015116033  0.014660673           29 
 2899000   0.77489828   -8.3602319    525.24731   0.01509852  0.014655617           13 
 2900000   0.78251145   -8.3597899    526.17077   0.01511985  0.014650543           13 
 2901000   0.79158869   -8.3677702    525.75505  0.015102696  0.014645491           17 
 2902000   0.78794281   -8.3866272    524.34429   0.01505698  0.014640408           11 
 2903000   0.77444221   -8.3703242    525.04625  0.015071944  0.014635318           16 
 2904000   0.80587854   -8.3628972    525.23601    0.0150722  0.014630244           27 
 2905000   0.77952537   -8.3742393    526.03442  0.015089915  0.014625157           14 
 2906000   0.79292906   -8.3857012    525.74269  0.015076356  0.014620094           19 
 2907000   0.77982956   -8.3610353     525.1983  0.015055564  0.014615032           21 
 2908000   0.78283664   -8.3774081    524.14715  0.015020264  0.014609947            8 
 2909000   0.78004431   -8.3782915    527.20756  0.015102772  0.014604901           19 
 2910000   0.77701298   -8.3833133    525.38979  0.015045526  0.014599862           15 
 2911000   0.78842392   -8.3621908    526.21847  0.015064081  0.014594834           26 
 2912000   0.79303678   -8.3658908    526.62468  0.015070532  0.014589804           31 
 2913000   0.77952212   -8.3801248    526.33133  0.015056967  0.014584781           23 
 2914000   0.80747217   -8.3520911    525.71711  0.015034235   0.01457975            9 
 2915000    0.7957625   -8.3830557    526.96298  0.015064693  0.014574717            6 
 2916000   0.80936523   -8.3932851    525.70416  0.015023553  0.014569656            6 
 2917000   0.79439622   -8.4320256     524.9465  0.014996758  0.014564568           15 
 2918000   0.79091058   -8.3852587    525.43242  0.015005495  0.014559488            8 
 2919000   0.78619012   -8.3977946    525.95991  0.015015414  0.014554395            9 
 2920000   0.78494172   -8.4375971    524.81588  0.014977622  0.014549312            7 
 2921000   0.78401755   -8.3939732     525.4096  0.014989433  0.014544234            5 
 2922000   0.80409277   -8.3910721    524.99059  0.014972353  0.014539181            7 
 2923000   0.78260461   -8.3887533    525.36179  0.014977814  0.014534112           10 
 2924000    0.7803665    -8.399111    524.80356  0.014956782  0.014529061           10 
 2925000   0.78478376   -8.4137305    524.40621  0.014940348  0.014524001           11 
 2926000   0.78009162   -8.3858099    525.86051  0.014976661  0.014518928            9 
 2927000   0.78579489   -8.3716897    525.67441  0.014966246  0.014513854            6 
 2928000    0.7674328   -8.3989101    525.03825  0.014943029  0.014508798           13 
 2929000   0.79874724   -8.4238922    525.89253  0.014962232  0.014503731            7 
 2930000   0.77895567   -8.3980017    526.09376  0.014962849  0.014498674           12 
 2931000   0.76868223    -8.395977    524.75367  0.014919643  0.014493597           17 
 2932000   0.77659314   -8.3823203    525.80434  0.014944416  0.014488534           16 
 2933000   0.78498742   -8.3849731    526.52116  0.014959688  0.014483492           12 
 2934000   0.79087044    -8.388101     525.2611    0.0149188  0.014478459           21 
 2935000   0.79193622   -8.3651456    526.25642  0.014941977  0.014473423            6 
 2936000   0.77132375   -8.4038646    525.50806  0.014915647  0.014468391            6 
 2937000   0.79759808   -8.3876588    525.91629  0.014922151  0.014463338           22 
 2938000   0.78547365   -8.3922441    526.26732  0.014927028  0.014458308           13 
 2939000    0.7885622    -8.414142    525.00841  0.014886254  0.014453257           15 
 2940000   0.77757573   -8.3849595    525.81518  0.014904058  0.014448239           19 
 2941000   0.78655813   -8.4066422    525.76942  0.014897694  0.014443228           13 
 2942000   0.79013902   -8.4095657    525.51919  0.014885543  0.014438182           15 
 2943000   0.78569943   -8.4136413    526.56459  0.014910086  0.014433122           10 
 2944000   0.79796404   -8.4234225    525.29179  0.014868993  0.014428071           11 
 2945000   0.79430199   -8.4288394    526.02072   0.01488457  0.014423022            4 
 2946000   0.79023121    -8.432242    523.93366  0.014820482   0.01441796            3 
 2947000   0.78543934   -8.3897826    526.04144  0.014875055  0.014412907            3 
 2948000   0.77260015   -8.3843409    524.18674  0.014817581  0.014407864            9 
 2949000   0.77181124   -8.3903935    526.60535  0.014880902  0.014402837            5 
 2950000   0.80565851   -8.3961306    526.37831  0.014869444  0.014397804            7 
 2951000   0.76772169   -8.3838323     525.6777  0.014844621   0.01439275            9 
 2952000   0.77891927   -8.4030776    526.15002  0.014852925  0.014387703            6 
 2953000    0.7822772   -8.4199248    524.75202  0.014808444  0.014382661            8 
 2954000   0.78136359   -8.4004362    525.38811  0.014821375  0.014377602            5 
 2955000   0.78238124   -8.4217105     524.5367  0.014792349  0.014372552            5 
 2956000   0.77835899   -8.4099193    525.78243  0.014822464  0.014367474            6 
 2957000   0.76325474   -8.4069194    523.92981  0.014765241  0.014362376            4 
 2958000   0.78902485    -8.399774    525.13258  0.014794134  0.014357308            5 
 2959000   0.79050403   -8.4514282    524.91126  0.014782901  0.014352217            6 
 2960000   0.77464281   -8.4496463    524.24757  0.014759222   0.01434712            8 
 2961000   0.78790296    -8.398158    525.24595  0.014782336  0.014342025           10 
 2962000   0.78299807   -8.4112481    525.15311  0.014774733   0.01433698            6 
 2963000   0.76172934   -8.4067648    526.07536  0.014795685  0.014331942           10 
 2964000   0.78522359   -8.4619733    524.89358  0.014757467  0.014326896           13 
 2965000    0.7868225   -8.3997978    525.80204  0.014778023  0.014321842            8 
 2966000   0.76584379   -8.4232874    525.81215  0.014773324  0.014316797            5 
 2967000   0.78502574    -8.431283    525.33751  0.014755014  0.014311734            6 
 2968000   0.75350227   -8.4723125    523.07746  0.014686586  0.014306649            6 
 2969000   0.76881317   -8.4528591    525.09949  0.014738394  0.014301562            7 
 2970000   0.78009781   -8.4042961    524.92275  0.014728472  0.014296491            7 
 2971000   0.77380243   -8.4438027    526.35726  0.014763751  0.014291422            9 
 2972000   0.78020419   -8.4067097    525.63547  0.014738545  0.014286338            6 
 2973000   0.77160228    -8.428353     525.2802  0.014723629   0.01428126            4 
 2974000   0.77657254   -8.4416498    524.82448  0.014705909  0.014276168            6 
 2975000   0.77820459   -8.4544719     525.0824   0.01470819  0.014271048            7 
 2976000   0.77818528    -8.437935    524.98559  0.014700537  0.014265969            6 
 2977000   0.79025774   -8.4436733    524.90868  0.014693446  0.014260887            9 
 2978000   0.76764169   -8.4311582    524.97389  0.014690337  0.014255836            5 
 2979000   0.76322821    -8.428006    524.76394  0.014679533   0.01425077            4 
 2980000   0.76657397   -8.4164995    525.21643   0.01468726  0.014245707           12 
 2981000   0.78770166   -8.4293868     526.4578  0.014717036  0.014240649            8 
 2982000    0.7709075   -8.4326362    524.37314  0.014653844   0.01423558            4 
 2983000   0.77829777    -8.450343    524.65836  0.014656899  0.014230506            5 
 2984000   0.76613073   -8.3992891    525.35116  0.014671335  0.014225454            7 
 2985000   0.77369488   -8.4201062    523.92294  0.014626548  0.014220416            6 
 2986000   0.76255796   -8.3926838    524.49238  0.014637541  0.014215359            4 
 2987000   0.77346444   -8.3863893    525.12939  0.014650413  0.014210315            9 
 2988000   0.77231691    -8.400048    525.43261  0.014653966  0.014205287            6 
 2989000    0.7842556   -8.4193579    524.79389  0.014631256  0.014200246            8 
 2990000   0.77639073   -8.4055351    527.04746  0.014689171  0.014195205            8 
 2991000   0.75724567   -8.4323477    525.22111  0.014633376   0.01419018            4 
 2992000   0.78610746   -8.4136537    526.11816  0.014653469   0.01418515            2 
 2993000    0.7698682   -8.4205998    525.54914   0.01463273  0.014180117            4 
 2994000    0.7723848   -8.4421559    524.68073  0.014603672  0.014175058            4 
 2995000   0.77524156   -8.4255769     524.5561  0.014595328  0.014170005            6 
 2996000   0.77314534   -8.4119461    524.34762  0.014584658  0.014164955            3 
 2997000    0.7777165   -8.3975875    526.32775   0.01463485   0.01415992            8 
 2998000    0.7747826   -8.4272076     525.7731  0.014614551  0.014154899            6 
 2999000   0.76928261   -8.4066957    526.93265  0.014641899  0.014149882            4 
 3000000   0.77964119   -8.3956218    526.54854  0.014626348  0.014144878            5 
 3001000   0.78156583   -8.4422978    526.14618  0.014610302  0.014139876           13 
 3002000   0.76670895   -8.3884541      527.246  0.014635965  0.014134862            6 
 3003000   0.79004761   -8.4460895    525.57893   0.01458483  0.014129855           12 
 3004000   0.78533434   -8.4265976    525.20582  0.014569624  0.014124842            9 
 3005000   0.78403193   -8.4302123    525.18845  0.014564294  0.014119854            8 
 3006000   0.78426557   -8.3937037    526.98511  0.014609257   0.01411486            6 
 3007000   0.76601576    -8.444499    524.85809  0.014545452  0.014109853            5 
 3008000   0.76182055   -8.4177371    526.50053  0.014586118  0.014104831            8 
 3009000   0.77067873   -8.4244786    525.17725  0.014544623  0.014099814            3 
 3010000   0.76970234   -8.4584252    525.19782   0.01454036  0.014094788            5 
 3011000   0.77482788    -8.436048    525.31608  0.014538804  0.014089782            7 
 3012000   0.77225291   -8.4503102    525.55678  0.014540637   0.01408477            9 
 3013000   0.75553519   -8.4284451    525.47559  0.014533565  0.014079753            7 
 3014000   0.77530024   -8.3932505    527.10275  0.014573732  0.014074759            7 
 3015000   0.79377736   -8.4319532    525.39611  0.014521728  0.014069776            7 
 3016000   0.76032107    -8.462821    525.84989  0.014529451  0.014064795            4 
 3017000   0.74598181   -8.4408231    525.98934  0.014528487  0.014059777            9 
 3018000   0.76177883   -8.4570157     524.9126  0.014493942  0.014054762            4 
 3019000   0.78020159   -8.4245371    525.71355   0.01451125  0.014049753            9 
 3020000   0.77066699   -8.4010061    526.29062  0.014522368  0.014044752            9 
 3021000   0.75238887   -8.4183541    526.53117  0.014524196  0.014039759            4 
 3022000   0.76172531   -8.4252264    526.44511  0.014517017  0.014034764            2 
 3023000   0.76751185   -8.4448954    526.83163   0.01452287  0.014029762           10 
 3024000   0.75371103   -8.4320682    526.34241  0.014504586  0.014024757            6 
 3025000   0.77606697   -8.4189952    526.03625  0.014491357  0.014019761            6 
 3026000   0.77778168   -8.4243543     525.9846  0.014485145  0.014014769            5 
 3027000   0.75794357   -8.4274664    526.10267  0.014483611  0.014009789            5 
 3028000    0.7671523   -8.4559639     525.8525  0.014471943  0.014004819            5 
 3029000   0.76567147   -8.4316458    526.10119  0.014474007  0.013999839           11 
 3030000   0.75829745   -8.4551169    526.51607   0.01448064  0.013994872           11 
 3031000   0.76207918   -8.4497913    526.72071  0.014481489   0.01398991            9 
 3032000   0.76998162   -8.4595434    526.63127  0.014474254  0.013984937           13 
 3033000   0.77379679   -8.4568834    526.09586  0.014454771  0.013979954           11 
 3034000   0.75650415   -8.4711633    524.96348  0.014418905  0.013974968           20 
 3035000   0.75003441   -8.4600758    525.80998  0.014437397  0.013969961           16 
 3036000   0.76547658   -8.4509058     525.7506  0.014431011  0.013964969            5 
 3037000    0.7538361   -8.4549683    526.50337  0.014446915  0.013959972            5 
 3038000   0.75368806    -8.465737    526.18164  0.014433334  0.013954975           18 
 3039000   0.75454974   -8.4455042     526.0112  0.014423911  0.013949989           15 
 3040000   0.76060054   -8.4358202    526.72616  0.014438765  0.013945013           14 
 3041000    0.7655806    -8.436871     525.3533  0.014396397  0.013940022           17 
 3042000   0.75106158   -8.4624127    526.77471  0.014430602  0.013935023            9 
 3043000   0.76663823   -8.4907802    525.68786  0.014396097  0.013930033            5 
 3044000   0.76948372   -8.4492826    525.52868  0.014387009   0.01392506           10 
 3045000   0.76490633   -8.4255516    527.93259  0.014448073  0.013920102            8 
 3046000   0.76054883   -8.4591035    526.53036  0.014404967   0.01391515           13 
 3047000   0.77585854   -8.4719268    524.81186   0.01435324  0.013910158            8 
 3048000   0.76345676   -8.4801257    525.98829  0.014380695  0.013905167           23 
 3049000   0.75733426   -8.4696139    526.16213  0.014380729  0.013900171           23 
 3050000   0.76185294   -8.4685659    525.54112  0.014359047  0.013895194           11 
 3051000   0.77496977   -8.4973832     525.0398  0.014340648    0.0138902           16 
 3052000    0.7634226   -8.4541572    525.23706  0.014341335  0.013885214           31 
 3053000   0.77786732   -8.4736017    525.96006  0.014356372  0.013880237           12 
 3054000   0.74779265   -8.4724669    525.32717  0.014334402  0.013875256           21 
 3055000   0.75560138     -8.47222    526.37825  0.014358381  0.013870262           14 
 3056000   0.76942979   -8.4725452    526.07575  0.014345434   0.01386529           21 
 3057000   0.76846975   -8.4639098    525.65952  0.014329395  0.013860331           16 
 3058000   0.79467025   -8.4877536    525.01559  0.014307161  0.013855372           23 
 3059000   0.76461051    -8.457333    525.91599  0.014327013   0.01385043           21 
 3060000   0.76220795   -8.4614125     525.4875  0.014310662  0.013845489           27 
 3061000   0.77140673   -8.4866453    525.61745  0.014309524  0.013840542           28 
 3062000   0.74278526   -8.4775356    525.84498  0.014311043  0.013835581           16 
 3063000   0.75213743   -8.4611942    526.03282  0.014311482  0.013830636           28 
 3064000   0.75724362   -8.4677949    525.78513  0.014300074  0.013825681           16 
 3065000   0.76265267   -8.4554205      527.364  0.014338336   0.01382074           14 
 3066000   0.75375842   -8.4550277    525.58709  0.014285363  0.013815811           15 
 3067000   0.76237757   -8.4387073    526.76552  0.014312725  0.013810877           11 
 3068000   0.76531342   -8.4382501    526.33871  0.014296466  0.013805944            9 
 3069000   0.76023131   -8.4468642    526.28365  0.014290313  0.013801012           10 
 3070000   0.77028491    -8.443853    526.02992  0.014278771  0.013796074           26 
 3071000   0.76877873   -8.4546101     526.0744  0.014275328  0.013791145           10 
 3072000   0.76408026   -8.4720015    526.48792  0.014281899  0.013786211           23 
 3073000   0.74061914   -8.4530063    526.21268  0.014269787  0.013781283           16 
 3074000   0.76910512   -8.4423841    526.89202  0.014283562  0.013776359           10 
 3075000   0.78422813   -8.4491618    527.83451  0.014304458  0.013771445           14 
 3076000   0.76448375   -8.4723443    527.88249  0.014301108  0.013766522            7 
 3077000   0.75368015   -8.4695386    525.45997  0.014230852   0.01376159           14 
 3078000   0.75134255   -8.4687758    527.08955  0.014270347  0.013756636            9 
 3079000   0.76475203   -8.4835712    525.71086  0.014228398  0.013751689           10 
 3080000   0.76326906   -8.5213031    525.30151  0.014212703  0.013746723            6 
 3081000   0.76000482   -8.4867928    525.66897  0.014218029  0.013741749           16 
 3082000   0.75818032   -8.4923252    525.94467   0.01422087  0.013736802           18 
 3083000   0.74493376   -8.4943478    525.40624  0.014201704   0.01373185           11 
 3084000   0.76327631   -8.4781258    526.71681  0.014232512  0.013726911            9 
 3085000   0.76395978   -8.4677152    526.19465  0.014213794  0.013721976           22 
 3086000   0.76171089   -8.4849677    526.81398  0.014225912  0.013717047            8 
 3087000   0.75854206   -8.4886742    526.35505  0.014208915  0.013712105           17 
 3088000   0.75352729   -8.4770433    527.20339  0.014227207  0.013707181            6 
 3089000   0.75502202   -8.4845212    527.06675  0.014218915  0.013702256            7 
 3090000   0.77547135   -8.4623084     526.1667   0.01419004  0.013697334            5 
 3091000   0.73961298   -8.5042649    524.82419  0.014149256  0.013692412            4 
 3092000    0.7478009   -8.5045563    525.09767   0.01415205  0.013687479           11 
 3093000    0.7594194   -8.4921994    525.85357  0.014167841  0.013682556           12 
 3094000   0.75448094   -8.4617246    527.02673  0.014194859  0.013677646            7 
 3095000   0.73270621   -8.4445067    526.55612  0.014177601  0.013672743           13 
 3096000   0.74814011   -8.4500913    525.56048  0.014146223  0.013667821            5 
 3097000    0.7605622   -8.4913714    526.23492  0.014159803  0.013662906            5 
 3098000   0.76207832   -8.4557286    526.32097  0.014157547  0.013657999            4 
 3099000   0.77022461   -8.4573864    525.94081  0.014142756  0.013653099            3 
 3100000   0.74746512   -8.4622376    526.48321  0.014152775  0.013648186            7 
 3101000   0.75623117   -8.4682237    526.12505  0.014138586   0.01364328            7 
 3102000   0.74271491   -8.4587783    525.79772  0.014125234  0.013638374            7 
 3103000    0.7460173   -8.4599302     526.1389  0.014129845  0.013633478            7 
 3104000   0.74340438   -8.4775667    525.27969  0.014102225  0.013628572            7 
 3105000   0.75237231   -8.4527798    526.09507  0.014119567  0.013623657            6 
 3106000   0.75304849    -8.445664    526.69951  0.014131238  0.013618763            8 
 3107000   0.75155706   -8.4668414     525.6649  0.014098941  0.013613872            8 
 3108000   0.74250951   -8.4614219    525.96373  0.014102416  0.013609002            4 
 3109000   0.74881479   -8.4779737    526.47288  0.014111528  0.013604116            7 
 3110000   0.75058319   -8.4626179    525.58718  0.014083258  0.013599229            5 
 3111000   0.74915471   -8.4540783    526.74759  0.014109814   0.01359434            6 
 3112000   0.74890541   -8.4548676    527.65705  0.014129634  0.013589448            9 
 3113000   0.75276262   -8.4625549    525.41907  0.014065185  0.013584548            9 
 3114000   0.76895708   -8.4805339    526.37256  0.014086185  0.013579652            2 
 3115000   0.75016209   -8.4764489    526.93232  0.014096638  0.013574758            4 
 3116000   0.75205157   -8.4849488    527.01285  0.014094268  0.013569867            5 
 3117000   0.74564655   -8.4777924    526.81146  0.014084362  0.013564962            4 
 3118000   0.74857502   -8.4653457    526.16492  0.014062565  0.013560062            8 
 3119000   0.75271079   -8.4959955    526.29843  0.014061623  0.013555172            4 
 3120000    0.7556367   -8.4865751    526.43104  0.014060658  0.013550278           14 
 3121000   0.76726189   -8.4840701    526.92445  0.014069327  0.013545378            4 
 3122000   0.74169652   -8.4869643    526.93752   0.01406517  0.013540481            9 
 3123000   0.73156485   -8.4485708    527.14537  0.014066212  0.013535601           10 
 3124000   0.75625762   -8.4903886    525.75859  0.014024717  0.013530724           12 
 3125000   0.75575475   -8.4933736    526.12547  0.014030013  0.013525847           10 
 3126000   0.73280952   -8.4561935     527.8062   0.01407033  0.013520969            8 
 3127000   0.75238961   -8.4636011    527.65161   0.01406171  0.013516108            5 
 3128000   0.74415793   -8.4813382    526.99372  0.014039688  0.013511249            8 
 3129000   0.76599028   -8.4939532    526.51819  0.014022536  0.013506363            9 
 3130000   0.74722821   -8.4876112    526.59858  0.014020197  0.013501491            3 
 3131000   0.76842334   -8.4839553    525.89311  0.013996942   0.01349662            4 
 3132000   0.76045593   -8.5040292    525.76735  0.013989127  0.013491752            6 
 3133000   0.75183569    -8.507012     525.6694  0.013982057  0.013486876            7 
 3134000   0.73930029    -8.493004    525.51007  0.013973359   0.01348201            9 
 3135000   0.75995628   -8.4777862    526.28704  0.013989554  0.013477147           13 
 3136000   0.73231391   -8.5062831    525.94286  0.013975948  0.013472301           13 
 3137000   0.74632376   -8.4930951    527.28361  0.014007109  0.013467444           10 
 3138000   0.74803422   -8.4822229    526.23366  0.013974763  0.013462574           27 
 3139000   0.75103561   -8.5255817     526.0084   0.01396433  0.013457714           19 
 3140000   0.75273872   -8.5096112    526.18259  0.013964506  0.013452835           26 
 3141000   0.76246845   -8.4669538    526.53683  0.013969458  0.013447975            7 
 3142000   0.73766864   -8.5045665    526.08133  0.013952931  0.013443133            5 
 3143000   0.75692561   -8.5029083    526.91167  0.013970508  0.013438301            9 
 3144000   0.75022636    -8.486606    527.11324  0.013971407  0.013433461            4 
 3145000   0.73142647   -8.5035588     526.3166  0.013945856  0.013428615           16 
 3146000   0.76738618    -8.519404    525.64941   0.01392375  0.013423749            8 
 3147000   0.75004963     -8.50421    526.25571  0.013935381  0.013418905            6 
 3148000   0.75082794   -8.5123684    525.40533  0.013908443  0.013414042           12 
 3149000   0.73983519   -8.4870152    526.52464  0.013933647  0.013409172            9 
 3150000   0.75320044   -8.4870678    527.42277  0.013952983  0.013404309            9 
 3151000   0.74724238   -8.5414207    525.80632  0.013905806  0.013399444           15 
 3152000   0.75259298   -8.4768522    527.22119  0.013938801  0.013394596            7 
 3153000   0.74195837   -8.4786671    525.81197  0.013897134  0.013389757            7 
 3154000    0.7696493   -8.5225628     526.1896  0.013902706  0.013384924           26 
 3155000    0.7530655    -8.515017     526.1144  0.013896313  0.013380091           12 
 3156000   0.74568657   -8.4979717    526.25533  0.013895631  0.013375276           13 
 3157000   0.75429711   -8.5056845    526.46681  0.013896812  0.013370466            4 
 3158000   0.74627437   -8.4986683    527.91482  0.013930621  0.013365653            6 
 3159000   0.75750802   -8.4920945    527.23946  0.013908396  0.013360825           13 
 3160000   0.74553664   -8.5280153      526.648  0.013888397  0.013355991            4 
 3161000   0.73740076   -8.5083384     526.5852  0.013882347  0.013351173            6 
 3162000   0.74546491   -8.4998159    526.29408  0.013870285  0.013346368            6 
 3163000   0.75435718   -8.5215082    526.70678  0.013876773  0.013341558            6 
 3164000   0.74503864   -8.5045901    526.80736  0.013875036  0.013336745            3 
 3165000   0.73323321   -8.4949063    528.40819  0.013912801  0.013331956            6 
 3166000   0.74605245   -8.5128617    527.33186  0.013880076  0.013327154            7 
 3167000   0.74565097   -8.4975916      527.742  0.013886486  0.013322355            6 
 3168000   0.72835124   -8.4845808    527.10639  0.013865383  0.013317564            4 
 3169000   0.75621984   -8.4840335     526.5535  0.013846468  0.013312787            5 
 3170000   0.72504762   -8.5138494    527.19436  0.013858948  0.013308002            9 
 3171000   0.73156241   -8.5180155    526.66426  0.013840646   0.01330319           16 
 3172000   0.76290082   -8.4947102    526.84478  0.013841025  0.013298384           17 
 3173000    0.7389585   -8.5221995    525.98005  0.013813952  0.013293569           11 
 3174000   0.74954128   -8.4977212    526.58543  0.013825494  0.013288758           12 
 3175000   0.73660923   -8.5040448      526.424  0.013816903  0.013283942            8 
 3176000   0.75513734   -8.4987214    526.52169  0.013815116  0.013279121           14 
 3177000   0.73711655   -8.5089596    526.83656  0.013819026  0.013274314            7 
 3178000   0.73142688   -8.5149665    526.24263  0.013799104  0.013269519            7 
 3179000   0.74250269    -8.522923     526.4629  0.013800537  0.013264722           12 
 3180000    0.7377933   -8.5135082     526.4908  0.013796929  0.013259932            6 
 3181000   0.73812528   -8.4843583     527.4816  0.013818548  0.013255147            6 
 3182000      0.74205   -8.5133406    527.87242   0.01382444  0.013250385           10 
 3183000   0.74062201    -8.504486    525.94196  0.013769556  0.013245632            7 
 3184000   0.75355795   -8.5220633    527.84824  0.013815124  0.013240864            9 
 3185000   0.73317298   -8.4789351     528.7727  0.013834974  0.013236095            4 
 3186000    0.7484282   -8.5191793    528.04871  0.013811695  0.013231314           12 
 3187000   0.72331466   -8.5115671    527.60535  0.013795768  0.013226535            8 
 3188000    0.7474169   -8.5162739    526.65218  0.013766525  0.013221744           21 
 3189000   0.73833051   -8.4988692    527.37486  0.013781093  0.013216953           20 
 3190000   0.73385276   -8.5343852    527.55054  0.013781362  0.013212169           19 
 3191000   0.72556829    -8.514103    527.40173  0.013773157  0.013207387           14 
 3192000   0.73335526   -8.5231408    527.02659  0.013759048  0.013202625           13 
 3193000   0.73706085   -8.4922566    528.42983  0.013791362  0.013197848           17 
 3194000   0.74086209   -8.5148556    526.86993  0.013746346  0.013193074           32 
 3195000   0.73528436   -8.5182459    526.32358  0.013727793  0.013188306           22 
 3196000   0.76493103   -8.5025305    527.10767  0.013743942  0.013183547           14 
 3197000   0.73886386   -8.4764055    527.45586  0.013748719   0.01317879           15 
 3198000   0.74207236   -8.5356178    527.11914  0.013735646  0.013174014           10 
 3199000   0.74649563   -8.5224937    526.67861  0.013719876  0.013169244           13 
 3200000   0.73137363   -8.5220269    525.45762  0.013683792  0.013164472            8 
 3201000   0.72471201   -8.5209325    525.95329  0.013692421  0.013159696           16 
 3202000   0.72331333   -8.5013358    526.56263  0.013704003   0.01315492            9 
 3203000   0.73224259   -8.5223558    526.22074   0.01369083  0.013150151            7 
 3204000   0.75568728   -8.5177127    527.26994  0.013713846  0.013145396           14 
 3205000   0.72512791   -8.4956034    527.19501  0.013707619  0.013140634           35 
 3206000   0.73837606   -8.5032674    526.67657  0.013689867  0.013135882           20 
 3207000   0.74666976   -8.5185671    526.92339  0.013692012  0.013131136           14 
 3208000   0.74678201   -8.5012538    525.96279  0.013662791  0.013126392            5 
 3209000   0.73333742   -8.5113931    527.32147  0.013693816   0.01312164            7 
 3210000    0.7414827   -8.5175592     527.1899  0.013686135  0.013116889           16 
 3211000   0.73720076   -8.5280555    526.92617  0.013675028  0.013112133            8 
 3212000    0.7532591   -8.5070761    525.64983  0.013637656  0.013107381           15 
 3213000   0.73704984   -8.5076975    526.92898  0.013666588  0.013102621           18 
 3214000   0.72670351   -8.5349036    526.46183  0.013650224  0.013097861           24 
 3215000   0.73317671   -8.5331408    527.37858   0.01366974  0.013093088           14 
 3216000   0.73740442   -8.5403376    527.22512  0.013661513  0.013088323           17 
 3217000   0.74452048   -8.5185631    526.71814  0.013644134  0.013083565           16 
 3218000    0.7383942   -8.5329342    527.07026  0.013649012  0.013078805           11 
 3219000   0.73984712   -8.5196484    525.75606   0.01361075  0.013074041           14 
 3220000   0.75475154   -8.5290089    526.94809  0.013637373   0.01306928           25 
 3221000   0.74372875   -8.5236771    525.79009  0.013603179  0.013064531           15 
 3222000   0.75566948   -8.5436592    526.72903  0.013623242  0.013059779           14 
 3223000   0.76353054   -8.5375853    526.44478  0.013611666  0.013055028           16 
 3224000   0.73674671   -8.5283182    527.94623  0.013646253  0.013050286           31 
 3225000   0.72254297   -8.5507474    526.85988   0.01361395  0.013045535           16 
 3226000   0.74093885    -8.538592    527.32123  0.013621648  0.013040778           16 
 3227000   0.72363977   -8.5314641    527.07412  0.013611045  0.013036027           21 
 3228000   0.73109486   -8.5380988     526.9688   0.01360411  0.013031274           15 
 3229000   0.73101767   -8.5471601    526.58181  0.013589909  0.013026527           17 
 3230000   0.73277302   -8.5398133     526.7227  0.013589337  0.013021781           22 
 3231000   0.73388561   -8.5563603    526.22165  0.013572208  0.013017028           18 
 3232000   0.73201596   -8.5423459    526.46739  0.013574345  0.013012274           18 
 3233000   0.73226125   -8.5517359    526.11066  0.013560951  0.013007515           13 
 3234000   0.72364364   -8.5567448    526.37068  0.013563458  0.013002768           11 
 3235000   0.74067571   -8.5278023    527.04064  0.013576524  0.012998007           13 
 3236000   0.74158673   -8.5524579    526.94286   0.01356981  0.012993252            6 
 3237000   0.72788972   -8.5446182    525.76947   0.01353541  0.012988508           16 
 3238000   0.72812445    -8.546011     526.9447  0.013561476  0.012983754           15 
 3239000   0.72678921   -8.5756857    525.89151  0.013530192  0.012979006            6 
 3240000   0.73249534   -8.5140362    527.13404  0.013557974  0.012974246           14 
 3241000   0.73049668   -8.5621351    526.45872  0.013536427   0.01296951            4 
 3242000   0.72171262   -8.5478006     526.2923  0.013527974  0.012964766            7 
 3243000   0.73902697   -8.5347185    526.29619  0.013523903   0.01296002            9 
 3244000   0.74219574   -8.5597278    526.34157  0.013520899  0.012955271            9 
 3245000   0.73096393   -8.5841047    525.36436  0.013491637  0.012950516            7 
 3246000   0.74545691   -8.5493291    526.31406  0.013511862  0.012945775            8 
 3247000   0.73868927    -8.573125    525.59965  0.013489366  0.012941029           19 
 3248000   0.72033124    -8.545514    526.33603  0.013504106  0.012936285           12 
 3249000   0.73470599    -8.560074    526.63571  0.013507636  0.012931542           13 
 3250000   0.73980142   -8.5746976    525.60597  0.013477076  0.012926806           15 
 3251000   0.73738523   -8.5484945    526.95153  0.013507421  0.012922083           21 
 3252000   0.72259843   -8.5436323    527.44028  0.013515792  0.012917362           14 
 3253000    0.7432831   -8.5807331    525.95689  0.013473637   0.01291263           29 
 3254000   0.72224884   -8.5752115    526.62117  0.013486508  0.012907903           14 
 3255000    0.7238985   -8.5923744    525.35766  0.013450017  0.012903163            6 
 3256000   0.73500964   -8.5547634    526.99124  0.013487695   0.01289844           17 
 3257000   0.72636051   -8.5596953    526.02394  0.013458805   0.01289372           17 
 3258000    0.7341833   -8.5360067    527.31191  0.013487618     0.012889            5 
 3259000   0.72852981    -8.547692    526.89659   0.01347286   0.01288429           11 
 3260000   0.74029363   -8.5772546    526.94157  0.013469877  0.012879588           17 
 3261000   0.73934592   -8.5401279    527.17414  0.013471689  0.012874889           10 
 3262000   0.73366571   -8.5355711    527.01325  0.013463449  0.012870189            6 
 3263000   0.73302164   -8.5750673    527.16906  0.013463302  0.012865496            8 
 3264000   0.72817859   -8.5397705    526.19136  0.013434216  0.012860787           16 
 3265000   0.73635459   -8.5592838    525.90859  0.013422884  0.012856075           16 
 3266000   0.72730407   -8.5486747    527.09903  0.013449149  0.012851368           12 
 3267000   0.74523225    -8.551766    526.15346  0.013420913  0.012846683            7 
 3268000   0.72864727    -8.537896    526.65977  0.013429717  0.012841992           18 
 3269000   0.71823223   -8.5778328    526.67431  0.013425979  0.012837305           20 
 3270000    0.7236646   -8.5618292    527.08302  0.013432289  0.012832617           14 
 3271000   0.71946601   -8.5575289    526.27748   0.01340766  0.012827929           21 
 3272000   0.72592453   -8.5536626    527.66093  0.013438797  0.012823237           22 
 3273000   0.72867983   -8.5491463    527.14881  0.013421652  0.012818572           24 
 3274000   0.74552694   -8.5676352    527.35303  0.013422751  0.012813885           19 
 3275000   0.72255298   -8.5528356    526.89161  0.013406911  0.012809203           12 
 3276000   0.73387026   -8.5640977    527.06846  0.013407317  0.012804525           12 
 3277000   0.71466215   -8.5694452    526.60774   0.01339151  0.012799845            8 
 3278000   0.72738423   -8.5909232    525.97353  0.013371302  0.012795165           19 
 3279000   0.72647372    -8.562168    526.43585  0.013378973   0.01279048           11 
 3280000   0.72720854   -8.5945187    526.36954   0.01337321  0.012785807            8 
 3281000   0.72507128   -8.5890029    525.70583  0.013352276  0.012781128           20 
 3282000   0.72579235   -8.5650514    526.31665  0.013363718  0.012776459            8 
 3283000   0.72624217   -8.5635252    527.91582  0.013400239  0.012771802            9 
 3284000   0.71026255   -8.5618776    526.10286  0.013350154  0.012767148           12 
 3285000   0.73046899   -8.5352538    526.86094  0.013365321  0.012762488           20 
 3286000   0.73304226   -8.5719214    526.84094  0.013360746  0.012757825           12 
 3287000   0.72020306   -8.5592191    526.94658  0.013359359  0.012753161            4 
 3288000   0.73581365   -8.5797332    525.32466   0.01331419  0.012748482            9 
 3289000   0.72859782   -8.5838782    526.52237  0.013340488   0.01274381           17 
 3290000   0.71447168   -8.5784926    525.79655  0.013318048  0.012739148           19 
 3291000   0.73443737   -8.5759009    526.68052  0.013336385  0.012734486           28 
 3292000   0.72779024   -8.5693697    526.67111  0.013332096   0.01272982           40 
 3293000   0.73256047   -8.5666541     526.1356  0.013314495  0.012725155           34 
 3294000   0.72691415   -8.5727432    526.37297  0.013316459  0.012720493           19 
 3295000    0.7251332   -8.5790525    527.12911  0.013331541  0.012715823           26 
 3296000   0.72008644   -8.5489267    527.43545  0.013335241  0.012711166           22 
 3297000   0.74385087   -8.5744797    526.13207  0.013298253  0.012706502           24 
 3298000   0.72213096   -8.5617703    525.89163  0.013288145  0.012701832           30 
 3299000   0.73423355   -8.5860495    526.46026  0.013298481   0.01269717           22 
 3300000   0.72168253   -8.6011083    524.76846  0.013251729  0.012692504           25 
 3301000   0.74212386   -8.6056416    526.05731  0.013280251  0.012687835           42 
 3302000    0.7196324   -8.5944395     526.1546  0.013278685  0.012683168           44 
 3303000   0.72187857   -8.5783253    527.10012   0.01329852   0.01267852           38 
 3304000   0.72005871   -8.5857173    526.64391  0.013282988  0.012673864           56 
 3305000   0.72767471   -8.5603112    526.85564  0.013284308  0.012669212           35 
 3306000   0.70826428   -8.5740534    526.64268  0.013274921  0.012664559           44 
 3307000   0.73264905   -8.5677779    525.89561  0.013252082  0.012659903           33 
 3308000   0.73080002   -8.5871123    526.64238  0.013266888  0.012655251           35 
 3309000    0.7074054   -8.5979893    527.01566  0.013272279  0.012650598           33 
 3310000   0.72227193   -8.5656928     527.5911  0.013282757  0.012645946           35 
 3311000    0.7198465   -8.6019523    526.56522  0.013252925  0.012641304           33 
 3312000   0.71973593   -8.5962838    525.22377  0.013215171  0.012636653           59 
 3313000   0.72936841   -8.6210362    525.87205  0.013227489  0.012631992           68 
 3314000   0.72855911   -8.5958108    526.15438  0.013230597  0.012627337           46 
 3315000   0.72734273    -8.581194    524.66136  0.013189074  0.012622683           43 
 3316000   0.72985261   -8.5950616    525.33375  0.013201994   0.01261804           71 
 3317000   0.72401851   -8.5690869    526.26416  0.013221389  0.012613393           44 
 3318000   0.71758474   -8.5822845    526.40743  0.013221002  0.012608738           59 
 3319000   0.71877158   -8.5937651    526.50983   0.01321959   0.01260409           60 
 3320000   0.72786942     -8.58395    525.33259  0.013186059  0.012599459           61 
 3321000   0.70579956   -8.5937769    525.88308  0.013195902  0.012594822           56 
 3322000   0.73036891   -8.5944701    527.02433  0.013220558  0.012590177           71 
 3323000   0.70338456   -8.5978711    526.19752  0.013195845   0.01258554           74 
 3324000   0.72811371   -8.5970565    526.02061   0.01318744  0.012580899           82 
 3325000   0.72857584   -8.6144043    526.23945  0.013188959  0.012576255           72 
 3326000   0.71194959   -8.6141958    525.82438  0.013174594   0.01257161           84 
 3327000    0.7201809   -8.5948149    525.84047  0.013171037   0.01256697           68 
 3328000   0.72079259   -8.5985081    526.31332  0.013178919  0.012562323           76 
 3329000    0.7146268    -8.597006    525.18134  0.013146624  0.012557682           66 
 3330000   0.72363096   -8.6196402    524.56962  0.013127368  0.012553036           68 
 3331000   0.71614064    -8.597001    525.26297  0.013140773  0.012548395           77 
 3332000   0.71754488   -8.6204848    525.07444  0.013132114  0.012543758           91 
 3333000    0.7193502   -8.6245123      525.468  0.013138014  0.012539122           65 
 3334000    0.7113641   -8.5901439    525.37834  0.013131832  0.012534488           75 
 3335000   0.70517873   -8.5733457    526.10725  0.013146108  0.012529849           82 
 3336000   0.72184218   -8.5875263    525.87485  0.013136362  0.012525217           71 
 3337000   0.73143818    -8.609367    524.89447  0.013107943  0.012520591           89 
 3338000   0.71706343   -8.5909159    527.03624  0.013157485   0.01251597           70 
 3339000   0.72031492   -8.6116579    524.73754  0.013096175  0.012511338           81 
 3340000   0.71037571   -8.5839459    524.43985  0.013084827  0.012506697           77 
 3341000   0.72310178   -8.6060429    524.96624   0.01309404  0.012502064           70 
 3342000   0.71850339   -8.6221988    525.64461  0.013107037  0.012497416           71 
 3343000   0.70320566   -8.6001794    525.44529  0.013098148  0.012492779           86 
 3344000   0.71879928   -8.5785446    526.88759  0.013130173  0.012488159           92 
 3345000   0.71632657   -8.6186431    526.22117  0.013109646  0.012483525           76 
 3346000   0.71697634   -8.6063937    524.53167   0.01306365  0.012478884           89 
 3347000   0.72901474   -8.6165215    525.11819   0.01307435   0.01247424           88 
 3348000    0.7187801   -8.5983188    525.43962  0.013078445    0.0124696           79 
 3349000   0.72939077    -8.628817    525.69051  0.013080783   0.01246497           98 
 3350000   0.69918802    -8.612843    525.12655   0.01306285  0.012460342           73 
 3351000   0.70571812   -8.6233895    524.54032  0.013044373  0.012455711           99 
 3352000   0.72623406   -8.5807568    525.60823   0.01306703  0.012451088           93 
 3353000   0.71979012   -8.6000849    525.51556   0.01306083  0.012446475          102 
 3354000   0.71866002   -8.5972951    525.65552  0.013060413  0.012441853           80 
 3355000   0.70928357   -8.6473078    524.26021  0.013021863  0.012437239           86 
 3356000   0.71633136   -8.6151114    525.47099  0.013048048  0.012432619           78 
 3357000   0.72093118   -8.6254649    526.12759   0.01306046  0.012428006          107 
 3358000   0.71022142   -8.5960409    525.43771  0.013039451  0.012423394          101 
 3359000   0.73364793   -8.5851142     525.6038  0.013039689  0.012418795           81 
 3360000   0.72198037   -8.6400137    525.52061  0.013033745  0.012414194          100 
 3361000   0.71113279   -8.6009134    525.18248  0.013021484  0.012409591           84 
 3362000   0.71140957   -8.6082963    526.11459  0.013040715  0.012404996           94 
 3363000   0.71251283     -8.59316    525.30678   0.01301682  0.012400391          110 
 3364000   0.70437572   -8.6137713    526.08158  0.013032144  0.012395778           74 
 3365000    0.6981208   -8.6202758    526.76412  0.013045174  0.012391178           92 
 3366000   0.71170358    -8.627216    524.90225  0.012995203  0.012386582           80 
 3367000   0.71567195   -8.6327742    525.89357  0.013015879  0.012381994          105 
 3368000   0.72701856   -8.6131719     525.2587  0.012996306  0.012377403          102 
 3369000   0.71656618    -8.605388    525.48809  0.012998122  0.012372819           86 
 3370000   0.72240374   -8.5975919    524.82702  0.012977918  0.012368239           80 
 3371000    0.7145871   -8.6076908    525.68316  0.012995233  0.012363653           86 
 3372000   0.70795934   -8.6056618    526.10581  0.013001824  0.012359066           82 
 3373000   0.71474312   -8.6394414    524.91125  0.012968457  0.012354475           89 
 3374000   0.70664408   -8.6121792    525.32776    0.0129749   0.01234989           85 
 3375000   0.71989943   -8.6435048     525.8509  0.012983973  0.012345306          113 
 3376000   0.71647197   -8.6141513    526.27387  0.012990568  0.012340732           95 
 3377000   0.70366117   -8.6249637    525.14724  0.012958919  0.012336163           93 
 3378000   0.70971712   -8.6082169    525.32072  0.012959363  0.012331584          101 
 3379000   0.72017684    -8.633637    524.94775  0.012946329  0.012327006          101 
 3380000   0.70118728   -8.6179645    526.02124  0.012968965  0.012322428           87 
 3381000   0.71556684   -8.6402147    525.51849  0.012952738   0.01231785           95 
 3382000   0.72197915   -8.6425138    526.00877  0.012960989  0.012313274           98 
 3383000   0.71484565   -8.6249536    526.73708  0.012975098  0.012308702           75 
 3384000   0.71528924   -8.6137646    525.73158  0.012946503  0.012304126           85 
 3385000   0.70644162   -8.6203716    526.17522    0.0129536   0.01229956          110 
 3386000   0.69547609   -8.6188372    526.19386  0.012950233  0.012294993           95 
 3387000   0.69797423   -8.6312199    524.58605  0.012906851  0.012290432          111 
 3388000   0.70149206   -8.6107235    525.10599   0.01291583  0.012285882           86 
 3389000   0.70764726   -8.6187887    525.42619  0.012919893  0.012281321          104 
 3390000     0.709044   -8.6227382    525.21497  0.012910889   0.01227677           89 
 3391000   0.71803915   -8.6403944    525.76055  0.012920489  0.012272221           82 
 3392000   0.72139342   -8.6286461    525.50683  0.012910447  0.012267675          100 
 3393000   0.71336084   -8.6259183    526.03031  0.012919499  0.012263125           96 
 3394000   0.71153172   -8.6344492    526.37021  0.012924038  0.012258573           79 
 3395000   0.70335504   -8.6234671    525.44026  0.012897405  0.012254017          103 
 3396000   0.71321959   -8.6163754    524.30409  0.012865727  0.012249471          101 
 3397000   0.69259961   -8.6152758    526.81112   0.01292344  0.012244912          113 
 3398000   0.69100162   -8.6166367    525.77694  0.012894275  0.012240353           87 
 3399000   0.70036298   -8.6056282    525.63562  0.012887016  0.012235805           98 
 3400000   0.71889494   -8.6103546    524.72524  0.012860913  0.012231251           91 
 3401000   0.69857342   -8.6255648     525.2771  0.012870653  0.012226709           91 
 3402000   0.70905397   -8.6371011    524.65613  0.012851659  0.012222156           83 
 3403000   0.71188417   -8.6501615    523.43072  0.012817874  0.012217604           97 
 3404000   0.69994025   -8.6008386    525.96409  0.012876128  0.012213063          100 
 3405000   0.71156524   -8.6253141    525.13219  0.012851987  0.012208514           84 
 3406000   0.70210176   -8.6284394    525.26991  0.012851583  0.012203971           83 
 3407000   0.68905157   -8.6388279    525.07845  0.012843128   0.01219943           85 
 3408000   0.69884168   -8.6375517     524.5426  0.012826257  0.012194879          108 
 3409000   0.70980318   -8.6467148    525.04478   0.01283477  0.012190331          119 
 3410000    0.7048974   -8.6109094     524.8304  0.012825767  0.012185781          111 
 3411000   0.71121703   -8.6517717    524.20917   0.01280683  0.012181233          107 
 3412000   0.71768406   -8.6550083      524.532  0.012810961  0.012176685          103 
 3413000   0.72933949   -8.6246329    525.31814  0.012826403  0.012172141           92 
 3414000   0.69904308   -8.6339661    524.60184  0.012805161  0.012167596          104 
 3415000   0.70670187   -8.5835699    526.17904  0.012839899  0.012163065          116 
 3416000   0.70376006   -8.6182319    525.61085  0.012822279  0.012158541          105 
 3417000   0.70590079   -8.6044046     526.0197  0.012828497  0.012154007          105 
 3418000   0.71153417    -8.612169    526.62068  0.012839396  0.012149486          106 
 3419000   0.71395718   -8.6385275    524.79743  0.012791202  0.012144961          121 
 3420000   0.69902344   -8.6375921    524.82892  0.012788229  0.012140434          106 
 3421000   0.70663637   -8.6307001    525.20106  0.012793556  0.012135915          105 
 3422000   0.71807575   -8.6281807      525.389  0.012794394  0.012131405          103 
 3423000   0.70686033   -8.6190222    526.23775  0.012811319  0.012126898          109 
 3424000   0.68891855   -8.6260287    524.67002  0.012769422  0.012122378          108 
 3425000   0.70126803   -8.6168433    525.16518  0.012777742   0.01211786          121 
 3426000   0.70611457   -8.6162241    524.50515  0.012757957  0.012113344          116 
 3427000    0.6961414   -8.6285989    524.56209  0.012755619  0.012108843          111 
 3428000   0.71141003   -8.6231995    525.21955  0.012767881  0.012104327          119 
 3429000   0.70454195   -8.6324252    525.45808  0.012769954   0.01209981          110 
 3430000    0.7101302   -8.6340232    524.87905  0.012752163  0.012095285          115 
 3431000   0.69775014   -8.6510738    524.75355  0.012745399  0.012090771          120 
 3432000    0.7143632   -8.6072878     524.8833  0.012744835  0.012086256          114 
 3433000   0.69587895   -8.6447975    525.47468  0.012755478  0.012081753          112 
 3434000   0.71329147   -8.6311589    525.78459  0.012759284  0.012077263          109 
 3435000   0.70263055   -8.6452809    526.10138  0.012763255  0.012072778          137 
 3436000    0.7007343   -8.6229354    525.67882  0.012749292  0.012068287          135 
 3437000    0.7055841   -8.6455587      524.821  0.012724784  0.012063796          119 
 3438000   0.70150554   -8.6681208    526.34173  0.012757944  0.012059301          127 
 3439000   0.69375794    -8.637213    526.10406  0.012748475  0.012054817          112 
 3440000   0.69736534   -8.6156154    524.28375  0.012700672  0.012050331          108 
 3441000    0.7161266   -8.6302378    525.59596   0.01272876  0.012045841          130 
 3442000   0.71279027   -8.6266228    525.33073   0.01271864  0.012041353          122 
 3443000   0.70249161   -8.6532134     524.6792  0.012699177   0.01203687          137 
 3444000   0.70382602   -8.6308156    525.33813  0.012711434  0.012032384          137 
 3445000   0.69542421   -8.6508389    524.10834  0.012677996  0.012027898          140 
 3446000   0.71084474   -8.6163497    524.74445  0.012689699  0.012023406          142 
 3447000   0.70788186   -8.6290338    525.27516  0.012698848  0.012018918          146 
 3448000   0.69810783   -8.6627224    525.08388  0.012690542  0.012014438          142 
 3449000   0.67669815   -8.6551045    523.90747  0.012658439  0.012009971          147 
 3450000   0.69942939   -8.6429138    524.88179  0.012678304  0.012005494          151 
 3451000   0.70013078   -8.6440881    525.62211  0.012692507  0.012001007          155 
 3452000   0.69982784   -8.6208808    524.99121    0.0126736  0.011996534          157 
 3453000   0.69971625   -8.6394926    525.52957  0.012682922  0.011992059          134 
 3454000   0.70403115   -8.6357588    525.05515  0.012667804  0.011987581          151 
 3455000   0.70707937   -8.6703922    523.98753  0.012638387  0.011983101          165 
 3456000   0.69273189   -8.6495922    525.06165   0.01266063  0.011978637          171 
 3457000   0.69452566   -8.6593579    524.39581  0.012640917  0.011974169          147 
 3458000   0.69402814   -8.6650214    524.82707  0.012647654  0.011969694          132 
 3459000   0.70122578   -8.6591597    525.15471  0.012651891  0.011965218          138 
 3460000   0.67505368   -8.6628339    525.81557  0.012664151  0.011960753          147 
 3461000   0.69673863   -8.6523168    524.84876  0.012637214  0.011956285          143 
 3462000    0.6885818   -8.6410789    524.83299  0.012633184  0.011951829          131 
 3463000   0.69235193   -8.6369051    524.96891  0.012632807  0.011947367          154 
 3464000   0.69671222   -8.6642285    524.49196  0.012617686  0.011942897          149 
 3465000   0.69810859   -8.6613887    524.62051  0.012617136  0.011938428          151 
 3466000   0.69656009   -8.6620992    524.38686  0.012607878  0.011933951          150 
 3467000   0.71147874   -8.6488494    523.80015  0.012590139  0.011929482          163 
 3468000   0.69124349   -8.6640168    523.83555  0.012587359  0.011925011          165 
 3469000   0.69820282   -8.6814975    524.41122   0.01259756  0.011920538          154 
 3470000    0.6944262   -8.6521351    525.32741  0.012615932  0.011916067          149 
 3471000   0.70368068   -8.6650726    525.91326  0.012626363  0.011911605          164 
 3472000   0.68938178   -8.6558558    524.30118  0.012584034  0.011907128          174 
 3473000   0.69630957   -8.6703256    523.68499  0.012565625  0.011902662          178 
 3474000   0.69884936   -8.6659313    523.51167  0.012557851  0.011898211          180 
 3475000   0.69852467   -8.6728499     523.9895  0.012565695  0.011893762          179 
 3476000    0.6827761   -8.6724312    524.70724  0.012579287  0.011889316          178 
 3477000   0.69153937   -8.6693829    524.63412  0.012573917  0.011884868          182 
 3478000   0.69665398   -8.6537919    524.85575  0.012575612  0.011880424          193 
 3479000   0.69461934   -8.6603034    524.29474  0.012558559  0.011875974          214 
 3480000   0.69949903   -8.6586484     524.7701  0.012566334  0.011871529          218 
 3481000   0.69486472   -8.6461936    524.48571  0.012555916  0.011867078          222 
 3482000   0.70206724    -8.666715    523.69722  0.012533439  0.011862635          210 
 3483000   0.69258124   -8.6745155    523.43403  0.012523544  0.011858183          236 
 3484000   0.68934227   -8.6775641    524.66157   0.01254931   0.01185374          236 
 3485000   0.67203117   -8.6774857    524.46288  0.012540958  0.011849297          260 
 3486000   0.68835634   -8.6755775    524.67964  0.012542543  0.011844855          219 
 3487000   0.68877324   -8.6889378    523.86668  0.012519517  0.011840415          244 
 3488000   0.68638392   -8.6715022     524.5147   0.01253141  0.011835961          248 
 3489000   0.70717848   -8.6701352    523.35524  0.012500125  0.011831515          236 
 3490000   0.69197291   -8.6836408    524.25899  0.012518123  0.011827076          240 
 3491000   0.68883692   -8.6770397    522.86251  0.012481202  0.011822626          233 
 3492000   0.69976065   -8.6731192     523.8895  0.012502136  0.011818188          255 
 3493000   0.69943143   -8.6602958    524.45761   0.01251211   0.01181375          240 
 3494000    0.6970549   -8.6937943    523.40955  0.012483532  0.011809304          257 
 3495000   0.68427416   -8.6893349    523.92169  0.012492172  0.011804857          258 
 3496000   0.70252114   -8.6951125    524.86708  0.012511134  0.011800417          252 
 3497000   0.70962272   -8.6956398    524.03449  0.012487715  0.011795977          249 
 3498000   0.68576426   -8.6701018     523.5706  0.012473094  0.011791538          272 
 3499000   0.68982873   -8.6600801      525.022  0.012504097    0.0117871          237 
 3500000   0.69411347   -8.6951721    523.57327   0.01246603  0.011782667          258 
 3501000   0.69157057   -8.6805535    524.35096  0.012480981  0.011778236          243 
 3502000   0.70322186   -8.6917874      522.809  0.012440724  0.011773811          267 
 3503000    0.7038795   -8.6929741    523.97143  0.012464826  0.011769387          268 
 3504000    0.6943542   -8.7026044    524.01786  0.012462373  0.011764976          268 
 3505000   0.68884228   -8.6779887     524.4155  0.012468272  0.011760554          284 
 3506000   0.68076779   -8.7161466    523.98039  0.012454373  0.011756135          246 
 3507000   0.68725037   -8.6855169     523.6653  0.012443335  0.011751716          274 
 3508000   0.70645129    -8.689456    524.60368  0.012462079  0.011747297          269 
 3509000   0.69539121    -8.710673    524.41726    0.0124541  0.011742884          259 
 3510000   0.67543385   -8.6743182    524.59501  0.012454772  0.011738482          257 
 3511000   0.69112334   -8.7105153    523.82793  0.012433018  0.011734083          278 
 3512000   0.69236455     -8.67918    524.67302  0.012449531  0.011729686          262 
 3513000   0.68566658     -8.69729    524.90063  0.012451386  0.011725289          252 
 3514000   0.68944458    -8.692098    524.55452  0.012439635  0.011720874          278 
 3515000   0.69755683   -8.7099123    523.79513  0.012418092  0.011716473          269 
 3516000   0.68871514   -8.6850976    524.14189  0.012422779  0.011712059          303 
 3517000   0.68690861   -8.7008194    523.65615  0.012407737  0.011707649          301 
 3518000   0.68806413   -8.7158124    523.85533  0.012408929  0.011703243          285 
 3519000   0.69641554   -8.6855768    523.93674   0.01240733  0.011698843          273 
 3520000    0.6756563    -8.667438     523.3876  0.012390805  0.011694442          270 
 3521000   0.68346499    -8.700692    523.25412  0.012384127  0.011690045          263 
 3522000   0.67681537    -8.700228    524.08777  0.012400335  0.011685648          262 
 3523000   0.70870975    -8.693018    523.70305  0.012387715  0.011681248          261 
 3524000   0.68164122   -8.7046932    523.79836  0.012386454  0.011676844          253 
 3525000   0.69137835   -8.7249733    523.12378  0.012366992  0.011672442          255 
 3526000   0.68900052   -8.6972205    523.91641  0.012382218  0.011668043          262 
 3527000   0.67200951   -8.7173392    523.59392  0.012371088  0.011663653          286 
 3528000   0.66358224   -8.7263285    523.59286  0.012367556  0.011659243          293 
 3529000   0.68652183   -8.6966932    523.42201  0.012360017  0.011654848          281 
 3530000   0.68068447   -8.6947304    524.44028  0.012380554  0.011650447          268 
 3531000   0.69780323   -8.7276963    522.98917  0.012342801  0.011646054          270 
 3532000   0.68096307   -8.7027236    522.64531  0.012331194   0.01164167          289 
 3533000   0.68331505   -8.7071118    523.61261  0.012350519  0.011637278          283 
 3534000   0.68316299   -8.7173867     523.2847  0.012339292  0.011632897          272 
 3535000   0.68088872      -8.7166    523.58995  0.012342997   0.01162851          292 
 3536000   0.67942259   -8.7050441     523.9007   0.01234683  0.011624132          276 
 3537000   0.68928776   -8.7081841    523.72588  0.012339221  0.011619759          301 
 3538000   0.66558463   -8.6929538     524.3696  0.012350895  0.011615382          276 
 3539000   0.67563227   -8.7230625    524.51159  0.012350749   0.01161101          298 
 3540000   0.69378968   -8.7164105    522.97101  0.012310994  0.011606649          305 
 3541000   0.68216914   -8.7075589    523.99171  0.012331538  0.011602279          313 
 3542000   0.67556413   -8.7163056    522.98018  0.012304258  0.011597907          276 
 3543000   0.69323768   -8.7254263    523.90662  0.012322575  0.011593536          315 
 3544000   0.68044839   -8.7288594     524.0432   0.01232231  0.011589168          318 
 3545000   0.66699325   -8.7176458    524.00757  0.012317997  0.011584805          308 
 3546000   0.67816987   -8.7337514    523.52526  0.012303188  0.011580433          319 
 3547000   0.66767685   -8.7468349    522.12283  0.012266771  0.011576061          321 
 3548000   0.67055477   -8.7149976    523.93362  0.012305844  0.011571698          306 
 3549000   0.68875355    -8.720237    523.48956   0.01229195  0.011567329          317 
 3550000   0.67388357   -8.7358818    522.53659  0.012266117  0.011562959          294 
 3551000   0.69037167   -8.7122446    523.30123  0.012280607  0.011558599          296 
 3552000    0.6827151   -8.7435737      523.072  0.012271772  0.011554242          293 
 3553000   0.68881799   -8.7108368    523.72293  0.012283585  0.011549889          308 
 3554000   0.69066634   -8.7154928    522.59006  0.012253565  0.011545542          326 
 3555000   0.67104874   -8.7009016    523.72387  0.012276697  0.011541191          318 
 3556000   0.68992597   -8.7350264    523.08877  0.012258361  0.011536841          306 
 3557000   0.67480436   -8.6840865    524.26827  0.012282548  0.011532503          292 
 3558000   0.68660422   -8.7214794     523.5872  0.012263144  0.011528164          304 
 3559000   0.68564106    -8.705664    524.05142  0.012270568  0.011523826          292 
 3560000   0.67813489   -8.7217066    524.58975  0.012279723  0.011519488          304 
 3561000   0.68039029   -8.7536499    522.69477  0.012231929  0.011515139          327 
 3562000   0.67298815   -8.7463178    523.57434  0.012249072  0.011510789          325 
 3563000   0.69592149   -8.7480958     523.5689  0.012245507  0.011506452          303 
 3564000   0.69320475   -8.7340354    522.91622   0.01222681  0.011502117          321 
 3565000   0.67990017   -8.7210395    523.11519  0.012228032  0.011497776          332 
 3566000   0.68219394   -8.7256387    523.69357  0.012238119  0.011493433          345 
 3567000    0.6779174   -8.7259127    524.67104  0.012257524  0.011489096          293 
 3568000   0.68497276   -8.7545812    523.06647  0.012216612  0.011484757          316 
 3569000   0.68745113   -8.7535656    521.83054  0.012184331  0.011480417          330 
 3570000   0.67457839   -8.7311639     522.4645  0.012195717  0.011476081          311 
 3571000   0.68898817   -8.7357381    523.38116  0.012213693  0.011471751          336 
 3572000    0.6952143   -8.7349273    523.97428  0.012224111  0.011467422          320 
 3573000    0.6678092     -8.73029    523.09599  0.012200205  0.011463086          314 
 3574000   0.67296802   -8.7507516    522.25208  0.012177114  0.011458753          322 
 3575000   0.67427285   -8.7437197    523.34061  0.012199082  0.011454424          323 
 3576000   0.68639137   -8.7381304    523.69754  0.012203988  0.011450098          296 
 3577000   0.67937897   -8.7015506    523.06595  0.012185862  0.011445775          312 
 3578000   0.68116838   -8.7304373    522.21198  0.012162567  0.011441447          297 
 3579000   0.68421802   -8.7170384    522.95075   0.01217637   0.01143712          305 
 3580000   0.70074427    -8.737159    522.63708  0.012165668  0.011432791          307 
 3581000   0.69562281   -8.7211827    522.88097  0.012167946  0.011428467          303 
 3582000    0.6665964   -8.7465698    521.85001  0.012140564  0.011424144          314 
 3583000   0.68359683    -8.754927    521.97145      0.01214  0.011419815          318 
 3584000   0.68703889   -8.7303299    522.87498  0.012157621  0.011415487          307 
 3585000   0.68274478   -8.7491782    522.70535  0.012150287  0.011411163          296 
 3586000   0.67094148   -8.7486174    522.81056  0.012149344  0.011406838          312 
 3587000    0.6888536   -8.7522673    523.16906  0.012154285  0.011402507          316 
 3588000   0.69582295    -8.740701    522.31613  0.012131088  0.011398173          299 
 3589000   0.67938672   -8.7554097    522.69377  0.012136476  0.011393846          325 
 3590000   0.67356459   -8.7512892    522.28021  0.012123496  0.011389528          309 
 3591000   0.69276833   -8.7410676    523.38195  0.012145687  0.011385204          324 
 3592000   0.67616937   -8.7541332    521.59414  0.012100829  0.011380879          317 
 3593000   0.67521061    -8.745958    521.44753  0.012094061  0.011376562          309 
 3594000   0.65953457   -8.7707896    522.95382  0.012125622  0.011372242          321 
 3595000   0.68934922   -8.7540618    522.75819  0.012117714  0.011367926          303 
 3596000   0.68249829   -8.7612642    522.69819  0.012112954  0.011363611          324 
 3597000   0.66158271   -8.7620341    523.34239  0.012124511  0.011359299          310 
 3598000   0.68005908   -8.7431334    523.11471  0.012115868  0.011354992          301 
 3599000   0.67285876   -8.7570755     522.2537  0.012092565  0.011350681          317 
 3600000   0.67790714   -8.7527605    522.11459  0.012085986  0.011346376          314 
 3601000   0.66773464   -8.7418005    523.02884  0.012103787   0.01134207          321 
 3602000   0.66863459   -8.7523462    523.16695  0.012103622  0.011337767          321 
 3603000   0.68195727   -8.7539058    522.91607   0.01209446  0.011333464          300 
 3604000   0.67869052    -8.775764    522.28087  0.012076417  0.011329167          319 
 3605000   0.66980999   -8.7616924    523.90769  0.012110673  0.011324872          317 
 3606000   0.67662322   -8.7966736    522.89936  0.012084012  0.011320571          353 
 3607000   0.65616718   -8.7428795    523.29555  0.012089815  0.011316272          326 
 3608000   0.67219616   -8.7698585    522.40979  0.012066006  0.011311987          325 
 3609000   0.66084581   -8.7645599    522.25756  0.012059147  0.011307696          334 
 3610000   0.66710903   -8.7623329    522.46787  0.012060662  0.011303412          350 
 3611000   0.68716039   -8.7473149    522.49394  0.012057924  0.011299127          315 
 3612000   0.69720127   -8.7761133    522.02407  0.012043745   0.01129484          332 
 3613000   0.67123931   -8.7842748    521.18748  0.012021115   0.01129055          357 
 3614000   0.66675885   -8.7666481    522.74409  0.012053682  0.011286262          331 
 3615000    0.6788251   -8.7783113    522.57265  0.012046396  0.011281973          344 
 3616000   0.68890924   -8.7712709    521.90185  0.012027605  0.011277682          352 
 3617000   0.66637407   -8.7889366    521.67746   0.01201911  0.011273393          362 
 3618000   0.68189475   -8.7772998    522.21886  0.012028258  0.011269111          333 
 3619000   0.67986787   -8.7829373    523.16527  0.012046727  0.011264829          333 
 3620000   0.66778998   -8.7713176    522.66511  0.012031886  0.011260551          329 
 3621000   0.68204899   -8.7855504    521.48561  0.012001418  0.011256273          348 
 3622000   0.67544148   -8.7648165    522.71137  0.012026306  0.011251995          332 
 3623000   0.66660332    -8.789966    521.78403  0.012001657  0.011247715          333 
 3624000   0.68023786   -8.7791487    521.45801  0.011990848  0.011243428          310 
 3625000   0.66942531    -8.790089     521.6479  0.011991906  0.011239147          321 
 3626000   0.68725581   -8.7914803    521.81214  0.011992373  0.011234867          348 
 3627000   0.67999989   -8.7565006    521.56595   0.01198341  0.011230588          331 
 3628000    0.6712816   -8.7979774    522.56304   0.01200301   0.01122631          340 
 3629000   0.67103889   -8.7594273    521.59598  0.011977496  0.011222047          342 
 3630000   0.68667531   -8.7696683    522.17232  0.011987427  0.011217774          321 
 3631000   0.67412068   -8.7846862    521.62972  0.011971673  0.011213501          319 
 3632000   0.67934883   -8.7887083    522.54208   0.01198931  0.011209233          342 
 3633000   0.66997471   -8.7794657    521.95173  0.011972468  0.011204965          330 
 3634000   0.66299201   -8.7704881    522.92742  0.011991548  0.011200696          316 
 3635000   0.67292491   -8.7571164    522.26125  0.011972977  0.011196431          331 
 3636000   0.67345624   -8.7935446    521.10451  0.011943173  0.011192173          358 
 3637000   0.67055661   -8.7992399    521.95238  0.011959316  0.011187915          317 
 3638000   0.65946996   -8.7884307     522.2628  0.011963139   0.01118366          330 
 3639000   0.66938168   -8.7854598     522.1447  0.011957147  0.011179412          352 
 3640000   0.67460669     -8.78104    521.27507  0.011933953  0.011175168          329 
 3641000   0.65606618   -8.7799262    520.98485  0.011924033  0.011170912          333 
 3642000   0.66662982   -8.7692231    521.54337  0.011933539  0.011166652          326 
 3643000   0.65055832   -8.8018459     521.5331  0.011930028  0.011162395          386 
 3644000   0.66035024   -8.7877362    522.14648  0.011940781  0.011158136          321 
 3645000   0.66887049   -8.7581655    521.52807  0.011923367  0.011153884          392 
 3646000   0.69230312   -8.7857436    521.77328  0.011925701  0.011149632          357 
 3647000   0.67114532   -8.8005304    520.88538  0.011902143  0.011145385          354 
 3648000   0.65678908   -8.7714326     522.0858  0.011926302  0.011141141          330 
 3649000   0.66746642   -8.7617875    521.46638  0.011908888  0.011136897          328 
 3650000   0.66412002   -8.7969146    520.66947  0.011887431  0.011132655          333 
 3651000   0.66962812   -8.7924047    521.71892  0.011908128  0.011128405          322 
 3652000   0.67944779   -8.7875693    522.69191   0.01192707  0.011124182          336 
 3653000   0.67082964   -8.7739338    521.92303  0.011906265  0.011119951          330 
 3654000   0.64781762   -8.7766649    521.53304  0.011894112  0.011115718          375 
 3655000   0.65752999   -8.7732634    522.12185  0.011904283  0.011111489          339 
 3656000   0.65967304   -8.7850911     521.2189  0.011880445  0.011107268          320 
 3657000   0.65776583   -8.7822651    521.58724   0.01188559  0.011103047          326 
 3658000   0.66050659   -8.7980571    521.09691  0.011871171  0.011098826          353 
 3659000   0.66151298   -8.7761827    521.51157   0.01187737  0.011094609          379 
 3660000   0.67949981    -8.773801    521.89568  0.011882871  0.011090388          351 
 3661000   0.66650363   -8.7807639    522.54099  0.011894314   0.01108617          310 
 3662000   0.67542674   -8.7611273     521.7094  0.011872142  0.011081956          344 
 3663000   0.67754182    -8.778416    522.32669  0.011882944  0.011077748          320 
 3664000   0.66813061   -8.7813165    522.10578  0.011874677  0.011073542          313 
 3665000   0.67142926   -8.7772931    520.90988  0.011844245  0.011069337          348 
 3666000    0.6777808   -8.7693331      521.715  0.011859315  0.011065133          314 
 3667000   0.66932333   -8.7891698    521.91338   0.01186059  0.011060924          324 
 3668000   0.66515698   -8.7641047    522.10824  0.011861783  0.011056715          323 
 3669000   0.66268804   -8.7873407     521.6657  0.011848499  0.011052509          366 
 3670000   0.65698331   -8.7716854     521.3696  0.011838547  0.011048307          317 
 3671000   0.65581658   -8.7849888    522.31996  0.011856895  0.011044111          346 
 3672000   0.66656768   -8.7946564    521.44477  0.011833805  0.011039918          336 
 3673000    0.6681608   -8.7924574    521.30508  0.011827414  0.011035727          359 
 3674000   0.67493724   -8.7967167    522.34783  0.011847846  0.011031534          350 
 3675000   0.66151583   -8.7671236    522.05113  0.011837894  0.011027342          337 
 3676000   0.66438905   -8.7804671    521.65113  0.011825606  0.011023151          334 
 3677000   0.65808871   -8.7636985    521.60142  0.011821263  0.011018953          337 
 3678000   0.66926839   -8.7940343     521.4585  0.011814811  0.011014758          330 
 3679000   0.66221125   -8.7914613     521.7529  0.011818268   0.01101057          323 
 3680000   0.65669109   -8.7968322    521.93877  0.011819266  0.011006383          349 
 3681000   0.66304107   -8.7791621    522.05637  0.011818717  0.011002193          319 
 3682000   0.65220241    -8.815593    521.67833  0.011806951  0.010997998          346 
 3683000   0.66618148   -8.7996525    522.01273  0.011811312  0.010993814          322 
 3684000    0.6654953   -8.8024764    521.47767  0.011796002  0.010989628          344 
 3685000   0.67227054   -8.7933581     521.6457  0.011796601  0.010985444          330 
 3686000   0.66650836   -8.7895606    521.65088  0.011793518  0.010981271          346 
 3687000   0.66218205   -8.7984659    521.96121  0.011797333  0.010977097          329 
 3688000   0.67032085   -8.8045508     520.8484  0.011768989  0.010972931          359 
 3689000   0.67248354   -8.8045454    521.71679  0.011785416  0.010968763          337 
 3690000   0.65939282   -8.7640886    521.52515  0.011777894  0.010964592          340 
 3691000   0.66333566   -8.7819531    522.04429  0.011786424  0.010960426          321 
 3692000     0.669017   -8.7894018    521.54647  0.011771995  0.010956265          338 
 3693000   0.65107862   -8.8101259    521.75063  0.011773414  0.010952102          324 
 3694000   0.66436622   -8.7869912    521.24154  0.011758742  0.010947955          322 
 3695000   0.65949717   -8.7792464    521.03901  0.011750992  0.010943803          354 
 3696000   0.65057231   -8.7724964    522.11183  0.011772002  0.010939658          326 
 3697000   0.65865716   -8.8047121    522.48544  0.011777239  0.010935513          336 
 3698000   0.65722034   -8.7718138    521.64741   0.01175517  0.010931361          351 
 3699000   0.67486371   -8.7757473    522.53406  0.011771967  0.010927218          338 
 3700000   0.66438524   -8.7892414    521.74437  0.011750999  0.010923073          331 
 3701000   0.67493287   -8.7979102    520.86222  0.011727961  0.010918927          372 
 3702000   0.67240598   -8.7818274     521.5496  0.011740266  0.010914785          348 
 3703000   0.66322385   -8.8051636     521.5011  0.011736005   0.01091064          370 
 3704000   0.65875794   -8.8083056     521.0719   0.01172318  0.010906503          328 
 3705000   0.65999785   -8.8066047    520.06671  0.011697407  0.010902361          373 
 3706000   0.64857461   -8.7952323    521.09959  0.011717476  0.010898221          375 
 3707000   0.66520144   -8.7717335    521.62198  0.011726058  0.010894081          391 
 3708000   0.64812553     -8.79795    522.05485  0.011732624  0.010889946          368 
 3709000   0.66212731   -8.7890086    521.05668  0.011707034  0.010885811          403 
 3710000    0.6662295   -8.7958261    522.21075  0.011729801  0.010881681          365 
 3711000   0.64420491   -8.8110848    521.65104  0.011714072  0.010877548          373 
 3712000   0.66937176   -8.8212454    521.38888   0.01170503  0.010873411          416 
 3713000   0.64841056   -8.8128543    521.47917  0.011703905  0.010869278          436 
 3714000   0.65967448    -8.810233    522.28422  0.011718817  0.010865148          412 
 3715000   0.64037553   -8.8133069    520.44826  0.011674479   0.01086102          406 
 3716000   0.67094378   -8.8016355    521.16492  0.011687408  0.010856899          455 
 3717000   0.65245547   -8.8197295    520.46385  0.011668546  0.010852768          425 
 3718000   0.64813101   -8.8145679    520.71895  0.011671126  0.010848648          436 
 3719000    0.6650894   -8.8107723    521.68157  0.011689557  0.010844528          388 
 3720000   0.66679627    -8.801044    520.25212  0.011654393   0.01084041          408 
 3721000   0.66985197    -8.815116    522.15109   0.01169379  0.010836296          426 
 3722000   0.64444039   -8.8056054    520.87034  0.011661972  0.010832184          376 
 3723000     0.657146   -8.8179752    520.64519  0.011653801  0.010828071          415 
 3724000    0.6610215   -8.7834979    522.20427  0.011685559  0.010823958          383 
 3725000   0.65748298   -8.7907613    521.46996  0.011665995  0.010819842          430 
 3726000   0.63864248   -8.8099195    521.63115  0.011666469   0.01081573          411 
 3727000   0.66670103    -8.792471    521.46764  0.011659683  0.010811627          408 
 3728000   0.65531939   -8.8000614    521.40983  0.011655263  0.010807525          379 
 3729000   0.65090983   -8.7764512    521.86273  0.011662258  0.010803422          395 
 3730000   0.65440765   -8.8068997    520.95025  0.011638746  0.010799319          375 
 3731000   0.65397823   -8.8289956    520.90588  0.011634635  0.010795221          407 
 3732000   0.64586979   -8.8365459    521.27477  0.011639755  0.010791115          400 
 3733000   0.64105365   -8.8147904     520.9636   0.01162969  0.010787009          392 
 3734000   0.65288075   -8.8206646    521.43418  0.011637078  0.010782909          412 
 3735000    0.6412303   -8.8277712    519.98611  0.011601653  0.010778812          423 
 3736000   0.65689245   -8.8198829    519.90585  0.011596758  0.010774714          365 
 3737000   0.66198502   -8.8209608     521.7168  0.011634038  0.010770623          402 
 3738000   0.65275102   -8.8045075    521.14276  0.011618128  0.010766531          407 
 3739000   0.64880105   -8.8207608    521.58022  0.011624771  0.010762436          423 
 3740000   0.66248634   -8.8003855    521.14089  0.011611874  0.010758359          430 
 3741000   0.66137984   -8.8150671    521.20019  0.011610091  0.010754272          413 
 3742000   0.65288988   -8.8385636    521.03485  0.011603306  0.010750188          430 
 3743000   0.65223549   -8.8109028    521.25265  0.011605055  0.010746113          427 
 3744000   0.65054875   -8.8140994    521.05892  0.011597643   0.01074203          405 
 3745000   0.66773008   -8.8343667    520.90869  0.011591204  0.010737948          416 
 3746000   0.64030787   -8.8188668    520.42402  0.011577327  0.010733862          412 
 3747000   0.64179617   -8.8230794    520.39319  0.011573552  0.010729775          378 
 3748000   0.64200553   -8.8071368    521.98196  0.011605789  0.010725702          427 
 3749000   0.65200964   -8.8066317    520.96357  0.011580056  0.010721632          398 
 3750000   0.64574704   -8.8145652    521.24625   0.01158325  0.010717562          432 
 3751000   0.65629093   -8.8185279    520.91521  0.011572808  0.010713492          412 
 3752000   0.66504639   -8.8325725    520.52057  0.011560958  0.010709429          402 
 3753000     0.632334   -8.8179646    521.35684  0.011576446  0.010705362          407 
 3754000    0.6482423   -8.8299938    520.82939  0.011561654  0.010701304          410 
 3755000   0.65430863   -8.7876183    520.42036  0.011549498  0.010697246          368 
 3756000   0.64783005   -8.8161709    520.04923  0.011538188  0.010693189          393 
 3757000   0.64574319   -8.8342262     520.9101  0.011554212  0.010689131          455 
 3758000   0.65445038   -8.8225406    519.96002   0.01153007  0.010685071          410 
 3759000   0.65005547    -8.811015    520.86779  0.011547127  0.010681013          419 
 3760000   0.64988069   -8.7942915    521.78957  0.011564485  0.010676951          391 
 3761000   0.65074624   -8.8217693    520.82472  0.011540032    0.0106729          397 
 3762000    0.6422908   -8.8482755     520.8036  0.011536497  0.010668844          370 
 3763000   0.65834687   -8.8536814    519.45088  0.011503474  0.010664792          375 
 3764000   0.66624617   -8.8207266    521.06384  0.011536128  0.010660742          379 
 3765000   0.64416395   -8.8240729    521.02978   0.01153231  0.010656691          389 
 3766000   0.65362322   -8.8290947    520.69251  0.011521785  0.010652646          390 
 3767000   0.65360724   -8.8170531    520.46659  0.011513729    0.0106486          385 
 3768000   0.65407534   -8.8103824    521.02961  0.011523125  0.010644551          380 
 3769000   0.64425057   -8.8140854     520.4871  0.011508072   0.01064051          389 
 3770000    0.6374096   -8.8131966    520.55084  0.011506429  0.010636473          378 
 3771000   0.63996054   -8.8251292    521.32645  0.011520517   0.01063244          418 
 3772000   0.65123382   -8.8111264    520.68399  0.011503269   0.01062841          406 
 3773000   0.65482524   -8.8216683    521.17441  0.011511053  0.010624382          412 
 3774000   0.65533853   -8.8385698    521.25089  0.011509691  0.010620355          440 
 3775000   0.64824993   -8.8347351    521.17712  0.011505014  0.010616323          386 
 3776000   0.63010721   -8.8248092    521.03363    0.0114988  0.010612293          406 
 3777000   0.63693806   -8.8245085    520.77428  0.011490034  0.010608266          380 
 3778000   0.65022637   -8.8327726    520.59424  0.011483021  0.010604241          401 
 3779000   0.64848934    -8.807739     521.4832  0.011499585  0.010600219          401 
 3780000   0.65788302   -8.8315191    520.83337  0.011482217  0.010596202          407 
 3781000   0.64984432   -8.8352811    520.03554  0.011461596  0.010592188          443 
 3782000   0.66190297   -8.8422986    520.76261  0.011474586  0.010588171          397 
 3783000   0.65765037    -8.840898     520.7603  0.011471502  0.010584149          444 
 3784000   0.64371941   -8.8506508    520.12278   0.01145443  0.010580136          423 
 3785000   0.64646909    -8.840556    520.23648  0.011453908  0.010576119          425 
 3786000   0.64282344   -8.8260729    520.63122  0.011459571  0.010572106          406 
 3787000   0.64250142   -8.8236667    520.33627  0.011450054  0.010568098          443 
 3788000   0.63122895    -8.802627     521.7549   0.01147824  0.010564089          396 
 3789000   0.65309191   -8.8227622    520.32006  0.011443654  0.010560084          434 
 3790000   0.64490892   -8.8326484    521.06137  0.011456934  0.010556078          392 
 3791000   0.64227627   -8.8360478    521.31561  0.011459501  0.010552071          403 
 3792000   0.63635051   -8.8424822     520.3886  0.011436107  0.010548065          445 
 3793000   0.64909588    -8.828324    520.41608  0.011433695  0.010544066          406 
 3794000   0.64993004   -8.8422301    520.95383  0.011442493  0.010540059          449 
 3795000   0.63805103   -8.8465735    521.09505  0.011442579  0.010536061          420 
 3796000   0.65152957   -8.8215701    520.43352  0.011425042  0.010532062          407 
 3797000   0.66191059   -8.8349111    520.47617  0.011422969  0.010528063          423 
 3798000    0.6397216   -8.8368415    519.89224  0.011407149  0.010524061          437 
 3799000   0.64372586   -8.8274694    520.41606  0.011415637  0.010520067          474 
 3800000   0.65137169   -8.8350086    521.38541  0.011433891  0.010516071          402 
 3801000   0.63396923   -8.8532002    519.62791  0.011392351  0.010512076          423 
 3802000   0.64959117   -8.8424302    519.75323  0.011392101  0.010508088          415 
 3803000   0.63169955    -8.829013    521.25688  0.011422055  0.010504099          408 
 3804000   0.64464706   -8.8332551    520.47286  0.011401876  0.010500112          406 
 3805000   0.63841115   -8.8329412     520.2965  0.011395018  0.010496125          400 
 3806000   0.65280377   -8.8613442    519.93351  0.011384076  0.010492137          404 
 3807000   0.65086401   -8.8445518    520.06448  0.011383952  0.010488145          446 
 3808000   0.64335512   -8.8351949    521.63281  0.011415284  0.010484158          420 
 3809000   0.64895172   -8.8414492    520.28581  0.011382817  0.010480171          427 
 3810000   0.64796129   -8.8625496    519.62759  0.011365433  0.010476188          417 
 3811000   0.63878406   -8.8325042    520.65255  0.011384863  0.010472209          432 
 3812000   0.64827223   -8.8382648    519.62479  0.011359409  0.010468222          405 
 3813000   0.64947372   -8.8413544     521.1687  0.011390172  0.010464247          402 
 3814000   0.63681833    -8.860977    520.84821  0.011380183  0.010460272          420 
 3815000   0.64539132   -8.8551086    519.94222   0.01135741  0.010456293          437 
 3816000   0.64135074   -8.8393027    520.07263  0.011357281   0.01045232          401 
 3817000    0.6386847   -8.8786097    520.11147  0.011355154  0.010448343          420 
 3818000    0.6359972   -8.8315078    519.75457   0.01134439   0.01044437          449 
 3819000   0.63510153   -8.8570679    519.71246  0.011340501  0.010440401          422 
 3820000   0.64648753   -8.8633795    519.88436  0.011341282   0.01043644          460 
 3821000   0.63767248   -8.8458361    520.32695  0.011347966  0.010432475          477 
 3822000   0.64600434   -8.8509023    519.61657  0.011329508  0.010428511          427 
 3823000   0.64209173   -8.8498988    520.32163  0.011341914  0.010424553          416 
 3824000   0.62833839   -8.8592767    519.65585  0.011324439   0.01042059          438 
 3825000   0.63493193   -8.8551835    519.86096  0.011325947  0.010416629          447 
 3826000   0.64164226   -8.8714868    519.89787  0.011323791   0.01041267          439 
 3827000     0.643671   -8.8310232    520.91428  0.011342964  0.010408714          451 
 3828000    0.6368235   -8.8621316    520.08034  0.011321847  0.010404759          436 
 3829000   0.63559784   -8.8681344    520.06977   0.01131866  0.010400805          430 
 3830000    0.6241309   -8.8554415    519.08402  0.011294256   0.01039685          425 
 3831000   0.64224824   -8.8503737    520.76081  0.011327782  0.010392899          441 
 3832000   0.64131779   -8.8577231    520.09517  0.011310351  0.010388947          421 
 3833000   0.64650876   -8.8670195    519.05481  0.011284782  0.010385005          485 
 3834000   0.64494116   -8.8448573    519.23716  0.011285802  0.010381063          418 
 3835000   0.64687123    -8.863798    520.23911  0.011304631  0.010377127          464 
 3836000   0.64944327   -8.8518049    521.25403  0.011323732  0.010373191          419 
 3837000   0.64105697   -8.8496922     520.6313  0.011307256   0.01036926          415 
 3838000   0.63078659   -8.8525858     519.8516  0.011287381  0.010365329          416 
 3839000   0.63490081   -8.8545748    520.00099  0.011287683  0.010361395          410 
 3840000   0.64062426   -8.8468072    520.86669  0.011303531  0.010357459          453 
 3841000   0.62384167   -8.8477321    520.46949   0.01129197  0.010353524          401 
 3842000   0.64305356   -8.8524474    519.96976  0.011278192  0.010349593          436 
 3843000   0.63215094   -8.8436415    519.56347  0.011266447  0.010345663          434 
 3844000   0.63936194   -8.8637938     520.0422  0.011273894  0.010341734          445 
 3845000   0.63726343   -8.8583699    520.37658  0.011278209  0.010337806          425 
 3846000   0.65668588   -8.8446769    519.56728  0.011257741  0.010333877          433 
 3847000   0.63412175   -8.8539715    519.44732  0.011252216  0.010329953          451 
 3848000   0.62950534   -8.8663978    520.06634  0.011262698  0.010326027          429 
 3849000   0.64644191   -8.8629624    519.44587  0.011246338  0.010322106          419 
 3850000    0.6554808   -8.8642044    520.19007  0.011259525  0.010318188          420 
 3851000   0.63697161   -8.8578488     519.9681  0.011251798  0.010314275          443 
 3852000   0.63458791   -8.8540746    520.11795  0.011252119   0.01031036          435 
 3853000   0.63109531    -8.877643    519.23478  0.011230097  0.010306449          460 
 3854000   0.63250761   -8.8678511    519.52435  0.011233445  0.010302534          445 
 3855000   0.64300086   -8.8448073    519.86625  0.011237922  0.010298624          432 
 3856000   0.63313275   -8.8528916    520.46001  0.011247839   0.01029471          472 
 3857000   0.62369346   -8.8439275    520.49376  0.011245652  0.010290805          437 
 3858000   0.63866034   -8.8423981    519.77627  0.011227239  0.010286896          425 
 3859000   0.64489277   -8.8561926     520.2534  0.011234633  0.010282987          451 
 3860000   0.62928724   -8.8592344    520.13735  0.011229217  0.010279078          441 
 3861000   0.64041626   -8.8626294      520.145  0.011226474  0.010275175          430 
 3862000   0.63656544   -8.8775634    519.61533  0.011212138  0.010271275          453 
 3863000   0.62489789   -8.8809471    519.04272  0.011196883  0.010267368          438 
 3864000   0.62119907   -8.8601799    519.05877  0.011194332  0.010263464          469 
 3865000   0.63148654   -8.8426594    520.08552  0.011213573   0.01025957          459 
 3866000   0.64050724   -8.8664063    519.31371  0.011194036  0.010255668          466 
 3867000   0.61681822   -8.8987772    518.56749   0.01117506   0.01025177          431 
 3868000   0.62345746   -8.8635875    519.49986  0.011192258  0.010247872          470 
 3869000   0.63595725   -8.8738265    518.85262  0.011175425  0.010243978          444 
 3870000   0.64108384   -8.8573536    519.82242   0.01119342  0.010240084          494 
 3871000   0.63670951   -8.8915611    518.99959  0.011172815  0.010236196          456 
 3872000   0.64614165   -8.8598446    518.95451  0.011168959  0.010232314          463 
 3873000   0.62750127   -8.8530686    519.29704  0.011173445  0.010228431          474 
 3874000   0.61561622    -8.838668    519.62466  0.011177608  0.010224554          466 
 3875000   0.63292006   -8.8669832    519.80042  0.011178504  0.010220674          467 
 3876000   0.61927726    -8.861446    519.94797  0.011178792  0.010216794          468 
 3877000    0.6250707   -8.8727866    519.60863  0.011168615  0.010212918          463 
 3878000   0.61952722   -8.8732772    520.05123  0.011175246   0.01020904          469 
 3879000   0.62632505   -8.8623746    519.82126  0.011167424  0.010205169          492 
 3880000   0.64227558   -8.8778285    518.90957  0.011144965  0.010201296          487 
 3881000   0.64850635   -8.8686279    519.43254  0.011153323  0.010197428          454 
 3882000   0.63797531   -8.8669453    519.92225  0.011160962  0.010193558          463 
 3883000   0.63993583   -8.8432087    519.62344  0.011151675  0.010189696          484 
 3884000    0.6398234   -8.8840128    519.09867  0.011137544  0.010185835          499 
 3885000   0.63084486   -8.8821117    519.37017  0.011140501  0.010181971          468 
 3886000    0.6371732   -8.8762824    519.85597  0.011148052  0.010178106          476 
 3887000   0.63260878   -8.8865997    519.00624  0.011126967  0.010174246          471 
 3888000   0.63226884   -8.8706746    519.65209  0.011137948  0.010170387          464 
 3889000   0.61682646    -8.864301    520.67112  0.011156919  0.010166534          461 
 3890000   0.63007791   -8.8853317     520.2985  0.011146069  0.010162678          479 
 3891000   0.63599522   -8.8907694    519.10863  0.011117721  0.010158821          473 
 3892000     0.623816   -8.8571469    518.86318  0.011109609  0.010154963          459 
 3893000   0.63461205    -8.883852     518.7984  0.011105369   0.01015111          490 
 3894000   0.61735142   -8.8833963    518.89615  0.011104609  0.010147259          474 
 3895000   0.62134397   -8.8668597      519.601  0.011116838  0.010143411          500 
 3896000   0.62935095   -8.8578585    518.74631  0.011095703  0.010139567          502 
 3897000   0.62878358   -8.8778929    518.73653  0.011092647  0.010135721          471 
 3898000   0.64523222     -8.88223    520.14562  0.011119925  0.010131877          468 
 3899000   0.62421063   -8.8871232    518.82843  0.011088921  0.010128039          479 
 3900000   0.62111836   -8.8717433    518.90376  0.011087687  0.010124198          453 
 3901000   0.64077751   -8.8574714    519.18961  0.011090951  0.010120368          455 
 3902000   0.62323536   -8.8703706    519.18235  0.011087954  0.010116532          471 
 3903000   0.64368226   -8.8538089    519.30871  0.011087811  0.010112701          483 
 3904000   0.63536822   -8.8846974    518.84173  0.011075003   0.01010887          481 
 3905000     0.626726   -8.8740606    519.89137  0.011094566  0.010105039          493 
 3906000   0.62697423   -8.8814915    518.86598  0.011069849  0.010101208          447 
 3907000   0.62040776   -8.8842334    519.02492  0.011070406  0.010097382          476 
 3908000   0.62784829   -8.8696727    518.45043  0.011055323  0.010093551          486 
 3909000   0.62709888     -8.87452     519.4786  0.011074414  0.010089726          461 
 3910000   0.62120496   -8.8733101     519.6714   0.01107569  0.010085901          470 
 3911000   0.62446465   -8.8854321    517.99204  0.011037076  0.010082082          472 
 3912000   0.64106993   -8.8733367    519.33495  0.011062861  0.010078264          491 
 3913000    0.6245504   -8.8936002     518.1362  0.011034505  0.010074441          488 
 3914000   0.62470286    -8.871519    519.60708  0.011063002  0.010070622          517 
 3915000   0.62640071   -8.8673234    519.15752  0.011050607  0.010066804          481 
 3916000   0.63239947   -8.8688621    520.37309  0.011073653  0.010062987          475 
 3917000   0.62670115   -8.8936503    518.45155  0.011029945  0.010059174          478 
 3918000   0.60064294   -8.8945573    518.29789  0.011023862  0.010055357          478 
 3919000    0.6113967   -8.8895414    519.58195  0.011048353  0.010051548          464 
 3920000   0.63644025   -8.8850527     519.3223  0.011040015  0.010047737          508 
 3921000   0.61492465   -8.8775786    518.53382  0.011020442  0.010043928          479 
 3922000   0.62408862   -8.8751079    518.82665  0.011023854  0.010040119          473 
 3923000   0.63310577   -8.8766422     519.1807  0.011028564  0.010036314          479 
 3924000   0.62473266   -8.8797765    519.78412  0.011038569  0.010032511          506 
 3925000   0.62605049   -8.8715456    518.25767  0.011003348  0.010028706          452 
 3926000   0.62780504   -8.9049246    518.26923   0.01100079  0.010024899          487 
 3927000    0.6286765   -8.9031561    518.70963  0.011007334  0.010021095          448 
 3928000   0.61488176    -8.871228    518.96813  0.011010016  0.010017293          437 
 3929000   0.62178799   -8.9073689    519.23123  0.011012794  0.010013488          454 
 3930000    0.6247307   -8.8851611    519.08796  0.011006954  0.010009684          453 
 3931000   0.61875714   -8.8879248    518.58253   0.01099344   0.01000589          461 
 3932000   0.63577693   -8.8797115    519.47575  0.011009574   0.01000209          448 
 3933000    0.6188308   -8.8988485    519.15495  0.010999978 0.0099983029          422 
 3934000   0.61429877   -8.8753084    518.13252  0.010975524 0.0099945136          467 
 3935000   0.64040837   -8.8852982    518.33771   0.01097708  0.009990724          459 
 3936000   0.61842942   -8.9055582     518.0032  0.010967209 0.0099869343          462 
 3937000   0.61290247   -8.8864943    518.81322  0.010981568 0.0099831469          433 
 3938000   0.62825337   -8.8904043    518.36863  0.010969372 0.0099793642          472 
 3939000   0.61825569   -8.8983598    519.35406  0.010987435 0.0099755815          489 
 3940000   0.62551751   -8.8755368    518.96529  0.010976423 0.0099718022          439 
 3941000    0.6121018   -8.8925853     519.6482  0.010988078 0.0099680281          467 
 3942000    0.6217191   -8.8941396    518.36172  0.010958095 0.0099642522          476 
 3943000   0.61033771   -8.8838641    518.60886  0.010960539 0.0099604735          480 
 3944000   0.63599498   -8.8972389    518.54874   0.01095649  0.009956696          493 
 3945000   0.61268979    -8.899903     517.7496  0.010936831  0.009952918          434 
 3946000   0.60711272   -8.8923569    519.25656  0.010965884 0.0099491448          453 
 3947000   0.61206265   -8.9028903    517.59666   0.01092806 0.0099453722          463 
 3948000   0.61533038   -8.8889531    519.46342  0.010964696 0.0099415993          466 
 3949000   0.62339378   -8.9133642    518.16259  0.010934468 0.0099378354          450 
 3950000   0.62519689    -8.890447    519.21225  0.010953845 0.0099340711          437 
 3951000   0.60906481   -8.9023993    518.91622  0.010944829 0.0099303099          453 
 3952000    0.6278649   -8.8895306    517.77101  0.010917911 0.0099265459          457 
 3953000    0.6079959   -8.9038295    519.12667  0.010943728 0.0099227888          444 
 3954000   0.62343801   -8.9229087    518.35758  0.010924751 0.0099190295          462 
 3955000   0.62791565   -8.9063262    518.18997  0.010918457 0.0099152742          444 
 3956000   0.62043324   -8.9107891    518.33163  0.010918681 0.0099115231          416 
 3957000   0.62646904   -8.9036706    517.97885  0.010908492 0.0099077709          469 
 3958000   0.61904219   -8.9090377    518.52627  0.010917262 0.0099040216          454 
 3959000   0.60870569   -8.8848152    518.22424  0.010908147 0.0099002747          457 
 3960000   0.61388402   -8.9101831    518.83174  0.010918176 0.0098965251          437 
 3961000   0.60679065   -8.9147734    518.23316  0.010902827 0.0098927811          475 
 3962000   0.61925619   -8.9121089     518.3146  0.010901788 0.0098890346          460 
 3963000   0.61595109   -8.8819044     519.1565   0.01091674 0.0098852863          438 
 3964000    0.6211795   -8.9107826    519.53715  0.010921989  0.009881545          455 
 3965000   0.61221408   -8.9254063     519.1128  0.010910315 0.0098778048          456 
 3966000   0.60783412   -8.9182459    518.12604  0.010886831 0.0098740625          480 
 3967000   0.61157045   -8.9001783    518.84969  0.010899288 0.0098703234          465 
 3968000    0.6257023    -8.917197    518.49641  0.010889121 0.0098665823          442 
 3969000   0.61897483   -8.9006281    518.56228  0.010887761 0.0098628455          461 
 3970000   0.62071888   -8.8934075    518.27383  0.010878964 0.0098591134          464 
 3971000   0.61737903   -8.8941172    518.55175  0.010882056 0.0098553833          452 
 3972000   0.62716762   -8.8927913    517.71503  0.010861762 0.0098516544          466 
 3973000   0.61989589   -8.8964909    518.24353  0.010870113 0.0098479225          497 
 3974000   0.59982299   -8.8939076    518.87745  0.010880671 0.0098441944          489 
 3975000   0.63208776   -8.8928545    517.87728  0.010856966 0.0098404641          463 
 3976000   0.61907503   -8.8944654      518.835  0.010874308 0.0098367436          459 
 3977000   0.61541874   -8.8973278    519.23856   0.01088003 0.0098330193          477 
 3978000   0.60882035   -8.9294559    518.63952  0.010864746 0.0098292968          471 
 3979000   0.60060675   -8.9262389     518.2495  0.010853847 0.0098255746          456 
 3980000   0.61347257   -8.9080144    517.95212  0.010844894 0.0098218551          473 
 3981000   0.59861832   -8.9024774    518.90201  0.010862053 0.0098181387          487 
 3982000   0.61949266   -8.9009511    519.05967  0.010862625 0.0098144184          481 
 3983000   0.61759828   -8.8905267    519.07884  0.010860299 0.0098107049          468 
 3984000   0.62520512   -8.8911905    518.19823  0.010839153 0.0098069903          463 
 3985000   0.61548212   -8.9003763    518.55267  0.010843845 0.0098032811          457 
 3986000   0.60307198   -8.9011226    518.22766   0.01083433 0.0097995678          465 
 3987000   0.62027095   -8.9266275    518.89556  0.010845572 0.0097958573          489 
 3988000   0.61412963   -8.9388833    518.56473   0.01083594 0.0097921443          442 
 3989000   0.62490141   -8.9197635    517.45739   0.01081009 0.0097884388          469 
 3990000   0.60549637   -8.9054638    518.18168  0.010822508 0.0097847319          433 
 3991000   0.60692873   -8.9125015    518.36209  0.010823563 0.0097810242          444 
 3992000    0.6269887   -8.9285931    517.87876  0.010810762 0.0097773187          454 
 3993000   0.61333957   -8.9144312    518.26495  0.010816115 0.0097736191          484 
 3994000   0.61179861   -8.9226183    519.93303   0.01084821 0.0097699186          430 
 3995000    0.6240623   -8.9168193    518.76092  0.010821045 0.0097662227          473 
 3996000   0.60871822   -8.9298286    518.70813  0.010817237 0.0097625294          479 
 3997000   0.61103369   -8.9191533    517.87962  0.010797257 0.0097588346          501 
 3998000   0.61195283   -8.9142994     517.4624   0.01078586 0.0097551405          453 
 3999000    0.5989224     -8.91213    518.46236     0.010804 0.0097514521          464 
 4000000   0.59606254   -8.9382994    518.32204  0.010798376 0.0097477632          432 
 4001000   0.60613834   -8.9037429    518.44919  0.010798325 0.0097440733          445 
 4002000   0.60157434   -8.8947981    518.45625  0.010795774 0.0097403885          445 
 4003000   0.60734384   -8.9259059    518.66183  0.010797357 0.0097367064          478 
 4004000   0.62186478   -8.9154591    517.75646  0.010775817 0.0097330227          465 
 4005000   0.63378442   -8.9321665    519.32733  0.010805812 0.0097293438          451 
 4006000   0.61181906   -8.9375666    517.53881   0.01076591 0.0097256643          457 
 4007000   0.63431978   -8.9218433    518.07458  0.010774365 0.0097219851          462 
 4008000   0.60323373    -8.933896    518.51593  0.010780854 0.0097183085          430 
 4009000    0.6005162   -8.9347061    517.93929  0.010766178 0.0097146333          444 
 4010000   0.61712014   -8.9233328    518.98888  0.010785305 0.0097109597          447 
 4011000   0.61784024   -8.9457259    518.52798   0.01077304 0.0097072901          476 
 4012000   0.61682308   -8.9106477    518.11698  0.010761818  0.009703618          473 
 4013000   0.61117368   -8.9074093    518.58147  0.010768782 0.0096999546          451 
 4014000   0.62101101   -8.9218216    517.68731  0.010747536 0.0096962868          490 
 4015000   0.60681056   -8.9110919     518.9372  0.010770801 0.0096926211          465 
 4016000   0.60444432   -8.9361315    518.27211  0.010754318  0.009688957          504 
 4017000   0.60582954   -8.9181303    518.23586  0.010750889  0.009685297          457 
 4018000   0.61705782   -8.9218818    517.77637  0.010738684 0.0096816353          497 
 4019000   0.60604036   -8.9167525    518.49463  0.010750905   0.00967798          463 
 4020000    0.6086433   -8.9430311    517.45026  0.010726581 0.0096743249          456 
 4021000   0.60151463   -8.9266584    517.67482  0.010728567 0.0096706666          469 
 4022000   0.61018418   -8.9248661    517.67168  0.010725835  0.009667019          470 
 4023000   0.61223553   -8.9241482    517.93032  0.010728526 0.0096633659          444 
 4024000   0.61469977   -8.9167305    518.65013  0.010740767 0.0096597178          522 
 4025000   0.59838612   -8.9355967    517.79638  0.010720422 0.0096560666          492 
 4026000   0.60685081   -8.9318387    518.14329   0.01072494 0.0096524155          471 
 4027000   0.60015654   -8.9272196    518.53279  0.010730337 0.0096487728          479 
 4028000   0.61004809    -8.915659    518.32017  0.010723274 0.0096451328          475 
 4029000   0.60058323    -8.935577    517.90987  0.010712126 0.0096414951          453 
 4030000   0.59471553   -8.9246638    517.67131  0.010704535 0.0096378534          474 
 4031000   0.61377892   -8.9220439    517.76314  0.010703778 0.0096342162          443 
 4032000   0.61326267   -8.9340974    517.82307  0.010702362 0.0096305796          495 
 4033000   0.59895232     -8.91596    518.95828  0.010723165  0.009626947          486 
 4034000    0.5975701    -8.916391    518.27902  0.010706474 0.0096233142          465 
 4035000   0.61361282   -8.9244637    518.08941  0.010699905 0.0096196774          471 
 4036000   0.60830947   -8.9605761    517.46055   0.01068427 0.0096160468          481 
 4037000   0.59622404   -8.9166886    518.11388  0.010695109 0.0096124166          444 
 4038000   0.60768373    -8.917717     517.7051  0.010684025 0.0096087919          481 
 4039000   0.61607296    -8.914642    518.69642  0.010701833 0.0096051655          505 
 4040000   0.60349764   -8.9424709    518.18447  0.010688624 0.0096015438          490 
 4041000    0.6095947   -8.9124646     517.6554  0.010675068 0.0095979288          485 
 4042000   0.60185188   -8.9469231    517.40984  0.010667364 0.0095943115          502 
 4043000    0.6198062   -8.9368192    518.08074  0.010678554 0.0095906938          497 
 4044000   0.59838272   -8.9290977    517.79951  0.010670119  0.009587076          496 
 4045000   0.58989628   -8.9224177    518.03234  0.010672277 0.0095834602          494 
 4046000   0.61454741   -8.9256026    517.55073   0.01065972 0.0095798453          479 
 4047000   0.60790396   -8.9361962    518.30157  0.010672547 0.0095762359          487 
 4048000   0.60999515   -8.8994816     517.7055   0.01065764 0.0095726229          499 
 4049000   0.61525421   -8.9259293    518.30023  0.010667248 0.0095690172          471 
 4050000   0.61135798   -8.9340114    518.73389  0.010673537 0.0095654064          516 
 4051000   0.60393292   -8.9438464    518.39662  0.010663964 0.0095618027          480 
 4052000   0.58809911   -8.9376896    517.08865  0.010634433 0.0095582021          520 
 4053000   0.60340425   -8.9424961    517.89166  0.010648319 0.0095545977          493 
 4054000   0.61284577   -8.9458764    516.49313  0.010616945 0.0095509971          461 
 4055000    0.5904932   -8.9448026    517.21383  0.010629138 0.0095474006          500 
 4056000   0.59962709    -8.913879    517.93999  0.010641436 0.0095438037          509 
 4057000   0.61306073    -8.922449    517.87614  0.010637502 0.0095402086          483 
 4058000      0.60372   -8.9307516    516.46846  0.010605973 0.0095366126          521 
 4059000   0.60408929    -8.940186    517.64275  0.010627469 0.0095330201          510 
 4060000   0.60075846   -8.9318299     517.5173  0.010622276 0.0095294299          489 
 4061000   0.58891933   -8.9342413    518.56844   0.01064123 0.0095258381          512 
 4062000   0.59916211   -8.9470351    517.75828   0.01062199  0.009522249          511 
 4063000   0.60789431   -8.9417869    518.48186  0.010634216  0.009518661          507 
 4064000   0.59460505   -8.9372374    517.36833  0.010608767 0.0095150744          514 
 4065000   0.61552844   -8.9346906    517.98845  0.010618869 0.0095114884          513 
 4066000   0.59804385   -8.9450203    516.35249  0.010582729 0.0095078998          527 
 4067000    0.5961155   -8.9187981    516.71901  0.010587637  0.009504319          527 
 4068000   0.60367199   -8.9418672    518.51324  0.010621789 0.0095007415          500 
 4069000   0.60364999   -8.9320119    517.45837  0.010597575 0.0094971655          527 
 4070000   0.60531877   -8.9459383    518.19793  0.010610113  0.009493589          517 
 4071000   0.59679892   -8.9298979    517.61103  0.010595493 0.0094900134          529 
 4072000   0.59629381   -8.9482544    517.01145  0.010580621 0.0094864415          559 
 4073000   0.61457458   -8.9275815    518.05228  0.010599318 0.0094828737          560 
 4074000   0.59219677    -8.952179    518.19585  0.010599653 0.0094793011          516 
 4075000   0.60267344   -8.9312163    518.04075   0.01059388 0.0094757346          547 
 4076000   0.59878827   -8.9413229    517.72523   0.01058483 0.0094721687          521 
 4077000   0.59737617   -8.9405184    517.10541  0.010569565 0.0094686058          570 
 4078000   0.59436227   -8.9576569    517.37717  0.010572527 0.0094650459          557 
 4079000   0.60575473   -8.9493968    517.15885  0.010565475 0.0094614837          518 
 4080000   0.59917297   -8.9562672    517.26013  0.010564954 0.0094579223          518 
 4081000   0.60981616   -8.9377796    517.26197  0.010562402 0.0094543631          540 
 4082000   0.58940432   -8.9455158    517.73024  0.010569374 0.0094508021          549 
 4083000   0.60192979    -8.937856    517.29991  0.010558003 0.0094472466          544 
 4084000   0.58404095   -8.9666743    518.08806    0.0105715 0.0094436931          543 
 4085000   0.60228911    -8.963007    517.63051  0.010559578 0.0094401385          531 
 4086000   0.61250383   -8.9713261    516.52851  0.010534518 0.0094365842          525 
 4087000   0.59612414   -8.9549053    517.40175  0.010549746 0.0094330336          529 
 4088000   0.59531769    -8.945047     517.5576  0.010550343 0.0094294801          534 
 4089000   0.59669932    -8.955033    516.85861  0.010533517 0.0094259255          514 
 4090000   0.59613737   -8.9590811    517.31179  0.010540175  0.009422376          564 
 4091000    0.5996821   -8.9464476    516.20954  0.010515146 0.0094188291          491 
 4092000   0.58798531   -8.9650466    517.53705  0.010539611  0.009415284          515 
 4093000   0.59268021   -8.9447924     517.9515  0.010545474 0.0094117441          535 
 4094000   0.59526802   -8.9470177    517.26042  0.010528831 0.0094082061          557 
 4095000     0.603211   -8.9501758    517.40052  0.010529111 0.0094046695          551 
 4096000   0.60532993   -8.9549097    517.01863  0.010518771 0.0094011289          584 
 4097000   0.59367103   -8.9462645    516.65635  0.010508835 0.0093975953          522 
 4098000   0.59357168   -8.9591536    517.52679  0.010523971 0.0093940582          521 
 4099000   0.59896869   -8.9795776    516.57747  0.010502104  0.009390525          523 
 4100000    0.6012001   -8.9588421    516.91762  0.010506456  0.009386992          568 
 4101000   0.60134747   -8.9471513    517.12659   0.01050814 0.0093834558          536 
 4102000   0.59362641   -8.9490574    516.82601  0.010499472 0.0093799245          574 
 4103000   0.58321932   -8.9680806    517.21646  0.010504843 0.0093763938          577 
 4104000   0.58901867   -8.9542563    517.55271  0.010509111 0.0093728688          552 
 4105000    0.5967403    -8.973718    516.72893  0.010489828 0.0093693427          536 
 4106000   0.59360745   -8.9666114    517.76986  0.010508399 0.0093658225          507 
 4107000   0.60390793   -8.9347005    516.14643    0.0104729 0.0093623015          599 
 4108000   0.60293304   -8.9716366    516.91587   0.01048596 0.0093587876          563 
 4109000   0.59942885    -8.940707    516.74795  0.010480002  0.009355269          551 
 4110000   0.59840432   -8.9567641    517.32136  0.010489079 0.0093517573          571 
 4111000   0.59996422   -8.9562782      517.079  0.010481614 0.0093482448          554 
 4112000   0.59484117   -8.9527847    517.20026  0.010481523 0.0093447319          556 
 4113000   0.60950676   -8.9702495    517.17961  0.010478556 0.0093412227          548 
 4114000   0.59903362   -8.9857856    517.17726  0.010475961  0.009337713          569 
 4115000     0.583595   -8.9521969    517.78954  0.010485815  0.009334204          514 
 4116000   0.59434307   -8.9394836    517.51977  0.010477805 0.0093306971          556 
 4117000   0.58838671   -8.9420966    517.50285  0.010474918 0.0093271916          552 
 4118000    0.5832713   -8.9637482    517.05558  0.010463323 0.0093236906          545 
 4119000   0.58688552   -8.9567356    517.01895  0.010460042 0.0093201879          540 
 4120000   0.58421026   -8.9725382    517.31334  0.010463458 0.0093166884          553 
 4121000   0.59008716   -8.9659145    518.04691  0.010475752 0.0093131933          559 
 4122000   0.59259699   -8.9568244    517.85202  0.010469271 0.0093096963          605 
 4123000   0.59962603   -8.9411724    517.01389  0.010449792 0.0093062033          543 
 4124000    0.5925947   -8.9544721    517.84241     0.010464 0.0093027153          547 
 4125000   0.60827684   -8.9667462    517.33506  0.010451213  0.009299228          546 
 4126000   0.58146905   -8.9492532    516.76463  0.010437159 0.0092957402          556 
 4127000   0.59114054   -8.9774314    517.66219  0.010452754 0.0092922523          558 
 4128000   0.59449263    -8.957014    517.04462  0.010437755 0.0092887645          577 
 4129000   0.58289342   -8.9667113     517.6626  0.010447699 0.0092852801          557 
 4130000   0.60184751   -8.9624696    517.30618  0.010437978 0.0092817993          563 
 4131000   0.59113998     -8.96221    517.49673  0.010439295 0.0092783168          562 
 4132000   0.59142043   -8.9561208    516.97522  0.010426251 0.0092748386          564 
 4133000   0.58856992   -8.9528278    517.42917  0.010432881 0.0092713611          533 
 4134000   0.59366801   -8.9645717    517.52448  0.010432279  0.009267887          563 
 4135000    0.5822685   -8.9542288    516.86367  0.010416438 0.0092644111          575 
 4136000   0.59836484   -8.9605113    516.71002  0.010410824 0.0092609372          538 
 4137000   0.59735834   -8.9719022    517.78845  0.010430031 0.0092574653          538 
 4138000   0.58874072   -8.9900795    517.00203  0.010411673 0.0092539928          579 
 4139000   0.58506037   -8.9555669    517.46767  0.010418532 0.0092505213          529 
 4140000   0.59616815   -8.9678412    516.45966  0.010395726 0.0092470521          565 
 4141000   0.59498534   -8.9692356     516.8827  0.010401729 0.0092435886          570 
 4142000   0.60289554   -8.9514255    518.01428  0.010421984 0.0092401302          525 
 4143000   0.58959732   -8.9581577    516.13556  0.010381679 0.0092366673          553 
 4144000   0.60134534   -8.9730267    517.29909  0.010402572 0.0092332053          546 
 4145000   0.59588253   -8.9939772    516.03144  0.010374577   0.00922975          552 
 4146000   0.57870428   -8.9520258    517.41863  0.010399956 0.0092262904          564 
 4147000   0.58637944   -8.9317132    516.97054  0.010388444 0.0092228392          558 
 4148000    0.5749942   -8.9535156    517.62358  0.010399059 0.0092193883          525 
 4149000   0.58669729   -8.9646771     517.0589  0.010385211 0.0092159415          541 
 4150000   0.58924773   -8.9331879    517.27358   0.01038702 0.0092124972          529 
 4151000   0.59207232   -8.9646535    517.69945  0.010393067  0.009209052          557 
 4152000   0.59784899   -8.9644711    517.14908  0.010379518   0.00920561          536 
 4153000   0.58448279    -8.952732    516.62804  0.010366563 0.0092021627          522 
 4154000   0.59070651   -8.9603796    516.18457  0.010355171 0.0091987218          571 
 4155000   0.58613718   -8.9648578     516.6877   0.01036277 0.0091952851          598 
 4156000   0.58858669   -8.9552828    516.79253  0.010362378 0.0091918502          549 
 4157000   0.58402328   -8.9324457    516.77993  0.010359633 0.0091884172          546 
 4158000   0.58743072   -8.9567217    516.62614  0.010354059 0.0091849812          550 
 4159000    0.5890867   -8.9463684    516.77875  0.010354627 0.0091815485          576 
 4160000   0.58036285   -8.9575384     517.4941  0.010366468 0.0091781167          610 
 4161000   0.59344373    -8.973247     516.3605  0.010341274 0.0091746834          557 
 4162000   0.58125563   -8.9545401    517.00828  0.010351759 0.0091712499          553 
 4163000   0.58557486   -8.9662146    517.64336  0.010361986 0.0091678225          570 
 4164000   0.58077385   -8.9659748    517.00032  0.010346628 0.0091643916          558 
 4165000   0.57913548   -8.9682922    517.44121  0.010352965 0.0091609674          577 
 4166000   0.58307284   -8.9549567    517.40874  0.010349831 0.0091575438          596 
 4167000   0.58710628   -8.9551452    517.24295  0.010344031 0.0091541201          571 
 4168000   0.57601473    -8.969163    516.67987  0.010330292 0.0091506974          543 
 4169000   0.60223033   -8.9753981    517.22729  0.010338756 0.0091472734          567 
 4170000   0.58335471   -8.9740848    517.15926  0.010334917 0.0091438517          597 
 4171000    0.5940679   -8.9857047    517.17084  0.010332671 0.0091404314          557 
 4172000    0.5892668   -8.9717598    516.69186  0.010320627 0.0091370175          548 
 4173000   0.58421557   -8.9777262    517.22838  0.010328868 0.0091336043          578 
 4174000   0.60323406   -8.9775833    516.20327  0.010305927 0.0091301893          576 
 4175000   0.58774971   -8.9677801     517.1544  0.010322443  0.009126778          556 
 4176000   0.58708704   -8.9664491    517.02434  0.010317376 0.0091233714          575 
 4177000   0.58091323   -8.9764341    517.63129  0.010327015 0.0091199641          563 
 4178000   0.58932192   -8.9911073    517.32822  0.010318498 0.0091165567          568 
 4179000   0.57774448   -8.9834286    516.35546  0.010296631 0.0091131473          644 
 4180000   0.58553672   -8.9645832     516.2881  0.010292825 0.0091097432          577 
 4181000   0.58317186    -8.981566     516.7128  0.010298828 0.0091063392          571 
 4182000   0.57626144    -8.987091    517.09825  0.010304046 0.0091029419          611 
 4183000   0.58731457   -8.9942125    516.42986  0.010288267 0.0090995465          563 
 4184000   0.57095999   -8.9758418    516.88861  0.010294945 0.0090961489          567 
 4185000   0.58118299   -8.9961367    516.80758  0.010290872 0.0090927485          553 
 4186000   0.59682257   -8.9807972    517.25589  0.010297338 0.0090893501          565 
 4187000   0.59658892   -8.9667428    516.63901  0.010282601 0.0090859584          579 
 4188000   0.58108627   -8.9872803    516.16566  0.010270727 0.0090825645          566 
 4189000   0.58815264   -8.9819436    517.09731  0.010286809 0.0090791735          558 
 4190000   0.59033132   -8.9504947    516.15057  0.010265524 0.0090757834          575 
 4191000   0.59098274   -8.9622313    517.55721  0.010291045 0.0090723935          582 
 4192000   0.57453926   -8.9726349    516.67828  0.010271117 0.0090690088          558 
 4193000   0.57474985   -8.9532922      517.073  0.010276512  0.009065626          555 
 4194000   0.58518878   -8.9674196    517.08471  0.010274295 0.0090622446          564 
 4195000   0.57527884    -8.987568    515.98544  0.010250009 0.0090588642          602 
 4196000   0.58891387   -8.9746628    516.69873  0.010261732 0.0090554829          624 
 4197000   0.57905397   -8.9835365    517.22141  0.010269665 0.0090521017          574 
 4198000    0.5642687   -8.9850666    516.24758  0.010247888 0.0090487181          588 
 4199000   0.57994601   -8.9693118    517.22174   0.01026478 0.0090453407          579 
 4200000   0.58554519   -8.9609886    517.13905  0.010260695 0.0090419697          593 
 4201000   0.59375459   -8.9694529    516.92593  0.010254025 0.0090386018          559 
 4202000   0.56654087   -8.9647686     516.9135  0.010251339 0.0090352306          559 
 4203000    0.5751158   -8.9825513    516.44193   0.01023955 0.0090318613          566 
 4204000   0.57360742    -8.972444    515.81055  0.010224599 0.0090284949          611 
 4205000   0.58100702   -8.9823832     516.9995  0.010245729 0.0090251286          598 
 4206000   0.56859904   -8.9738356    517.54485  0.010254098 0.0090217662          589 
 4207000   0.58677182   -8.9867854    516.14985  0.010224028 0.0090184037          559 
 4208000   0.58666687   -8.9804364    516.22026  0.010222993 0.0090150438          587 
 4209000   0.59906304   -8.9891571    516.57089  0.010227506 0.0090116855          589 
 4210000   0.56842407   -9.0006781    517.28537  0.010239219 0.0090083271          600 
 4211000   0.57724892   -8.9794732    516.11187  0.010213565 0.0090049691          596 
 4212000   0.58299428   -8.9955043    515.31157  0.010195306 0.0090016133          565 
 4213000   0.57034751   -8.9855028    516.26755  0.010211796  0.008998259          574 
 4214000   0.58568033   -8.9705616    516.34352  0.010210875 0.0089949075          570 
 4215000   0.57705578   -8.9763755      516.979  0.010221016 0.0089915543          560 
 4216000   0.57584927   -8.9758776    516.73195  0.010213709 0.0089882067          569 
 4217000   0.58934977   -8.9628519    516.46979  0.010206106 0.0089848553          597 
 4218000   0.57696787   -8.9807911    516.32635  0.010200853   0.00898151          581 
 4219000   0.57597643   -8.9748731    516.20475  0.010196033 0.0089781627          585 
 4220000   0.57708899   -8.9961329    515.70731  0.010183794 0.0089748193          581 
 4221000   0.58090584   -8.9893425    516.16581  0.010190433 0.0089714813          594 
 4222000   0.58330892    -8.988861    516.93309  0.010203164 0.0089681404          595 
 4223000   0.57769191   -8.9920464    516.45797  0.010191372 0.0089648032          589 
 4224000   0.57849612   -8.9882095    515.61585  0.010172346 0.0089614679          594 
 4225000   0.57597437   -8.9850927    516.48862  0.010187152 0.0089581334          548 
 4226000   0.57024957   -8.9677726    517.17742  0.010198324 0.0089548014          574 
 4227000   0.57607464   -8.9749794    516.98562   0.01019213 0.0089514722          571 
 4228000   0.57844226    -8.975138    516.29621  0.010176132 0.0089481416          592 
 4229000   0.58293203   -8.9853285    516.71091  0.010181897 0.0089448102          567 
 4230000   0.58948192   -8.9920365    515.68125  0.010159205 0.0089414806          585 
 4231000   0.57270516   -8.9667042    516.93835  0.010181564 0.0089381496          612 
 4232000    0.5726109   -8.9887755    516.41346  0.010168822 0.0089348211          595 
 4233000   0.57350288   -8.9932392    515.47336  0.010147913 0.0089314916          570 
 4234000   0.56307327   -9.0114615    515.89021   0.01015372 0.0089281655          589 
 4235000   0.57491469   -8.9709611    516.23039  0.010158016 0.0089248423          598 
 4236000   0.56841387   -9.0180454    515.74101  0.010145991 0.0089215183          559 
 4237000   0.56216797   -8.9837455    516.23561  0.010153324 0.0089181936          577 
 4238000   0.57949149   -8.9914571    516.57844   0.01015767 0.0089148743          551 
 4239000   0.58567478   -8.9919109    515.97372  0.010143385 0.0089115546          601 
 4240000    0.5842269    -8.990937    515.28547  0.010127466 0.0089082382          593 
 4241000   0.57410653   -8.9832499    516.33664  0.010145733 0.0089049264          577 
 4242000   0.57474983   -9.0059797    517.02151  0.010156795 0.0089016096          587 
 4243000   0.57905246   -8.9931824    516.07386  0.010135789 0.0088982988          608 
 4244000   0.57420093   -8.9945631    517.19094  0.010155336 0.0088949873          608 
 4245000   0.57863538   -8.9983566    516.61559  0.010141649 0.0088916751          598 
 4246000   0.57638254   -8.9913961    516.56204  0.010138209  0.008888369          592 
 4247000   0.56806905   -9.0094631    516.30949  0.010130867 0.0088850685          594 
 4248000   0.56659386   -8.9994602    516.20622  0.010126456  0.008881761          615 
 4249000   0.58657723   -8.9961706    516.53808  0.010130581 0.0088784583          555 
 4250000   0.56324352   -9.0138719    516.30136  0.010123556 0.0088751597          584 
 4251000   0.57316938   -8.9828651    516.68028  0.010128603 0.0088718583          584 
 4252000   0.56751358   -8.9982839    515.58238  0.010104703 0.0088685606          603 
 4253000   0.57829685     -8.98536    516.09644    0.0101124 0.0088652632          622 
 4254000   0.56340591   -9.0025035     515.9832  0.010107804 0.0088619706          632 
 4255000   0.56635122    -8.991096    515.90918  0.010103979 0.0088586764          565 
 4256000   0.56964569   -8.9950012    516.85496  0.010120124 0.0088553887          581 
 4257000   0.57630863   -8.9901741    515.39797  0.010089225 0.0088520994          602 
 4258000   0.56349947   -8.9861909    515.98138  0.010098273 0.0088488146          585 
 4259000   0.56276926   -9.0046195    516.13053  0.010098821  0.008845528          582 
 4260000   0.56872376   -9.0155795      516.352  0.010100782 0.0088422439          574 
 4261000   0.56451263   -9.0034323     517.0139  0.010111357 0.0088389595          581 
 4262000    0.5644365   -8.9982013    516.39866  0.010096955 0.0088356761          647 
 4263000   0.57312465   -9.0031482    517.08728  0.010108047 0.0088323966          588 
 4264000   0.56222475   -8.9904551    515.73794  0.010079306 0.0088291198          594 
 4265000   0.57133363   -9.0100158    516.26791  0.010087298 0.0088258452          578 
 4266000   0.56953854   -8.9959066    515.69726  0.010073786 0.0088225702          577 
 4267000   0.56453791   -9.0137428    515.38379  0.010065303  0.008819298          594 
 4268000   0.57518857   -9.0014849    515.97956  0.010074577 0.0088160246          559 
 4269000    0.5637364   -8.9921617    516.49424  0.010082264 0.0088127548          583 
 4270000   0.57066381   -9.0270636    516.00963  0.010070446 0.0088094824          603 
 4271000   0.57146712   -9.0050236    516.01817  0.010068254 0.0088062117          606 
 4272000   0.57214242   -9.0102238    515.44335  0.010054685 0.0088029456          599 
 4273000   0.56841506   -9.0072496    516.01601    0.0100635  0.008799677          591 
 4274000   0.56986912    -9.012366    516.78454   0.01007613  0.008796413          602 
 4275000    0.5685541   -8.9872833    515.44295  0.010047621 0.0087931478          592 
 4276000   0.55655573   -9.0291085    516.88145  0.010073306 0.0087898856          586 
 4277000    0.5731091   -9.0110346    515.85299  0.010050912 0.0087866269          555 
 4278000   0.57527534   -9.0029129    515.26527  0.010037114 0.0087833701          599 
 4279000   0.57456918   -8.9905805    515.32875  0.010036004 0.0087801132          593 
 4280000   0.56566473   -9.0110121    515.74658  0.010041795 0.0087768563          618 
 4281000   0.56955347   -9.0095176     515.7645  0.010039798 0.0087735991          577 
 4282000   0.56531047   -9.0155854    516.75988  0.010056825 0.0087703474          577 
 4283000   0.56255116   -9.0044232    516.24239  0.010044408 0.0087670961          616 
 4284000   0.56610735   -9.0249553     515.7174  0.010031851 0.0087638457          636 
 4285000   0.55545092   -9.0151784     515.5611   0.01002647 0.0087605948          572 
 4286000   0.56547627   -9.0095376    516.05196  0.010033675  0.008757348          580 
 4287000   0.55657083   -9.0206683    516.50716  0.010040183 0.0087541027          577 
 4288000   0.58731613   -9.0068138     515.7476   0.01002308 0.0087508614          581 
 4289000   0.57272117   -9.0066026      514.744  0.010001243 0.0087476188          622 
 4290000   0.56920133   -9.0171121     515.8058  0.010019538 0.0087443811          636 
 4291000   0.55602659   -9.0037497     516.2245  0.010025334 0.0087411431          586 
 4292000   0.57007379   -9.0196578    515.61903  0.010011242 0.0087379077          604 
 4293000   0.55825006   -9.0069353    516.09014  0.010018055  0.008734675          624 
 4294000   0.57156845   -8.9929209    515.31554   0.01000069 0.0087314431          617 
 4295000    0.5590635   -8.9743465      516.322  0.010017889 0.0087282132          598 
 4296000   0.56143896   -9.0069664    516.13314  0.010011894  0.008724984          594 
 4297000    0.5721458   -9.0168198    516.28178  0.010012446 0.0087217556          609 
 4298000   0.57497105   -9.0021796    515.96072  0.010003892 0.0087185303          607 
 4299000   0.57072563   -9.0049587    516.02371  0.010002786 0.0087153013          612 
 4300000    0.5796184   -8.9920526    515.16874 0.0099838903 0.0087120745          588 
 4301000    0.5606857   -9.0144712    515.40758 0.0099861966 0.0087088509          570 
 4302000   0.57914981   -9.0108547    515.87148 0.0099928615 0.0087056269          554 
 4303000   0.55467994   -9.0156809    516.10004 0.0099949656 0.0087024074          580 
 4304000   0.56210303   -9.0150641    516.07994 0.0099922541 0.0086991881          623 
 4305000      0.56562    -9.011743    515.48824 0.0099784793  0.008695966          587 
 4306000   0.57714503   -9.0208069    515.95629   0.00998522 0.0086927494          596 
 4307000   0.55734834   -9.0031671    516.32714  0.009990077  0.008689533          615 
 4308000   0.55163697   -8.9947393    516.43438 0.0099898326 0.0086863202          591 
 4309000    0.5632797   -9.0172943    516.67291 0.0099921271 0.0086831074          593 
 4310000   0.57089499   -9.0168359    515.95704 0.0099759675 0.0086798968          603 
 4311000   0.56624143   -9.0247318    515.06553 0.0099564203 0.0086766867          612 
 4312000   0.57277559   -8.9985519    516.26597 0.0099773107 0.0086734768          589 
 4313000   0.56604313   -9.0118675    515.04664 0.0099514382 0.0086702694          577 
 4314000   0.55388648   -9.0065678    514.95692 0.0099473983 0.0086670647          586 
 4315000    0.5717933    -9.018942    515.20023 0.0099497919 0.0086638597          580 
 4316000   0.55879432   -9.0252351     514.6256 0.0099363918  0.008660654          582 
 4317000    0.5632929   -8.9918152    516.43405 0.0099689995 0.0086574514          655 
 4318000   0.56052176   -9.0140808    516.72015 0.0099722122 0.0086542526          594 
 4319000   0.57025316   -9.0324959    515.45276 0.0099454495  0.008651058          617 
 4320000   0.55815979     -9.01408    515.83755   0.00995057 0.0086478625          604 
 4321000   0.54696945   -8.9970792    516.67748 0.0099644658 0.0086446715          589 
 4322000   0.56697906   -9.0277028     515.1182 0.0099320954 0.0086414818          596 
 4323000   0.56235594   -9.0311349    516.29873 0.0099525547  0.008638291          657 
 4324000   0.56612729   -9.0285747    515.83629 0.0099413407 0.0086351011          576 
 4325000   0.55120363   -8.9917032    515.64409 0.0099353389 0.0086319145          582 
 4326000   0.55275315    -8.998633    515.61695 0.0099325194 0.0086287307          605 
 4327000   0.55635586   -9.0413363    515.79567  0.009933666 0.0086255453          611 
 4328000   0.55581325   -9.0336072    515.11239 0.0099182145 0.0086223607          610 
 4329000   0.56214585   -9.0188421    515.55145 0.0099243752 0.0086191785          586 
 4330000    0.5660225   -9.0076856    514.67628 0.0099052403 0.0086159958          588 
 4331000   0.56088139   -9.0153599    516.30208 0.0099342353 0.0086128158          598 
 4332000   0.56467159   -9.0302144    516.31005 0.0099320954 0.0086096386          642 
 4333000   0.55082002   -9.0163105    515.85728 0.0099210954 0.0086064653          642 
 4334000   0.56297109   -9.0095109    516.18274 0.0099250643 0.0086032924          582 
 4335000   0.56857367   -9.0272818    515.35129 0.0099067915 0.0086001203          608 
 4336000   0.55753089   -9.0105388    515.24006 0.0099023689 0.0085969495          613 
 4337000   0.55892266   -9.0211002    515.46377 0.0099043841 0.0085937782          601 
 4338000   0.55686371   -9.0245723    515.19885 0.0098970119 0.0085906087          602 
 4339000   0.56093986    -9.032392    515.90542 0.0099083011 0.0085874431          604 
 4340000   0.56090848   -9.0386433    515.64145 0.0099009495 0.0085842753          611 
 4341000   0.54938613   -9.0084268    515.53736 0.0098966706 0.0085811103          620 
 4342000   0.55467634   -9.0223875    515.97044 0.0099027031  0.008577948          607 
 4343000   0.55132917   -9.0385528    515.46813 0.0098907846 0.0085747853          624 
 4344000   0.56749053   -9.0293907    515.41027 0.0098873978 0.0085716235          570 
 4345000   0.56365683   -9.0192051    515.77484 0.0098921143 0.0085684599          613 
 4346000   0.55652727   -9.0320369    515.13111 0.0098774949 0.0085652989          594 
 4347000   0.55828919   -9.0210285    515.17247 0.0098760155 0.0085621389          607 
 4348000   0.56615966   -9.0063647     514.4289 0.0098594929 0.0085589819          596 
 4349000   0.55053701   -9.0324713    515.80494 0.0098835927 0.0085558274          595 
 4350000   0.56096139   -9.0126467    515.63699 0.0098781032 0.0085526736          610 
 4351000    0.5475947   -9.0300761    515.24721 0.0098683675 0.0085495218          618 
 4352000   0.55508365   -9.0318316    514.54788 0.0098527091 0.0085463683          604 
 4353000    0.5491205   -9.0310566    515.87644 0.0098758794  0.008543217          641 
 4354000   0.55867258   -9.0244096    515.41698 0.0098648174 0.0085400669          627 
 4355000   0.54822394   -9.0451582     514.6422 0.0098477268  0.008536919          598 
 4356000   0.56335825   -9.0295132    515.76931 0.0098670285 0.0085337727          576 
 4357000   0.55201593   -9.0249061    515.60443 0.0098616102 0.0085306268          586 
 4358000   0.55478902   -9.0337674    516.25509 0.0098717893 0.0085274866          588 
 4359000   0.55220698   -9.0193094    515.15985 0.0098485862 0.0085243477          588 
 4360000   0.55390902   -9.0263529    515.43954 0.0098516732 0.0085212105          586 
 4361000   0.55681072   -9.0322972    515.81871 0.0098566595 0.0085180753          587 
 4362000   0.55110821   -9.0127882    515.82378 0.0098544968 0.0085149386          555 
 4363000   0.56077934   -9.0247182    514.67074  0.009830215 0.0085118065          602 
 4364000   0.54258743   -9.0305087    514.43261 0.0098234153 0.0085086754          587 
 4365000   0.55277414   -9.0433546    515.80862 0.0098474346 0.0085055469          605 
 4366000   0.55196153   -9.0477921    516.32007 0.0098549411 0.0085024189          583 
 4367000   0.55359072   -9.0330537    515.10078 0.0098294173 0.0084992936          640 
 4368000   0.56013491   -9.0396942    514.91493 0.0098236212 0.0084961674          602 
 4369000    0.5470264   -9.0099092    515.25016 0.0098277669 0.0084930427          600 
 4370000   0.55409147   -9.0092093    515.32004 0.0098268505 0.0084899195          647 
 4371000   0.55322296   -9.0291087    515.12701 0.0098209222 0.0084867972          610 
 4372000   0.54697235   -9.0166069    516.20391 0.0098392024 0.0084836763          618 
 4373000   0.54661968   -9.0217425     516.7678  0.009847698  0.008480558          639 
 4374000   0.55467356    -9.050174    515.42655 0.0098198931 0.0084774421          600 
 4375000   0.55127922   -9.0223167    515.44964 0.0098180885 0.0084743272          622 
 4376000   0.53779608   -9.0194808    515.42256 0.0098153291 0.0084712135          592 
 4377000   0.56454501   -9.0099878    514.86993 0.0098025652 0.0084681029          608 
 4378000   0.56127343   -9.0240307     515.5611 0.0098134823 0.0084649921          613 
 4379000   0.56001589   -9.0247787    514.45062 0.0097901085  0.008461884          638 
 4380000   0.55994991   -9.0243503    515.30878 0.0098042005 0.0084587783          611 
 4381000   0.55150355   -9.0459155    515.18531  0.009799614 0.0084556726          595 
 4382000   0.55730143   -9.0096417    516.27946 0.0098181853 0.0084525701          602 
 4383000   0.54518959   -9.0278219    515.24727 0.0097963204 0.0084494695          594 
 4384000   0.56601191   -9.0274839    514.94441 0.0097883289 0.0084463692          602 
 4385000   0.55495517   -9.0229594    514.60354 0.0097796187 0.0084432658          617 
 4386000   0.54892017   -9.0374012    515.01769 0.0097852579 0.0084401648          654 
 4387000   0.55955706   -9.0329558    514.84712 0.0097797872 0.0084370612          633 
 4388000   0.56563049   -9.0288684    515.24293 0.0097850753 0.0084339641          585 
 4389000   0.55383199   -9.0162769    515.67794 0.0097911053 0.0084308692          589 
 4390000   0.54894395   -9.0279598    516.67714 0.0098078424 0.0084277725          593 
 4391000   0.54904887   -9.0338497    514.91698  0.009772204  0.008424681          613 
 4392000   0.54731742   -9.0354807     515.0026 0.0097716036 0.0084215903          611 
 4393000   0.55146631   -9.0272043    515.58546  0.009780436 0.0084184983          594 
 4394000    0.5537935   -9.0426001    515.50087 0.0097766058 0.0084154074          596 
 4395000   0.54365931   -9.0432897    514.64415 0.0097581371  0.008412317          658 
 4396000   0.54740476   -9.0377746    514.23749 0.0097482084 0.0084092304          601 
 4397000   0.54632407   -9.0462423    515.22118 0.0097646347 0.0084061476          604 
 4398000   0.54073356    -9.030779    515.03826 0.0097589484  0.008403067          595 
 4399000   0.55528096   -9.0307208    515.25373 0.0097608117 0.0083999843          597 
 4400000   0.55047861   -9.0352815    515.74668 0.0097679295 0.0083969035          604 
 4401000   0.54616595   -9.0418259    514.68854 0.0097456741 0.0083938257          588 
 4402000   0.54773833   -9.0461174    514.76697  0.009744945 0.0083907475          611 
 4403000   0.55971962   -9.0445571    514.71913 0.0097418261  0.008387671          589 
 4404000   0.53432254   -9.0188966    515.35053 0.0097515616 0.0083845943          593 
 4405000   0.54036783   -9.0528139    515.32468  0.009748859 0.0083815226          611 
 4406000   0.53417171   -9.0391921    515.33734 0.0097468856 0.0083784487          625 
 4407000   0.54208214   -9.0453961     515.3513  0.009744938 0.0083753792          621 
 4408000   0.54588945    -9.039211    514.90229 0.0097342388 0.0083723109          613 
 4409000   0.53879481   -9.0375552     515.1576 0.0097368563 0.0083692466          599 
 4410000   0.53640726   -9.0431118    515.07454  0.009733079 0.0083661828          585 
 4411000   0.54013284   -9.0352533     515.0595 0.0097305882 0.0083631221          603 
 4412000   0.54949123   -9.0432458    514.90168  0.009725402 0.0083600596          575 
 4413000   0.54387457   -9.0526032    515.40045 0.0097326168 0.0083570023          619 
 4414000   0.54995249   -9.0554266    515.33025 0.0097290864 0.0083539411          598 
 4415000   0.54065226   -9.0452747    515.93011 0.0097382053 0.0083508825          598 
 4416000   0.54700127   -9.0336079    514.80953 0.0097148538 0.0083478274          596 
 4417000   0.54252802   -9.0521424     515.4926 0.0097255414 0.0083447729          604 
 4418000   0.55479435   -9.0396465    515.10529 0.0097160347 0.0083417228          608 
 4419000   0.54649788   -9.0510476    514.75316 0.0097071955 0.0083386711          600 
 4420000   0.56266718   -9.0510512    515.32524  0.009715785 0.0083356187          653 
 4421000   0.53990049   -9.0485678    515.18475 0.0097109392 0.0083325688          618 
 4422000   0.54825678   -9.0400551    514.76351 0.0097008049 0.0083295194          599 
 4423000   0.53835089   -9.0530322    514.98494 0.0097027835 0.0083264721          668 
 4424000   0.54554798   -9.0329517    515.03958 0.0097016196 0.0083234264          593 
 4425000   0.53316544   -9.0342993    515.18615 0.0097021874 0.0083203787          613 
 4426000   0.54801099   -9.0361791    516.01886 0.0097156737  0.008317337          618 
 4427000   0.53821913   -9.0321854    514.66833 0.0096880569 0.0083142939          596 
 4428000   0.54709736   -9.0390094    514.95221 0.0096912114 0.0083112523          592 
 4429000   0.54932988   -9.0424494    515.63835 0.0097019333 0.0083082118          615 
 4430000   0.54358494   -9.0359667    515.10611 0.0096897313 0.0083051708          621 
 4431000   0.53351082    -9.045185    514.58118 0.0096776722 0.0083021333          607 
 4432000   0.54369413   -9.0522845     514.9265 0.0096819815 0.0082990974          671 
 4433000    0.5536672   -9.0429789    515.05348 0.0096821844 0.0082960643          619 
 4434000   0.53519448   -9.0611844    515.46443 0.0096877243  0.008293031          606 
 4435000   0.54106977    -9.035831    514.94487 0.0096757773 0.0082900033          600 
 4436000   0.55002216   -9.0463035    515.49801 0.0096839872 0.0082869748          627 
 4437000   0.54603496   -9.0384373    514.38775 0.0096609524 0.0082839511          681 
 4438000   0.53693368   -9.0519445    514.03196 0.0096520948 0.0082809271          622 
 4439000   0.55341256   -9.0536834    515.03926 0.0096688304 0.0082779046          625 
 4440000    0.5352501   -9.0503686    515.49884 0.0096752785 0.0082748813          590 
 4441000   0.53740152    -9.062688    514.53304 0.0096549771 0.0082718609          587 
 4442000   0.53701883   -9.0451982    514.49513 0.0096520923 0.0082688377          597 
 4443000   0.54306353    -9.068254    513.82035 0.0096372637 0.0082658156          605 
 4444000   0.55057873   -9.0389675    515.17012 0.0096604058 0.0082627981          607 
 4445000   0.54201184   -9.0534974    514.67034 0.0096488628 0.0082597833          660 
 4446000   0.54599619   -9.0518413    514.92095 0.0096513898 0.0082567671          607 
 4447000   0.53667848   -9.0698095    515.33684  0.009657013 0.0082537536          621 
 4448000   0.52852199   -9.0546745     514.8291 0.0096453294 0.0082507404          606 
 4449000   0.54714164   -9.0544016    514.85368 0.0096436219 0.0082477323          594 
 4450000   0.54375581   -9.0536319    514.53817 0.0096355463 0.0082447224          617 
 4451000   0.54157344   -9.0579297    514.88482 0.0096398715 0.0082417162          640 
 4452000   0.54781969   -9.0573948     514.9661 0.0096392277 0.0082387108          617 
 4453000   0.54575103    -9.049314    515.24726 0.0096423247 0.0082357063          631 
 4454000   0.54213069   -9.0462787    514.75893 0.0096310233 0.0082327031          594 
 4455000   0.53391111   -9.0557636    515.01209 0.0096335968 0.0082297005          631 
 4456000   0.53317916   -9.0430361    515.37875  0.009638292 0.0082267017          599 
 4457000     0.536605   -9.0587115    515.34734 0.0096355422 0.0082237086          580 
 4458000   0.53626813   -9.0612956    514.31853 0.0096141493 0.0082207112          608 
 4459000   0.54349092   -9.0569127    513.78801 0.0096020785 0.0082177155          613 
 4460000   0.53517765   -9.0456064    514.79887 0.0096188129 0.0082147206          611 
 4461000   0.53757828   -9.0472112    514.84537 0.0096175253  0.008211728          600 
 4462000   0.54121753   -9.0598206    514.81056 0.0096147199 0.0082087367          617 
 4463000   0.54579822   -9.0671582    513.95901 0.0095966654 0.0082057423          609 
 4464000   0.54545976   -9.0685774    514.34932 0.0096018019 0.0082027484          643 
 4465000   0.53613808   -9.0508901    514.63793 0.0096050379 0.0081997606          663 
 4466000   0.55205256   -9.0663042    515.15359 0.0096125092 0.0081967719          641 
 4467000   0.52941168   -9.0589523    514.89805 0.0096055901 0.0081937798          631 
 4468000   0.55132883   -9.0688041    514.31058 0.0095924833 0.0081907925          648 
 4469000   0.56328179   -9.0739256    514.47344 0.0095933736 0.0081878068          628 
 4470000   0.53992626   -9.0613097    514.17845  0.009585728 0.0081848255          637 
 4471000   0.52499379    -9.055481    514.68418 0.0095930102 0.0081818436          594 
 4472000    0.5402709   -9.0601357    514.95108 0.0095958386 0.0081788622          601 
 4473000   0.53581912   -9.0589235    515.16057 0.0095975961 0.0081758831          626 
 4474000   0.54462775   -9.0770853    514.01864 0.0095741812 0.0081729047          618 
 4475000   0.54411285   -9.0512139    514.88926 0.0095882543 0.0081699275          614 
 4476000   0.54373485   -9.0486185    515.49322 0.0095973566 0.0081669524          633 
 4477000   0.54213084   -9.0603385    515.56964 0.0095966354 0.0081639766          646 
 4478000   0.52623271   -9.0702969    514.63275 0.0095770573 0.0081610035          642 
 4479000   0.54042943   -9.0831544    514.59192 0.0095741593 0.0081580308          627 
 4480000      0.52862   -9.0548472    514.43116  0.009569032 0.0081550625          632 
 4481000   0.53849854   -9.0553843     514.3424 0.0095652458 0.0081520968          613 
 4482000   0.53364496   -9.0604423    514.82671 0.0095721164 0.0081491271          655 
 4483000   0.53531795   -9.0728137    514.68931 0.0095674271 0.0081461628          619 
 4484000   0.54127459   -9.0574708    514.42515 0.0095603841 0.0081431964          615 
 4485000   0.52534071   -9.0697061    514.19736   0.00955402 0.0081402341          622 
 4486000   0.52114866   -9.0380886    514.80468  0.009563172 0.0081372731          596 
 4487000   0.52658805   -9.0598101    514.78482  0.009560672 0.0081343126          639 
 4488000   0.53893142    -9.073136    514.98137 0.0095621912 0.0081313494          615 
 4489000   0.53046176   -9.0680972    515.49283 0.0095695557 0.0081283905          607 
 4490000   0.54956049   -9.0854871    514.33686 0.0095459699 0.0081254346          610 
 4491000   0.53218901   -9.0616672    513.48993 0.0095281291 0.0081224818          585 
 4492000   0.53535178   -9.0658504    515.02781 0.0095545379 0.0081195292          645 
 4493000   0.52462225   -9.0515103    514.07729 0.0095347816 0.0081165786          633 
 4494000   0.52953206   -9.0642073    514.25953 0.0095360394 0.0081136245          602 
 4495000   0.53218131   -9.0772039    514.49195 0.0095382267 0.0081106775          633 
 4496000   0.53865473   -9.0507539    514.87759  0.009543253 0.0081077281          621 
 4497000   0.53362846   -9.0712192    514.24472 0.0095294034 0.0081047828          634 
 4498000   0.52538592   -9.0702382      514.183 0.0095261412 0.0081018362          617 
 4499000   0.53403187   -9.0691232    514.45634 0.0095290868 0.0080988907          618 
 4500000   0.53255258   -9.0723256    514.59001 0.0095294446  0.008095946          626 
 4501000   0.52611572   -9.0604858    515.34365 0.0095412807 0.0080930042          609 
 4502000   0.52399716   -9.0564888    514.22717 0.0095184949 0.0080900622          602 
 4503000   0.53230247   -9.0754907    514.78124 0.0095266349 0.0080871225          668 
 4504000   0.53023048   -9.0620465    515.25728 0.0095333275 0.0080841836          608 
 4505000   0.53244372   -9.0743717    513.82689 0.0095047519 0.0080812504          602 
 4506000   0.53670355   -9.0464158    515.06784 0.0095255925 0.0080783183          597 
 4507000   0.53455548   -9.0525297    514.80546 0.0095186277 0.0080753857          608 
 4508000   0.52749452   -9.0612528    514.23332 0.0095059398 0.0080724532          638 
 4509000   0.53221603   -9.0617541    514.77441 0.0095138317 0.0080695252          601 
 4510000   0.52613824   -9.0834596    514.85339 0.0095131815 0.0080665951          646 
 4511000   0.51955979   -9.0622642    514.62695 0.0095068896 0.0080636688          614 
 4512000   0.53544994   -9.0680219    514.50977 0.0095026184 0.0080607431          634 
 4513000   0.52452467   -9.0600555    514.37341 0.0094979949 0.0080578193          605 
 4514000   0.53892508    -9.063797    514.11287 0.0094910808 0.0080548959          634 
 4515000   0.52979589   -9.0787204     513.8217 0.0094836046 0.0080519732          626 
 4516000   0.52568874   -9.0660924    515.46012 0.0095117383 0.0080490526          645 
 4517000   0.53592467   -9.0590599    513.78505 0.0094787294 0.0080461332          616 
 4518000   0.53966273   -9.0581404    514.32297 0.0094865532 0.0080432155          613 
 4519000   0.52162953   -9.0741401    514.50901 0.0094878847 0.0080402972          632 
 4520000   0.53928485   -9.0670846    513.96475 0.0094757513 0.0080373811          597 
 4521000   0.52045358   -9.0697524    513.91316 0.0094727045  0.008034467          610 
 4522000   0.52103289   -9.0719912    515.08964 0.0094922903 0.0080315546          621 
 4523000   0.53117588   -9.0537197    513.38017 0.0094586958 0.0080286422          614 
 4524000   0.51421843   -9.0610174    514.22565  0.009472179 0.0080257322          633 
 4525000   0.53012079   -9.0805282    514.19372 0.0094694975 0.0080228227          602 
 4526000   0.53672398   -9.0548008    513.74089 0.0094590677 0.0080199125          616 
 4527000    0.5325711   -9.0778084    514.78642 0.0094762245 0.0080170039          629 
 4528000   0.53673251   -9.0637975    514.93411 0.0094768497 0.0080140982          627 
 4529000   0.53184417   -9.0698255    514.68451 0.0094701646 0.0080111927          631 
 4530000   0.53160671   -9.0772969    513.85339  0.009452785 0.0080082937          618 
 4531000   0.52504346   -9.0875294    514.51165 0.0094628053 0.0080053932          606 
 4532000   0.51988956   -9.0684797      514.182 0.0094546559 0.0080024949          630 
 4533000    0.5302875   -9.0820083     514.2608 0.0094540187 0.0079995945          620 
 4534000   0.52705214   -9.0738948     514.0033 0.0094472007 0.0079966956          590 
 4535000   0.52238519   -9.0745234    513.63966 0.0094384355  0.007993796          642 
 4536000   0.51694246   -9.0689185     513.8442 0.0094401125 0.0079908996          609 
 4537000    0.5146971   -9.0796621     513.5815 0.0094332065 0.0079880042          626 
 4538000   0.51907015   -9.0753416    514.13022 0.0094412042 0.0079851144          633 
 4539000   0.52009165   -9.0826045    513.75883 0.0094323058 0.0079822226          601 
 4540000   0.53283412   -9.0651302    513.30526 0.0094219026 0.0079793328          617 
 4541000   0.52212948   -9.0772181    513.60184 0.0094252706 0.0079764481          633 
 4542000   0.52108402     -9.07267    514.83581 0.0094458354 0.0079735607          636 
 4543000   0.51691213   -9.0751884     514.3401 0.0094346633 0.0079706751          617 
 4544000   0.52264704   -9.0832765    513.90331 0.0094245766   0.00796779          625 
 4545000   0.51622663   -9.0840321    514.64578 0.0094361162 0.0079649068          621 
 4546000   0.52950772   -9.0653246    514.38973 0.0094293468 0.0079620243          636 
 4547000   0.52029203   -9.0712883    513.92096 0.0094186819 0.0079591446          641 
 4548000   0.50991447   -9.0701832    514.14884 0.0094207864 0.0079562664          626 
 4549000   0.51870856   -9.0798058    514.15344 0.0094187998 0.0079533855          648 
 4550000   0.51185722   -9.0697081    514.47259 0.0094225749 0.0079505104          609 
 4551000   0.52072828   -9.0817427    514.24837 0.0094163988 0.0079476362          623 
 4552000   0.51173997   -9.0560435    514.45437 0.0094181013 0.0079447634          637 
 4553000   0.52411219    -9.076062    514.43838 0.0094157402 0.0079418897          663 
 4554000    0.5122843   -9.0874542    513.65389 0.0093993172  0.007939017          626 
 4555000   0.52690212   -9.0735015    514.15687 0.0094064558 0.0079361458          607 
 4556000   0.52848383   -9.0726342    514.59203 0.0094123506  0.007933278          620 
 4557000   0.51271036   -9.0626937    513.83222 0.0093963905 0.0079304114          629 
 4558000   0.52035162    -9.076682     514.0063 0.0093975117 0.0079275461          638 
 4559000   0.53135978   -9.0771276    514.96169 0.0094129138 0.0079246824          639 
 4560000   0.52838756   -9.0771504     513.4604 0.0093834138 0.0079218209          610 
 4561000    0.5399572   -9.0822087    514.12761  0.009393547 0.0079189594          638 
 4562000   0.51655533   -9.0878085    514.19665 0.0093927489 0.0079161007          644 
 4563000   0.52400912   -9.0734927    513.94624 0.0093861174  0.007913241          636 
 4564000   0.51022436   -9.0910457     514.4145 0.0093926106 0.0079103834          621 
 4565000    0.5220942   -9.0769878    514.93471 0.0094000494 0.0079075258          634 
 4566000   0.51659604   -9.0753032    514.56478 0.0093912393 0.0079046713          620 
 4567000    0.5219984   -9.0737184    513.84722 0.0093760896 0.0079018173          598 
 4568000   0.52434062   -9.0855059    513.87937 0.0093746237 0.0078989624          627 
 4569000   0.52409046   -9.0824563     513.8685 0.0093723736 0.0078961121          628 
 4570000   0.51308078   -9.0858952    514.06556 0.0093739161  0.007893262          636 
 4571000   0.51035887   -9.1001562     513.7785  0.009366632 0.0078904126          622 
 4572000   0.50951208   -9.0630787    513.85151  0.009365914 0.0078875636          614 
 4573000    0.5135103   -9.0802195    513.66885 0.0093605374 0.0078847191          637 
 4574000   0.51499617   -9.0826626    513.88381 0.0093624072 0.0078818748          627 
 4575000   0.51312464   -9.0780013    514.50309 0.0093716411 0.0078790308          633 
 4576000    0.5238912   -9.0864849    513.29304 0.0093475568 0.0078761849          622 
 4577000   0.51094196   -9.0700673    514.06001 0.0093594787 0.0078733426          641 
 4578000   0.52029715   -9.0790414    514.72123 0.0093694704 0.0078705048          645 
 4579000   0.52026801   -9.0869046    513.69373 0.0093487248 0.0078676652          626 
 4580000   0.51511605    -9.090323    514.34603 0.0093585522 0.0078648269          642 
 4581000   0.53345016   -9.0988119    513.61907 0.0093432851 0.0078619882          649 
 4582000   0.52316713   -9.0887146    513.67232 0.0093422144 0.0078591516          625 
 4583000   0.51390091    -9.089164    514.88778 0.0093622768 0.0078563184          650 
 4584000   0.50753503   -9.0900431    514.09437  0.009345811 0.0078534846          627 
 4585000    0.5175623   -9.0944289    514.05936 0.0093431363 0.0078506515          638 
 4586000   0.50674799   -9.0893289    514.30899 0.0093456352 0.0078478201          614 
 4587000   0.52223405   -9.0897689    514.20657 0.0093417369 0.0078449907          621 
 4588000   0.52436369   -9.0871925    514.13812 0.0093384576 0.0078421652          645 
 4589000   0.51983093   -9.0754287    513.61122 0.0093268544 0.0078393417          634 
 4590000   0.52501874   -9.0917613    512.87096 0.0093113827 0.0078365146          660 
 4591000   0.51233563   -9.0899718    513.45129 0.0093198884 0.0078336892          639 
 4592000   0.52219232   -9.0869041    513.83947 0.0093249033 0.0078308683          641 
 4593000   0.52293635   -9.1024188    513.23962 0.0093119897 0.0078280472          676 
 4594000   0.52453135   -9.0956746    513.67841 0.0093179221 0.0078252285          655 
 4595000   0.52140484   -9.0991726    513.07159 0.0093048892 0.0078224094          644 
 4596000    0.5124035   -9.0903083    513.52543 0.0093110935 0.0078195938          649 
 4597000   0.52221121   -9.1102312     512.9597 0.0092988126 0.0078167788          632 
 4598000   0.52335594   -9.1045721    514.23225 0.0093198538 0.0078139641          677 
 4599000    0.5131226   -9.0905873    514.03236 0.0093142053  0.007811148          634 
 4600000   0.52625592    -9.091301    513.96875  0.009311028 0.0078083357          629 
 4601000   0.50718318   -9.0978719    513.76482 0.0093053108 0.0078055246          639 
 4602000   0.50860481   -9.0980264    513.51091  0.009298691 0.0078027135          590 
 4603000   0.51530293   -9.0902254    512.99466 0.0092873246 0.0077999058          651 
 4604000    0.5102073   -9.0811204    514.37163 0.0093102307 0.0077970994          627 
 4605000   0.52385986   -9.1054172    514.10353 0.0093033575 0.0077942956          606 
 4606000   0.49822687   -9.0987033    513.98932 0.0092992713 0.0077914895          637 
 4607000   0.51394561   -9.1219149    513.69166 0.0092918685 0.0077886835          618 
 4608000   0.50714963   -9.0878971    513.26845 0.0092821986 0.0077858809          618 
 4609000   0.51372557   -9.0913432    513.34305 0.0092815335 0.0077830785          642 
 4610000    0.5193765   -9.0900157    514.01246 0.0092916207 0.0077802805          624 
 4611000   0.51834541   -9.0891775    514.37697 0.0092961933 0.0077774829          621 
 4612000   0.51724871   -9.1037524    513.37569 0.0092760858 0.0077746861          645 
 4613000   0.50790907   -9.0959513    513.39422 0.0092744097   0.00777189          617 
 4614000   0.49979401   -9.1028524    512.75778 0.0092609048 0.0077690947          629 
 4615000   0.52200591   -9.1076653    513.65199  0.009275045 0.0077663028          638 
 4616000   0.50533648    -9.080284    513.93483 0.0092781418 0.0077635088          633 
 4617000   0.51037504   -9.0772401    513.45835 0.0092675322 0.0077607194          628 
 4618000   0.51481126   -9.1045328    513.22382 0.0092612931 0.0077579316          624 
 4619000   0.50674832   -9.1041588    513.72059 0.0092682505 0.0077551465          612 
 4620000   0.50477934   -9.0905612     513.4976 0.0092622223 0.0077523612          633 
 4621000   0.50353379    -9.095259    513.96954 0.0092687287 0.0077495744          618 
 4622000   0.50999144   -9.1049606    512.98273 0.0092489314 0.0077467869          633 
 4623000   0.51136963   -9.1016332     512.9856 0.0092469825 0.0077440019          592 
 4624000   0.51311402   -9.1041214    513.03579 0.0092458873 0.0077412195          674 
 4625000   0.52015633    -9.089227    513.09349 0.0092449277 0.0077384372          637 
 4626000   0.50378163   -9.1057729    513.19581 0.0092447725 0.0077356576          620 
 4627000   0.51724714   -9.1126993    513.98993 0.0092570768 0.0077328786          645 
 4628000   0.51699687   -9.0935359    513.95828 0.0092545066 0.0077301005          625 
 4629000   0.49698468   -9.1190017     514.2184 0.0092571903 0.0077273251          607 
 4630000   0.50015001   -9.0859473    513.66031 0.0092451459 0.0077245502          617 
 4631000   0.51078998   -9.0909342    513.13312  0.009233663 0.0077217777          623 
 4632000   0.50651186   -9.0989039    513.54183 0.0092390225 0.0077190048          636 
 4633000   0.51470288   -9.0884028    513.47765  0.009235874 0.0077162325          614 
 4634000   0.50553533   -9.1218955    514.28551 0.0092484087 0.0077134638          651 
 4635000   0.50765275   -9.0931719    513.23951 0.0092276071 0.0077106975          633 
 4636000   0.51379182   -9.0918124    512.81588 0.0092180018 0.0077079273          641 
 4637000   0.50459389   -9.1032897    513.81957 0.0092340517 0.0077051616          617 
 4638000   0.51390007   -9.1160856    513.72772 0.0092304104 0.0077023943          625 
 4639000   0.50571892   -9.1327826    512.94568 0.0092143723 0.0076996309          652 
 4640000   0.51137196   -9.1082013     513.3076 0.0092188864 0.0076968699          626 
 4641000   0.51499321   -9.1015944    513.60456 0.0092222324 0.0076941114          667 
 4642000   0.50457567   -9.0993037    513.52074 0.0092187408 0.0076913536          638 
 4643000   0.50921957   -9.1027257    513.85451 0.0092227459 0.0076885956          646 
 4644000   0.50559059   -9.0949405     513.7105 0.0092181758 0.0076858408          606 
 4645000   0.51390058   -9.0975577    513.28563 0.0092085689 0.0076830844          622 
 4646000   0.50353002   -9.0879658    513.21046 0.0092052386 0.0076803318          618 
 4647000   0.49933141   -9.1304754    513.50964 0.0092086229 0.0076775768          614 
 4648000   0.50425165   -9.0985878    513.94123 0.0092143795 0.0076748261          613 
 4649000   0.51369278   -9.0982791    513.86042 0.0092109489 0.0076720736          626 
 4650000   0.50093541   -9.0904787     514.1925 0.0092149193 0.0076693246          590 
 4651000   0.50138069     -9.12273    513.30103 0.0091969654 0.0076665771          628 
 4652000   0.51477711   -9.1065824    513.20273 0.0091932274 0.0076638306          611 
 4653000   0.52304585   -9.1121351     513.0359 0.0091882638 0.0076610857          625 
 4654000   0.50314016   -9.1020104     513.2136 0.0091894714 0.0076583405          637 
 4655000   0.50868279   -9.1172654    513.20804 0.0091873978 0.0076555983          621 
 4656000   0.49453081   -9.1161187    513.51734 0.0091909605 0.0076528577          632 
 4657000   0.50636049   -9.1124712    513.36227  0.009186212 0.0076501156          621 
 4658000    0.5137233   -9.1122726    513.25091 0.0091822476 0.0076473779          610 
 4659000    0.5196318    -9.120446    512.87559 0.0091735635 0.0076446392          612 
 4660000   0.49982793   -9.1156109    513.00696 0.0091739441 0.0076419025          633 
 4661000   0.51833954   -9.1098981    513.24837 0.0091762921 0.0076391672          667 
 4662000   0.50169886   -9.1182603    512.59247 0.0091625995 0.0076364341          618 
 4663000   0.49591058   -9.1137897    513.27838 0.0091728926 0.0076337015          617 
 4664000   0.50708908   -9.1310838    512.76261 0.0091617104 0.0076309704          626 
 4665000   0.50527141   -9.1122287    513.44409 0.0091719201 0.0076282404          642 
 4666000   0.51452459   -9.1170036    512.87234 0.0091597432 0.0076255112          627 
 4667000   0.50121834    -9.111665    512.51711 0.0091514377 0.0076227841          642 
 4668000   0.49821439   -9.1220509    513.44076 0.0091659661 0.0076200603          635 
 4669000   0.50278797   -9.1101952    512.72635  0.009151252 0.0076173371          656 
 4670000    0.4997538   -9.1212952    512.57993 0.0091466796 0.0076146116          612 
 4671000    0.5046732   -9.1197935    513.85322 0.0091674377  0.007611887          620 
 4672000   0.50457452   -9.1027036    513.34736 0.0091564525  0.007609166          639 
 4673000   0.51347218    -9.122918        514.2 0.0091696982 0.0076064474          639 
 4674000   0.50160429    -9.117558    513.07787 0.0091477299 0.0076037307          635 
 4675000   0.48773755   -9.1011519    513.30549 0.0091498304 0.0076010126          626 
 4676000   0.51267341   -9.1055629    513.32338 0.0091481925 0.0075982991          653 
 4677000   0.50822392   -9.1239717    513.06689 0.0091416665 0.0075955837          625 
 4678000   0.51119153   -9.1120273    513.17978 0.0091417233 0.0075928729          628 
 4679000   0.50364292   -9.1129789    512.67715 0.0091308177  0.007590161          706 
 4680000   0.49057295   -9.1146575     513.2076  0.009138312 0.0075874508          648 
 4681000   0.50849617   -9.1089029    513.91218 0.0091489031 0.0075847422          637 
 4682000   0.50373722   -9.1177172    512.95486   0.00912991 0.0075820361          631 
 4683000   0.50054565   -9.1185712    513.65955 0.0091405003 0.0075793286          624 
 4684000   0.51060899   -9.1078016    513.14461 0.0091293874 0.0075766243          654 
 4685000   0.50853273   -9.1107602    513.82815 0.0091395971 0.0075739232          622 
 4686000   0.50402274   -9.1057684       512.23 0.0091092261  0.007571221          641 
 4687000   0.50222499   -9.1093877    513.00075 0.0091209863 0.0075685158          624 
 4688000   0.50499925   -9.1213765     513.0492 0.0091199019 0.0075658115          638 
 4689000   0.48787656   -9.1179621    513.18374 0.0091203481 0.0075631135          635 
 4690000   0.50923543   -9.1296485    512.17152 0.0091004179 0.0075604131          625 
 4691000   0.49593987   -9.1219699    512.90393 0.0091114888 0.0075577161          633 
 4692000   0.50579522   -9.1244662    513.36217 0.0091176856 0.0075550196          609 
 4693000   0.49987163   -9.1118675    513.08238 0.0091107746 0.0075523246          623 
 4694000   0.50060017   -9.1157359    514.21243 0.0091288956 0.0075496321          643 
 4695000    0.4995575   -9.1366141    512.26128 0.0090923195 0.0075469387          649 
 4696000   0.50679332   -9.1184597     512.6357 0.0090970276  0.007544248          635 
 4697000   0.49939904    -9.134912     513.2129 0.0091053315 0.0075415575          655 
 4698000   0.50327425   -9.1172635    513.55642 0.0091094866 0.0075388683          641 
 4699000   0.50412515   -9.1151968      512.329 0.0090857806 0.0075361794          646 
 4700000   0.49500455   -9.1208578    513.25104 0.0091001958 0.0075334937          641 
 4701000   0.48689929   -9.1187779    513.59262  0.009104315 0.0075308087          666 
 4702000   0.49881876   -9.1258891    513.14704 0.0090944817 0.0075281239          628 
 4703000   0.50393364   -9.1157025    513.25589 0.0090944768 0.0075254425          632 
 4704000   0.50330143   -9.1231064    513.25352 0.0090925015 0.0075227593          620 
 4705000   0.49980385   -9.1309123    512.60074  0.009079007 0.0075200771          626 
 4706000   0.50445231   -9.1247079    512.33951 0.0090724521 0.0075173963          651 
 4707000   0.48981813   -9.1264164    513.45446 0.0090902638 0.0075147192          636 
 4708000   0.48990359    -9.116133    512.76896 0.0090761994 0.0075120408          635 
 4709000   0.50953587    -9.123352    512.96747 0.0090777849 0.0075093664          659 
 4710000   0.48624615   -9.1334672    512.80879   0.00907305 0.0075066925          601 
 4711000   0.50143127   -9.1371184    513.31875 0.0090801449 0.0075040186          660 
 4712000   0.50690096   -9.1157875    512.96864  0.009072026 0.0075013485          605 
 4713000   0.49507664   -9.1408874    513.67921 0.0090826652 0.0074986771          654 
 4714000   0.50105181   -9.1182078    512.62173 0.0090620445 0.0074960051          610 
 4715000    0.4955393   -9.1249265    512.08224 0.0090505875 0.0074933342          618 
 4716000   0.50605582   -9.1164184    512.99939 0.0090648746 0.0074906668          610 
 4717000   0.48995572   -9.1276053    513.13256 0.0090653056 0.0074880011          616 
 4718000   0.50501164   -9.1241154    512.32154 0.0090490593 0.0074853352          628 
 4719000   0.50522732   -9.1356376    512.76629 0.0090549955 0.0074826718          640 
 4720000   0.50096787   -9.1317924    513.14921 0.0090598377 0.0074800084          644 
 4721000   0.49000455   -9.1175742    512.53414 0.0090470616  0.007477348          638 
 4722000   0.49302682    -9.128967    513.28518 0.0090584001 0.0074746889          610 
 4723000   0.48948832   -9.1265318    512.40139 0.0090408884 0.0074720314          608 
 4724000   0.49672833    -9.128252    513.06228  0.009050633 0.0074693759          623 
 4725000    0.4875831   -9.1326625    513.07456  0.009048934 0.0074667205          651 
 4726000   0.50381449    -9.115306    513.09498 0.0090473795 0.0074640674          597 
 4727000   0.48066936   -9.1583103    512.82865 0.0090407702 0.0074614144          649 
 4728000   0.49343141   -9.1299115     512.9903 0.0090417073 0.0074587591          657 
 4729000   0.49676731   -9.1272456    512.18285 0.0090255666 0.0074561065          644 
 4730000   0.49645632   -9.1424436      513.427 0.0090455779 0.0074534571          656 
 4731000   0.48663787   -9.1406609    512.92137 0.0090347595 0.0074508079          635 
 4732000   0.49498222   -9.1224132    512.52915 0.0090259431 0.0074481602          632 
 4733000    0.4939111   -9.1232874    512.90115 0.0090305858   0.00744551          624 
 4734000   0.49621141   -9.1388115    512.32328 0.0090185058 0.0074428636          634 
 4735000   0.50599083    -9.140029    513.71983 0.0090411796 0.0074402185          636 
 4736000   0.48497166   -9.1324746    513.61422 0.0090374124 0.0074375761          632 
 4737000   0.49606758   -9.1369697    512.43892 0.0090148286 0.0074349359          646 
 4738000    0.4856614   -9.1281318    512.94152 0.0090217659  0.007432296          624 
 4739000   0.49909243    -9.138977    512.56087 0.0090131685 0.0074296557          623 
 4740000   0.50368295   -9.1249031    512.47873 0.0090098229 0.0074270164          630 
 4741000   0.48611128   -9.1292878    512.88817 0.0090151194 0.0074243791          620 
 4742000   0.49722097    -9.145398    513.08271  0.009016637 0.0074217418          641 
 4743000   0.49837472   -9.1192189    512.53095 0.0090050417 0.0074191081          607 
 4744000    0.4934284   -9.1307195     513.0446 0.0090121662 0.0074164736          634 
 4745000   0.49498906   -9.1542786    513.13183  0.009011799 0.0074138395          656 
 4746000   0.48328861   -9.1315969    511.87072 0.0089877568 0.0074112081          604 
 4747000   0.49422338    -9.141203    512.49241 0.0089967771 0.0074085781          632 
 4748000    0.4928733   -9.1228129    513.35502 0.0090100221  0.007405948          630 
 4749000   0.48670095    -9.119639    513.16743 0.0090048331 0.0074033206          619 
 4750000   0.49759084   -9.1289583    512.62714 0.0089934587 0.0074006928          646 
 4751000   0.49978715   -9.1193443    512.64463 0.0089918725 0.0073980674          626 
 4752000   0.48277775   -9.1354254    512.15177 0.0089813371 0.0073954442          629 
 4753000   0.50589947   -9.1294013    512.01761 0.0089770953  0.007392822          615 
 4754000   0.50040959   -9.1219912    513.00566 0.0089925267 0.0073902025          679 
 4755000   0.50386135   -9.1281433    512.29777 0.0089782294  0.007387581          648 
 4756000   0.48981119   -9.1452169    513.05126 0.0089895441 0.0073849612          620 
 4757000   0.49848037   -9.1458496    513.18319 0.0089899654 0.0073823416          627 
 4758000   0.49903846   -9.1406913    513.00847  0.008985016 0.0073797235          649 
 4759000   0.48740295   -9.1334113    512.41281 0.0089726976  0.007377108          620 
 4760000   0.48606122   -9.1427182    512.62938  0.008974604 0.0073744924          640 
 4761000   0.49934809   -9.1497635    512.40762 0.0089688374 0.0073718769          652 
 4762000   0.49136362   -9.1382946    511.70025 0.0089545753  0.007369266          642 
 4763000   0.49454421   -9.1453881      512.173 0.0089609664 0.0073666543          619 
 4764000    0.4953837   -9.1370096    513.02379 0.0089739677 0.0073640432          639 
 4765000   0.49582725   -9.1291788    512.26829 0.0089588717 0.0073614331          643 
 4766000   0.49015941   -9.1548314    513.56386  0.008979645 0.0073588252          641 
 4767000   0.48614245   -9.1527112    512.94451 0.0089669342 0.0073562171          648 
 4768000   0.48656614   -9.1448819    512.76779  0.008961965 0.0073536134          650 
 4769000   0.48326032   -9.1439134     512.8274 0.0089611275 0.0073510114          658 
 4770000   0.48472014   -9.1460868    512.49829 0.0089534991 0.0073484084          636 
 4771000   0.48891722   -9.1560569    512.07318 0.0089441972 0.0073458077          641 
 4772000   0.48394326    -9.132615     512.0018 0.0089410764 0.0073432087          644 
 4773000   0.47271067   -9.1390046    512.23115 0.0089432074 0.0073406072          613 
 4774000   0.48948637   -9.1353825    513.26268 0.0089593402 0.0073380099          620 
 4775000   0.48813598   -9.1342135    512.45146 0.0089433064 0.0073354133          650 
 4776000   0.48881379   -9.1478362    512.51477 0.0089425386 0.0073328172          642 
 4777000   0.48448638   -9.1468041    512.38667  0.008938432 0.0073302209          621 
 4778000    0.4779336   -9.1300582     512.6792 0.0089416631 0.0073276264          657 
 4779000   0.48255846   -9.1310234    512.80372 0.0089419635 0.0073250332          628 
 4780000   0.48499857   -9.1365863    512.41243 0.0089332711 0.0073224421          668 
 4781000   0.48160078   -9.1423186    512.56014 0.0089339772 0.0073198516          635 
 4782000   0.48000489   -9.1500115    511.84454 0.0089196386  0.007317262          636 
 4783000   0.49212705   -9.1536609    512.35612 0.0089266869 0.0073146741          665 
 4784000   0.48984969   -9.1365058     512.5829 0.0089287712 0.0073120876          621 
 4785000   0.48811051   -9.1385393    512.29618 0.0089219119 0.0073095046          627 
 4786000   0.48964869   -9.1496667    511.67802 0.0089092844 0.0073069188          626 
 4787000   0.48673829   -9.1435243    512.06078 0.0089140865 0.0073043358          623 
 4788000   0.46964848   -9.1545763    511.79016 0.0089075145 0.0073017546          616 
 4789000   0.48512007   -9.1349167    511.16934 0.0088948517 0.0072991756          641 
 4790000    0.4826812   -9.1572265    512.02152 0.0089078205  0.007296597          639 
 4791000   0.48600126   -9.1387704     511.0354 0.0088888088 0.0072940194          648 
 4792000   0.48230184   -9.1489915    512.57956 0.0089138071  0.007291444          640 
 4793000   0.48363006    -9.142678    511.98727 0.0089016494 0.0072888663          639 
 4794000   0.49560029   -9.1472247    512.46024 0.0089080141 0.0072862911          659 
 4795000   0.48994941   -9.1330432    512.24788 0.0089024658 0.0072837176          620 
 4796000   0.49461159   -9.1272732    513.19925 0.0089171401 0.0072811464          614 
 4797000   0.48379347   -9.1432192    512.88209 0.0089097716  0.007278576          644 
 4798000   0.48912835    -9.152423    512.21931 0.0088964032 0.0072760086          639 
 4799000   0.48444874   -9.1663994    511.52218 0.0088824439 0.0072734393          650 
 4800000   0.47447175   -9.1487928      512.546 0.0088983681 0.0072708723          630 
 4801000   0.48643539   -9.1450306    512.08768 0.0088885593 0.0072683077          627 
 4802000   0.48222548    -9.146658    512.50947  0.008894028   0.00726574          666 
 4803000    0.4833674   -9.1412695    512.12883  0.008885572 0.0072631758          611 
 4804000   0.48165349   -9.1575097    512.30587 0.0088867934  0.007260613          629 
 4805000   0.48680534     -9.14905    512.18382 0.0088828273 0.0072580508          652 
 4806000   0.48090157    -9.145533    511.75433 0.0088735319 0.0072554902          620 
 4807000   0.48414713   -9.1530057    512.47033 0.0088840983 0.0072529292          634 
 4808000   0.48433501   -9.1474886    512.46347 0.0088821316 0.0072503708          658 
 4809000   0.48871747   -9.1680682    512.35502 0.0088784055 0.0072478144          639 
 4810000   0.48905931   -9.1697572    512.37904 0.0088769757 0.0072452591          641 
 4811000   0.48649689    -9.144565    512.53202 0.0088777804 0.0072427046          642 
 4812000   0.48842952   -9.1396978    512.51222 0.0088755925 0.0072401524          629 
 4813000   0.47515468   -9.1438276    512.78886 0.0088785383  0.007237598          603 
 4814000   0.48147432   -9.1595227    512.34315 0.0088689785 0.0072350458          638 
 4815000   0.47374527   -9.1376366    512.08664 0.0088626972 0.0072324956          632 
 4816000   0.48530706   -9.1357849    512.28033 0.0088642084 0.0072299478          669 
 4817000   0.48905076   -9.1346265    513.22819  0.008878766 0.0072274002          628 
 4818000   0.48503371   -9.1513265    512.47238 0.0088638506 0.0072248545          661 
 4819000   0.48607936    -9.153862    511.43921 0.0088441449 0.0072223089          633 
 4820000   0.47547059   -9.1545273    512.44786 0.0088597487 0.0072197643          658 
 4821000   0.47627137   -9.1447956    512.32811  0.008855841 0.0072172219          649 
 4822000   0.47701441    -9.159407    512.70695 0.0088605515 0.0072146796          633 
 4823000   0.47419726   -9.1471777    512.62171 0.0088572415 0.0072121391          647 
 4824000   0.47211342   -9.1320856    512.57759 0.0088546432  0.007209599          639 
 4825000   0.47849516   -9.1436272     511.6544 0.0088368636 0.0072070599          658 
 4826000   0.47487011   -9.1698053    512.46378 0.0088490085 0.0072045225          629 
 4827000   0.47927742   -9.1439399    512.37236 0.0088455971 0.0072019876          649 
 4828000   0.47510983   -9.1597731    511.64459 0.0088312032 0.0071994524          649 
 4829000     0.481688    -9.148457    512.69391 0.0088474823 0.0071969185          635 
 4830000   0.48293721   -9.1422115    512.48744 0.0088420883 0.0071943858          636 
 4831000   0.48451915   -9.1508032    512.48289 0.0088401795 0.0071918532          658 
 4832000   0.48170248   -9.1546045    512.48635 0.0088384097 0.0071893213          650 
 4833000   0.47706589   -9.1696995    512.30552  0.008833463  0.007186792          621 
 4834000   0.47906747   -9.1473492      511.167 0.0088120087 0.0071842648          621 
 4835000   0.47791622   -9.1417272    511.62292 0.0088180441 0.0071817365          648 
 4836000   0.47239197   -9.1601395    511.98888 0.0088225269 0.0071792115          635 
 4837000   0.47477177   -9.1583534    512.68828 0.0088327524 0.0071766875          649 
 4838000   0.48061478   -9.1516908    511.74069 0.0088146047 0.0071741629          635 
 4839000   0.47413863   -9.1651584    512.68632  0.008829068 0.0071716396          624 
 4840000   0.48131064   -9.1392394    512.64931 0.0088266066 0.0071691203          622 
 4841000   0.47467794   -9.1511111    511.61606 0.0088069969 0.0071666016          653 
 4842000   0.46666881   -9.1609846    511.58744 0.0088046854 0.0071640825          653 
 4843000   0.47904791   -9.1599978    511.81596 0.0088067994 0.0071615638          648 
 4844000   0.46320669   -9.1618715    511.76992 0.0088041894 0.0071590482          641 
 4845000   0.46872975   -9.1420457    511.69529 0.0088010886 0.0071565334          645 
 4846000   0.47352556   -9.1525001    511.48531 0.0087956616 0.0071540184          637 
 4847000   0.47355095   -9.1573728    511.66549 0.0087969447 0.0071515049          638 
 4848000    0.4700512   -9.1771705    511.69606 0.0087956555 0.0071489911          645 
 4849000   0.47084074    -9.163502    512.48641 0.0088074244 0.0071464787          630 
 4850000   0.46916747   -9.1760776     511.9611 0.0087965825 0.0071439694          668 
 4851000   0.47779102    -9.152984    511.92635 0.0087941721 0.0071414591          634 
 4852000   0.47323158   -9.1605898    511.70085 0.0087884868  0.007138953          616 
 4853000   0.47668509   -9.1726807    511.78729 0.0087881601 0.0071364457          642 
 4854000   0.48143287   -9.1554518    511.34773 0.0087788032  0.007133941          630 
 4855000   0.47346268   -9.1488988    511.87274 0.0087860066 0.0071314369          615 
 4856000   0.48968402   -9.1635206    512.20249  0.008789856  0.007128934          640 
 4857000   0.48697697   -9.1620916    511.69455 0.0087793314 0.0071264328          645 
 4858000   0.46745126   -9.1599632     512.3038 0.0087879752 0.0071239315          644 
 4859000   0.47426897   -9.1678297     511.7192 0.0087761405 0.0071214327          627 
 4860000   0.47378184   -9.1773072    511.32481 0.0087675722  0.007118933          622 
 4861000   0.47240316   -9.1618524    511.77049 0.0087734089 0.0071164363          636 
 4862000   0.46430082   -9.1711223     512.2439 0.0087797185 0.0071139405          644 
 4863000   0.47181336   -9.1623729    512.03808 0.0087743862 0.0071114469          650 
 4864000   0.47906449   -9.1541174    511.77912 0.0087681456 0.0071089543          611 
 4865000   0.47251776    -9.174753    510.93779  0.008751932 0.0071064627          645 
 4866000   0.47132808   -9.1615324    512.19733 0.0087717038 0.0071039713          644 
 4867000   0.46201248   -9.1668211    512.04262 0.0087672527 0.0071014816          644 
 4868000   0.47883235   -9.1615875    511.59275 0.0087577504  0.007098992          656 
 4869000   0.47260081   -9.1665608    511.22971 0.0087497383  0.007096503          657 
 4870000   0.47373131   -9.1685315     512.4825 0.0087693789  0.007094015          616 
 4871000   0.47235011    -9.159959     511.5465 0.0087515653 0.0070915295          619 
 4872000   0.47945437   -9.1811692    511.62814 0.0087511655 0.0070890431          654 
 4873000   0.47374287   -9.1680244    511.91381 0.0087542549 0.0070865571          646 
 4874000   0.46944534   -9.1743176    511.28401 0.0087416907 0.0070840739          639 
 4875000   0.46094775   -9.1642889     512.1855 0.0087553076 0.0070815917          626 
 4876000   0.47543759   -9.1600122    511.84626 0.0087477143 0.0070791145          632 
 4877000   0.47269645   -9.1800286    511.41559 0.0087385618 0.0070766341          646 
 4878000   0.47519652    -9.156357    511.73499 0.0087422268 0.0070741563          636 
 4879000   0.47076004   -9.1669967    511.55792 0.0087374107 0.0070716798          639 
 4880000   0.47542481   -9.1933439    511.39613 0.0087328575 0.0070692044          628 
 4881000   0.47549845   -9.1817312    512.88101 0.0087564196 0.0070667309          653 
 4882000   0.45921431   -9.1737066    511.47609 0.0087306448 0.0070642565          646 
 4883000   0.47709824   -9.1578472    511.99446 0.0087377033 0.0070617837          632 
 4884000   0.46397397    -9.179216    511.98042 0.0087356747 0.0070593109          658 
 4885000   0.45818805   -9.1493285    511.51035 0.0087258675 0.0070568395          626 
 4886000   0.46991591   -9.1675692    511.40206 0.0087222347   0.00705437          652 
 4887000   0.46910785   -9.1702202    512.14418 0.0087331045 0.0070519012          617 
 4888000   0.46664973   -9.1649161    511.26792 0.0087163788 0.0070494329          616 
 4889000   0.46709835   -9.1858215    511.26002 0.0087144613 0.0070469655          641 
 4890000   0.46483026   -9.1804061    511.68951 0.0087199984 0.0070445006          642 
 4891000    0.4723051   -9.1730678    511.18114 0.0087095539 0.0070420354          640 
 4892000   0.46583097    -9.177837    512.11287 0.0087236453 0.0070395727          629 
 4893000   0.45899557   -9.1698007    511.64158 0.0087138358  0.007037112          655 
 4894000    0.4793409   -9.1601335    511.73501 0.0087136461 0.0070346527          632 
 4895000   0.47621455   -9.1627991    511.53229  0.008708415 0.0070321925          630 
 4896000   0.46733592   -9.1648933    512.49219 0.0087229744 0.0070297358          629 
 4897000    0.4702488   -9.1657823     512.2921 0.0087177882   0.00702728          645 
 4898000   0.47469659   -9.1786424    511.72987 0.0087064425 0.0070248249          650 
 4899000   0.47334144   -9.1790715    511.75027 0.0087050125 0.0070223693          633 
 4900000   0.46981747   -9.1760665    511.64015  0.008701363 0.0070199155          624 
 4901000   0.47039564   -9.1608147    511.70037 0.0087006116 0.0070174619          620 
 4902000   0.47897223    -9.168871    511.52528 0.0086958602 0.0070150105          642 
 4903000   0.46917138   -9.1814135     511.9182 0.0087007648 0.0070125602          654 
 4904000   0.45261801   -9.1688483    510.91522  0.008681947 0.0070101123          644 
 4905000   0.46586314    -9.177169    511.52988 0.0086906198 0.0070076632          648 
 4906000    0.4787105   -9.1868704    511.47875 0.0086879798 0.0070052161          627 
 4907000   0.46744348    -9.165315    510.93078 0.0086769033 0.0070027728          624 
 4908000   0.46918061   -9.1760454    510.82129 0.0086732765 0.0070003281          649 
 4909000   0.46951959     -9.18265    511.62573 0.0086851655 0.0069978852          628 
 4910000   0.46923915   -9.1635691     511.8298 0.0086868602 0.0069954426          662 
 4911000   0.45691038   -9.1637825    511.68449 0.0086826255 0.0069930012          659 
 4912000   0.46275163   -9.1836358    510.92118 0.0086679082 0.0069905607          633 
 4913000   0.46891653   -9.1892655    511.94034 0.0086834308 0.0069881233          659 
 4914000    0.4582511   -9.1779821    510.75718 0.0086615991 0.0069856869          619 
 4915000    0.4609979   -9.1965524    511.51343 0.0086726591 0.0069832495          628 
 4916000   0.44962336   -9.1687237    511.48762 0.0086704574 0.0069808116          624 
 4917000   0.45811697   -9.1756837    510.99089 0.0086602754 0.0069783743          652 
 4918000   0.46809316   -9.1961245    512.01086 0.0086757974 0.0069759382          650 
 4919000   0.46264298    -9.166451    510.78026  0.008653186 0.0069735072          642 
 4920000   0.46314455   -9.1723896    511.52649 0.0086640666 0.0069710733          701 
 4921000    0.4667158   -9.1815854    511.39726 0.0086601175 0.0069686443          643 
 4922000   0.46466128   -9.1854293    510.88108 0.0086496187 0.0069662137          621 
 4923000   0.46393384   -9.1818025     511.1765 0.0086528624 0.0069637848          635 
 4924000   0.45757106   -9.1740599    511.18472 0.0086512442 0.0069613571          663 
 4925000   0.45789595   -9.1850595     510.7391 0.0086419475 0.0069589294          639 
 4926000   0.47241482   -9.1806523    511.23125 0.0086485188  0.006956503          634 
 4927000   0.46268048   -9.1777851    511.44104 0.0086503118 0.0069540782          646 
 4928000   0.46229266   -9.1810229    511.32336 0.0086465666 0.0069516547          627 
 4929000   0.45186504   -9.1747988    511.83385 0.0086534431 0.0069492302          623 
 4930000     0.458468   -9.1743255    511.45846 0.0086453425 0.0069468102          651 
 4931000   0.46316497   -9.1709034    511.22588 0.0086396586 0.0069443912          659 
 4932000   0.45837239   -9.1885984     511.3804 0.0086405177 0.0069419737          620 
 4933000   0.47038398   -9.1902553    511.83751  0.008646488 0.0069395541          670 
 4934000   0.45819645    -9.183536    510.43088 0.0086209782 0.0069371374          641 
 4935000    0.4590749   -9.1806013    511.54841 0.0086381022 0.0069347216          621 
 4936000   0.46078626   -9.1712224    511.67183 0.0086384358 0.0069323092          644 
 4937000    0.4549434   -9.1877062    511.36877 0.0086315706 0.0069298964          660 
 4938000   0.47426503   -9.1804137    511.24291 0.0086276986 0.0069274842          620 
 4939000   0.44760459   -9.1717874    511.16056 0.0086245623 0.0069250755          625 
 4940000   0.46431169   -9.2078016     511.5523 0.0086294247 0.0069226671          646 
 4941000   0.46216873    -9.184861    511.04487 0.0086191202 0.0069202587          642 
 4942000    0.4632206   -9.1783592     511.4201 0.0086237034 0.0069178506          682 
 4943000    0.4721089    -9.179303    511.80308 0.0086284153 0.0069154435          625 
 4944000    0.4666354   -9.1685565    511.73311 0.0086254907 0.0069130393          610 
 4945000   0.47032772   -9.1829928    510.55513 0.0086038951 0.0069106341          652 
 4946000   0.46378004   -9.1908001    511.16294 0.0086123963 0.0069082313          640 
 4947000   0.46361661    -9.195723    511.06915 0.0086090753 0.0069058299          647 
 4948000   0.46779126   -9.1885967    511.82327 0.0086200362 0.0069034287          671 
 4949000   0.46451356   -9.1719731    511.42942 0.0086116626 0.0069010284          643 
 4950000   0.45463301   -9.1934364    511.50275 0.0086111575 0.0068986291          656 
 4951000   0.46533458   -9.1891091    511.26337 0.0086053889 0.0068962307          653 
 4952000   0.46321605   -9.1946056     510.9325 0.0085980832 0.0068938346          650 
 4953000   0.45445086   -9.1791744     511.2989  0.008602512 0.0068914372          637 
 4954000   0.44565128   -9.1841915     511.0333 0.0085963078 0.0068890437          644 
 4955000   0.46202027   -9.1763269    512.01216 0.0086110353 0.0068866494          687 
 4956000   0.46626533   -9.1771859     511.6629 0.0086034252 0.0068842573          643 
 4957000   0.45390065   -9.1933676    511.52991 0.0085994538 0.0068818669          639 
 4958000   0.44674955   -9.1984592    510.32034 0.0085773891 0.0068794756          641 
 4959000    0.4526526   -9.1914878    511.51662 0.0085957623 0.0068770873          634 
 4960000    0.4574645   -9.1854506    511.40278 0.0085921166 0.0068746998          671 
 4961000   0.45703168   -9.1833331    511.57946 0.0085933525 0.0068723119          634 
 4962000   0.46207769    -9.184581    510.49377 0.0085733872 0.0068699249          645 
 4963000   0.46403514   -9.1871714    510.94351 0.0085792113 0.0068675426          651 
 4964000   0.46099984   -9.1830803    510.59698 0.0085716657 0.0068651594          654 
 4965000   0.45694772   -9.1947908    511.34583  0.008582508 0.0068627768          608 
 4966000   0.45761908    -9.190665     511.4142  0.008581927 0.0068603969          653 
 4967000   0.45317057   -9.1796781    510.93359 0.0085721359 0.0068580159          674 
 4968000   0.44952516   -9.1898646    510.86155 0.0085692021 0.0068556372          694 
 4969000   0.46166388   -9.1986787    511.47604 0.0085777829 0.0068532589          618 
 4970000   0.45571034   -9.1996813    511.37882 0.0085744268 0.0068508829          626 
 4971000   0.45618727   -9.1950726    510.65743 0.0085606087 0.0068485049          628 
 4972000   0.45541708   -9.2149555    510.77299 0.0085608238 0.0068461276          622 
 4973000   0.46503823   -9.1872239    510.99006 0.0085627397  0.006843753          644 
 4974000   0.45517547   -9.1763436    510.87359  0.008559067  0.006841381          622 
 4975000   0.45645379   -9.1956622    511.16572 0.0085622399 0.0068390087          650 
 4976000   0.45416137   -9.1785175    511.90492 0.0085728985 0.0068366389          634 
 4977000   0.45362065   -9.1977082    510.94738 0.0085551434 0.0068342713          637 
 4978000   0.45741653   -9.1991338    511.12916 0.0085564678 0.0068319025          622 
 4979000   0.45447282   -9.1897657    510.91143 0.0085511051 0.0068295369          633 
 4980000   0.45098328   -9.1929653    511.70721 0.0085627043 0.0068271717          628 
 4981000   0.45173317   -9.1869498    511.47741 0.0085571406 0.0068248065          645 
 4982000   0.45773596   -9.1925914    511.69887 0.0085591274 0.0068224417          627 
 4983000   0.45604216   -9.1953363    511.48632 0.0085538551 0.0068200785          640 
 4984000   0.45478487   -9.1967643    511.06191 0.0085450426 0.0068177169          641 
 4985000   0.44513278   -9.1975405    511.13609 0.0085445685 0.0068153565          628 
 4986000   0.44897168   -9.2004697    511.71792 0.0085525792 0.0068129966          621 
 4987000    0.4475772   -9.1921398    510.37346 0.0085283982 0.0068106375          641 
 4988000   0.46606799   -9.2049522    509.86463 0.0085181875 0.0068082795          635 
 4989000   0.45817162   -9.2152991    511.36655 0.0085415673 0.0068059223          634 
 4990000   0.45054404   -9.1876926     510.9427 0.0085327773 0.0068035674          606 
 4991000   0.45118148   -9.1943197    511.23428 0.0085359361 0.0068012138          631 
 4992000   0.44666628   -9.1977087     509.9121 0.0085121544 0.0067988602          629 
 4993000   0.44842667   -9.2050556    511.17514 0.0085315298 0.0067965084          619 
 4994000   0.44977985    -9.195938    511.30117 0.0085319245 0.0067941574          629 
 4995000   0.45847348   -9.1862215    511.63748 0.0085358272 0.0067918083          647 
 4996000   0.45532157   -9.1988147    510.95346 0.0085227091 0.0067894591          644 
 4997000   0.45373811   -9.1949751    510.71769 0.0085170717 0.0067871124          654 
 4998000    0.4433028   -9.1982404    510.98347  0.008519799 0.0067847665          643 
 4999000   0.45514994    -9.187829    510.83248 0.0085155777 0.0067824212          627 
 5000000   0.44138426   -9.2020092     510.3722 0.0085062033 0.0067800764          652 
 5001000   0.45182164   -9.1867318    510.98378 0.0085146935 0.0067777336          638 
 5002000   0.44885528   -9.1883309    511.45926 0.0085209126 0.0067753907          641 
 5003000   0.44905536   -9.1827118     511.2437  0.008515619 0.0067730509          658 
 5004000   0.45654975   -9.1992014    511.75476 0.0085224281 0.0067707102          641 
 5005000   0.45445627   -9.1954309    511.44913 0.0085156366 0.0067683715          624 
 5006000    0.4447211   -9.1977024    511.36212  0.008512487 0.0067660336          636 
 5007000   0.44766954   -9.1958339    510.81236 0.0085016371 0.0067636972          646 
 5008000   0.45236693   -9.1899355     510.8379 0.0085003643 0.0067613603          652 
 5009000   0.45565064   -9.1924841    511.44613 0.0085087864  0.006759023          644 
 5010000   0.44966273   -9.1826472    511.39096 0.0085061703 0.0067566898          634 
 5011000   0.45316671   -9.1978987    510.73213 0.0084935165 0.0067543556          623 
 5012000   0.45041278   -9.2025667    511.02797 0.0084967406 0.0067520225          630 
Loop time of 12898.6 on 48 procs for 5000000 steps with 4000 atoms

Performance: 66984.121 tau/day, 387.640 timesteps/s
99.4% CPU use with 48 MPI tasks x no OpenMP threads

MPI task timing breakdown:
Section |  min time  |  avg time  |  max time  |%varavg| %total
---------------------------------------------------------------
Pair    | 890.38     | 944.11     | 1022.5     | 106.2 |  7.32
Neigh   | 84.925     | 88.471     | 92.762     |  23.6 |  0.69
Comm    | 767.41     | 875.13     | 953.44     | 150.3 |  6.78
Output  | 18.627     | 18.631     | 18.725     |   0.3 |  0.14
Modify  | 10785      | 10843      | 10905      |  28.9 | 84.07
Other   |            | 128.9      |            |       |  1.00

Nlocal:        83.3333 ave          92 max          76 min
Histogram: 3 3 6 6 6 12 8 2 1 1
Nghost:        2281.56 ave        2301 max        2258 min
Histogram: 3 3 0 6 7 9 7 5 4 4
Neighs:        15381.9 ave       17989 max       13163 min
Histogram: 1 2 5 13 10 5 7 3 1 1
FullNghs:      30763.9 ave       34938 max       27766 min
Histogram: 3 5 8 5 11 7 5 2 1 1

Total # of neighbors = 1476667
Ave neighs/atom = 369.16675
Neighbor list builds = 266639
Dangerous builds = 0

#clear
#
#next RN
#
#jump SELF
Total wall time: 3:35:02
