
units lj                  # Use reduced LJ style units
atom_style atomic         # Uncharged point particles
atom_modify map hash      # Needed for indexing of clusters etc
                          # Used to be able to find where atoms are in relation to each other.

lattice fcc 1.0 spacing 1 1 1
Lattice spacing in x,y,z = 1.5874011 1.5874011 1.5874011
region box block 0 10 0 10 0 10 units lattice
create_box 2 box
Created orthogonal box = (0.0000000 0.0000000 0.0000000) to (15.874011 15.874011 15.874011)
  3 by 4 by 4 MPI processor grid
create_atoms 1 box
Created 4000 atoms
  using lattice units in orthogonal box = (0.0000000 0.0000000 0.0000000) to (15.874011 15.874011 15.874011)
  create_atoms CPU = 0.097 seconds
set type 1 type/fraction 2 0.71 78393
Setting atom values ...
  2865 settings made for type/fraction
mass 1 1.0
mass 2 1.0
pair_style lj/cut  3.5
pair_modify tail  yes
pair_coeff 1  1  1.0  1.0   # Intearaction between 1 and 1 set with epsilon = 1 and sigma = 1
pair_coeff 1  2  1.5  0.8
pair_coeff 2  2  0.5  0.88

write_data data.0
System init for write_data ...
Neighbor list info ...
  update every 1 steps, delay 10 steps, check yes
  max neighbors/atom: 2000, page size: 100000
  master list distance cutoff = 3.8
  ghost atom cutoff = 3.8
  binsize = 1.9, bins = 9 9 9
  1 neighbor lists, perpetual/occasional/extra = 1 0 0
  (1) pair lj/cut, perpetual
      attributes: half, newton on
      pair build: half/bin/atomonly/newton
      stencil: half/bin/3d
      bin: standard
WARNING: Not all mixed pair coeffs generated from mixing. Use write_data with 'pair ij' option to store all pair coeffs. (../write_data.cpp:312)


#############################
#   M E L T   S Y S T E M   #
#############################

velocity all create 2.4 8172548 mom yes dist gaussian # Assign velocities
                                                    # Temperature 2.4, random number seed, zero linear momentum
                                                                                # Gaussian distribution

timestep 0.002   # simulation timestep
thermo 1000       # output thermodynamic data every 1000 steps bf 100

# Define a fix  in this case with index 1 applied to all
# particles in the simulation. This fix is for simulations
# in the anisotropic NPT ensemble. Note that we use the MTK
# correction.
fix 1 all npt temp 2.4 2.4 0.1 iso 5.68 5.68 0.5 mtk yes tchain 5 pchain 5 # Use NPT ensemble
                                                                         # Set temperature and pressure and damping
                                                                         # Numbers of thermostats in chain and in barostat
run 10000          # run for 10000 steps
Per MPI rank memory allocation (min/avg/max) = 3.642 | 3.644 | 3.648 Mbytes
Step Temp E_pair E_mol TotEng Press Volume 
       0          2.4   -4.1166387            0   -0.5175387   -3.7043072         4000 
    1000     2.379313   -3.7100834            0  -0.14200608    5.3537768    3695.2194 
    2000    2.4041956   -3.7512771            0  -0.14588523    5.5382657    3651.7784 
    3000    2.3829096   -3.6452163            0 -0.071745522    5.5318716    3715.5184 
    4000    2.4087642   -3.6827196            0 -0.070476638    5.7185059    3678.3353 
    5000    2.4219312   -3.6881184            0  -0.05612983    5.7419523    3674.5317 
    6000    2.3659229   -3.7153428            0  -0.16734568    5.8672191     3655.455 
    7000    2.3607791    -3.706675            0  -0.16639166    5.6750828    3667.6513 
    8000    2.4258637   -3.6625717            0 -0.024685894    5.8223483    3671.9756 
    9000    2.3923864   -3.6999055            0  -0.11222306    5.8006435    3655.2892 
   10000    2.3850333   -3.6757615            0 -0.099105979    5.6457108    3694.2914 
Loop time of 3.00123 on 48 procs for 10000 steps with 4000 atoms

Performance: 575763.671 tau/day, 3331.966 timesteps/s
99.3% CPU use with 48 MPI tasks x no OpenMP threads

MPI task timing breakdown:
Section |  min time  |  avg time  |  max time  |%varavg| %total
---------------------------------------------------------------
Pair    | 1.1701     | 1.251      | 1.3209     |   2.7 | 41.68
Neigh   | 0.21563    | 0.22342    | 0.23645    |   0.7 |  7.44
Comm    | 0.84817    | 0.9421     | 1.0587     |   4.2 | 31.39
Output  | 0.00025766 | 0.00026454 | 0.00036156 |   0.0 |  0.01
Modify  | 0.49663    | 0.56861    | 0.60627    |   3.5 | 18.95
Other   |            | 0.0158     |            |       |  0.53

Nlocal:        83.3333 ave          92 max          68 min
Histogram: 1 0 1 4 5 7 9 11 7 3
Nghost:        1725.69 ave        1760 max        1690 min
Histogram: 2 4 1 7 8 12 3 4 2 5
Neighs:        10315.1 ave       11690 max        8048 min
Histogram: 1 0 2 4 5 6 12 9 6 3

Total # of neighbors = 495123
Ave neighs/atom = 123.78075
Neighbor list builds = 910
Dangerous builds = 221

# Equilibrate just above the melting temperature to avoid step fn in T

fix 1 all npt temp 1.25 1.25 0.1 iso 5.68 5.68 0.5 mtk yes tchain 5 pchain 5
run 2000
Per MPI rank memory allocation (min/avg/max) = 3.644 | 3.646 | 3.650 Mbytes
Step Temp E_pair E_mol TotEng Press Volume 
   10000    2.3850333   -3.6757615            0 -0.099105979    5.6457108    3694.2914 
   11000    1.2637536   -5.4861378            0   -3.5909813    5.7652779    2793.3603 
   12000    1.2453184    -5.468012            0   -3.6005014    5.8536621    2792.1154 
Loop time of 0.775918 on 48 procs for 2000 steps with 4000 atoms

Performance: 445407.881 tau/day, 2577.592 timesteps/s
99.3% CPU use with 48 MPI tasks x no OpenMP threads

MPI task timing breakdown:
Section |  min time  |  avg time  |  max time  |%varavg| %total
---------------------------------------------------------------
Pair    | 0.28929    | 0.32114    | 0.36501    |   2.4 | 41.39
Neigh   | 0.039956   | 0.042818   | 0.047424   |   0.6 |  5.52
Comm    | 0.20261    | 0.25739    | 0.34603    |   4.4 | 33.17
Output  | 5.615e-05  | 6.2185e-05 | 7.7337e-05 |   0.0 |  0.01
Modify  | 0.082457   | 0.14951    | 0.15806    |   4.2 | 19.27
Other   |            | 0.005003   |            |       |  0.64

Nlocal:        83.3333 ave          89 max          76 min
Histogram: 1 1 1 7 8 9 11 5 2 3
Nghost:        2087.06 ave        2111 max        2054 min
Histogram: 1 1 3 5 8 7 8 5 8 2
Neighs:        13666.4 ave       14625 max       12179 min
Histogram: 1 3 0 6 3 8 9 8 5 5

Total # of neighbors = 655989
Ave neighs/atom = 163.99725
Neighbor list builds = 141
Dangerous builds = 13

#############################
# L I N E A R  Q U E N C H  #
#############################

# Define solid atoms. This closely follows ten Wolde  Ruiz-Montero and Frenkel  Faraday Discuss  1996  104  93-110
# Compute components of the per-atom q6 vector
compute q6 all orientorder/atom degrees 1 6 components 6 nnn NULL cutoff 1.3 # compute the Q6 parameter.
                                                                             # Use all neighbours within 1.3 unit cell.

# get number of connections
compute coord_number all coord/atom orientorder q6 0.5

# An atom is solid if it has 8 or more connections (of a possible 14)
variable is_solid atom c_coord_number>=8
group solid dynamic all var is_solid    # Must be dynamic to update
dynamic group solid defined

# do clustering
compute cluster solid cluster/atom 1.3 # Create a cluster where all atoms within are solid and max 1.3 units from another member

# define chunks one chunk per cluster
compute clus_chunks solid chunk/atom c_cluster nchunk every compress yes  # Says which atoms are in which chunk

# count the size of each chunk
compute size_chunks solid property/chunk clus_chunks count


# Find the maximum entry in the vector of chunk sizes
variable max_n equal max(c_size_chunks)


# Thermo style which includes this variable
# thermo_style custom step temp pe vol v_max_n

thermo ${N}  # Print the thermo information every 100 steps
thermo 1000  

# Reset the npt fix at a lower temperature (below freezing)
fix 1  all npt temp  ${temp} ${temp}  0.1  iso  5.68  5.68  0.5  mtk yes tchain  5  pchain  5
fix 1  all npt temp  0.45 ${temp}  0.1  iso  5.68  5.68  0.5  mtk yes tchain  5  pchain  5
fix 1  all npt temp  0.45 0.45  0.1  iso  5.68  5.68  0.5  mtk yes tchain  5  pchain  5

dump dmp2 all dcd ${N} traj.dcd
dump dmp2 all dcd 1000 traj.dcd


compute msd all msd com yes
variable twopoint equal c_msd[4]/6/(step*dt+1.0e-6)
fix 9 all vector 10 c_msd[4]
variable fit equal slope(f_9)/6/(10*dt)
thermo_style custom step temp pe c_msd[4] v_twopoint v_fit v_max_n

fix 1 all npt temp 1.25 ${temp} 0.1 iso 5.68 5.68 0.5 mtk yes tchain 5 pchain 5
fix 1 all npt temp 1.25 0.45 0.1 iso 5.68 5.68 0.5 mtk yes tchain 5 pchain 5
run 5000000 # 5000000  # Run for this many steps
Neighbor list info ...
  update every 1 steps, delay 10 steps, check yes
  max neighbors/atom: 2000, page size: 100000
  master list distance cutoff = 3.8
  ghost atom cutoff = 3.8
  binsize = 1.9, bins = 8 8 8
  4 neighbor lists, perpetual/occasional/extra = 1 3 0
  (1) pair lj/cut, perpetual
      attributes: half, newton on
      pair build: half/bin/atomonly/newton
      stencil: half/bin/3d
      bin: standard
  (2) compute orientorder/atom, occasional
      attributes: full, newton on
      pair build: full/bin/atomonly
      stencil: full/bin/3d
      bin: standard
  (3) compute coord/atom, occasional
      attributes: full, newton on
      pair build: full/bin/atomonly
      stencil: full/bin/3d
      bin: standard
  (4) compute cluster/atom, occasional
      attributes: full, newton on
      pair build: full/bin/atomonly
      stencil: full/bin/3d
      bin: standard
Per MPI rank memory allocation (min/avg/max) = 9.842 | 9.848 | 9.853 Mbytes
Step Temp PotEng c_msd[4] v_twopoint v_fit v_max_n 
   12000    1.2453184    -5.468012 4.1671577e-30 2.8938594e-32 8.3333333e+20            1 
   13000    1.2419221   -5.5040196   0.65005006 0.0041669874   0.05359462            2 
   14000     1.273611   -5.5209106    1.2915923 0.0076880491  0.054079523            2 
   15000    1.2376006   -5.5125816    1.9309552  0.010727528  0.053989713            2 
   16000     1.249849   -5.5236329    2.5229872  0.013140558  0.052783202            5 
   17000    1.2121477   -5.4768494    3.2125984  0.015748031   0.05255742            1 
   18000    1.2598752   -5.5150797    3.8450584  0.017801196  0.052983201            2 
   19000    1.2584837   -5.4923233    4.4490842  0.019513527  0.053020231            2 
   20000    1.2464178    -5.565631    5.0035315  0.020848047  0.052695224            3 
   21000     1.254025   -5.5256637    5.6429872  0.022392806  0.052315174            1 
   22000    1.2401597   -5.5381908    6.2922136  0.023834142  0.052279327            2 
   23000    1.2496013   -5.4995197    6.8646925  0.024872074  0.052041775            3 
   24000    1.2852231   -5.4977677    7.5284625  0.026140494  0.051881539            4 
   25000    1.2444389   -5.5416554    8.1170834  0.027056944  0.051882805            2 
   26000    1.2504409   -5.5131319    8.8188136  0.028265428  0.052019188            2 
   27000    1.2402735   -5.4927733    9.4080156  0.029037085  0.052041977            4 
   28000    1.2497781    -5.531966    10.058882  0.029937149   0.05207787            2 
   29000     1.252021   -5.4774687    10.647633  0.030596646   0.05202105            2 
   30000    1.2419504     -5.56209    11.249274  0.031247983  0.052018899            4 
   31000    1.2373256    -5.484647    11.924807  0.032055933  0.052051704            3 
   32000    1.2520116   -5.5136505    12.562844   0.03271574  0.052065629            3 
   33000    1.2513914   -5.5444138    13.184977  0.033295395  0.052128327            3 
   34000    1.2297292   -5.4979613    13.715979  0.033617595  0.052080078            1 
   35000    1.2514657   -5.5167257      14.4217  0.034337381  0.052062513            4 
   36000    1.2523378   -5.5266862    14.984077  0.034685363  0.051998029            3 
   37000    1.2861513   -5.5511588    15.647779  0.035242745    0.0519745            3 
   38000    1.2307853   -5.5104611     16.27632  0.035693684  0.051976917            2 
   39000    1.2471042   -5.5139777    16.955199  0.036229056  0.051998537            4 
   40000    1.2745605   -5.4867607    17.601995  0.036670822  0.052025945            2 
   41000    1.2847958   -5.5300883    18.153134  0.036896614  0.052039299            2 
   42000    1.2486637   -5.5394955    18.722795  0.037148402  0.052043316            2 
   43000    1.2242922   -5.5373943    19.351379  0.037502672  0.052044446            5 
   44000    1.2505875    -5.475014    20.079902  0.038030117  0.052046012            3 
   45000    1.2879749   -5.4957951    20.718328  0.038367274  0.052079249            3 
   46000    1.2394579   -5.4898202    21.414552  0.038794477  0.052105937            1 
   47000    1.2480776   -5.4996788    22.028807  0.039058168  0.052131611            5 
   48000    1.2320433    -5.519451    22.663719  0.039346734  0.052151108            3 
   49000    1.2275316    -5.521224    23.231996  0.039510197  0.052161576            2 
   50000    1.2307552   -5.5149383    23.601087  0.039335145  0.052125552            3 
   51000    1.2555319   -5.5234953    24.306031  0.039715737  0.052080494            1 
   52000    1.2754493    -5.535688    24.974676  0.040023519  0.052040765            1 
   53000    1.2315169   -5.5412993     25.58017  0.040220392  0.052019874            2 
   54000    1.2355847   -5.4837853    26.342557  0.040652093  0.052013912            2 
   55000    1.2463974   -5.5620875    27.010448  0.040924921  0.052024433            2 
   56000    1.2521788   -5.4944342    27.777812   0.04133603   0.05206703            2 
   57000    1.2284943   -5.5067552    28.415815  0.041543588  0.052126634            3 
   58000    1.2554104   -5.5191166    28.812127  0.041396733  0.052151906            1 
   59000     1.271702   -5.5161104    29.448607  0.041594077  0.052154729            4 
   60000    1.2120046   -5.5198909    29.868785  0.041484423  0.052144158            4 
   61000    1.2228977   -5.5275932    30.489871  0.041652829  0.052107632            2 
   62000    1.2403022   -5.5367979    31.195729  0.041929743  0.052081567            3 
   63000    1.2740147   -5.5083144    31.958214   0.04227277  0.052082666            4 
   64000    1.2627135   -5.5104108    32.799067  0.042707118  0.052106073            1 
   65000    1.1987342   -5.5728085    33.529686  0.042986777  0.052161707            4 
   66000    1.2324701   -5.4891415    34.056364   0.04300046  0.052213436            3 
   67000    1.2335426   -5.4810353    34.765049   0.04324011  0.052256636            4 
   68000    1.2539863   -5.4987574    35.327174  0.043293106  0.052283455            4 
   69000    1.2658284   -5.5454886    35.755807  0.043183341  0.052287343            6 
   70000     1.243813   -5.5491696     36.09217  0.042966869  0.052279921            4 
   71000    1.2617448   -5.5459509    36.819163  0.043214979  0.052244972            2 
   72000    1.2470519   -5.5114075     37.67437  0.043604595   0.05223019            2 
   73000    1.2470257   -5.5453271    38.263023  0.043679249  0.052238698            2 
   74000    1.2550672   -5.5361059    38.957979  0.043871598  0.052251225            3 
   75000     1.274286   -5.5690387    39.514775  0.043905305  0.052269652            1 
   76000    1.2386181   -5.5106519    40.304421  0.044193444  0.052280365            3 
   77000    1.2526395   -5.5360104    40.983058  0.044353959   0.05230289            3 
   78000    1.2636122   -5.5260607     41.44717  0.044281164  0.052319822            2 
   79000    1.2261023   -5.5335359     41.88316  0.044180549  0.052332974            2 
   80000    1.2274307   -5.4930158     42.55147  0.044324447  0.052326386            3 
   81000    1.2503311   -5.5451153    43.262992  0.044509251   0.05231625            1 
   82000     1.230793   -5.5617694    43.512153  0.044219668  0.052292837            2 
   83000    1.2167285   -5.5344245    44.194225  0.044371712  0.052258446            1 
   84000    1.2533631   -5.5074581    44.752934  0.044397752    0.0522128            3 
   85000    1.2824667    -5.512338    45.551626  0.044658457  0.052179745            2 
   86000    1.2336416   -5.5662153    45.723538  0.044305753  0.052149492            4 
   87000    1.2392188    -5.492264    46.563864  0.044601402  0.052103299            3 
   88000    1.2451325   -5.5309564    47.086546  0.044589532   0.05206875            2 
   89000    1.2380471   -5.5392337    47.903833  0.044853776   0.05203728            2 
   90000    1.2232594   -5.5550871    48.668424  0.045063355  0.052029419            2 
   91000    1.2243616   -5.5172802    49.377277  0.045217286  0.052016486            2 
   92000    1.2653722   -5.5692433    49.993149  0.045283649  0.052013387            2 
   93000    1.2242545   -5.5259284    50.567568   0.04531144  0.052012303            2 
   94000     1.224341   -5.5342716    51.119674   0.04531886  0.052006603            2 
   95000    1.2729636   -5.5011207    51.787925  0.045428004  0.051992454            1 
   96000    1.2377158   -5.5236023    52.273087  0.045375944  0.051976641            1 
   97000    1.2183157   -5.5354501    52.797509  0.045358685   0.05195533            1 
   98000    1.2224145   -5.5397612    53.597306   0.04557594  0.051957337            4 
   99000    1.2260698   -5.5585459    54.266169  0.045678593  0.051962485            3 
  100000     1.234313   -5.5307677    54.927786  0.045773155  0.051963427            2 
  101000    1.2325389   -5.5186838    55.453129  0.045753407  0.051952431            2 
  102000    1.2339712   -5.4766553     55.92604  0.045691209  0.051943526            1 
  103000    1.2269026   -5.5393588    56.291116  0.045542974  0.051917574            1 
  104000    1.2390559   -5.5121932    56.740938  0.045465495  0.051883094            5 
  105000    1.2265183   -5.5569695    57.179222  0.045380335  0.051842343            3 
  106000    1.2297917   -5.5686065    58.132402  0.045701574  0.051811551            2 
  107000    1.2316396   -5.5018421    58.489758  0.045552771  0.051773852            7 
  108000    1.2484153    -5.525934    59.078587  0.045585329  0.051729734            2 
  109000    1.2353298   -5.5058568    59.953749    0.0458362  0.051694661            2 
  110000    1.2413526    -5.563119    60.288426   0.04567305  0.051667262            3 
  111000    1.2262939    -5.540277     61.28923  0.046012935  0.051647981            5 
  112000    1.2377503   -5.5398073    62.067782  0.046181385   0.05163339            3 
  113000    1.2437681   -5.5582996    62.745544  0.046272525  0.051628946            3 
  114000    1.2307753    -5.543522    63.531106  0.046440866  0.051626043            2 
  115000    1.2379602   -5.5224424    63.703219  0.046161753  0.051623413            3 
  116000    1.2351925   -5.5453396    64.419042  0.046278047  0.051611966            2 
  117000    1.2276038   -5.5272291    65.460603  0.046624361  0.051604684            1 
  118000    1.2615453   -5.5556821    65.870945  0.046519029  0.051601282            2 
  119000    1.2314759   -5.5101566    66.830683  0.046800198  0.051606261            1 
  120000    1.2168225   -5.5036965    67.336548  0.046761492  0.051612251            2 
  121000    1.2414977   -5.5695015    67.972805  0.046813227  0.051617851            1 
  122000    1.2299296   -5.5833674    68.305398  0.046656692   0.05162204            2 
  123000     1.229784   -5.5772104     69.06651  0.046793028  0.051627758            1 
  124000    1.2143385   -5.5133167    70.109728  0.047116753  0.051637724            2 
  125000    1.2079401   -5.5622044    70.329739  0.046886492  0.051650069            2 
  126000    1.2278713   -5.5396787    71.403211  0.047224346  0.051660907            6 
  127000    1.2615747    -5.562119     71.84027  0.047139285  0.051672851            4 
  128000    1.2204139   -5.5238717     72.64911  0.047297597  0.051683905            3 
  129000    1.2335821    -5.588383    72.678677   0.04695005  0.051689629            2 
  130000    1.2441624   -5.5388962    73.351888  0.047020441  0.051691291            1 
  131000    1.1950012   -5.5629061     73.79449   0.04694306  0.051694445            1 
  132000    1.2426905   -5.5372468    75.017107  0.047359285  0.051698192            1 
  133000    1.2544978   -5.5198798    75.796711  0.047491673  0.051712538            2 
  134000    1.2389157   -5.5348618    76.382846   0.04750177  0.051723338            3 
  135000    1.1745777   -5.5836934    76.961932  0.047507365  0.051737144            1 
  136000    1.2408096   -5.5640839    77.440545  0.047451314  0.051745727            3 
  137000      1.22904   -5.5452083     78.12902  0.047523735  0.051756518            1 
  138000    1.1962826   -5.5555792    78.791187  0.047579219  0.051767058            2 
  139000    1.2290863   -5.5549663    78.783117  0.047232084  0.051770914            5 
  140000    1.2303681   -5.4742427    79.900044   0.04755955  0.051766158            5 
  141000     1.226243   -5.6024493    79.681631  0.047093163  0.051760663            3 
  142000    1.2261759   -5.5873101    80.526521  0.047257348  0.051748984            3 
  143000     1.246768    -5.552216    81.109436  0.047266571  0.051735144            2 
  144000    1.2354341   -5.5705931    81.859905   0.04737263  0.051723153            4 
  145000    1.2236249   -5.5601669    82.523583  0.047427346  0.051714732            1 
  146000    1.2605301   -5.5424979    83.206151  0.047492095  0.051707099            3 
  147000    1.2482101   -5.5320494    83.667237  0.047430406  0.051697562            3 
  148000    1.2449606   -5.6146648    83.387636  0.046952498  0.051684606            3 
  149000    1.2474962   -5.5704416    84.503102  0.047261242  0.051669495            1 
  150000    1.2345082    -5.546269     85.44311  0.047468394  0.051652688            1 
  151000    1.2327647   -5.4985218    86.082803  0.047507066  0.051640795            2 
  152000    1.2189565   -5.5414778    86.454125  0.047398095  0.051632492            1 
  153000    1.2266177    -5.554723    87.298901  0.047548421  0.051620986            3 
  154000    1.2644823   -5.5720047    88.053993  0.047648265  0.051614336            4 
  155000    1.2152712   -5.5893971    88.501326  0.047581358  0.051612273            2 
  156000    1.2286487   -5.5892952    88.920871  0.047500465  0.051602537            1 
  157000    1.2143006   -5.6095957    89.338654  0.047419668  0.051592262            2 
  158000    1.2238437   -5.5483079    90.573441  0.047770802  0.051584662            2 
  159000    1.2139242   -5.5946932    90.451378  0.047406382  0.051576459            3 
  160000    1.2057356   -5.5441582    91.652929  0.047735901  0.051566576            2 
  161000    1.2485004   -5.6079755    91.922957   0.04757917  0.051561199            3 
  162000    1.1931746   -5.5659584    92.789864  0.047731412  0.051555122            3 
  163000    1.2185153   -5.5616392    93.716817  0.047912483  0.051552568            3 
  164000    1.2121746   -5.5374276    94.507289  0.048021996  0.051559321            2 
  165000    1.2465811   -5.5667624    95.010229  0.047984964  0.051565364            1 
  166000    1.2153839    -5.569957    95.691291  0.048037797  0.051571027            2 
  167000    1.2031513   -5.5252904    96.377166  0.048092398  0.051576467            3 
  168000    1.2206189   -5.5550447     96.60401  0.047918656  0.051578076            2 
  169000    1.2268624   -5.5592852    97.330103  0.047993147  0.051576632            6 
  170000    1.1996042   -5.5607406    98.868701   0.04846505  0.051583734            2 
  171000    1.2333951   -5.5763438    99.205398   0.04834571  0.051593987            3 
  172000    1.2432502   -5.5599691    99.553179  0.048233129  0.051600774            1 
  173000    1.2142502   -5.5797404    100.37379  0.048349611  0.051607098            1 
  174000    1.2298528   -5.5961762    100.76024  0.048256819  0.051612787            2 
  175000    1.2221379   -5.6320819    101.07759  0.048132187  0.051618907            5 
  176000    1.2234948   -5.5217662    102.51573  0.048539646  0.051624569            2 
  177000    1.2125333   -5.5599535    102.78357  0.048391511  0.051629641            2 
  178000    1.2084426    -5.548313    103.41087  0.048413329  0.051637917            2 
  179000    1.2026819   -5.5561731    103.87093  0.048357045   0.05164183            2 
  180000    1.2240796   -5.5561787     104.6875  0.048466435  0.051644549            3 
  181000    1.2227876   -5.5654316    105.08533  0.048381827  0.051644568            3 
  182000    1.2278544   -5.5547248    105.53177  0.048320409   0.05164523            3 
  183000    1.2681395    -5.548405    106.27323  0.048394001  0.051646567            9 
  184000    1.2267549   -5.6001241    106.64313  0.048298521  0.051648695            6 
  185000    1.2129794   -5.5811003    107.56732  0.048453747  0.051648411            3 
  186000    1.2259735   -5.5695517    108.31262  0.048527162  0.051648656            6 
  187000    1.2125552   -5.5295025    108.84392  0.048504421  0.051649861            2 
  188000    1.2073084   -5.5528562    109.29523  0.048446466  0.051651113            2 
  189000    1.2270262   -5.5403978    109.86588  0.048441747  0.051649297            2 
  190000     1.215629   -5.5704216    110.08194  0.048281553  0.051645304            2 
  191000    1.2381496    -5.612674    110.29847  0.048123244  0.051639472            2 
  192000    1.2054075   -5.5690666    111.24934  0.048285305   0.05162916            3 
  193000    1.2304315   -5.5578702    111.83064  0.048286113  0.051623706            1 
  194000    1.2273696   -5.5934804    112.81955  0.048462005  0.051621953            2 
  195000     1.211305   -5.5691505    113.51802  0.048511972  0.051620358            2 
  196000    1.2308157   -5.5719525    114.09978  0.048511811  0.051621481            2 
  197000    1.2451154   -5.5518873    114.81834  0.048569517  0.051621778            2 
  198000    1.2266298   -5.5360275    115.44852  0.048589443  0.051619678            3 
  199000     1.241383   -5.5694482    116.07009  0.048605566  0.051621305            3 
  200000    1.1905843    -5.585514     116.7593  0.048649708  0.051621019            1 
  201000    1.1848949   -5.5552345    117.66658  0.048783822  0.051621357            4 
  202000    1.1974634    -5.535212     118.2302  0.048774836  0.051622049            3 
  203000    1.2226011    -5.571093    118.81438  0.048774376  0.051622868            3 
  204000    1.2280325   -5.5539295    119.17016  0.048680621  0.051627029            2 
  205000     1.212976   -5.5931151    119.84127  0.048715964  0.051629852            2 
  206000    1.2379204   -5.5521738    121.15175  0.049009609  0.051633822            3 
  207000    1.2158265   -5.5283489    121.45866  0.048896401  0.051639337            1 
  208000    1.2325025   -5.6071134    121.76853  0.048785467  0.051646287            2 
  209000    1.2177647   -5.5504713    122.80632  0.048965838  0.051654157            4 
  210000    1.2138127   -5.5874121    123.19235  0.048885852  0.051660517            2 
  211000    1.2232461   -5.5592934    124.05459  0.048994704    0.0516687            3 
  212000    1.2122291   -5.5858316    124.70009  0.049017332  0.051673535            2 
  213000    1.2255026   -5.6015429    125.18281  0.048976061  0.051678143            2 
  214000    1.2367318   -5.5770513    125.98484  0.049059518  0.051684222            2 
  215000    1.2131016   -5.5735539    126.56174  0.049054937  0.051690149            3 
  216000    1.2095237   -5.6160855     127.2782  0.049104245  0.051694289            2 
  217000    1.1936407   -5.5720355    128.05252  0.049175315  0.051698631            1 
  218000    1.2250847   -5.6083386    128.36533  0.049069315  0.051704772            2 
  219000    1.2073765   -5.5917279    129.00789  0.049089761  0.051711889            1 
  220000    1.1984455   -5.5980822    129.01191  0.048868149  0.051717319            1 
  221000    1.2107726   -5.5545029    130.41676  0.049176757  0.051723085            1 
  222000    1.1844525   -5.6157529    131.02782  0.049184619  0.051727351            4 
  223000    1.1963336   -5.6297875    131.06763  0.048978934  0.051730716            1 
  224000    1.2431894   -5.5786621    132.12139  0.049152303  0.051733827            3 
  225000    1.2329743   -5.6008646     132.7743  0.049175667  0.051737832            2 
  226000    1.2091967   -5.5478052    133.63091  0.049273935  0.051743921            2 
  227000    1.2240008   -5.5965753    134.01059  0.049196251  0.051752853            2 
  228000     1.224427   -5.5711145    135.54833  0.049542518  0.051760175            2 
  229000    1.2035721   -5.6038865    135.24525  0.049215885  0.051767268            2 
  230000    1.2059084   -5.6105964    136.07667  0.049303143  0.051773531            3 
  231000    1.2023107   -5.5939453    136.72284  0.049322815   0.05177799            2 
  232000    1.2211899    -5.600804    137.40445  0.049355046  0.051783038            3 
  233000    1.2227546   -5.5969549    137.58979   0.04920951   0.05178529            2 
  234000    1.1996295   -5.5643939    138.72501  0.049403493   0.05179045            2 
  235000    1.2224705   -5.5943096    138.63705  0.049162076  0.051794228            1 
  236000    1.2244635   -5.6060827    139.00738  0.049084528  0.051793908            3 
  237000    1.2280785   -5.5990954    140.11177  0.049265742  0.051793406            2 
  238000    1.2078111   -5.6057342    140.19265  0.049087064  0.051791857            2 
  239000    1.2324054   -5.6588403    140.00951   0.04881782  0.051786639            5 
  240000    1.2105179   -5.5870902    141.95188  0.049288846   0.05178475            3 
  241000    1.2016821   -5.6127083    142.76041  0.049363905  0.051784667            2 
  242000    1.2321512   -5.5763688    142.76459  0.049161358  0.051786144            1 
  243000     1.194881   -5.5570244    143.49549  0.049209702  0.051784805            1 
  244000    1.2229521   -5.5732278    144.13371  0.049225992  0.051785714            2 
  245000    1.2174491    -5.561641    144.62993  0.049193854  0.051782977            2 
  246000    1.2099215   -5.5661212    145.34275  0.049235348   0.05178108            3 
  247000      1.21796   -5.6316481    145.60283  0.049123761  0.051778985            5 
  248000    1.2057425   -5.6257012    146.37405  0.049184829  0.051778189            4 
  249000    1.2187916   -5.5882975    147.44791   0.04934669  0.051777904            2 
  250000     1.203741   -5.5943296    147.84909   0.04928303  0.051778251            3 
  251000    1.2161046   -5.6169102    148.12779  0.049179214  0.051779076            2 
  252000    1.1976088    -5.609519    149.28586  0.049367017  0.051776299            1 
  253000    1.2180092   -5.5537373    149.67223  0.049299153   0.05177583            2 
  254000    1.2044435   -5.5912287     150.6311  0.049419651  0.051775488            3 
  255000    1.2209809   -5.5537719    152.03795  0.049685603  0.051779614            3 
  256000    1.2155446   -5.6240202    152.03172  0.049489491  0.051781385            2 
  257000    1.2213635   -5.5499657    153.23686  0.049687697   0.05178498            2 
  258000    1.2440469   -5.5912894    153.18285  0.049477663  0.051788804            3 
  259000    1.2079105   -5.5649247     154.2162  0.049619112  0.051792551            2 
  260000    1.1919131   -5.6313554    154.71151  0.049587021  0.051798334            3 
  261000    1.2306239   -5.6289326    155.23102  0.049562907  0.051803069            2 
  262000    1.2257419   -5.5890388    156.63366  0.049819867  0.051812508            3 
  263000    1.2145291   -5.5712672    157.61123  0.049940186  0.051820612            2 
  264000    1.2088793   -5.6209257    157.48477  0.049711101  0.051826831            1 
  265000    1.2242877   -5.5901746    158.36371  0.049799908   0.05183404            5 
  266000    1.2344691   -5.6043978    159.19327  0.049872578   0.05184098            2 
  267000    1.2094967   -5.5719585    159.60047   0.04981288  0.051845558            6 
  268000    1.1961952   -5.6155734    159.16725  0.049492305  0.051848461            3 
  269000    1.2139548   -5.5788105    159.77782  0.049497465  0.051850068            1 
  270000    1.2274504   -5.6260481    160.75384  0.049615383    0.0518492            2 
  271000    1.2228825   -5.6030518    161.12139  0.049545322   0.05184982            2 
  272000    1.2086872     -5.58688    161.84667  0.049585377    0.0518516            2 
  273000    1.2247413   -5.5464921    163.64074  0.049951387  0.051853475            1 
  274000    1.2125501   -5.6016224    162.30955  0.049364217  0.051851274            4 
  275000    1.2203645   -5.5954059    162.36777  0.049202355  0.051847132            3 
  276000    1.1840683   -5.5579192    163.85973  0.049474557   0.05184014            4 
  277000    1.1868701   -5.6359467    163.58869  0.049214407  0.051830943            3 
  278000    1.1906229   -5.5802424    164.57473  0.049332953  0.051821856            2 
  279000    1.2363408   -5.5936035     164.6748  0.049186021  0.051814551            4 
  280000    1.2207394    -5.577979    165.53659  0.049266843  0.051806626            1 
  281000     1.241258   -5.5973989    166.57321  0.049398934  0.051796276            2 
  282000    1.1908723     -5.56776    167.09994  0.049379415  0.051787411            3 
  283000    1.2106777   -5.6536502    166.57157  0.049049343  0.051777648            2 
  284000    1.2221369   -5.5928404    168.47046  0.049433821  0.051767914            1 
  285000    1.2227642   -5.6282291    167.79445  0.049062704  0.051758135            2 
  286000    1.1907818   -5.5798711     168.8638  0.049202739  0.051745326            4 
  287000    1.2045418   -5.6105063    168.53675  0.048936339  0.051731062            4 
  288000    1.2130365   -5.6216712    169.26377  0.048976784  0.051716711            3 
  289000    1.2189021   -5.6057555    168.75742  0.048661309  0.051699393            3 
  290000    1.2047362   -5.5750042    169.65677  0.048751946  0.051680546            3 
  291000    1.2032598   -5.5904143    170.69168  0.048880779  0.051665164            1 
  292000    1.2229704    -5.571219    171.06092  0.048818755  0.051647313            6 
  293000    1.1895855   -5.6142837    171.17437  0.048684405  0.051628076            2 
  294000    1.2114194   -5.5833101     171.4792  0.048605216  0.051609478            2 
  295000    1.1864318   -5.6194204    172.04919  0.048601467  0.051589296            1 
  296000    1.2010804   -5.6027859    172.33316  0.048517218  0.051567576            2 
  297000     1.203727   -5.5854606    173.49664  0.048680314  0.051545667            2 
  298000    1.2383736   -5.6339011    174.02505  0.048664723  0.051525943            1 
  299000    1.1967107    -5.597252    174.63977  0.048673292  0.051506732            4 
  300000    1.1716372   -5.6286266    174.66671  0.048518531  0.051486061            2 
  301000    1.2240144   -5.6083182    175.63932  0.048626612   0.05146557            3 
  302000    1.2183206   -5.6087426    175.77602  0.048503317  0.051444599            2 
  303000     1.215146   -5.6162019    176.61868  0.048574993  0.051422756            7 
  304000    1.2092121   -5.5420084    176.84854  0.048478219  0.051398914            1 
  305000    1.2254351   -5.6329904    176.97167  0.048352914  0.051376226            3 
  306000    1.1938379   -5.6118879    177.84405  0.048432474  0.051355567            4 
  307000    1.2075755   -5.5757593    179.00646  0.048590245  0.051335955            1 
  308000    1.2109541    -5.632698    179.04136  0.048441926  0.051314069            2 
  309000    1.1969629   -5.6150861     180.8295  0.048767394  0.051295413            3 
  310000    1.1971184   -5.5954362    180.54827   0.04853448  0.051277045            1 
  311000    1.2215999   -5.6223448    180.76039  0.048435261  0.051257976            2 
  312000    1.1823103   -5.5883614    181.58467   0.04850018  0.051238756            2 
  313000    1.1844868   -5.6101409    182.40574  0.048563828  0.051220466            4 
  314000    1.1765081   -5.6751283    182.33546  0.048390514   0.05120005            2 
  315000    1.2038085   -5.6009529    184.07751  0.048697753  0.051180171            2 
  316000    1.1919622   -5.6089611    184.20111  0.048576242  0.051162043            2 
  317000    1.1879943   -5.6189014    184.79588  0.048579358  0.051142579            2 
  318000    1.1883008   -5.5641711    185.34556  0.048570639  0.051125287            3 
  319000    1.1925284   -5.6751864    185.41119  0.048435526  0.051107187            2 
  320000     1.218643   -5.5744196    187.74779  0.048892653  0.051091764            2 
  321000    1.1870734   -5.5673903    187.60201  0.048702495  0.051076683            4 
  322000    1.1871503   -5.6102374    186.75002  0.048330749  0.051060246            2 
  323000    1.1860781   -5.6272809    187.99527  0.048502393   0.05104289            3 
  324000    1.2174824   -5.6153184    187.97887  0.048348475  0.051025665            2 
  325000    1.2081628   -5.6109065    189.16892  0.048504851  0.051006421            4 
  326000    1.2064892   -5.6056596    189.15127  0.048351552  0.050986177            3 
  327000    1.1956891   -5.6117437    190.55675  0.048561862  0.050968018            3 
  328000    1.1917945   -5.6092991    190.37656  0.048368028  0.050949443            2 
  329000    1.1895482   -5.5829828    191.56119  0.048521072   0.05093136            1 
  330000    1.1986136   -5.6027471    192.03401  0.048493437  0.050915074            2 
  331000    1.1930609   -5.6037963    191.84334  0.048298927  0.050897467            4 
  332000    1.2165368   -5.5959722    193.33087  0.048526824  0.050878318            2 
  333000    1.2120349    -5.583188    193.72878  0.048480676  0.050860014            2 
  334000    1.2121691   -5.6412044    192.99584  0.048152655  0.050840355            5 
  335000    1.1832793   -5.6641137    193.93945  0.048243645  0.050820565            2 
  336000    1.2138149   -5.6442077    194.77842  0.048308139  0.050802008            2 
  337000    1.1780544   -5.6394167    194.90097  0.048195095  0.050782477            3 
  338000    1.2009293   -5.6274296    196.52643  0.048453263  0.050764685            2 
  339000    1.2069018   -5.5929173    197.13453  0.048459816  0.050746917            2 
  340000    1.2000404   -5.5992556    197.09707  0.048308104  0.050731293            3 
  341000    1.2026905   -5.6007332    197.88793   0.04835971    0.0507131            2 
  342000    1.1870871   -5.6208425    197.97543  0.048239628  0.050697259            2 
  343000    1.2105457   -5.6221384    199.28619  0.048417441  0.050681416            3 
  344000    1.1733656   -5.6386063    200.38934  0.048543929  0.050667117            1 
  345000    1.2063995   -5.6532796    199.97955  0.048304238   0.05065078            4 
  346000    1.1824188   -5.6246954    201.36536    0.0484984  0.050635905            1 
  347000    1.1758531   -5.6399266    201.83103  0.048470467  0.050620214            6 
  348000    1.2101327   -5.6641618    202.36447  0.048458925  0.050607478            3 
  349000     1.224902   -5.5990783     202.6178  0.048380564  0.050593718            1 
  350000    1.2058384   -5.5952733    204.34082  0.048652576   0.05058152            2 
  351000    1.1915309   -5.6314316    204.36205  0.048519005  0.050570101            3 
  352000    1.1938446   -5.5899843    205.24266  0.048589645  0.050558495            2 
  353000    1.2055101   -5.6255651    205.61368  0.048539584  0.050547768            9 
  354000    1.1694163   -5.6401422     206.0946  0.048515677  0.050534405            3 
  355000    1.2141042   -5.6484636     206.2235  0.048409273   0.05051971            2 
  356000    1.1909134   -5.5966635    207.39114  0.048546614  0.050505762            1 
  357000    1.2041961   -5.6628933    206.79463  0.048271388  0.050492158            3 
  358000    1.1912589   -5.6223351    207.59133  0.048322004  0.050478215            4 
  359000    1.1834485   -5.6163169    208.66715   0.04843713  0.050464778            1 
  360000    1.2218695    -5.644758    208.68443   0.04830658  0.050451616            1 
  361000    1.2347579   -5.6189875    209.78241  0.048426225  0.050437784            4 
  362000    1.1927392    -5.655063    209.21381  0.048161559  0.050423315            4 
  363000    1.1824004   -5.6041562    210.28248  0.048274214  0.050409256            2 
  364000    1.1923798   -5.6092539    210.73439  0.048245052  0.050394747            2 
  365000    1.1959944   -5.6398652    210.73684  0.048113434  0.050379042            2 
  366000    1.1972098   -5.5954673    212.28816  0.048335191  0.050363499            3 
  367000    1.2003913   -5.6547153     211.9373   0.04812382  0.050346959            2 
  368000      1.19281   -5.6712555    211.75066  0.047950783  0.050329035            3 
  369000    1.2041762   -5.6404594    213.51338   0.04821892   0.05031367            5 
  370000    1.2100271    -5.592549    214.22341  0.048248515  0.050297386            2 
  371000    1.2114381   -5.6688748    213.71909  0.048005186   0.05027971            2 
  372000    1.2093142   -5.5704977    215.44014   0.04826168   0.05026251            2 
  373000    1.1966113   -5.6123482    215.82472  0.048218212  0.050248044            4 
  374000    1.2084766   -5.6246922    216.21054  0.048175254  0.050231641            2 
  375000    1.1860529   -5.6039982    217.15013  0.048255584  0.050215652            1 
  376000    1.1969023   -5.6064536    217.23362   0.04814575   0.05019912            1 
  377000    1.2061114   -5.6107043    216.52636  0.047861706  0.050181003            7 
  378000    1.2070046   -5.6482373    217.41368  0.047930705  0.050163265            2 
  379000    1.1835244   -5.6728606    218.24262  0.047986504  0.050145599            2 
  380000    1.2150395   -5.6326846    219.05551  0.048038489  0.050128594            2 
  381000    1.2057658   -5.6248903    219.51394  0.048012672  0.050111167            2 
  382000    1.2151304   -5.6694124    218.85487  0.047743209  0.050092544            2 
  383000    1.2064756   -5.6112078    219.81369  0.047827174  0.050074057            2 
  384000     1.194591   -5.6669928    219.73512  0.047685572  0.050055195            2 
  385000    1.1874932    -5.587281    221.81057  0.048010945  0.050035235            2 
  386000    1.1980166   -5.6237717    222.27907   0.04798771  0.050018045            1 
  387000    1.1885669   -5.6231912    222.49336  0.047909854  0.050000531            3 
  388000    1.1963796    -5.624031    223.69999  0.048045531   0.04998368            2 
  389000    1.1972822   -5.6483265    223.70199  0.047922448  0.049965516            2 
  390000    1.1807777   -5.6274015     224.1248  0.047889915  0.049947435            3 
  391000    1.1808252   -5.6340125    225.29575  0.048016996   0.04993033           12 
  392000    1.2182535   -5.6379069    226.24107  0.048095465  0.049915707            3 
  393000    1.1765042   -5.6718668    226.27163  0.047979566  0.049900579            4 
  394000    1.1995408   -5.6663236    227.01151  0.048014278   0.04988624            2 
  395000     1.197469   -5.6638514    227.42195  0.047979314  0.049871423            5 
  396000     1.196958   -5.6398296    229.17627  0.048227329  0.049858165            3 
  397000    1.2090182   -5.5540452    229.44261  0.048161757  0.049845781            1 
  398000    1.1952366   -5.6038811    230.49308  0.048260695  0.049834281            1 
  399000    1.1958291   -5.6462405    230.40761   0.04812189  0.049822055            7 
  400000    1.1889078   -5.6359321    231.89927  0.048312348  0.049810379            5 
  401000    1.2022563   -5.6389609    231.09176  0.048024057  0.049799227            3 
  402000    1.1742255   -5.6477563    232.86457  0.048272091  0.049788245            2 
  403000    1.1607801    -5.638703    232.12907  0.048000222  0.049776406            2 
  404000    1.1483718   -5.6356351    234.11322  0.048290681  0.049765369            7 
  405000    1.1895439   -5.6257149    234.23025  0.048195525  0.049754753            3 
  406000    1.1755366   -5.6454131     233.4145   0.04790938  0.049742768            3 
  407000    1.1702138   -5.6299055    235.88025   0.04829653  0.049729841            4 
  408000    1.1838576   -5.6477838    235.34931  0.048069711  0.049717663            2 
  409000    1.1701627    -5.682122    236.20977  0.048127499  0.049706528            2 
  410000    1.1548454   -5.5929779    237.47101  0.048266466  0.049696058            1 
  411000    1.1809645   -5.6978741    236.79154  0.048011261  0.049686238            2 
  412000    1.1638751   -5.6520162     237.6378  0.048065899  0.049676326            3 
  413000     1.198381   -5.6079117    239.17078  0.048258834  0.049666104            2 
  414000    1.1862389   -5.6387014    238.53427  0.048014144   0.04965606            2 
  415000    1.1886244    -5.631718    240.06548   0.04820592  0.049646086            3 
  416000    1.2045705   -5.6568477     239.5812   0.04799303  0.049634578            2 
  417000    1.1674536   -5.6067437    240.98644  0.048158761  0.049623535            4 
  418000    1.1738384    -5.614542    241.62709   0.04817127  0.049612644            2 
  419000    1.1857222   -5.6271771    242.22432  0.048175083  0.049602156            5 
  420000    1.2154162   -5.6485058    242.06894  0.048029552   0.04959321            2 
  421000    1.1721431   -5.6619491    243.06557  0.048112741   0.04958353            2 
  422000    1.1938482   -5.6536201    243.04694  0.047995051  0.049573235            3 
  423000    1.1808427   -5.6767844    243.23305  0.047918253  0.049561496            2 
  424000    1.1851264   -5.6304284    244.79178  0.048111592  0.049550217            1 
  425000    1.2041661   -5.6108405    245.34276  0.048106424  0.049540943            3 
  426000    1.1887361    -5.628631    246.01482  0.048124964  0.049531237            3 
  427000    1.1931503    -5.604461      247.412  0.048284934  0.049520621            3 
  428000    1.1960244   -5.6648872    247.39676  0.048169152  0.049510138            4 
  429000    1.1819392   -5.6605132    247.55016  0.048086666  0.049499328            3 
  430000    1.1378939   -5.6378518    247.80907  0.048025014  0.049488932            2 
  431000    1.1841402   -5.6630052    248.33709  0.048015678  0.049479059            2 
  432000    1.1768318   -5.6426292     249.6731  0.048162249  0.049468401            2 
  433000    1.1929132   -5.6586469    248.74698  0.047872783  0.049457832            3 
  434000    1.1770619   -5.6889386    248.60587  0.047735382  0.049446094            3 
  435000    1.1685131   -5.6307876    249.97168  0.047887295  0.049433773            3 
  436000    1.1893798   -5.6551516    249.91849  0.047767295  0.049421371            2 
  437000    1.1982526   -5.6424306    249.66134  0.047608952  0.049406837            3 
  438000    1.1947892   -5.6339548    250.14983  0.047593195  0.049392669            7 
  439000     1.189212   -5.6185341    250.83327  0.047614516   0.04937828            3 
  440000    1.1952769   -5.6376437    252.81214  0.047881086  0.049364761            4 
  441000    1.1945894   -5.6704067     252.3771  0.047690306  0.049350469            3 
  442000    1.1783249   -5.6327544    253.03768  0.047706954  0.049336445            5 
  443000     1.191868   -5.6651544    253.29474  0.047647618  0.049322932            1 
  444000    1.1473231   -5.5893774    255.73777  0.047998831  0.049310842            2 
  445000    1.1987083   -5.6264056    254.85941  0.047726481  0.049299457            4 
  446000    1.1741173   -5.6506797     255.9203  0.047817694  0.049289562            5 
  447000    1.2123682   -5.6532946    256.30827  0.047783047  0.049277883            2 
  448000    1.2182198   -5.6441454    257.81456  0.047956577  0.049267361            2 
  449000     1.178952   -5.6515293    257.48273  0.047788183   0.04925622            3 
  450000    1.1777679   -5.6285296    257.60373  0.047704394  0.049245615            7 
  451000     1.163624   -5.6456488    258.00109  0.047672042   0.04923377            2 
  452000    1.1798471    -5.661832    257.70037   0.04751113  0.049222381            2 
  453000    1.1876375   -5.6837687    259.13019  0.047669276  0.049208921            3 
  454000    1.1989116   -5.6667547    258.18266  0.047390355  0.049193449            2 
  455000    1.1886011   -5.6348706    259.39549  0.047508331   0.04917947            4 
  456000    1.1851703   -5.6480462    260.73148  0.047648297  0.049164486            3 
  457000    1.1855351   -5.6906621    260.43737  0.047490404  0.049149663            3 
  458000    1.1420921   -5.6526667     261.6426  0.047606003  0.049135805            3 
  459000    1.1642096   -5.6376017    261.52228  0.047480443  0.049120539            5 
  460000     1.185535   -5.5996229    262.95087  0.047636027  0.049106255            4 
  461000    1.1890304   -5.6629141    262.19657  0.047396344  0.049091508            2 
  462000    1.1613589   -5.6632171    263.46464  0.047522482  0.049077583            2 
  463000    1.1764829   -5.6977254    263.11612  0.047357113  0.049063034            4 
  464000    1.1852291   -5.6167511    265.09246  0.047609997  0.049048816            1 
  465000    1.1648043   -5.6655938    265.60964  0.047600293  0.049036134            3 
  466000    1.1906676   -5.6593184    265.03208  0.047394865  0.049023212            4 
  467000    1.1778754   -5.6759124    266.37996  0.047533896   0.04901094            3 
  468000    1.1692386   -5.6390184    266.32741  0.047422972  0.048998903            2 
  469000    1.2135266   -5.6526101    267.88132   0.04759796  0.048986458            1 
  470000     1.172994   -5.6429707    269.54601  0.047791845  0.048974847            2 
  471000    1.1611391   -5.6607927    268.79037  0.047556682  0.048962831            2 
  472000    1.1583728   -5.6874687    269.52421   0.04758549  0.048950477            2 
  473000    1.1733913     -5.68412    269.00784  0.047393911  0.048938374            1 
  474000    1.1774901   -5.6536502    270.57272  0.047569044  0.048925124            2 
  475000    1.1911482   -5.6954433    270.17787  0.047399627  0.048910964            2 
  476000    1.1913411   -5.6230445    271.06468  0.047455301  0.048898366            2 
  477000    1.1868998   -5.6857813    271.22212   0.04738332  0.048884765            2 
  478000     1.159318   -5.7061582    271.98451  0.047417105  0.048872162            3 
  479000    1.1865614   -5.6409994    273.16022  0.047522655  0.048859125            3 
  480000    1.1698926   -5.6868628    272.36429  0.047285467  0.048846902            3 
  481000    1.1659947   -5.6342564    274.17748  0.047501296  0.048833527            2 
  482000    1.1845703   -5.6479263    275.19444  0.047578569  0.048821337            1 
  483000     1.186248   -5.6423785    273.88482  0.047254109  0.048809259            2 
  484000    1.1688443   -5.6811368    275.87488  0.047499118  0.048797226            1 
  485000    1.1454915   -5.6573262    276.13842  0.047446464  0.048785675            2 
  486000    1.1731954   -5.6548026    276.60596  0.047429005  0.048774435            2 
  487000    1.1870193    -5.653762    276.93305  0.047387585   0.04876189            3 
  488000    1.1658794    -5.649079    277.65745  0.047414182  0.048749378            3 
  489000    1.1819478   -5.6631077    276.74541  0.047161794   0.04873533            8 
  490000    1.1736967   -5.6667987    277.87619  0.047257856  0.048721243            2 
  491000    1.1433942   -5.6904516    278.04487  0.047190236  0.048707555            3 
  492000    1.1688756   -5.6739877    279.50438  0.047341527   0.04869477            4 
  493000    1.1964822   -5.6509923    279.67297  0.047273997  0.048682122            2 
  494000    1.1768052   -5.6738747    279.39006  0.047130576  0.048669203            4 
  495000    1.1613159   -5.6029586     281.0091   0.04730793  0.048655038            2 
  496000    1.1749506    -5.664041    280.26006  0.047086704  0.048641034            2 
  497000    1.1449809   -5.6541049    280.82932  0.047087411  0.048625821            2 
  498000    1.1700541   -5.6899185    282.01907  0.047191947  0.048610668            3 
  499000    1.1735994   -5.6441417    284.06071  0.047438328  0.048597808            3 
  500000    1.1649785   -5.6333747    284.48538   0.04741423  0.048585505            2 
  501000    1.1941474   -5.6654533    283.30839  0.047123818   0.04857281            1 
  502000    1.1959119   -5.6498025    284.36235  0.047204905  0.048559797            5 
  503000     1.171529   -5.6654278     284.2382  0.047090491  0.048546647            3 
  504000     1.186423   -5.6743414    284.66903  0.047068291  0.048533524            6 
  505000    1.1580685   -5.6662081    286.07424   0.04720697  0.048521196            4 
  506000     1.180549   -5.6599729    286.28733  0.047148769  0.048508825            3 
  507000    1.1503347   -5.6759836    286.10777   0.04702626  0.048495404            4 
  508000    1.1544835    -5.726523    286.36387  0.046975701  0.048480477            1 
  509000    1.1755168   -5.6907515    287.59828  0.047085507  0.048467454            3 
  510000    1.1825058   -5.7144121    286.41981  0.046800623  0.048453213            3 
  511000    1.1958672   -5.6376445    289.01345  0.047132004  0.048439438            2 
  512000      1.16767   -5.6843923    289.01839  0.047040754  0.048425965            3 
  513000    1.1646905   -5.6825017    288.90129  0.046930035  0.048412444            4 
  514000    1.1439076   -5.6928702    289.55614  0.046944899  0.048398552            5 
  515000    1.1811113   -5.7209916    289.91782  0.046912269  0.048384686            3 
  516000    1.1712552   -5.6940176    290.94102  0.046986598  0.048371199            2 
  517000     1.179107   -5.6914682     290.7772  0.046869309   0.04835774            2 
  518000    1.1763778   -5.6701309    292.27121  0.047019178  0.048344022            2 
  519000    1.1760455   -5.7090086    291.93344  0.046874349  0.048329813            2 
  520000     1.160407   -5.6646886    293.86144   0.04709318  0.048315374            1 
  521000    1.1632875    -5.655618    293.43666  0.046934847  0.048302341            1 
  522000    1.1834657   -5.6720776     294.5648  0.047025031  0.048289273            2 
  523000    1.1618526   -5.6960827    294.57652  0.046936985  0.048275924            3 
  524000    1.1556641   -5.6591609    295.71137  0.047027889  0.048263234            3 
  525000    1.1568688   -5.6460644    296.02929  0.046988776  0.048250646            2 
  526000     1.162062   -5.6921898     295.3502  0.046791857  0.048238155            3 
  527000    1.1464015   -5.6461715    297.32348  0.047015097  0.048225779            6 
  528000    1.1856064   -5.7354944    296.84339  0.046850283   0.04821177            2 
  529000    1.1494801   -5.6975289    296.81872  0.046757833  0.048198029            2 
  530000    1.1944084    -5.705918    297.11111  0.046715583  0.048183302            4 
  531000    1.1666066   -5.7080719    297.84515  0.046742805  0.048169452            2 
  532000    1.1796019   -5.7009916    298.89759  0.046819797  0.048156187            1 
  533000     1.153886   -5.6894346    300.46365  0.046976806  0.048142307            3 
  534000    1.1588583   -5.6456207     301.5271  0.047054791  0.048128928            2 
  535000    1.1823065   -5.6847547    300.21056  0.046761769  0.048116719            3 
  536000    1.1612053   -5.7038324    301.30764  0.046845094  0.048103444            4 
  537000     1.171272   -5.6671906    301.82519  0.046838174  0.048091499            2 
  538000    1.1679982   -5.6758165    302.86727  0.046912527  0.048080092            2 
  539000    1.1555463    -5.702156    303.32417   0.04689613  0.048068205            2 
  540000    1.1471714   -5.6616965    304.44115  0.046981659  0.048057367            5 
  541000    1.1591929   -5.6870154    305.44622  0.047049633  0.048045811            2 
  542000    1.1532328    -5.673919     305.3119  0.046942173  0.048035451            5 
  543000    1.1699574   -5.6401221    305.66439   0.04690982  0.048024174            2 
  544000    1.1347309   -5.6700364    306.07261  0.046886123  0.048013102            4 
  545000    1.1685058   -5.7039359    305.57927  0.046724659   0.04800048            3 
  546000    1.1672354   -5.6349902    307.17535  0.046882684  0.047988586            3 
  547000    1.1912234   -5.6940618    306.74722  0.046731753   0.04797632            3 
  548000    1.1892042   -5.6662607    307.42191  0.046749074  0.047962279            6 
  549000    1.1684006   -5.7327247    306.24239   0.04648488  0.047948345            1 
  550000    1.1882779   -5.7007909    308.13129  0.046686559  0.047933884            3 
  551000     1.185507   -5.7015758    307.35154  0.046483899  0.047920159            2 
  552000    1.1562835   -5.6895982    308.33719  0.046548489  0.047906609            2 
  553000    1.1396531   -5.7128319    308.23587  0.046449046  0.047891706            3 
  554000    1.1522839   -5.6908528    308.66111  0.046429169  0.047876579            1 
  555000    1.1599253   -5.6686961    310.52258  0.046625012  0.047861569            1 
  556000     1.175741    -5.688264    310.05483  0.046471047  0.047847497            4 
  557000    1.1643761   -5.6777397    310.54261  0.046460593  0.047833618            1 
  558000    1.1611834   -5.7087099    310.85074  0.046423349  0.047819661            3 
  559000    1.1653095   -5.6895146    311.20893  0.046393699  0.047805442            3 
  560000    1.1603397   -5.6850633    312.48369  0.046500549  0.047791884            2 
  561000     1.174182   -5.7167216    313.11743  0.046511798   0.04777825            4 
  562000     1.165478   -5.7093304    314.11887  0.046577532  0.047764647            4 
  563000     1.167473   -5.7142206    313.65519  0.046426167  0.047751505            4 
  564000    1.1476618   -5.7140027    314.46774   0.04646391  0.047737558            2 
  565000    1.1707999   -5.7209762    313.76392  0.046277864  0.047722826            3 
  566000     1.161149   -5.7231764    313.86163  0.046210487  0.047707933            4 
  567000    1.1664108   -5.7078044    315.24234  0.046331914  0.047693105            2 
  568000    1.1354954   -5.7125644    316.63714  0.046454979  0.047678539            3 
  569000    1.1771454   -5.7190892    316.03535  0.046285201  0.047664315            2 
  570000    1.1516808   -5.6797471    315.71729  0.046157498  0.047648998            3 
  571000    1.1633601   -5.7107596    316.64924  0.046212673  0.047633738            2 
  572000    1.1653266   -5.6669362     318.8677  0.046455084  0.047619918            3 
  573000    1.1727925   -5.6945503    318.37791  0.046302779  0.047605384            2 
  574000    1.1650879   -5.7140191    317.92852   0.04615687  0.047590639            3 
  575000    1.1671117   -5.6960101    319.24315  0.046267124  0.047576342            2 
  576000    1.1626049   -5.6925721    319.32672  0.046198889  0.047562383            2 
  577000      1.15824   -5.6923877    320.88846  0.046344376  0.047547227            2 
  578000    1.1621025   -5.6979915    320.86846  0.046261312  0.047532521            2 
  579000    1.1554757   -5.6808933    320.81891  0.046174282  0.047517706            2 
  580000    1.1601811   -5.7086601    320.86103  0.046100723  0.047502934            3 
  581000     1.182163   -5.7111932    321.09437  0.046054844  0.047487507            2 
  582000    1.1703279   -5.6402592    322.72673   0.04620944  0.047472922            3 
  583000    1.1372681   -5.6803857    322.48876  0.046096164  0.047458106            3 
  584000    1.1681311   -5.6973178    322.00479  0.045948172   0.04744326            5 
  585000    1.1583697   -5.7039766    323.59992  0.046096855  0.047428139            2 
  586000    1.1700779   -5.6666279    325.14761  0.046238283   0.04741266            3 
  587000    1.1572474    -5.683083    324.80819  0.046111327  0.047396851            2 
  588000    1.1671122   -5.6770563    325.44051  0.046122522  0.047381946            2 
  589000    1.1665313   -5.6854636     326.7092  0.046223712    0.0473678            4 
  590000    1.1658499   -5.7127878    324.60332  0.045847927  0.047352585            2 
  591000    1.1207757    -5.661392    326.72919  0.046070106  0.047338239            4 
  592000    1.1553346   -5.7075894    327.25961  0.046066949  0.047323801            1 
  593000    1.1583887   -5.7360569     326.8312  0.045929061  0.047308563            6 
  594000    1.1551304   -5.7178857    327.29478  0.045916777  0.047293244            2 
  595000     1.175815   -5.7113978     328.4244  0.045997816  0.047278364            2 
  596000    1.1748838   -5.6813817     328.5432  0.045937248  0.047264369            3 
  597000    1.1428546   -5.7483465    328.56683    0.0458636  0.047249948            3 
  598000    1.1759102   -5.6786979    330.24736  0.046021093  0.047234707            4 
  599000    1.1597835   -5.7231609    330.40776  0.045966577  0.047220802            2 
  600000    1.1962414   -5.6910148     330.2682  0.045870584  0.047206549            2 
  601000    1.1646376   -5.7274258     331.3293   0.04594139  0.047192233            3 
  602000    1.1717909   -5.6759242    332.37749  0.046010173  0.047177277            3 
  603000    1.1257018    -5.702674    332.35922  0.045931346  0.047162797            4 
  604000    1.1281005   -5.7297183    332.33318  0.045851708  0.047148585            2 
  605000    1.1471048    -5.713339    333.69908   0.04596406  0.047134253            5 
  606000    1.1592627   -5.6903614    334.25236  0.045964296  0.047120083            3 
  607000    1.1609244   -5.7501862    333.77039  0.045822404  0.047105403            6 
  608000     1.144176   -5.6858834    334.88312  0.045899551   0.04709128            3 
  609000    1.1709104   -5.6897306    337.12841  0.046131418   0.04707811            1 
  610000     1.139623    -5.697951    335.83864  0.045879595  0.047064621            3 
  611000    1.1442723   -5.7341897    336.16268  0.045848701  0.047051538            4 
  612000    1.1528317   -5.6755918    337.52263  0.045958964  0.047038628            3 
  613000    1.1795485   -5.6858526    338.83318  0.046062151  0.047025191            2 
  614000    1.1591727   -5.7191411    336.90141  0.045724947  0.047011777            3 
  615000    1.1845081   -5.7663437    338.03438  0.045804117  0.046998307            6 
  616000    1.1735139   -5.6981885    340.08245  0.046006825  0.046984883            4 
  617000    1.1524512   -5.7202296    338.80552  0.045759794  0.046971704            3 
  618000    1.1542061    -5.671713    339.75142  0.045813298  0.046958694            2 
  619000    1.1462458   -5.7475965    341.28112  0.045945223  0.046944947            2 
  620000    1.1607749   -5.7003983    342.43182  0.046025782  0.046931686            4 
  621000    1.1391304   -5.7171476    341.62983  0.045844045  0.046918456            2 
  622000     1.161436   -5.7453316    341.64684   0.04577262  0.046905664            3 
  623000    1.1568288   -5.6945128    341.68758  0.045704598  0.046893251            1 
  624000    1.1647139   -5.7089247    344.55779  0.046014662  0.046881003            2 
  625000     1.165123   -5.7536589     343.1236  0.045749813   0.04686857            2 
  626000    1.1554562   -5.7150085    344.31169   0.04583489  0.046856212            3 
  627000    1.1375147   -5.6964752    346.58977  0.046064562  0.046844594            3 
  628000    1.1552554   -5.7217575    345.90556  0.045900419  0.046832794            5 
  629000    1.1404697    -5.704059    346.41625  0.045895105  0.046820884            1 
  630000    1.1452563   -5.7176313    346.86377  0.045881451  0.046808343            2 
  631000    1.1342131   -5.7291812    346.64602  0.045779982  0.046796579            7 
  632000    1.1580062   -5.7198735    346.50821  0.045689374  0.046784304            3 
  633000    1.1395396   -5.7178808    348.96358   0.04594044  0.046772819            3 
  634000    1.1531656   -5.7072501    349.01464   0.04587469  0.046761204            3 
  635000      1.15615   -5.7342926    349.91332  0.045920384  0.046749928            4 
  636000    1.1371421   -5.7327504    350.90618  0.045978273  0.046739043            3 
  637000    1.1372597   -5.7015763    351.00959  0.045919623  0.046728181            2 
  638000    1.1627849   -5.7129738    351.67196  0.045934164  0.046716681            4 
  639000    1.1502272   -5.7293132    350.44003  0.045701621  0.046705558            4 
  640000    1.1403049   -5.7203968    352.04937  0.045839761  0.046694282            2 
  641000    1.1535134   -5.7219144     351.5575  0.045704303  0.046683078            4 
  642000    1.1389005   -5.6915723    353.97166  0.045946477  0.046672221            5 
  643000     1.160008   -5.7221612    352.40754   0.04567231  0.046661247            7 
  644000    1.1638141   -5.7565232    353.49295  0.045741842  0.046649591            1 
  645000    1.1757913   -5.6896088     354.5583  0.045808566  0.046638611            9 
  646000    1.1421288   -5.7417248    354.05753  0.045673056  0.046627224            2 
  647000    1.1593337   -5.6805082    356.90878  0.045969704  0.046615531            3 
  648000    1.1654413   -5.6851591    356.08505   0.04579283  0.046604243            4 
  649000    1.1469204   -5.7165534    355.23324  0.045612897  0.046592532            4 
  650000    1.1447193   -5.7167813    355.95726  0.045635546  0.046580284            2 
  651000    1.1653158   -5.7674779     354.9755  0.045439772  0.046567437            3 
  652000    1.1416125   -5.7852474    355.90653  0.045489076   0.04655445            2 
  653000    1.1589564   -5.6933821    357.48395  0.045620719  0.046541418            2 
  654000    1.1555435   -5.7237619    357.84407  0.045596849  0.046529792            1 
  655000    1.1314192   -5.7033507    358.18755  0.045570936  0.046517642            2 
  656000    1.1318182   -5.7660558    359.09067  0.045616192  0.046504762            5 
  657000    1.1303395   -5.7183048    359.79274  0.045635811  0.046492413            3 
  658000    1.1438057    -5.748367    358.75484   0.04543501   0.04647964            3 
  659000    1.1355923   -5.7585462    359.71148  0.045487036  0.046467854            2 
  660000    1.1162295   -5.7353036    361.20174   0.04560628  0.046455336            3 
  661000    1.1228819   -5.7176354    361.75069  0.045606492   0.04644282            2 
  662000    1.1211939   -5.7524873    360.37269  0.045364135   0.04643042            3 
  663000     1.139741   -5.7273583    360.87163  0.045358425  0.046417919            5 
  664000    1.1433347   -5.7251848    361.66802  0.045390063  0.046404159            4 
  665000    1.1445942   -5.7536115    363.88195  0.045599242  0.046390534            3 
  666000    1.1278698   -5.7257947    364.06524  0.045553709  0.046377931            3 
  667000    1.1607869   -5.7044837    364.89976  0.045589675  0.046366715            4 
  668000    1.1502613   -5.7103963    363.63171  0.045363238  0.046355478            2 
  669000    1.1394884    -5.708648    366.14078   0.04560797  0.046343843            2 
  670000    1.1794484   -5.7013157    365.68989  0.045483817  0.046332345            5 
  671000    1.1512069   -5.6865596    366.08542  0.045465154  0.046321085            2 
  672000    1.1549396   -5.7262327    366.62451  0.045464349  0.046308913            1 
  673000    1.1700196   -5.6977329    367.89647  0.045554293  0.046296703            3 
  674000    1.1550003   -5.7444285    365.82386  0.045230448  0.046283954            2 
  675000    1.1420741   -5.7304205    366.25338  0.045216467  0.046270208            4 
  676000     1.155995   -5.7197631    367.18207  0.045264061  0.046257136            1 
  677000    1.1643487   -5.7464562    367.33852   0.04521646  0.046244266            2 
  678000    1.1256957   -5.7520116    369.08825  0.045364829  0.046232268            4 
  679000    1.1627197   -5.7340008    368.88119  0.045272606  0.046219679            2 
  680000    1.1568356    -5.753204     368.5341  0.045163492  0.046206948            1 
  681000    1.1395444   -5.7597165     370.9776  0.045396182   0.04619424            5 
  682000    1.1406122   -5.6987149    370.98107  0.045330042  0.046181918            2 
  683000     1.132363   -5.7082134    370.25935  0.045175616   0.04616943            3 
  684000    1.1319792   -5.7718017    369.54714    0.0450228  0.046156325            1 
  685000    1.1505954   -5.7432006    370.90228  0.045121931  0.046142545            4 
  686000    1.1546357   -5.7326701    372.14303  0.045206879  0.046129401            2 
  687000    1.1524284   -5.7510646    372.48326  0.045182346  0.046116532            3 
  688000    1.1631927   -5.7197254    372.23924  0.045087117  0.046103907            7 
  689000    1.1378968   -5.7382545    372.64357  0.045070582  0.046090489            2 
  690000    1.1313159   -5.7750648    373.97952  0.045166609  0.046077464            6 
  691000    1.1377152   -5.7608128     374.4172  0.045154027  0.046064446            2 
  692000    1.1491168   -5.7522015     373.7063  0.045003168  0.046051979            4 
  693000    1.1485324   -5.7486728    376.35122   0.04525628  0.046039138            2 
  694000    1.1134412   -5.7746694     375.2206  0.045055308  0.046027105            3 
  695000    1.1580811   -5.7434467    375.63788  0.045040513  0.046015052            3 
  696000    1.1020595   -5.7425664     375.6502  0.044977275  0.046002009            2 
  697000    1.1293712   -5.7155352    376.51555  0.045016207  0.045990114            3 
  698000     1.135163   -5.7202462    377.43411  0.045061379  0.045977965            2 
  699000     1.164795   -5.7305849    379.77029  0.045275428  0.045965616            3 
  700000    1.1448366   -5.7564549    379.89294   0.04522535  0.045953538            3 
  701000    1.1255622   -5.7279125    380.01235   0.04517503  0.045940899            4 
  702000    1.1530566   -5.7361353    380.77659  0.045201399  0.045929189            2 
  703000    1.1485092    -5.738115    380.77798  0.045137267  0.045917317            3 
  704000    1.1292019     -5.70637    382.41042  0.045266385  0.045905311            3 
  705000    1.1320147   -5.7378738    381.29583  0.045070429  0.045894171            3 
  706000    1.1196526   -5.7348847    381.81957  0.045068411  0.045883114            3 
  707000    1.1670893   -5.7689749    381.97382  0.045022845   0.04587084            5 
  708000    1.1505844   -5.7480502    382.90057  0.045068334  0.045859251            3 
  709000    1.1390577   -5.7467105    382.87605  0.045001887  0.045848182            2 
  710000    1.1188675   -5.6823588    384.12038  0.045084552  0.045837319            2 
  711000    1.1280189   -5.7491895    385.58345  0.045192622    0.0458263            3 
  712000    1.1138984   -5.7389468    385.72488  0.045145702  0.045815202            2 
  713000    1.1350081   -5.7496168    386.02361  0.045117299  0.045803675            2 
  714000    1.1430727   -5.7630476    385.52764  0.044996223  0.045791715            2 
  715000    1.1419759   -5.7879938    384.22433   0.04478139  0.045780111            3 
  716000    1.1423983   -5.7694651    385.69071  0.044889515  0.045767856            2 
  717000    1.1583366   -5.7067712    387.50849  0.045038179   0.04575579            4 
  718000    1.1372287   -5.7101855    386.81775  0.044895282  0.045743454            5 
  719000    1.1437456   -5.7367771    386.04151  0.044742873  0.045730797            2 
  720000    1.1335388   -5.7426266    387.71183  0.044874054  0.045718295            3 
  721000     1.139831   -5.7342798    387.20888  0.044753685  0.045704991            2 
  722000    1.1449008   -5.7460107    387.35893  0.044709018  0.045691788            2 
  723000    1.1367242   -5.7313292    389.20866   0.04486038  0.045678959            2 
  724000    1.1518602    -5.750738    388.90099  0.044763005  0.045666346            3 
  725000    1.1355516   -5.7707962     390.4384  0.044877977  0.045653733            3 
  726000    1.1526293   -5.7480988    389.63774  0.044724259  0.045640914            1 
  727000    1.1442557    -5.709923    391.23671  0.044846023  0.045628775            5 
  728000    1.1335393    -5.743665    390.11103  0.044655567  0.045616038            3 
  729000    1.1239341   -5.7116736    391.51755  0.044755092  0.045603602            2 
  730000    1.1459819   -5.7404179    390.97017  0.044631298   0.04559081            3 
  731000    1.1019032   -5.7151456    393.29562  0.044835342  0.045578282            5 
  732000    1.1511505   -5.7424954    392.54558  0.044688704  0.045565661            2 
  733000    1.1421901   -5.7116231    393.78661  0.044768828  0.045552643            6 
  734000    1.1352439   -5.7412511    392.51557   0.04456353  0.045539962            2 
  735000    1.1303003   -5.7308248    392.59822   0.04451227  0.045526837            5 
  736000    1.1676541   -5.7195054    395.67261  0.044799888  0.045514548            2 
  737000    1.1108649   -5.7215807    395.70736  0.044743031  0.045502247            2 
  738000    1.1363704   -5.7610361    395.19849  0.044624942  0.045489512            3 
  739000    1.1402482   -5.7732604    395.71465  0.044622761  0.045477399            1 
  740000    1.1194369   -5.7371411     398.3211   0.04485598  0.045465467            2 
  741000     1.120525   -5.7975865    396.87201  0.044632479  0.045453417            3 
  742000    1.1241266   -5.7670925    397.93433  0.044691636  0.045441227            2 
  743000     1.126266   -5.7545627    396.66348   0.04448895  0.045428685            4 
  744000    1.1342613   -5.7762591    398.46179  0.044630577  0.045415733            4 
  745000    1.1379339   -5.7640105    400.25775  0.044771561  0.045403994            3 
  746000    1.1308389   -5.7884662     400.2174  0.044707037   0.04539237            2 
  747000    1.1366208   -5.7376298     402.3593  0.044886133  0.045381159            4 
  748000    1.1065717   -5.7239626    401.85904  0.044770392   0.04537056            3 
  749000    1.1536654   -5.7421663    401.85596  0.044710276   0.04535911            3 
  750000    1.1175989   -5.7807012    401.43829  0.044604254  0.045347294            2 
  751000    1.1357573   -5.7645724     402.2806  0.044638327  0.045335145            2 
  752000    1.1441774   -5.7794865    400.76479  0.044410991  0.045322586            2 
  753000    1.1256883   -5.7689307    402.63374  0.044558847  0.045310415            2 
  754000    1.1286124   -5.7742159    402.12954  0.044444026  0.045298265            2 
  755000    1.1548038   -5.7556432     402.2017  0.044393123  0.045286069            1 
  756000    1.1153198   -5.7400191    402.69252  0.044388505  0.045273512            3 
  757000    1.1284432   -5.7257306    404.77559  0.044559179  0.045261712            2 
  758000    1.1382282   -5.7554868    404.88032  0.044511909  0.045249938            2 
  759000    1.1409082   -5.7571023    404.19198  0.044377688  0.045237846            4 
  760000    1.1355039   -5.7649965    406.29647  0.044550052  0.045225845            5 
  761000    1.1362179   -5.7989856    405.84356  0.044441915  0.045213839            8 
  762000     1.132044   -5.7808482     405.3249   0.04432687  0.045201252            4 
  763000    1.1444191   -5.7600793    406.68652  0.044417488  0.045189225            6 
  764000    1.1263327   -5.7540816    407.62154  0.044461337  0.045177098            2 
  765000    1.1244714   -5.6985082    408.58524  0.044508197  0.045165238            6 
  766000    1.1180166   -5.7751583     407.5342  0.044335749  0.045152769            3 
  767000    1.1208278   -5.7438153    409.22459  0.044461603  0.045140032            4 
  768000    1.1444734   -5.7711109    409.37496  0.044420026  0.045126989            2 
  769000    1.1673396   -5.7687705     408.5809  0.044276214  0.045114186            2 
  770000     1.120858   -5.7203142    409.48332  0.044316377  0.045101766            3 
  771000    1.1155188   -5.8010165     408.8909  0.044194866    0.0450893            2 
  772000     1.120964   -5.7899087      408.953  0.044144322  0.045076446            5 
  773000    1.1647267   -5.8152655    410.46596  0.044250319  0.045063598            4 
  774000    1.1273832   -5.7678875    410.86517  0.044236129  0.045051127            3 
  775000    1.1352922   -5.7668705    411.10853  0.044205218  0.045038876            2 
  776000    1.1178169   -5.7479118    413.14474  0.044366918  0.045026529            2 
  777000    1.1348226   -5.7747528    411.30342  0.044112336  0.045014353            5 
  778000    1.1291482   -5.7593238     412.4143  0.044174625  0.045001195            3 
  779000    1.1466537   -5.7183858    414.81047  0.044374248  0.044988485            4 
  780000    1.1363582   -5.8073908    412.13077  0.044031065  0.044975657            3 
  781000    1.1494676    -5.727223    415.19229  0.044301355  0.044963123            3 
  782000    1.1401897   -5.7826386    414.29659  0.044149253  0.044951074            4 
  783000    1.1322876   -5.7374654    415.55135  0.044226411   0.04493858            6 
  784000    1.1271326   -5.8291224    412.83833  0.043881625  0.044926181            2 
  785000     1.143416   -5.7460325    416.57148  0.044222026  0.044913502            3 
  786000    1.1464818   -5.7720826    413.82498  0.043874574  0.044900708            3 
  787000     1.119465   -5.7604349     415.9994  0.044049068  0.044887987            3 
  788000    1.1265241   -5.7638996    418.22237  0.044228254  0.044875363            4 
  789000    1.1220675   -5.7533211    416.51093  0.043991437  0.044862299            4 
  790000    1.1266644   -5.7376795    416.59427  0.043944543  0.044848705            3 
  791000     1.153156   -5.7812586    416.40261  0.043868796  0.044834699            2 
  792000    1.1403564    -5.794779    415.36704  0.043704444  0.044820656            5 
  793000    1.1239178   -5.7449655    417.51583   0.04387514  0.044807088            4 
  794000    1.1306213   -5.7763061    416.63751  0.043727698  0.044792974            2 
  795000    1.1532559    -5.774514     417.3232   0.04374457  0.044778901            4 
  796000    1.1320358   -5.7848611    418.14599  0.043775753  0.044764387            2 
  797000    1.1412157   -5.7804001    418.02175  0.043707837   0.04475003            3 
  798000    1.1406227   -5.7566562    420.26336  0.043887152  0.044735812            2 
  799000    1.1172263   -5.7999649    419.49887  0.043752489  0.044722518            2 
  800000    1.1026988   -5.7784843    420.78604  0.043831879  0.044708705            3 
  801000    1.1312809   -5.7729923    421.17952  0.043818094  0.044694786            7 
  802000    1.1668133   -5.7618091    420.89561  0.043733958  0.044681034            4 
  803000    1.1213057   -5.7896482    421.10612   0.04370134  0.044667455            4 
  804000    1.1398873   -5.7590917    422.62255  0.043804162  0.044653882            3 
  805000    1.1300246   -5.7623701     422.5311  0.043740279  0.044640125            3 
  806000    1.1204349   -5.7769376    421.98039  0.043629073  0.044626015            2 
  807000    1.1242648   -5.8078565    422.75078  0.043654562  0.044611134            3 
  808000    1.0996627   -5.7798544    421.51149  0.043472719  0.044597303            4 
  809000    1.1141716   -5.7708688    423.51551  0.043625413  0.044583464            2 
  810000    1.1319997   -5.8214819    422.54027  0.043471221  0.044569151            3 
  811000    1.1656319   -5.7803203    425.41146  0.043712645  0.044555298            2 
  812000    1.0908723   -5.7712475     424.6858   0.04358434  0.044541351            3 
  813000    1.1147615   -5.7943715    425.84873  0.043649931  0.044527082            2 
  814000    1.1099181   -5.7793353    426.19722  0.043631984  0.044513013            2 
  815000    1.1132692   -5.7870832    428.07102  0.043770043  0.044499359            3 
  816000    1.1297081   -5.7750258    426.80949  0.043587571  0.044485614            2 
  817000    1.1067986   -5.7636358      426.948  0.043548348  0.044472077            2 
  818000    1.1467253   -5.7806424    427.08206  0.043508767  0.044457976            3 
  819000    1.1448654   -5.7520688    427.47516  0.043495641  0.044443634            3 
  820000    1.1310971   -5.7639967    428.29498  0.043525913  0.044429007            1 
  821000    1.1136242   -5.7762234    427.77471  0.043420089  0.044414358            4 
  822000    1.1240335   -5.7839165    428.53065  0.043443902  0.044399506            2 
  823000    1.1455927   -5.7927007    427.17555  0.043253903  0.044385157            5 
  824000    1.1142769   -5.7751866     429.1309  0.043399161   0.04437041            3 
  825000    1.1225377   -5.7823488    429.94769   0.04342906   0.04435606            2 
  826000    1.1062176   -5.7936368     430.2918  0.043411198  0.044341579            2 
  827000     1.119519    -5.764304    430.59749   0.04338951  0.044326671            2 
  828000    1.0917557   -5.8308211    429.50099  0.043226751  0.044312342            2 
  829000    1.1227457    -5.775565    432.28037  0.043453998   0.04429823            7 
  830000    1.1318619   -5.7996843    431.92309  0.043365772  0.044284856            6 
  831000     1.120611   -5.7838758    432.79202  0.043400724  0.044271122            4 
  832000     1.103655   -5.7714947    434.79602  0.043549281  0.044258081            4 
  833000    1.1233761   -5.8013283    433.32667  0.043350007  0.044244361            2 
  834000    1.0899844   -5.7878256    434.27248  0.043392534  0.044230908            2 
  835000    1.1237172   -5.7562155    437.06902  0.043619662  0.044217743            3 
  836000    1.1114206   -5.8203188    435.33942  0.043395077  0.044204459            6 
  837000    1.1152333   -5.8029942    434.99897  0.043309335  0.044190697            3 
  838000    1.1335507   -5.8172629    435.43303  0.043300819   0.04417626            2 
  839000     1.119687   -5.8043592    435.57746  0.043263554  0.044162025            3 
  840000    1.1079535   -5.8008278    435.61773  0.043216044   0.04414812            3 
  841000       1.1277   -5.7629244    436.48213   0.04325031   0.04413463            7 
  842000    1.1113846   -5.8041944    438.16893  0.043365888  0.044120967            3 
  843000    1.1063882   -5.7834062    438.29041  0.043326454   0.04410762            3 
  844000    1.1185664   -5.7843247    438.25098  0.043271226     0.044094            4 
  845000    1.1014047   -5.7813275    438.70046  0.043264345  0.044079967            2 
  846000    1.1509897   -5.7827827    439.19229  0.043261652  0.044065979            4 
  847000    1.1220738    -5.823948      438.509  0.043143349  0.044051666            2 
  848000    1.1265353   -5.7824103    439.46717  0.043186632  0.044037733            3 
  849000    1.1073974   -5.7756742    440.37417  0.043224791  0.044024336            2 
  850000    1.1377509   -5.7803732    440.82789   0.04321842  0.044011018            3 
  851000    1.1214534   -5.7872742     439.9985  0.043086418  0.043997706            4 
  852000    1.1055622   -5.8224887    440.85869  0.043119981  0.043984439            4 
  853000    1.1084126   -5.7587576    442.94409  0.043273163  0.043971244            2 
  854000    1.1050304   -5.8106642    443.12821  0.043240457  0.043957637            3 
  855000    1.1175252   -5.8003741    443.00399  0.043177777   0.04394429            1 
  856000    1.1217155   -5.7841471    442.93978  0.043121085  0.043930389            2 
  857000     1.116513   -5.7301302    445.18138  0.043288738  0.043916677            3 
  858000    1.1043931   -5.7941585    443.15838  0.043041801  0.043903848            3 
  859000    1.1104052   -5.7888277    445.37979  0.043207197  0.043890793            2 
  860000    1.1445621   -5.7863191    445.81927  0.043199542  0.043877443            2 
  861000    1.1324144   -5.7967729    444.90514  0.043060892  0.043864054            3 
  862000    1.1323142   -5.7813086    445.68137  0.043085979  0.043850576            3 
  863000    1.1022384   -5.8780651    442.90197  0.042767668  0.043836916            4 
  864000    1.1051066   -5.8224663     446.8631  0.043100221  0.043823654            2 
  865000    1.1102743   -5.8169471    445.48726  0.042917848  0.043809945            1 
  866000    1.1211931    -5.826859    447.01121  0.043014935   0.04379664            2 
  867000    1.1386672   -5.7745887    449.48259  0.043202863  0.043783531            3 
  868000    1.1027721    -5.846722    445.60969  0.042781268  0.043770112            8 
  869000    1.1128998   -5.8014105     448.8563  0.043043373  0.043756693            2 
  870000    1.1398658   -5.8243409    448.23948  0.042934816  0.043743073            4 
  871000    1.0991354   -5.7978645     448.2278  0.042884405  0.043729621            4 
  872000    1.1142039   -5.8286197    448.39585  0.042851285  0.043715846            2 
  873000    1.1319849   -5.7930689    450.79188  0.043030917  0.043702368            3 
  874000    1.0940171   -5.7931875    451.32673  0.043032678  0.043689179            3 
  875000    1.0980278    -5.794759    450.35338  0.042890798   0.04367627            3 
  876000    1.1370003   -5.7738992    449.58837  0.042769061  0.043663296            3 
  877000    1.0995794   -5.7786864    451.64252  0.042915481  0.043650264            6 
  878000    1.1131988   -5.7940601    451.81979  0.042883427  0.043637086            3 
  879000    1.1096801   -5.8197263    450.61705  0.042720615  0.043623645            4 
  880000    1.1138304   -5.8036822    452.87218  0.042885623  0.043610366            3 
  881000    1.1048861    -5.761559    455.19482  0.043056642  0.043597242            2 
  882000     1.092454   -5.8290604    453.73784  0.042870166   0.04358386            4 
  883000    1.1124807   -5.7879528    453.27197  0.042777649  0.043570702            4 
  884000    1.0967005   -5.7939159    455.81407  0.042968898  0.043558008            2 
  885000    1.1440953   -5.7859772    456.21474  0.042958074  0.043545178            2 
  886000    1.1020894   -5.8127952    456.12558  0.042901202  0.043532859            3 
  887000    1.0748444   -5.7989027    456.07028   0.04284764  0.043520227            2 
  888000    1.1365871   -5.7494658    458.04422   0.04298463  0.043507722            2 
  889000     1.105957   -5.8558828     454.9993  0.042650853   0.04349495            5 
  890000    1.1136176   -5.8033877    456.15411  0.042711059  0.043481979            3 
  891000    1.0938154   -5.7926892    456.83839  0.042727122  0.043469155            2 
  892000    1.0930475   -5.8392449    457.18133   0.04271126  0.043456341            2 
  893000    1.1130287   -5.8086185    458.75302  0.042810099  0.043443085            2 
  894000    1.1121326   -5.7765424    459.20333  0.042804188  0.043430508            2 
  895000    1.1070529    -5.799224    459.51843  0.042785701  0.043417567            1 
  896000    1.1123003   -5.7870856     459.7263  0.042757282  0.043404857            3 
  897000    1.1346891   -5.8156545    460.81484  0.042810744  0.043392276            4 
  898000    1.0823682   -5.8119251    460.92605   0.04277339  0.043379526            3 
  899000    1.1052619   -5.7955072    461.04457  0.042736797  0.043366432            3 
  900000    1.1016135    -5.791389    459.80679  0.042574703  0.043353683            1 
  901000    1.0935407   -5.8456655    458.55582  0.042411748   0.04334047            2 
  902000    1.1140488   -5.8704507    459.59331  0.042460579  0.043327297            3 
  903000    1.0884269   -5.8154485    460.30319  0.042479069  0.043314056            3 
  904000     1.102668   -5.8469943    460.00606  0.042404688  0.043300497            3 
  905000    1.1039944   -5.8205622    465.25116  0.042840807  0.043287629            3 
  906000    1.1099843   -5.7916151    464.99962  0.042770384  0.043275453            3 
  907000    1.0861613    -5.797376    466.51679  0.042862623  0.043263424            8 
  908000    1.1391719   -5.8399349    464.20798  0.042603522  0.043251215            4 
  909000    1.1029093   -5.8068543    464.94722  0.042624425  0.043238972            4 
  910000    1.1033666   -5.8301208    463.93788  0.042485153  0.043226588            2 
  911000    1.1164179   -5.8324535    464.37955   0.04247892  0.043214124            2 
  912000    1.1097368   -5.8416335    466.65225  0.042640008  0.043201926            3 
  913000     1.070815   -5.8224835    466.47198  0.042576851  0.043189092            2 
  914000    1.1184475   -5.8387436    465.05975  0.042401509  0.043176018            1 
  915000     1.082367   -5.8352827    467.39295  0.042567664  0.043163619            1 
  916000    1.1076001   -5.8506775     467.5306  0.042533715  0.043150893            3 
  917000    1.0989504   -5.8410195    468.46191  0.042571965   0.04313838            3 
  918000    1.1044354   -5.8020787     468.0862  0.042491485  0.043126207            8 
  919000    1.1295387   -5.8057419    469.15291  0.042541976  0.043113983            3 
  920000    1.0936413   -5.8570703    469.80916  0.042555178  0.043101695            2 
  921000    1.1087287   -5.8030324    470.70224  0.042589779  0.043089092            4 
  922000    1.0968652   -5.7662489    472.47528  0.042703839  0.043077032            4 
  923000    1.0958357   -5.8236827    470.38016  0.042468415  0.043064705            4 
  924000    1.0904025   -5.7963002    471.89259  0.042558855  0.043052278            3 
  925000    1.0617603   -5.8280238    472.74561  0.042589695  0.043040027            3 
  926000    1.1087616   -5.8147025    472.10743   0.04248627  0.043027595            2 
  927000    1.1010365   -5.8178093    471.82324   0.04241489  0.043015646            4 
  928000     1.097217   -5.8136869    472.60849  0.042439699  0.043003108            8 
  929000    1.1116323   -5.8103587    473.56535  0.042479848  0.042990588            5 
  930000    1.0818213   -5.8405888    472.87089  0.042371943  0.042978352            3 
  931000    1.1101966   -5.8349984     472.7971  0.042319826  0.042966125            2 
  932000    1.0997489   -5.8497999    472.41076  0.042239875  0.042953605            5 
  933000    1.0887872   -5.8433489    474.49648  0.042380893  0.042941409            3 
  934000    1.0991928   -5.8749527     472.4119  0.042149528  0.042929101            3 
  935000    1.0900797   -5.8071334    476.38611  0.042458655  0.042916658            2 
  936000    1.1142355    -5.816561    474.85746  0.042277196  0.042904122            3 
  937000    1.1241011   -5.8445406    474.52263  0.042202297  0.042891383            2 
  938000    1.1041017    -5.820192    475.98129  0.042286895  0.042878979            2 
  939000    1.1119429    -5.797476    476.63626  0.042299988  0.042866502            4 
  940000    1.1272384   -5.8636192    474.69596  0.042082975  0.042853815            2 
  941000    1.1018493   -5.8240148    476.76584  0.042221559  0.042840731            3 
  942000    1.1020829   -5.8217903    478.14566  0.042298802   0.04282776            3 
  943000    1.1067626   -5.8298839    476.51782  0.042110093  0.042815102            2 
  944000    1.0990209   -5.8004872    479.98847  0.042371863  0.042802853            2 
  945000    1.0990357   -5.8242886     479.7089  0.042302372  0.042790503            2 
  946000    1.0907131   -5.8571231    479.06735  0.042201141  0.042778274            2 
  947000    1.0919273   -5.7900398    482.53999   0.04246216  0.042766234            4 
  948000    1.0886434   -5.8261768    480.53036  0.042240714  0.042754368            5 
  949000    1.1138157   -5.7990238    481.02725  0.042239836  0.042742272            3 
  950000    1.0931925   -5.7994794    483.96264  0.042452863  0.042730578            3 
  951000    1.0960269   -5.8390208    480.80632  0.042131644  0.042719088            5 
  952000    1.0998902   -5.7762771    484.64177  0.042423124  0.042707154            2 
  953000    1.0991512   -5.8264569    483.69264  0.042295614  0.042695282            3 
  954000    1.0910367   -5.8210455    483.59564  0.042242806  0.042683805            1 
  955000    1.1007947   -5.7934609    484.63328  0.042289117  0.042672178            6 
  956000    1.1262826   -5.7986848    484.22928  0.042209665  0.042660854            3 
  957000    1.1183952   -5.8141388    485.74084  0.042297182  0.042649286            2 
  958000    1.0902505   -5.8162772    485.04863  0.042192817  0.042638167            5 
  959000    1.0741129   -5.8437609    485.18918  0.042161034  0.042626601            5 
  960000    1.0769342   -5.8642918    485.08344  0.042107937  0.042614686            3 
  961000    1.0850373   -5.7962119    487.29817  0.042256172   0.04260324            4 
  962000    1.0970036   -5.8025252    487.36948  0.042218424  0.042592008            3 
  963000    1.1085344   -5.8240949    488.20228  0.042246649  0.042580314            2 
  964000    1.1068312   -5.8757451    485.06997  0.041932052  0.042568296            2 
  965000    1.1103268    -5.829664    487.76522  0.042121349  0.042556421            4 
  966000     1.097398   -5.8312666     488.4141  0.042133722  0.042544861            3 
  967000     1.092127    -5.803419    488.52199  0.042099448  0.042533666            2 
  968000    1.1030241   -5.8612307    487.86635  0.041999514  0.042522007            2 
  969000    1.1077905   -5.8326701    490.95364  0.042221675  0.042510432            3 
  970000    1.1153642   -5.8528409    489.08012  0.042017192  0.042498729            2 
  971000    1.1219117   -5.8483124     489.5358  0.042013028  0.042486857            6 
  972000    1.0686097   -5.8287493    491.07023  0.042101357  0.042475313            3 
  973000    1.0869736   -5.8282065    491.55163  0.042099317  0.042463626            2 
  974000    1.0789584   -5.8679578    489.73752  0.041900883  0.042451624            2 
  975000    1.0998568   -5.9013889    489.98072  0.041878694  0.042440003            3 
  976000     1.121131   -5.8779504    489.86034  0.041825507  0.042428187            4 
  977000    1.1110631   -5.8329608    492.90024  0.042041986  0.042416094            3 
  978000    1.1155714   -5.8772024    492.09942  0.041930761  0.042404166            3 
  979000     1.094176   -5.8741238    492.36769  0.041910767  0.042392335            3 
  980000    1.1050364   -5.8515577    490.06606  0.041672284  0.042380244            2 
  981000    1.1116338    -5.859381    493.30484   0.04190493  0.042368235            6 
  982000       1.1208   -5.8545578    493.47754  0.041876913  0.042356711            3 
  983000    1.0938982   -5.8502022    494.55925  0.041926013  0.042345249            4 
  984000    1.0843679   -5.8355713     496.5383  0.042051008  0.042333618            3 
  985000    1.0900812   -5.8444676    496.07644  0.041969242  0.042322101            2 
  986000    1.0956191   -5.8582889     495.7154  0.041896163  0.042310514            3 
  987000    1.0899861   -5.8343368    497.19932  0.041979003  0.042299406            5 
  988000     1.085042   -5.8111386    498.19235  0.042020272  0.042288728            3 
  989000    1.0676078   -5.8491318    496.00805  0.041793735  0.042277242            6 
  990000    1.1052496   -5.8426488    497.78482  0.041901079  0.042265799            3 
  991000    1.0999027   -5.8292634    498.45466  0.041915124  0.042254698            1 
  992000    1.0940649   -5.8553495    496.84952  0.041738031  0.042242949            5 
  993000    1.0776184   -5.7955209    499.35334  0.041906121   0.04223151            1 
  994000    1.0783422   -5.8507713    498.06133  0.041755645  0.042220443            2 
  995000    1.1003002   -5.8733103    499.10132   0.04180078  0.042209214            4 
  996000    1.0785771    -5.834212     500.7604  0.041897624  0.042198096            4 
  997000    1.0921307   -5.8293559    500.70157  0.041850683   0.04218693            2 
  998000    1.0975711   -5.8646917    501.22606  0.041852543  0.042175544            2 
  999000    1.0808734   -5.8756069    500.55093  0.041754332  0.042164066            3 
 1000000    1.1086059   -5.8302946    501.31733  0.041776444  0.042152928            2 
 1001000    1.0734454   -5.8423409    501.39248  0.041740966  0.042141475            4 
 1002000    1.1032623   -5.8629374    501.24483  0.041687028   0.04213064            3 
 1003000     1.098364   -5.8529816    500.72697   0.04160244  0.042119419            5 
 1004000    1.0838747   -5.8333307     502.8995  0.041741327  0.042108072            3 
 1005000     1.101956   -5.8405349    503.84157  0.041777908  0.042096717            2 
 1006000    1.1101964   -5.8210987    504.75295  0.041811875  0.042085556            5 
 1007000    1.1066627   -5.8564487    504.31391  0.041734021  0.042074119            5 
 1008000    1.0682549   -5.8767689    503.93836  0.041661571  0.042062647            4 
 1009000    1.0955327   -5.8453681    504.39094   0.04165766  0.042051392            4 
 1010000    1.0965645   -5.8326691    505.41724  0.041701092  0.042040202            3 
 1011000    1.0860168   -5.8499617    504.47473  0.041582157   0.04202876            2 
 1012000    1.0814778   -5.8347541     506.2075  0.041683754  0.042017747            2 
 1013000    1.1013359    -5.850225    507.55819  0.041753717  0.042006846            3 
 1014000    1.0869552   -5.8880443    506.37068  0.041614947  0.041995358            5 
 1015000    1.0907987   -5.8659934    506.31919   0.04156972  0.041983711            3 
 1016000    1.0706706   -5.8762413     507.6139  0.041634998  0.041972351            4 
 1017000    1.1017434   -5.8717402    507.67748  0.041599269  0.041960888            5 
 1018000    1.1002789   -5.8286385    509.89147  0.041739642  0.041949381            4 
 1019000    1.0752135   -5.8856161    508.27901  0.041566814  0.041938028            3 
 1020000     1.101218   -5.8532204    509.35782  0.041614201  0.041926808            2 
 1021000    1.0852675    -5.911088    507.10521  0.041389586  0.041915837            3 
 1022000    1.1013527   -5.8675537    511.50285  0.041707669  0.041905001            4 
 1023000    1.1065922   -5.8257045    512.39426  0.041739513  0.041894404            2 
 1024000    1.0958809   -5.8968556     510.8755  0.041575154  0.041884621            3 
 1025000    1.1136317   -5.8402348    513.70466  0.041764606  0.041874266            4 
 1026000    1.0638516    -5.826566    514.67957  0.041803084  0.041864113            2 
 1027000    1.0729191   -5.8629619    514.67657  0.041762136  0.041853768            3 
 1028000    1.0762261   -5.8373032    514.38088  0.041697542  0.041843731            3 
 1029000    1.0981431   -5.8653013    513.04251  0.041548632  0.041833426            3 
 1030000    1.0765265   -5.8557152    514.66182  0.041639306  0.041822847            2 
 1031000    1.0912089    -5.888682    513.66876  0.041518651  0.041812187            4 
 1032000    1.0858902   -5.8945585    513.70004  0.041480946  0.041801001            5 
 1033000    1.0604272   -5.8464669    514.52814  0.041507594   0.04179022            3 
 1034000    1.0966405   -5.8424273    516.36951  0.041615853  0.041779423            5 
 1035000    1.0675809   -5.8435493     516.0729  0.041551763  0.041768852            2 
 1036000    1.0897176   -5.8340122    517.14244  0.041597687  0.041758102            3 
 1037000    1.0837475   -5.8974014    516.03777  0.041468802  0.041747418            3 
 1038000    1.0931916   -5.8487177     517.6239   0.04155619  0.041737145            1 
 1039000    1.0930745   -5.8604309    519.52959   0.04166904  0.041726983            6 
 1040000     1.062001   -5.8656636    517.61071  0.041475217   0.04171688            4 
 1041000    1.0812327    -5.894577    518.12748  0.041476744  0.041706669            4 
 1042000    1.1103591   -5.8451883    521.66691  0.041720002   0.04169649            5 
 1043000    1.0789723   -5.8957414    518.43032  0.041421406  0.041686416            4 
 1044000    1.1023292   -5.8932939     520.2506  0.041527027  0.041675834            2 
 1045000     1.105902   -5.8739659    520.74559  0.041526761  0.041665421            4 
 1046000    1.0994337   -5.8845494    520.04111  0.041430936   0.04165484            3 
 1047000    1.0876034   -5.8787709    520.66388  0.041440933  0.041644624            6 
 1048000    1.0895726   -5.8931469    520.12163  0.041358272  0.041634488            3 
 1049000    1.0860992   -5.8629188    522.95103  0.041543615  0.041624477            2 
 1050000    1.0612106   -5.8797698    521.75122  0.041408827  0.041614468            2 
 1051000    1.0995129   -5.8799345      523.707  0.041524501  0.041604308            2 
 1052000     1.058195   -5.8445582    525.68407   0.04164164  0.041594951            4 
 1053000    1.0915709   -5.8623059     524.8744  0.041538018  0.041585577            4 
 1054000    1.0994796   -5.8695074    526.64937  0.041638944   0.04157641            5 
 1055000    1.0957614   -5.8856422    525.79398   0.04153191  0.041567067            2 
 1056000    1.0785251   -5.9040835    525.18829  0.041444783  0.041557404            3 
 1057000    1.0930763   -5.8898704    526.31684  0.041494548  0.041547943            2 
 1058000    1.0873594   -5.8633094    526.93171  0.041503758  0.041538256            2 
 1059000    1.0805085   -5.8818234    529.75069  0.041686394  0.041528682            3 
 1060000    1.0815355   -5.8858201    526.49849  0.041391391  0.041519367            8 
 1061000    1.0559222   -5.8745797        528.6  0.041517436  0.041510076            2 
 1062000    1.0847595   -5.9075994    526.65129  0.041325431  0.041500657            7 
 1063000    1.0774439   -5.8762712    528.75224  0.041451258  0.041491128            3 
 1064000    1.0883068   -5.8859645    528.18713  0.041368039  0.041481574            5 
 1065000    1.0706429   -5.8976302    528.69279  0.041368763  0.041472125            3 
 1066000    1.0732554   -5.8928927    529.42087  0.041386872  0.041462731            4 
 1067000     1.072937   -5.8724776    532.73071  0.041606585  0.041453543            3 
 1068000    1.0695784   -5.8684901    532.53661  0.041552482   0.04144478            3 
 1069000    1.0871955   -5.8658886    534.22694   0.04164538  0.041436067            3 
 1070000    1.0775897   -5.8968277    532.92909  0.041505381  0.041427479            4 
 1071000    1.0718039    -5.872799    533.55899  0.041515639  0.041418597            5 
 1072000    1.0757015    -5.915184    533.16688  0.041446431  0.041409685            3 
 1073000    1.0773669   -5.8295145    537.07235  0.041711118  0.041401069            2 
 1074000    1.0706641    -5.893852    534.18914  0.041448567  0.041392743            5 
 1075000    1.0796802   -5.8845387    535.28139  0.041494681  0.041383823            3 
 1076000    1.0762267   -5.8577772    535.44447  0.041468748  0.041375297            7 
 1077000    1.0766822   -5.8825202    535.00049  0.041395891  0.041366881            6 
 1078000    1.0807733   -5.8973686     537.8049  0.041574281  0.041358357            4 
 1079000    1.0505729   -5.8893149     536.9549  0.041470104  0.041350088            2 
 1080000    1.0790479   -5.8574746    538.94773  0.041585473  0.041341875            5 
 1081000    1.0682529   -5.8852037    537.75523  0.041455075  0.041333555            3 
 1082000    1.0655322   -5.8460332    539.50564  0.041551574  0.041325323            3 
 1083000    1.0709092   -5.8243862    541.56746  0.041671857   0.04131709            1 
 1084000    1.0706283   -5.8460142    540.84282  0.041577707  0.041308834            4 
 1085000    1.0721449   -5.8970989      540.161   0.04148702  0.041300712            4 
 1086000     1.076069   -5.8711001    541.54569  0.041555071  0.041292755            3 
 1087000    1.0925666   -5.8648161     541.0573  0.041479401  0.041285004            5 
 1088000    1.0600294   -5.8867683    542.27241  0.041534345   0.04127707            6 
 1089000    1.0557682   -5.9073323    541.05989   0.04140342  0.041268863            5 
 1090000    1.0787059   -5.8781703     543.7518  0.041571239  0.041260839            3 
 1091000    1.0626352    -5.882749    541.02932  0.041325185  0.041252637            1 
 1092000    1.0654406   -5.9026455    541.02621  0.041287104  0.041244006            4 
 1093000    1.0428148   -5.8894998    542.31258  0.041347406  0.041235105            6 
 1094000    1.0842086   -5.8838556    540.40114  0.041164011  0.041226281            4 
 1095000    1.0605812   -5.9073936    542.06556  0.041253087  0.041217376            4 
 1096000    1.0755774   -5.8643525    543.99511  0.041362159  0.041208368            6 
 1097000    1.0802904   -5.8902421     541.4077  0.041127902  0.041199346            6 
 1098000    1.0619237   -5.8772434    544.12003  0.041296298  0.041190137            3 
 1099000    1.1231659   -5.8733379    543.10596  0.041181829  0.041180992            8 
 1100000    1.0639645    -5.840051    544.97727  0.041286157  0.041172046            4 
 1101000     1.075863   -5.8761953    546.17614  0.041339399  0.041163589            7 
 1102000    1.0576773   -5.9013368    544.92997   0.04120765    0.0411548            3 
 1103000    1.0881137   -5.9440597    543.90838  0.041093108  0.041146125            3 
 1104000    1.0657369   -5.8868293    547.28969  0.041311118  0.041137477            4 
 1105000    1.0680098   -5.8406483    547.25349  0.041271002  0.041129067            5 
 1106000    1.0706489   -5.8661158    547.85078   0.04127869  0.041120517            3 
 1107000    1.0644484   -5.9022209      545.023  0.041028531  0.041111802            7 
 1108000    1.0767591   -5.8605252    547.80247  0.041200547  0.041102845            3 
 1109000    1.0801196   -5.8737111    547.41721  0.041134446  0.041093775            1 
 1110000    1.0556074   -5.8721069    549.63858  0.041264158  0.041084985            4 
 1111000     1.067551   -5.8676012    548.99346  0.041178628  0.041076208            4 
 1112000    1.0758459   -5.8678638    549.32891  0.041166735  0.041067451            5 
 1113000    1.0645086   -5.8932607    547.76198  0.041012427  0.041058703            8 
 1114000    1.0533841   -5.8558792    550.12076  0.041152062  0.041049871            3 
 1115000    1.0633685   -5.8773438    551.66929  0.041230888  0.041041177            5 
 1116000    1.0674807   -5.9123173    550.36342  0.041096432   0.04103258            5 
 1117000    1.0908106   -5.8644276    552.96046  0.041253392  0.041023969            3 
 1118000    1.1063693   -5.9245347    550.58775  0.041039636  0.041015097            4 
 1119000    1.0740363   -5.8612342    550.20358  0.040974351  0.041006304            2 
 1120000    1.0795177   -5.8568489    552.74633  0.041126959  0.040997661            3 
 1121000    1.0742766   -5.9445246    552.13943  0.041045155  0.040988576            3 
 1122000    1.0743833   -5.8961112    553.25869  0.041091703  0.040979614            4 
 1123000    1.0660336   -5.8439851    554.48707  0.041146265  0.040970797            4 
 1124000    1.0781973   -5.9021221    552.05455  0.040929311  0.040961635            4 
 1125000    1.1105207   -5.8717366    551.09977  0.040822205  0.040952302            3 
 1126000    1.0617873   -5.8831297    551.76602  0.040835259  0.040942955            4 
 1127000    1.0408872   -5.8931363    553.02035  0.040891774   0.04093367            4 
 1128000    1.0627985   -5.9192331    552.65783   0.04082874  0.040924326            3 
 1129000    1.0566927   -5.8892428    554.14808  0.040902575  0.040914769            4 
 1130000     1.092032   -5.9115454    554.09923  0.040862775  0.040905283            3 
 1131000    1.0647912   -5.8615102    555.50531  0.040930247  0.040895827            3 
 1132000    1.0518392   -5.9129406    553.56524  0.040751269  0.040885907            2 
 1133000    1.0982838   -5.9296383     553.9563  0.040744065  0.040875917            2 
 1134000    1.0771854   -5.9031047    553.30121  0.040659994  0.040865994            6 
 1135000    1.0904019   -5.8689804    554.50102  0.040712263  0.040856465            2 
 1136000    1.0860023   -5.9244269    555.82916  0.040773852  0.040846602            3 
 1137000    1.0655257   -5.8898986    557.89816  0.040889634  0.040836644            2 
 1138000    1.0943767   -5.9065927    555.03886  0.040644322  0.040826878            2 
 1139000    1.0803078   -5.8912278     557.3654  0.040778855  0.040817007            4 
 1140000    1.0829669   -5.9027443    556.28757  0.040664296  0.040807154            5 
 1141000    1.0725623   -5.8475287    560.03867   0.04090262  0.040797639            3 
 1142000    1.0569126   -5.8851035    557.57784  0.040687233  0.040787796            4 
 1143000    1.0609882   -5.8699533    559.52424  0.040793544  0.040778295            4 
 1144000    1.0747658   -5.8619842    560.63685  0.040838931  0.040768572            5 
 1145000    1.0937008    -5.920281    558.34611  0.040636543  0.040758905            4 
 1146000    1.0574973   -5.8920687    560.37006  0.040748259  0.040749018            2 
 1147000    1.0771762   -5.9211972    560.70459  0.040737038  0.040739521            2 
 1148000    1.0688656   -5.8844393    559.81716  0.040637134  0.040729729            2 
 1149000    1.0702838   -5.9091551    561.36669   0.04071415  0.040719973            2 
 1150000    1.0797162    -5.880151    562.94009   0.04079276  0.040710313            2 
 1151000    1.0806543   -5.9058688     560.5164  0.040581842  0.040700841            4 
 1152000    1.0562421   -5.8627592    562.55795  0.040694296  0.040690913            4 
 1153000    1.0443616   -5.9001833    561.48209  0.040581244  0.040681242            3 
 1154000    1.0907278   -5.9185444    559.60876    0.0404108  0.040671065           17 
 1155000    1.0506679   -5.9013675    561.37766  0.040503439  0.040661245            3 
 1156000    1.0498658   -5.9048708    562.90936  0.040578818  0.040651071            2 
 1157000    1.0728683    -5.909434    562.68247  0.040527403  0.040641075            3 
 1158000    1.0818168   -5.8759281    563.52228  0.040552841  0.040631026            3 
 1159000    1.0474898    -5.929726    563.97983   0.04055075  0.040621256            3 
 1160000    1.0344357   -5.9118896    562.76764   0.04042871  0.040611318            3 
 1161000    1.0692369   -5.9128902    563.91359  0.040476141  0.040601279            3 
 1162000    1.0725742   -5.9350693    565.51843  0.040556399  0.040591394           11 
 1163000    1.0741418   -5.8906654    566.05304  0.040559834  0.040581765            4 
 1164000    1.0649826   -5.8864786    566.90065  0.040585671  0.040572144            7 
 1165000    1.0750353   -5.9089332    565.78723   0.04047119  0.040562481            7 
 1166000    1.0681542   -5.8902956     568.3112  0.040616867  0.040552662            3 
 1167000    1.0727703   -5.9253362    566.08275  0.040422933  0.040543182            5 
 1168000     1.058305   -5.9150319    568.61114  0.040568717  0.040533541            3 
 1169000    1.0837014   -5.9053523    569.21291  0.040576911  0.040524061            3 
 1170000    1.0673419   -5.9202631    569.49475  0.040562304  0.040514615            9 
 1171000    1.0925859   -5.9132653    570.71316  0.040614372  0.040505222            4 
 1172000    1.0832068   -5.9381885    568.68337  0.040435393  0.040495947           11 
 1173000    1.0652715   -5.9313323    569.65937   0.04047026  0.040486676            6 
 1174000    1.0506535   -5.9045853    571.05576  0.040534906  0.040477437            4 
 1175000    1.0357959   -5.8517949    574.02303  0.040710853  0.040468551            4 
 1176000    1.0898659    -5.937014    569.81572  0.040378098   0.04045946            2 
 1177000    1.0546969    -5.892947    572.49054  0.040533173  0.040450395            6 
 1178000    1.0812041   -5.9131837    571.91293  0.040457904  0.040441265            3 
 1179000    1.0769067   -5.8676868     575.2155  0.040657018  0.040432317            4 
 1180000    1.0570806   -5.8999281    572.78695  0.040451056  0.040423249            3 
 1181000    1.0637289   -5.9103628    572.12356  0.040369995  0.040414276            4 
 1182000    1.0549425   -5.9543028    573.27423  0.040416965  0.040405043            3 
 1183000    1.0375272   -5.9204953    572.12935  0.040302152  0.040395646            3 
 1184000    1.0763651   -5.9081229    574.01864  0.040401087  0.040386313            5 
 1185000    1.0550684   -5.9138108    573.59171   0.04033697  0.040376952            7 
 1186000    1.0668238   -5.9226342     575.3665  0.040427663  0.040367452            3 
 1187000    1.0799678   -5.9316216    574.10159  0.040304801  0.040357908            4 
 1188000     1.062596   -5.8970239     575.4722  0.040367017  0.040348658            3 
 1189000    1.0636879   -5.8777397      576.185  0.040383025  0.040339803            4 
 1190000    1.0323912   -5.9258489    577.79483  0.040461823  0.040330569            7 
 1191000    1.0536033   -5.9491236    575.90285  0.040295469  0.040321283            4 
 1192000    1.0523901   -5.9194333    576.87776  0.040329821  0.040312239            4 
 1193000    1.0359099   -5.9034041    576.58241  0.040275385  0.040303623            2 
 1194000     1.063572   -5.9223455    577.68338  0.040318494  0.040294668            5 
 1195000    1.0443637   -5.9338137     577.0617  0.040241401  0.040285583            7 
 1196000    1.0695651    -5.916723    578.79619  0.040328608  0.040276487            4 
 1197000    1.0649425   -5.9145167     578.8864  0.040301197  0.040267514            3 
 1198000    1.0755031   -5.9072715    580.30623  0.040366321  0.040258836            2 
 1199000    1.0520266    -5.924513    581.55997  0.040419792  0.040250089            4 
 1200000    1.0388315   -5.8731641    582.92495    0.0404809  0.040241777            2 
 1201000    1.0604097   -5.9170422    584.08696  0.040527821  0.040233204            4 
 1202000     1.054474   -5.9176511    583.06729  0.040423412   0.04022449            8 
 1203000    1.0414219   -5.9242875    583.29788  0.040405783  0.040215704            2 
 1204000    1.0668389   -5.8825624      583.556  0.040390089  0.040207139            2 
 1205000    1.0413224   -5.9412737    581.60076  0.040221353   0.04019846            3 
 1206000    1.0475294   -5.9204455    584.77397  0.040407267  0.040189755            6 
 1207000    1.0496273   -5.9002934    584.14299  0.040330226  0.040181389            3 
 1208000    1.0529196   -5.9432532     582.5037  0.040183754  0.040173125            3 
 1209000     1.038517   -5.9624419    582.97905  0.040183281  0.040164344            2 
 1210000    1.0356367   -5.9007976    586.62769  0.040401356  0.040155701            2 
 1211000    1.0584834    -5.947298     585.8508  0.040314534  0.040147224            4 
 1212000     1.070696   -5.9235518    587.43569  0.040390243  0.040138306            3 
 1213000    1.0659499   -5.9063031    587.27561  0.040345947  0.040130023            2 
 1214000    1.0625654   -5.9143302    587.77023  0.040346666  0.040121722            5 
 1215000    1.0596511   -5.9224757    585.48394  0.040156649  0.040113158            5 
 1216000    1.0637184   -5.9167214    587.72106  0.040276937  0.040104389            3 
 1217000    1.0521595   -5.9298907    588.08565  0.040268806  0.040096048            3 
 1218000    1.0444309   -5.9091244    590.51304  0.040401822  0.040087832            2 
 1219000    1.0651653   -5.9093967    589.77898  0.040318497  0.040079692            5 
 1220000    1.0580418    -5.887786    591.00126  0.040368938   0.04007188            3 
 1221000    1.0601795   -5.9585925    589.74542  0.040250165  0.040064024            4 
 1222000    1.0502351   -5.9144389    591.68424  0.040349443   0.04005616            3 
 1223000    1.0426055   -5.9394283    591.49806  0.040303765  0.040048184            4 
 1224000    1.0744326   -5.9364563    590.48022   0.04020154  0.040040191            4 
 1225000    1.0573039   -5.9374056    591.80373  0.040258757  0.040031955            3 
 1226000    1.0631641   -5.9679087    593.71906  0.040356108  0.040023694            3 
 1227000     1.048478   -5.9450414     591.9526  0.040203247  0.040015155            2 
 1228000    1.0566664   -5.9336753    594.18964  0.040322315  0.040006782            2 
 1229000    1.0593031    -5.929385    591.90825  0.040134815  0.039998859            1 
 1230000    1.0646857   -5.9141842    593.57457  0.040215079  0.039990714            2 
 1231000    1.0716452   -5.9445557    593.60543    0.0401845  0.039982476            4 
 1232000    1.0571997   -5.9426819    594.05312  0.040182165  0.039974019            4 
 1233000    1.0354996    -5.899711    596.28297  0.040300282  0.039965877            2 
 1234000     1.024095   -5.9241588    594.97461  0.040179269  0.039957845            5 
 1235000    1.0375746   -5.9684331    594.91925  0.040142999  0.039949504            3 
 1236000     1.077771   -5.9569288    595.33753  0.040138723  0.039941438            2 
 1237000    1.0386808    -5.917699    595.30865  0.040104328  0.039933212            5 
 1238000    1.0559067   -5.9230358    595.21117  0.040065372  0.039925021            3 
 1239000    1.0672783   -5.9155237    597.13582  0.040162484  0.039916773            3 
 1240000    1.0493086   -5.9203825    597.94167  0.040184252  0.039908487            3 
 1241000    1.0433255   -5.9950282     595.5178  0.039989108  0.039900358            2 
 1242000    1.0492058   -5.9032487    598.95496  0.040187531  0.039892259            5 
 1243000    1.0560607     -5.95581    597.81121   0.04007852  0.039883822            4 
 1244000    1.0545774    -5.953746    598.21663  0.040073461  0.039875612            4 
 1245000    1.0623713   -5.9352504    597.41411  0.039987557  0.039867147            2 
 1246000    1.0417322   -5.9672416    599.05615  0.040065286  0.039858838            5 
 1247000    1.0505166   -5.9509727    598.56391  0.040000261  0.039850838            3 
 1248000    1.0629966   -5.9443915    599.13623  0.040006425  0.039842685            3 
 1249000    1.0507644   -5.9774378    598.32256  0.039920107  0.039834931            5 
 1250000    1.0559047   -5.9453562    599.88306  0.039992204  0.039826693            3 
 1251000     1.053858   -5.9483834    601.34944  0.040057916  0.039818747            1 
 1252000    1.0634883   -5.9465644    603.27736  0.040154244  0.039810979            4 
 1253000    1.0474978   -5.9108431    605.18431  0.040249023  0.039803406            2 
 1254000    1.0463376   -5.9368939    604.03949  0.040140849  0.039795974            3 
 1255000    1.0314502   -5.9343002    604.03618  0.040108644  0.039788613            5 
 1256000    1.0543828   -5.9425305    603.58624  0.040046858  0.039781008            3 
 1257000     1.046449   -5.9344616    603.52119  0.040010686  0.039773091            4 
 1258000    1.0500294   -5.9387452    602.42485  0.039906256   0.03976509            4 
 1259000    1.0480027   -5.9153786    606.31456   0.04013202   0.03975715            2 
 1260000    1.0640405    -5.926542    604.31232  0.039967746  0.039749221            3 
 1261000    1.0244613   -5.9456141    605.39139  0.040007361  0.039740938           10 
 1262000    1.0485303   -5.9798866    603.62789  0.039859211  0.039732341            2 
 1263000    1.0656934   -5.9370163    603.57044  0.039823861  0.039723919            9 
 1264000    1.0373482   -5.9730376      603.888  0.039813291  0.039715465            6 
 1265000    1.0506869   -5.9463681    606.72943  0.039969001  0.039707165            3 
 1266000    1.0509187   -5.9630196    605.97071  0.039887487  0.039698952            3 
 1267000    1.0567617   -5.9510133    605.91066  0.039852056  0.039690595            3 
 1268000      1.05984   -5.9549393    606.46711  0.039857197  0.039681881            2 
 1269000    1.0439723   -5.9418702    606.97962  0.039859445  0.039673284            4 
 1270000    1.0722412   -5.9512009     606.3319  0.039785558  0.039664369            3 
 1271000    1.0473497   -5.9637576    604.71766  0.039648417  0.039655523            4 
 1272000    1.0416196    -5.967395     607.6172  0.039807206  0.039646654            3 
 1273000    1.0476481   -5.9363886     608.3309  0.039822657  0.039638166            4 
 1274000    1.0451925   -5.9413871    607.42826  0.039732356  0.039629848            4 
 1275000    1.0355017    -5.964126    607.61346  0.039713298   0.03962142            3 
 1276000    1.0548576   -5.8985394    610.39104  0.039863574  0.039612838            2 
 1277000    1.0620629   -5.9601485    608.23549  0.039691692  0.039604333            3 
 1278000    1.0382037   -5.9149239    610.10511  0.039782545  0.039595792            7 
 1279000    1.0345398   -5.9296772    612.24266  0.039890713  0.039587062            3 
 1280000    1.0510261   -5.9587323    611.38366  0.039803623  0.039578567            3 
 1281000    1.0325195   -5.9484465    609.19608  0.039630242   0.03957032            5 
 1282000    1.0602767   -5.9495117    611.25756  0.039733331  0.039561823            2 
 1283000    1.0610901    -5.961711     612.6588  0.039793375  0.039553718            3 
 1284000    1.0386541     -5.95991    611.82519  0.039708281  0.039545237            8 
 1285000    1.0276789   -5.9338022    612.71022  0.039734774  0.039537008            9 
 1286000    1.0509666   -5.9531911    613.95497  0.039784536  0.039528756            4 
 1287000    1.0407438   -6.0182101    610.78001  0.039548045  0.039520511            7 
 1288000    1.0461984   -5.9567981    613.17776  0.039672474  0.039512185            3 
 1289000    1.0566434   -5.9408412     614.5679  0.039731569  0.039503863            5 
 1290000    1.0296359   -5.9663557    613.80384  0.039651411   0.03949556            4 
 1291000    1.0621118   -5.9714795    614.38873  0.039658451  0.039487399            5 
 1292000    1.0477949   -5.9882639    614.50635  0.039635342  0.039479172            8 
 1293000    1.0351977   -5.9450742    616.35786  0.039724018  0.039470915            3 
 1294000    1.0425576   -5.9784867    617.20947  0.039748163  0.039462675            4 
 1295000    1.0693059   -5.9410309    617.70194   0.03974916  0.039454693            3 
 1296000    1.0488368   -5.9743712    615.05281  0.039548149  0.039446467            3 
 1297000    1.0287045   -5.9153142    617.73428  0.039689944   0.03943833            5 
 1298000    1.0554204   -5.9695301    616.77132  0.039597542  0.039430138            5 
 1299000    1.0375452   -5.9873582    615.37651   0.03947758  0.039421885            5 
 1300000    1.0343468   -5.9703008     618.6616  0.039657795   0.03941363            5 
 1301000    1.0368817   -5.9627441    618.95925  0.039646378  0.039405332            4 
 1302000    1.0429836   -5.9670522    618.47858  0.039585163  0.039397184            3 
 1303000    1.0430535   -5.9823464    619.40853  0.039614258  0.039388922            4 
 1304000    1.0249724     -5.98351    619.29788  0.039576807  0.039380713            2 
 1305000     1.042406   -5.9749847    619.01943  0.039528699   0.03937253            4 
 1306000    1.0317189   -6.0028156    618.95553  0.039494355  0.039364335            4 
 1307000    1.0545659   -5.9965363    618.91848  0.039461775  0.039356187            3 
 1308000    1.0416127   -5.9469279    624.48099  0.039785996  0.039348435            2 
 1309000    1.0591939   -5.9596313    624.83897  0.039778391  0.039340701            3 
 1310000    1.0509129   -5.9667043    623.23238  0.039645826   0.03933294            8 
 1311000    1.0443614    -5.916508    622.70791  0.039582247  0.039325237            3 
 1312000    1.0416702   -5.9485979     623.5874   0.03960794  0.039317336            5 
 1313000     1.046437   -5.9356592    626.23918  0.039746076  0.039309648            2 
 1314000    1.0107304   -5.9703982    624.26672  0.039590736  0.039301786            3 
 1315000    1.0628655   -5.9682808    623.53527  0.039514276  0.039293684            3 
 1316000    1.0531605   -5.9749065    624.15387  0.039523421  0.039285896            5 
 1317000    1.0541705   -5.9638767    625.44359  0.039575018  0.039278066            6 
 1318000    1.0373418   -5.9325038    624.64458  0.039494472  0.039270271            1 
 1319000    1.0321579   -5.9405883    627.73989  0.039660089  0.039262466            3 
 1320000    1.0553317   -5.9825278    625.52535  0.039490237  0.039254803            3 
 1321000    1.0302319   -5.9635993    624.13661  0.039372736  0.039246783            3 
 1322000    1.0413016   -5.9698151    625.05421  0.039400795  0.039239056            4 
 1323000    1.0681029   -5.9488321    628.40401  0.039582011  0.039231114            4 
 1324000     1.047913   -5.9589458    626.54052  0.039434826  0.039223355            6 
 1325000    1.0246654   -5.9625127    628.83828  0.039549578  0.039215606            3 
 1326000     1.031881   -5.9518627    628.55678   0.03950206  0.039208011            3 
 1327000    1.0307744   -5.9735202    628.73618  0.039483558  0.039200064            5 
 1328000    1.0448919   -5.9771734    631.57659  0.039632065  0.039192462            3 
 1329000    1.0337554   -5.9672291    627.57432  0.039351287  0.039184882            2 
 1330000    1.0494414    -5.947095    631.40584   0.03956177  0.039177394            4 
 1331000    1.0331321   -5.9614443    630.75618  0.039491371  0.039169827            3 
 1332000    1.0218486   -5.9554535    632.28324   0.03955726  0.039162543            7 
 1333000    1.0339809   -5.9091239    633.27313  0.039589468  0.039155012            7 
 1334000    1.0475733   -6.0021994    631.70205  0.039461647   0.03914764            1 
 1335000     1.039346   -6.0011524    629.89472  0.039319271  0.039139936            3 
 1336000    1.0433861   -5.9398517     634.1496  0.039555239  0.039132022            3 
 1337000    1.0373111   -5.9818084    632.12126  0.039399231  0.039124175            2 
 1338000    1.0337244   -5.9768897    630.94397   0.03929646  0.039116512            4 
 1339000    1.0394351   -5.9878729     631.8303  0.039322274  0.039108441            3 
 1340000    1.0519253   -5.9768176    632.35307   0.03932544  0.039100709            2 
 1341000    1.0229358   -5.9606642    632.67405  0.039316061  0.039092731            8 
 1342000    1.0215998   -6.0025436    632.42255  0.039271147  0.039084789            4 
 1343000    1.0109797   -5.9728687    635.05689  0.039405367  0.039076835            2 
 1344000    1.0415341     -5.98399    633.87342  0.039302667  0.039069191            3 
 1345000    1.0188087   -5.9876933    634.25271  0.039296946  0.039061259            5 
 1346000     1.027236   -5.9559118    637.13067  0.039445931  0.039053474            2 
 1347000    1.0065516   -5.9787271    636.61752    0.0393849  0.039045561            5 
 1348000    1.0269783   -5.9731556    635.70441  0.039299234  0.039037792            2 
 1349000    1.0385279   -5.9720757    636.98478  0.039349196  0.039030191            4 
 1350000    1.0457476   -5.9922191    636.36465  0.039281768  0.039022146            6 
 1351000    1.0156863   -6.0344759    632.01462  0.038984371  0.039013898            4 
 1352000    1.0306636   -5.9961197    635.00686  0.039139969  0.039005628            4 
 1353000    1.0178281   -5.9741246    637.02676   0.03923545  0.038997433            2 
 1354000    1.0310765   -6.0245768    635.38767  0.039105593  0.038989108            6 
 1355000    1.0238465   -5.9592699    638.77552  0.039285087  0.038980663            3 
 1356000    1.0097664   -5.9834134    634.82817   0.03901353  0.038972208            7 
 1357000    1.0414048   -5.9874923    636.15489  0.039066255  0.038963673            3 
 1358000    1.0488614   -5.9914976    637.42277   0.03911529  0.038955289            5 
 1359000    1.0331446   -5.9778215    637.92927  0.039117566  0.038946865            6 
 1360000     1.045026   -5.9538168    637.92504  0.039088544  0.038938536            5 
 1361000    1.0398982   -5.9949519    638.09061  0.039069961  0.038930145            4 
 1362000    1.0290601    -5.981664    638.44465  0.039062938  0.038921676            2 
 1363000    1.0134809   -5.9671573    640.68259  0.039171105  0.038913453            3 
 1364000    1.0494786   -5.9495668    640.52114  0.039132523  0.038905378            4 
 1365000    1.0253964   -5.9800048    640.36758   0.03909448  0.038897238            5 
 1366000    1.0436986   -5.9894934    638.52654  0.038953547   0.03888913            5 
 1367000    1.0402098    -5.956117    640.02058  0.039016129  0.038880978            4 
 1368000    1.0357722   -6.0058221    640.29659  0.039004422  0.038872757            3 
 1369000    1.0371559   -5.9779156    641.64572  0.039058055  0.038864584            3 
 1370000    1.0103417   -5.9771208    642.12632  0.039058779  0.038856221            2 
 1371000    1.0390525   -5.9451348    641.58662  0.038997485  0.038847865            3 
 1372000    1.0420485   -5.9706875    643.23169   0.03906898  0.038839685            4 
 1373000    1.0065924   -6.0026788    641.76942  0.038951774   0.03883133            6 
 1374000    1.0288471   -6.0164526    643.48325  0.039027369  0.038822936            6 
 1375000    1.0155096   -5.9929412    643.16852   0.03897991  0.038814653            3 
 1376000    1.0359516    -5.984124    642.91208  0.038936051  0.038806273            3 
 1377000    1.0349473   -5.9576134     644.0361  0.038975799  0.038797879            3 
 1378000    1.0439959   -5.9552944    644.30304  0.038963658  0.038789513            5 
 1379000    1.0291319   -5.9562739    646.08777  0.039043254  0.038781205            3 
 1380000    1.0019796   -5.9623961    645.83438  0.038999661  0.038772775            7 
 1381000    1.0211248   -5.9768373    643.46644  0.038828532  0.038764393            4 
 1382000    1.0281863   -5.9790658    644.96309  0.038890683  0.038756209            2 
 1383000    1.0432451   -6.0015124    646.50204  0.038955293  0.038747812            5 
 1384000    1.0266485   -6.0525862    644.94071  0.038833135   0.03873931            4 
 1385000    1.0473597   -6.0038452    645.54783  0.038841627  0.038730741            7 
 1386000    1.0223009   -5.9745254    646.80063  0.038888927  0.038722113            7 
 1387000    1.0084982   -5.9650965    648.11865  0.038940078  0.038713861            4 
 1388000     1.047198   -5.9898317    647.08362  0.038849881  0.038705717            3 
 1389000    1.0327811   -5.9888452    646.76216  0.038802625   0.03869712            3 
 1390000    0.9977671   -5.9810307    649.04675  0.038911675  0.038688535            7 
 1391000    1.0462384   -5.9812299    649.05712  0.038884323  0.038680082            5 
 1392000   0.99592877    -6.009284    647.88332  0.038786118  0.038671604            4 
 1393000    1.0401862   -5.9971675    648.61324  0.038801941   0.03866334            6 
 1394000    1.0331563   -6.0111519    650.33487  0.038877025  0.038655153            5 
 1395000    1.0205912   -6.0011171     652.4805   0.03897733  0.038646788            3 
 1396000    1.0174678   -5.9792343    649.10434  0.038747871  0.038638636            4 
 1397000    1.0273302   -6.0403215     649.8798  0.038766392   0.03863033            9 
 1398000    1.0270273   -6.0155622    650.79345  0.038793124  0.038621646            4 
 1399000    1.0228501   -6.0068662    652.76329  0.038882731  0.038613453            4 
 1400000    1.0126434   -6.0153766    651.90818  0.038804058  0.038605202            3 
 1401000    1.0191358   -5.9799055    652.71284  0.038824223  0.038597052            4 
 1402000     1.018986   -6.0033181    654.85557  0.038923893  0.038588816            3 
 1403000    1.0249272   -6.0046646     650.7151   0.03865022  0.038580624            5 
 1404000    1.0215169   -5.9659116    654.54288  0.038849886  0.038572218            8 
 1405000    1.0293015   -5.9949257    655.05683  0.038852718  0.038563858            6 
 1406000    1.0559169   -6.0377663    651.73798  0.038628377  0.038555784            4 
 1407000    1.0158271   -5.9897749    654.18222  0.038745689  0.038547545            5 
 1408000    1.0196196   -6.0116516    651.68304  0.038570256  0.038539299            4 
 1409000    1.0291254     -6.01957    653.60449  0.038656523  0.038530773            3 
 1410000    1.0127907   -6.0018207    653.96839  0.038650614  0.038522303            7 
 1411000    1.0227041   -6.0015119    651.88442  0.038500143  0.038513781            2 
 1412000    1.0071328   -5.9586485    654.89376  0.038650481  0.038505447            3 
 1413000    1.0193118   -6.0151852    652.15568  0.038461647  0.038496768            3 
 1414000    1.0336436    -5.967966    657.29648  0.038737416   0.03848783            4 
 1415000    1.0022026   -5.9742768    653.54647  0.038489191  0.038479047            4 
 1416000    1.0401066   -5.9882813    654.55976  0.038521643   0.03847039            6 
 1417000    1.0074928   -5.9986412    654.49419  0.038490601   0.03846158            2 
 1418000    1.0491046   -5.9833331    656.10046  0.038557855  0.038452817            3 
 1419000   0.99942847   -6.0174924    656.26558  0.038540379  0.038444039            2 
 1420000    1.0164502    -6.035656     657.3016  0.038574038  0.038435198            3 
 1421000    1.0266025   -5.9970629    657.42087  0.038553887  0.038426522            3 
 1422000    1.0434957   -5.9849498    659.88292  0.038671057  0.038417743            3 
 1423000    1.0223584     -5.99919    657.16073  0.038484466  0.038409243            6 
 1424000    1.0150685    -6.021512    655.93469  0.038385691   0.03840038            4 
 1425000    1.0423805   -6.0289118    658.14232  0.038487855   0.03839188            2 
 1426000    1.0107317   -6.0257834     658.4432  0.038478448  0.038383124            3 
 1427000    1.0258228   -6.0212209    658.06919  0.038429642  0.038374443            3 
 1428000    1.0278565   -5.9939663    658.08794  0.038403824  0.038365763            1 
 1429000     1.015603   -6.0079787    658.74658  0.038415359  0.038357233            6 
 1430000    1.0036755   -6.0445858    659.31705  0.038421739  0.038348517            8 
 1431000    1.0347038   -6.0771276    658.00424  0.038318439  0.038339723            3 
 1432000    1.0320407   -6.0241102     661.2358  0.038479737   0.03833098            3 
 1433000    1.0194596    -6.013052    661.70717  0.038480296  0.038322282            4 
 1434000    1.0438234   -6.0130781    661.23796  0.038426195  0.038313435            2 
 1435000    1.0076807   -6.0188689    661.74503  0.038428864  0.038304785            6 
 1436000    1.0309758   -5.9912779    661.70312   0.03839967  0.038296196            2 
 1437000    1.0328595   -6.0409512    659.95184  0.038271389  0.038287559            4 
 1438000    1.0273096   -6.0060038    662.72509  0.038405487  0.038278756            5 
 1439000    1.0454891   -5.9989824    662.53909  0.038368027  0.038270004            3 
 1440000    1.0005402   -6.0141144    662.87693  0.038360933  0.038261346            2 
 1441000     1.027478    -6.048592    662.54193  0.038314939  0.038252543            5 
 1442000    1.0313478   -6.0526744    663.20178  0.038326501  0.038243634            3 
 1443000    1.0459145   -5.9848235    665.58193  0.038437395  0.038235002            4 
 1444000     1.017552    -6.000322    664.82555  0.038367125  0.038226233            4 
 1445000    1.0192889   -6.0597303    663.04932  0.038238138  0.038217505            9 
 1446000    1.0174765   -6.0213579    664.11683  0.038273215  0.038208865            3 
 1447000    1.0157457   -6.0311529    665.58703  0.038331435  0.038200325            5 
 1448000    0.9987397   -5.9812287    665.12323   0.03827827  0.038191697            2 
 1449000    1.0010256    -5.965499    665.44463  0.038270337  0.038183134            2 
 1450000    1.0173368   -6.0289097    665.21203  0.038230576  0.038174272            3 
 1451000    1.0193492   -6.0385529    665.10175  0.038197895  0.038165594            4 
 1452000    1.0056041   -5.9968741    667.94202  0.038334597  0.038156882            5 
 1453000    1.0137512    -6.006269    667.16483   0.03826364   0.03814826            3 
 1454000    1.0282624   -5.9962244    665.69266  0.038152949  0.038139602            6 
 1455000    1.0344589   -6.0318028    667.40093  0.038224567  0.038130788            6 
 1456000    1.0158351   -6.0335026    668.18736  0.038243324  0.038122077            2 
 1457000   0.99277884   -6.0834215     666.4881  0.038119887  0.038113238            2 
 1458000    1.0100627   -6.0281308    667.31521  0.038141015  0.038104343            5 
 1459000    1.0045003    -6.005884    667.46547  0.038123456   0.03809587           12 
 1460000    1.0234122   -6.0020744    668.00759  0.038128287  0.038087381            4 
 1461000     1.008376   -6.0379143    667.39984  0.038067524  0.038078781            3 
 1462000    1.0406804   -6.0227086    667.99271   0.03807528  0.038070171            5 
 1463000    1.0250518   -6.0173325    670.95582  0.038218035  0.038061603            4 
 1464000    1.0152148    -6.018586    669.49137  0.038108571  0.038052918            4 
 1465000    1.0040728   -6.0059511    672.14159   0.03823331  0.038044218            3 
 1466000    1.0372368   -6.0326887    668.13354  0.037979396  0.038035574            3 
 1467000    1.0202871   -6.0278498    669.12195  0.038009654   0.03802678            4 
 1468000    0.9987034   -5.9998147    672.31698  0.038165133  0.038018435            3 
 1469000    1.0332633   -6.0384656    671.13377  0.038072031  0.038010063            9 
 1470000    1.0046292   -6.0780328    672.40873  0.038118409   0.03800161            7 
 1471000    1.0041309   -6.0324191    673.99411  0.038182309   0.03799312            4 
 1472000    1.0045252   -6.0426015    675.52034  0.038242773  0.037984545            5 
 1473000    1.0335711   -6.0474848    672.06593  0.038021381  0.037976184            3 
 1474000     1.009179   -6.0143984    675.97662  0.038216679  0.037967608            5 
 1475000     1.021716   -5.9954344    674.73927  0.038120863  0.037959184            3 
 1476000    1.0306741   -6.0282385    674.25889  0.038067914  0.037950675            6 
 1477000    1.0209781   -6.0441383    671.84259  0.037905811  0.037942123            3 
 1478000    1.0017726   -5.9939691    677.81886  0.038217121   0.03793377            7 
 1479000   0.99475702   -6.0446601     675.5192  0.038061708  0.037925429            3 
 1480000    1.0274938   -6.0249108    676.53322  0.038093087  0.037916803            2 
 1481000   0.98600764   -6.0235765     676.9531  0.038090991  0.037908225            3 
 1482000   0.99885047    -6.022575    676.80737  0.038057095  0.037899918            3 
 1483000    1.0177765   -6.0263039    676.82781  0.038032581  0.037891268           11 
 1484000    1.0278845   -6.0201116    675.90317   0.03795503  0.037882646            6 
 1485000    1.0134904   -6.0309634    671.89218  0.037704387  0.037874203            7 
 1486000    1.0199684   -6.0437362    675.89024  0.037903221  0.037865338            5 
 1487000    1.0315918   -6.0051508    676.92436  0.037935685  0.037856569            5 
 1488000    1.0260146   -5.9851901    678.90206  0.038020949  0.037847888            3 
 1489000    1.0134314   -6.0444842    676.35913  0.037853097  0.037839275            6 
 1490000    1.0189154   -6.0193815    677.67411  0.037901237  0.037830753            3 
 1491000    1.0235525   -6.0317145    677.61006  0.037872237  0.037821805            5 
 1492000    1.0479824   -6.0307955    678.61498  0.037902981  0.037813003            7 
 1493000    1.0246626   -5.9996148    680.97071  0.038009082   0.03780425            6 
 1494000    1.0371157   -6.0626724    675.91084  0.037701408  0.037795781            2 
 1495000    1.0181641   -6.0346229    679.60904  0.037882332  0.037787118            5 
 1496000    1.0305244   -6.0317496    680.03167  0.037880552  0.037778345           12 
 1497000   0.99993565   -6.0153353    681.08952  0.037914135  0.037769605            5 
 1498000    1.0129456   -6.0277148    682.71113  0.037979035  0.037760967            5 
 1499000    1.0017305   -6.0333969    680.41966   0.03782631   0.03775247            2 
 1500000   0.99016704   -6.0330518    680.39793  0.037799885  0.037744091            3 
 1501000    1.0181331   -6.0447716    681.22054  0.037820372  0.037735653            8 
 1502000    1.0068284   -6.0475525    682.75081  0.037880094  0.037727277            2 
 1503000    0.9966289   -6.0877952    681.70966  0.037797165  0.037718697            5 
 1504000   0.99200091   -6.0327194    681.07197  0.037736701   0.03771006            2 
 1505000    1.0106018   -6.0104253    683.13166  0.037825673  0.037701545            2 
 1506000   0.99933527   -6.0032259    685.17151   0.03791343  0.037693278            2 
 1507000    1.0007114   -6.0682796    680.80735  0.037646945  0.037684629            5 
 1508000    1.0263874    -6.060614     684.3928  0.037820115   0.03767601            4 
 1509000    1.0020621   -6.0020187    685.53663  0.037858219  0.037667648            3 
 1510000   0.98899427   -6.0658876    684.83102  0.037794206  0.037659193            4 
 1511000    1.0177282   -6.0609463    683.98998  0.037722809  0.037650648            6 
 1512000     1.034883    -6.045364    687.18648  0.037874034  0.037642304            2 
 1513000    1.0028552   -6.0582674     683.3453  0.037637437  0.037633764            3 
 1514000    1.0154697    -6.004795    687.78947  0.037857192  0.037625285            2 
 1515000    1.0076792   -6.0536912    686.43976  0.037757963  0.037617009            1 
 1516000    1.0157283   -6.0155877    686.58584  0.037741086  0.037608761            3 
 1517000    1.0205798   -6.0239248    688.75148  0.037835172   0.03760051            4 
 1518000    1.0194488   -6.0410425    686.15301  0.037667601  0.037592284            4 
 1519000    1.0112752   -6.0427708    687.50538  0.037716995  0.037584028            2 
 1520000    1.0241891   -5.9786876    692.64834  0.037974141  0.037575855            4 
 1521000   0.99374191   -6.0347526    690.85602  0.037850977  0.037567881            2 
 1522000    1.0097188   -6.0177526    688.96644  0.037722648  0.037559461            2 
 1523000     1.005588   -6.0265943    691.08531  0.037813817  0.037551277            9 
 1524000    1.0037951   -6.0396004    688.20943  0.037631749  0.037543019            4 
 1525000    1.0129141   -6.0458155    691.51009  0.037787437  0.037534803            7 
 1526000    1.0248609   -6.0660927    687.15695  0.037524954  0.037526408            7 
 1527000    1.0127633   -6.0577524    691.87165  0.037757675  0.037517923            6 
 1528000    1.0041805   -6.0450326    689.39223  0.037597744  0.037509301            3 
 1529000   0.99812452   -6.0150207     691.0975  0.037666094  0.037501044            4 
 1530000    1.0061791   -6.0631882    690.78976  0.037624714  0.037492528            2 
 1531000   0.99859083   -6.0457287    693.02479  0.037721793   0.03748423            6 
 1532000   0.98395876   -6.0447251    690.22345  0.037544792  0.037475927            4 
 1533000   0.98908819   -6.0439161     693.4349  0.037694874  0.037467408            5 
 1534000    1.0131051   -6.0620699    692.67395  0.037628963  0.037458988            4 
 1535000    1.0077705   -6.0548835    691.70576  0.037551887  0.037450727            2 
 1536000    1.0078878   -6.0329639    694.46011  0.037676872   0.03744264            2 
 1537000    1.0209095   -6.0303978    695.36125  0.037701217  0.037434593            3 
 1538000   0.99205304   -6.0587717    693.45143  0.037573224  0.037426453            8 
 1539000   0.98909323   -6.0416416    694.45147   0.03760296  0.037418302            4 
 1540000    1.0179402   -6.0779917    693.28227  0.037515274  0.037410116            5 
 1541000     1.011407   -6.0660607    695.89884  0.037632427  0.037401822            4 
 1542000    1.0087609   -6.0518807    696.16164  0.037622224  0.037393466            2 
 1543000    1.0248909   -6.0774187    695.94243  0.037586003  0.037385081            4 
 1544000    1.0104199   -6.0499398    697.61777  0.037652082  0.037376951            3 
 1545000   0.98390158   -6.0221603    697.81572  0.037638388  0.037368718            4 
 1546000   0.97901938   -6.0494325    698.20379  0.037634961  0.037360621            2 
 1547000    1.0115999   -6.0866193    695.45025  0.037462306  0.037352435            4 
 1548000     1.006184    -6.070137    695.44405  0.037437772   0.03734411            3 
 1549000   0.99389724   -6.0444816    696.06008  0.037446744  0.037335893            4 
 1550000   0.99357458   -6.0235586    699.23003  0.037593012  0.037327773            4 
 1551000    1.0017559   -6.0744108    697.41866  0.037471452  0.037319597            4 
 1552000    1.0039089   -6.0887384    697.18664   0.03743485  0.037311354            4 
 1553000    1.0004757   -6.0484622    701.88695  0.037662962  0.037303258            3 
 1554000      1.01091   -6.0483857    700.21864  0.037549262  0.037295232            4 
 1555000    0.9994239   -6.0274166     701.5733  0.037597712  0.037287237            6 
 1556000    1.0031187   -6.0840682    697.74396  0.037368464   0.03727915            5 
 1557000    1.0192975    -6.046803    699.40401  0.037433312  0.037271053            3 
 1558000   0.99455191   -6.0598362    699.85854  0.037433597  0.037262991            2 
 1559000    1.0313459   -6.0999999    699.42879  0.037386615  0.037254706            5 
 1560000   0.98220866   -6.0731132    699.80175  0.037382572  0.037246532            5 
 1561000    1.0019539   -6.0326028    702.49104  0.037502191   0.03723847            2 
 1562000    1.0038644   -6.0467188    702.18706  0.037461965  0.037230161            3 
 1563000   0.99405761    -6.057842    702.95419  0.037478897  0.037221978            2 
 1564000   0.98115328   -6.0542686    702.65518  0.037439001  0.037213927            4 
 1565000    1.0196286   -6.0476908    702.64847  0.037414722   0.03720572            2 
 1566000     1.006214   -6.0817744     700.9476  0.037300319  0.037197565            6 
 1567000    1.0066121   -6.0427149     703.8852  0.037432738  0.037189281            3 
 1568000    1.0108078   -6.0705132    703.80021  0.037404348  0.037181084            3 
 1569000   0.99534862   -6.0373321    703.06204  0.037341302  0.037172958            7 
 1570000   0.99821604   -6.0281711    703.15921  0.037322676  0.037164736            2 
 1571000    1.0023529   -6.0469555    704.62796  0.037376828  0.037156608            4 
 1572000   0.99985228   -6.0538145    705.06633   0.03737629  0.037148506            6 
 1573000   0.99516982   -6.0717648    703.40242  0.037264379  0.037140476            3 
 1574000   0.99649956   -6.0821866    703.44039  0.037242714  0.037132145            4 
 1575000    1.0059098   -6.0288022    706.47162  0.037379451   0.03712405            5 
 1576000    1.0154302   -6.0902103    705.58324  0.037308759  0.037116008            3 
 1577000   0.98473177   -6.0529262    708.25163  0.037426106  0.037108093            7 
 1578000   0.99281693   -6.0715106    705.48699   0.03725639  0.037100062            5 
 1579000   0.98696718   -6.0791352    706.04979  0.037262497  0.037091904            7 
 1580000    0.9835453   -6.0351289    709.88024  0.037440941  0.037083744            3 
 1581000    1.0054412    -6.065612    708.96853  0.037369203  0.037075575            3 
 1582000    1.0323057   -6.0900589    705.27658  0.037151105  0.037067363            6 
 1583000    1.0022907   -6.0609056     708.9358  0.037320267  0.037059265            3 
 1584000    1.0070396    -6.072803    707.75701  0.037234691  0.037050854            6 
 1585000    1.0096685   -6.0920595    706.67109  0.037154106   0.03704258            4 
 1586000   0.98808488   -6.0293369    709.42198  0.037275219  0.037034374            2 
 1587000   0.99808474   -6.0787639    708.72734  0.037215256  0.037026272            4 
 1588000   0.99976519   -6.0625009    710.51201  0.037285475  0.037018187            5 
 1589000    1.0260619   -6.0508381    710.01144  0.037235758  0.037009958            5 
 1590000   0.98647746   -6.0826752    711.70873  0.037301296  0.037001796            6 
 1591000   0.99627392   -6.1141113    708.51619  0.037110632  0.036993644            3 
 1592000   0.98948703   -6.0452239    714.10516  0.037379876  0.036985614            3 
 1593000     1.027268   -6.0970081    708.11125  0.037042857  0.036977345            7 
 1594000   0.99986559   -6.0610587    712.77284  0.037263323  0.036969304            4 
 1595000   0.98622867   -6.0339298    713.81975  0.037294658  0.036961306            2 
 1596000    1.0100667   -6.0582168    713.70093  0.037265086  0.036953613            3 
 1597000    1.0088344   -6.0462551    714.48314  0.037282568   0.03694558            7 
 1598000    1.0135815   -6.0631393    713.45702  0.037205727  0.036937656            4 
 1599000   0.96811994   -6.0776616    712.22733  0.037118372   0.03692955            4 
 1600000   0.98326079   -6.0842046    714.42374   0.03720957  0.036921534            3 
 1601000    0.9904105   -6.0369775    713.96706  0.037162558  0.036913363            5 
 1602000   0.98307199   -6.0950851    712.10738  0.037042623  0.036905235            2 
 1603000    1.0007219   -6.0843302     716.9134   0.03726936  0.036897205            5 
 1604000    1.0044553   -6.0567008    713.37049  0.037062058  0.036889179            4 
 1605000    1.0204045   -6.0835728     712.8499  0.037011937  0.036881128            3 
 1606000   0.99152739    -6.064308    714.76152  0.037088082  0.036873098            4 
 1607000    1.0067674   -6.1011331    713.66199  0.037007985  0.036864902            4 
 1608000    1.0283882   -6.0745924    713.81489  0.036992894  0.036856827            4 
 1609000    1.0054599   -6.0654062    715.11605  0.037037293   0.03684856            5 
 1610000    1.0163654   -6.0787588    712.99337  0.036904419  0.036840293            2 
 1611000   0.98835386   -6.0896536    714.33534  0.036950928  0.036831938            5 
 1612000   0.98356176   -6.0734976      716.014  0.037014785  0.036823556            2 
 1613000    1.0049822   -6.1226902    714.05686  0.036890724   0.03681521            2 
 1614000    1.0089951   -6.0601377    715.67214  0.036951267  0.036806913            3 
 1615000    1.0048407   -6.0534976    717.83669  0.037040077  0.036798581            7 
 1616000   0.99215608    -6.093241    716.59239   0.03695299  0.036790132            4 
 1617000   0.99470069   -6.0964736    716.40502  0.036920481  0.036781877            3 
 1618000   0.98862175   -6.0776194    715.98174  0.036875862  0.036773462            7 
 1619000   0.99091244   -6.1442989    715.00308  0.036802711  0.036764998            3 
 1620000   0.99962366   -6.0519702    716.95273  0.036880284  0.036756565            4 
 1621000    1.0065614   -6.0897284     718.1619  0.036919695  0.036748015            2 
 1622000   0.97025131   -6.0468947    717.68099  0.036872225  0.036739706            5 
 1623000    0.9859382   -6.0499888    716.67642  0.036797926  0.036731353            4 
 1624000   0.99062834   -6.1086932    718.21043  0.036853983  0.036723008            5 
 1625000   0.98090281   -6.1008478    717.85401  0.036813026  0.036714619            3 
 1626000    1.0022105   -6.0772174    722.62037  0.037034664  0.036706336            2 
 1627000   0.99299611   -6.0786651    718.13917  0.036782379  0.036697812            3 
 1628000    0.9798207   -6.0382109     720.8315  0.036897599  0.036689591            4 
 1629000    0.9976706   -6.0743107    719.08415  0.036785561   0.03668136            3 
 1630000   0.99420038   -6.0923411    717.57063  0.036685615  0.036672815            3 
 1631000   0.99359809   -6.0871779    720.55531   0.03681562  0.036664279            4 
 1632000   0.97921477   -6.0534735    721.01152  0.036816356  0.036655694            4 
 1633000   0.98856529   -6.0851377    720.58772  0.036772184  0.036647271            5 
 1634000   0.99486643   -6.1005617    719.41878  0.036690064  0.036638693            6 
 1635000   0.98684611   -6.0793005     719.4887  0.036671188  0.036630162            5 
 1636000   0.98547023   -6.1229938    719.91619  0.036670548    0.0366215            1 
 1637000   0.97475573   -6.0781484     719.6524  0.036634718  0.036612803           10 
 1638000   0.97601499   -6.0930438    721.65809  0.036714392  0.036603945            5 
 1639000   0.98881059   -6.1062731    719.66817  0.036590816  0.036595331            5 
 1640000   0.98567211   -6.0677281    722.42496  0.036708585  0.036586582            9 
 1641000   0.97242952   -6.0888178    720.92484  0.036610037  0.036577759            2 
 1642000   0.98438001   -6.0650323    724.17814  0.036752849  0.036569165            2 
 1643000   0.99046569   -6.1188656    722.56179  0.036648498  0.036560522            3 
 1644000   0.97756455   -6.0991078    722.74838  0.036635664  0.036551885            2 
 1645000   0.97202516   -6.1043864    722.87592  0.036619854  0.036543199            6 
 1646000   0.99312502   -6.0887175      724.726  0.036691272  0.036534541            4 
 1647000   0.95762399   -6.0780447    724.83089  0.036674301  0.036526047            3 
 1648000   0.98666612   -6.1091148    722.77696  0.036548188  0.036517551            3 
 1649000    0.9441841   -6.0957796    724.38926  0.036607503  0.036508916            4 
 1650000   0.98487678   -6.0874256    724.79723  0.036605921  0.036500288            6 
 1651000   0.99067681   -6.1025276    725.21834  0.036605004  0.036491629            3 
 1652000    0.9930423   -6.0705915    723.82633  0.036512628  0.036483066            3 
 1653000    1.0060875   -6.1370784    723.13315  0.036455593  0.036474598            7 
 1654000    0.9973095   -6.0907708    722.90816  0.036422217  0.036465799            4 
 1655000    1.0066511   -6.1087933    725.32974  0.036522142  0.036456908            5 
 1656000   0.98712633   -6.0957038    728.60652  0.036664982  0.036448203            4 
 1657000   0.97614746    -6.130908    724.42919   0.03643277   0.03643956            4 
 1658000   0.99513277   -6.0800943    726.43485  0.036511603  0.036430876            2 
 1659000   0.98781441   -6.0735607    726.52925  0.036494336   0.03642226            4 
 1660000   0.97962976   -6.1159013     725.8753  0.036439523  0.036413748            2 
 1661000   0.97746595   -6.0977861    725.80926  0.036414272  0.036405045            3 
 1662000    1.0016767   -6.0579187    727.76764  0.036490556   0.03639653            8 
 1663000   0.99174873   -6.1059912    726.50256  0.036405219  0.036387833            4 
 1664000   0.98916562   -6.0885197    728.60651  0.036488707  0.036379232            3 
 1665000    1.0010066   -6.1265689    727.80908  0.036426881  0.036370305            2 
 1666000   0.99640408   -6.1183686    725.98631  0.036313841  0.036361612            5 
 1667000   0.99488811   -6.1601646    724.66762  0.036226136  0.036352848            5 
 1668000   0.99694724   -6.0920901    729.50549  0.036446117  0.036344032            3 
 1669000    1.0033767   -6.0950831    730.19824   0.03645887  0.036335235            4 
 1670000    1.0013146   -6.1113111    730.14113  0.036434188  0.036326659            6 
 1671000   0.96575159   -6.1101547    729.79822  0.036395283  0.036318155            3 
 1672000     1.002999   -6.0974161    733.79418  0.036572677  0.036309614            4 
 1673000   0.98578824   -6.1195956    729.47575  0.036335712  0.036300934            3 
 1674000   0.97460808   -6.0669163    732.61922  0.036470491  0.036292422            4 
 1675000   0.97593376   -6.0961875    731.42479  0.036389293  0.036284001            3 
 1676000   0.98380127   -6.1000941    729.97401  0.036295446  0.036275409            8 
 1677000    0.9747377    -6.095168    732.79744  0.036414105  0.036266906            5 
 1678000     1.002183   -6.0983708    732.55168  0.036380199  0.036258422            7 
 1679000   0.99975971   -6.1158029    732.53777   0.03635784  0.036249822            3 
 1680000    0.9716533   -6.1198353    731.97513   0.03630829  0.036241131            3 
 1681000   0.95920974   -6.0910213    734.08429   0.03639125  0.036232599            2 
 1682000   0.97747459   -6.1017115    734.12788  0.036371774  0.036224078            5 
 1683000   0.97849966   -6.0951638    733.05493  0.036297035  0.036215596            3 
 1684000    0.9849874   -6.0682058    733.24247  0.036284762  0.036207178            4 
 1685000   0.99367915   -6.0836547    732.66745   0.03623479  0.036198598            3 
 1686000   0.99801163   -6.1181773     732.1812  0.036189264   0.03619006            8 
 1687000   0.98973884   -6.1086295     735.4345  0.036328517   0.03618138            7 
 1688000    1.0014716    -6.099441    734.44705  0.036258247    0.0361728            3 
 1689000   0.97659352   -6.1035086    735.11579  0.036269775  0.036164148            3 
 1690000   0.99357179   -6.1014931     737.0209  0.036342254  0.036155558            5 
 1691000    0.9718015    -6.117818    735.89168  0.036265113  0.036146934            4 
 1692000   0.97726877   -6.1104913    734.06754  0.036153838  0.036138422            6 
 1693000   0.97659937   -6.0829428     739.3349  0.036391755  0.036130089            5 
 1694000     1.008014   -6.1252383    736.18429  0.036215284  0.036121654            5 
 1695000   0.97997201   -6.1218565    735.89882  0.036179883  0.036113018            3 
 1696000   0.97635104   -6.1359506    736.86878   0.03620621  0.036104508            1 
 1697000    0.9833827    -6.128056    736.64986  0.036174124  0.036095827            5 
 1698000   0.98089139    -6.132895    737.28289  0.036183888  0.036087223            4 
 1699000   0.97372422     -6.13474    737.08353  0.036152812  0.036078499            5 
 1700000   0.98621345   -6.0829663    741.25417  0.036335989   0.03607016            2 
 1701000   0.97430922   -6.1153462    736.53421  0.036083392  0.036061861            4 
 1702000   0.99208432   -6.1125338    739.56071  0.036210375  0.036053349            3 
 1703000   0.98090923   -6.1101942     738.7233  0.036148135  0.036044835            6 
 1704000   0.98395109    -6.084216    741.43334  0.036259455  0.036036382            2 
 1705000   0.98110177   -6.0816005    740.93142  0.036213657  0.036027939            6 
 1706000   0.98315297   -6.1241709    738.36257  0.036066949  0.036019558            4 
 1707000     0.963546   -6.1611178    740.61414  0.036155738  0.036010978            7 
 1708000   0.99377081     -6.14046    740.18132  0.036113453  0.036002481            4 
 1709000   0.97717948   -6.1508654    738.80437  0.036025179  0.035993898            3 
 1710000    0.9948584   -6.1113896    736.81003  0.035906921  0.035985248            5 
 1711000   0.96596989    -6.112229     741.0528  0.036092577   0.03597676            4 
 1712000   0.97295591   -6.1024456     743.7959  0.036205019  0.035968183            4 
 1713000   0.98444122   -6.1420063    741.35332  0.036065057  0.035959602            3 
 1714000   0.97943835   -6.1538309    739.85452  0.035971145  0.035951123            8 
 1715000   0.96661205   -6.0957643    740.51391  0.035982211  0.035942484            4 
 1716000   0.96946522   -6.1036085    742.56939  0.036061062  0.035933937            4 
 1717000   0.98260116   -6.1398894    741.73809  0.035999713  0.035925271            3 
 1718000   0.98679365   -6.1360704    742.54816  0.036018052  0.035916593            4 
 1719000   0.97740116   -6.1052368    742.91037  0.036014658  0.035907926            9 
 1720000   0.99078589   -6.1651525    740.29329  0.035866923  0.035899216            9 
 1721000   0.98606618   -6.1039453    740.81824  0.035871501  0.035890543           17 
 1722000   0.97565145   -6.1375112    743.02253  0.035957343  0.035881775            3 
 1723000   0.98680303   -6.1371604    740.95928  0.035836684  0.035872871           12 
 1724000   0.97645871   -6.1047887    742.85709  0.035907632  0.035864088            3 
 1725000   0.98363182   -6.1083416    745.32133  0.036005861  0.035855364            6 
 1726000   0.98696477   -6.0914492    745.24228  0.035981184   0.03584657            4 
 1727000   0.96148516   -6.1273795    744.59096  0.035928921   0.03583795            3 
 1728000   0.98542035   -6.0893045    745.41382  0.035947812  0.035829357            4 
 1729000   0.98694135    -6.145206    745.20103  0.035916764   0.03582065            3 
 1730000   0.96868975   -6.1357022    744.95769  0.035884282  0.035811738            5 
 1731000   0.96838025    -6.108242     745.3139    0.0358807   0.03580297            6 
 1732000   0.95914323   -6.1008138    744.36565   0.03581436   0.03579418            4 
 1733000   0.96898107   -6.1342223    745.14255  0.035831052  0.035785359            3 
 1734000   0.96889522   -6.1331985    742.98009  0.035706464  0.035776436            4 
 1735000   0.98037398   -6.1419329    744.99192  0.035782513  0.035767522            3 
 1736000   0.97166296   -6.1306479    744.87689  0.035756379  0.035758655           10 
 1737000   0.98022043   -6.1063498    746.31519  0.035804797  0.035749731            4 
 1738000   0.96952125   -6.1442464    744.55044   0.03569958   0.03574082            9 
 1739000   0.95560264   -6.1507947     744.6549  0.035684057  0.035731915            4 
 1740000   0.96936268   -6.1301296    746.91661  0.035771868  0.035722928            3 
 1741000    0.9628899   -6.1216409    744.73891  0.035647086  0.035714124            3 
 1742000   0.96998909   -6.1491273    747.11994  0.035740525   0.03570527            8 
 1743000   0.98009217   -6.1286995    747.40133  0.035733473    0.0356964            3 
 1744000   0.95362643   -6.1167294    746.93871  0.035690879  0.035687532            4 
 1745000   0.97838486   -6.1323938    746.77766  0.035662734  0.035678503            7 
 1746000   0.97280773   -6.1286471    745.73394  0.035592494  0.035669348            4 
 1747000   0.97218675    -6.130533    746.22985  0.035595776  0.035660103            6 
 1748000   0.96992295   -6.1228104    747.09158  0.035616494  0.035650915            3 
 1749000    0.9772158   -6.1267317    745.52565  0.035521519  0.035641888            4 
 1750000   0.96590755   -6.1325574    747.40376  0.035590655  0.035632883            4 
 1751000   0.97245932    -6.118663    749.85685  0.035687077  0.035623863            5 
 1752000   0.95917717   -6.1329404    747.06255  0.035533797  0.035614825            3 
 1753000   0.98450766    -6.122223    749.90899   0.03564884  0.035605775            3 
 1754000   0.98099884    -6.134415    749.70923  0.035619025  0.035596707            3 
 1755000   0.97162763   -6.1489572     749.6395  0.035595418  0.035587688            7 
 1756000   0.97771322   -6.1266602    751.31796  0.035654801  0.035578795            4 
 1757000   0.99022914   -6.1182001     750.4348   0.03559262  0.035569886            4 
 1758000   0.96296849   -6.1195682    749.61403  0.035533468  0.035560962            2 
 1759000   0.96992555   -6.1441045    752.48377  0.035649222  0.035551967            3 
 1760000   0.97358694    -6.131273    750.62085   0.03554076  0.035543068            5 
 1761000   0.97013725   -6.1379571    751.88834  0.035580557  0.035534278            5 
 1762000    0.9802306   -6.1333442    751.37638  0.035536151  0.035525526            3 
 1763000   0.97515553   -6.1313185    751.30994  0.035512854  0.035516776           10 
 1764000   0.96891188   -6.1245033    753.55638  0.035598846  0.035507996            4 
 1765000   0.97406736   -6.1207891    751.99921  0.035505156  0.035498998            2 
 1766000   0.97612976   -6.1118131    753.20198  0.035541807  0.035490158            3 
 1767000   0.97812488    -6.153184    751.26199  0.035430201  0.035481259            5 
 1768000   0.95348102   -6.1146704    753.28961  0.035505732  0.035472496            6 
 1769000   0.98642267    -6.158182    750.74787  0.035365925  0.035463558            4 
 1770000   0.97496374   -6.1353616    752.20541  0.035414567  0.035454406            2 
 1771000   0.96733715   -6.1625435    750.55082  0.035316715  0.035445198            3 
 1772000   0.96372634   -6.1285799    752.87199  0.035405944  0.035435989            4 
 1773000   0.94711922   -6.1241706    752.27256  0.035357801  0.035426933            5 
 1774000   0.98164269   -6.1544211    753.00444  0.035372249  0.035417906            6 
 1775000   0.98027322   -6.1764151    753.38146  0.035370022   0.03540896            8 
 1776000   0.95922037   -6.1593804    752.85298  0.035325309  0.035400019            3 
 1777000   0.97320632   -6.1386415      754.902   0.03540152  0.035391067            4 
 1778000   0.97562863   -6.1516529    753.73524  0.035326923  0.035382145            3 
 1779000   0.96035873   -6.1415144     755.2512  0.035378078    0.0353732            4 
 1780000   0.96023716   -6.1372394    754.98833  0.035345896  0.035364208            5 
 1781000   0.97050599   -6.1616582    755.52245  0.035351041  0.035355109            4 
 1782000   0.98472241   -6.1573895    754.97572  0.035305636  0.035346005            4 
 1783000   0.95017023   -6.1090569    756.94543  0.035377895  0.035337121            4 
 1784000   0.96101683   -6.1245796    755.93301  0.035310772  0.035328165            5 
 1785000   0.96380579   -6.1438927    752.92061  0.035150355  0.035319235            2 
 1786000   0.95114387   -6.1726898    756.41034  0.035293502  0.035310224            4 
 1787000   0.95900314   -6.1673365    755.29645  0.035221808   0.03530114            1 
 1788000   0.97098422    -6.144598    754.74636  0.035176471  0.035291996            9 
 1789000   0.97188484    -6.116341    757.54438  0.035287143  0.035282998            2 
 1790000   0.95306553   -6.1585424    754.86989  0.035142918  0.035273877            4 
 1791000   0.95716666   -6.1558861    755.95186   0.03517364  0.035264692            2 
 1792000   0.98860905   -6.1644786    757.36076   0.03521953  0.035255631            4 
 1793000   0.94905507   -6.1676182    756.64801   0.03516676  0.035246563            5 
 1794000    0.9606425   -6.1243321    759.84002   0.03529543  0.035237447            2 
 1795000   0.95951878   -6.1583437    758.70223  0.035222945  0.035228552            3 
 1796000      0.96814    -6.156891    756.44357  0.035098533  0.035219532            2 
 1797000   0.97173368   -6.1488528    760.04642  0.035246078  0.035210629            8 
 1798000   0.97993327   -6.1615236     757.1353  0.035091551  0.035201603           10 
 1799000   0.94383716   -6.1461153    759.36862  0.035175496  0.035192617            4 
 1800000   0.96376783   -6.1527093    760.69776  0.035217489  0.035183709            3 
 1801000   0.96197688   -6.1264925    758.67547  0.035104362  0.035174821            3 
 1802000   0.95754856   -6.1126873    760.63729  0.035175605  0.035165953            6 
 1803000   0.95159585   -6.1111062    760.81828  0.035164461  0.035156992            5 
 1804000   0.96284186   -6.1050569    760.42632  0.035126863  0.035147946            4 
 1805000    0.9425616   -6.1236021    761.13212  0.035139987  0.035138861            4 
 1806000   0.93960714   -6.1404134    759.85009  0.035061374   0.03512978            5 
 1807000   0.96814619   -6.1691077    760.68445  0.035080449  0.035120813            3 
 1808000   0.95252439   -6.1448921    761.89394  0.035116793  0.035111924            6 
 1809000   0.97888217    -6.097953    766.25097  0.035298092    0.0351031            3 
 1810000   0.98496497   -6.1502047    760.95352  0.035034692  0.035094322            4 
 1811000   0.98164265   -6.1632556    763.82022  0.035147259  0.035085511            5 
 1812000   0.95416173     -6.16876    764.65963  0.035166466  0.035076572            4 
 1813000   0.96022043    -6.159392    763.38729  0.035088586  0.035067576            6 
 1814000   0.96172401   -6.1248504    766.14623  0.035195986  0.035058568            4 
 1815000   0.95917441   -6.1653209    761.83183  0.034978504  0.035049695            6 
 1816000   0.94071243   -6.1552931    763.78163  0.035048716  0.035040687            4 
 1817000   0.97027535   -6.1450339    764.37269  0.035056535  0.035031854            4 
 1818000    0.9414269   -6.1257901    767.36147  0.035174252  0.035023065            5 
 1819000   0.96657673   -6.1986363    764.18511  0.035009397  0.035014176            5 
 1820000   0.95329041   -6.1533165    763.32044   0.03495057  0.035005213            5 
 1821000   0.97340946   -6.1882122    764.57764  0.034988909  0.034996173            3 
 1822000   0.97875048   -6.1258678    766.81042  0.035071827  0.034987302            2 
 1823000   0.97163324   -6.1467662    767.47403  0.035082923  0.034978549            5 
 1824000   0.96854688   -6.1538533    765.77385  0.034986013  0.034969625            7 
 1825000   0.92919475   -6.1347457    765.67619  0.034962383  0.034960789            4 
 1826000   0.95997252   -6.1586347     763.9817  0.034865905  0.034951979            2 
 1827000   0.95323968     -6.16252     766.9629    0.0349828  0.034943214            4 
 1828000   0.94097532   -6.1524888    766.87671  0.034959733  0.034934359            3 
 1829000   0.95602982   -6.1388447    766.80641  0.034937416   0.03492557            2 
 1830000    0.9853637    -6.182591     768.8211  0.035010068  0.034916951            9 
 1831000   0.94858698   -6.1952038    768.59769   0.03498078  0.034908257            3 
 1832000   0.96360206   -6.1418008    771.87957   0.03511097  0.034899685            3 
 1833000   0.96047342   -6.1597945    769.13336  0.034966965  0.034891106            4 
 1834000   0.92979938    -6.193896    768.15656  0.034903515    0.0348824            5 
 1835000   0.97379711    -6.175122    768.76831  0.034912276  0.034873807            8 
 1836000   0.95431214   -6.1362867    771.76747  0.035029388  0.034865254            5 
 1837000   0.94679278   -6.1496278    769.42234  0.034903935  0.034856582           10 
 1838000   0.98533809   -6.1688272    770.49852  0.034933738  0.034848002            3 
 1839000   0.96307697   -6.1658828    770.46827  0.034913371  0.034839266            4 
 1840000   0.97043305   -6.1601036    770.81088  0.034909913  0.034830443            6 
 1841000   0.94069343   -6.2058899    766.96256  0.034716756  0.034821459            3 
 1842000   0.93467366   -6.1885745    768.32737  0.034759653   0.03481243            5 
 1843000   0.98570272   -6.1941863     768.0662  0.034728984  0.034803406            4 
 1844000   0.98121271   -6.1618241    769.55148  0.034777272  0.034794476            7 
 1845000   0.97693069   -6.1606837    768.78033  0.034723592  0.034785533            4 
 1846000   0.93988864   -6.1021344    771.75377  0.034839011  0.034776714            6 
 1847000   0.95367917     -6.13355    771.93793  0.034828458  0.034767786            6 
 1848000   0.94802742   -6.1397565     772.6154   0.03484016  0.034758958            6 
 1849000   0.97185273   -6.1804297    770.02064  0.034704373  0.034750182            7 
 1850000   0.96311871   -6.1553329    772.34872  0.034790483  0.034741223            4 
 1851000   0.95017352   -6.1587917    770.88136  0.034705626  0.034732215            5 
 1852000   0.98899429    -6.174295    771.67356  0.034722532  0.034723223            4 
 1853000   0.94955441   -6.1670629    769.08363  0.034587319  0.034714079            9 
 1854000   0.97774731   -6.2084121    769.91463  0.034606016  0.034705023            4 
 1855000   0.94021407   -6.1557016    773.14822  0.034732624   0.03469596            4 
 1856000   0.96043816   -6.1575117    772.10875  0.034667239   0.03468694            3 
 1857000   0.94631702   -6.1652935    772.13108  0.034649573  0.034677835            4 
 1858000   0.96159684   -6.1946639    768.93142  0.034487416  0.034668578            8 
 1859000   0.94277872   -6.2011667    771.35251  0.034577394    0.0346593            6 
 1860000   0.97700788   -6.1906436    770.85822  0.034536658  0.034650048            3 
 1861000   0.95104398   -6.1753968     770.5561  0.034504572  0.034640922            5 
 1862000   0.96423843   -6.1494486    771.80017  0.034541719  0.034631698            6 
 1863000   0.94467232   -6.2065099    770.11979  0.034448014   0.03462241            5 
 1864000   0.96298366   -6.1930369    770.75861  0.034458093  0.034613126            7 
 1865000   0.96296463   -6.1906224      772.764  0.034529222  0.034603951            5 
 1866000   0.96674228   -6.1751668    770.45541  0.034407619  0.034594744           11 
 1867000   0.96317115   -6.1497647    773.46045   0.03452332  0.034585623            6 
 1868000   0.95185719    -6.164876    773.87102  0.034523154  0.034576541            3 
 1869000   0.96232968   -6.1657338    772.94873   0.03446356  0.034567282            3 
 1870000   0.95451669   -6.1738537    772.76696   0.03443703  0.034557927            8 
 1871000   0.96207755   -6.2037839     772.1844  0.034392678  0.034548466            3 
 1872000   0.95366881   -6.1738949     772.1471  0.034372645  0.034538991            2 
 1873000   0.95191142    -6.171723    773.75919  0.034426018  0.034529652            8 
 1874000   0.96202448   -6.1708606     775.5119  0.034485588  0.034520388            2 
 1875000   0.95429733   -6.1685852    774.91283   0.03444057  0.034511161            5 
 1876000   0.95481014   -6.1687036    775.04983  0.034428297   0.03450188            7 
 1877000   0.95592652   -6.1942544    777.49013  0.034518297  0.034492653            3 
 1878000   0.96540762   -6.1898021    774.75907  0.034378731  0.034483438            4 
 1879000   0.95773106   -6.2319669    772.76535  0.034272013   0.03447409            5 
 1880000   0.95754237   -6.1881336    777.28148  0.034453966  0.034464796            4 
 1881000   0.94071236   -6.1935472    775.35791   0.03435043  0.034455633            4 
 1882000   0.95658186   -6.1637931    775.34936  0.034331799   0.03444646            5 
 1883000   0.95782909   -6.1943256    775.04081  0.034299912  0.034437206            4 
 1884000   0.96405429   -6.1733117    777.76573  0.034402235  0.034428022            2 
 1885000    0.9427347   -6.1924715    778.23307  0.034404645  0.034418886            5 
 1886000   0.94807426   -6.1856141    780.49561  0.034486374  0.034409757            4 
 1887000   0.94580878   -6.2111195    772.78801  0.034127716   0.03440043            7 
 1888000   0.96055674   -6.1272329     781.4409  0.034491565  0.034391327            5 
 1889000   0.95002449   -6.1953686    778.06876  0.034324544  0.034382195            5 
 1890000   0.93950847   -6.1584874    779.85036  0.034384937  0.034373059            8 
 1891000   0.95791086   -6.1579507    780.43014  0.034392303  0.034364069            3 
 1892000   0.96153781   -6.2034184     777.6462  0.034251506  0.034354918            6 
 1893000   0.94250725    -6.203649    777.25036  0.034215987  0.034345665            7 
 1894000   0.94796726    -6.163496    780.71393  0.034350314  0.034336536            5 
 1895000   0.93969976   -6.1924539    777.61429  0.034195879   0.03432742            2 
 1896000    0.9522888   -6.1952259    777.94025   0.03419217  0.034318229           11 
 1897000   0.94239514   -6.1535811    781.65912  0.034337512  0.034309188            3 
 1898000   0.94905846   -6.1411631    784.64545  0.034450538  0.034300328            5 
 1899000   0.92514711    -6.150478    782.99422  0.034359936  0.034291369            4 
 1900000   0.95057968   -6.1782482     779.6656   0.03419586  0.034282373            5 
 1901000   0.93476088   -6.1860121    779.94811  0.034190255  0.034273229            3 
 1902000   0.96224211   -6.1892066    782.47763  0.034283107  0.034264153            7 
 1903000   0.94389697   -6.2174132    781.87561  0.034238729  0.034254904            4 
 1904000   0.93638916    -6.152839     781.2906  0.034195142  0.034245723            4 
 1905000    0.9498703   -6.2100363    782.06229  0.034210949  0.034236619            9 
 1906000   0.95835281   -6.1853463    781.69864    0.0341771  0.034227439            6 
 1907000   0.93480282   -6.1587364    786.24302  0.034357762  0.034218366            5 
 1908000   0.94992061   -6.1923293    782.12842  0.034160046  0.034209276            4 
 1909000   0.95208446   -6.1959269    785.29688  0.034280465  0.034200212            9 
 1910000   0.96275184    -6.219578    783.02741    0.0341635  0.034191099            6 
 1911000   0.95306255   -6.1984637    781.68815  0.034087221  0.034182014            3 
 1912000   0.93583158   -6.1964501    784.69361  0.034200384  0.034172993            5 
 1913000   0.95988161   -6.2026574    783.53718   0.03413213  0.034163911            5 
 1914000   0.95956664   -6.2058657    781.79741   0.03403855  0.034154734            3 
 1915000   0.93013562   -6.1927207     784.2836  0.034128964  0.034145519            3 
 1916000   0.93845662   -6.1930035    784.94025  0.034139712  0.034136369            6 
 1917000   0.93791963   -6.2306479    784.57789  0.034106151  0.034127284            3 
 1918000   0.94620646   -6.2108533    781.71771  0.033964099  0.034118045            5 
 1919000   0.93490105    -6.197864    784.34367  0.034060434  0.034108946            6 
 1920000   0.93569144   -6.1547547    786.85844  0.034151842   0.03409984            7 
 1921000   0.95509019   -6.1886732    785.74692  0.034085846  0.034090777            4 
 1922000   0.94710682   -6.1599863    784.13273  0.033998124   0.03408175            4 
 1923000   0.93762919   -6.1909692    787.29077  0.034117298  0.034072544            5 
 1924000   0.93303202   -6.2115152    783.76841  0.033947003  0.034063371            4 
 1925000   0.94154261   -6.2109915    784.13226  0.033945119   0.03405425            3 
 1926000   0.92956513   -6.1847847    787.02583  0.034052692  0.034045197            8 
 1927000   0.93193699   -6.2070531    785.07788  0.033950782  0.034036127            5 
 1928000   0.93789287   -6.2016045    787.40988  0.034033968  0.034027007            4 
 1929000   0.94732813   -6.1826439    787.43011  0.034017199  0.034018116            3 
 1930000   0.94485402   -6.1812302    786.81873  0.033973175  0.034009078            4 
 1931000   0.91812214   -6.2252782    786.17656  0.033927868  0.034000058            5 
 1932000    0.9299007   -6.1962745    788.12681  0.033994427  0.033990936            4 
 1933000   0.93724457   -6.1980125    786.79642  0.033919487   0.03398186            5 
 1934000   0.95172985   -6.2028936    789.95652  0.034038113  0.033972907            7 
 1935000   0.93933295   -6.2041573    789.07892  0.033982727  0.033963961            4 
 1936000   0.94524303   -6.1979697    788.50797  0.033940598  0.033955066            6 
 1937000     0.960035   -6.2186709    787.09744  0.033862392  0.033946061            3 
 1938000   0.92143259   -6.2275316    787.64705  0.033868552  0.033937048            6 
 1939000   0.93494536   -6.2129639    789.92058  0.033948796  0.033928065            5 
 1940000   0.95001736   -6.2071591    788.79265  0.033882846  0.033919105           17 
 1941000   0.94139005   -6.1848417    788.65542  0.033859498  0.033910208            3 
 1942000   0.92099884   -6.1998699    791.07083   0.03394571  0.033901348            4 
 1943000   0.93274622   -6.2017009    788.78871  0.033830361   0.03389246            3 
 1944000   0.94223953   -6.1651236    793.23437  0.034003531  0.033883676            4 
 1945000   0.94941639   -6.2367645    791.37173  0.033906244  0.033874855            4 
 1946000   0.92870442   -6.1955696    792.29359  0.033928297  0.033865857            6 
 1947000   0.92712111   -6.1693754      792.218  0.033907636  0.033857025            6 
 1948000    0.9248409   -6.1916795    794.92613   0.03400608  0.033848073            5 
 1949000     0.946448    -6.208929    793.11743  0.033911298  0.033839061            4 
 1950000   0.94303789   -6.2345908    791.79753  0.033837501  0.033830107            3 
 1951000   0.93564619   -6.2047715    790.80736  0.033777864  0.033821088            5 
 1952000   0.93656889   -6.2091298    791.02217  0.033769731  0.033812105            8 
 1953000   0.94774168   -6.2361336    792.08686  0.033797869  0.033803012            5 
 1954000   0.94042393   -6.2038887    792.56383  0.033800914  0.033793813            6 
 1955000   0.94168603   -6.1783526    794.11345  0.033849678   0.03378483            5 
 1956000   0.92571228   -6.2227167    790.74317  0.033688785  0.033775837            3 
 1957000    0.9499133    -6.178074     793.3425  0.033782256  0.033766778            3 
 1958000    0.9211044   -6.2032572     793.9581  0.033791203  0.033757913            7 
 1959000   0.92842391    -6.248918    792.37361  0.033706551  0.033748849            8 
 1960000   0.93839996   -6.2221973    792.75522  0.033705579  0.033739873            7 
 1961000   0.94813265   -6.1816342    796.93425   0.03386598  0.033731115            9 
 1962000   0.96231363   -6.2078071    794.18833   0.03373209  0.033722216            3 
 1963000   0.93261217   -6.2340666    793.69417  0.033693928  0.033713202            3 
 1964000   0.94455516   -6.1906309    794.11332  0.033694557  0.033704144            6 
 1965000   0.94206448   -6.2120214    796.29284  0.033769841  0.033695224            4 
 1966000   0.93464389   -6.1639134    795.80698  0.033732069  0.033686336            3 
 1967000   0.93979295   -6.2544913    792.87131  0.033590549  0.033677447            6 
 1968000   0.93909581   -6.1993229     798.1334  0.033796299  0.033668606            4 
 1969000   0.93093211   -6.2100644    797.92322   0.03377024  0.033659786            2 
 1970000   0.93457366   -6.2383627    797.07197  0.033717088   0.03365096            6 
 1971000   0.94548104   -6.1816723    798.64032  0.033766291  0.033642157            4 
 1972000    0.9450626   -6.2132984    797.46253  0.033699397  0.033633378            9 
 1973000   0.92877228   -6.1978059     796.3913  0.033637071  0.033624432            2 
 1974000   0.95023722   -6.2068549    797.76636   0.03367808  0.033615538            2 
 1975000   0.92246275   -6.1967375    797.18898  0.033636666  0.033606704            5 
 1976000   0.92900749    -6.203758    797.48817  0.033632261  0.033597845            4 
 1977000   0.90538644   -6.1914615    799.53574  0.033701557  0.033589055            2 
 1978000   0.94092803   -6.2037057    797.68202  0.033606421  0.033580185            2 
 1979000    0.9212126   -6.2502101    798.11914  0.033607846  0.033571398            3 
 1980000   0.93375631   -6.2320982    798.83245  0.033620894    0.0335625            4 
 1981000   0.93247599    -6.221872    799.59056  0.033635813  0.033553619            5 
 1982000   0.91961649   -6.2185246    794.68208  0.033412465  0.033544618            3 
 1983000   0.93151599   -6.1961898    799.27329  0.033588556  0.033535559            3 
 1984000   0.94123216   -6.2480368    796.39518  0.033450738   0.03352659            4 
 1985000   0.92178908   -6.2367525    797.85813  0.033495303  0.033517493            6 
 1986000   0.93962925   -6.2211977    799.62367   0.03355252  0.033508483            2 
 1987000   0.94870136   -6.2121261    799.03729  0.033511042  0.033499608            4 
 1988000   0.93083507   -6.2090081     798.7538  0.033482302  0.033490686           11 
 1989000   0.93658605   -6.2114174    799.51938  0.033497544  0.033481844            4 
 1990000   0.93472911   -6.2429301    798.92112  0.033455658  0.033472887            4 
 1991000   0.96217795   -6.2422841    801.03834  0.033527471  0.033463974            5 
 1992000   0.94466623   -6.2323753    801.36518  0.033524313   0.03345513            4 
 1993000    0.9248741   -6.2218201    800.52592    0.0334724  0.033446314            4 
 1994000   0.91460939   -6.2241013    800.41544  0.033450996  0.033437442            6 
 1995000   0.92766498   -6.2307987    800.48297   0.03343705  0.033428506            4 
 1996000   0.92725466    -6.212851    801.18491  0.033449604  0.033419628            5 
 1997000   0.93131957   -6.2226111    800.31495  0.033396551  0.033410689            4 
 1998000   0.94520617   -6.2510445    798.43478  0.033301417  0.033401747            3 
 1999000   0.92891882   -6.2199131    801.22769  0.033401188  0.033392683            2 
 2000000   0.92551414   -6.2595516    801.89472   0.03341228   0.03338383            7 
 2001000   0.89626012    -6.234223    803.00785   0.03344194   0.03337497            5 
 2002000   0.93075897   -6.2282194    803.33315  0.033438776   0.03336626            3 
 2003000   0.95142091   -6.2408446     802.4022   0.03338335  0.033357528            5 
 2004000   0.92685748   -6.2504763    804.35995  0.033448102  0.033348764            5 
 2005000   0.94383522   -6.2214225     801.3105  0.033304676  0.033339936            5 
 2006000   0.92814048   -6.2400668    803.89364  0.033395382  0.033331162            4 
 2007000   0.92327729   -6.2475243    803.53102  0.033363686  0.033322254            6 
 2008000   0.92851337    -6.247273    804.68761   0.03339507  0.033313504            4 
 2009000   0.92589453   -6.2125328    805.39121  0.033407633  0.033304772            4 
 2010000   0.91879451   -6.2186969     803.9686  0.033332031  0.033295994            6 
 2011000   0.94569427   -6.2476275    805.08997  0.033361925  0.033287317            4 
 2012000   0.93032681   -6.2082488     807.7621  0.033456018  0.033278764            3 
 2013000    0.9089063   -6.2279755    805.87865  0.033361428   0.03327007            9 
 2014000   0.92753723   -6.2070842    807.57389  0.033415007  0.033261459            4 
 2015000   0.94703142   -6.2234977     805.4975  0.033312552  0.033252778            4 
 2016000   0.93686201   -6.2241031     807.4873  0.033378278  0.033244009            6 
 2017000   0.95672552   -6.2245693    807.14202  0.033347464  0.033235355            4 
 2018000   0.91419453   -6.2399376    803.84502  0.033194789  0.033226563            3 
 2019000    0.9363488   -6.2442966    804.95859   0.03322431  0.033217767            2 
 2020000   0.91876139   -6.2561266    806.56196  0.033274008  0.033209071            3 
 2021000   0.92745739   -6.2281516    809.64564  0.033384696  0.033200338            7 
 2022000   0.93807627   -6.2435921    806.74402  0.033248599  0.033191547            5 
 2023000   0.94272794   -6.2417101    808.99948  0.033325073  0.033182696            3 
 2024000   0.93811429   -6.2440535    809.49429  0.033328981  0.033173872            6 
 2025000   0.92796652   -6.2683261    804.72989  0.033116456  0.033165044            3 
 2026000   0.93908736   -6.2506859    807.61835  0.033218918  0.033156265            3 
 2027000   0.91238639   -6.2410929    806.91269   0.03317352   0.03314749            6 
 2028000   0.89744275   -6.2544809    808.72878  0.033231788   0.03313877            4 
 2029000   0.93591641   -6.2585823    807.89831  0.033181301  0.033130053            5 
 2030000   0.93422213   -6.2429934    809.42109  0.033227467  0.033121299            7 
 2031000    0.9288775    -6.250513     808.1984  0.033160939  0.033112524            7 
 2032000   0.92501197   -6.2618304    810.20824  0.033227044  0.033103854            4 
 2033000   0.92657566   -6.2400428    809.11266  0.033165792  0.033095104            7 
 2034000   0.92537141   -6.2659379    809.36436  0.033159798  0.033086288            4 
 2035000   0.92065906   -6.2529999    811.42725  0.033227979  0.033077608            5 
 2036000   0.91931142   -6.2408254    811.28396  0.033205794   0.03306905            5 
 2037000   0.93030968   -6.2535228    808.78125  0.033087107  0.033060333            4 
 2038000   0.91934476   -6.2487739     808.9911  0.033079453  0.033051696            7 
 2039000   0.94198008   -6.2566019    810.69207  0.033132748  0.033043084            4 
 2040000   0.92482465   -6.2802222    810.83141  0.033122198  0.033034409           11 
 2041000   0.92381661   -6.2571459    812.37783   0.03316911  0.033025663            3 
 2042000   0.94983117   -6.2427077    811.09611   0.03310056  0.033017052            7 
 2043000   0.91278467   -6.2282418    811.34169  0.033094375  0.033008469            3 
 2044000   0.91684691   -6.2513875    814.22141  0.033195589  0.032999892            3 
 2045000   0.91833018   -6.2281257    813.27746  0.033140891  0.032991303            2 
 2046000   0.92409809   -6.2423467    808.16961  0.032916651  0.032982597           10 
 2047000   0.92246635   -6.2845284    812.39622  0.033072635  0.032973836           11 
 2048000   0.92642365   -6.2849673    811.63116  0.033025356  0.032964966            5 
 2049000   0.92423989   -6.2512173    810.96187  0.032982018  0.032956231            5 
 2050000   0.92815473   -6.2526539    812.91602  0.033045367  0.032947445            3 
 2051000   0.91380575   -6.2515303     810.5362  0.032932561  0.032938772            5 
 2052000   0.92816542   -6.2497167    812.94432  0.033014308   0.03293013            7 
 2053000   0.91858289    -6.217805      812.946  0.032998295  0.032921435            8 
 2054000   0.92939602   -6.2462902    813.25667  0.032994834  0.032912725            3 
 2055000   0.92247687   -6.2407819    814.27651  0.033020134  0.032904072            7 
 2056000   0.93624134   -6.2558542    814.11852   0.03299767  0.032895461            4 
 2057000   0.92882358   -6.2413566    815.42827  0.033034689   0.03288689            7 
 2058000   0.91887878   -6.2894194    814.26425  0.032971504  0.032878267            6 
 2059000   0.91103831   -6.2794695    813.22979  0.032913623  0.032869498            5 
 2060000   0.93403927     -6.22706    817.32354   0.03306325  0.032860755            7 
 2061000   0.91864542   -6.2494553    813.68025  0.032899897  0.032852122            3 
 2062000   0.92207802   -6.2364691    814.95772  0.032935569  0.032843309            4 
 2063000    0.9367003    -6.234287     814.1467  0.032886844  0.032834735            2 
 2064000   0.92507223   -6.2607081    813.55782  0.032847134  0.032826068            5 
 2065000   0.91926812   -6.2695276    817.39552  0.032986099  0.032817373           13 
 2066000   0.92184673   -6.2479139    816.32981  0.032927146  0.032808743            3 
 2067000   0.90832233   -6.2536313     815.3351  0.032871114  0.032800103            3 
 2068000   0.91496791   -6.2409139    817.42885  0.032939589  0.032791447            7 
 2069000   0.91833838   -6.2659825    816.92856  0.032903519  0.032782932            2 
 2070000   0.92098236   -6.2354708     819.0298  0.032972214  0.032774443            4 
 2071000   0.92151665    -6.227939    817.70324  0.032902915   0.03276572            5 
 2072000   0.90696298   -6.2343908    818.70104  0.032927165  0.032757059            6 
 2073000    0.9257561   -6.2703007    816.66672  0.032829503  0.032748306            4 
 2074000   0.92611446   -6.2952065    816.15866   0.03279326  0.032739602            2 
 2075000   0.93773536   -6.2606607    816.65372  0.032797338  0.032730929            4 
 2076000   0.90087046   -6.2611448    818.37564   0.03285066  0.032722361           11 
 2077000   0.91304398   -6.2818058    818.56565  0.032842467  0.032713748            5 
 2078000   0.92741165   -6.2876025    817.47799  0.032783044  0.032705121            7 
 2079000   0.90075854   -6.2347272    817.13451  0.032753508   0.03269652            7 
 2080000   0.92004365   -6.2235919    820.88887  0.032888176  0.032688019            4 
 2081000   0.91278391   -6.2516671    818.71751   0.03278542  0.032679559            5 
 2082000   0.92013894    -6.277584    819.39929  0.032796962  0.032670904            3 
 2083000   0.92127263   -6.2488581    819.72323  0.032794176  0.032662219            5 
 2084000    0.9054937   -6.2484982    819.65725  0.032775802  0.032653571           16 
 2085000   0.92604225   -6.2336411    819.74533  0.032763602  0.032644986            3 
 2086000   0.91530103   -6.2802884    820.54879  0.032779993  0.032636421            4 
 2087000   0.91515743   -6.2323246     820.2827  0.032753661  0.032627724            4 
 2088000    0.9194176   -6.2507412    819.09238  0.032690469  0.032619095            5 
 2089000   0.92758375   -6.2690913    818.45547  0.032649412  0.032610408            8 
 2090000    0.9398238   -6.2792617    817.79531  0.032607468  0.032601678            5 
 2091000   0.90437739   -6.2340949    820.02362   0.03268068  0.032592989            6 
 2092000   0.91592478      -6.2567     820.3679  0.032678772   0.03258421            5 
 2093000   0.92620346   -6.2693164    819.72932  0.032637734  0.032575418            3 
 2094000   0.93249935   -6.2772763    820.30411  0.032645022   0.03256656            9 
 2095000   0.92328803   -6.2878293     817.6633  0.032524395  0.032557799            6 
 2096000     0.910922   -6.2603379    820.12291  0.032606668  0.032549019            4 
 2097000   0.92455796   -6.2652623    819.46054  0.032564796  0.032540249            4 
 2098000   0.92798208   -6.2830744    821.15526   0.03261659  0.032531507            4 
 2099000   0.93533851    -6.264232    821.67866   0.03262183  0.032522752            3 
 2100000   0.91579795   -6.2918732    819.99357  0.032539428  0.032513983            6 
 2101000   0.91579537   -6.2642405    824.10833  0.032687146  0.032505242            6 
 2102000   0.92888443    -6.243963    823.43194   0.03264478  0.032496585            6 
 2103000   0.89844877   -6.2960932    822.39786  0.032588281  0.032488008            8 
 2104000   0.89592734   -6.2921207    821.62423  0.032542151  0.032479373            6 
 2105000   0.90029881   -6.2559915    822.47057  0.032560197  0.032470796            4 
 2106000     0.900174   -6.2621221    823.82453  0.032598312  0.032462217            4 
 2107000   0.91171773   -6.2552243    825.42409  0.032646104  0.032453744            6 
 2108000   0.89392989   -6.2684132    824.60901  0.032598395  0.032445278            4 
 2109000   0.90710696   -6.2744357     825.6933  0.032625782   0.03243684            7 
 2110000   0.91209532   -6.3192762    822.06892  0.032467177  0.032428202            3 
 2111000   0.91400988   -6.2924259    825.00818  0.032567827  0.032419726            9 
 2112000   0.90778713   -6.2787302    824.29942  0.032524441  0.032411149            3 
 2113000   0.92689706   -6.2636389    824.69937  0.032524821  0.032402564           14 
 2114000   0.91658759   -6.2790639    823.75027  0.032472023  0.032394004            5 
 2115000   0.90331667   -6.2716115    825.31461  0.032518306  0.032385365            5 
 2116000    0.9323232   -6.2434652    825.24166  0.032500065  0.032376788            4 
 2117000   0.92421637   -6.2022768    829.86219  0.032666595  0.032368426            4 
 2118000   0.91707627    -6.254472    825.76592  0.032490003  0.032359921            5 
 2119000   0.90435452   -6.2720919    827.76348  0.032553228  0.032351211            3 
 2120000   0.90072409   -6.2646076     823.5162   0.03237092  0.032342415            3 
 2121000   0.89632599   -6.2848199    824.65924  0.032400567  0.032333596            5 
 2122000   0.92091456   -6.2692645      824.491  0.032378692  0.032324869            8 
 2123000   0.90025389   -6.2709696    826.26011  0.032432882  0.032316076            4 
 2124000   0.90696875   -6.2798034    824.88442  0.032363638  0.032307402            6 
 2125000   0.93973729   -6.3101493    824.47354  0.032332296  0.032298739            5 
 2126000   0.87924651   -6.2781553    824.42977  0.032315372   0.03228997            5 
 2127000   0.89318055   -6.2874578    824.42929   0.03230016  0.032281197            6 
 2128000   0.90225367   -6.2916359    825.79362  0.032338409  0.032272484            6 
 2129000   0.92726934   -6.2915953    827.58143  0.032393198  0.032263689            5 
 2130000   0.91031737   -6.2906469    827.52817  0.032375906  0.032254945            3 
 2131000   0.91032315    -6.303587    827.26631  0.032350473  0.032246221            9 
 2132000   0.92155687   -6.3150286    822.77403   0.03215971  0.032237443            7 
 2133000   0.91319209   -6.2510255    828.65729  0.032374484  0.032228738            3 
 2134000   0.91895423   -6.2712613    828.72805  0.032362076  0.032220164            4 
 2135000    0.9091288   -6.2645739    828.16436  0.032324916  0.032211498            8 
 2136000   0.90361412   -6.3188011    825.50823  0.032206158  0.032202595            5 
 2137000    0.8980715   -6.3217175    825.80355  0.032202603  0.032193692            6 
 2138000   0.90158858   -6.2654486    828.00943   0.03227352  0.032184844            5 
 2139000   0.93010685   -6.3067021    827.37858  0.032233855  0.032175984            2 
 2140000   0.91544099   -6.2364535    828.18249  0.032250097  0.032167132            4 
 2141000   0.90480694   -6.3166914    825.42012  0.032127515  0.032158349            4 
 2142000   0.90966068   -6.2413456    832.36825   0.03238283  0.032149671            9 
 2143000   0.91480294   -6.2810261    828.36501  0.032212047  0.032141043            6 
 2144000    0.9072148   -6.2994998    825.45905  0.032084074  0.032132252            5 
 2145000   0.92252382   -6.3047159    826.05754  0.032092368  0.032123384           11 
 2146000   0.92217489   -6.3009013    830.67028  0.032256534  0.032114567            3 
 2147000   0.88871927   -6.2498894    829.72506  0.032204823  0.032105954            8 
 2148000   0.91639673   -6.3046624    829.33723  0.032174784   0.03209719            5 
 2149000   0.90701541   -6.2890652    828.32333  0.032120495  0.032088485            9 
 2150000   0.92290981   -6.2825288    829.59677  0.032154914  0.032079683            7 
 2151000   0.89467589   -6.2874614    831.25459  0.032204191  0.032070969            8 
 2152000   0.90224856   -6.3090549    828.77309  0.032093134  0.032062242            6 
 2153000   0.91627077   -6.2927054    830.46282   0.03214363  0.032053611            4 
 2154000   0.90433626   -6.2777685    831.13356  0.032154656  0.032044923           12 
 2155000   0.90279507   -6.2722397    830.84796  0.032128692   0.03203632            3 
 2156000   0.91769185   -6.2431205    833.91975   0.03223252  0.032027751            8 
 2157000   0.89952412   -6.2798122    832.51459  0.032163289  0.032019283            7 
 2158000   0.91995185   -6.3168206    833.89089  0.032201533  0.032010804            5 
 2159000   0.91630307   -6.2917589    832.68378  0.032140025  0.032002245            5 
 2160000   0.89831492   -6.2915136    833.54396  0.032158332  0.031993878            5 
 2161000   0.89836439   -6.2613979    835.27043  0.032210027   0.03198538            5 
 2162000   0.91027443   -6.2532209    835.79746  0.032215443  0.031976927            9 
 2163000   0.91287431   -6.2784062    835.25986  0.032179837  0.031968447            3 
 2164000   0.91065226   -6.2553907     838.8052  0.032301494  0.031960043            4 
 2165000   0.92515186   -6.3120108    833.94874  0.032099643  0.031951561            5 
 2166000    0.8953401   -6.2857506    837.04081  0.032203786  0.031942947            4 
 2167000   0.90787289   -6.3127209    832.90104  0.032029728  0.031934381            4 
 2168000   0.92616507   -6.2638419    836.10715   0.03213819  0.031925921            5 
 2169000   0.91533266   -6.3268336    834.85302  0.032075189  0.031917437            6 
 2170000   0.89558358   -6.2847822    837.16748  0.032149289  0.031908866            2 
 2171000   0.91052919   -6.2661574    834.30018   0.03202442   0.03190027            5 
 2172000   0.91205686   -6.3252876    831.33484  0.031895904  0.031891773            9 
 2173000   0.89820041   -6.2936942    835.57755  0.032043931  0.031883274           16 
 2174000   0.91566755   -6.2821618    835.74662  0.032035672  0.031874782            5 
 2175000    0.9222689   -6.2893351    835.32662  0.032004851  0.031866124            6 
 2176000   0.89867151   -6.3217873    834.49748   0.03195839  0.031857494            5 
 2177000   0.92286727   -6.2859676    834.69409  0.031951236  0.031848847            5 
 2178000   0.90264504   -6.2916644    833.46277  0.031889454  0.031840257            6 
 2179000   0.90693689     -6.31705    835.76713  0.031962947  0.031831617            7 
 2180000   0.91044014   -6.2923668    837.26715  0.032005625  0.031822993            5 
 2181000   0.91979909    -6.295605    838.66881  0.032044506   0.03181452            4 
 2182000   0.91566545   -6.3006643    838.72539  0.032031981  0.031806079           10 
 2183000   0.91750192   -6.2861112    836.03323  0.031914538   0.03179765           12 
 2184000   0.89775313   -6.2974128     838.8598  0.032007776  0.031789179            4 
 2185000   0.89809871   -6.3046762    838.16621  0.031966675  0.031780805           10 
 2186000     0.894491   -6.3272729    836.25921  0.031879354  0.031772337            2 
 2187000   0.91606973   -6.3451646    835.43948  0.031833542  0.031763761            5 
 2188000   0.90332883   -6.3484353    836.88964  0.031874224  0.031755171            3 
 2189000   0.90923309   -6.3090175    838.95451  0.031938271  0.031746668            5 
 2190000   0.91493569   -6.2976954    838.05839  0.031889588  0.031738117            4 
 2191000   0.89442643   -6.3185302    838.33692  0.031885627  0.031729579            4 
 2192000    0.8802706   -6.3208156     838.6905  0.031884523  0.031720989            5 
 2193000   0.90087808   -6.2934155    841.45234  0.031974933  0.031712436           10 
 2194000   0.89904359    -6.308378    839.39571  0.031882244  0.031703974           12 
 2195000   0.89054256   -6.2941707       838.86  0.031847381  0.031695528            4 
 2196000   0.89344308   -6.2829726    840.32881  0.031888616  0.031687075            5 
 2197000   0.88468343   -6.2954265     837.5396  0.031768305  0.031678629            9 
 2198000   0.88203492   -6.3174317    839.96948  0.031845977  0.031670127            6 
 2199000   0.88787689    -6.309907    839.90485  0.031829045  0.031661624            7 
 2200000    0.9035488   -6.2892044    841.73583  0.031883933  0.031653181            5 
 2201000   0.91010831   -6.3233954    838.66477  0.031753172  0.031644643            5 
 2202000   0.90050372   -6.2965599     841.3439  0.031840142  0.031636157            5 
 2203000   0.91345806   -6.2865034    840.93984  0.031810404  0.031627692            3 
 2204000   0.88959524   -6.3031886    839.09992  0.031726404   0.03161915            9 
 2205000   0.89907199   -6.2887165    842.89657  0.031855502  0.031610722            4 
 2206000   0.87795048   -6.3080364     841.6702  0.031794734  0.031602232            5 
 2207000   0.90824559   -6.3443372    840.98576  0.031754484  0.031593754           13 
 2208000   0.90016349   -6.3161267    842.30476  0.031789884  0.031585362            8 
 2209000   0.90396861   -6.3235303    842.27996  0.031774557  0.031576955            4 
 2210000   0.86942754   -6.3279292    838.54128  0.031619204  0.031568507           10 
 2211000   0.88587215   -6.3086499    840.91272  0.031694283  0.031560024            4 
 2212000   0.91303522   -6.2869513    841.80657  0.031713629  0.031551589            7 
 2213000   0.88617784   -6.3485947    841.35129  0.031682154  0.031543144           10 
 2214000   0.88864418   -6.3057227    842.54843  0.031712904   0.03153477            8 
 2215000   0.88826201   -6.2593049    846.40058  0.031843513  0.031526449            4 
 2216000   0.91921285   -6.2892761     843.1565  0.031707149  0.031518191            3 
 2217000   0.90028862   -6.2966353    844.90435  0.031758546   0.03150987            4 
 2218000    0.8924715   -6.3079295    844.49996  0.031729034  0.031501567            4 
 2219000   0.89911205   -6.3122337    843.58899  0.031680524   0.03149332            5 
 2220000    0.8908137   -6.3179928    844.90105  0.031715505  0.031484991            7 
 2221000    0.9021886    -6.342384    842.37017  0.031606265  0.031476595            2 
 2222000   0.89355038   -6.2919532    844.65604  0.031677769  0.031468291            3 
 2223000   0.90091619   -6.3226838     843.1161  0.031605792  0.031460093            4 
 2224000   0.88490586   -6.3096956    843.44133  0.031603767  0.031451799            4 
 2225000   0.89120616   -6.3296496    846.60986  0.031708235  0.031443512            6 
 2226000   0.87818031   -6.2994057    845.96581  0.031669879  0.031435313            5 
 2227000   0.88774248   -6.3242137    845.54884  0.031640055  0.031427091            5 
 2228000   0.88898121   -6.3405049    846.17282  0.031649193  0.031418888            9 
 2229000   0.89452517   -6.3107475    847.23978  0.031674883  0.031410634            9 
 2230000   0.90648194   -6.3287328    847.80159  0.031681674  0.031402437           10 
 2231000   0.92712112    -6.314278    849.62942  0.031735747  0.031394251            2 
 2232000   0.87706716   -6.3178919    847.73807  0.031650914  0.031386026            3 
 2233000    0.8944367    -6.353811    844.09463   0.03150077  0.031377676            7 
 2234000   0.91503162   -6.3342101    845.56504  0.031541519  0.031369297            8 
 2235000   0.92220169   -6.3262884    847.65564  0.031605356  0.031361021            5 
 2236000   0.87832871   -6.2913849    846.94183  0.031564618  0.031352787            4 
 2237000   0.89127491    -6.343552    846.77333  0.031544231  0.031344438            3 
 2238000   0.88393137   -6.3828058    845.65647  0.031488549  0.031336074           12 
 2239000   0.89554246   -6.3443728    846.54743  0.031507646   0.03132771           12 
 2240000   0.89554752   -6.3132249    850.40457  0.031637075  0.031319406            9 
 2241000   0.87856996   -6.3049553    849.22307  0.031579022   0.03131109            4 
 2242000   0.89619994   -6.3315623    846.50409  0.031463875  0.031302771            2 
 2243000   0.91046512   -6.3261562     848.3779  0.031519464  0.031294335            3 
 2244000   0.91630969   -6.3302653    848.08515  0.031494546  0.031286025           10 
 2245000   0.89783769   -6.2923677    851.29963  0.031599838  0.031277748            6 
 2246000   0.89153283   -6.3466867    847.73125  0.031453371  0.031269366           10 
 2247000   0.88251101   -6.3336279     848.2394  0.031458218  0.031261037            9 
 2248000   0.89581177   -6.3356513    848.70463  0.031461471  0.031252727            4 
 2249000   0.89717632   -6.3397619    850.96629  0.031531284  0.031244374            5 
 2250000   0.88614219   -6.3548536    846.19413  0.031340523  0.031236002            5 
 2251000   0.89499668   -6.3793993    848.58315  0.031415043  0.031227522            7 
 2252000   0.89585333   -6.3173548    849.56482  0.031437419  0.031219196           10 
 2253000   0.88271807   -6.3312048    847.98371  0.031364984    0.0312108            4 
 2254000   0.88888818    -6.340228    850.43819  0.031441814  0.031202543            5 
 2255000   0.87010598   -6.3466666    850.90185  0.031445006  0.031194344            5 
 2256000   0.89901396   -6.3552924    850.49482  0.031416032  0.031186103            3 
 2257000   0.88946541   -6.3323311    849.24003  0.031355783  0.031177783            6 
 2258000   0.88744005   -6.3717999    850.11739  0.031374276  0.031169348            4 
 2259000   0.87587221   -6.3344362    849.43441  0.031335193  0.031160908            5 
 2260000   0.90054293   -6.3381575    852.33007    0.0314281  0.031152523            7 
 2261000   0.89759055   -6.3272358    850.60707  0.031350696  0.031144132            7 
 2262000   0.85975601   -6.3273229    851.46393  0.031368403  0.031135807            6 
 2263000   0.89277637   -6.3091396    852.19324  0.031381398  0.031127541            2 
 2264000    0.8839936    -6.323375    850.24687  0.031295895  0.031119261            5 
 2265000   0.89994668   -6.3435713     851.6588  0.031334025  0.031110956            5 
 2266000   0.87027553   -6.3238316    852.24025   0.03134158   0.03110258            8 
 2267000   0.90140751    -6.300942    853.97732  0.031391609  0.031094247            4 
 2268000   0.89942529   -6.3126142    852.16872  0.031311314  0.031085885            3 
 2269000   0.88123666   -6.3458643    850.66233  0.031242189  0.031077521            2 
 2270000   0.87754374   -6.3552436    852.54135  0.031297406  0.031069165            4 
 2271000   0.89971779   -6.3587575    850.23052   0.03119883  0.031060743            3 
 2272000   0.90331709   -6.3514412    850.97188   0.03121229   0.03105237            5 
 2273000   0.90791965   -6.3035912    854.32106  0.031321347  0.031044099            3 
 2274000     0.894085   -6.3752505    851.13296  0.031190742  0.031035838            6 
 2275000   0.88935234   -6.3525387    851.40557  0.031187017   0.03102742           11 
 2276000   0.89616367   -6.3298786     850.9681  0.031157297  0.031018945            5 
 2277000   0.86489608    -6.355608    850.91433  0.031141646  0.031010427            5 
 2278000   0.88126809   -6.3156896    851.61392  0.031153567  0.031001935            4 
 2279000   0.87501123   -6.3526875    853.55264  0.031210788  0.030993505            7 
 2280000   0.87235964   -6.3090616    854.87392  0.031245392  0.030985192            8 
 2281000   0.91099732   -6.3337349    854.58419  0.031221109  0.030976829            6 
 2282000   0.90421125   -6.3416187    854.13229  0.031190925  0.030968399            6 
 2283000   0.89383471   -6.3788976     853.4821   0.03115353  0.030959874            5 
 2284000   0.89553304   -6.3600484    853.84694  0.031153201   0.03095136            5 
 2285000   0.87373686   -6.3277161    855.45103  0.031198068  0.030942984            5 
 2286000   0.90294191   -6.3428491    852.88796  0.031090987  0.030934656            8 
 2287000   0.88014186    -6.353929    854.15048  0.031123396  0.030926367            3 
 2288000   0.88391392   -6.3404441    856.32826  0.031189112  0.030918161           12 
 2289000   0.88532584   -6.3852783    853.82432  0.031084328  0.030909851            6 
 2290000   0.88718957   -6.3290356    857.06424  0.031188655  0.030901592            7 
 2291000   0.89947367   -6.3291016    855.12621  0.031104547  0.030893429            6 
 2292000   0.89855125   -6.3490933    854.77221  0.031078105  0.030885199           10 
 2293000    0.8922519   -6.3426943    857.72295  0.031171789  0.030876919            9 
 2294000   0.88672077   -6.3558996    857.55759  0.031152194  0.030868734            4 
 2295000   0.89190182   -6.3292977    858.06718  0.031157124   0.03086051            4 
 2296000   0.89312027   -6.3180701    856.74431   0.03109554  0.030852284            6 
 2297000   0.90001434    -6.356764     857.5635  0.031111722  0.030844074            6 
 2298000   0.87878134   -6.3569807    854.75767  0.030996434  0.030835759            2 
 2299000   0.87045905   -6.3284361    859.95423  0.031171315  0.030827495            5 
 2300000    0.8822754   -6.3421254    858.35813  0.031099932  0.030819259            9 
 2301000   0.87467696   -6.3172257    859.17377  0.031115956  0.030811149            4 
 2302000   0.88275162   -6.3526335    859.56369  0.031116554   0.03080309            4 
 2303000   0.87376231   -6.3492726    859.37781  0.031096317  0.030794856            6 
 2304000   0.90539031   -6.3763565    858.50374  0.031051206  0.030786626            9 
 2305000   0.87836046   -6.3398387     857.8446  0.031013904  0.030778408            6 
 2306000   0.88117755   -6.3204642    862.09372  0.031154008  0.030770277           11 
 2307000   0.87765871   -6.3923537    855.21539  0.030892046  0.030762098           31 
 2308000   0.87728527   -6.3494052    859.51016  0.031033729  0.030753799            7 
 2309000   0.88938218   -6.3860515    858.61351  0.030987928  0.030745516           22 
 2310000   0.89258022    -6.354229    860.36656  0.031037755  0.030737213            9 
 2311000   0.89772576   -6.2974697    863.55959  0.031139463   0.03072909            5 
 2312000   0.89216025   -6.3646861    859.10881  0.030965571  0.030720932            5 
 2313000   0.90912833   -6.3354043    860.26712  0.030993916  0.030712733            7 
 2314000   0.86760662   -6.3525053     859.2456  0.030943734  0.030704521            4 
 2315000    0.8596426   -6.3496812    859.91933   0.03095462  0.030696229            5 
 2316000   0.88176913   -6.3567632    857.67512  0.030860504  0.030687932            3 
 2317000   0.88146303   -6.3476318    860.96127  0.030965375  0.030679717            7 
 2318000   0.87795883   -6.3254626    861.31177  0.030964617  0.030671471           19 
 2319000   0.88177099   -6.3812394    861.67132  0.030964184  0.030663148            6 
 2320000   0.88836681   -6.3554672    859.79036  0.030883275  0.030654884            4 
 2321000   0.87760289   -6.3394423    864.66536  0.031045001  0.030646638            4 
 2322000   0.88467853   -6.3805377     859.7411  0.030854906  0.030638456            8 
 2323000   0.88295184    -6.349399    864.01809  0.030995053  0.030630281            6 
 2324000   0.90146465   -6.3391712    863.73562  0.030971587  0.030622169            5 
 2325000   0.88168781   -6.3283844    864.23325  0.030976102  0.030614147            7 
 2326000   0.87902844   -6.3636877     862.0849  0.030885816  0.030606185            3 
 2327000    0.8677869   -6.3399181    864.96242  0.030975592  0.030598028            4 
 2328000   0.86978937   -6.3624399    862.77144  0.030883858  0.030589877            7 
 2329000   0.88288849   -6.3512054    861.32969   0.03081901  0.030581789            7 
 2330000   0.86157947   -6.3956925    862.32871  0.030841513  0.030573544            5 
 2331000   0.88381744   -6.3450988    862.29997  0.030827255  0.030565301            6 
 2332000   0.87081998   -6.3735327    863.67435  0.030863149  0.030557272           25 
 2333000   0.87393199   -6.3002242    867.82006  0.030998002  0.030549215           10 
 2334000   0.86898983   -6.3558279    859.53749  0.030688999  0.030541084            9 
 2335000   0.88400521   -6.3577975    862.18126  0.030770209  0.030532994            4 
 2336000   0.87406002   -6.3158291    864.89186  0.030853733  0.030524842            7 
 2337000   0.86460893   -6.3614442     865.2054  0.030851712  0.030516743            7 
 2338000   0.86921988   -6.3589229    864.15941  0.030801234  0.030508687            7 
 2339000   0.87030279   -6.3394252      865.007  0.030818263  0.030500673            4 
 2340000   0.87068789   -6.3390046    864.23881  0.030777735  0.030492551            4 
 2341000   0.86746958   -6.3861415    864.14592  0.030761281  0.030484458            9 
 2342000    0.8918621   -6.3680078    864.92494  0.030775866  0.030476349            5 
 2343000   0.86851612   -6.3815837    863.61809   0.03071625  0.030468149            8 
 2344000    0.8808098   -6.3512412    865.91405  0.030784771   0.03046007            6 
 2345000   0.86519478   -6.3314685    868.09715  0.030849224  0.030451993            6 
 2346000   0.88915635    -6.378746    864.57987  0.030711135  0.030443951            7 
 2347000   0.87751451   -6.3684338     866.4614  0.030764856  0.030435898           13 
 2348000   0.87567149   -6.3689997    866.31967  0.030746723  0.030427798            8 
 2349000   0.86665138   -6.3893223     864.0353  0.030652593  0.030419676            8 
 2350000   0.86349147   -6.3866832    864.91034  0.030670579  0.030411563            6 
 2351000   0.89776724    -6.381082    865.45253  0.030676752  0.030403379            6 
 2352000   0.89047213    -6.373124    864.32496  0.030623759  0.030395232           12 
 2353000   0.87041822    -6.353553    866.95234  0.030703795  0.030387165            7 
 2354000   0.87480278    -6.387347    866.92967  0.030689948  0.030379097            4 
 2355000   0.88316728   -6.4039796    867.78037  0.030707019  0.030370897            5 
 2356000    0.8697947   -6.3871713    867.82111  0.030695427  0.030362764            7 
 2357000   0.88760354   -6.3768525    865.63275  0.030605033  0.030354568            9 
 2358000   0.86631441   -6.3897996     863.5879  0.030519787  0.030346402            7 
 2359000   0.84685582   -6.3914367    866.71042  0.030617155  0.030338156            4 
 2360000   0.87166859   -6.3763048    866.77818  0.030606574  0.030329958            9 
 2361000   0.87886251   -6.3478676    868.18012  0.030643093  0.030321855            6 
 2362000   0.87419946   -6.3655265     867.9352  0.030621479  0.030313825            9 
 2363000   0.88800393   -6.4023921    867.22127  0.030583343  0.030305728            4 
 2364000   0.88432566   -6.4050905    865.63145  0.030514363  0.030297469            5 
 2365000   0.87709394   -6.3926633    865.80127  0.030507444    0.0302893           10 
 2366000   0.87018147   -6.3479953    870.35053   0.03065478  0.030281151            5 
 2367000   0.89753629    -6.369262    865.69188  0.030477816  0.030273062            3 
 2368000   0.86440936    -6.405202    867.52777  0.030529553  0.030264867           12 
 2369000   0.88364882   -6.3901353    866.60734  0.030484288  0.030256665            5 
 2370000   0.88249808   -6.3717023    867.36124  0.030497934  0.030248497           15 
 2371000   0.87318982   -6.3473707    871.45767  0.030629048    0.0302403            6 
 2372000   0.85548828   -6.3568769    869.39409  0.030543637  0.030232214            9 
 2373000   0.88566034    -6.332998    869.49438  0.030534288  0.030224187           11 
 2374000    0.8844349   -6.4062574     867.0506  0.030435643  0.030216045            6 
 2375000   0.87833966   -6.3925527    867.61089  0.030442487  0.030207835            4 
 2376000   0.87132884   -6.3678736    868.13397  0.030448021  0.030199653            6 
 2377000   0.87157767   -6.3687858    868.87262  0.030461107   0.03019146            4 
 2378000   0.88396133   -6.3736607    868.30431  0.030428382  0.030183224            8 
 2379000   0.85985797   -6.3853844    869.06089  0.030442094  0.030175027           13 
 2380000     0.859511   -6.3721961    869.96091  0.030460816  0.030166752            4 
 2381000   0.87722211   -6.3974607    869.49654   0.03043177  0.030158557            9 
 2382000   0.85390622   -6.3534961    871.38731  0.030485142  0.030150419           10 
 2383000   0.87507816   -6.3719015    870.88222  0.030454687  0.030142232            5 
 2384000   0.89766875   -6.3789537    868.25537   0.03035009  0.030133956            8 
 2385000   0.86304456   -6.3788561    869.66698  0.030386687  0.030125742           10 
 2386000   0.86413911   -6.4111832    868.90825  0.030347452  0.030117473            6 
 2387000   0.88033174   -6.4020297    868.11048  0.030306887  0.030109182            6 
 2388000   0.85834728   -6.3925465    869.82036  0.030353865  0.030100947            6 
 2389000   0.86351407   -6.4073868    872.23729  0.030425467  0.030092672            7 
 2390000   0.86371157   -6.4057818    869.48033  0.030316608  0.030084351            6 
 2391000   0.87627258    -6.384659    870.84315  0.030351427  0.030076057           10 
 2392000   0.88001201   -6.3540551    871.82654  0.030372998  0.030067886           11 
 2393000   0.88645864   -6.3789574    870.06875  0.030299093  0.030059738           13 
 2394000   0.86604201   -6.3923486    870.68936   0.03030804  0.030051466            5 
 2395000   0.87173621   -6.3899362    869.27613  0.030246212   0.03004317            8 
 2396000    0.8764586   -6.4116836    869.42137   0.03023864  0.030034896            9 
 2397000   0.87578272   -6.4090635    869.49374  0.030228541  0.030026625            4 
 2398000    0.8760929   -6.4128645    869.42621  0.030213588  0.030018311            8 
 2399000   0.86132852   -6.3939211    869.47781  0.030202786  0.030009975            9 
 2400000   0.86605921   -6.3539223    873.11119  0.030316361  0.030001703            7 
 2401000   0.86637932   -6.3613839    870.32027  0.030206868  0.029993443            7 
 2402000   0.88380828   -6.3978251    873.23293  0.030295342  0.029985144            5 
 2403000   0.86651712   -6.3796116    870.68163  0.030194258  0.029976853            5 
 2404000   0.88365167   -6.3894011    871.44265  0.030208079  0.029968707           10 
 2405000     0.848022   -6.3867817    871.53452  0.030198701   0.02996047            6 
 2406000   0.87776158   -6.3954086     871.4745  0.030184071  0.029952215            8 
 2407000   0.84909508    -6.415495    869.51479  0.030103683  0.029943931           11 
 2408000   0.85365764   -6.4088311    871.32741  0.030153911  0.029935581            6 
 2409000   0.86785157   -6.4124148    870.54353  0.030114277  0.029927248            8 
 2410000   0.88585791   -6.3842138    873.55484  0.030205907   0.02991898            6 
 2411000   0.86219998    -6.376043    872.05525  0.030141547  0.029910668           10 
 2412000   0.86156646   -6.4052014    873.18105  0.030167947  0.029902418            9 
 2413000   0.85546683   -6.3989402    873.32526  0.030160425  0.029894117            4 
 2414000   0.86251873   -6.3523411    873.61264  0.030157851  0.029885963            5 
 2415000   0.86562028   -6.4035303    870.18646  0.030027138  0.029877729            5 
 2416000   0.86736037   -6.4133178     870.4398  0.030023448  0.029869473           10 
 2417000   0.84620689   -6.4052147    871.96309  0.030063546  0.029861174           11 
 2418000   0.85536988   -6.4141139    872.89472   0.03008322  0.029852969           10 
 2419000   0.88747375   -6.4168154    873.27983  0.030084051    0.0298447            9 
 2420000   0.87158737   -6.4115732      870.936  0.029990909    0.0298364            6 
 2421000   0.86543029   -6.3742609      872.761  0.030041339  0.029828151            5 
 2422000   0.86408656   -6.3858572    874.25082  0.030080196  0.029819991            6 
 2423000   0.86794552    -6.357283    876.41843  0.030142331  0.029811858            3 
 2424000   0.87205446   -6.4100121    875.45884  0.030096907  0.029803582            6 
 2425000   0.86615101   -6.4095742    873.11298  0.030003882  0.029795376            9 
 2426000   0.85145585   -6.3915195    872.82377  0.029981581  0.029787138            3 
 2427000   0.85301587   -6.3812631    874.54508   0.03002833   0.02977887            3 
 2428000   0.87349259   -6.4305555    873.65069  0.029985265  0.029770536           12 
 2429000   0.86616485   -6.4022963    872.41043   0.02993037  0.029762159            9 
 2430000    0.8815127   -6.4256795    872.64765  0.029926188  0.029753785            6 
 2431000   0.88502025   -6.3906446    874.03068  0.029961288   0.02974538           14 
 2432000   0.84748068   -6.3976865    874.62138  0.029969208  0.029737083            6 
 2433000   0.89576452   -6.4197547    875.02317  0.029970652  0.029728831            9 
 2434000   0.88813972   -6.3844772    877.13867  0.030030768  0.029720619            6 
 2435000   0.84414756   -6.4245484    874.23351  0.029919011  0.029712342            7 
 2436000   0.86918988   -6.4014864    874.48536  0.029915345  0.029704057           11 
 2437000   0.85282147   -6.4345876    873.73297  0.029877341   0.02969571           12 
 2438000   0.86725563    -6.398566    875.86415  0.029937932  0.029687466            3 
 2439000   0.87236915   -6.4361373    872.13738  0.029798325   0.02967921            9 
 2440000   0.84077828   -6.4029464    874.63788  0.029871512  0.029670904            7 
 2441000   0.87555923   -6.3796251    875.12949  0.029876058   0.02966262            7 
 2442000   0.86773179   -6.4243821    875.26626  0.029868491   0.02965427            9 
 2443000   0.85714059   -6.3935012    876.90126  0.029912036  0.029645983           11 
 2444000    0.8627137   -6.4367233     874.7773  0.029827376  0.029637829           10 
 2445000   0.85540264    -6.441491    875.48552  0.029839316  0.029629454            3 
 2446000   0.85726743     -6.41202    875.90623   0.02984145  0.029621092           13 
 2447000   0.84501351   -6.4550382    877.45403  0.029881965   0.02961277            4 
 2448000   0.86639848   -6.3850343     876.7142  0.029844574  0.029604417            4 
 2449000   0.83648417   -6.4080149    876.61026   0.02982885  0.029596204            6 
 2450000   0.85047553   -6.4008861    877.13557  0.029834543  0.029588053            6 
 2451000   0.82914185   -6.3959597    876.51344  0.029801219    0.0295798            4 
 2452000   0.85936604   -6.4248775    875.09318  0.029740796  0.029571475            7 
 2453000   0.85198224   -6.4275126    875.84692  0.029754278  0.029563177            3 
 2454000   0.85595226    -6.433279    875.35482  0.029725442  0.029554828            5 
 2455000   0.86167682   -6.4089793    876.01885  0.029735874  0.029546472            9 
 2456000   0.83344079   -6.4210773     878.2751  0.029800322  0.029538148            6 
 2457000   0.86611317   -6.4137858     877.1501  0.029750037  0.029529873            5 
 2458000   0.85300426   -6.3958762    877.84966  0.029761651  0.029521617            6 
 2459000   0.84866516   -6.4152792    876.48055   0.02970315  0.029513265           14 
 2460000   0.88064223   -6.4341974    876.59237  0.029694863  0.029504895           11 
 2461000   0.86981389   -6.4360019    875.47225  0.029644868  0.029496509           10 
 2462000   0.85649505   -6.4413854    877.06325  0.029686679  0.029488093            9 
 2463000   0.85648739   -6.3938041    878.60845  0.029726907  0.029479768            6 
 2464000   0.83464084   -6.3991598    879.15459  0.029733313  0.029471456            8 
 2465000   0.86236731   -6.4001834     877.7018  0.029672137  0.029463119            6 
 2466000   0.87141531   -6.4120767    877.31096  0.029646897  0.029454758            9 
 2467000   0.84130212   -6.4046125    877.31598  0.029635049  0.029446425            4 
 2468000   0.86593925   -6.4061726    877.96993  0.029645122   0.02943807            6 
 2469000   0.86227831   -6.4297024     875.6295  0.029554121  0.029429727            5 
 2470000   0.87404324   -6.4512969    875.79088    0.0295476  0.029421346           11 
 2471000   0.86089096   -6.4012095    878.35163  0.029622003  0.029413068            9 
 2472000   0.84212749   -6.4151793    879.87042   0.02966122  0.029404785            8 
 2473000   0.85442749   -6.4142731    879.43494  0.029634551  0.029396556            6 
 2474000   0.83015853    -6.419215    879.32594  0.029618901   0.02938832            6 
 2475000   0.85361147   -6.4449453    879.75588   0.02962141  0.029380127            9 
 2476000   0.86115658   -6.4059521    879.37235  0.029596539  0.029371892            3 
 2477000   0.85173276   -6.4216484    877.38645  0.029517779   0.02936365            8 
 2478000    0.8460114   -6.4059386    881.89959   0.02965764  0.029355395            9 
 2479000   0.84657378   -6.3963472    880.88607  0.029611607  0.029347274            4 
 2480000   0.87246334   -6.4208597    878.96989  0.029535279  0.029339014            6 
 2481000   0.84816483   -6.4039657    878.76544  0.029516507   0.02933078            7 
 2482000   0.85901053   -6.3885675     881.7208  0.029603841  0.029322533            5 
 2483000   0.84720043   -6.4287887    879.43273  0.029515127  0.029314274            8 
 2484000   0.85550671   -6.4484787    879.03606  0.029489937  0.029305998            4 
 2485000   0.87018902    -6.409468    881.17377  0.029549758  0.029297763            8 
 2486000   0.85304053   -6.3968105    882.26546  0.029574466  0.029289484            5 
 2487000   0.87045393   -6.4049415    882.96389  0.029585977  0.029281314            6 
 2488000   0.86232132   -6.4336156    882.01405  0.029542271  0.029273099           10 
 2489000   0.86070057   -6.4538669    882.31668  0.029540534   0.02926487           13 
 2490000   0.85398112   -6.4210683    879.56847  0.029436696  0.029256661            7 
 2491000   0.85523589   -6.4416294    882.37789  0.029518864  0.029248295           10 
 2492000   0.84495243   -6.4755246    879.13037  0.029398421  0.029239996            4 
 2493000   0.84754795   -6.4141026    885.26851  0.029591807  0.029231737            5 
 2494000   0.88047417    -6.428429    883.33623  0.029515378  0.029223538           11 
 2495000    0.8558257   -6.4320795    882.90723   0.02948922  0.029215324            9 
 2496000   0.85333899    -6.458799    881.70056  0.029437118  0.029207078            8 
 2497000   0.84265248   -6.4121949    883.39624   0.02948192  0.029198789            6 
 2498000   0.86938507   -6.4296018    881.81653  0.029417418  0.029190607           11 
 2499000   0.86190165   -6.4306478    881.94383  0.029409892  0.029182437            5 
 2500000   0.86711796   -6.4565538    882.98666  0.029432889  0.029174228            3 
 2501000   0.87195454    -6.423756    883.66328  0.029443665   0.02916599            6 
 2502000   0.83125971   -6.4175903    884.39093  0.029456133  0.029157808           13 
 2503000   0.86160862   -6.4397535    882.89046  0.029394409  0.029149684            7 
 2504000   0.84451016   -6.4617658    882.62129  0.029373712  0.029141522            6 
 2505000   0.83011528   -6.3975843    881.43317  0.029322461  0.029133281            7 
 2506000   0.87672304   -6.4205172    883.86372  0.029391584  0.029125111           11 
 2507000   0.83811886   -6.4409572    883.16793  0.029356732  0.029117012            8 
 2508000   0.84091856   -6.4610447    883.73029  0.029363712  0.029108835            5 
 2509000   0.85096178    -6.403378    886.08238  0.029430131  0.029100617            4 
 2510000   0.83633787   -6.4157706    885.94846   0.02941396  0.029092497            6 
 2511000   0.84376252   -6.4366218    884.31662  0.029348089   0.02908434            9 
 2512000   0.83946576   -6.4287287    884.16707  0.029331445  0.029076234           10 
 2513000   0.86588919    -6.460139    885.46728  0.029362889  0.029068074            7 
 2514000   0.85582752   -6.4076947    885.39417  0.029348786  0.029059937            9 
 2515000   0.85297041   -6.4597019    884.14097  0.029295592  0.029051796           17 
 2516000   0.83597452   -6.4474279    883.88248  0.029275387  0.029043714            5 
 2517000   0.85328354   -6.4619235    884.03966   0.02926896    0.0290356            9 
 2518000   0.85306454   -6.4173064    887.35057  0.029366911  0.029027465            3 
 2519000   0.84845581    -6.449312    886.25653  0.029319059  0.029019337           10 
 2520000   0.84158651   -6.4414601    884.52913  0.029250302  0.029011182            7 
 2521000   0.85802686   -6.4535091    886.40872   0.02930083  0.029002937            6 
 2522000   0.85119567   -6.4686565     882.9029  0.029173371  0.028994671            9 
 2523000   0.84350089   -6.4642583    885.72309  0.029254957  0.028986395            9 
 2524000   0.84826501   -6.4763569    880.65836  0.029076148  0.028978189            8 
 2525000   0.85673889   -6.4592848    886.83119  0.029268356  0.028969936            8 
 2526000   0.83581632   -6.4415576    885.27707  0.029205498  0.028961716            4 
 2527000   0.83461965   -6.4450668    886.60576  0.029237758   0.02895349            6 
 2528000   0.85782183   -6.4235259    884.63311  0.029161165   0.02894526            4 
 2529000    0.8389236   -6.4519485    885.44273  0.029176312   0.02893703            6 
 2530000   0.84401574    -6.449693    885.12892  0.029154444  0.028928775            5 
 2531000   0.86285919   -6.4551932    887.88409  0.029233639  0.028920591            9 
 2532000   0.83308299    -6.413801    891.42973  0.029338788  0.028912471            9 
 2533000   0.86116069   -6.4463479    887.61288  0.029201634  0.028904341           11 
 2534000   0.83311638   -6.4293053    887.65236  0.029191409  0.028896207            6 
 2535000   0.85780579   -6.4709521    886.56614  0.029144186  0.028887966            4 
 2536000   0.84406183   -6.4373226    888.38909  0.029192596   0.02887988            5 
 2537000   0.85526563   -6.4057908    889.85478  0.029229233  0.028871824           10 
 2538000   0.83577097   -6.4620921    887.95229   0.02915525  0.028863718            8 
 2539000   0.83267541   -6.4577044    887.18005  0.029118421  0.028855564            5 
 2540000   0.84857041   -6.4680758    887.07132   0.02910339  0.028847368            7 
 2541000   0.86427799   -6.4671402    888.34288  0.029133638  0.028839049            5 
 2542000   0.84882055   -6.4727846    886.46299  0.029060549   0.02883089            9 
 2543000   0.85493815   -6.4770691    888.86916  0.029127971  0.028822747            9 
 2544000   0.85210759   -6.4732137    886.78816  0.029048354  0.028814554            6 
 2545000   0.84497324    -6.465828    889.29119  0.029118899  0.028806361            6 
 2546000   0.85759729   -6.4347657    890.99429  0.029163207  0.028798211            6 
 2547000   0.85509446   -6.4709253     886.9843  0.029020557  0.028790032            7 
 2548000   0.82773543   -6.4756081    885.59146  0.028963614  0.028781894            8 
 2549000   0.83691491   -6.4840269     886.0803  0.028968233  0.028773727            9 
 2550000   0.83653392   -6.4898601    887.50155  0.029003319   0.02876558            6 
 2551000   0.83157412   -6.4854238    888.54713  0.029026105  0.028757408            3 
 2552000   0.84681792   -6.4849154    887.38344  0.028976732  0.028749207            3 
 2553000   0.84408804   -6.4699194    887.84207  0.028980352  0.028740985            5 
 2554000   0.83086209   -6.4830077    890.22595  0.029046788  0.028732798           11 
 2555000   0.84017897   -6.5058522    888.19224  0.028969088  0.028724553           11 
 2556000   0.85129761   -6.4517174    887.61013  0.028938776  0.028716344            5 
 2557000   0.85081268   -6.4618753    889.20747  0.028979516  0.028708128            5 
 2558000   0.85566385   -6.4846261    887.77169  0.028921413  0.028699873           10 
 2559000   0.85561276   -6.4499522    889.33773  0.028961109  0.028691681            3 
 2560000   0.86046722    -6.460028    890.41259  0.028984785  0.028683465            7 
 2561000     0.837972   -6.4363239    891.65193  0.029013794  0.028675363           22 
 2562000   0.84000648   -6.4491187    891.39534  0.028994124   0.02866727            3 
 2563000   0.86269558    -6.435419    891.08207  0.028972626  0.028659221            4 
 2564000   0.83855051   -6.4298795    893.38807  0.029036274  0.028651086            7 
 2565000   0.82588931   -6.4596812    890.43447  0.028928995  0.028642971            5 
 2566000   0.82734567   -6.4571699    888.22365  0.028845923  0.028634812            5 
 2567000   0.85603195   -6.4599112    887.97024  0.028826459  0.028626619            7 
 2568000   0.83640827   -6.4606756    892.26465   0.02895459  0.028618484           23 
 2569000   0.83083236   -6.4429076    892.35281  0.028946179  0.028610409            7 
 2570000   0.83444465   -6.4404589    893.55732  0.028973973  0.028602386            6 
 2571000   0.83059796   -6.4679936    889.24004  0.028822768  0.028594316            9 
 2572000   0.84296539   -6.4823377    890.38741  0.028848737  0.028586197           14 
 2573000   0.82621426   -6.4511312     891.9732  0.028888885  0.028578075           10 
 2574000   0.84395187   -6.4205292    894.73725  0.028967148  0.028570059            7 
 2575000   0.82466435   -6.4541525    891.32579  0.028845495  0.028562028           10 
 2576000   0.83362222   -6.4259668    891.34511  0.028834922  0.028553954            5 
 2577000   0.83383211   -6.4293959    891.35361  0.028824008   0.02854584           12 
 2578000   0.82833023   -6.4614474    889.47282  0.028752031  0.028537721            9 
 2579000   0.82354813   -6.4729129     890.8132  0.028784193  0.028529533            5 
 2580000     0.830479   -6.4724985     893.2988   0.02885332   0.02852136           14 
 2581000   0.84785465   -6.4675235    889.95208  0.028734085  0.028513214           11 
 2582000   0.84150169   -6.4400028    890.77433  0.028749494  0.028505117           10 
 2583000   0.84845887   -6.4582088     892.8159   0.02880423  0.028497039            6 
 2584000   0.84128926   -6.4807477    891.30075  0.028744219  0.028488905            7 
 2585000   0.83834021   -6.4518841    892.12877  0.028759793  0.028480807            6 
 2586000   0.83740371   -6.4324236    896.33059  0.028884074  0.028472761            5 
 2587000   0.84518463   -6.4528363    893.01913  0.028766239  0.028464805           15 
 2588000   0.82988968   -6.4182304    895.59724  0.028838139  0.028456833            8 
 2589000   0.83148853   -6.4553935    896.26959  0.028848641  0.028448875            5 
 2590000   0.82492424   -6.4787245    893.37684  0.028744429  0.028440899           13 
 2591000   0.84183875    -6.476809    891.52532  0.028673785  0.028432848            4 
 2592000   0.83376171   -6.4568285    895.64814  0.028795272  0.028424772            5 
 2593000   0.84449854   -6.5007399    895.38714  0.028775779  0.028416814            4 
 2594000   0.83834918   -6.4755289    891.21735   0.02863073  0.028408775           11 
 2595000    0.8400614   -6.4643693    892.29908  0.028654434  0.028400704            9 
 2596000   0.82716645   -6.4791513    892.37824  0.028645937  0.028392662            5 
 2597000   0.82166105   -6.4752115    895.92007  0.028748558  0.028384638            7 
 2598000   0.83734343    -6.492717     897.1778  0.028777836   0.02837662            7 
 2599000   0.83136894   -6.4517754    897.39016  0.028773572  0.028368658            6 
 2600000   0.83984919   -6.4829056    897.81142  0.028776007  0.028360769            6 
 2601000   0.83652426   -6.4640951      897.547  0.028756472  0.028352842            6 
 2602000   0.82517093   -6.5023066     898.4225  0.028773459  0.028344895            6 
 2603000   0.83170024   -6.4900093    897.03242  0.028717903  0.028336913            4 
 2604000   0.83788504    -6.489124    894.34432   0.02862085  0.028328973            7 
 2605000   0.84066408   -6.4916513    895.58664  0.028649605  0.028321072            4 
 2606000   0.84534533   -6.4728634    894.08673  0.028590648  0.028313166            8 
 2607000   0.84632204   -6.4884433    898.14595  0.028709434  0.028305248            7 
 2608000   0.83930489   -6.4814325    897.02458  0.028662595  0.028297234            5 
 2609000    0.8340166   -6.4716078    896.63268  0.028639092  0.028289253            6 
 2610000   0.83064655   -6.4808167    895.37568  0.028587985  0.028281267            8 
 2611000   0.83730058   -6.4459573    899.85835  0.028720106  0.028273361            4 
 2612000   0.82806467   -6.4883901    897.03659  0.028619085  0.028265444            5 
 2613000   0.82220401   -6.5164748    896.36867  0.028586831  0.028257501           20 
 2614000   0.82499619   -6.4888436    896.36553  0.028575795  0.028249546           12 
 2615000   0.85228248   -6.4728922    900.53354  0.028697691  0.028241646            6 
 2616000   0.81774813   -6.4724115    898.50767  0.028622186  0.028233825           10 
 2617000   0.83257529     -6.44632    901.57608  0.028708957  0.028225973           14 
 2618000   0.84107638   -6.4659113    900.21397  0.028654634  0.028218142            8 
 2619000   0.83411753   -6.4583232    899.89921  0.028633677  0.028210342            5 
 2620000   0.84612783   -6.4767513    899.21282  0.028600917  0.028202548            6 
 2621000    0.8305994   -6.4483433    901.02981  0.028647775  0.028194708            5 
 2622000   0.82929363   -6.5190278    899.43879  0.028586282  0.028186834            9 
 2623000   0.82043413   -6.4948612     899.3508  0.028572589  0.028178925           10 
 2624000   0.83264119    -6.495318    899.41757   0.02856382  0.028171025            7 
 2625000   0.83049072   -6.4674426    901.47949  0.028618397  0.028163124            7 
 2626000    0.8341563   -6.5145893    899.30404  0.028538463   0.02815522            8 
 2627000   0.83189455   -6.4983973    901.06797  0.028583554   0.02814735            7 
 2628000   0.82694406   -6.4476148    899.77506   0.02853168  0.028139557            6 
 2629000   0.84395124   -6.4885176    900.50816  0.028544065  0.028131721            6 
 2630000   0.83175168   -6.4762187     901.8751  0.028576524  0.028123907            7 
 2631000   0.81827195   -6.4808742    899.53884  0.028491665  0.028116049            5 
 2632000   0.82854181   -6.4844617    899.87709  0.028491549  0.028108176            6 
 2633000   0.82468043   -6.4811274    901.71179  0.028538796  0.028100365            5 
 2634000   0.82680917   -6.4841455    901.26377  0.028513787  0.028092606            6 
 2635000   0.83131917   -6.4687724    901.06914   0.02849681   0.02808486            8 
 2636000   0.81860839   -6.4551568    903.20335  0.028553469  0.028077077            6 
 2637000   0.82183732    -6.478443    902.63273  0.028524609  0.028069309            6 
 2638000   0.83153662   -6.5024559    900.03233  0.028431651  0.028061528            6 
 2639000   0.81663464   -6.4966413    900.93095  0.028449253  0.028053699            7 
 2640000    0.8222286   -6.4566689    902.34086  0.028482982  0.028045927            5 
 2641000    0.8473071   -6.4674775    902.65819   0.02848221  0.028038146            7 
 2642000   0.83912592   -6.4950532    903.81399  0.028507885  0.028030379           11 
 2643000   0.81306723     -6.50226    903.26366  0.028479747  0.028022593            6 
 2644000   0.82611522   -6.4935787    902.41374  0.028442188  0.028014755           11 
 2645000   0.83584509   -6.5252007    900.52831  0.028372032  0.028006885            9 
 2646000   0.84067363    -6.527238    900.18429  0.028350475  0.027999006           10 
 2647000   0.85638961   -6.4986782    900.36083  0.028345323  0.027991154            7 
 2648000   0.82551707     -6.52038    902.05762  0.028388017   0.02798328            6 
 2649000   0.83180296    -6.476756    902.79904  0.028400624  0.027975396            3 
 2650000   0.82942183   -6.5062849    903.19593  0.028402388  0.027967499            3 
 2651000    0.8384872    -6.495871    902.94451   0.02838377  0.027959651            7 
 2652000    0.7993183   -6.5087808     903.5625  0.028392487  0.027951772           11 
 2653000   0.82983719   -6.4800276    903.53212   0.02838083  0.027943913           12 
 2654000   0.82404416   -6.4961075    901.07837  0.028293091  0.027936008           11 
 2655000   0.83429075   -6.4859938    902.47725  0.028326342   0.02792812            5 
 2656000   0.84007143   -6.5318392    901.32822  0.028279625  0.027920315            4 
 2657000   0.81864614   -6.4961271    904.06913  0.028354947  0.027912503           12 
 2658000    0.8327451   -6.4932359    903.40662  0.028323508  0.027904688            5 
 2659000   0.83553416   -6.4757936    905.15283  0.028367583  0.027896982           10 
 2660000   0.82598365   -6.5084797    901.89603  0.028254888  0.027889184           16 
 2661000   0.81740822   -6.4728896    904.40587  0.028322869   0.02788142            4 
 2662000   0.82380618   -6.4801752    906.02959   0.02836306  0.027873791           11 
 2663000    0.8281586   -6.4717486    905.21428  0.028326896  0.027866164            7 
 2664000   0.83346307   -6.5113762    907.15703  0.028377034  0.027858488            8 
 2665000   0.81775276   -6.4950887    905.92933  0.028327997  0.027850772            8 
 2666000   0.80805136   -6.5098082    902.35561  0.028205664  0.027843098            6 
 2667000   0.82165993   -6.4768873    905.25764  0.028285766  0.027835355            2 
 2668000   0.80531004   -6.5381353    904.14703  0.028240475   0.02782758            4 
 2669000   0.82593205   -6.4906833    905.49572  0.028272003  0.027819862            6 
 2670000   0.81853689   -6.5082983    906.43102  0.028290606  0.027812177            9 
 2671000   0.81922924   -6.4492767    909.80254  0.028385204  0.027804541            6 
 2672000   0.83358999   -6.5232438    905.11109  0.028228265  0.027796869            8 
 2673000   0.83227329   -6.5254508    904.20918  0.028189587  0.027789074           12 
 2674000   0.80954705   -6.5127162    904.71916  0.028194938  0.027781338           10 
 2675000   0.82248711   -6.4949576    908.71532  0.028308888  0.027773574           10 
 2676000   0.82844433   -6.5302002    904.59974  0.028170146  0.027765851            6 
 2677000    0.8383901    -6.538989    906.40359  0.028215776  0.027758133           11 
 2678000   0.83257075   -6.4879818    905.54413  0.028178496  0.027750414            9 
 2679000   0.83685851   -6.5042555    907.28659  0.028222179  0.027742781           10 
 2680000   0.82641686   -6.5171601    906.99565  0.028202601   0.02773513            3 
 2681000   0.81730707   -6.5014909    906.87457  0.028188318  0.027727454           10 
 2682000   0.80733604   -6.4776693     906.2229   0.02815756  0.027719787            9 
 2683000   0.82268618   -6.5143767    905.41519  0.028121977  0.027712118            9 
 2684000   0.82612911   -6.5439327    903.86308   0.02806331  0.027704399            5 
 2685000   0.82325746   -6.5245933    903.31286  0.028035781  0.027696556            5 
 2686000   0.83032679   -6.5025975    905.22768  0.028084751  0.027688755           10 
 2687000   0.82249204   -6.5159635    906.14511  0.028102751  0.027680952            4 
 2688000   0.82117701   -6.5212768    906.86187  0.028114517  0.027673216           13 
 2689000    0.8304748    -6.494833     903.8652  0.028011194  0.027665443           10 
 2690000   0.81732204   -6.5061943    906.85626  0.028093441   0.02765768            5 
 2691000   0.83506893   -6.5433546    907.15792  0.028092342  0.027649944            8 
 2692000   0.82765402   -6.5712239    905.16623  0.028020252  0.027642075            8 
 2693000    0.8107127   -6.5636943    907.91107  0.028094785  0.027634313            5 
 2694000   0.82750891    -6.536611    905.79275   0.02801883  0.027626524            8 
 2695000   0.81330861   -6.4970038    908.80147  0.028101468  0.027618786            7 
 2696000   0.83256614   -6.5034387    909.92639  0.028125816  0.027611133            7 
 2697000   0.82069154   -6.5122227    908.63223  0.028075399  0.027603476           14 
 2698000   0.79392533   -6.5275196    905.32183  0.027962745  0.027595746           10 
 2699000    0.8087302   -6.5010039    908.46879  0.028049549   0.02758802            9 
 2700000   0.83762896   -6.4931318    908.26062  0.028032735  0.027580302           18 
 2701000   0.83480532   -6.5288215    907.24802  0.027991115  0.027572541            6 
 2702000   0.82244992   -6.5289369    908.00971  0.028004247  0.027564818            3 
 2703000   0.80965557   -6.5173013    908.70739  0.028015396  0.027557125           17 
 2704000   0.82044979   -6.5157793    909.27701   0.02802259  0.027549389            8 
 2705000   0.82480157   -6.5241933    907.13732  0.027946313  0.027541665           15 
 2706000   0.81837106    -6.485491    911.49081  0.028070054  0.027533951            6 
 2707000   0.81866802    -6.534101    907.13992  0.027925746  0.027526324           12 
 2708000   0.80404573   -6.5131181    908.23436  0.027949113    0.0275186           10 
 2709000   0.80678234   -6.5498673    910.01579  0.027993595  0.027510889            5 
 2710000   0.80555338   -6.4938948    909.48457   0.02796693  0.027503178            4 
 2711000   0.80588586   -6.5126659    909.30726  0.027951164  0.027495577            7 
 2712000   0.82711502   -6.5222674     910.3549  0.027973049   0.02748793            7 
 2713000   0.82045493   -6.5845809     906.8893  0.027856288  0.027480198           10 
 2714000   0.80793786   -6.5336215    908.85381  0.027906344  0.027472431            6 
 2715000   0.82721283   -6.5232737    908.57944  0.027887644  0.027464755            8 
 2716000   0.79681057   -6.5117557    911.60316  0.027970151  0.027457128           11 
 2717000   0.80129884   -6.5351526     908.9159  0.027877435  0.027449468            6 
 2718000   0.81674782    -6.529865     910.0413  0.027901683  0.027441872            7 
 2719000   0.80911665   -6.5185859    909.89395  0.027886905  0.027434236            7 
 2720000   0.81244224   -6.5100432    912.16096  0.027946108  0.027426649            4 
 2721000   0.83638378   -6.5314263    911.26584  0.027908423  0.027419063           26 
 2722000   0.81804319   -6.5384366    911.80621  0.027914714  0.027411465            8 
 2723000   0.82314662   -6.5435175     911.2519  0.027887498  0.027403786            6 
 2724000   0.81949672   -6.5197225    912.39651  0.027912277  0.027396174            7 
 2725000   0.80738172   -6.5103921     911.7539  0.027882382   0.02738863            5 
 2726000   0.81476728   -6.5249434    910.76026  0.027841778  0.027381054            7 
 2727000   0.82858592   -6.5202398    909.68668  0.027798762  0.027373436           10 
 2728000   0.80675689   -6.5346161    911.60744  0.027847246  0.027365844           10 
 2729000   0.80924348   -6.5619282    907.15787  0.027701169  0.027358144           10 
 2730000   0.80940553   -6.4963575      912.468  0.027853114  0.027350539            4 
 2731000   0.82445659   -6.5428567    912.06297  0.027830556   0.02734305           10 
 2732000   0.83076588   -6.5379845     912.4193  0.027831238   0.02733544            9 
 2733000   0.80877231   -6.5778232    908.70001  0.027707648  0.027327792            7 
 2734000   0.81337093   -6.5267377    912.33191  0.027808215  0.027320196            8 
 2735000   0.81499114   -6.5288382    916.61151  0.027928443  0.027312617           13 
 2736000   0.80769183   -6.5203438    912.00796   0.02777802  0.027305115            5 
 2737000   0.81157965   -6.5240989    915.04606  0.027860372  0.027297587           12 
 2738000   0.81133065   -6.4963798     913.9919  0.027818112   0.02729006            7 
 2739000   0.80770683   -6.5274111    914.51247  0.027823794  0.027282466           11 
 2740000   0.82108216   -6.5335375    914.42983  0.027811126  0.027274956           14 
 2741000   0.81608935   -6.5444172    913.88081  0.027784288  0.027267366            8 
 2742000   0.82557435   -6.5362007    911.31458  0.027696164  0.027259765           14 
 2743000   0.79399091   -6.5366823    915.76995  0.027821423  0.027252194            5 
 2744000   0.80490773    -6.522459    913.64856  0.027746859  0.027244631           10 
 2745000     0.802527   -6.5275191    912.93073  0.027714959  0.027236999            7 
 2746000   0.81054529   -6.5295881    912.15945  0.027681459  0.027229372            4 
 2747000   0.81520591   -6.5290998    913.75146  0.027719678  0.027221738           14 
 2748000   0.80185482    -6.536032    913.64747  0.027706437  0.027214157           17 
 2749000    0.8148364   -6.5876631     910.4602  0.027599739  0.027206539           11 
 2750000   0.83423429   -6.5575992    913.48182  0.027681267   0.02719897           15 
 2751000   0.82760328   -6.5536715    913.22779   0.02766351  0.027191393           21 
 2752000   0.82528755   -6.5415436    913.98307  0.027676329  0.027183778           12 
 2753000    0.7987739   -6.4972494    913.51137  0.027651997  0.027176173            4 
 2754000    0.8188817   -6.5265278    914.46357  0.027670769  0.027168557           12 
 2755000   0.80823867   -6.5055261    914.40944  0.027659088  0.027160953            7 
 2756000    0.7975068   -6.5229689     915.5338  0.027683049  0.027153359            8 
 2757000   0.82221579   -6.5166729    916.13564  0.027691199  0.027145764            7 
 2758000   0.82279401   -6.5323477     912.7222  0.027578022  0.027138198            8 
 2759000   0.80585318     -6.54226    913.98015  0.027606021  0.027130599            3 
 2760000    0.8008422   -6.5182246    915.76486  0.027649905  0.027123038           13 
 2761000   0.80403302   -6.5375329    915.41641  0.027629374  0.027115445            6 
 2762000   0.79620153   -6.5365935    914.12727  0.027580475   0.02710789           10 
 2763000   0.81084878   -6.5651107     913.7338  0.027558626  0.027100332            8 
 2764000    0.8260382   -6.5342715    916.76503  0.027640045   0.02709278            7 
 2765000   0.81313679   -6.5803878    913.82846  0.027541545  0.027085153            8 
 2766000   0.80981646    -6.568089    916.08895  0.027599691  0.027077552           14 
 2767000   0.81512788   -6.5334138    918.38051  0.027658731  0.027070012            7 
 2768000   0.80889746    -6.553654    915.87059  0.027573175   0.02706243           17 
 2769000   0.80476958   -6.5446317    916.47118  0.027581292  0.027054833            4 
 2770000   0.79709089   -6.5484307    915.40995  0.027539409  0.027047236           11 
 2771000   0.81127468    -6.543926    916.05816  0.027548964  0.027039648            6 
 2772000   0.79583536   -6.5465818    916.77938  0.027560708  0.027032105            4 
 2773000   0.81233039    -6.527617    916.89088  0.027554119  0.027024518            3 
 2774000   0.81566667    -6.522188    914.57577  0.027474639  0.027016908           14 
 2775000   0.79747766   -6.5326108       916.07   0.02750961  0.027009338            4 
 2776000   0.82930291   -6.5183492    916.99667  0.027527518  0.027001715           12 
 2777000   0.79537073   -6.5503896    913.10412  0.027400796  0.026994001            6 
 2778000   0.80517526   -6.5748404    912.72012  0.027379413  0.026986243           11 
 2779000   0.80704048   -6.5523462    914.56143  0.027424776  0.026978546            8 
 2780000   0.81676346   -6.5511942    913.00933  0.027368385  0.026970899           14 
 2781000   0.80416478   -6.5441305    915.89585  0.027445039   0.02696325            4 
 2782000   0.81134617   -6.5522327     916.7418  0.027460514  0.026955644            9 
 2783000   0.80266922   -6.5433196    915.74945  0.027420932  0.026947983            7 
 2784000   0.82509822   -6.5498262    914.56363  0.027375588   0.02694038            9 
 2785000   0.80558114   -6.5317149    914.94602    0.0273772  0.026932757           14 
 2786000   0.81884772   -6.5238634    914.75053  0.027361526  0.026925148           15 
 2787000   0.80084773   -6.5430201    913.94087  0.027327499  0.026917521            7 
 2788000   0.81808998    -6.537093    918.47701  0.027453282  0.026909911            6 
 2789000   0.79775551   -6.5484498    915.12654  0.027343329  0.026902337           12 
 2790000   0.82394011   -6.5480842     915.2559  0.027337392  0.026894681            8 
 2791000   0.80685999   -6.5488421    917.94606   0.02740792  0.026887045            6 
 2792000   0.81069614   -6.5844756    912.99871  0.027250439  0.026879419            6 
 2793000   0.79271656   -6.5372413    916.24531   0.02733755  0.026871799            6 
 2794000   0.80719722   -6.5329874    915.64464   0.02730985  0.026864275            7 
 2795000   0.80492356   -6.5576069    918.39172  0.027381983  0.026856704           18 
 2796000   0.82981598   -6.5772703    918.68741  0.027381003  0.026849123            9 
 2797000   0.80160315   -6.5863608    915.98804  0.027290789  0.026841445            7 
 2798000   0.80445743   -6.5631157    917.85883  0.027336753  0.026833814            7 
 2799000   0.82767062   -6.5671526    917.63708  0.027320385  0.026826226           18 
 2800000   0.82399195   -6.5670591    917.43448  0.027304598  0.026818631           11 
 2801000    0.8190934   -6.5631355    917.69763  0.027302678  0.026810988           20 
 2802000   0.78888102   -6.5914775    916.49556  0.027257184  0.026803385            9 
 2803000    0.7961449   -6.5450909    917.81823  0.027286783  0.026795785            7 
 2804000   0.79903166   -6.5700305    917.76604    0.0272755  0.026788258            6 
 2805000   0.80333266   -6.5639309    918.13309  0.027276681  0.026780726            4 
 2806000    0.8103319   -6.5595899    918.88016  0.027289147  0.026773227            9 
 2807000   0.80561845   -6.5694729    919.78707  0.027306349  0.026765729           18 
 2808000   0.80740156   -6.5473967      921.199  0.027338527  0.026758243           12 
 2809000   0.79994794   -6.5688785    918.82854  0.027258471  0.026750734           10 
 2810000   0.79019375    -6.570521    918.33898  0.027234252  0.026743195            9 
 2811000   0.79263231    -6.582083    917.00254  0.027184944  0.026735619            7 
 2812000   0.80230612   -6.5754431    920.69181  0.027284608  0.026728082            7 
 2813000   0.79987923   -6.5783349    919.13093  0.027228668  0.026720567            4 
 2814000   0.79217281   -6.5490591    920.93906  0.027272538  0.026713072            6 
 2815000   0.79921154   -6.5469157    919.96164  0.027233915  0.026705586            4 
 2816000   0.79762285    -6.542464    922.30069  0.027293463  0.026698141            6 
 2817000   0.79019857   -6.5533855    920.21946  0.027222206   0.02669071           11 
 2818000   0.79770241   -6.5576835    920.34151  0.027216155  0.026683282            5 
 2819000   0.80598399   -6.5381391    921.24019  0.027233067  0.026675841            4 
 2820000   0.81272742   -6.5479604    923.81689  0.027299554  0.026668428            4 
 2821000   0.81121008   -6.5686911    920.75548  0.027199441  0.026660959            7 
 2822000   0.81726402   -6.6039994    920.64968  0.027186679  0.026653406            4 
 2823000   0.81082494    -6.575723    918.93151  0.027126329  0.026645753           11 
 2824000   0.82001943   -6.5767255    919.17091  0.027123787  0.026638137            5 
 2825000   0.80637652    -6.544857    922.02273  0.027198311  0.026630587            5 
 2826000   0.81283918   -6.5886577    916.95238  0.027039171  0.026623019           11 
 2827000     0.812113   -6.5795539    920.72654   0.02714086  0.026615434            8 
 2828000   0.80694232   -6.6057496    918.77058  0.027073626  0.026607872            9 
 2829000   0.78280598   -6.5848323    917.36025  0.027022512   0.02660027            8 
 2830000   0.79972805   -6.5709379      917.233  0.027009217  0.026592622            8 
 2831000   0.79145845   -6.5593358    919.99091  0.027080858  0.026584999           20 
 2832000   0.79044958   -6.5506533    920.98774  0.027100628  0.026577426           13 
 2833000   0.79785784   -6.5938025    917.72653  0.026995133  0.026569802           18 
 2834000    0.7910706   -6.5796028    920.62134  0.027070729  0.026562163           16 
 2835000   0.79486872   -6.5852332    918.22359  0.026990699  0.026554527           12 
 2836000   0.79756638   -6.5792274    921.92713  0.027090007  0.026546852           17 
 2837000   0.80378788   -6.5781206     921.4746  0.027067166  0.026539266           15 
 2838000   0.79412487   -6.5909904    919.77433  0.027007703  0.026531657            8 
 2839000   0.76986957   -6.5999665    919.82964  0.026999813  0.026524018            6 
 2840000   0.78839168   -6.5938736    919.89773  0.026992304  0.026516345            9 
 2841000   0.77847498   -6.5996208    920.77188  0.027008444  0.026508731           11 
 2842000   0.79431518   -6.5746693    921.59283  0.027023013   0.02650115           11 
 2843000   0.79294269   -6.5643338    921.41956  0.027008429  0.026493588            7 
 2844000   0.80738857   -6.5760975    920.78216  0.026980256  0.026486008            6 
 2845000   0.78227228   -6.5981973    919.70638  0.026939261  0.026478359            8 
 2846000   0.78899102   -6.5981328    919.16861  0.026914049  0.026470699           10 
 2847000   0.78923118   -6.5804411     919.3813  0.026910821  0.026463084           11 
 2848000   0.79940568    -6.595509    920.43429  0.026932183  0.026455522           12 
 2849000    0.7867481   -6.6077761    918.81827  0.026875461  0.026447924            6 
 2850000   0.79184228   -6.5966399    921.29874   0.02693856  0.026440277            4 
 2851000   0.79009288   -6.6109705    916.34019  0.026784175  0.026432621           14 
 2852000   0.79246792   -6.6351789    918.32408  0.026832751  0.026424965           14 
 2853000    0.7982169   -6.5817156    920.33998  0.026882229  0.026417299            8 
 2854000   0.79471314   -6.5751172     921.8629  0.026917277  0.026409715            5 
 2855000   0.78676918    -6.586675     923.9558  0.026968937  0.026402162            9 
 2856000   0.80656137   -6.6061964    919.91004  0.026841446  0.026394588            6 
 2857000   0.81254657   -6.5479944    923.41345  0.026934239  0.026387046            5 
 2858000   0.81760356   -6.5775012    922.81823   0.02690746  0.026379591           13 
 2859000   0.78112928   -6.6015599    919.49381  0.026801149  0.026372066           12 
 2860000   0.79567737    -6.585053     923.5631  0.026910347   0.02636455           18 
 2861000   0.79972758    -6.588735    920.80538  0.026820616  0.026356982            7 
 2862000    0.7873562   -6.6293535    919.07293    0.0267608  0.026349336           10 
 2863000   0.78318162   -6.6097823    921.31256  0.026816642  0.026341703            9 
 2864000   0.77188069   -6.5637151    922.00018  0.026827286  0.026334099            6 
 2865000   0.80105989   -6.5566063    922.81115  0.026841511  0.026326498            8 
 2866000   0.79633229   -6.5920237      921.325  0.026788934  0.026318996            6 
 2867000   0.78456688   -6.5839979    922.20978  0.026805307  0.026311438            8 
 2868000   0.79994777   -6.5791293    922.90249  0.026816088  0.026303851           13 
 2869000   0.80027424   -6.6144923    919.84512  0.026717936  0.026296273           12 
 2870000   0.79552069   -6.5789317    920.77249  0.026735554  0.026288655            9 
 2871000    0.8019231   -6.5882251    921.69521  0.026753025  0.026281075            7 
 2872000   0.78487069   -6.5871395    922.51275  0.026767431  0.026273508           12 
 2873000   0.79825692   -6.5761835    922.06526  0.026745134  0.026265932            4 
 2874000   0.79013425   -6.5878102    923.29265  0.026771418  0.026258331           12 
 2875000   0.78719955   -6.5930146    922.56102  0.026740899  0.026250788            7 
 2876000   0.76938027   -6.5804556    923.69033  0.026764323  0.026243225           11 
 2877000   0.78779819   -6.5737191    925.97629  0.026821234  0.026235704            8 
 2878000   0.80379252   -6.5682729    922.88818  0.026722498  0.026228214            8 
 2879000   0.77883918   -6.5516069    927.12328  0.026835802  0.026220749            5 
 2880000   0.78932365   -6.5536155    926.63351  0.026812312  0.026213345            8 
 2881000   0.77916914   -6.5537818    925.15479  0.026760233  0.026205881            7 
 2882000   0.79528694   -6.5586695    927.16356  0.026809032  0.026198483           13 
 2883000   0.79634668   -6.6220486    922.39641  0.026661938  0.026191059           11 
 2884000   0.79214679   -6.5886823     926.4169  0.026768866   0.02618359            7 
 2885000   0.79145644   -6.6291473    924.69907  0.026709967   0.02617612            5 
 2886000   0.81495172   -6.5794974      923.356  0.026661931  0.026168614            6 
 2887000   0.78023573   -6.5837457     922.4095  0.026625375  0.026161132           11 
 2888000   0.78559007   -6.6234585    924.57547  0.026678655  0.026153682           11 
 2889000   0.78181243   -6.6129199    923.26553  0.026631635  0.026146207           13 
 2890000   0.77804519   -6.6036232     926.4008  0.026712826  0.026138766            8 
 2891000   0.79310477   -6.5923119    926.90846  0.026718219  0.026131346            9 
 2892000   0.78637169   -6.5613264    925.45518  0.026667104  0.026123869           12 
 2893000   0.80801085   -6.6142562    925.14533  0.026648961   0.02611639           11 
 2894000   0.79343759   -6.6050615     925.0218  0.026636196  0.026108927            6 
 2895000   0.78090687   -6.6191615    924.94586  0.026624809   0.02610147            8 
 2896000   0.78245953   -6.5842098    927.09159  0.026677359  0.026094033            7 
 2897000   0.78088348    -6.649966    923.22549  0.026556941  0.026086552            7 
 2898000   0.77781065    -6.613902    924.17069  0.026574956  0.026079058            4 
 2899000   0.79615425    -6.607563    925.41397  0.026601528  0.026071614           11 
 2900000   0.79133318   -6.5744134     928.8819  0.026692009  0.026064162            8 
 2901000   0.78099604   -6.6113565    923.53798    0.0265293  0.026056693            6 
 2902000   0.80117431   -6.5886436    926.26822  0.026598559  0.026049214           12 
 2903000    0.7830573   -6.5689157    929.98702  0.026696148  0.026041843           12 
 2904000   0.78982588   -6.6208837    924.01862  0.026515686  0.026034451           14 
 2905000   0.80324114   -6.6098481    925.74183  0.026555991  0.026027024            6 
 2906000   0.80577399   -6.6123982      926.364  0.026564694  0.026019612            7 
 2907000   0.78832203   -6.6073104    926.17927   0.02655026  0.026012161           13 
 2908000   0.78307112   -6.5927674    923.28674   0.02645824  0.026004725            6 
 2909000   0.77591298   -6.5997341    927.77835  0.026577815  0.025997292           26 
 2910000   0.80391237   -6.6045239     927.5454   0.02656201  0.025989861            9 
 2911000   0.77627581   -6.6180813     926.0636  0.026510466  0.025982388            7 
 2912000   0.77934376   -6.6158717    927.14936  0.026532434  0.025974937           12 
 2913000   0.80741538   -6.6132589    926.86495  0.026515189  0.025967528           16 
 2914000   0.77035756    -6.588726    928.86023   0.02656315  0.025960055           10 
 2915000   0.78450753   -6.5915821    926.58529  0.026489002  0.025952592           18 
 2916000   0.78521803   -6.6084261    925.82329  0.026458142   0.02594513           11 
 2917000   0.78956339   -6.6211241    926.05047  0.026455561  0.025937672            8 
 2918000    0.7869222   -6.6353985    926.44101  0.026457648  0.025930226            7 
 2919000   0.81676901   -6.5913557    926.71376  0.026456371  0.025922756           14 
 2920000   0.77407294   -6.6171306    927.12255  0.026458977  0.025915313            4 
 2921000   0.80040008   -6.6008839    926.27565  0.026425757  0.025907873            4 
 2922000   0.78725416    -6.580589     927.8405  0.026461342  0.025900473           10 
 2923000   0.79330487    -6.603498    928.30666  0.026465579   0.02589307            2 
 2924000   0.77932767   -6.6130818    927.84958  0.026443501  0.025885598           26 
 2925000   0.79276118   -6.6438159    925.47762  0.026366884  0.025878185            8 
 2926000   0.78785386   -6.6145208     926.8826  0.026397887  0.025870695           12 
 2927000   0.77731756    -6.620983    926.68365  0.026383204  0.025863279           11 
 2928000   0.78476542    -6.634777    927.45764  0.026396222  0.025855822            6 
 2929000   0.76918842   -6.6161521    927.09653  0.026376935  0.025848349           11 
 2930000   0.76753149   -6.6067991    929.77115  0.026444003  0.025840875           13 
 2931000   0.77221404   -6.6072667    928.00675  0.026384816   0.02583344           16 
 2932000   0.79084502   -6.6084983    928.37461  0.026386272     0.025826            8 
 2933000   0.79977687   -6.5778979    929.21159  0.026401057  0.025818559            6 
 2934000   0.76126272   -6.6152447    926.75138  0.026322182  0.025811167           12 
 2935000    0.7826097   -6.6145887    929.36124  0.026387315  0.025803746            5 
 2936000   0.77811844   -6.6567969     925.2971  0.026262974  0.025796295           16 
 2937000   0.77880359   -6.6111912    925.10285   0.02624852  0.025788823            8 
 2938000   0.78780868   -6.6246636    927.71934    0.0263138  0.025781327            4 
 2939000   0.80276932   -6.6159624    928.67093  0.026331829   0.02577387            8 
 2940000   0.78927159   -6.6255222    926.38887  0.026258188  0.025766434            8 
 2941000   0.79180996   -6.6674592    925.30896   0.02621866  0.025758875           14 
 2942000   0.77354394   -6.6334167     927.8301  0.026281161  0.025751307            9 
 2943000   0.76308011   -6.6165895    930.40794  0.026345224  0.025743811           10 
 2944000   0.77470557   -6.6400798    927.36319   0.02625009  0.025736328           11 
 2945000   0.77657115   -6.6312184    928.61079   0.02627648  0.025728829            6 
 2946000    0.7776414   -6.6469487    925.93149  0.026191771  0.025721302           10 
 2947000    0.7544726   -6.6329477    925.70312  0.026176426  0.025713762            9 
 2948000   0.77794597   -6.6202141    926.59737  0.026192825  0.025706215            9 
 2949000   0.77662235   -6.6253095    928.07374  0.026225662  0.025698683           11 
 2950000   0.79668468    -6.634696    925.97018   0.02615735  0.025691158           49 
 2951000    0.7926884   -6.6091976    929.28205   0.02624201  0.025683643            4 
 2952000   0.78571571   -6.6175075     926.2671   0.02614801  0.025676161           17 
 2953000   0.78192689   -6.6292738    929.24346  0.026223148  0.025668663            4 
 2954000   0.76976765   -6.6564374    926.29752  0.026131165  0.025661104           13 
 2955000   0.77430417   -6.6285458    926.37344  0.026124462  0.025653609            8 
 2956000    0.7858082   -6.6218401    928.27343  0.026169188   0.02564606            5 
 2957000   0.79145329   -6.6569817    927.50482  0.026138677  0.025638543            9 
 2958000   0.77996875   -6.6211356    929.82434  0.026195187  0.025631025           10 
 2959000   0.77129034   -6.6053607    930.12265  0.026194735  0.025623566            5 
 2960000   0.78234494   -6.6032422    928.32168  0.026135182   0.02561608            5 
 2961000   0.78227641   -6.6107847     927.4243    0.0261011  0.025608675           17 
 2962000    0.7800489   -6.6194306    927.60869  0.026097476  0.025601256            4 
 2963000   0.78579987   -6.6170982    929.95797  0.026154741  0.025593815            8 
 2964000   0.78457189   -6.6417399    928.11578  0.026094123  0.025586341           18 
 2965000    0.7848743   -6.6239218    927.65873  0.026072477  0.025578808            9 
 2966000   0.77919359   -6.5973762    932.43333  0.026197835  0.025571355           14 
 2967000   0.78438417   -6.6232289    927.89177  0.026061447  0.025563881            7 
 2968000    0.7788105   -6.6028229    930.65601  0.026130279  0.025556438           13 
 2969000   0.76017832   -6.6300462    930.98514  0.026130716  0.025549009            9 
 2970000   0.76928858   -6.6175349    929.20413  0.026071945  0.025541569           10 
 2971000   0.76200193   -6.6462063    927.80945   0.02602405  0.025534151           13 
 2972000   0.77125638   -6.6222706    931.51455  0.026119183  0.025526704           17 
 2973000   0.78645762   -6.6561481    927.94826  0.026010434  0.025519227           16 
 2974000   0.77881594   -6.6232944    930.51428   0.02607359   0.02551179            6 
 2975000   0.76761441      -6.6171    930.35424  0.026060343  0.025504334            9 
 2976000   0.79033118   -6.6172055    928.87576  0.026010186  0.025496942            4 
 2977000   0.76761256   -6.6426836    927.94419  0.025975372  0.025489451           14 
 2978000   0.77591332   -6.6334891    929.76018  0.026017466  0.025481925            6 
 2979000   0.77231263   -6.6353629    928.29723  0.025967809  0.025474467            7 
 2980000   0.77283732   -6.6370511    929.76309  0.026000087  0.025467053           12 
 2981000   0.77002629   -6.6305538    930.20406  0.026003692  0.025459649            9 
 2982000    0.7748964   -6.6053767    930.78505  0.026011208  0.025452267           12 
 2983000   0.77539597   -6.6192954    930.83209  0.026003802  0.025444836            8 
 2984000   0.76604079   -6.6410902    931.62791  0.026017312  0.025437409            6 
 2985000    0.7709585   -6.6432725    929.52311  0.025949836  0.025429899           18 
 2986000   0.77351575   -6.6337851    929.38083  0.025937174  0.025422417           14 
 2987000   0.78874438   -6.6319279    929.09924  0.025920635  0.025414971            9 
 2988000   0.76811872   -6.6321594    930.57368  0.025953081  0.025407545           12 
 2989000    0.7823443   -6.6549882    927.31347  0.025853504  0.025400063           17 
 2990000   0.77728877   -6.6091234    927.60933  0.025853103  0.025392591           15 
 2991000   0.76371706    -6.643338    927.66446  0.025845995  0.025385083            8 
 2992000   0.76444627   -6.6552368    928.89584  0.025871653  0.025377635            4 
 2993000   0.78286974   -6.6508437    930.97659  0.025920943  0.025370136           11 
 2994000   0.78931238   -6.6497295    929.33451  0.025866581  0.025362647           13 
 2995000   0.76299612   -6.6183375    929.97258  0.025875698  0.025355192            6 
 2996000   0.75512661   -6.6049693    929.71559  0.025859913  0.025347697            9 
 2997000   0.78432515   -6.6167775    931.95284  0.025913493  0.025340282           14 
 2998000    0.7745473   -6.6447237    931.09632  0.025881041  0.025332869            8 
 2999000   0.76798222   -6.6416173    931.25436  0.025876802  0.025325459            7 
 3000000   0.77542636   -6.6320391    929.91483  0.025830968  0.025318005            9 
 3001000   0.77558465   -6.6467677    929.90246  0.025822016  0.025310556            7 
 3002000   0.76805479   -6.6323808    930.42148  0.025827822  0.025303094           29 
 3003000   0.76266187   -6.6419422    930.04206  0.025808693  0.025295612           10 
 3004000   0.77170275   -6.6414409    929.18149  0.025776229   0.02528813            9 
 3005000   0.75298848   -6.6700967    930.45546   0.02580298  0.025280609            6 
 3006000    0.7658405   -6.6660775    928.44314   0.02573861  0.025273098           13 
 3007000   0.77286236   -6.6398881    929.23934  0.025752115  0.025265604            8 
 3008000   0.79874528   -6.6366861    931.01301  0.025792692  0.025258126           20 
 3009000   0.74374488   -6.6783954    928.99275   0.02572817  0.025250643           18 
 3010000   0.77920017   -6.6406756    931.40688  0.025786459  0.025243159           11 
 3011000   0.77589448   -6.6797479    930.05157  0.025740384  0.025235603            9 
 3012000   0.78369983   -6.6435086      930.944  0.025756529  0.025228083            7 
 3013000   0.77151592   -6.6359999    932.44588   0.02578952  0.025220606            4 
 3014000   0.76057038   -6.6355578    931.27566  0.025748608  0.025213115           12 
 3015000   0.76893525   -6.6606715    930.84773   0.02572824   0.02520564           10 
 3016000   0.77481785   -6.6851236    930.31621  0.025705023  0.025198155            5 
 3017000   0.77587545   -6.6666306    928.28406  0.025640373  0.025190662            4 
 3018000   0.76658433   -6.6412957    932.33142  0.025743633   0.02518321            5 
 3019000   0.77063343   -6.6607345    931.76518  0.025719476  0.025175777            6 
 3020000   0.77114741   -6.6200648    930.88104  0.025686563   0.02516838            7 
 3021000   0.77122479   -6.6052485    932.74868  0.025729578  0.025161002           14 
 3022000   0.76876171   -6.6278423    932.22861  0.025706723  0.025153606            8 
 3023000   0.76929573   -6.6548634    934.93033  0.025772696  0.025146191           15 
 3024000   0.76213127   -6.6686433    931.06291  0.025657598  0.025138756           18 
 3025000   0.77883499   -6.6193303    931.45642  0.025659956  0.025131299           10 
 3026000   0.77480045   -6.6471764    931.03615  0.025639903  0.025123843           20 
 3027000   0.75091936   -6.6674024    930.69985  0.025622174  0.025116378           14 
 3028000   0.76771001   -6.6358626    932.52135  0.025663842  0.025108933            6 
 3029000   0.78369963   -6.6482405    932.11203  0.025644108  0.025101497            9 
 3030000   0.76803177   -6.6546063    933.69123  0.025679077  0.025094081            6 
 3031000     0.758532    -6.660981    929.53666   0.02555638  0.025086673            7 
 3032000   0.74645566   -6.6607557     930.6399  0.025578274  0.025079214           10 
 3033000   0.76546748   -6.6739049      930.088  0.025554676  0.025071754           11 
 3034000   0.76696486   -6.6665418    929.66177  0.025534547  0.025064263           10 
 3035000   0.76261553   -6.6481798    929.58005  0.025523889  0.025056754            6 
 3036000   0.77748482    -6.644266    931.35658  0.025564245  0.025049288           10 
 3037000    0.7789474   -6.6560904    932.39265  0.025584257  0.025041833            5 
 3038000   0.76983377   -6.6348649    931.03211  0.025538515  0.025034379           10 
 3039000   0.75867151   -6.6824519    933.22236  0.025590171  0.025026873            5 
 3040000    0.7676875     -6.68802     929.1968  0.025471404   0.02501939            7 
 3041000   0.75738098   -6.6584034    932.03957  0.025540929  0.025011929            5 
 3042000   0.75491741   -6.6725208      929.744  0.025469647  0.025004443           17 
 3043000   0.76218218   -6.6651312    930.53791  0.025483019  0.024996913           14 
 3044000    0.7717126   -6.6909886    931.74123   0.02550759  0.024989398            8 
 3045000   0.77485444    -6.642426    933.20557  0.025539288  0.024981907           12 
 3046000   0.76716979    -6.670114    929.98675  0.025442842   0.02497442            8 
 3047000   0.76264086   -6.6715853    929.45922  0.025420064  0.024966888           11 
 3048000   0.76630642    -6.653199    932.02465  0.025481864  0.024959358           17 
 3049000   0.77039354   -6.6695032    931.00416  0.025445615  0.024951834           29 
 3050000   0.76165753   -6.7133971    928.21349  0.025361024  0.024944294           13 
 3051000   0.75698005   -6.6762568    931.81988  0.025451215  0.024936738           15 
 3052000   0.76469916   -6.6830319     928.3349   0.02534772  0.024929201           17 
 3053000   0.75978465   -6.6710819    930.46609   0.02539759  0.024921604           23 
 3054000   0.75257094   -6.7187419    927.41958  0.025306145  0.024914055            8 
 3055000   0.75809773   -6.6802535    931.04168  0.025396663  0.024906484           13 
 3056000   0.76121632   -6.6861198    929.90054  0.025357235  0.024898924           12 
 3057000   0.78374897   -6.6423914    932.72057  0.025425814  0.024891434           18 
 3058000   0.77930631     -6.61455    933.73129  0.025445043  0.024883963           19 
 3059000   0.75723488   -6.6993946    927.77711  0.025274521  0.024876453            9 
 3060000    0.7685107   -6.6407126    931.74988  0.025374452  0.024868947           16 
 3061000   0.75486581   -6.6302098    934.57598  0.025443101  0.024861523           16 
 3062000   0.76358852   -6.6536539    931.14343  0.025341374  0.024854101           12 
 3063000   0.76387411   -6.6529626    933.15864  0.025387927  0.024846637           10 
 3064000    0.7639574    -6.658918    932.03609   0.02534911  0.024839176            7 
 3065000   0.76696088   -6.6659213    930.13124   0.02528905  0.024831711            9 
 3066000   0.76736267   -6.6516603    933.40627  0.025369816  0.024824209           15 
 3067000    0.7590491   -6.6452947    932.39894  0.025334174  0.024816723            9 
 3068000   0.75549023   -6.6661382     928.7181  0.025225937  0.024809225            9 
 3069000   0.74350675   -6.6758043    931.80685  0.025301587  0.024801745           14 
 3070000   0.73879136   -6.6417281    934.00696  0.025353066  0.024794268            5 
 3071000   0.74710531   -6.6762047    929.29325  0.025216901  0.024786773           10 
 3072000   0.75045017    -6.651408    930.98951  0.025254707  0.024779303            8 
 3073000   0.74887398    -6.641702    932.37886  0.025284165  0.024771838           19 
 3074000    0.7582856   -6.6813895      931.133  0.025242165  0.024764339           14 
 3075000   0.75353641   -6.6898726    930.63063  0.025220342  0.024756842           17 
 3076000   0.75973611   -6.6781941    930.39539   0.02520577  0.024749334            7 
 3077000   0.74287986   -6.6514876    931.99036  0.025240774  0.024741824           16 
 3078000    0.7618404   -6.6906343    930.93145  0.025203906   0.02473428            7 
 3079000   0.74679534   -6.7185716    928.63599  0.025133593  0.024726662           14 
 3080000   0.75093109   -6.6822149    930.71517  0.025181687  0.024719061           16 
 3081000   0.75879322   -6.7112315    929.41828  0.025138437  0.024711481           23 
 3082000    0.7620214   -6.6863193    930.71225  0.025165267  0.024703894           22 
 3083000   0.77023165   -6.6956685    930.46781  0.025150498  0.024696354           14 
 3084000   0.76297449   -6.6943161    931.99513  0.025183612  0.024688771           26 
 3085000   0.75606379   -6.6865016     928.9457  0.025093077  0.024681188           26 
 3086000   0.75923637   -6.7015761    928.93321  0.025084608  0.024673588           54 
 3087000   0.76191639   -6.6669509    934.98549  0.025239863  0.024666022            8 
 3088000   0.76430058   -6.6980358    931.49013  0.025137363  0.024658483           15 
 3089000   0.76077435    -6.676088    931.00009  0.025116005  0.024650924           10 
 3090000   0.75549958   -6.6591538    933.93727  0.025187089  0.024643392           10 
 3091000   0.74890072    -6.683454    929.35232   0.02505533  0.024635846           10 
 3092000   0.76740887   -6.6787042    930.00426  0.025064798  0.024628286            7 
 3093000   0.76386429   -6.6770579    931.95406  0.025109227  0.024620693           10 
 3094000   0.76031942   -6.6692475    932.81386  0.025124269  0.024613113            8 
 3095000   0.76041549   -6.6926878    930.00791  0.025040601  0.024605546           15 
 3096000   0.77515375   -6.7037079    928.31111  0.024986841  0.024597962            6 
 3097000   0.77127421   -6.7090548    930.66485  0.025042107  0.024590362           10 
 3098000   0.75424783   -6.6835165    930.63439  0.025033204  0.024582803            6 
 3099000   0.74771156   -6.6800686    932.39225  0.025072396  0.024575249            6 
 3100000   0.76279215   -6.6500349    932.79266  0.025075072  0.024567742           12 
 3101000   0.74928366   -6.6541312    932.96652  0.025071658   0.02456024            6 
 3102000   0.73930335   -6.6953881    929.25201  0.024963787  0.024552723            7 
 3103000   0.75683587   -6.6785585    932.89166  0.025053488  0.024545215           18 
 3104000   0.76511527   -6.6699629    933.28899  0.025056083  0.024537712           34 
 3105000   0.73414917   -6.6638183    934.50565  0.025080667  0.024530196            6 
 3106000   0.73788727    -6.698372    932.49306  0.025018595  0.024522676           12 
 3107000    0.7364377    -6.689564    931.16244  0.024974854  0.024515164           17 
 3108000   0.74607059   -6.6954856    931.28493  0.024970102   0.02450762           16 
 3109000   0.74601804   -6.7009025    933.32653  0.025016793  0.024500088            8 
 3110000   0.74421546   -6.6913199    934.97301  0.025052867  0.024492549            9 
 3111000   0.76863787   -6.7313498    930.16298   0.02491597   0.02448504           12 
 3112000   0.75911234   -6.7109979     930.9228   0.02492831  0.024477484            7 
 3113000   0.75557983   -6.7208169    930.34365  0.024904798  0.024469884           11 
 3114000   0.75644237   -6.6835932    931.70467  0.024933223   0.02446235            5 
 3115000   0.75413419   -6.7064797    932.16486   0.02493753  0.024454813           10 
 3116000   0.75189397   -6.6987893    932.88394  0.024948758  0.024447297           13 
 3117000   0.75893543    -6.670317     934.0744   0.02497258  0.024439816            8 
 3118000   0.75265907   -6.7159063    934.07715  0.024964645  0.024432356           14 
 3119000    0.7565904   -6.7003371    932.63946  0.024918229  0.024424877           19 
 3120000   0.75183191   -6.6991753    933.70342   0.02493866   0.02441741           17 
 3121000   0.77532865    -6.732574    929.36886  0.024814933  0.024409949           26 
 3122000   0.76927252   -6.7032136    932.98429  0.024903488  0.024402468           14 
 3123000   0.75976156   -6.6910569    931.23002  0.024848704  0.024395034            8 
 3124000   0.76665076    -6.680331    933.93243  0.024912837  0.024387605            7 
 3125000   0.75543181   -6.6923761    931.88395  0.024850239  0.024380173            8 
 3126000   0.74198103   -6.6835753    933.27986  0.024879501  0.024372724            6 
 3127000   0.73495784   -6.7122376    931.74818  0.024830727  0.024365279           13 
 3128000   0.75019886   -6.7163079    931.42005  0.024814047  0.024357769           11 
 3129000   0.74188284   -6.7175947    933.38253  0.024858382  0.024350272           22 
 3130000   0.74925772    -6.701811    932.97374  0.024839557  0.024342817            7 
 3131000    0.7394666   -6.6858572    933.75939  0.024852534  0.024335357           10 
 3132000   0.75935776   -6.7318735    932.35444  0.024807217  0.024327823           16 
 3133000   0.74015969   -6.7364929    933.28801  0.024824131  0.024320261           37 
 3134000   0.74573917   -6.7508464    931.58097  0.024770819  0.024312696           16 
 3135000   0.73847417   -6.6985566    934.41579  0.024838272  0.024305206           16 
 3136000   0.75200163   -6.7105649    934.28521  0.024826882  0.024297748           12 
 3137000   0.74656443   -6.7027924    935.28655  0.024845568  0.024290284           11 
 3138000   0.75008404   -6.7378413    931.24353  0.024730283  0.024282841           11 
 3139000   0.74626643   -6.7160671    934.17031  0.024800104  0.024275397           16 
 3140000   0.74301624   -6.6871481    935.09025   0.02481662  0.024268009           10 
 3141000   0.74256809   -6.6996529    934.07553  0.024781798  0.024260615           10 
 3142000   0.74494783   -6.7063188    933.55528  0.024760112  0.024253188            8 
 3143000    0.7447199   -6.6943375     935.5173  0.024804255  0.024245774           13 
 3144000   0.73991429   -6.7554202    932.09541  0.024705667  0.024238318            8 
 3145000   0.75479796   -6.7336236    933.26424  0.024728782  0.024230821            8 
 3146000   0.75211268   -6.7001846    933.20923  0.024719465  0.024223355            9 
 3147000   0.74937257   -6.7044521    933.78223  0.024726783  0.024215911            5 
 3148000   0.74207746   -6.6928999    932.63822  0.024688644  0.024208519           17 
 3149000   0.74498888   -6.7383979    935.86292  0.024766141  0.024201078           10 
 3150000    0.7523085   -6.6877207    934.16454  0.024713348  0.024193686            5 
 3151000   0.75366984   -6.6903052    934.47391  0.024713686  0.024186285           17 
 3152000    0.7305027   -6.7276405    934.72453  0.024712472  0.024178878            9 
 3153000   0.74862565   -6.7238481    933.48256  0.024671809   0.02417145           12 
 3154000   0.75952873   -6.6849777    932.31304  0.024633086  0.024164055            7 
 3155000   0.73537559   -6.6967923    935.90109   0.02472005  0.024156672            7 
 3156000   0.73703658    -6.697573    935.18589  0.024693333  0.024149316           18 
 3157000   0.75181746    -6.696105    936.48767  0.024719873  0.024141937            8 
 3158000   0.73955244   -6.6961354    932.10901  0.024596501  0.024134539            7 
 3159000   0.74598167   -6.6593897    937.55197  0.024732298  0.024127191            6 
 3160000   0.74722955   -6.7145329    934.48884  0.024643693  0.024119833           34 
 3161000   0.74737172   -6.7298428    931.87293  0.024566934  0.024112417           12 
 3162000   0.74870762   -6.7253444    934.45428  0.024627195  0.024104987           11 
 3163000   0.73223286   -6.7426796    935.42804  0.024645064  0.024097559           16 
 3164000   0.75369554   -6.7138331     934.2187  0.024605423  0.024090148           11 
 3165000   0.75157913   -6.7381311    933.84845    0.0245879  0.024082721           29 
 3166000   0.76048703   -6.7222278    936.33962  0.024645705  0.024075328           11 
 3167000   0.73920819   -6.7173796    932.15276  0.024527754  0.024067953           25 
 3168000   0.76260291    -6.729157     932.2619  0.024522883  0.024060514           20 
 3169000   0.74697206   -6.7139363     935.6497  0.024604231  0.024053073           14 
 3170000     0.750019    -6.718921    933.12006   0.02452997  0.024045667            9 
 3171000   0.75654813   -6.7391279     932.3407  0.024501753  0.024038245           12 
 3172000   0.76678157   -6.7225929     933.1568  0.024515469  0.024030817           12 
 3173000   0.74451803   -6.7532342      932.126   0.02448067  0.024023404           32 
 3174000   0.74434545   -6.7159346    934.23643  0.024528367  0.024015947           20 
 3175000    0.7379693   -6.7457365    933.25821  0.024494966   0.02400854            8 
 3176000   0.73851078   -6.7339557    933.29768  0.024488289  0.024001086           27 
 3177000   0.75199652   -6.7265701    934.69698  0.024517285  0.023993619            7 
 3178000    0.7354546   -6.7225247    934.81206  0.024512588  0.023986185           14 
 3179000   0.74503196   -6.7247493     933.6034  0.024473194  0.023978752            9 
 3180000   0.76047636   -6.7401162    932.99574  0.024449574  0.023971327           20 
 3181000   0.73393991   -6.7398251    932.49816  0.024428853  0.023963881            9 
 3182000   0.75430974   -6.7723529    933.11796  0.024437407  0.023956419           12 
 3183000   0.75398772   -6.7472339    932.65461  0.024417599  0.023948999           11 
 3184000    0.7370243   -6.7484294    931.22924  0.024372624  0.023941564           14 
 3185000   0.73582947   -6.7559483    934.93426  0.024461912  0.023934099           15 
 3186000    0.7235639   -6.7202975    933.76054  0.024423534  0.023926679           10 
 3187000   0.74711409   -6.7313577    937.12267  0.024503783  0.023919246           11 
 3188000   0.74198645   -6.7300911    935.56334  0.024455336  0.023911813           17 
 3189000   0.73818457   -6.7122302    935.73062  0.024452039  0.023904432           12 
 3190000   0.74015889   -6.7321185    933.06339  0.024374697  0.023897038           12 
 3191000   0.71917437   -6.7078719     937.7847  0.024490356  0.023889627           16 
 3192000   0.73161917   -6.7543541     933.5182  0.024371298  0.023882206           22 
 3193000   0.74293492   -6.7496005    934.09527  0.024378726  0.023874792            9 
 3194000   0.73701442   -6.7238435    934.64812  0.024385518  0.023867386           18 
 3195000   0.73830323   -6.7382874    933.74919  0.024354439  0.023859993           19 
 3196000   0.75645116   -6.7037017    937.03142    0.0244324  0.023852643           16 
 3197000   0.72799382   -6.7300749     934.8161  0.024367013  0.023845277            9 
 3198000   0.73367421     -6.75909    933.00957  0.024312319  0.023837893           14 
 3199000    0.7234808   -6.7417664    935.61452  0.024372578  0.023830523           15 
 3200000   0.74936759   -6.7428698    936.09161  0.024377386  0.023823129            8 
 3201000   0.73087295   -6.7292689    936.46846  0.024379581  0.023815738           24 
 3202000    0.7276696   -6.7143128    936.94998  0.024384499  0.023808374           10 
 3203000   0.74939993   -6.7023352    935.19296  0.024331173  0.023801053           17 
 3204000   0.74766576   -6.7561053    934.78947  0.024313084   0.02379368           33 
 3205000    0.7423801   -6.7407291    937.41972  0.024373888  0.023786306            9 
 3206000   0.73365487    -6.765187    934.89555  0.024300675  0.023778913            7 
 3207000   0.73561426   -6.7463565    934.91175  0.024293518  0.023771522           16 
 3208000   0.74135821   -6.7350532    935.45468  0.024300049  0.023764134           14 
 3209000   0.71584729    -6.712631    936.52398  0.024320245  0.023756712           14 
 3210000   0.72826229    -6.748157    934.99353  0.024272937  0.023749317           11 
 3211000   0.73224628   -6.7417093    935.38263  0.024275476  0.023741929            9 
 3212000    0.7281061   -6.7331276    936.17781  0.024288548  0.023734558           19 
 3213000   0.73754096   -6.7023178    936.22011  0.024282086  0.023727183            9 
 3214000   0.73510545   -6.7649477     933.8021  0.024211836  0.023719773           15 
 3215000   0.72573065   -6.7465244    933.06781  0.024185272  0.023712345            8 
 3216000   0.73299185   -6.7413089     936.8944  0.024276907  0.023704916           21 
 3217000   0.75543829   -6.7603133     936.1332  0.024249642  0.023697518           16 
 3218000   0.74906235    -6.728531    934.88329  0.024209739  0.023690124           33 
 3219000   0.73695942   -6.7679421    934.10036   0.02418195  0.023682714           11 
 3220000   0.71869125   -6.7411626    934.89699  0.024195057    0.0236753           12 
 3221000   0.72841867   -6.7408357    936.40151   0.02422647  0.023667904           11 
 3222000   0.74774911   -6.7419599     933.1437  0.024134691  0.023660495           17 
 3223000   0.74532319   -6.7213297     936.2835  0.024208385   0.02365309           11 
 3224000   0.73786748   -6.7819328    934.40451  0.024152309  0.023645663           24 
 3225000   0.75025638   -6.7731164    932.74998  0.024102067  0.023638226           19 
 3226000   0.73826419   -6.7529235     935.5675  0.024167377  0.023630799           12 
 3227000   0.73504154    -6.733792    935.59618  0.024160629  0.023623437           11 
 3228000   0.73926818   -6.7356325     935.6623  0.024154851   0.02361604            8 
 3229000   0.74099109   -6.7559054    935.18427  0.024135033  0.023608668           20 
 3230000   0.72499685   -6.7193057    937.27106    0.0241814  0.023601276           23 
 3231000   0.74444361   -6.7387432    935.55183  0.024129574  0.023593922           12 
 3232000   0.73998082   -6.7246451    936.18213  0.024138359  0.023586549           11 
 3233000    0.7293692   -6.7272125    938.95499  0.024202366  0.023579205            7 
 3234000   0.73251762   -6.7635746    934.49624   0.02407999  0.023571845           22 
 3235000   0.74609779   -6.7424368    935.32027  0.024093773  0.023564483            8 
 3236000   0.72378296   -6.7473316    934.70649  0.024070521  0.023557108           22 
 3237000    0.7515116   -6.7606569    934.35258  0.024053974  0.023549769           19 
 3238000   0.75929334   -6.7739185    937.61089  0.024130402  0.023542407           27 
 3239000   0.73762436   -6.7804538    933.33466  0.024012933  0.023535015           37 
 3240000   0.73477225   -6.7318148    935.29066   0.02405583  0.023527643            8 
 3241000    0.7275438   -6.7584011    937.60169  0.024107829  0.023520345            7 
 3242000   0.73842675   -6.7452116    937.85221  0.024106832  0.023513104           20 
 3243000    0.7384114   -6.7221797     940.2017  0.024159772  0.023505822           11 
 3244000   0.74498395   -6.7594298    934.63432  0.024009307   0.02349856           35 
 3245000   0.73723184   -6.7534275        936.5   0.02404982  0.023491264           14 
 3246000   0.70960284   -6.7610209    937.63364  0.024071515  0.023483963           14 
 3247000   0.74959997   -6.7387223    937.76652  0.024067512  0.023476689            8 
 3248000   0.74008311   -6.7361713    937.68723  0.024058067  0.023469409           22 
 3249000   0.73393859   -6.7457287    936.94619  0.024031656  0.023462109           10 
 3250000   0.73186337   -6.7384028    935.93233  0.023998265   0.02345478           14 
 3251000   0.73950836    -6.750718    938.36307  0.024053191  0.023447478            8 
 3252000   0.72574827   -6.7614237    937.52358  0.024024282   0.02344018            5 
 3253000   0.75235012   -6.7496601    937.17682  0.024008014  0.023432896           12 
 3254000   0.72184311   -6.7672489    937.32826  0.024004514  0.023425602           14 
 3255000    0.7331979   -6.7587271    938.24323  0.024020564  0.023418321           24 
 3256000   0.72962564   -6.7862736    933.57358  0.023893673  0.023411015           24 
 3257000   0.74754992    -6.782532    936.06636  0.023950117    0.0234037           15 
 3258000   0.71788575   -6.7462909    938.68103  0.024009644  0.023396432           17 
 3259000   0.72787187    -6.752409    940.02207  0.024036567  0.023389149           12 
 3260000    0.7374544   -6.7455479    939.83036  0.024024293  0.023381869            6 
 3261000   0.73377391   -6.7568704    937.99572  0.023970043  0.023374605            8 
 3262000   0.70826183   -6.7451775    939.38171  0.023998102  0.023367323           18 
 3263000    0.7298126   -6.7635043    938.20513  0.023960699  0.023360093           11 
 3264000   0.72492517   -6.7744601    936.56832  0.023911569  0.023352839            8 
 3265000   0.73083082   -6.7632707    936.76698  0.023909315  0.023345575           14 
 3266000   0.72426445   -6.7771711    938.73602  0.023952236  0.023338342           12 
 3267000   0.73890927   -6.7918547    937.27159   0.02390755  0.023331084            8 
 3268000   0.73229771   -6.7497139    937.78315  0.023913279  0.023323802           38 
 3269000   0.73139625   -6.7536774     937.9644  0.023910584  0.023316536           24 
 3270000     0.727446   -6.7623679    938.44692  0.023915569  0.023309254           12 
 3271000   0.74276098   -6.7615046    938.86044  0.023918793  0.023302015           16 
 3272000   0.72494908   -6.7907289    936.91773  0.023862004  0.023294762            7 
 3273000   0.72380798   -6.7477274    940.16968  0.023937511  0.023287521            8 
 3274000   0.73203773   -6.7706316    935.29649  0.023806162  0.023280266           18 
 3275000   0.72689093   -6.7592795    938.52016   0.02388092  0.023273001           19 
 3276000   0.73513705   -6.7532789    937.80077  0.023855331  0.023265754            5 
 3277000   0.72958909   -6.7743275    938.71141  0.023871209  0.023258512           10 
 3278000   0.71781615   -6.7511572    938.06341  0.023847453  0.023251266            5 
 3279000   0.72402451   -6.7299833    939.26465  0.023870709   0.02324403           11 
 3280000   0.73597343   -6.7726306    938.31809  0.023839382  0.023236812           15 
 3281000   0.72487224   -6.7630353    938.06336  0.023825647  0.023229587           11 
 3282000   0.74032972   -6.7946294    938.61557  0.023832408  0.023222343            4 
 3283000   0.71987427   -6.7700818     937.0906   0.02378644  0.023215098           11 
 3284000   0.73170559   -6.7698569     937.2253  0.023782615  0.023207817           17 
 3285000   0.73092218    -6.780892    937.47034  0.023781592  0.023200574           11 
 3286000   0.74207871   -6.7799402     937.7962  0.023782618  0.023193349           29 
 3287000   0.72246543   -6.7392231    940.30076  0.023838879   0.02318615            6 
 3288000   0.74350298   -6.7582325    938.37309  0.023782773  0.023178936            8 
 3289000     0.725901    -6.734115    938.14488   0.02376976  0.023171739            5 
 3290000   0.73755395   -6.7721127    937.52078  0.023746727  0.023164557           11 
 3291000   0.72492383   -6.7699689    941.62895  0.023843537   0.02315733           16 
 3292000    0.7257443   -6.7486633    938.75573  0.023763561  0.023150105            8 
 3293000   0.72883254    -6.807028    939.15591  0.023766472  0.023142873           10 
 3294000   0.74283683   -6.7836047    938.41057  0.023740401   0.02313565           15 
 3295000   0.73751941   -6.7629133    936.76633  0.023691612  0.023128451           16 
 3296000   0.71825358   -6.7883841    935.58855  0.023654646  0.023121267           40 
 3297000   0.72213692   -6.7532318    938.35522    0.0237174  0.023114099            6 
 3298000     0.712797   -6.7803717    937.92092  0.023699235  0.023106913            6 
 3299000   0.71576713   -6.7875423    939.52413  0.023732548  0.023099692           11 
 3300000   0.72640455    -6.757362    940.77346  0.023756906    0.0230925           17 
 3301000   0.73201497     -6.78477    940.72505  0.023748486  0.023085325           10 
 3302000   0.72434138   -6.7656394    942.13378  0.023776847  0.023078181           23 
 3303000   0.71033674   -6.7698974    939.20979  0.023695877  0.023071011           13 
 3304000   0.72040126   -6.7825287    937.09913   0.02363547  0.023063841           17 
 3305000   0.71968854   -6.7906597    939.38976  0.023686076  0.023056645           10 
 3306000   0.73561399   -6.7736186    940.80555  0.023714598  0.023049476           24 
 3307000   0.71154552   -6.7738778    937.52556  0.023624775  0.023042274           29 
 3308000   0.72729737   -6.7621799    942.32928  0.023738646    0.0230351           26 
 3309000   0.74053176   -6.7784467    939.48142  0.023659752  0.023027924           11 
 3310000   0.73205351   -6.7550687    938.74407   0.02363404  0.023020756           11 
 3311000   0.73023374   -6.7832215    938.00485  0.023608297  0.023013596           15 
 3312000    0.7176287   -6.7798189    939.53463   0.02363966  0.023006421           11 
 3313000   0.72270995   -6.7833655    937.95446  0.023592777  0.022999236           17 
 3314000   0.70467253   -6.7639118    939.18385  0.023616572   0.02299203            8 
 3315000   0.72424028   -6.7786916    939.98309   0.02362954  0.022984791           13 
 3316000   0.72835895   -6.7707638    940.62227  0.023638477  0.022977596           15 
 3317000   0.73545172   -6.7688761    938.87558  0.023587468  0.022970429           10 
 3318000   0.72615949    -6.794819    937.12005  0.023536268  0.022963254           10 
 3319000   0.72231216   -6.7732611    940.68703  0.023618736  0.022956071            9 
 3320000   0.73108161   -6.7897641    941.04237  0.023620542  0.022948883           16 
 3321000   0.73064502   -6.7779265    940.00824   0.02358748  0.022941735            6 
 3322000   0.72045656   -6.7633394    940.39648  0.023590118  0.022934559           12 
 3323000   0.71087878   -6.8053028    941.33848  0.023606643  0.022927378           11 
 3324000   0.69632816   -6.7857543    939.43482  0.023551816  0.022920186           16 
 3325000    0.7039312   -6.7831331    938.80909   0.02352905   0.02291299            5 
 3326000   0.73071276   -6.8033903    939.17648  0.023531181  0.022905814            8 
 3327000   0.72426522   -6.7771299    940.72167  0.023562811  0.022898654            9 
 3328000   0.71453194   -6.8194734    938.60445  0.023502716   0.02289148           13 
 3329000   0.72162531    -6.821943    938.42525   0.02349117  0.022884314           12 
 3330000   0.73185053   -6.7815759    939.23724  0.023504435  0.022877132           13 
 3331000   0.71376756    -6.811991    938.89915  0.023488921  0.022869916           12 
 3332000   0.70869107   -6.8002648    937.19451  0.023439239   0.02286273            7 
 3333000   0.71718325   -6.7915414    938.42792  0.023463044  0.022855544            8 
 3334000   0.71850787    -6.818049    939.71342  0.023488138   0.02284837           19 
 3335000   0.73129385   -6.7869629    939.74175  0.023481803  0.022841162           14 
 3336000   0.71243506   -6.8041309    939.14489  0.023459854  0.022833989           19 
 3337000   0.72229209   -6.7797236    941.53274  0.023512455  0.022826845           13 
 3338000   0.71821566   -6.7843916    941.59985  0.023507086  0.022819682            9 
 3339000   0.71489833   -6.7686745    939.43373  0.023445985  0.022812534           14 
 3340000   0.71180546   -6.7959519     939.7957  0.023447997  0.022805373           27 
 3341000   0.72017006   -6.8034613    938.28419  0.023403277  0.022798219           11 
 3342000   0.68510912   -6.7968252    939.77736  0.023433507  0.022791073           18 
 3343000   0.71494976   -6.7611852    939.34705  0.023415771  0.022783931           15 
 3344000   0.69684073   -6.8006429    939.13026  0.023403366  0.022776763           18 
 3345000   0.71299144    -6.802635    938.94594  0.023391777  0.022769629           15 
 3346000   0.71412755   -6.7834753    940.06925  0.023412763   0.02276248           30 
 3347000   0.71392307   -6.7784063     937.4772  0.023341231  0.022755349           22 
 3348000   0.71813111   -6.7678293    941.64657  0.023438037  0.022748229           12 
 3349000    0.7147027    -6.786097    940.05064  0.023391327  0.022741085            7 
 3350000   0.70714296   -6.8156849    940.37846  0.023392499  0.022733913           10 
 3351000   0.72756698   -6.8162557    938.14872  0.023330069  0.022726747           26 
 3352000   0.72345823   -6.8289801     940.2134  0.023374438  0.022719585           13 
 3353000   0.71779633   -6.8137538    937.47909   0.02329951  0.022712404           20 
 3354000    0.7137624    -6.827773    938.08972  0.023307735  0.022705206           23 
 3355000   0.71466694   -6.8247115    939.00075  0.023323417  0.022698037           16 
 3356000   0.71004113   -6.7878955    942.27385  0.023397742  0.022690878           29 
 3357000   0.70462872   -6.8228615    938.58531  0.023299208  0.022683722           10 
 3358000   0.71263758   -6.7896656    939.81835   0.02332287  0.022676535           39 
 3359000   0.72755632   -6.7826694    939.56984  0.023309761  0.022669377           27 
 3360000   0.71784135    -6.768199    938.37038  0.023273075   0.02266226           10 
 3361000   0.71238432   -6.8077274    939.49542  0.023294045  0.022655117           16 
 3362000   0.72331264   -6.7833142    939.74372  0.023293271   0.02264797            8 
 3363000   0.71538331    -6.809927     939.7237  0.023285849  0.022640865            8 
 3364000   0.70749337   -6.7938695    940.05655  0.023287172  0.022633735           12 
 3365000   0.71101784   -6.8133479    939.54506  0.023267585  0.022626595           25 
 3366000   0.70327806   -6.8094034    939.79997  0.023266983  0.022619494           17 
 3367000   0.71305404   -6.8223557    939.89539  0.023262434  0.022612353           22 
 3368000   0.72165277   -6.8360227    937.97469  0.023208004  0.022605212           16 
 3369000   0.70785241   -6.8374513    937.80112  0.023196822   0.02259806            8 
 3370000   0.69655974   -6.7966884    940.79529  0.023263978  0.022590908           19 
 3371000     0.716163   -6.7739578    941.48894  0.023274225  0.022583791           19 
 3372000   0.70655699   -6.7986568    939.68805  0.023222816  0.022576679           12 
 3373000   0.71129215   -6.8110351     940.3539  0.023232382  0.022569552           31 
 3374000   0.69674253   -6.8001883    941.63341  0.023257099  0.022562459            8 
 3375000   0.71981495   -6.8142976    939.33148   0.02319337  0.022555302           11 
 3376000   0.71868046   -6.8105333    941.60659  0.023242659  0.022548159            6 
 3377000   0.71722723   -6.8173737    940.56884  0.023210168   0.02254106           35 
 3378000   0.71885565   -6.8118368    939.56316  0.023178487   0.02253398            8 
 3379000   0.70881354   -6.7913806     941.3879   0.02321663   0.02252689           12 
 3380000   0.70433291   -6.7785515    943.14071  0.023252976  0.022519806           12 
 3381000    0.7069489   -6.8071493    939.20719  0.023149147  0.022512719           20 
 3382000   0.71254535   -6.8306003    940.33093  0.023169991  0.022505639           20 
 3383000   0.71367003   -6.8293968      939.713  0.023147921  0.022498531            7 
 3384000   0.71422574   -6.8365415    939.22718  0.023129117  0.022491425           15 
 3385000   0.69163022   -6.8180532    941.21715  0.023171274  0.022484314           18 
 3386000   0.71786857   -6.7976362    940.36118  0.023143364  0.022477191           14 
 3387000   0.70189645   -6.8190698    939.98296  0.023127226  0.022470088            9 
 3388000    0.6835368   -6.8185618    939.52746  0.023109196  0.022462991            9 
 3389000   0.72210262   -6.8224785    939.07859  0.023091339  0.022455909           12 
 3390000   0.72560705    -6.799772    940.07582  0.023109042  0.022448841            7 
 3391000   0.72505651   -6.8253081    939.59868  0.023090501  0.022441772           10 
 3392000   0.70725028   -6.8301716    940.37122  0.023102673  0.022434662           16 
 3393000   0.71241427     -6.82547    938.04768  0.023038798  0.022427576           10 
 3394000    0.7117569   -6.8501316    938.68269  0.023047601  0.022420483           18 
 3395000   0.71786392   -6.8433139     938.6178  0.023039219  0.022413354           10 
 3396000   0.70370542   -6.8499791    938.62471  0.023032605  0.022406256           18 
 3397000   0.70535982   -6.8159183    938.89753  0.023032517  0.022399121           12 
 3398000   0.71584102    -6.829932    942.16086  0.023105769  0.022392058           21 
 3399000   0.71197685    -6.839508     940.8664  0.023067235  0.022384969            9 
 3400000   0.70694416   -6.8210983    941.46743  0.023075182  0.022377893           10 
 3401000   0.71643439   -6.8314905     940.8398  0.023053019  0.022370813           18 
 3402000   0.68664697   -6.8224086    941.43306  0.023060774  0.022363752            7 
 3403000    0.7208062   -6.8303053    940.28038  0.023025771  0.022356708           12 
 3404000   0.70943748   -6.7701894    944.17496   0.02311435  0.022349717           14 
 3405000   0.69191164   -6.8155581    941.78723  0.023049125  0.022342718           13 
 3406000   0.72677813   -6.7942808    941.22117  0.023028508  0.022335732            8 
 3407000   0.70009843   -6.8103111    941.64957  0.023032227  0.022328761            9 
 3408000   0.71146563   -6.8253746    942.59556    0.0230486  0.022321729           20 
 3409000   0.72556877   -6.8312525    941.10764  0.023005467  0.022314668            9 
 3410000   0.69308076   -6.8180201    941.36908   0.02300511  0.022307603           14 
 3411000   0.70205749   -6.8450064    940.85288  0.022985754  0.022300536           22 
 3412000    0.7139085   -6.8312224    941.35711  0.022991332  0.022293502           15 
 3413000   0.71086842   -6.8474997     940.4748  0.022963053  0.022286459           15 
 3414000   0.71826777   -6.8119964    938.53244  0.022908915  0.022279391           21 
 3415000   0.71850875   -6.8387869    938.32941  0.022897253  0.022272297           15 
 3416000   0.69132348    -6.859281    939.72559  0.022924609  0.022265237           35 
 3417000   0.71286523   -6.8156767    941.65914  0.022965055  0.022258169           18 
 3418000   0.71370538   -6.8384896    940.92589   0.02294046  0.022251121           19 
 3419000   0.69160832   -6.8246925    940.40314  0.022921009  0.022244068           20 
 3420000   0.71741551   -6.8335174    939.97167  0.022903793  0.022237007           16 
 3421000   0.69194127   -6.8168165    941.90657  0.022944231      0.02223           13 
 3422000    0.7037795   -6.7909899    943.65752  0.022980166  0.022222998           17 
 3423000   0.70642639   -6.8429718    939.90202  0.022882024  0.022215991           12 
 3424000   0.69696863   -6.8254651    940.02794  0.022878406  0.022208938           24 
 3425000   0.72074316   -6.8200391    941.70864  0.022912619  0.022201922           17 
 3426000   0.70158792   -6.8513316    939.94415  0.022863012  0.022194895           22 
 3427000     0.710208   -6.8615722    942.05054  0.022907561  0.022187886           12 
 3428000   0.69244472   -6.8181315    942.71098  0.022916934  0.022180895           16 
 3429000   0.71811606   -6.8341545    941.77566   0.02288752  0.022173898           21 
 3430000   0.70472704   -6.8281778    941.51821  0.022874592  0.022166909           23 
 3431000   0.70756908   -6.8586514    941.24038  0.022861177  0.022159904           17 
 3432000    0.6930899   -6.8270927    940.45028  0.022835331  0.022152909           15 
 3433000   0.70444334   -6.8464791    938.79402  0.022788475  0.022145912           36 
 3434000   0.70810296   -6.8324006     941.0086  0.022835581  0.022138925           18 
 3435000   0.70654004   -6.8540299    940.70556  0.022821581  0.022131911           19 
 3436000   0.71041874   -6.8232993     941.2001  0.022826933  0.022124926           71 
 3437000   0.70966427   -6.8402589    940.01868  0.022791647  0.022117935           41 
 3438000   0.71046353   -6.8124728    945.08795  0.022907891  0.022110955           26 
 3439000   0.68699607   -6.8308591    942.75188  0.022844622  0.022103981           20 
 3440000   0.69569491   -6.8435422    939.53558  0.022760067   0.02209699           13 
 3441000   0.70306096   -6.8647893    941.34236  0.022797209  0.022089984           39 
 3442000   0.70914078   -6.8465493    943.96818  0.022854159  0.022082988           16 
 3443000   0.70121775   -6.8355945    942.34804  0.022808308  0.022076026           35 
 3444000   0.70281181      -6.8384    941.28443  0.022775949   0.02206906           92 
 3445000   0.68814985   -6.8415976     940.7137  0.022755532  0.022062075           77 
 3446000   0.69778345   -6.8748061    939.91333  0.022729574   0.02205508           16 
 3447000   0.69665464   -6.8459501     943.2775  0.022804311  0.022048103           40 
 3448000   0.69555299   -6.8202478    943.05657  0.022792357  0.022041159           20 
 3449000   0.70017105   -6.8406056    941.51633  0.022748534  0.022034217            8 
 3450000   0.69369834   -6.8530281    940.58254  0.022719385  0.022027275           19 
 3451000   0.71300227   -6.8560106    940.85179  0.022719303  0.022020322           12 
 3452000    0.6972889   -6.8590911    942.73894  0.022758279  0.022013372            9 
 3453000   0.68605475   -6.8454248    942.58718  0.022748025  0.022006402           15 
 3454000   0.69564067   -6.8338693     941.0562  0.022704502  0.021999452           28 
 3455000   0.70928954   -6.8399447    943.59575  0.022759184  0.021992534           26 
 3456000   0.70553378   -6.8555832    943.27856   0.02274495  0.021985611           29 
 3457000   0.70177701   -6.8527819     939.7831   0.02265411   0.02197869           12 
 3458000   0.68036799   -6.8229881    944.71904  0.022766509  0.021971781           40 
 3459000    0.6985643   -6.8310391    942.41789  0.022704488   0.02196489           23 
 3460000   0.69206969   -6.8491701     943.1235   0.02271492  0.021958002           17 
 3461000   0.71192397   -6.8376649    943.78161  0.022724203  0.021951111           19 
 3462000   0.69263168   -6.8321072    941.01537  0.022651054  0.021944243            6 
 3463000    0.7114566   -6.8291185    943.51552  0.022704676  0.021937361           15 
 3464000   0.69411072   -6.8411225    943.84576  0.022706066  0.021930461           34 
 3465000    0.7092878   -6.8816623    941.29963  0.022638279  0.021923557           13 
 3466000   0.69436441   -6.8433139    943.23572  0.022678297  0.021916683           18 
 3467000   0.69280629   -6.8534087    944.82476   0.02270995  0.021909821           14 
 3468000   0.71636946   -6.8671605    942.82966  0.022655461  0.021902894           26 
 3469000   0.69169093   -6.8511675    940.44971  0.022591758  0.021895956           35 
 3470000    0.7134086   -6.8598668     945.4173  0.022704546  0.021889032           20 
 3471000   0.70425537   -6.8580291    942.09389  0.022618215  0.021882112            8 
 3472000   0.69519186   -6.8743334    944.29157  0.022664448  0.021875209           30 
 3473000   0.69698158   -6.8741986    940.10403  0.022557444  0.021868267           58 
 3474000   0.69655056   -6.8490317    942.52339  0.022608986  0.021861342           23 
 3475000   0.69164276   -6.8499035    943.70206  0.022630745  0.021854461           26 
 3476000   0.69123103   -6.8776044    944.93834  0.022653873  0.021847619           31 
 3477000   0.69827167   -6.8660652    943.83801  0.022620986  0.021840702           31 
 3478000   0.70039438     -6.86358     943.7984  0.022613533  0.021833805           18 
 3479000   0.69494164    -6.848735    944.27458  0.022618439  0.021826928           11 
 3480000   0.68299757   -6.8518876    945.08078  0.022631245  0.021820056           42 
 3481000   0.69557121   -6.8671788    942.91271  0.022572841  0.021813186           43 
 3482000   0.69652127   -6.8602888    942.35532  0.022553018  0.021806313           35 
 3483000    0.6834834   -6.8533714    944.84661  0.022606149  0.021799432           31 
 3484000   0.68452605   -6.8298039    944.11256  0.022582103  0.021792555           26 
 3485000   0.68472277   -6.8653633    942.82127  0.022544746  0.021785693           15 
 3486000   0.67581944   -6.8574933    943.22166   0.02254785  0.021778847           18 
 3487000   0.68113398   -6.8292691    946.22332  0.022613118  0.021772024           14 
 3488000   0.68559228   -6.8183825    947.12489  0.022628175  0.021765217            9 
 3489000   0.68924394   -6.8357177     944.5333   0.02255979  0.021758429            9 
 3490000   0.68728237   -6.8247034    944.30985  0.022547991  0.021751637           17 
 3491000   0.69620403   -6.8710551    946.52121  0.022594319   0.02174483           24 
 3492000   0.69669572   -6.8995016    942.41705  0.022489907  0.021737991            7 
 3493000   0.70033965   -6.8544616    943.28967  0.022504286  0.021731115           11 
 3494000   0.71058944   -6.8715659      944.284  0.022521561  0.021724251           17 
 3495000   0.70402912   -6.8822569    945.07842  0.022534059  0.021717378           17 
 3496000   0.69110635   -6.8919401    941.55718  0.022443678  0.021710519           23 
 3497000   0.68256674   -6.8625953    942.18683  0.022452265  0.021703663           42 
 3498000   0.68584234   -6.8877544    943.49155  0.022476929  0.021696818           15 
 3499000   0.68668305   -6.8976138    941.96829  0.022434226  0.021689959           26 
 3500000   0.69439995   -6.9008656    943.41638  0.022462295    0.0216831           23 
 3501000   0.68410145   -6.8722825    943.96956  0.022469046  0.021676235           47 
 3502000    0.6856615   -6.8754799    943.16056  0.022443379  0.021669356           44 
 3503000   0.69141676   -6.8808733    944.11977  0.022459791   0.02166249           18 
 3504000   0.70223703   -6.8877309    943.53691  0.022439519  0.021655612           14 
 3505000   0.69276629   -6.8770814    942.73386  0.022414024  0.021648725           11 
 3506000   0.69368777     -6.88715    943.93234  0.022436117  0.021641868           17 
 3507000   0.69004626   -6.8839326    939.28224  0.022319224   0.02163499           44 
 3508000   0.70394575   -6.8814976    943.00055  0.022401191  0.021628127           36 
 3509000   0.69128063   -6.8638102    943.03444  0.022395612  0.021621263           18 
 3510000   0.67667344   -6.8354836    943.34434  0.022396589  0.021614429           10 
 3511000   0.68187302   -6.8489617    944.68623   0.02242206  0.021607596           17 
 3512000   0.69169742   -6.8788334    943.87259  0.022396369  0.021600774           27 
 3513000   0.68277473   -6.8913744    943.92722   0.02239129  0.021593919           11 
 3514000   0.66756421   -6.8809475    943.89329  0.022384113  0.021587058           21 
 3515000   0.70206965    -6.862776    943.26135  0.022362763  0.021580173           16 
 3516000   0.68906366    -6.860802    944.81514   0.02239323  0.021573322           23 
 3517000   0.69572734   -6.8711293    943.56396  0.022357216  0.021566465           19 
 3518000   0.68355526   -6.9077397    942.04122  0.022314791  0.021559616           28 
 3519000   0.69109139    -6.857225    943.02313  0.022331702  0.021552756           22 
 3520000   0.68036856   -6.8689178    944.79665  0.022367345  0.021545932           20 
 3521000   0.68292531   -6.8706147    944.54335  0.022354998  0.021539114           10 
 3522000   0.68485425   -6.8510114    944.15204  0.022339392  0.021532315           21 
 3523000   0.69462455    -6.878022    944.42503  0.022339508  0.021525525           27 
 3524000   0.68437565   -6.8844118    943.48783  0.022311006  0.021518717           17 
 3525000   0.67531447   -6.8580756    944.90974  0.022338292    0.0215119           18 
 3526000    0.6803931   -6.8607741    943.61889  0.022301448  0.021505085           25 
 3527000   0.68492387   -6.8718122     943.4686  0.022291574   0.02149827           25 
 3528000    0.6908268   -6.8794782    944.14325  0.022301192   0.02149146           28 
 3529000   0.68034746   -6.8963971    944.84199  0.022311372  0.021484672           23 
 3530000   0.68951217   -6.8952853    940.93874  0.022212907   0.02147785           14 
 3531000   0.67946805   -6.8768917    941.34045  0.022216097  0.021471015           12 
 3532000   0.68512203    -6.908051    944.72865  0.022289747  0.021464177           22 
 3533000   0.67756435   -6.8950571    941.66718  0.022211227  0.021457321           48 
 3534000   0.68787839   -6.9008772    940.79849  0.022184458  0.021450472           12 
 3535000   0.67555901   -6.8847124    943.80392  0.022249032  0.021443627           37 
 3536000   0.67950471   -6.8936893    942.22202  0.022205459  0.021436792           18 
 3537000   0.67981702    -6.899531    942.92454  0.022215732  0.021429961           15 
 3538000    0.6924971   -6.8734955    942.76244  0.022205635  0.021423128           23 
 3539000   0.67410988   -6.8845229    945.32321  0.022259659  0.021416297           21 
 3540000   0.68596269   -6.9186977    941.51836  0.022163803  0.021409474           23 
 3541000   0.69092306   -6.9259976    941.50246   0.02215717  0.021402631           16 
 3542000   0.68310177   -6.9033397    940.56529  0.022128865  0.021395795           14 
 3543000   0.67441491   -6.9238221    940.99282  0.022132675  0.021388955           29 
 3544000   0.67404641   -6.8974589    945.08554  0.022222666  0.021382115           27 
 3545000     0.676245   -6.8886937    944.30167  0.022197971  0.021375279           12 
 3546000   0.67193552   -6.8749833     944.9718  0.022207459  0.021368469           32 
 3547000   0.69094098   -6.8812539    944.00199  0.022178413  0.021361685           41 
 3548000   0.67940021   -6.9069411    942.98211  0.022148208  0.021354914           28 
 3549000   0.70779478   -6.9051019    942.93907  0.022140957   0.02134812           58 
 3550000   0.69846237   -6.9030262     943.0734  0.022137873  0.021341304           50 
 3551000   0.67624193   -6.8841426    943.53048  0.022142365  0.021334514           34 
 3552000    0.7005703   -6.8934961    943.00786  0.022123871   0.02132773           20 
 3553000   0.67588696   -6.8639926    943.17031  0.022121454  0.021320934           16 
 3554000   0.71472477   -6.9095095    942.35638  0.022096145  0.021314119           28 
 3555000   0.68141067   -6.8941911    944.12637   0.02213142  0.021307315           28 
 3556000   0.67510535   -6.8885711    943.54993  0.022111688  0.021300507           38 
 3557000   0.67781736   -6.9090723    941.86127  0.022065909  0.021293702           27 
 3558000   0.68527288   -6.9255415    940.46136   0.02202692  0.021286904           18 
 3559000   0.69753373   -6.9220112    942.00594  0.022056896  0.021280094           25 
 3560000   0.68343989   -6.8969237    943.69123   0.02209015  0.021273273           22 
 3561000     0.689034     -6.90291    941.95863  0.022043401  0.021266448           41 
 3562000   0.68267742   -6.9006398    942.48948  0.022049632  0.021259657           19 
 3563000   0.68421215   -6.8967349    940.10584  0.021987694  0.021252855           29 
 3564000   0.68473886   -6.9024494    943.36329   0.02205769  0.021246064           24 
 3565000   0.68290177   -6.9017127    941.66642  0.022011838  0.021239258           14 
 3566000   0.68135463   -6.8926024    942.97538  0.022036254  0.021232455           21 
 3567000   0.68364853   -6.9063333    943.18196  0.022034902  0.021225661           17 
 3568000   0.66899463   -6.8949264     941.7205  0.021994593  0.021218863           23 
 3569000    0.6795772   -6.9211824    942.58818   0.02200869  0.021212026           16 
 3570000   0.66972781   -6.9235083    942.99697  0.022012067  0.021205222           21 
 3571000   0.67969346   -6.9205738    942.02246  0.021983162  0.021198418           35 
 3572000   0.65969699    -6.905342    941.15104  0.021956678   0.02119162           13 
 3573000   0.68694094   -6.9012366    944.45656  0.022027628  0.021184832           62 
 3574000   0.69196002   -6.9142278    944.27209  0.022017163   0.02117808           27 
 3575000   0.69238823   -6.9189434    943.81666  0.022000388  0.021171332           27 
 3576000   0.69008833   -6.8832505    944.93454  0.022020287  0.021164587           46 
 3577000   0.69282992   -6.8935763    944.75615  0.022009975  0.021157865           47 
 3578000   0.68767183   -6.9107025    940.97409  0.021915737   0.02115113           53 
 3579000   0.67162712    -6.895773    942.93274  0.021955219  0.021144386           21 
 3580000   0.68539853   -6.8901844    942.91909  0.021948768  0.021137637           71 
 3581000   0.68070298   -6.8921772    943.72206  0.021961325  0.021130898           14 
 3582000   0.68704436   -6.8742986    946.33708  0.022016031  0.021124164           15 
 3583000   0.67010666   -6.9018892     944.3125  0.021962799  0.021117439           11 
 3584000   0.66233019   -6.8916676    942.88489  0.021923477  0.021110705            9 
 3585000   0.68962808    -6.941965     942.3273    0.0219044  0.021103942           12 
 3586000   0.68091972   -6.9007797    944.56441  0.021950279    0.0210972            9 
 3587000   0.67626484    -6.909408    942.86471  0.021904672   0.02109048           14 
 3588000   0.68142598   -6.9126744     943.8779  0.021922099  0.021083752           21 
 3589000   0.68357407   -6.8874071    947.88419  0.022009014  0.021077075           14 
 3590000   0.67918852   -6.9013322    944.51269  0.021924621  0.021070385           19 
 3591000   0.66921814   -6.9217263    943.60441  0.021897438  0.021063669           28 
 3592000   0.67678451   -6.9229955    944.01745  0.021900924  0.021056975           19 
 3593000   0.68158965   -6.9159422    945.35178  0.021925777  0.021050273           42 
 3594000   0.66596079   -6.9276101    944.66761  0.021903812  0.021043583           23 
 3595000   0.67931855   -6.8950541    944.34928   0.02189034  0.021036878           27 
 3596000   0.66883366   -6.9024511    943.67469   0.02186862  0.021030177           17 
 3597000   0.67958654   -6.8990767    944.51877  0.021882096  0.021023482           24 
 3598000   0.67601113   -6.9015082    943.29501   0.02184767  0.021016791           27 
 3599000   0.68077101   -6.9110748    943.58667  0.021848353  0.021010078           23 
 3600000   0.67387124    -6.893945    946.39028  0.021907182  0.021003398           15 
 3601000   0.67521746   -6.9289336    944.18543  0.021850075   0.02099671           16 
 3602000   0.67473309   -6.9071817    943.18053   0.02182076   0.02099001           27 
 3603000   0.66847693   -6.9338841    944.36196  0.021842029    0.0209833           19 
 3604000    0.6851177   -6.8991633    942.46378  0.021792078  0.020976608           14 
 3605000   0.68446386   -6.8934794    945.49951  0.021856207  0.020969935           22 
 3606000   0.67144175   -6.9261729    945.37697  0.021847314   0.02096325           27 
 3607000    0.6725873   -6.9164909    945.42439  0.021842353  0.020956559           33 
 3608000    0.6806401   -6.9172574    944.84926  0.021823015   0.02094989           53 
 3609000   0.67318671   -6.9252865    945.12729  0.021823388  0.020943225           27 
 3610000   0.67596347   -6.9088095    944.37793  0.021800045   0.02093658           40 
 3611000   0.67851782   -6.9093038    945.85322  0.021828054  0.020929911           26 
 3612000    0.6739213   -6.9026808    945.31392  0.021809568   0.02092325           13 
 3613000   0.67030852   -6.9236835    942.17979  0.021731243  0.020916571           44 
 3614000   0.66826796    -6.900838    943.68973  0.021760047  0.020909919           17 
 3615000   0.66985705   -6.9075964    943.46676  0.021748888  0.020903232           23 
 3616000   0.68208193   -6.9220028    942.99161  0.021731923  0.020896556           15 
 3617000   0.67826559   -6.9156432     943.9668  0.021748383  0.020889878           24 
 3618000     0.689376   -6.9132376    944.17304  0.021747122  0.020883219           21 
 3619000   0.67427345   -6.9246804    942.02064   0.02169155  0.020876551           16 
 3620000   0.66075615   -6.9494272    944.94287  0.021752829  0.020869885           17 
 3621000   0.68279869   -6.9477603    944.76053  0.021742625  0.020863198           19 
 3622000   0.67958293   -6.9304943    944.25024  0.021724881  0.020856521           27 
 3623000   0.68078468   -6.9365161    944.27493  0.021719453  0.020849856           25 
 3624000   0.68496763   -6.9312088    947.11823  0.021778841  0.020843228           23 
 3625000   0.67853305   -6.9151366    943.90315  0.021698923  0.020836553           37 
 3626000   0.68780284   -6.9239862    944.37675  0.021703823  0.020829896           59 
 3627000   0.67213884   -6.9177562    945.97401  0.021734537  0.020823269           24 
 3628000   0.66849438   -6.9465062    944.70848  0.021699478   0.02081663           22 
 3629000   0.65760657   -6.9310981    943.09625  0.021656477  0.020809982           56 
 3630000   0.67901602   -6.9544324    944.56772  0.021684291  0.020803337          108 
 3631000    0.6847196   -6.9500175    943.10552  0.021644761   0.02079667           52 
 3632000   0.68573792   -6.9553533    943.62968  0.021650828  0.020790007           59 
 3633000   0.66997692   -6.9373886    942.75959   0.02162491  0.020783363           52 
 3634000    0.6660302   -6.9353703    944.62872  0.021661822  0.020776738           97 
 3635000   0.67838277   -6.9463973    943.29363  0.021625255  0.020770068           78 
 3636000   0.66688114   -6.9573689    942.85651  0.021609289    0.0207634           71 
 3637000   0.66280787     -6.95413    943.66146  0.021621791   0.02075675           46 
 3638000   0.66708083   -6.9459635     945.1337  0.021649572  0.020750113           54 
 3639000   0.66736909   -6.9571913    943.96421  0.021616841  0.020743472           48 
 3640000   0.66950613   -6.9626188    942.65396  0.021580906    0.0207368           36 
 3641000   0.66003276   -6.9455393    944.39567  0.021614842  0.020730164          107 
 3642000   0.67514075   -6.9557712    944.60911  0.021613791   0.02072352           43 
 3643000   0.67787645    -6.945955    945.52899    0.0216289  0.020716883           32 
 3644000   0.66693393   -6.9396992    944.89071  0.021608368  0.020710261           26 
 3645000   0.66362777   -6.9333185    944.35209  0.021590125  0.020703656           41 
 3646000   0.66734395    -6.927655     945.4279  0.021608793  0.020697055           15 
 3647000   0.65942827   -6.9299572    942.56656  0.021537487  0.020690462           25 
 3648000   0.67632471   -6.9605714    943.44921  0.021551745   0.02068385           19 
 3649000   0.67400398   -6.9279139    945.72419  0.021597794  0.020677242           36 
 3650000   0.66997985   -6.9229361    944.56466  0.021565403  0.020670657           29 
 3651000   0.67283593   -6.9214086    945.29656  0.021576202  0.020664094           48 
 3652000    0.6795285   -6.9470451    944.54913  0.021553239  0.020657509           20 
 3653000   0.68068385   -6.9312962    943.90546  0.021532655  0.020650955            9 
 3654000   0.66575896   -6.9407161    945.66644  0.021566923  0.020644397           10 
 3655000   0.65334225    -6.942234    945.17386  0.021549792  0.020637824           25 
 3656000   0.68502806   -6.9023931    946.58008   0.02157595  0.020631275           29 
 3657000    0.6627037   -6.9642307    943.85952  0.021508056  0.020624701           22 
 3658000   0.64562808   -6.9236197    944.26029  0.021511306  0.020618132           49 
 3659000   0.66026242   -6.9457839    942.20225  0.021458555  0.020611565           44 
 3660000   0.68683311   -6.9463139    944.17834  0.021497685  0.020604981           27 
 3661000    0.6628482   -6.9570633    944.43467  0.021497648  0.020598396           20 
 3662000   0.66947665   -6.9314029    944.68259  0.021497419  0.020591814           22 
 3663000   0.66876141    -6.958144    944.23144  0.021481287  0.020585236           11 
 3664000   0.66580767   -6.9224722    944.80502  0.021488469  0.020578675           23 
 3665000   0.67190596   -6.9455574    943.75031  0.021458625  0.020572122           40 
 3666000   0.65969123   -6.9057606    944.21395   0.02146331  0.020565547           32 
 3667000   0.68085059   -6.9491446    946.03929  0.021498938  0.020558976           20 
 3668000   0.66175092   -6.9299988    944.71412  0.021462971  0.020552446           22 
 3669000   0.65369722   -6.9238201    946.09228  0.021488423  0.020545919           35 
 3670000   0.67200079   -6.9331023    945.99637   0.02148039  0.020539371           21 
 3671000   0.65830048   -6.9232452    944.66652   0.02144435  0.020532825           21 
 3672000   0.66563659   -6.9563957    944.68054  0.021438828  0.020526259           31 
 3673000   0.67265694   -6.9457385    944.95504   0.02143922  0.020519714           18 
 3674000   0.66608687    -6.955593    943.66542  0.021404133  0.020513174           11 
 3675000   0.65775519   -6.9820489    945.15412  0.021432066  0.020506636           14 
 3676000   0.66558003   -6.9304159    945.73444  0.021439392  0.020500083           35 
 3677000   0.66575967   -6.9245338    946.85906  0.021459049  0.020493516           67 
 3678000   0.65828172    -6.945308    944.34359   0.02139622  0.020486962           25 
 3679000   0.65599578   -6.9559855    944.25696  0.021388442  0.020480408           27 
 3680000   0.66594644   -6.9563449    946.62804  0.021436323   0.02047387           29 
 3681000   0.66385543   -6.9306268    946.80472    0.0214345  0.020467326           23 
 3682000   0.66663988   -6.9717645    945.33315  0.021395373  0.020460805           23 
 3683000   0.65773494   -6.9649614    943.24777  0.021342379  0.020454268           27 
 3684000   0.65374175    -6.943269    947.12413   0.02142427  0.020447751           19 
 3685000   0.65435893   -6.9763409    944.25526  0.021353579  0.020441227           30 
 3686000   0.66818548   -6.9720689    944.59156  0.021355389  0.020434699           22 
 3687000   0.64670504   -6.9438901    946.57645  0.021394459  0.020428171           29 
 3688000    0.6551779   -6.9489506    946.69936  0.021391435  0.020421664           25 
 3689000   0.65753027   -6.9674299    945.87248  0.021366958  0.020415138           25 
 3690000    0.6701539   -6.9542736    945.01944  0.021341902  0.020408641           55 
 3691000   0.65787574   -6.9386385    945.60073  0.021349244  0.020402168           54 
 3692000   0.64774422    -6.935252    946.98504  0.021374707  0.020395706           11 
 3693000   0.65208224    -6.935823    947.01728  0.021369647  0.020389223           25 
 3694000   0.65543709   -6.9406556    945.17819  0.021322374  0.020382736           20 
 3695000   0.65673798   -6.9609157    943.81636   0.02128589  0.020376218           27 
 3696000   0.67518182   -6.9445574    945.72336  0.021323128  0.020369738           19 
 3697000   0.66725324   -6.9350297    946.68197  0.021338968  0.020363253           18 
 3698000    0.6628152   -6.9466551    946.96255   0.02133952  0.020356764           24 
 3699000    0.6667391   -6.9687672    943.28815  0.021250972  0.020350269           22 
 3700000   0.65742573   -6.9755465    944.99807   0.02128374   0.02034376           41 
 3701000   0.65442718   -6.9610004    944.51492  0.021267111  0.020337278           19 
 3702000   0.64785144   -6.9598822    945.07486   0.02127397  0.020330792           25 
 3703000   0.65424535   -6.9598363    947.65466  0.021326282  0.020324298           14 
 3704000   0.65707627   -6.9639644    945.19414  0.021265167  0.020317822           22 
 3705000   0.65428923   -6.9408693    946.80853  0.021295738  0.020311358            9 
 3706000   0.67773295   -6.9513885    947.28589  0.021300726  0.020304884           10 
 3707000   0.65717021   -6.9636623    945.91127  0.021264079  0.020298421           42 
 3708000    0.6631802   -6.9778898     947.8127  0.021301076  0.020291948           43 
 3709000    0.6645516    -6.961791    947.54613  0.021289344  0.020285491           13 
 3710000   0.65238079    -6.959663     945.5949  0.021239778  0.020279032           25 
 3711000   0.67086855    -6.961688     947.3735  0.021273994   0.02027258           23 
 3712000   0.65633924   -6.9690015    945.74115  0.021231617  0.020266099           20 
 3713000   0.67663233   -6.9636334    945.21012  0.021213981  0.020259618           48 
 3714000   0.65925146   -6.9737857    946.11354  0.021228539  0.020253155           63 
 3715000   0.65221286    -6.986064    946.39858  0.021229219  0.020246699          104 
 3716000   0.67036755    -7.001905    944.04695  0.021170769  0.020240221          106 
 3717000   0.66080744   -6.9635651    944.52636  0.021175822  0.020233719           76 
 3718000   0.65562089   -6.9793663    944.87348  0.021177907  0.020227211           63 
 3719000   0.66074014   -6.9763558    945.91953  0.021195651  0.020220739           95 
 3720000    0.6575367   -6.9696551    943.98514   0.02114662  0.020214246          103 
 3721000   0.66127464   -6.9663691    948.54273  0.021243006  0.020207785           33 
 3722000   0.66461893   -6.9850248    945.20968  0.021162674  0.020201313           88 
 3723000   0.65691071   -7.0011968    944.39872  0.021138838  0.020194834           55 
 3724000   0.65048482   -6.9778893    945.58233  0.021159647   0.02018835          116 
 3725000   0.66218362    -6.972084    945.03723  0.021141773  0.020181883           55 
 3726000   0.65195961   -6.9995118    941.32332  0.021053035  0.020175373           57 
 3727000   0.65501137   -6.9866385    945.05382  0.021130798   0.02016886           43 
 3728000   0.65782167   -6.9977575    943.49647  0.021090318  0.020162356           83 
 3729000   0.64502021   -6.9642928    944.85628   0.02111505  0.020155894           50 
 3730000   0.65442136   -6.9826633    943.67489  0.021082996  0.020149422           35 
 3731000   0.64634633   -6.9577155    946.49357  0.021140301  0.020142952           69 
 3732000   0.66173813   -6.9932921    945.93594  0.021122185   0.02013649          111 
 3733000   0.64283056   -6.9966643    944.97441  0.021095062  0.020130001           41 
 3734000   0.64423333   -7.0123353     944.8172  0.021085904  0.020123522           35 
 3735000   0.64261451   -6.9729982    944.31056  0.021068955  0.020117033           57 
 3736000   0.64530142   -6.9788424     944.5673  0.021069042  0.020110571           43 
 3737000   0.65091605    -6.968895    944.64969  0.021065242  0.020104095           62 
 3738000   0.65558009    -6.985703    943.45717   0.02103302  0.020097637           64 
 3739000   0.63904722   -6.9596546    945.51156  0.021073183  0.020091181           49 
 3740000   0.65030805   -6.9786193    944.55557  0.021046247  0.020084713           61 
 3741000    0.6473318   -6.9804553    946.72771  0.021089007   0.02007826           50 
 3742000   0.65251505   -6.9634194    945.08478  0.021046784  0.020071794           17 
 3743000   0.66452592    -6.978338    944.94286  0.021038001  0.020065331           52 
 3744000   0.65085255   -6.9963999    942.80594  0.020984819  0.020058878           31 
 3745000   0.65318684   -6.9919439    943.14384  0.020986734  0.020052406           49 
 3746000   0.65863603   -6.9910727    946.12405  0.021047429  0.020045929           35 
 3747000   0.66382052   -6.9878211    943.54698  0.020984498  0.020039479           36 
 3748000    0.6477016   -7.0104356    943.62404  0.020980613  0.020033031           67 
 3749000    0.6497447   -7.0016888    943.84873  0.020980011  0.020026582           39 
 3750000   0.65766104   -7.0116356     943.0285  0.020956189  0.020020123           40 
 3751000   0.66036854    -6.980472    945.61755  0.021008121  0.020013659           74 
 3752000   0.66166467    -6.983908    945.46719  0.020999182  0.020007204           26 
 3753000   0.66709706   -6.9970159    943.70363  0.020954428  0.020000763           67 
 3754000    0.6383396   -6.9876736     944.2395  0.020960742  0.019994282           77 
 3755000     0.646387   -6.9837541    943.09467  0.020929753   0.01998782           39 
 3756000   0.64946879   -6.9952567    943.22394  0.020927049  0.019981352           28 
 3757000   0.65374216   -7.0144399    943.80887  0.020934453  0.019974891           51 
 3758000   0.63620135   -7.0128735    942.86128  0.020907869  0.019968441          124 
 3759000   0.64421021   -6.9788791    945.31545  0.020956714  0.019962001           95 
 3760000   0.65377717   -6.9703707     946.0297   0.02096697  0.019955592           50 
 3761000   0.65454727   -6.9841671    944.43028  0.020925957  0.019949159           56 
 3762000   0.65278737   -6.9814777    944.26936   0.02091683  0.019942749           42 
 3763000   0.64867679   -6.9809225    946.33015  0.020956908  0.019936343           56 
 3764000    0.6520239   -6.9991767    944.36198  0.020907766  0.019929931           35 
 3765000   0.66010635   -6.9784638    945.87229  0.020935642  0.019923509           66 
 3766000   0.63502647   -6.9861296    946.11937   0.02093555  0.019917097           54 
 3767000   0.63808474   -7.0048311    944.63719  0.020897204  0.019910687           70 
 3768000   0.64417681   -6.9824737    945.55104  0.020911868  0.019904252           99 
 3769000   0.65444871   -7.0182326    943.39204  0.020858584  0.019897826           59 
 3770000   0.64530104   -6.9676008    943.35513  0.020852235   0.01989139          115 
 3771000   0.65716375   -7.0123874     943.0571   0.02084012  0.019884951          139 
 3772000   0.64908737    -7.005763    944.01807  0.020855825  0.019878521           71 
 3773000   0.64649067   -7.0064633    943.33346  0.020835177   0.01987209          171 
 3774000   0.64261725   -7.0028037     944.8439  0.020863008   0.01986564           69 
 3775000   0.65086032   -6.9949598    943.99965  0.020838844  0.019859213           97 
 3776000   0.63454679   -6.9702982    943.78019  0.020828482  0.019852784          108 
 3777000   0.64951606    -6.984994    943.41977  0.020815016  0.019846362          129 
 3778000   0.64109034   -7.0023032    943.50305  0.020811343  0.019839962          152 
 3779000   0.65523233   -6.9790829    944.18911  0.020820965  0.019833564          103 
 3780000   0.63696219   -6.9996726    945.08654  0.020835241  0.019827168           59 
 3781000   0.64697328   -7.0077114    944.02169  0.020806261  0.019820744           37 
 3782000   0.64391591    -7.016294      944.818  0.020818306   0.01981433           49 
 3783000   0.65064954   -6.9924335    942.55446  0.020762941   0.01980791           40 
 3784000   0.63638289   -6.9882923     944.6144  0.020802819  0.019801488          153 
 3785000   0.66793921    -7.017209    942.45598  0.020749801  0.019795061          196 
 3786000   0.63551039   -7.0150704    942.33341  0.020741623  0.019788626           54 
 3787000   0.64164721   -7.0308425    940.08276   0.02068662  0.019782199          120 
 3788000   0.67253803   -7.0284464    943.78241  0.020762549  0.019775765           99 
 3789000   0.66229606   -7.0127914    942.50084  0.020728883  0.019769353           84 
 3790000   0.64973915   -7.0064993    942.83093  0.020730671  0.019762935           86 
 3791000    0.6457999   -7.0136692    941.97272  0.020706338  0.019756526          191 
 3792000   0.63287346   -6.9944891    943.92726   0.02074383  0.019750112          119 
 3793000   0.64993474   -7.0147988    943.71199  0.020733632  0.019743694           66 
 3794000   0.65680171   -7.0080637    944.17859  0.020738416  0.019737284          119 
 3795000    0.6579202   -7.0131811     943.5193  0.020718474  0.019730875           91 
 3796000   0.64705812   -6.9974874     945.1156  0.020748059  0.019724482          133 
 3797000   0.63263195   -7.0145214     943.1801  0.020700116  0.019718075          178 
 3798000    0.6251376   -7.0140848     943.9954  0.020712555  0.019711648           78 
 3799000   0.63654927   -7.0366481    944.11058  0.020709629  0.019705221          140 
 3800000    0.6460297   -7.0186823    943.03978  0.020680697   0.01969879          121 
 3801000   0.64748114    -7.029109    942.91307  0.020672478  0.019692367          148 
 3802000   0.63660444   -7.0388074    942.69354  0.020662229  0.019685935          130 
 3803000   0.63385883   -7.0136741    943.85991  0.020682354  0.019679522           62 
 3804000   0.64905056   -7.0255489    941.37632   0.02062251  0.019673111          102 
 3805000   0.64782588   -7.0288672    941.59812  0.020621947  0.019666695          157 
 3806000   0.63434456   -7.0316974    942.43644  0.020634884  0.019660277           94 
 3807000   0.63315679    -7.015328    942.93079  0.020640285  0.019653885          132 
 3808000   0.64694302   -7.0307729     942.6848  0.020629482  0.019647489           40 
 3809000   0.64712459   -7.0252734    941.26278  0.020592955  0.019641083          146 
 3810000   0.63101612   -7.0210883    941.99596  0.020603586  0.019634663          206 
 3811000   0.62986113   -7.0420003    942.59188   0.02061121  0.019628233          166 
 3812000   0.64566434   -7.0377825    941.81326  0.020588782  0.019621812          298 
 3813000    0.6467177   -7.0472614     940.5369  0.020555488  0.019615398          114 
 3814000   0.62617693   -7.0428892    939.87563   0.02053565  0.019608971          195 
 3815000   0.62958236   -7.0531101    941.37268  0.020562968  0.019602532          298 
 3816000   0.63061306   -7.0359904    942.84945  0.020589829  0.019596103          293 
 3817000   0.64170549   -7.0345096    941.30413  0.020550697  0.019589668          218 
 3818000   0.63629625   -7.0397255    943.47047  0.020592598  0.019583247          190 
 3819000   0.64191759   -7.0224002    942.01253  0.020555393  0.019576807          259 
 3820000   0.64368028   -7.0603808    942.58207  0.020562436  0.019570404          273 
 3821000   0.63195578   -7.0291144    941.14639  0.020525743  0.019563983          294 
 3822000   0.64153294   -7.0298556    941.59151  0.020530078  0.019557586          115 
 3823000   0.63905228   -7.0463216    941.62934  0.020525533  0.019551176          237 
 3824000    0.6432982   -7.0458236    939.36834  0.020470893  0.019544773          295 
 3825000   0.63167958   -7.0315227     941.7924  0.020518353  0.019538395          263 
 3826000   0.62769514    -7.004805    942.75366  0.020533927  0.019531986          225 
 3827000   0.64659998   -7.0538573    941.79223  0.020507626  0.019525594          289 
 3828000    0.6529868   -7.0648683    942.24288  0.020512079  0.019519184          307 
 3829000   0.65570362   -7.0329513    942.84174  0.020519756  0.019512789          316 
 3830000   0.63846624    -7.058034    943.14087  0.020520907  0.019506396          310 
 3831000   0.63854754    -7.048244    943.71094  0.020527951  0.019500011          300 
 3832000   0.64058994   -7.0384943    941.98804  0.020485126  0.019493624          334 
 3833000   0.64058714   -7.0324016    941.80633  0.020475831  0.019487241          160 
 3834000   0.62933134   -7.0432172    942.05289   0.02047585   0.01948086          141 
 3835000   0.65091518   -7.0519706    941.41392  0.020456626  0.019474485          231 
 3836000   0.64728446   -7.0249869    942.56183   0.02047623  0.019468124          288 
 3837000    0.6565681   -7.0264584    941.13972  0.020440008  0.019461771          245 
 3838000    0.6377055    -7.054744    940.85244  0.020428445  0.019455394          303 
 3839000   0.64891305   -7.0434089    940.84266  0.020422911  0.019449012          212 
 3840000   0.63497936   -7.0431552    940.46965  0.020409498  0.019442647          139 
 3841000    0.6469364   -7.0447452    942.42789  0.020446669  0.019436271          206 
 3842000   0.64443871   -7.0537956    940.65594  0.020402914  0.019429892          268 
 3843000   0.63325687   -7.0498193     942.0786  0.020428454  0.019423517          141 
 3844000   0.65274824    -7.076787    940.48506  0.020388594  0.019417143          198 
 3845000   0.63655415   -7.0652396    940.58959  0.020385557   0.01941076          242 
 3846000    0.6269973   -7.0538731    941.91641  0.020409005   0.01940436          156 
 3847000   0.63960567   -7.0650148     940.2922  0.020368517  0.019397989          188 
 3848000   0.64642975    -7.055521     943.4144  0.020430839   0.01939162          171 
 3849000   0.63716101   -7.0597408    940.12958  0.020354412  0.019385257          233 
 3850000   0.63298405   -7.0908035    939.84562  0.020342979  0.019378884          172 
 3851000   0.64705997   -7.0553902    942.08985   0.02038626  0.019372503          150 
 3852000   0.62007773   -7.0562758     940.6544  0.020349914  0.019366128          221 
 3853000   0.65253187   -7.0553784    942.00489  0.020373841  0.019359761          223 
 3854000   0.63132173    -7.078911    940.19436  0.020329406  0.019353377          233 
 3855000   0.63482574   -7.0613725    938.73876  0.020292667  0.019347014          297 
 3856000   0.63607042   -7.0591408     941.0857  0.020338125  0.019340649          169 
 3857000   0.61760089    -7.053978    942.25945  0.020358211  0.019334303          118 
 3858000   0.65182464   -7.0537311    942.21358  0.020351944   0.01932795          116 
 3859000   0.63446864    -7.052417    942.16264   0.02034557  0.019321595          161 
 3860000   0.64183747   -7.0781254    939.16807  0.020275649  0.019315237          155 
 3861000   0.63878422     -7.04807    939.58869  0.020279476  0.019308853          176 
 3862000   0.63527979   -7.0839714    940.90204  0.020302564  0.019302496          231 
 3863000   0.63411555   -7.0711808    939.48681  0.020266779  0.019296131          190 
 3864000   0.62298812   -7.0626138    940.94396   0.02029296  0.019289769          187 
 3865000   0.61935719   -7.0564959    942.02488  0.020311015  0.019283423          170 
 3866000   0.63466244   -7.0545354     941.0865  0.020285534  0.019277075          183 
 3867000   0.63967915   -7.0505437    942.68972  0.020314838  0.019270737          161 
 3868000   0.63819443   -7.0631531    940.22852  0.020256561  0.019264367          196 
 3869000   0.62872534   -7.0697871    940.08027  0.020248132  0.019258015          138 
 3870000   0.63682737   -7.0648089    939.95382  0.020240177  0.019251662          196 
 3871000   0.61740516   -7.0673367    939.90248  0.020233843  0.019245303          258 
 3872000   0.62666035   -7.0843382    939.26206  0.020214834  0.019238934          180 
 3873000   0.63236726   -7.0656128     939.0581  0.020205226   0.01923257          230 
 3874000   0.62111687   -7.0845442    939.86987  0.020217473  0.019226209          264 
 3875000   0.63158631   -7.0744639    939.61442  0.020206762  0.019219842          132 
 3876000   0.62747136   -7.0805439    940.40684  0.020218585  0.019213481          130 
 3877000   0.63025236   -7.0858086    939.26888  0.020188911  0.019207107          116 
 3878000   0.63051392   -7.0773622    938.79863  0.020173599  0.019200738          141 
 3879000   0.63052271    -7.102899     939.0933  0.020174729  0.019194363          210 
 3880000   0.61862535   -7.0718793    937.59917  0.020137439  0.019187997          110 
 3881000   0.63379467   -7.1002557    939.84919  0.020180563  0.019181627          213 
 3882000   0.62855237   -7.0736894    940.50906   0.02018953  0.019175263          188 
 3883000   0.61763407    -7.085969    937.73983    0.0201249  0.019168914          190 
 3884000   0.63460479   -7.0942946    939.60777  0.020159796  0.019162567          250 
 3885000   0.63317165   -7.0651036    942.27056  0.020211724  0.019156227          103 
 3886000    0.6344284   -7.0762613    939.40802  0.020145137  0.019149891          294 
 3887000   0.61929387   -7.0570644    943.01172  0.020217214  0.019143553          100 
 3888000   0.62317234   -7.0911604     938.8444  0.020122694   0.01913721          297 
 3889000   0.63111933   -7.0826768    940.25529  0.020147752  0.019130871          295 
 3890000   0.64078453   -7.0706665    941.10552  0.020160787  0.019124545          173 
 3891000   0.62108479   -7.0914969    940.03291  0.020132633  0.019118206          220 
 3892000   0.63151673   -7.0706572    938.35689  0.020091574  0.019111862          311 
 3893000   0.61761647    -7.083528    938.87703  0.020097548  0.019105525          126 
 3894000   0.62237439    -7.084314    938.55964  0.020085594  0.019099176          214 
 3895000   0.64509397   -7.0563379    937.11428  0.020049514  0.019092844          138 
 3896000   0.63797182   -7.0809018    940.77454  0.020122659  0.019086535          188 
 3897000   0.62053071   -7.0704859    940.77246  0.020117451  0.019080212          125 
 3898000   0.63674508   -7.0666041    942.14187  0.020141566  0.019073894          263 
 3899000   0.62579341   -7.0635296    939.43147   0.02007847  0.019067575          274 
 3900000   0.62946068    -7.083734    940.01857  0.020085867  0.019061281          218 
 3901000    0.6282658    -7.072167    941.64183  0.020115394  0.019054979          260 
 3902000   0.63007062    -7.073922    940.21555  0.020079779  0.019048679          180 
 3903000   0.61065405   -7.0544992    940.51197  0.020080963  0.019042371          189 
 3904000   0.60370721   -7.0739211    941.59324  0.020098899   0.01903608          270 
 3905000   0.61530737   -7.0668675    939.69647  0.020053275  0.019029789          165 
 3906000   0.63230002   -7.0692281    940.89343  0.020073678    0.0190235          245 
 3907000   0.63299763   -7.0669867    939.76717  0.020044518  0.019017205          185 
 3908000   0.63595339   -7.0847784    939.35498  0.020030599  0.019010914          374 
 3909000   0.62596065   -7.0685589    939.40786  0.020026602  0.019004614          194 
 3910000   0.63134492   -7.0915917    938.83007  0.020009166  0.018998294          185 
 3911000   0.63254266   -7.0848638    940.90382  0.020048236  0.018991996          188 
 3912000   0.62445273    -7.075914    941.59893  0.020057919  0.018985736          138 
 3913000   0.62079235   -7.0784269    939.05585  0.019998634  0.018979462          284 
 3914000    0.6168507    -7.093154    938.80999   0.01998829   0.01897318          258 
 3915000   0.61520853   -7.0697837    941.00948  0.020030002  0.018966901          216 
 3916000   0.61731531   -7.0595701    940.75465  0.020019464  0.018960612          291 
 3917000   0.64107406   -7.0802953    938.75822  0.019971879  0.018954317          194 
 3918000   0.61981425   -7.0798664    939.71619  0.019987157  0.018948024          222 
 3919000   0.63363272   -7.0828872    939.95498  0.019987135  0.018941743          281 
 3920000   0.63453412   -7.0915656    938.24306  0.019945643  0.018935459          304 
 3921000   0.62775874   -7.0840686    938.96825  0.019955969  0.018929179          107 
 3922000   0.61961243   -7.0879273    939.81767  0.019968929  0.018922901          265 
 3923000   0.62613618   -7.0922757    936.47727  0.019892881  0.018916613          416 
 3924000   0.62201432   -7.0761339    939.25172  0.019946732  0.018910327          337 
 3925000   0.62077042    -7.091781    940.06729  0.019958966   0.01890405          341 
 3926000   0.62966495   -7.0986809    937.64835  0.019902538  0.018897784          453 
 3927000   0.64317889   -7.0722869    938.15052  0.019908126  0.018891515          363 
 3928000   0.62520367    -7.078574    938.88152  0.019918566  0.018885253          368 
 3929000   0.62657893   -7.0808205    940.07034  0.019938711  0.018878983          416 
 3930000   0.60805596    -7.075666     939.5829  0.019923301  0.018872731          253 
 3931000   0.62975586   -7.1129069    939.67942   0.01992028  0.018866492          287 
 3932000   0.62642632   -7.0838217    942.25105  0.019969715  0.018860248          227 
 3933000   0.63806908     -7.06001    939.78552  0.019912398  0.018854015          315 
 3934000   0.62553882   -7.0726174    940.97142  0.019932457  0.018847784          377 
 3935000   0.60944215   -7.0831216    939.57112  0.019897737  0.018841557          378 
 3936000   0.62939415   -7.0724274    939.08256  0.019882337  0.018835318          343 
 3937000   0.61670177   -7.0849277    940.49727  0.019907232  0.018829094          346 
 3938000   0.64310215   -7.0947098    939.95494    0.0198907  0.018822863          385 
 3939000   0.61100265   -7.1034589    939.13749  0.019868357   0.01881664          413 
 3940000   0.62487384   -7.0835401    940.29062  0.019887703  0.018810416          448 
 3941000   0.63553401     -7.09017    940.64509  0.019890153  0.018804205          325 
 3942000   0.61237432   -7.1079629    939.89144  0.019869175  0.018797981          304 
 3943000   0.62950366   -7.0966107    939.07132  0.019846803  0.018791757          306 
 3944000    0.6074902   -7.0921616    940.21572  0.019865951  0.018785538          309 
 3945000   0.62180505   -7.0960102    941.06548  0.019878865  0.018779326          351 
 3946000   0.63146189   -7.0744032    940.39204  0.019859605  0.018773117          309 
 3947000   0.61665869   -7.0645162    940.83782  0.019863986  0.018766925          339 
 3948000   0.62875428   -7.0916618    940.52948  0.019852446  0.018760724          284 
 3949000   0.60743781   -7.0753983     940.7108  0.019851245   0.01875453          271 
 3950000   0.62930333   -7.0881625    939.67113  0.019824285  0.018748335          361 
 3951000    0.6139059   -7.1151191    940.78348  0.019842729  0.018742152          296 
 3952000   0.61059088   -7.0966952    941.22037  0.019846921  0.018735959          256 
 3953000   0.61531152   -7.0952602    940.60721  0.019828974  0.018729766          349 
 3954000   0.62392043   -7.0900254    940.18349  0.019815029  0.018723577          399 
 3955000   0.61911607   -7.1260377    939.79635  0.019801861  0.018717377          378 
 3956000   0.62733233   -7.0717378    939.01774  0.019780455  0.018711179          315 
 3957000   0.60356029   -7.1067091    937.22723  0.019737748  0.018704984          335 
 3958000   0.62073612   -7.0998234    940.67025  0.019805252  0.018698795          378 
 3959000     0.619861   -7.0961694     938.7214  0.019759228  0.018692599          401 
 3960000   0.62007446   -7.0976769     938.0059  0.019739181  0.018686402          366 
 3961000   0.61493396   -7.0942222    939.79194  0.019771774  0.018680225          316 
 3962000   0.62036476   -7.1203684    936.33205  0.019694011  0.018674027          359 
 3963000   0.61496054   -7.1012688    938.82623  0.019741488  0.018667826          401 
 3964000   0.61989286   -7.1020152    938.21306  0.019723618  0.018661632          321 
 3965000   0.60315843   -7.0949703    939.56325  0.019747021  0.018655446          310 
 3966000   0.59948374    -7.106525    938.74946  0.019724942  0.018649248          230 
 3967000   0.61951954   -7.1091543    939.08851  0.019727093  0.018643058          322 
 3968000   0.61837954   -7.0985215    938.74817  0.019714973  0.018636878          324 
 3969000   0.61546128   -7.0970852    938.85045  0.019712153  0.018630696          320 
 3970000   0.60703828   -7.1119101    938.69565  0.019703939  0.018624528          331 
 3971000   0.60998856   -7.1006148    940.83417  0.019743855  0.018618362          314 
 3972000   0.61327168   -7.1221552    939.79554  0.019717093  0.018612197          383 
 3973000   0.61461242   -7.1110187    939.09926  0.019697526  0.018606026          305 
 3974000   0.63283931   -7.1112513     937.9076  0.019667581  0.018599844          331 
 3975000   0.61020308   -7.1154033    937.53696  0.019654863  0.018593657          297 
 3976000   0.60957769   -7.1115683     937.0538  0.019639793  0.018587473          332 
 3977000   0.58362156   -7.1017481    940.36993   0.01970434  0.018581305          285 
 3978000   0.61696707   -7.1082916    938.88562  0.019668293  0.018575139          287 
 3979000   0.61522047   -7.1087697    940.15697  0.019689976   0.01856899          319 
 3980000   0.60941757   -7.0787726    941.29509  0.019708859  0.018562852          356 
 3981000   0.60363267   -7.0828136    938.66882  0.019648933  0.018556693          304 
 3982000   0.61401422   -7.0916758    939.03743  0.019651713  0.018550532          318 
 3983000   0.62327907   -7.1245206    939.03843    0.0196468  0.018544371          300 
 3984000   0.61053817   -7.0926808      938.457  0.019629706  0.018538207          309 
 3985000   0.60669427   -7.1060108    938.28543  0.019621193  0.018532055          350 
 3986000    0.6143509   -7.1293924    938.30888   0.01961676    0.0185259          272 
 3987000   0.61453459   -7.1007764     938.8227   0.01962258  0.018519757          272 
 3988000   0.60817925   -7.1121752    938.57319  0.019612445  0.018513613          244 
 3989000   0.61707615   -7.0805067    940.92716  0.019656705  0.018507482          269 
 3990000   0.60224103   -7.1043134    937.34189  0.019576898  0.018501353          336 
 3991000   0.62390599   -7.1375648    937.31616  0.019571456  0.018495212          223 
 3992000   0.59410646   -7.1267324    939.65303  0.019615335  0.018489065          269 
 3993000   0.61639263   -7.0904729    940.27783  0.019623463  0.018482927          265 
 3994000   0.61033658    -7.103856    939.29094  0.019597958  0.018476778          322 
 3995000   0.60995341   -7.1098163    938.61732  0.019579001  0.018470643          286 
 3996000   0.60553963   -7.0968401    938.37774  0.019569105  0.018464504          381 
 3997000   0.60657995   -7.1154173    938.28096  0.019562192  0.018458362          413 
 3998000   0.62037956   -7.1112326    938.11599   0.01955386  0.018452221          272 
 3999000    0.6214278   -7.1001786    940.27372  0.019593934  0.018446093          338 
 4000000   0.60939003   -7.0945886    939.01081  0.019562725  0.018439966          392 
 4001000   0.61025792   -7.1094957    938.44126  0.019545973  0.018433856          356 
 4002000   0.59898809   -7.1371555     939.7528  0.019568399  0.018427734          463 
 4003000    0.6162309   -7.1121166    939.83034  0.019565125  0.018421608          255 
 4004000   0.62197202   -7.1001809    938.12382  0.019524722  0.018415491          380 
 4005000   0.61360949   -7.1094384    938.69747  0.019531782  0.018409379          387 
 4006000   0.60624898   -7.1175993    939.99494  0.019553897  0.018403264          473 
 4007000   0.60526865   -7.1345731    938.42737  0.019516416  0.018397147          292 
 4008000   0.61548444   -7.1242918    939.13679  0.019526297  0.018391046          453 
 4009000   0.61576582   -7.1228856    939.54695  0.019529952  0.018384921          307 
 4010000   0.61343523     -7.11665    937.96865  0.019492283    0.0183788          272 
 4011000   0.61458506   -7.1465889    938.15049  0.019491201  0.018372676          411 
 4012000   0.60699154   -7.1537118     937.2983  0.019468642  0.018366555          498 
 4013000   0.61548053    -7.144439    937.82703   0.01947477  0.018360426          405 
 4014000   0.61097249   -7.1396647    937.29968   0.01945897  0.018354293          353 
 4015000   0.60441119   -7.1200916    936.38668  0.019435174   0.01834816          367 
 4016000   0.59916023   -7.1565143    938.02936  0.019464421  0.018342048          388 
 4017000     0.605224   -7.1232541    937.91358  0.019457173  0.018335932          401 
 4018000   0.61334838   -7.1062264    940.15219   0.01949876  0.018329828          416 
 4019000   0.61515639   -7.1349478    937.49029  0.019438714  0.018323719          414 
 4020000   0.60901406   -7.1158313    938.05456  0.019445575   0.01831761          429 
 4021000   0.60049006   -7.1241817    937.48513  0.019428938  0.018311511          391 
 4022000    0.5878201   -7.1278148    935.90761  0.019391422  0.018305401          418 
 4023000   0.61359652   -7.0934421    937.85019  0.019426841  0.018299308          381 
 4024000   0.59475358   -7.1139978    940.93922  0.019485985  0.018293222          378 
 4025000    0.6037009   -7.1303862    937.87408  0.019417683  0.018287134          377 
 4026000   0.60304788   -7.1066648    938.63061  0.019428519  0.018281057          334 
 4027000    0.6102352   -7.1123975     937.9703   0.01941003  0.018274984          406 
 4028000   0.61263062   -7.1209935    938.94695  0.019425417  0.018268924          423 
 4029000     0.614287   -7.1412058    938.17615  0.019404653  0.018262854          382 
 4030000   0.60797404   -7.1162127    937.76989  0.019391437  0.018256782          444 
 4031000   0.61166481   -7.1293298    939.57954  0.019424038   0.01825069          532 
 4032000    0.6082343   -7.1237824    936.70915  0.019359895  0.018244613          469 
 4033000   0.60508633   -7.1479207    935.97116  0.019339845  0.018238526          630 
 4034000   0.60726276   -7.1285648    936.53829  0.019346767  0.018232441          542 
 4035000    0.6077313   -7.1349424    939.06763   0.01939421  0.018226357          496 
 4036000   0.59235793   -7.1296023    937.98519  0.019367055  0.018220279          531 
 4037000    0.6047094   -7.1317264    938.15741  0.019365812  0.018214205          541 
 4038000   0.60526787   -7.1189164    936.35407    0.0193238  0.018208131          574 
 4039000   0.61186912   -7.1181737    938.27297  0.019358607  0.018202076          395 
 4040000   0.61612351   -7.1223452    938.59976  0.019360556  0.018196024          549 
 4041000   0.59516915    -7.104305    937.37687  0.019330547  0.018189962          472 
 4042000   0.60453594   -7.1337667    938.77882  0.019354668  0.018183888          510 
 4043000   0.60434075   -7.1278271    937.26856  0.019318752  0.018177827          406 
 4044000   0.58750641   -7.1508803    938.81686   0.01934588  0.018171773          537 
 4045000   0.61148082   -7.1104701    937.81334  0.019320423  0.018165714          445 
 4046000    0.6149486   -7.1218554    938.22162  0.019324057  0.018159668          561 
 4047000   0.59655011   -7.1177572    938.41407  0.019323245  0.018153622          419 
 4048000   0.59556456     -7.13163    935.87088  0.019266117  0.018147566          450 
 4049000   0.61403696   -7.1327092    938.18187  0.019308921  0.018141525          587 
 4050000   0.60235216   -7.1299809    938.86724  0.019318256   0.01813549          447 
 4051000   0.59904664    -7.112747    939.19997  0.019320332  0.018129443          485 
 4052000   0.59978461   -7.1455233    935.76064  0.019244831   0.01812339          455 
 4053000   0.61278279   -7.1280449    937.34451  0.019272648  0.018117342          409 
 4054000   0.60546091    -7.131013    936.87792  0.019258303  0.018111301          420 
 4055000   0.60128393   -7.1263563     937.0894    0.0192579  0.018105262          373 
 4056000   0.59940682   -7.1356652    939.09274  0.019294312   0.01809922          480 
 4057000   0.59741132   -7.1148633    939.68614  0.019301745  0.018093187          366 
 4058000   0.59211914   -7.1420144    936.52758  0.019232125  0.018087155          534 
 4059000    0.5994105     -7.14292    939.71163  0.019292757  0.018081118          401 
 4060000    0.5989284   -7.1375994    936.93803  0.019231076  0.018075074          386 
 4061000   0.59819161   -7.1296577    938.15952  0.019251406  0.018069043          338 
 4062000   0.59137714   -7.1397544    935.52794  0.019192679  0.018062999          433 
 4063000    0.5997782   -7.1426805    935.31846  0.019183659  0.018056969          409 
 4064000   0.59585766   -7.1376346    936.23375  0.019197706  0.018050945          409 
 4065000   0.59317639   -7.1308427    937.94493  0.019228063  0.018044925          434 
 4066000   0.60551076   -7.1295591    938.05186  0.019225526  0.018038905          519 
 4067000   0.60052608   -7.1364425    936.31099  0.019185128  0.018032864          475 
 4068000   0.59749731    -7.140319    936.87216  0.019191908  0.018026819          528 
 4069000   0.59244171   -7.1613615    935.78316  0.019164888  0.018020787          542 
 4070000   0.58865933    -7.140115    936.92561  0.019183571  0.018014761          543 
 4071000      0.58894   -7.1568367    935.62316  0.019152198  0.018008736          467 
 4072000   0.60540519    -7.143907    937.37841  0.019183415  0.018002701          608 
 4073000   0.58579123   -7.1593157    938.01739  0.019191779  0.017996675          487 
 4074000   0.59481987   -7.1477831    936.10453  0.019147941  0.017990658          645 
 4075000   0.59999105   -7.1685192    936.71628  0.019155752  0.017984644          672 
 4076000   0.60287139   -7.1619351    937.43563   0.01916576  0.017978623          628 
 4077000   0.59848422   -7.1375394    936.94744   0.01915108  0.017972602          575 
 4078000    0.5765558   -7.1493524    937.18553  0.019151249  0.017966582          605 
 4079000   0.59673393     -7.16445    934.29905  0.019087584  0.017960559          602 
 4080000   0.59168026   -7.1754332    937.20277  0.019142213  0.017954541          581 
 4081000   0.59107196   -7.1560907     934.3426  0.019079119   0.01794852          512 
 4082000   0.60489862   -7.1734368      936.256  0.019113507   0.01794251          589 
 4083000   0.59561424   -7.1575572    936.46658  0.019113123    0.0179365          495 
 4084000   0.59984776   -7.1454638    936.41936   0.01910748  0.017930488          714 
 4085000   0.60110582   -7.1600123    936.16204  0.019097553  0.017924476          548 
 4086000   0.58965558   -7.1787706     936.2742  0.019095166  0.017918455          587 
 4087000    0.5952692   -7.1503921    936.64561  0.019098067  0.017912453          435 
 4088000   0.60061254   -7.1700432    935.13746  0.019062652  0.017906429          663 
 4089000   0.59578941   -7.1692491    936.78313  0.019091529  0.017900412          541 
 4090000   0.58066954   -7.1590501    936.54415  0.019081992  0.017894398          573 
 4091000   0.59176507    -7.171325    934.99638  0.019045799  0.017888383          644 
 4092000   0.59631997   -7.1657303    935.63309  0.019054111  0.017882365          502 
 4093000   0.59662391   -7.1588183    936.02042  0.019057342  0.017876344          499 
 4094000   0.58483609   -7.1643988    936.80016  0.019068559  0.017870334          577 
 4095000   0.58711659   -7.1472197    937.30025  0.019074079  0.017864346          465 
 4096000   0.59751502   -7.1511745    936.50237  0.019053189   0.01785836          560 
 4097000   0.60106808   -7.1602881    935.89665  0.019036219   0.01785237          399 
 4098000   0.59433094   -7.1478385    936.48963  0.019043632  0.017846397          543 
 4099000   0.59466917    -7.138117    937.56565  0.019060861  0.017840439          537 
 4100000   0.59042462   -7.1767148    936.54072  0.019035381   0.01783447          461 
 4101000   0.59773123   -7.1556908    935.51321   0.01900986  0.017828509          455 
 4102000   0.59165474   -7.1542971    936.73517   0.01903005   0.01782254          414 
 4103000   0.59255263   -7.1619347    936.79683  0.019026664  0.017816578          570 
 4104000   0.58497749   -7.1630825    937.98083  0.019046069  0.017810608          632 
 4105000   0.58943627   -7.1619469    934.94016  0.018979703  0.017804646          560 
 4106000   0.60315305   -7.1772149    936.28229   0.01900232  0.017798687          425 
 4107000   0.60008821   -7.1687189    936.12485  0.018994498  0.017792728          475 
 4108000   0.59945592   -7.1772323    935.89034  0.018985117  0.017786773          613 
 4109000   0.59589351   -7.1607945    934.26946  0.018947624  0.017780825          540 
 4110000   0.59259316   -7.1753228    936.45968  0.018987422  0.017774865          712 
 4111000   0.60088152   -7.1686776    935.54583  0.018964279  0.017768908          641 
 4112000   0.59882535   -7.1493264    936.90804  0.018987274  0.017762959          417 
 4113000    0.5928764   -7.1600497    936.75985  0.018979655   0.01775702          553 
 4114000   0.58041143   -7.1628451    935.28799  0.018945227  0.017751083          561 
 4115000   0.59677746    -7.160104    936.07661  0.018956594  0.017745141          587 
 4116000   0.59837889   -7.1448398     935.0595  0.018931396  0.017739203          552 
 4117000   0.59047784   -7.1666812    933.84897  0.018902295  0.017733262          519 
 4118000   0.60179182   -7.1584197    934.45716  0.018910012  0.017727319          487 
 4119000   0.59488487   -7.1682179    934.94042  0.018915198   0.01772137          703 
 4120000   0.57978888   -7.1919789    936.24359  0.018936966   0.01771543          515 
 4121000   0.59821956   -7.1576533    935.14967   0.01891025   0.01770949          584 
 4122000    0.6001772   -7.1680267    934.87279  0.018900064  0.017703573          490 
 4123000    0.5875709   -7.1688486    936.10229  0.018920331  0.017697638          510 
 4124000   0.58525964   -7.1628153    934.31448  0.018879617  0.017691714          528 
 4125000   0.57987651   -7.1607376    935.45438  0.018898068  0.017685806          511 
 4126000   0.60307936   -7.1703206    935.42708  0.018892937  0.017679886          559 
 4127000   0.58242757   -7.1914061    935.33211  0.018886441  0.017673968          573 
 4128000   0.59639318   -7.1618182    937.84696  0.018932634  0.017668051          533 
 4129000   0.58206864   -7.1844252    936.17944  0.018894394  0.017662128          436 
 4130000   0.58430182   -7.1605145     936.5532  0.018897361  0.017656186          557 
 4131000   0.59167928   -7.1901909    936.26339   0.01888694  0.017650266          621 
 4132000   0.57839494   -7.1864941    934.02813  0.018837289  0.017644336          587 
 4133000   0.58234215   -7.1603583    936.89714  0.018890579  0.017638412          561 
 4134000   0.58636607   -7.1776186    934.85842  0.018844912  0.017632491          603 
 4135000   0.58489359   -7.1682575    936.55961   0.01887464  0.017626571          504 
 4136000   0.58245482   -7.1844968    933.91576  0.018816807  0.017620653          659 
 4137000    0.5880941   -7.1899106    935.07038  0.018835516   0.01761474          617 
 4138000   0.57875004   -7.1809719     936.0009  0.018849704  0.017608824          619 
 4139000    0.5912587    -7.183501    935.66633  0.018838414  0.017602914          600 
 4140000   0.59830586   -7.1675405     935.0877  0.018822216   0.01759701          623 
 4141000   0.59886909   -7.1711563    935.67263  0.018829442  0.017591113          621 
 4142000   0.59581261   -7.1660078    936.38216  0.018839171  0.017585216          621 
 4143000   0.58737632   -7.1858196    936.90963  0.018845234  0.017579306          644 
 4144000    0.5908878   -7.1776263    934.85307   0.01879933  0.017573402          768 
 4145000    0.6015323   -7.1884565    934.44446  0.018786579    0.0175675          679 
 4146000   0.59504058   -7.1812081     936.0393  0.018814104  0.017561591          589 
 4147000   0.57934572   -7.1862047    934.84003  0.018785468  0.017555686          675 
 4148000    0.5833914   -7.1844355     936.1732  0.018807723  0.017549801          651 
 4149000   0.60452326   -7.2057597    935.88503  0.018797401  0.017543907          610 
 4150000   0.59194117   -7.1868397    935.56236  0.018786393  0.017538015          722 
 4151000   0.58294649    -7.185191    933.73233  0.018745128  0.017532137          723 
 4152000   0.59366856    -7.186179    935.61561  0.018778412  0.017526257          659 
 4153000   0.58786401   -7.1962047    935.18762  0.018765303  0.017520383          630 
 4154000   0.58292688   -7.1755491    936.62355  0.018789591  0.017514523          606 
 4155000   0.58902461   -7.1721159    935.77288  0.018768008  0.017508656          762 
 4156000   0.59750919   -7.1964604    935.02124  0.018748421  0.017502774          663 
 4157000   0.59480685   -7.1949867    933.52947  0.018714006  0.017496901          664 
 4158000   0.58876189   -7.2008776    934.96622    0.0187383  0.017491029          749 
 4159000   0.58095942   -7.2072922    935.02672  0.018735007  0.017485158          754 
 4160000   0.57097017   -7.2005545    933.68291  0.018703584  0.017479276          707 
 4161000   0.59161544     -7.17749    936.14378  0.018748373  0.017473401          702 
 4162000   0.60036454   -7.1845671    935.00336  0.018721035  0.017467519          744 
 4163000   0.58108463    -7.196588    934.38416  0.018704143  0.017461652          813 
 4164000   0.57612985   -7.1805781    934.87413  0.018709457  0.017455774          753 
 4165000   0.58458248   -7.1918242    933.64844  0.018680441  0.017449894          844 
 4166000   0.59079325   -7.2037313    935.16775  0.018706348  0.017444021          741 
 4167000   0.57817901   -7.1975042    933.55242  0.018669555  0.017438138          893 
 4168000    0.5730923   -7.2150139    934.35675  0.018681157  0.017432262          845 
 4169000   0.59142898   -7.2127956    933.74479  0.018664444  0.017426375          912 
 4170000   0.58709062    -7.221636    932.73869  0.018639862    0.0174205          793 
 4171000   0.59152836   -7.2004678    934.14605  0.018663511  0.017414614          852 
 4172000    0.5891404    -7.232517    933.16083  0.018639358  0.017408724          883 
 4173000    0.5877381   -7.2166539    933.39803  0.018639628  0.017402844          937 
 4174000   0.58824325   -7.2091301    932.83708  0.018623963   0.01739696          789 
 4175000   0.59575985   -7.2143812    933.89945  0.018640708  0.017391079          890 
 4176000    0.5776609   -7.2239343    931.05655  0.018579513  0.017385201          869 
 4177000   0.58815098   -7.2212188    933.14992  0.018616829  0.017379324          941 
 4178000   0.59217113   -7.2282814    935.04622  0.018650196  0.017373446          934 
 4179000   0.57797033   -7.2170769    929.98418  0.018544791  0.017367579          880 
 4180000   0.59938579   -7.2015504    933.44413  0.018609333  0.017361715          939 
 4181000    0.5746788   -7.2134201     932.1657  0.018579401  0.017355846          909 
 4182000   0.56965214   -7.2350217    933.66823  0.018604899  0.017349976         1056 
 4183000   0.56980401   -7.2076043    933.00647  0.018587267   0.01734411          852 
 4184000   0.57949597   -7.2248943    934.66172  0.018615793   0.01733825         1033 
 4185000   0.58632423   -7.2204402    931.65708  0.018551515   0.01733238          967 
 4186000   0.58281968    -7.230035    934.16844  0.018597078  0.017326522         1027 
 4187000   0.56503062    -7.231176    935.35596  0.018616272  0.017320662          950 
 4188000   0.58082845   -7.2459912    933.01656  0.018565277  0.017314813          865 
 4189000   0.59108774   -7.2307436     931.8486   0.01853761  0.017308973          975 
 4190000   0.58201887   -7.2223604    933.61579  0.018568333  0.017303133          971 
 4191000   0.58921316   -7.2271631     934.4209  0.018579911   0.01729729          960 
 4192000   0.57941435   -7.2201879    932.11566  0.018529653  0.017291449          979 
 4193000   0.58285723    -7.234161    932.46544  0.018532185  0.017285604          985 
 4194000   0.57651872   -7.2530807    932.53681  0.018529185  0.017279766         1034 
 4195000    0.5712875   -7.2266435    933.36678  0.018541255  0.017273922          941 
 4196000   0.58571579   -7.2163385    931.91269  0.018507958  0.017268098         1001 
 4197000   0.58334218   -7.2222905    935.72261  0.018579196  0.017262266         1001 
 4198000   0.58836594   -7.2294682     933.6863  0.018534348  0.017256437         1002 
 4199000   0.57044067   -7.2308749    933.73915  0.018530983  0.017250617          983 
 4200000   0.56838469   -7.2230431    934.85476  0.018548706    0.0172448         1005 
 4201000   0.58267634   -7.2285065    933.38712  0.018515177   0.01723898          927 
 4202000   0.57968649   -7.2281491    930.59402  0.018455379  0.017233149         1031 
 4203000   0.57107161   -7.2426196     932.5921  0.018490604  0.017227322          952 
 4204000   0.57367855   -7.2481657    931.56592  0.018465864  0.017221487          939 
 4205000   0.57228611   -7.2344156    932.00215  0.018470118  0.017215662         1023 
 4206000   0.57095653   -7.2582167    932.23502   0.01847034  0.017209839          987 
 4207000   0.58597383   -7.2397654    932.59914  0.018473163  0.017204013         1028 
 4208000   0.56601142   -7.2283418    931.73148   0.01845159    0.0171982          996 
 4209000   0.58571312   -7.2295858    932.24961  0.018457464  0.017192375         1077 
 4210000   0.57456746   -7.2203579    933.10299  0.018469972  0.017186567          908 
 4211000   0.58061343   -7.2434546     932.5296  0.018454239  0.017180746          948 
 4212000   0.57844201   -7.2527604    932.44348  0.018448154  0.017174931         1014 
 4213000   0.59086269   -7.2286826    932.25715  0.018440089  0.017169127          981 
 4214000   0.57965749   -7.2376079    932.87306  0.018447893  0.017163311         1112 
 4215000    0.5637274   -7.2413679    930.70594  0.018400671  0.017157495          938 
 4216000   0.57204459   -7.2325943    933.49192  0.018451374  0.017151683          969 
 4217000   0.58353045   -7.2405885     931.5933  0.018409479  0.017145872          949 
 4218000   0.56835908   -7.2506255    932.47886  0.018422611  0.017140064          981 
 4219000   0.57540738   -7.2526159    931.77531  0.018404348  0.017134246         1101 
 4220000   0.56064708   -7.2348987    932.69606  0.018418169  0.017128435         1036 
 4221000   0.56760848   -7.2409071    932.62637  0.018412429   0.01712263         1129 
 4222000   0.58010418   -7.2444534    931.66492  0.018389091  0.017116822         1133 
 4223000   0.58508021   -7.2359675     930.0023  0.018351928  0.017111019         1107 
 4224000   0.57148249   -7.2646287     930.4043  0.018355514  0.017105218         1174 
 4225000   0.56740965   -7.2422427    930.81342  0.018359239  0.017099415         1177 
 4226000   0.56533782   -7.2280909    931.97676  0.018377835  0.017093621         1147 
 4227000    0.5705502     -7.23724    932.70136  0.018387772   0.01708782         1072 
 4228000   0.57520712   -7.2457061      930.797  0.018345889  0.017082014         1090 
 4229000   0.56123909   -7.2507784    930.18736  0.018329537  0.017076213         1144 
 4230000   0.57752886   -7.2508612    931.87051  0.018358363  0.017070421         1158 
 4231000   0.57524028    -7.263024    931.03821  0.018337631  0.017064625         1019 
 4232000   0.56696138   -7.2608914    932.76565  0.018367313  0.017058826         1033 
 4233000   0.57284482   -7.2549708    930.62056  0.018320745  0.017053026         1036 
 4234000   0.57499987   -7.2704616    930.30442  0.018310196  0.017047225         1108 
 4235000   0.56718055   -7.2728697    931.06502  0.018320839  0.017041428         1160 
 4236000   0.56472101   -7.2366228    931.58783  0.018326799  0.017035645         1051 
 4237000   0.57500534   -7.2755872    930.07705  0.018292759  0.017029854         1093 
 4238000   0.57081016   -7.2705339     933.1763  0.018349384  0.017024071         1112 
 4239000   0.57930132   -7.2726384    930.49652  0.018292375  0.017018295         1171 
 4240000    0.5682808    -7.263455    931.98377  0.018317291  0.017012516         1198 
 4241000   0.56519998   -7.2669041    932.15875   0.01831641  0.017006736         1065 
 4242000   0.58141875   -7.2503581    933.33736  0.018335246   0.01700097         1089 
 4243000   0.56669227   -7.2517917     928.8784   0.01824335  0.016995206         1054 
 4244000   0.57499919   -7.2467886    931.02731  0.018281246  0.016989442         1057 
 4245000   0.58047792   -7.2573307    932.84875  0.018312696  0.016983678         1193 
 4246000   0.56070875   -7.2411236    931.30337  0.018278053  0.016977921         1095 
 4247000   0.58010969   -7.2525065    930.43793  0.018256768  0.016972164         1073 
 4248000   0.58103855   -7.2624426    932.64096  0.018295687  0.016966404         1180 
 4249000    0.5742416   -7.2580752     929.3841  0.018227506   0.01696065         1137 
 4250000   0.57501791   -7.2748511    931.33892  0.018261547    0.0169549         1123 
 4251000   0.57057193   -7.2493119    931.69341  0.018264201  0.016949142         1240 
 4252000   0.56799939   -7.2459362    930.56238  0.018237739   0.01694339         1076 
 4253000   0.56872583   -7.2508998     930.4906  0.018232044  0.016937639         1147 
 4254000   0.57482124   -7.2564898    930.18665  0.018221804  0.016931882         1210 
 4255000   0.57081084   -7.2615413    933.09472  0.018274476  0.016926143         1176 
 4256000   0.57171745   -7.2543103      931.718  0.018243225  0.016920394         1169 
 4257000   0.56432761   -7.2750378     930.6213  0.018217471  0.016914651         1166 
 4258000   0.57599203   -7.2584198     930.9425  0.018219479  0.016908906         1226 
 4259000   0.57775808     -7.27841    930.17423  0.018200169  0.016903156         1161 
 4260000   0.56927436   -7.2545749     930.4567  0.018201422  0.016897416         1191 
 4261000   0.56683573   -7.2389767    930.59211  0.018199799  0.016891685         1197 
 4262000   0.57262113   -7.2543004      930.205   0.01818796   0.01688596         1116 
 4263000   0.57125395   -7.2601341    930.09796  0.018181601  0.016880238         1195 
 4264000   0.57356159    -7.281879    929.47886  0.018165237  0.016874508         1155 
 4265000   0.56507018   -7.2590171    930.23982  0.018175847  0.016868782         1231 
 4266000   0.57811258   -7.2654019    930.37514  0.018174229  0.016863055         1243 
 4267000   0.57660595   -7.2721135     931.6177  0.018194237  0.016857329         1071 
 4268000    0.5678492   -7.2711405    930.19445  0.018162185  0.016851609         1104 
 4269000   0.57684388   -7.2591024    931.41278  0.018181713  0.016845891         1298 
 4270000   0.56240636   -7.2660743    930.85523  0.018166573  0.016840172         1267 
 4271000   0.55556801   -7.2662294    930.45615  0.018154533  0.016834457         1163 
 4272000   0.56836279   -7.2774009    930.79874  0.018156967   0.01682874         1271 
 4273000   0.56430793   -7.2825123    929.10627   0.01811971  0.016823022         1282 
 4274000   0.55837255   -7.2693206    929.72308  0.018127497  0.016817308         1262 
 4275000   0.56681119   -7.2679938    930.89828  0.018146165  0.016811603         1109 
 4276000   0.55993636   -7.2888389    928.96511  0.018104247  0.016805884         1215 
 4277000   0.56663246   -7.2723027     930.2369  0.018124793  0.016800179         1139 
 4278000    0.5663814   -7.2570763    930.26929  0.018121188  0.016794484         1157 
 4279000   0.55763534   -7.2782888     929.8967  0.018109697  0.016788785         1229 
 4280000   0.56775374   -7.2765251    929.20384  0.018091975  0.016783086         1234 
 4281000   0.56340228   -7.2774855    930.86618  0.018120108  0.016777389         1292 
 4282000   0.56924974   -7.2784764    931.72538  0.018132597  0.016771685         1222 
 4283000   0.57048052   -7.2614686    928.93343  0.018074041  0.016765991         1272 
 4284000   0.55936648   -7.2715534    929.12276  0.018073505  0.016760294         1150 
 4285000   0.54399893   -7.2889912    929.27716   0.01807229  0.016754596         1211 
 4286000     0.564029    -7.265628    931.01294  0.018101823   0.01674892         1200 
 4287000   0.56259214   -7.2673368    929.96668  0.018077262  0.016743239         1137 
 4288000   0.56448187   -7.2750657    928.60582  0.018046599  0.016737553         1259 
 4289000   0.56904986   -7.2835134    928.41765  0.018038736  0.016731868         1294 
 4290000   0.55091998    -7.295694     929.4938  0.018055435  0.016726191         1383 
 4291000   0.57465893   -7.3018695    931.16397  0.018083663  0.016720513         1215 
 4292000   0.57238802   -7.2916517    930.05968  0.018058009  0.016714841         1281 
 4293000   0.56254756   -7.2828903    930.24602  0.018057419  0.016709169         1251 
 4294000   0.54542586   -7.2686566    932.18649  0.018090873    0.0167035         1200 
 4295000     0.560935   -7.2903462    930.03825   0.01804498  0.016697826         1222 
 4296000   0.57021947   -7.2995789    930.52969  0.018050312  0.016692154         1377 
 4297000   0.56580505     -7.27267    931.24443  0.018059973  0.016686484         1206 
 4298000   0.55338204   -7.2837835     930.0745  0.018033087   0.01668082         1270 
 4299000   0.55473936   -7.2873448     928.9396  0.018006893  0.016675159         1328 
 4300000   0.55808222   -7.3018892    929.49448  0.018013459  0.016669497         1245 
 4301000   0.57991137   -7.2868063    927.13052  0.017963468  0.016663835         1258 
 4302000   0.56696401   -7.2895932    928.74442  0.017990555  0.016658168         1181 
 4303000   0.56025891   -7.2960282    929.36028  0.017998301  0.016652502         1284 
 4304000   0.56831812   -7.2850352    931.66918  0.018038824  0.016646843         1253 
 4305000   0.56582858    -7.288761    927.41573  0.017952298  0.016641187         1249 
 4306000   0.57606124   -7.2821143    929.98903   0.01799793   0.01663554         1251 
 4307000   0.57396396   -7.2653496    929.97944  0.017993566  0.016629892         1360 
 4308000   0.55596532   -7.2951135    929.33949   0.01797701  0.016624238         1392 
 4309000   0.56388349   -7.2867545    930.83317  0.018001724  0.016618592         1281 
 4310000   0.55588357   -7.2742138    929.13266  0.017964669  0.016612946         1225 
 4311000   0.55718813   -7.2914083     928.9538  0.017957044  0.016607313         1307 
 4312000   0.55821438   -7.3021153     929.9998  0.017973094  0.016601672         1390 
 4313000   0.56549771   -7.2844772    927.66961  0.017923905  0.016596032         1414 
 4314000   0.56449993   -7.2984967    929.50151  0.017955137  0.016590392         1357 
 4315000   0.56932233   -7.3036363    928.23412  0.017926499   0.01658476         1357 
 4316000   0.55326026   -7.2951195    930.09464  0.017958269  0.016579129         1411 
 4317000   0.55823172   -7.2852479    929.08619  0.017934642  0.016573506         1417 
 4318000   0.54274774   -7.2872462    930.53292  0.017958409  0.016567882         1374 
 4319000   0.57334814   -7.2917325    929.81119  0.017940326  0.016562251         1456 
 4320000   0.56686841   -7.2923348     928.7496  0.017915694  0.016556618         1435 
 4321000    0.5739887   -7.2919557    928.94509  0.017915318  0.016550992         1392 
 4322000   0.57385195   -7.2833297    928.52683  0.017903109  0.016545363         1385 
 4323000   0.56016774   -7.2974883    929.09793  0.017909976  0.016539751         1340 
 4324000   0.57852109   -7.3039095    929.80914  0.017919541  0.016534132         1433 
 4325000   0.55412669   -7.2891679    929.27431  0.017905093  0.016528516         1461 
 4326000   0.56085801   -7.2943579    929.05085  0.017896649  0.016522897         1338 
 4327000   0.55797224   -7.2998482    930.81114  0.017926414  0.016517286         1453 
 4328000   0.55764249   -7.2811742    928.18247  0.017871659  0.016511671         1433 
 4329000    0.5665462   -7.2936208    930.41404  0.017910488  0.016506055         1471 
 4330000   0.54877882   -7.3036211     928.9778   0.01787871  0.016500436         1560 
 4331000   0.56929295   -7.3044271    931.61019  0.017925233  0.016494837         1382 
 4332000   0.57154075   -7.3070821    928.70105  0.017865133  0.016489235         1381 
 4333000   0.55433108   -7.3046047    928.19445  0.017851266  0.016483628         1455 
 4334000   0.55323907   -7.2920093    929.57067  0.017873609  0.016478021         1419 
 4335000   0.55667883    -7.299137    930.23899  0.017882333  0.016472421         1377 
 4336000   0.55806646   -7.2891595    930.15664  0.017876627  0.016466818         1438 
 4337000   0.57169619   -7.3269845    928.11253  0.017833228  0.016461213         1491 
 4338000    0.5487412   -7.3332832    928.53915  0.017837313  0.016455605         1520 
 4339000   0.56622355   -7.3010591    930.22003  0.017865484  0.016450003         1430 
 4340000   0.56237751   -7.3199947    926.86839  0.017797012  0.016444402         1413 
 4341000   0.55652238   -7.3144182     929.2646  0.017838912  0.016438807         1503 
 4342000   0.55374698    -7.317234    930.67272  0.017861829  0.016433216         1365 
 4343000   0.54742473    -7.297647    929.04366  0.017826457  0.016427624         1388 
 4344000   0.55680984   -7.3118801    928.68361  0.017815447  0.016422039         1478 
 4345000   0.56121928   -7.3057854    928.55567  0.017808893  0.016416445         1537 
 4346000   0.56433617   -7.3060179    927.10882  0.017777052  0.016410857         1585 
 4347000   0.57508866   -7.3277948    927.44882   0.01777948  0.016405269         1538 
 4348000   0.56182677   -7.3136815    928.84828  0.017802213  0.016399682         1564 
 4349000   0.56020702   -7.3146019     927.8143  0.017778307  0.016394097         1524 
 4350000   0.55719354   -7.2880831    929.50032  0.017806519  0.016388523         1392 
 4351000   0.54863705   -7.3252056    928.73269  0.017787725  0.016382945         1562 
 4352000   0.55644368   -7.3173939    929.52765   0.01779886  0.016377364         1441 
 4353000   0.55912413   -7.3355631    928.40066  0.017773196   0.01637179         1611 
 4354000    0.5512303   -7.2957279    928.32231  0.017767614  0.016366222         1491 
 4355000    0.5550364   -7.3289225    927.89575  0.017755372  0.016360653         1597 
 4356000   0.54536121   -7.3214076    929.60839   0.01778406  0.016355086         1646 
 4357000   0.54729511   -7.3203552    927.57889  0.017741162  0.016349516         1537 
 4358000   0.55640546   -7.3106758    928.78204  0.017760097   0.01634396         1499 
 4359000    0.5550734   -7.3118606    927.25938  0.017726913  0.016338394         1459 
 4360000   0.55450853   -7.3147065    929.91771  0.017773656  0.016332831         1515 
 4361000   0.54201498   -7.3110098    929.00418  0.017752124  0.016327273         1658 
 4362000   0.54294439    -7.313239    927.52505  0.017719797  0.016321709         1556 
 4363000   0.55678746   -7.3343693    926.98325  0.017705387  0.016316153         1598 
 4364000   0.55825776   -7.3203297    927.58086  0.017712742  0.016310598         1635 
 4365000   0.54980509   -7.2994871    927.90095  0.017714795  0.016305049         1540 
 4366000    0.5518686   -7.3137513     929.1725  0.017735007  0.016299502         1544 
 4367000   0.55385626    -7.326711    926.76559  0.017685016  0.016293953         1572 
 4368000   0.56670809   -7.3211819    928.59241   0.01771582  0.016288415         1533 
 4369000   0.54299065   -7.3275619    929.70997  0.017733081  0.016282876         1572 
 4370000   0.55098092   -7.3016085    927.43797  0.017685697  0.016277325         1675 
 4371000   0.55084527   -7.3224563    927.99212  0.017692216  0.016271781         1626 
 4372000    0.5514727   -7.3247728    928.07176  0.017689687  0.016266245         1547 
 4373000   0.55162484    -7.307315    928.20113  0.017688108   0.01626072         1555 
 4374000   0.54747481   -7.3252628    927.76953  0.017675841  0.016255185         1540 
 4375000   0.56027269   -7.3110514    929.07823  0.017696728  0.016249657         1566 
 4376000   0.55174403   -7.3258574    926.95352  0.017652223  0.016244131         1674 
 4377000   0.55260173   -7.3155375    929.05984  0.017688292  0.016238608         1589 
 4378000   0.55101951   -7.3160587    929.93284  0.017700869  0.016233082         1598 
 4379000   0.54559761   -7.3363819    928.22449  0.017664316  0.016227558         1610 
 4380000    0.5444607   -7.3259005    926.48937  0.017627271  0.016222034         1624 
 4381000   0.55482505   -7.3020375     927.1596  0.017635996  0.016216518         1571 
 4382000   0.55385494   -7.3282506    928.16203  0.017651035  0.016211006         1661 
 4383000   0.54037075   -7.3175719    927.57852  0.017635914  0.016205496         1551 
 4384000   0.54473498   -7.3190694    929.44991  0.017667463  0.016199985         1567 
 4385000   0.55426058   -7.3130968    927.58015  0.017627901  0.016194492         1691 
 4386000   0.55401337   -7.3432378    925.57929  0.017585866  0.016188984         1652 
 4387000   0.54793047   -7.3214616    928.26217   0.01763282  0.016183487         1621 
 4388000     0.542895   -7.3015097     928.0902  0.017625535  0.016177979         1504 
 4389000   0.54830455   -7.3236778     926.7145    0.0175954   0.01617249         1549 
 4390000   0.54143762   -7.3417766    928.06643  0.017617055  0.016166995         1479 
 4391000   0.54120822   -7.3305196    927.90364  0.017609953  0.016161499         1555 
 4392000   0.54640483   -7.3350042    928.14796  0.017610579  0.016156014         1583 
 4393000   0.53925963   -7.3316429    928.69772  0.017616999  0.016150519         1614 
 4394000   0.54718757   -7.3277472     927.8581  0.017597066  0.016145027         1506 
 4395000   0.54181009   -7.3390485    926.88873  0.017574682   0.01613954         1530 
 4396000   0.55278884   -7.3236371    927.73259  0.017586681  0.016134057         1566 
 4397000   0.55280969    -7.320145    928.65254  0.017600116  0.016128578         1462 
 4398000   0.55027153   -7.3189187    927.70545  0.017578169  0.016123094         1544 
 4399000   0.54709863    -7.333493    926.73717   0.01755583  0.016117617         1582 
 4400000   0.55438323   -7.3179813     928.0275  0.017576278  0.016112141         1464 
 4401000   0.54963639    -7.322281    929.04502  0.017591552  0.016106671         1405 
 4402000    0.5322043   -7.3411302    926.37648  0.017537038  0.016101203         1619 
 4403000   0.54279387   -7.3204168    926.87819   0.01754255  0.016095727         1554 
 4404000   0.55137319   -7.3293382     929.0098  0.017578902  0.016090257         1578 
 4405000    0.5513728   -7.3263626    926.25618  0.017522818  0.016084791         1521 
 4406000   0.54474306   -7.3174902    927.38431  0.017540178  0.016079326         1453 
 4407000    0.5454078   -7.3279095    928.43897  0.017556141  0.016073875         1565 
 4408000   0.55052921   -7.3334031    927.15431  0.017527872   0.01606842         1522 
 4409000   0.54302325   -7.3421139    926.61986  0.017513795  0.016062964         1506 
 4410000    0.5496482   -7.3363384    928.20249   0.01753973   0.01605751         1536 
 4411000   0.54004419   -7.3118543    928.08564  0.017533546  0.016052059         1590 
 4412000   0.54289083    -7.333513    928.70681  0.017541304  0.016046616         1514 
 4413000    0.5481941   -7.3233409    926.76425  0.017500647  0.016041167         1566 
 4414000   0.54500673   -7.3332751     926.6487    0.0174945  0.016035723         1561 
 4415000   0.55177344   -7.3340784    928.46562  0.017524832  0.016030283         1543 
 4416000   0.54407794   -7.3229141    927.30245  0.017498914  0.016024841         1534 
 4417000   0.53473042   -7.3196089    927.34651  0.017495784  0.016019401         1478 
 4418000   0.55240054   -7.3245012    927.38626  0.017492573  0.016013966         1472 
 4419000   0.54275837   -7.3319618    926.71433  0.017475943  0.016008534         1450 
 4420000   0.54900265   -7.3260837    926.13248   0.01746102  0.016003106         1544 
 4421000   0.54546766   -7.3350887    928.97879  0.017510721  0.015997688         1478 
 4422000   0.53640194   -7.3213377    926.42954   0.01745872   0.01599227         1529 
 4423000    0.5418127    -7.336426    926.71454  0.017460143  0.015986847         1582 
 4424000   0.53926689   -7.3132829    926.86852  0.017459097   0.01598143         1477 
 4425000   0.55721439   -7.3415239    927.92932  0.017475129  0.015976014         1504 
 4426000   0.54140406   -7.3269508    928.96252  0.017490633  0.015970593         1462 
 4427000   0.53986716   -7.3139215    928.54516  0.017478826   0.01596518         1550 
 4428000   0.54290359   -7.3401631    926.31161  0.017432844  0.015959767         1456 
 4429000    0.5389883   -7.3333498    926.04345  0.017423863  0.015954362         1472 
 4430000   0.54968512   -7.3435734    927.78793  0.017452745  0.015948965         1599 
 4431000   0.54664364    -7.339163    926.19788  0.017418902  0.015943571         1578 
 4432000   0.54539766   -7.3151361    928.27227  0.017453976  0.015938172         1389 
 4433000   0.54604662   -7.3369261    928.48852  0.017454104  0.015932775         1553 
 4434000   0.54917727   -7.3281882    926.07336  0.017404777  0.015927382         1468 
 4435000    0.5396366   -7.3456647    927.48003  0.017427284  0.015921993         1465 
 4436000    0.5460972   -7.3201897    927.87853  0.017430841  0.015916603         1427 
 4437000   0.54618483   -7.3321234    927.97714  0.017428765  0.015911217         1553 
 4438000   0.54030195   -7.3433221    926.39974  0.017395218  0.015905834         1601 
 4439000   0.54874399   -7.3532902    926.34167  0.017390209  0.015900437         1550 
 4440000   0.55161307   -7.3416019    927.92673  0.017416042  0.015895051         1587 
 4441000   0.54859606   -7.3303295    926.40521   0.01738357  0.015889669         1503 
 4442000   0.53615289   -7.3342115    928.53394  0.017419592  0.015884289         1483 
 4443000   0.53542368   -7.3348906    926.35362  0.017374777  0.015878915         1616 
 4444000   0.54633798   -7.3334845     927.4813  0.017392014  0.015873538         1592 
 4445000   0.53724538   -7.3419351    927.29117  0.017384536  0.015868159         1500 
 4446000   0.53524342   -7.3348674    928.30283  0.017399588  0.015862787         1527 
 4447000   0.53375535   -7.3451148    926.09511  0.017354305  0.015857409         1517 
 4448000   0.55108612   -7.3453138    926.55072  0.017358939  0.015852039         1492 
 4449000     0.550906   -7.3586025    927.33205  0.017369672   0.01584667         1533 
 4450000   0.53411664   -7.3568821      927.964  0.017377603  0.015841303         1466 
 4451000   0.53470867   -7.3245673    925.37074  0.017325147  0.015835941         1473 
 4452000    0.5444244    -7.346899    926.51606  0.017342694  0.015830579         1542 
 4453000   0.54069743   -7.3324685    926.89016    0.0173458  0.015825215         1519 
 4454000   0.54892234   -7.3310809    927.97102  0.017362128  0.015819862         1616 
 4455000   0.53123681   -7.3451504      927.053  0.017341059  0.015814511         1517 
 4456000   0.53410168   -7.3356138    927.08997  0.017337859  0.015809165         1629 
 4457000    0.5481106   -7.3354361    926.92532   0.01733089  0.015803814         1684 
 4458000   0.53569197   -7.3511837    929.23117  0.017370106  0.015798467         1613 
 4459000    0.5372878   -7.3529947    927.61151  0.017335941  0.015793121         1668 
 4460000    0.5337086   -7.3651312    926.79089  0.017316721   0.01578778         1683 
 4461000   0.53624598   -7.3454805    928.98363    0.0173538  0.015782445         1662 
 4462000   0.53768578   -7.3323735    927.77619   0.01732736   0.01577711         1601 
 4463000   0.53486912   -7.3339064    927.21135  0.017312931  0.015771777         1605 
 4464000   0.54773396   -7.3449849    927.44197  0.017313358  0.015766446         1639 
 4465000   0.52663199   -7.3465716    925.96185  0.017281856   0.01576111         1655 
 4466000   0.53296239   -7.3454131    926.68211  0.017291426  0.015755781         1575 
 4467000   0.53302747   -7.3332446    927.13877  0.017296074  0.015750451         1714 
 4468000   0.53633242   -7.3549766    927.74054  0.017303427  0.015745129         1591 
 4469000   0.55422919   -7.3465241    927.15682   0.01728867    0.0157398         1646 
 4470000   0.53591418   -7.3508169    928.44272  0.017308776  0.015734474         1652 
 4471000   0.54368782   -7.3450659      927.657  0.017290259  0.015729151         1639 
 4472000   0.54331635   -7.3421243    928.13587  0.017295317  0.015723827         1662 
 4473000   0.53776873   -7.3327276    925.96065  0.017250925  0.015718503         1678 
 4474000   0.53135895   -7.3363537    925.76733  0.017243468  0.015713181         1635 
 4475000   0.53655247   -7.3448902    927.20632  0.017266412  0.015707867         1657 
 4476000   0.54046756   -7.3624469     925.2735  0.017226569   0.01570255         1723 
 4477000    0.5302127   -7.3272558    927.14348  0.017257529   0.01569724         1625 
 4478000   0.54788121   -7.3451456    926.88091  0.017248789   0.01569193         1578 
 4479000   0.53809226   -7.3532801     926.4426  0.017236783  0.015686622         1512 
 4480000   0.53474375   -7.3644837    926.14044  0.017227315  0.015681314         1571 
 4481000   0.53648149   -7.3470907    925.29584  0.017207763  0.015676007         1565 
 4482000   0.53515506   -7.3448301    926.54491  0.017227148  0.015670706         1580 
 4483000   0.52846982   -7.3513336    926.68711  0.017225948  0.015665404         1603 
 4484000   0.53943561   -7.3543509    926.93387  0.017226692  0.015660111         1685 
 4485000   0.53469018   -7.3411791    926.60526  0.017216746  0.015654819         1544 
 4486000   0.53837324   -7.3336823     928.2228  0.017242956   0.01564953         1616 
 4487000   0.53797045   -7.3622243    926.99195  0.017216253  0.015644247         1652 
 4488000    0.5306866   -7.3467063    925.18864  0.017178933  0.015638961         1652 
 4489000   0.53438036   -7.3266604    927.47539  0.017217558  0.015633672         1591 
 4490000   0.53873631   -7.3503882    926.56376  0.017196803  0.015628389         1648 
 4491000     0.535826   -7.3569932    924.67435  0.017157915  0.015623105         1667 
 4492000   0.53261978   -7.3377387    927.09562  0.017199013  0.015617824         1638 
 4493000   0.54010913    -7.339068    926.77922  0.017189317  0.015612537         1666 
 4494000   0.53691671   -7.3426136    928.34252  0.017214481  0.015607255         1581 
 4495000    0.5360367   -7.3564469    926.12271  0.017169498  0.015601978         1599 
 4496000   0.52136937   -7.3466146    925.23951  0.017149309  0.015596698         1660 
 4497000   0.53130012   -7.3756201     927.1149  0.017180248  0.015591426         1662 
 4498000   0.53362778   -7.3718058    926.60714  0.017167021  0.015586147         1650 
 4499000   0.52466142   -7.3669124    925.71771  0.017146731  0.015580863         1691 
 4500000   0.53364386   -7.3546273    924.63316  0.017122836   0.01557559         1707 
 4501000    0.5282883   -7.3523549    926.09262  0.017146053  0.015570313         1719 
 4502000   0.53545643   -7.3510579    925.51317  0.017131519   0.01556504         1735 
 4503000   0.52371953   -7.3521678    924.60281  0.017110867  0.015559763         1674 
 4504000   0.53992748   -7.3428386    924.17155  0.017099089  0.015554493         1760 
 4505000   0.54297527   -7.3626055    927.03584  0.017148277  0.015549228         1654 
 4506000    0.5272504    -7.380409    925.25289  0.017111497  0.015543955         1735 
 4507000   0.53501893   -7.3490628    926.76917  0.017135736  0.015538694         1741 
 4508000   0.52295029   -7.3575181    925.07828  0.017100678  0.015533439         1660 
 4509000    0.5229744   -7.3780402    925.13661  0.017097963  0.015528178         1682 
 4510000    0.5164298    -7.384707    925.77492  0.017105967  0.015522922         1692 
 4511000   0.52851893   -7.3698716    924.85323  0.017085148  0.015517668         1720 
 4512000   0.53180467   -7.3697422    924.99483  0.017083977  0.015512416         1650 
 4513000   0.52424202   -7.3738173    927.45472  0.017125613   0.01550717         1641 
 4514000   0.52638484   -7.3766533    925.96519  0.017094321  0.015501925         1713 
 4515000    0.5211133   -7.3645106     925.6363  0.017084465  0.015496681         1632 
 4516000    0.5253326   -7.3786007    924.09774  0.017052291  0.015491432         1756 
 4517000   0.51058033     -7.36742     925.7011  0.017078096  0.015486192         1644 
 4518000   0.52171151   -7.3634585     924.0068  0.017043065  0.015480955         1671 
 4519000    0.5323327   -7.3595951    925.22682  0.017061791  0.015475718         1680 
 4520000   0.52107963   -7.3390757    926.43218  0.017080239  0.015470488         1708 
 4521000   0.52555277    -7.373133    923.22561  0.017017356  0.015465259         1715 
 4522000    0.5381244   -7.3675353    925.81022  0.017061223  0.015460032         1692 
 4523000   0.51904139   -7.3627084    926.17843  0.017064235  0.015454816         1744 
 4524000   0.53316166   -7.3587362    925.59023  0.017049628  0.015449588         1694 
 4525000   0.52120852   -7.3743611    925.00585  0.017035098  0.015444369         1806 
 4526000   0.52131879   -7.3693122     925.5074  0.017040569  0.015439147         1754 
 4527000   0.53595472   -7.3582963    926.06044  0.017046985   0.01543393         1686 
 4528000   0.53021011   -7.3697223    927.05006  0.017061434  0.015428721         1636 
 4529000   0.53364531    -7.376983    925.46672  0.017028533  0.015423502         1768 
 4530000   0.51080683   -7.3615504    925.15349  0.017019012  0.015418289         1708 
 4531000   0.53322803   -7.3586485    926.15915  0.017033752  0.015413085         1632 
 4532000   0.51879822   -7.3731401    926.57757  0.017037687  0.015407878         1714 
 4533000   0.52591645   -7.3637651    924.75199  0.017000367  0.015402681         1775 
 4534000    0.5137968   -7.3502716    925.51537  0.017010649  0.015397483         1600 
 4535000   0.52075449   -7.3441885    925.80785  0.017012272  0.015392281         1694 
 4536000   0.52612813   -7.3634594    925.39135   0.01700087  0.015387081         1769 
 4537000    0.5264691    -7.373395    926.52754  0.017017992  0.015381893         1727 
 4538000    0.5143877   -7.3762242    923.87382   0.01696551  0.015376695         1784 
 4539000   0.53267132   -7.3658125    925.26478   0.01698731  0.015371508         1748 
 4540000   0.52352329   -7.3589052    927.31866  0.017021268  0.015366322         1685 
 4541000   0.53176155   -7.3641339    926.11753  0.016995477  0.015361136         1699 
 4542000   0.51139531   -7.3534817    927.24304  0.017012385  0.015355952         1740 
 4543000   0.52237787   -7.3460643    925.78981  0.016981983  0.015350767         1805 
 4544000   0.53054261   -7.3640694    925.44128  0.016971854  0.015345589         1794 
 4545000   0.53508446   -7.3773669    925.64338  0.016971826  0.015340411         1860 
 4546000   0.52778391   -7.3713897    924.32983  0.016944014  0.015335233         1809 
 4547000    0.5254614   -7.3698932    926.92909  0.016987924  0.015330063         1767 
 4548000   0.53012135   -7.3554817    924.48962   0.01693949  0.015324889         1786 
 4549000   0.52169583   -7.3762075    923.68407   0.01692101  0.015319714         1760 
 4550000   0.52381892   -7.3764624    925.09227  0.016943082  0.015314543         1712 
 4551000    0.5192589    -7.391225    924.97034  0.016937126  0.015309375         1805 
 4552000   0.52625088     -7.37611    923.96614  0.016915022  0.015304199         1861 
 4553000   0.52001772   -7.3598503    925.91784  0.016947028  0.015299034         1806 
 4554000   0.52149207   -7.3896644    923.69297  0.016902594  0.015293868         1850 
 4555000   0.53291104   -7.3836302    925.81263  0.016937662  0.015288706         1772 
 4556000    0.5226703    -7.365246    924.19521  0.016904361  0.015283551         1882 
 4557000   0.52360443   -7.3910304    925.07859  0.016916805  0.015278395         1845 
 4558000   0.52217384   -7.3873022    925.44951  0.016919876  0.015273237         1870 
 4559000   0.52412491   -7.3761443    923.38307  0.016878392  0.015268078         1887 
 4560000   0.52332116   -7.3937887    924.22867  0.016890144  0.015262922         1927 
 4561000   0.51799824   -7.3690867    926.64845  0.016930652  0.015257768         1924 
 4562000   0.51424581   -7.3870953    924.50259  0.016887743  0.015252617         1942 
 4563000   0.51581778   -7.3752409    925.03386  0.016893744  0.015247473         1880 
 4564000   0.51770711   -7.3762578    925.10945  0.016891423  0.015242333         1901 
 4565000   0.51792754   -7.3793849    924.25316  0.016872091  0.015237193         1891 
 4566000   0.51820801   -7.3809204    924.23117  0.016867995  0.015232052         1852 
 4567000   0.50968773   -7.3735321    924.88302  0.016876195   0.01522691         1800 
 4568000   0.52777648   -7.3830011    924.02189  0.016856792  0.015221769         1829 
 4569000   0.53083292   -7.3741119    924.15779  0.016855581  0.015216638         1842 
 4570000   0.52777099   -7.3883655     925.3085  0.016872876  0.015211511         1833 
 4571000   0.51646228   -7.3803139    924.26833  0.016850221  0.015206387         1785 
 4572000   0.52402448   -7.3787317     923.4925  0.016832395  0.015201259         1853 
 4573000   0.52415748   -7.3685864    924.47235   0.01684657  0.015196122         1939 
 4574000   0.52498875   -7.3894827    924.51925  0.016843741  0.015190997         1885 
 4575000   0.52446071   -7.3732932    925.10985  0.016850817  0.015185872         1901 
 4576000   0.51542106   -7.3751951    923.11136   0.01681074  0.015180748         1888 
 4577000   0.51267378   -7.3800126    924.90402  0.016839706  0.015175626         1856 
 4578000   0.52139295   -7.3875284     923.4194  0.016809003  0.015170509         1893 
 4579000   0.51592521   -7.3709919    924.96648  0.016833488  0.015165393         1945 
 4580000   0.51402354   -7.3732418     924.2538  0.016816845  0.015160282         1928 
 4581000   0.52590094   -7.3858223    923.29729  0.016795774  0.015155169         1936 
 4582000   0.51938267   -7.3801532    925.42932  0.016830884  0.015150058         1941 
 4583000   0.51411528   -7.3898949    922.58958  0.016775576  0.015144943         1955 
 4584000   0.51041051   -7.3824116    924.59946  0.016808454  0.015139838         1957 
 4585000   0.50925802   -7.3971134    924.86059  0.016809535  0.015134733         1988 
 4586000    0.5231635   -7.3815932    924.95748   0.01680763  0.015129636         1970 
 4587000   0.50873498   -7.3824446    925.46187  0.016813129   0.01512454         1937 
 4588000     0.513761   -7.4070051    923.90742   0.01678123  0.015119445         1936 
 4589000   0.51271438   -7.3663039    924.09969  0.016781065  0.015114349         1865 
 4590000   0.52226337     -7.38822    925.51801  0.016803159  0.015109258         1935 
 4591000    0.5245993   -7.3728452    924.41862  0.016779544  0.015104171         1874 
 4592000   0.52874087   -7.3886456    925.56583  0.016796709  0.015099084         1861 
 4593000   0.52390997   -7.3879618    925.50126   0.01679188  0.015093998         1947 
 4594000   0.51832478   -7.3848265    922.11463  0.016726793  0.015088917         2064 
 4595000   0.51383356   -7.3954071    923.98044   0.01675699  0.015083831         2025 
 4596000   0.51128113   -7.3843029    924.58518  0.016764309  0.015078752         1971 
 4597000   0.51157229   -7.3793012    926.57307  0.016796698  0.015073672         1966 
 4598000   0.52297552   -7.3919354    924.94223  0.016763488  0.015068593         2040 
 4599000   0.52000812   -7.3810431    922.78235  0.016720706  0.015063515         2051 
 4600000   0.50753463   -7.3878999    923.78022  0.016735149   0.01505844         2061 
 4601000   0.50390278   -7.3957661    924.54682  0.016745396  0.015053363         2108 
 4602000   0.51828935   -7.3901614    924.24451  0.016736283  0.015048291         1989 
 4603000   0.51654482   -7.3880077    923.76443  0.016723956  0.015043223         2093 
 4604000   0.52012665   -7.3733845    924.71187  0.016737472  0.015038156         1993 
 4605000   0.52065213   -7.3945184      924.356  0.016727398  0.015033089         2060 
 4606000   0.50142074   -7.3669429    925.86825  0.016751126  0.015028022         2033 
 4607000   0.51421476   -7.3786393     924.5124  0.016722965  0.015022958         2043 
 4608000   0.51688709    -7.415101    924.00126  0.016710092  0.015017898         2058 
 4609000   0.51675884   -7.3731912    922.92631  0.016687031  0.015012841         2051 
 4610000   0.51963031    -7.410574    924.54627  0.016712695  0.015007788         2112 
 4611000   0.52378881   -7.3944432    923.73588  0.016694424  0.015002735         2107 
 4612000   0.52046072   -7.3871274     924.3452  0.016701814  0.014997686         2039 
 4613000   0.50260683   -7.4000081     924.5153  0.016701266  0.014992634         2069 
 4614000   0.51240068   -7.3924819    923.33713  0.016676368  0.014987583         2113 
 4615000   0.53112992   -7.3801267    924.19288  0.016688206  0.014982529         2011 
 4616000   0.51980154   -7.3991308    924.78053    0.0166952  0.014977479         2089 
 4617000   0.52455837   -7.3789846    923.11171  0.016661463  0.014972433         2084 
 4618000   0.51021697   -7.4123546    923.18666  0.016659208  0.014967388         2057 
 4619000   0.51669841    -7.396619    923.98533   0.01667001  0.014962348         2028 
 4620000   0.50993276   -7.3850704    923.42051  0.016656214  0.014957301         2072 
 4621000   0.51643363    -7.411249    925.05047  0.016682004  0.014952267         2023 
 4622000   0.51281135   -7.3970775    923.36636   0.01664803  0.014947225         2084 
 4623000   0.51662921   -7.3909272    924.35169  0.016662191  0.014942191         2058 
 4624000   0.50728386   -7.4103816    924.62772  0.016663562  0.014937159         2086 
 4625000   0.51846127   -7.3913867    924.21061  0.016652443  0.014932128         2056 
 4626000   0.51592457   -7.3952256    923.58375  0.016637551  0.014927099         2073 
 4627000   0.52346869   -7.3911133     923.1555  0.016626243  0.014922068         2015 
 4628000   0.50826679   -7.4043248    923.82348  0.016634678  0.014917042         1980 
 4629000   0.51070235   -7.3915044    924.93582  0.016651109  0.014912016         1982 
 4630000   0.50567812   -7.4125251    923.82985  0.016627607  0.014906993         2015 
 4631000   0.51854718   -7.3978152    922.21593  0.016594975  0.014901977         2060 
 4632000    0.5005512   -7.4092654    923.12946  0.016607827  0.014896958         2064 
 4633000   0.52121204   -7.4046529    923.00512  0.016602006  0.014891936         2041 
 4634000   0.51198484   -7.3994551    922.30081  0.016585758  0.014886921         2019 
 4635000   0.50991007   -7.4095114    924.66475  0.016624681  0.014881907         2034 
 4636000   0.50717232   -7.3963845    923.00976  0.016591346  0.014876894         2063 
 4637000     0.505803   -7.4120097    924.80551   0.01662004  0.014871886         2065 
 4638000   0.52114892   -7.4082393    923.86357  0.016599532  0.014866875         2161 
 4639000   0.50584278   -7.4110778    922.77258  0.016576356  0.014861871         2118 
 4640000   0.51224687   -7.4039262    923.95082  0.016593944  0.014856869         2027 
 4641000   0.51308293   -7.4161015    923.63107  0.016584627  0.014851862         2061 
 4642000   0.51038612   -7.4088382    923.51311  0.016578937  0.014846864         2071 
 4643000   0.51541065   -7.4093441    925.11738   0.01660416  0.014841868         2112 
 4644000   0.51011881   -7.4124068    923.21688  0.016566482  0.014836872         2066 
 4645000   0.50998256   -7.4006473    924.53468  0.016586557  0.014831877         2025 
 4646000   0.51287872   -7.4232423     921.0707  0.016520855  0.014826888         2098 
 4647000   0.50644709   -7.4071293    923.35719  0.016558303  0.014821894         2116 
 4648000   0.50733275   -7.4119347    923.10393    0.0165502    0.0148169         2019 
 4649000   0.51077531    -7.404918    924.51671  0.016571964  0.014811912         2046 
 4650000    0.4962061   -7.4273511    923.15466   0.01654399  0.014806919         2078 
 4651000   0.50704325   -7.4034368    922.20959    0.0165235   0.01480193         2104 
 4652000   0.50623985   -7.4072489    923.55725  0.016544089  0.014796943         2070 
 4653000   0.52250412    -7.422418    922.40781  0.016519948  0.014791955         2106 
 4654000   0.51253294   -7.4093826    923.41948  0.016534513  0.014786976         2053 
 4655000   0.50221597   -7.4058947    922.63553  0.016516927     0.014782         1989 
 4656000    0.5125943   -7.3968502    921.22247  0.016488088  0.014777032         2110 
 4657000   0.50093483   -7.4187576    924.22237  0.016538229  0.014772067         2087 
 4658000   0.50717012   -7.4231665    923.38506  0.016519698    0.0147671         2058 
 4659000   0.50177074   -7.4118198    924.18941   0.01653054   0.01476213         2131 
 4660000   0.51821076   -7.4101935    924.01958  0.016523955  0.014757163         2108 
 4661000   0.50938085   -7.4038167    924.45332  0.016528165  0.014752197         2097 
 4662000   0.51340432   -7.3918164    924.27791  0.016521484  0.014747235         2054 
 4663000   0.50231979   -7.4021195    924.18271   0.01651624  0.014742274         2005 
 4664000   0.50466885   -7.4171679    922.81249  0.016488216   0.01473732         2094 
 4665000   0.49915177   -7.4065147    925.35381  0.016530079  0.014732361         2007 
 4666000   0.49647442   -7.4089409    922.63607  0.016477998  0.014727402         2115 
 4667000   0.51006381   -7.4120692     922.2026  0.016466727  0.014722452         2091 
 4668000   0.50231221   -7.4136557    922.54868  0.016469378  0.014717499         2019 
 4669000   0.49722985   -7.4187928    922.83932  0.016471038   0.01471255         2009 
 4670000   0.50543045   -7.4189296    922.71603  0.016465311    0.0147076         1978 
 4671000   0.50548304   -7.4363554    922.48539  0.016457671  0.014702649         1992 
 4672000    0.5106981   -7.4223798    921.26505  0.016432382  0.014697704         2062 
 4673000   0.51818896   -7.4171627      923.354  0.016466117   0.01469276         2039 
 4674000   0.50345062   -7.4235685    921.51828  0.016429865  0.014687817         2032 
 4675000   0.49884663    -7.420055    920.89588  0.016415256   0.01468288         1967 
 4676000   0.49534173   -7.4202147    923.52455  0.016458593  0.014677942         1946 
 4677000   0.51138643   -7.4166281    923.66929  0.016457653  0.014673005         2047 
 4678000   0.51027137     -7.41226    921.93835    0.0164233  0.014668071         2054 
 4679000   0.51136093   -7.4292898    921.99095  0.016420727  0.014663139         2074 
 4680000   0.50060653   -7.4238047    922.20654  0.016421057   0.01465821         2164 
 4681000   0.50852865   -7.4182493    922.40979  0.016421167  0.014653283         2080 
 4682000   0.50278574    -7.427041    922.33805  0.016416383  0.014648357         2081 
 4683000   0.49597007   -7.4190332    922.62513  0.016417986  0.014643429         2063 
 4684000   0.50696941   -7.4209822    923.50531   0.01643014  0.014638506         1986 
 4685000   0.51164038   -7.4204477    923.05057  0.016418544  0.014633588         2056 
 4686000   0.51162018   -7.4262437    921.71358  0.016391264  0.014628671         2061 
 4687000   0.48888151   -7.4281121    923.93113  0.016427194  0.014623758         2149 
 4688000   0.50179147   -7.4168967    921.96531  0.016388746   0.01461884         2095 
 4689000   0.50606402    -7.412788    923.13404  0.016406022  0.014613931         2127 
 4690000   0.51637091    -7.436178    921.76799  0.016378251  0.014609024         2116 
 4691000   0.49828466   -7.4443293    921.27612  0.016366022  0.014604116         2079 
 4692000   0.50180615   -7.4171205    923.65036  0.016404702  0.014599215         2044 
 4693000   0.51080864   -7.4258716     923.6556    0.0164013   0.01459431         2079 
 4694000   0.50219672   -7.4328407    919.88655  0.016330893  0.014589407         2114 
 4695000   0.50963595   -7.4340656    922.74898  0.016378221  0.014584501         2115 
 4696000   0.50248542   -7.4243054     922.8929  0.016377287  0.014579606         2070 
 4697000   0.49935923   -7.4138191    921.12712  0.016342472  0.014574711         2077 
 4698000   0.49986547   -7.4315893    923.08874  0.016373789  0.014569814         2139 
 4699000   0.50744361   -7.4479667    921.73514    0.0163463   0.01456492         2069 
 4700000   0.50099892   -7.4236112    922.86569  0.016362867  0.014560026         2077 
 4701000   0.49437462   -7.4305894    923.38209   0.01636854  0.014555136         2068 
 4702000   0.50328568   -7.4303817    923.62729  0.016369405  0.014550252         2072 
 4703000   0.51103833   -7.4248059    922.71686  0.016349792   0.01454537         2062 
 4704000   0.50891921   -7.4326476    921.04076  0.016316624  0.014540487         2162 
 4705000    0.5063846   -7.4189765    921.86497  0.016327754  0.014535605         2136 
 4706000   0.49843194   -7.4146649     921.8481  0.016323985  0.014530735         2075 
 4707000   0.49255359   -7.4361924    922.56764  0.016333256   0.01452586         2081 
 4708000   0.49361736   -7.4192844    920.91382  0.016300514  0.014520988         2051 
 4709000   0.51488159    -7.434464    921.71032  0.016311147  0.014516114         2097 
 4710000   0.50800113   -7.4336548    923.75036  0.016343778  0.014511244         2062 
 4711000    0.5041133   -7.4040337    922.14824  0.016311969  0.014506371         2047 
 4712000   0.50100033   -7.4325647    922.32234  0.016311586   0.01450151         2033 
 4713000   0.50270858   -7.4409729    922.55448   0.01631223  0.014496644         2076 
 4714000   0.48814954   -7.4472779    922.37808  0.016305651  0.014491781         2045 
 4715000    0.4909538   -7.4441511    920.90455   0.01627615  0.014486917         2046 
 4716000   0.50078536   -7.4326856    921.53816  0.016283895  0.014482056         2050 
 4717000    0.4952409   -7.4353811    921.97108  0.016288091  0.014477194         2003 
 4718000   0.49574758   -7.4451577    920.55046  0.016259546  0.014472331         2111 
 4719000   0.50515024   -7.4261247    922.36136  0.016288079  0.014467478         2054 
 4720000   0.49245337   -7.4396146    922.30949  0.016283713  0.014462623         2123 
 4721000   0.49667194   -7.4548396    921.39573  0.016264134   0.01445777         2115 
 4722000   0.49662816   -7.4403613    920.26008  0.016240648  0.014452922         2137 
 4723000   0.50675451   -7.4356105    922.94522  0.016284586  0.014448076         2081 
 4724000   0.48937996   -7.4397833    920.04049  0.016229899  0.014443227         2090 
 4725000   0.49992557     -7.45353     922.5541  0.016270795  0.014438379         2067 
 4726000   0.49245314   -7.4326604    920.72826  0.016235158  0.014433535         2041 
 4727000    0.4914143   -7.4547054    921.10689  0.016238398  0.014428689         2150 
 4728000   0.49856345   -7.4205743    923.62078  0.016279272  0.014423856         2041 
 4729000   0.49112833   -7.4282959     921.7086  0.016242134  0.014419022         2110 
 4730000   0.49709547   -7.4143449    922.20584   0.01624746  0.014414187         2117 
 4731000   0.50181551    -7.408089    920.92766  0.016221512   0.01440936         2103 
 4732000    0.4904747   -7.4336291    921.48843  0.016227959  0.014404532         1975 
 4733000   0.50298348   -7.4518858    922.21775  0.016237371  0.014399708         2035 
 4734000   0.50713946   -7.4313388    922.68281  0.016242128   0.01439488         2127 
 4735000   0.50145523   -7.4263397    922.46477   0.01623486   0.01439006         2157 
 4736000   0.48244659   -7.4410308    922.35682  0.016229533  0.014385235         2112 
 4737000   0.50246069   -7.4342012    923.22949  0.016241459  0.014380417         2048 
 4738000   0.49353632   -7.4321999    923.53074  0.016243329  0.014375603         2098 
 4739000   0.49085141   -7.4429488    922.11901  0.016215077  0.014370793         2073 
 4740000   0.48951634   -7.4631979    919.86305  0.016171995  0.014365981         2129 
 4741000   0.49825113   -7.4309081    921.64035  0.016199823  0.014361168         2106 
 4742000   0.49814948   -7.4397038    922.65461  0.016214231  0.014356358         2105 
 4743000   0.49077728   -7.4239672    922.21019  0.016203004  0.014351553         2125 
 4744000   0.49855483   -7.4342978    922.60779  0.016206573  0.014346751         2137 
 4745000   0.48661779   -7.4478994    920.70116  0.016169673  0.014341945         2164 
 4746000    0.4857639   -7.4429284    921.60931  0.016182212  0.014337141         2118 
 4747000   0.48643558   -7.4328952    921.81855  0.016182476  0.014332337         2082 
 4748000   0.49063092   -7.4197209    921.72987  0.016177511  0.014327541         2078 
 4749000   0.49331292   -7.4447227     919.9635  0.016143109  0.014322744         2210 
 4750000   0.49576376   -7.4606643    921.41847  0.016165236  0.014317951         2141 
 4751000   0.49609032   -7.4331352    921.25901  0.016159037  0.014313158         2119 
 4752000   0.49200514   -7.4334768    921.04473  0.016151879   0.01430837         2147 
 4753000   0.50168001    -7.454434    920.85076   0.01614508   0.01430358         2074 
 4754000   0.49498454     -7.44538     921.9025  0.016160119  0.014298793         2191 
 4755000   0.49039146    -7.446248    920.45228  0.016131305  0.014294004         2173 
 4756000   0.49641232   -7.4435674    921.11555  0.016139535  0.014289226         2063 
 4757000   0.48952657   -7.4494827    919.47929  0.016107478  0.014284445         2102 
 4758000   0.48889367   -7.4596118     921.0977  0.016132438  0.014279662         2171 
 4759000   0.49063957   -7.4453284    919.76742  0.016105754  0.014274883         2217 
 4760000   0.48672102   -7.4523975    920.62366  0.016117361  0.014270105         2156 
 4761000   0.48983898   -7.4478143    921.59275  0.016130938  0.014265332         2164 
 4762000   0.49462417   -7.4454378    919.16969  0.016085148  0.014260554         2171 
 4763000   0.49492345   -7.4558297    920.63491  0.016107406  0.014255784         2194 
 4764000    0.4817671   -7.4326136    922.22122  0.016131773  0.014251015         2127 
 4765000   0.48302137   -7.4443997    921.69312  0.016119152  0.014246249         2161 
 4766000   0.48608521   -7.4464709    921.38676  0.016110413  0.014241489         2098 
 4767000   0.48670977   -7.4462006    920.45704  0.016090781  0.014236731         2130 
 4768000   0.48819326   -7.4579224    920.65595  0.016090883  0.014231977         2059 
 4769000   0.49320506   -7.4276187    922.98819  0.016128262  0.014227224         2083 
 4770000    0.4793459   -7.4344299    922.87014  0.016122819  0.014222473         2109 
 4771000   0.48482003   -7.4545415    920.92512  0.016085466  0.014217724         2100 
 4772000   0.49369901   -7.4433111    922.90182  0.016116615  0.014212973         2163 
 4773000   0.49283489   -7.4541918    921.97724  0.016097095  0.014208227         2113 
 4774000   0.49860812   -7.4327465     922.3147  0.016099614  0.014203482         2124 
 4775000    0.4899127   -7.4374671    919.70299  0.016050663  0.014198742         2152 
 4776000   0.49119849   -7.4424431    923.07682   0.01610617  0.014194003         2142 
 4777000   0.49205039   -7.4494593    921.97988  0.016083663  0.014189265         2129 
 4778000   0.49503901   -7.4412232    920.91486  0.016061721  0.014184531         2154 
 4779000   0.48321378    -7.449254    921.08974   0.01606141  0.014179796         2094 
 4780000   0.49575578   -7.4567638    922.92645  0.016090071  0.014175065         2104 
 4781000    0.4860315   -7.4326846    922.89425  0.016086144  0.014170336         2095 
 4782000   0.48454126   -7.4479723    919.41097  0.016022079  0.014165605         2104 
 4783000   0.48738727    -7.454065    922.61767  0.016074599  0.014160877         2146 
 4784000   0.48486438   -7.4645906    920.21485  0.016029384  0.014156151         2082 
 4785000   0.48435897    -7.434161    920.81624  0.016036507  0.014151422         2120 
 4786000   0.49282745   -7.4275544    921.32946  0.016042093    0.0141467         2138 
 4787000   0.49337985   -7.4474389    922.40036  0.016057384   0.01414198         2121 
 4788000   0.48537221   -7.4597627     921.0899  0.016031222  0.014137261         2145 
 4789000   0.47730173    -7.448146    921.98785    0.0160435  0.014132542         2190 
 4790000   0.48709583    -7.448007    920.64507   0.01601679  0.014127823         2110 
 4791000   0.48275709   -7.4491577    920.99201  0.016019481  0.014123107         2060 
 4792000   0.49458076    -7.442117    920.52999  0.016008104  0.014118394         2187 
 4793000   0.48194679   -7.4285763    921.34757  0.016018978  0.014113687         2160 
 4794000   0.47953217   -7.4445904    919.85522  0.015989696  0.014108978         2116 
 4795000   0.48764267   -7.4540568    920.42382  0.015996243  0.014104274         2117 
 4796000   0.48388541   -7.4453881    923.06884  0.016038866  0.014099568         2131 
 4797000   0.48735513   -7.4526317    921.27351  0.016004335  0.014094864         2180 
 4798000   0.48241029    -7.459862    920.98218  0.015995939  0.014090159         2148 
 4799000   0.49805024   -7.4562567    919.74105  0.015971054  0.014085458         2164 
 4800000   0.49453712   -7.4508274    923.37843  0.016030875  0.014080766         2131 
 4801000   0.49016703   -7.4437311     920.0653  0.015970029  0.014076072         2122 
 4802000   0.48153109   -7.4550037    919.52562  0.015957338  0.014071376         2188 
 4803000   0.49492183   -7.4608463    922.03613  0.015997573  0.014066688         2190 
 4804000   0.47796105    -7.455475    921.55836  0.015985955     0.014062         2191 
 4805000   0.49346016   -7.4639174    920.56141  0.015965338  0.014057309         2238 
 4806000   0.47662203   -7.4383427    920.81353  0.015966388  0.014052621         2176 
 4807000   0.46042652   -7.4621949    919.93762  0.015947882  0.014047936         2215 
 4808000   0.47691206   -7.4381646    920.80921  0.015959672  0.014043249         2119 
 4809000   0.48037209   -7.4551526    920.83399  0.015956782  0.014038563         2178 
 4810000   0.48153348   -7.4598686    920.95747  0.015955604  0.014033886         2181 
 4811000   0.48424381    -7.445001    920.15624  0.015938409  0.014029211         2123 
 4812000   0.48423988   -7.4672748    920.73148  0.015945059  0.014024534         2160 
 4813000   0.48335019   -7.4535364    920.19416  0.015932443  0.014019862         2180 
 4814000   0.48056795   -7.4521969    920.25226  0.015930139  0.014015192         2108 
 4815000   0.48215856   -7.4323111    921.81048  0.015953799  0.014010529         2124 
 4816000    0.4874488   -7.4491497    919.19858  0.015905291  0.014005862         2182 
 4817000   0.48189669   -7.4525317     921.8138  0.015947232  0.014001198         2215 
 4818000   0.48212809   -7.4543162    919.50035  0.015903908  0.013996535         2187 
 4819000   0.47226092   -7.4542033    921.36852  0.015932913  0.013991874         2207 
 4820000   0.46840024   -7.4505368    920.41041  0.015913043  0.013987214         2245 
 4821000   0.47605236   -7.4635744    919.86522  0.015900318  0.013982552         2288 
 4822000   0.47160359   -7.4591345    921.02092  0.015916994  0.013977895         2246 
 4823000   0.47730766    -7.447702    921.43362  0.015920824  0.013973241         2277 
 4824000     0.482738   -7.4641209    920.26545  0.015897344  0.013968589         2180 
 4825000   0.47737181   -7.4711153    920.45455  0.015897315  0.013963933         2254 
 4826000   0.46695233   -7.4501562    920.74901  0.015899106  0.013959284         2267 
 4827000   0.47976511   -7.4497153     921.6093  0.015910664  0.013954636         2176 
 4828000   0.47986647   -7.4669402     921.0645  0.015897965  0.013949989         2222 
 4829000   0.47853279   -7.4600723    918.40794  0.015848829  0.013945339         2264 
 4830000   0.47204679   -7.4515237    921.35226  0.015896347  0.013940691         2187 
 4831000   0.48648025   -7.4707365    921.25952  0.015891457  0.013936048         2185 
 4832000   0.47999579   -7.4575325    920.13059  0.015868698  0.013931414         2253 
 4833000   0.48141032   -7.4705818    919.53819    0.0158552  0.013926777         2296 
 4834000   0.48999795   -7.4579032    919.99281  0.015859757  0.013922141         2151 
 4835000   0.48015819   -7.4624117    917.93013  0.015820926  0.013917505         2231 
 4836000   0.46762819   -7.4684346    922.14538  0.015890291   0.01391287         2248 
 4837000   0.48190901   -7.4660276     920.1216   0.01585214  0.013908239         2360 
 4838000    0.4806824   -7.4618337    920.62092  0.015857464  0.013903608         2263 
 4839000   0.48184717   -7.4771353      920.643  0.015854567  0.013898978         2198 
 4840000   0.47335696   -7.4641922    920.44317  0.015847851  0.013894352         2207 
 4841000   0.48769103   -7.4579542    920.92615  0.015852891   0.01388972         2277 
 4842000   0.48633022   -7.4669498    919.79645  0.015830174  0.013885097         2210 
 4843000   0.47842517   -7.4708772    919.50747  0.015821933  0.013880472         2224 
 4844000   0.47619783   -7.4706319     920.7957  0.015840829  0.013875851         2246 
 4845000   0.48480812   -7.4735881    919.95145  0.015823038  0.013871233         2160 
 4846000    0.4760544    -7.457376    921.21998  0.015841587  0.013866615         2126 
 4847000   0.48201412   -7.4608531    919.55138  0.015809631     0.013862         2185 
 4848000   0.47237003   -7.4681439    920.49881  0.015822656  0.013857389         2237 
 4849000   0.47981546   -7.4812691    920.35316  0.015816889  0.013852776         2224 
 4850000   0.47596659   -7.4726277    919.44915  0.015798095  0.013848169         2225 
 4851000   0.48345022   -7.4901702    921.74303  0.015834244  0.013843564         2241 
 4852000   0.48277451   -7.4535766    919.76403  0.015796991  0.013838962         2235 
 4853000   0.47759934   -7.4634306    919.75855  0.015793642  0.013834359         2270 
 4854000   0.46464825    -7.463856    921.30551  0.015816947  0.013829757         2259 
 4855000   0.48017034   -7.4761994    920.96388  0.015807825  0.013825157         2264 
 4856000   0.47499591   -7.4888135    918.55248  0.015763188  0.013820558         2259 
 4857000   0.46971661   -7.4726366    918.35818  0.015756609  0.013815961         2342 
 4858000   0.47145875   -7.4584726    918.63919  0.015758186  0.013811363         2346 
 4859000   0.47909577   -7.4606015     921.4316  0.015802833  0.013806769         2277 
 4860000   0.46497085   -7.4893523    921.08933  0.015793713  0.013802182         2321 
 4861000   0.48398502   -7.4839551    920.19982  0.015775215  0.013797591         2340 
 4862000   0.47304279   -7.4629708     919.6995  0.015763395  0.013793006         2294 
 4863000   0.47771837   -7.4924731       920.71  0.015777469  0.013788424         2374 
 4864000   0.46947642   -7.4745429    918.99995  0.015744928  0.013783842         2310 
 4865000   0.47883202   -7.4745053    918.94984  0.015740833  0.013779259         2304 
 4866000   0.47170507   -7.4653664    919.97686  0.015755187  0.013774676         2299 
 4867000   0.47001034   -7.4709321    920.39641  0.015759133  0.013770102         2227 
 4868000   0.47353635   -7.4718388    919.55224  0.015741445  0.013765529         2328 
 4869000   0.47532702   -7.4869619    919.91102  0.015744352  0.013760959         2396 
 4870000   0.45517648   -7.4649883    918.91319  0.015724045  0.013756389         2312 
 4871000    0.4847685   -7.4717602    920.35398  0.015745466   0.01375182         2367 
 4872000   0.47887491   -7.4886128    920.00831  0.015736322  0.013747251         2326 
 4873000   0.47681578    -7.469844    918.03669  0.015699376  0.013742685         2319 
 4874000   0.47759616   -7.4748858    919.88206  0.015727706  0.013738121         2323 
 4875000   0.46810492   -7.4672697    920.22107  0.015730275  0.013733559         2251 
 4876000   0.47189816    -7.475284    919.60492  0.015716518  0.013728998         2243 
 4877000    0.4697306   -7.4627944    918.67056   0.01569733  0.013724444         2283 
 4878000   0.47232128   -7.4770025    917.68496  0.015677275  0.013719885         2343 
 4879000   0.46552608   -7.4932432    920.35563  0.015719677  0.013715331         2366 
 4880000   0.47216135     -7.47761    919.95689  0.015709646  0.013710775         2328 
 4881000   0.47885317   -7.4706471    920.01774  0.015707467  0.013706225         2341 
 4882000   0.46621963   -7.4765721    919.85278  0.015701433  0.013701677         2365 
 4883000   0.47235915   -7.4680619    919.40603  0.015690594   0.01369713         2288 
 4884000   0.47198254   -7.4703102    919.79082  0.015693947  0.013692581         2261 
 4885000   0.47714938   -7.4599415    919.34655  0.015683155  0.013688034         2369 
 4886000   0.47152893   -7.4801814    919.29235  0.015679021  0.013683493         2332 
 4887000   0.47066677   -7.4752967    921.95694  0.015721249   0.01367895         2287 
 4888000   0.47722863   -7.4791507    920.37489  0.015691061  0.013674411         2355 
 4889000   0.46783672   -7.4757562    918.50155  0.015655921  0.013669872         2373 
 4890000   0.46874401   -7.4737113    920.06346  0.015679336  0.013665337         2370 
 4891000   0.46825637   -7.4758364    919.12335  0.015660113  0.013660804         2364 
 4892000   0.46109423   -7.4855104     918.8217  0.015651773   0.01365627         2357 
 4893000   0.45875848   -7.4883326    919.10151   0.01565334  0.013651734         2314 
 4894000   0.46478995   -7.4838689      920.202   0.01566888  0.013647202         2375 
 4895000   0.46847984   -7.4756641    918.41593  0.015635273  0.013642677         2306 
 4896000   0.47690334   -7.4971566    918.35316  0.015631011  0.013638156         2282 
 4897000   0.45832187   -7.4808594    920.09636  0.015657483  0.013633632         2307 
 4898000   0.46752975   -7.4719857    919.42301  0.015642831  0.013629109         2309 
 4899000   0.46948057   -7.5038225    918.38695  0.015622014  0.013624589         2304 
 4900000   0.48129517   -7.4787049    919.14315  0.015631686  0.013620068         2410 
 4901000   0.48020507   -7.4812681    917.81181   0.01560586  0.013615552         2415 
 4902000   0.46522719   -7.4839585    918.39177  0.015612535  0.013611036         2246 
 4903000   0.46427313   -7.4968752    919.63791  0.015630531  0.013606522         2325 
 4904000    0.4696862   -7.4764653    918.53989  0.015608685   0.01360201         2297 
 4905000   0.46727152   -7.4797592    918.05318  0.015597234  0.013597503         2368 
 4906000   0.47115657    -7.487814    918.48297  0.015601355  0.013592994         2395 
 4907000   0.45821453   -7.4923105     920.2348  0.015627926  0.013588487         2318 
 4908000   0.45911367   -7.5062177    917.71008  0.015581874  0.013583981         2355 
 4909000   0.46441412   -7.4654935    919.38576  0.015607146  0.013579478         2403 
 4910000   0.47238152   -7.4673426    917.57509  0.015573236  0.013574972         2368 
 4911000   0.46393449   -7.4949862    918.93093  0.015593072  0.013570472         2406 
 4912000   0.46969661   -7.4894879    918.68059  0.015585651  0.013565972         2376 
 4913000   0.46657824   -7.4911288    918.13895  0.015573291  0.013561472         2435 
 4914000   0.45517584   -7.4877245    918.36577  0.015573968  0.013556975         2454 
 4915000   0.48128205   -7.4918525    917.60633  0.015557924  0.013552479         2394 
 4916000   0.45407227   -7.4788173     918.8281   0.01557547  0.013547986         2373 
 4917000   0.46639273   -7.4895703    917.26959  0.015545888  0.013543494         2472 
 4918000    0.4686391   -7.4898134    918.95671  0.015571315     0.013539         2474 
 4919000   0.47257948   -7.4935421     918.7038  0.015563865  0.013534513         2575 
 4920000   0.46238565   -7.4874274    918.11139  0.015550667  0.013530022         2428 
 4921000    0.4567176   -7.4942485    918.33283  0.015551257  0.013525542         2437 
 4922000   0.46710383   -7.4759377    918.44816   0.01555005  0.013521057         2404 
 4923000   0.46871611    -7.501672    917.97535  0.015538888  0.013516577         2453 
 4924000   0.45590423   -7.4958898    917.74009  0.015531751  0.013512097         2479 
 4925000   0.46267824   -7.4821508    919.00432  0.015549988  0.013507619         2392 
 4926000   0.45882352   -7.4875861    918.63365  0.015540561  0.013503148         2338 
 4927000    0.4553202   -7.4984947    918.76933  0.015539702  0.013498673         2412 
 4928000    0.4629755   -7.5054727     917.5423  0.015515799    0.0134942         2463 
 4929000   0.46305252   -7.4875789    919.22206  0.015541051  0.013489728         2461 
 4930000   0.46278087   -7.4911723    919.34866  0.015540038  0.013485259         2444 
 4931000   0.46291258   -7.5031843    920.07332  0.015549133    0.0134808         2485 
 4932000   0.45097039   -7.4913001    918.47146  0.015518915   0.01347634         2427 
 4933000   0.46177115   -7.4985359    918.65169  0.015518814  0.013471876         2448 
 4934000   0.45954799   -7.4838492    918.84539   0.01551894  0.013467414         2349 
 4935000   0.45386379   -7.4829259    918.77901  0.015514674  0.013462958         2429 
 4936000   0.45850407   -7.4805242    919.05045  0.015516114  0.013458502         2352 
 4937000   0.46653866   -7.4865662    919.52578  0.015520994  0.013454051         2457 
 4938000   0.46712865   -7.5019632    919.11079  0.015510848  0.013449597         2407 
 4939000   0.47864795   -7.4851761    919.82258  0.015519717  0.013445146         2493 
 4940000   0.45607733   -7.4997466    918.36901  0.015492055  0.013440699         2412 
 4941000   0.47068138    -7.497767    919.66117  0.015510713  0.013436254         2400 
 4942000   0.45467149   -7.4993432    918.62675  0.015490131  0.013431808         2467 
 4943000   0.45835098   -7.4953994     918.5895   0.01548637  0.013427367         2400 
 4944000   0.45341961   -7.5002327    917.56568   0.01546598  0.013422924         2455 
 4945000   0.45678173   -7.4923068    918.45058  0.015477765  0.013418485         2418 
 4946000   0.46266741   -7.4914559     917.0254  0.015450623  0.013414042         2392 
 4947000   0.46205758    -7.492964    920.06485    0.0154987  0.013409604         2403 
 4948000   0.44758432   -7.5099504     917.3763  0.015450288  0.013405168         2407 
 4949000   0.45497998   -7.5025234    917.74287  0.015453338  0.013400734         2403 
 4950000   0.48453118   -7.4998171    919.74778  0.015483969  0.013396305         2456 
 4951000   0.45942108   -7.5034229    916.96778   0.01543405  0.013391875         2496 
 4952000   0.45309451   -7.4947423    919.87407  0.015479841  0.013387447         2368 
 4953000   0.45479125   -7.5145491    918.62087  0.015455631   0.01338302         2486 
 4954000     0.451122   -7.4854964    918.09197  0.015443614  0.013378595         2375 
 4955000   0.46427958   -7.4804048    916.94483  0.015421205  0.013374168         2469 
 4956000   0.45801402   -7.4988066    917.57875  0.015428752  0.013369744         2420 
 4957000   0.45564448   -7.5172075    917.65628  0.015426943  0.013365325         2443 
 4958000   0.45495352   -7.4978137    917.65197  0.015423759   0.01336091         2438 
 4959000    0.4683703   -7.4987201    919.12738  0.015445442  0.013356497         2414 
 4960000   0.45448979   -7.5122201    918.36847  0.015429578  0.013352083         2410 
 4961000   0.44839688   -7.5021847    918.87894  0.015435042  0.013347671         2416 
 4962000   0.46224503   -7.5059544    917.65977  0.015411457  0.013343263         2467 
 4963000   0.45370181   -7.4960597    919.76222  0.015443653  0.013338856         2389 
 4964000   0.45873511   -7.5029961    918.68296  0.015422424  0.013334447         2413 
 4965000   0.44889733   -7.5006083    919.81071  0.015438246  0.013330041         2435 
 4966000    0.4580467   -7.4925321    917.43363  0.015395248   0.01332564         2358 
 4967000   0.45391803   -7.5124388    917.99029  0.015401488  0.013321234         2457 
 4968000   0.45912036   -7.5001266    918.84231   0.01541268  0.013316829         2400 
 4969000   0.45172341   -7.5136588    917.53903  0.015387721   0.01331243         2399 
 4970000   0.45296178   -7.5106545    916.63192  0.015369415  0.013308033         2409 
 4971000   0.46505553   -7.5055363    919.31797  0.015411352  0.013303637         2366 
 4972000   0.46072294   -7.5012606    917.37236  0.015375643  0.013299241         2458 
 4973000   0.46319157   -7.5262054    917.07212   0.01536752  0.013294848         2477 
 4974000   0.44717405   -7.4949452    917.25982  0.015367575  0.013290458         2391 
 4975000   0.45800474   -7.5190032     916.7387  0.015355757   0.01328607         2446 
 4976000   0.45902367   -7.5052277    918.01111   0.01537398  0.013281684         2454 
 4977000   0.44536895   -7.4952874    916.68771  0.015348733  0.013277296         2384 
 4978000   0.45390789   -7.5086684    917.01112  0.015351063  0.013272911         2366 
 4979000   0.46500573   -7.4880042    918.01783  0.015364829  0.013268533         2438 
 4980000   0.45326151   -7.5029775    917.03836  0.015345354  0.013264158         2405 
 4981000    0.4503103   -7.5098391    918.23553  0.015362302  0.013259777         2431 
 4982000   0.45708825   -7.5128458    918.60263  0.015365359  0.013255402         2491 
 4983000   0.46481064   -7.5199405    915.55252  0.015311267   0.01325103         2391 
 4984000   0.45819928   -7.5050246     917.4372  0.015339707  0.013246656         2432 
 4985000   0.45772138   -7.5062281    917.61329  0.015339574  0.013242286         2434 
 4986000   0.43990289   -7.4976644    918.04996  0.015343795  0.013237914         2432 
 4987000   0.45733523   -7.5110839    918.15632  0.015342496  0.013233549         2425 
 4988000   0.45167891   -7.5063233    917.65236     0.015331  0.013229182         2498 
 4989000   0.45449441   -7.5160971    918.57495  0.015343338  0.013224822         2472 
 4990000   0.45599036   -7.5091815    918.87833  0.015345329  0.013220459         2507 
 4991000   0.46047989   -7.5098175    917.75058  0.015323425    0.0132161         2451 
 4992000   0.45758159   -7.5156593    917.30625  0.015312938  0.013211743         2386 
 4993000   0.44602325   -7.5179007    916.28574  0.015292839  0.013207385         2415 
 4994000   0.44908739   -7.5135092    917.25964  0.015306028   0.01320303         2392 
 4995000   0.44891321   -7.4940799    917.00864  0.015298776  0.013198679         2393 
 4996000   0.44126566   -7.4994401    917.88442  0.015310322  0.013194329         2416 
 4997000   0.45662362   -7.5116201    917.30883  0.015297659  0.013189983         2454 
 4998000    0.4509923   -7.5062691    915.97588  0.015272374  0.013185634         2527 
 4999000   0.44447722   -7.5032675    918.83006  0.015316898   0.01318129         2513 
 5000000   0.45650161   -7.4922363    917.74041  0.015295674  0.013176947         2500 
 5001000   0.45250811   -7.5242742    916.41471  0.015270524  0.013172606         2534 
 5002000   0.45553279   -7.5151399    918.02038  0.015294222  0.013168264         2549 
 5003000   0.45053458   -7.5011062    918.44909  0.015298306  0.013163929         2454 
 5004000   0.46710216   -7.5250031    916.90712   0.01526957  0.013159592         2486 
 5005000   0.45651676   -7.5011295    918.38393  0.015291108  0.013155258         2509 
 5006000   0.45152715   -7.5078886     918.1931  0.015284876  0.013150927         2512 
 5007000   0.44909217   -7.5065167    918.00556  0.015278703  0.013146596         2471 
 5008000     0.450063   -7.5159572    917.11793  0.015260881  0.013142262         2465 
 5009000   0.44648656   -7.5270727    917.62554   0.01526628  0.013137933         2465 
 5010000   0.44217575   -7.5013889    917.82454  0.015266543  0.013133608         2466 
 5011000   0.46144086   -7.5083726    917.56124  0.015259117  0.013129284         2397 
 5012000   0.44904627   -7.5181534    918.11221  0.015265234   0.01312496         2536 
Loop time of 13121.3 on 48 procs for 5000000 steps with 4000 atoms

Performance: 65847.181 tau/day, 381.060 timesteps/s
99.4% CPU use with 48 MPI tasks x no OpenMP threads

MPI task timing breakdown:
Section |  min time  |  avg time  |  max time  |%varavg| %total
---------------------------------------------------------------
Pair    | 990.46     | 1060.2     | 1129       | 111.4 |  8.08
Neigh   | 91.511     | 94.334     | 97.933     |  14.0 |  0.72
Comm    | 838.64     | 913.74     | 1002.5     | 130.2 |  6.96
Output  | 16.403     | 16.408     | 16.517     |   0.4 |  0.13
Modify  | 10873      | 10912      | 10963      |  22.1 | 83.16
Other   |            | 124.8      |            |       |  0.95

Nlocal:        83.3333 ave          89 max          78 min
Histogram: 5 6 2 7 7 4 5 4 2 6
Nghost:        2422.48 ave        2445 max        2399 min
Histogram: 3 5 2 3 2 14 8 9 0 2
Neighs:        16828.0 ave       19755 max       14443 min
Histogram: 2 5 10 4 9 6 2 4 4 2
FullNghs:      33655.5 ave       36357 max       31219 min
Histogram: 3 6 4 8 5 4 11 0 4 3

Total # of neighbors = 1615465
Ave neighs/atom = 403.86625
Neighbor list builds = 267414
Dangerous builds = 0

#clear
#
#next RN
#
#jump SELF
Total wall time: 3:38:46
