
units lj                  # Use reduced LJ style units
atom_style atomic         # Uncharged point particles
atom_modify map hash      # Needed for indexing of clusters etc
                          # Used to be able to find where atoms are in relation to each other.

lattice fcc 1.0 spacing 1 1 1
Lattice spacing in x,y,z = 1.5874011 1.5874011 1.5874011
region box block 0 10 0 10 0 10 units lattice
create_box 2 box
Created orthogonal box = (0.0000000 0.0000000 0.0000000) to (15.874011 15.874011 15.874011)
  3 by 4 by 4 MPI processor grid
create_atoms 1 box
Created 4000 atoms
  using lattice units in orthogonal box = (0.0000000 0.0000000 0.0000000) to (15.874011 15.874011 15.874011)
  create_atoms CPU = 0.003 seconds
set type 1 type/fraction 2 0.1 78393
Setting atom values ...
  435 settings made for type/fraction
mass 1 1.0
mass 2 1.0
pair_style lj/cut  3.5
pair_modify tail  yes
pair_coeff 1  1  1.0  1.0   # Intearaction between 1 and 1 set with epsilon = 1 and sigma = 1
pair_coeff 1  2  1.5  0.8
pair_coeff 2  2  0.5  0.88

write_data data.0
System init for write_data ...
Neighbor list info ...
  update every 1 steps, delay 10 steps, check yes
  max neighbors/atom: 2000, page size: 100000
  master list distance cutoff = 3.8
  ghost atom cutoff = 3.8
  binsize = 1.9, bins = 9 9 9
  1 neighbor lists, perpetual/occasional/extra = 1 0 0
  (1) pair lj/cut, perpetual
      attributes: half, newton on
      pair build: half/bin/atomonly/newton
      stencil: half/bin/3d
      bin: standard
WARNING: Not all mixed pair coeffs generated from mixing. Use write_data with 'pair ij' option to store all pair coeffs. (../write_data.cpp:312)


#############################
#   M E L T   S Y S T E M   #
#############################

velocity all create 2.4 6229865 mom yes dist gaussian # Assign velocities
                                                    # Temperature 2.4, random number seed, zero linear momentum
                                                                                # Gaussian distribution

timestep 0.002   # simulation timestep
thermo 1000       # output thermodynamic data every 1000 steps bf 100

# Define a fix  in this case with index 1 applied to all
# particles in the simulation. This fix is for simulations
# in the anisotropic NPT ensemble. Note that we use the MTK
# correction.
fix 1 all npt temp 2.4 2.4 0.1 iso 5.68 5.68 0.5 mtk yes tchain 5 pchain 5 # Use NPT ensemble
                                                                         # Set temperature and pressure and damping
                                                                         # Numbers of thermostats in chain and in barostat
run 10000          # run for 10000 steps
Per MPI rank memory allocation (min/avg/max) = 3.642 | 3.644 | 3.648 Mbytes
Step Temp E_pair E_mol TotEng Press Volume 
       0          2.4   -7.6732445            0   -4.0741445   -3.0506691         4000 
    1000    2.3992059   -4.5960343            0  -0.99812508    5.7064316    4842.7289 
    2000    2.3941299     -4.70911            0    -1.118813    5.4444694     4805.334 
    3000    2.3970463   -4.6420233            0   -1.0473527    5.6164922    4820.1816 
    4000    2.3776092   -4.5535813            0  -0.98805918    5.6564952    4863.4055 
    5000    2.4159791   -4.6174554            0  -0.99439273    5.5605397    4848.3571 
    6000    2.3823493   -4.6491653            0   -1.0765348    5.8018098    4795.5436 
    7000    2.4256729   -4.6704443            0   -1.0328446    5.4297148    4830.1574 
    8000    2.4044569   -4.6445606            0   -1.0387768    5.6030412    4818.0356 
    9000    2.4541752   -4.5984402            0  -0.91809769    5.9229596    4814.0468 
   10000    2.3816504   -4.6705808            0   -1.0989983    5.5386672    4816.2407 
Loop time of 2.21998 on 48 procs for 10000 steps with 4000 atoms

Performance: 778383.778 tau/day, 4504.536 timesteps/s
99.6% CPU use with 48 MPI tasks x no OpenMP threads

MPI task timing breakdown:
Section |  min time  |  avg time  |  max time  |%varavg| %total
---------------------------------------------------------------
Pair    | 0.92076    | 0.97957    | 1.1049     |   3.4 | 44.13
Neigh   | 0.1934     | 0.20029    | 0.22456    |   1.2 |  9.02
Comm    | 0.61851    | 0.77121    | 0.83555    |   4.6 | 34.74
Output  | 0.00025329 | 0.00025752 | 0.00032227 |   0.0 |  0.01
Modify  | 0.21754    | 0.25384    | 0.29106    |   3.7 | 11.43
Other   |            | 0.01481    |            |       |  0.67

Nlocal:        83.3333 ave          93 max          73 min
Histogram: 1 0 5 9 9 3 6 7 7 1
Nghost:        1455.48 ave        1476 max        1438 min
Histogram: 1 4 10 7 8 5 3 6 1 3
Neighs:        7903.92 ave        9137 max        6616 min
Histogram: 1 2 6 7 7 6 8 6 4 1

Total # of neighbors = 379388
Ave neighs/atom = 94.847000
Neighbor list builds = 905
Dangerous builds = 209

# Equilibrate just above the melting temperature to avoid step fn in T

fix 1 all npt temp 1.25 1.25 0.1 iso 5.68 5.68 0.5 mtk yes tchain 5 pchain 5
run 2000
Per MPI rank memory allocation (min/avg/max) = 3.642 | 3.644 | 3.648 Mbytes
Step Temp E_pair E_mol TotEng Press Volume 
   10000    2.3816504   -4.6705808            0   -1.0989983    5.5386672    4816.2407 
   11000    1.2544371   -6.1892203            0    -4.308035    5.6519293    3990.9367 
   12000    1.2402469   -6.2396075            0   -4.3797023    5.7378697    3957.2614 
Loop time of 0.484223 on 48 procs for 2000 steps with 4000 atoms

Performance: 713720.950 tau/day, 4130.330 timesteps/s
99.6% CPU use with 48 MPI tasks x no OpenMP threads

MPI task timing breakdown:
Section |  min time  |  avg time  |  max time  |%varavg| %total
---------------------------------------------------------------
Pair    | 0.21898    | 0.23105    | 0.25674    |   1.7 | 47.72
Neigh   | 0.032212   | 0.034006   | 0.036587   |   0.5 |  7.02
Comm    | 0.13874    | 0.16443    | 0.18092    |   2.3 | 33.96
Output  | 5.1991e-05 | 5.3556e-05 | 6.7905e-05 |   0.0 |  0.01
Modify  | 0.041096   | 0.050108   | 0.057624   |   2.1 | 10.35
Other   |            | 0.004573   |            |       |  0.94

Nlocal:        83.3333 ave          92 max          75 min
Histogram: 4 3 5 5 2 15 2 8 3 1
Nghost:        1660.04 ave        1681 max        1636 min
Histogram: 2 1 3 6 9 5 12 7 0 3
Neighs:        9642.69 ave       10650 max        8349 min
Histogram: 3 0 2 10 1 7 13 4 5 3

Total # of neighbors = 462849
Ave neighs/atom = 115.71225
Neighbor list builds = 143
Dangerous builds = 7

#############################
# L I N E A R  Q U E N C H  #
#############################

# Define solid atoms. This closely follows ten Wolde  Ruiz-Montero and Frenkel  Faraday Discuss  1996  104  93-110
# Compute components of the per-atom q6 vector
compute q6 all orientorder/atom degrees 1 6 components 6 nnn NULL cutoff 1.3 # compute the Q6 parameter.
                                                                             # Use all neighbours within 1.3 unit cell.

# get number of connections
compute coord_number all coord/atom orientorder q6 0.5

# An atom is solid if it has 8 or more connections (of a possible 14)
variable is_solid atom c_coord_number>=8
group solid dynamic all var is_solid    # Must be dynamic to update
dynamic group solid defined

# do clustering
compute cluster solid cluster/atom 1.3 # Create a cluster where all atoms within are solid and max 1.3 units from another member

# define chunks one chunk per cluster
compute clus_chunks solid chunk/atom c_cluster nchunk every compress yes  # Says which atoms are in which chunk

# count the size of each chunk
compute size_chunks solid property/chunk clus_chunks count


# Find the maximum entry in the vector of chunk sizes
variable max_n equal max(c_size_chunks)


# Thermo style which includes this variable
# thermo_style custom step temp pe vol v_max_n

thermo ${N}  # Print the thermo information every 100 steps
thermo 1000  

# Reset the npt fix at a lower temperature (below freezing)
fix 1  all npt temp  ${temp} ${temp}  0.1  iso  5.68  5.68  0.5  mtk yes tchain  5  pchain  5
fix 1  all npt temp  0.45 ${temp}  0.1  iso  5.68  5.68  0.5  mtk yes tchain  5  pchain  5
fix 1  all npt temp  0.45 0.45  0.1  iso  5.68  5.68  0.5  mtk yes tchain  5  pchain  5

dump dmp2 all dcd ${N} traj.dcd
dump dmp2 all dcd 1000 traj.dcd


compute msd all msd com yes
variable twopoint equal c_msd[4]/6/(step*dt+1.0e-6)
fix 9 all vector 10 c_msd[4]
variable fit equal slope(f_9)/6/(10*dt)
thermo_style custom step temp pe c_msd[4] v_twopoint v_fit v_max_n

fix 1 all npt temp 1.25 ${temp} 0.1 iso 5.68 5.68 0.5 mtk yes tchain 5 pchain 5
fix 1 all npt temp 1.25 0.45 0.1 iso 5.68 5.68 0.5 mtk yes tchain 5 pchain 5
run 2000000 # 5000000  # Run for this many steps
Neighbor list info ...
  update every 1 steps, delay 10 steps, check yes
  max neighbors/atom: 2000, page size: 100000
  master list distance cutoff = 3.8
  ghost atom cutoff = 3.8
  binsize = 1.9, bins = 9 9 9
  4 neighbor lists, perpetual/occasional/extra = 1 3 0
  (1) pair lj/cut, perpetual
      attributes: half, newton on
      pair build: half/bin/atomonly/newton
      stencil: half/bin/3d
      bin: standard
  (2) compute orientorder/atom, occasional
      attributes: full, newton on
      pair build: full/bin/atomonly
      stencil: full/bin/3d
      bin: standard
  (3) compute coord/atom, occasional
      attributes: full, newton on
      pair build: full/bin/atomonly
      stencil: full/bin/3d
      bin: standard
  (4) compute cluster/atom, occasional
      attributes: full, newton on
      pair build: full/bin/atomonly
      stencil: full/bin/3d
      bin: standard
Per MPI rank memory allocation (min/avg/max) = 9.752 | 9.757 | 9.761 Mbytes
Step Temp PotEng c_msd[4] v_twopoint v_fit v_max_n 
   12000    1.2402469   -6.2396075 1.4730005e-30 1.022917e-32 8.3333333e+20            5 
   13000    1.2630043   -6.2639654   0.55684963 0.0035695488  0.045974619            2 
   14000    1.2485814   -6.2049697    1.0980904 0.0065362522  0.045183687            2 
   15000    1.2336554    -6.230486    1.6141981 0.0089677667  0.044287417            1 
   16000    1.2703747   -6.1706702    2.2116614  0.011519069  0.045109347            2 
   17000    1.2406908   -6.2488368    2.8043349  0.013746739  0.046086213            3 
   18000    1.2428437   -6.1748778    3.3937441  0.015711778  0.046766831            2 
   19000    1.2530932   -6.2259038    3.9666885  0.017397756  0.047142929            6 
   20000    1.2522081   -6.1982974    4.4709739  0.018629058  0.047267276            1 
   21000    1.2497033   -6.2161084    4.9891417  0.019798181  0.047097721            3 
   22000    1.2514823   -6.1896844    5.5391977  0.020981809  0.046773029            2 
   23000    1.2523906   -6.2300121    6.1439864   0.02226082  0.046699234            2 
   24000    1.2494326    -6.187047    6.6654123  0.023143792  0.046669328            2 
   25000    1.2655021   -6.2387411    7.1692765  0.023897588  0.046497556            2 
   26000    1.2573259   -6.2129212    7.6902345  0.024648187  0.046373208            2 
   27000    1.2568205   -6.2426811     8.268489  0.025520027  0.046292128            4 
   28000    1.2383827   -6.2022181    8.7032441  0.025902512  0.046042074            1 
   29000    1.2373485   -6.2580445    9.2614956  0.026613493   0.04580672            4 
   30000    1.2312065   -6.2365664    9.7657034  0.027126953  0.045604819            5 
   31000    1.2263177   -6.2350501    10.292523  0.027668073  0.045379357            3 
   32000    1.2266149    -6.182714    10.951668  0.028519969  0.045330646            2 
   33000     1.210383   -6.2224452    11.508673  0.029062306  0.045318112            5 
   34000    1.2236065   -6.2029034    12.155146  0.029792025  0.045416064            3 
   35000    1.2088659   -6.2218709    12.813814   0.03050908  0.045554302            3 
   36000    1.2470342   -6.2426549    13.411724  0.031045658   0.04570471            1 
   37000    1.2516121   -6.2339752    13.919497  0.031350219  0.045842688            7 
   38000    1.2492517   -6.2149149    14.467392  0.031726737   0.04594929            4 
   39000     1.241042   -6.2475606    15.056377  0.032171745  0.046024798            2 
   40000    1.2220404   -6.2567013    15.698655   0.03270553  0.046157688            3 
   41000    1.2217453   -6.2021206    16.242299  0.033012802   0.04627984            3 
   42000    1.2087205   -6.2618852    16.746274  0.033226733  0.046375032            2 
   43000    1.2200069   -6.2684895    17.253683  0.033437371  0.046422029            7 
   44000    1.2270014   -6.2554164    18.030742  0.034149133  0.046499331            3 
   45000    1.2453211   -6.1885022    18.522012  0.034300021  0.046593591            2 
   46000     1.210194   -6.2567978    19.066838  0.034541373  0.046645345            3 
   47000    1.2581544   -6.1941499    19.421685  0.034435612  0.046625923            4 
   48000    1.2267583   -6.2313416    19.972013  0.034673633  0.046591816            3 
   49000     1.239066   -6.2832975    20.331675  0.034577679  0.046543471            3 
   50000    1.2508229   -6.2567002    21.165421  0.035275702  0.046526247            2 
   51000    1.2171127   -6.2333935    21.744408  0.035530077  0.046522417            3 
   52000    1.2236059   -6.2471594    22.196026  0.035570553  0.046513951            2 
   53000    1.2353463    -6.222974    22.620465  0.035566769  0.046471697            3 
   54000    1.2296144   -6.2566657    23.075144   0.03560979  0.046414822            2 
   55000    1.2286901   -6.2475785     23.55776  0.035693575  0.046335037            4 
   56000    1.2358919   -6.2524653    23.961328  0.035656738  0.046228123            5 
   57000    1.2476959   -6.2659345    24.533436  0.035867596  0.046115144            3 
   58000    1.2587456   -6.2906998    24.877341  0.035743305  0.046016849            5 
   59000    1.2287253   -6.2326121    25.502714  0.036020783  0.045911444            3 
   60000    1.2506391   -6.2440902    25.964688  0.036062067  0.045815612            2 
   61000     1.252093   -6.2349829    26.298292  0.035926628  0.045692643            4 
   62000    1.2418639    -6.253119    26.855406  0.036095976  0.045561996            2 
   63000    1.2176044   -6.2496656    27.247558  0.036041743  0.045430002            4 
   64000    1.2428176   -6.2688686     27.70939  0.036079934  0.045313038            2 
   65000    1.2331084   -6.2479198    28.272213  0.036246427   0.04518522            1 
   66000    1.2360807   -6.2643067    28.862315  0.036442316  0.045084587            3 
   67000      1.24289    -6.222514    29.669898  0.036902858  0.045015114            1 
   68000    1.2128357   -6.2557713    30.050483  0.036826572  0.044962873            2 
   69000    1.2094257   -6.2556943    30.583815  0.036936974  0.044912261            3 
   70000    1.2291422   -6.2582709    31.260589  0.037214987  0.044860055            3 
   71000    1.2008005   -6.2702557    31.760098   0.03727711  0.044817976            3 
   72000    1.2001928   -6.2602935    32.050921  0.037095974  0.044773397            4 
   73000    1.2108355   -6.2223449    32.654981  0.037277376  0.044722709            3 
   74000    1.2388322   -6.2785799    32.958417  0.037115334  0.044660094            5 
   75000     1.238514   -6.2701194    33.264562  0.036960624  0.044581498            3 
   76000    1.2123364   -6.2483554    33.903844  0.037175268  0.044497526            3 
   77000    1.2242048   -6.2671205    34.330259  0.037153959  0.044420099            2 
   78000    1.2278982   -6.2619834    34.785926  0.037164451  0.044338052            3 
   79000    1.2331692   -6.2544948    35.273399  0.037208226  0.044252488            3 
   80000    1.2219659   -6.2715616    35.925094  0.037421973  0.044180884            2 
   81000     1.225928   -6.2972749    36.557828  0.037610934  0.044125508            5 
   82000     1.209325   -6.2402733    36.960035  0.037561011  0.044068247            4 
   83000     1.231712   -6.2868599    37.354735  0.037504754  0.044002812            2 
   84000    1.2138867   -6.2832596    37.914247   0.03761334  0.043950601            1 
   85000    1.2366226   -6.2506863    38.456816  0.037702761  0.043902099            1 
   86000    1.2015954   -6.2543526    39.011523  0.037801863  0.043853528            1 
   87000    1.2268086   -6.2992478     39.36134  0.037702433  0.043795195            3 
   88000    1.1970891   -6.2704325    39.845456  0.037732439  0.043746334            2 
   89000     1.199061     -6.26796    40.398588  0.037826393  0.043697959            2 
   90000    1.2042459   -6.2968798    40.825269  0.037801175  0.043647488            5 
   91000    1.2276912   -6.2724292      41.3122  0.037831685  0.043589646            2 
   92000    1.2285499   -6.2557897    41.727694  0.037796824  0.043536121            1 
   93000    1.1911315   -6.2533523    42.339889  0.037938969  0.043492251            4 
   94000    1.2337139   -6.2770127    42.703051  0.037857315  0.043449159            2 
   95000    1.2368709   -6.2865086     42.97856  0.037700491  0.043394536            3 
   96000    1.1954058   -6.2946476    43.602746  0.037849605  0.043339081            2 
   97000    1.2452523   -6.2547733    43.968135  0.037773312  0.043282983            6 
   98000    1.2009912   -6.2777414    44.450303  0.037797877  0.043225305            3 
   99000    1.2130315   -6.2754858     45.12556  0.037984478  0.043163541            7 
  100000    1.2415535   -6.3438635    45.156971  0.037630809  0.043100318            3 
  101000    1.2047899    -6.254211    45.870247  0.037846738  0.043037728            5 
  102000    1.1918844   -6.2709377    46.298431  0.037825516   0.04298652            2 
  103000    1.2281532    -6.280304    46.857941  0.037910956  0.042930574            4 
  104000     1.207584   -6.2772562    47.182771  0.037806707  0.042874513            6 
  105000    1.2308412      -6.2861    47.665639  0.037829872  0.042826542            2 
  106000    1.2312229   -6.2721929    48.361934  0.038020388  0.042776817            3 
  107000    1.2137222    -6.260974    49.004143  0.038165221  0.042730766            3 
  108000    1.2264283   -6.2530214    49.509957  0.038202127   0.04269447            2 
  109000    1.1800593   -6.2776475    49.880848  0.038135205  0.042661665            3 
  110000    1.2156474     -6.31144    50.632358  0.038357847  0.042630868            3 
  111000    1.2206645   -6.2853629    51.101794   0.03836471  0.042608387            3 
  112000    1.2127569    -6.292162    51.625661   0.03841195  0.042586319            2 
  113000    1.1905115   -6.3287799    51.800466  0.038200933  0.042559613            2 
  114000    1.2103474   -6.3120443    52.740897  0.038553287  0.042537615            3 
  115000    1.1885038   -6.2806523    53.180613  0.038536676  0.042517809            4 
  116000     1.203995   -6.3335341     53.75648  0.038618161  0.042498749            4 
  117000     1.206031   -6.2569147    54.315426  0.038686201  0.042481464            2 
  118000    1.2027635   -6.3049044    54.713193   0.03863926  0.042470378            2 
  119000    1.1968047   -6.2751674    55.025414  0.038533203  0.042454015            2 
  120000    1.2045694   -6.3328141    55.067776  0.038241511  0.042427023            3 
  121000    1.2147196   -6.3121457     56.06521  0.038612403  0.042400398            2 
  122000    1.2069214   -6.3305058    56.403463  0.038526955   0.04238327            4 
  123000    1.2202667   -6.3166165    57.214963  0.038763525  0.042370724            2 
  124000    1.2217849   -6.3271921    57.723275  0.038792524  0.042360336            3 
  125000    1.2251141   -6.2751797    58.217415   0.03881161  0.042351179            2 
  126000     1.204457    -6.303762    58.771071  0.038869756  0.042343253            1 
  127000    1.2075217   -6.3140159    59.248259   0.03887681  0.042335526            3 
  128000    1.1704518   -6.3088134    59.548865  0.038768792   0.04232409            4 
  129000    1.2015615   -6.2634894    60.078417  0.038810346  0.042309986            3 
  130000     1.197285   -6.3175968    60.571367  0.038827799  0.042295839            2 
  131000    1.2098212   -6.3242264    61.048521  0.038834937  0.042277501            2 
  132000    1.1788755   -6.2838224     61.54958  0.038857058  0.042263274            3 
  133000    1.2069878   -6.3112675    61.874847  0.038768701  0.042244682            3 
  134000    1.1950375   -6.3208766     62.66512  0.038970845  0.042232002            3 
  135000    1.1841289   -6.3104303    62.821479   0.03877869  0.042219327            4 
  136000    1.2235694    -6.313876    63.473915   0.03889333  0.042199818            5 
  137000    1.1964371   -6.3190705    63.900501  0.038868918  0.042183862            3 
  138000    1.1959044   -6.2994562    64.178441  0.038755097  0.042169053            2 
  139000    1.1825782   -6.3095377    64.821684  0.038861921  0.042152441            2 
  140000    1.1935009   -6.3044508    65.696308  0.039104945   0.04213771            3 
  141000     1.211885   -6.3200015    65.998332  0.039006106  0.042124528            4 
  142000    1.1991157   -6.3153473    66.358862  0.038942994  0.042112725            4 
  143000    1.2165194   -6.3128225    66.902746  0.038987614  0.042099593            2 
  144000    1.2148385   -6.3226811    67.598964  0.039119771  0.042089406            3 
  145000     1.187415   -6.3084973    67.904617  0.039025642  0.042080003            1 
  146000    1.2338032   -6.2723284    68.141748  0.038893692  0.042063279            3 
  147000    1.2203899   -6.3153886    68.839274  0.039024532  0.042046616            3 
  148000    1.2014228   -6.3369251     69.22195  0.038976323  0.042031225            2 
  149000    1.1865842   -6.3164672    69.816988  0.039047533  0.042021464            4 
  150000    1.1965904   -6.3221539    70.348308  0.039082393  0.042009002            1 
  151000    1.1761586   -6.3090934    70.777418  0.039060385  0.041995644            6 
  152000    1.1960843   -6.3516895    71.042979  0.038949001   0.04197953            2 
  153000    1.1854311   -6.3412483    71.877947  0.039149209  0.041967059            2 
  154000     1.191114   -6.3456779    72.152328  0.039043468  0.041952836            3 
  155000    1.1836168   -6.3124724    72.798498  0.039138977  0.041941056            1 
  156000     1.163155    -6.293855    73.495117  0.039260212  0.041929327            4 
  157000    1.1717452   -6.3235098    73.256138    0.0388833  0.041912176            2 
  158000    1.1901417   -6.3374848    73.636198  0.038837657  0.041887071            1 
  159000     1.179304   -6.3341868    74.281265  0.038931481  0.041860736            3 
  160000    1.1929398   -6.3325305    74.100902   0.03859422  0.041830653            3 
  161000    1.2004348   -6.2810257     75.02768  0.038834203  0.041800506            2 
  162000    1.2073197   -6.3466191    75.260169  0.038714079  0.041772537            1 
  163000    1.2106098   -6.3683056    75.523214   0.03861105  0.041742325            6 
  164000    1.1870134   -6.3257906    75.847448   0.03854037  0.041711844            2 
  165000    1.2009843   -6.3377295    76.405331  0.038588551  0.041678917            2 
  166000    1.1761262   -6.3141793    77.051646  0.038680545  0.041648742            2 
  167000     1.204898   -6.3451852    77.617641  0.038731357  0.041619681            2 
  168000    1.2001197   -6.3017281    77.986226  0.038683644  0.041590315            3 
  169000    1.1717939    -6.342458    78.356725  0.038637438  0.041562471            2 
  170000    1.1846356   -6.2970021      79.0592  0.038754509  0.041532279            4 
  171000    1.1886502    -6.348203    79.243269  0.038617577  0.041503373            2 
  172000    1.1852917   -6.3317351     79.79388  0.038659826  0.041477048            3 
  173000    1.1825782   -6.3271502    80.546085  0.038798692  0.041453918            3 
  174000    1.1844683   -6.3102624    81.041268  0.038812868  0.041430759            3 
  175000    1.1876495   -6.3143522    81.393648   0.03875888  0.041409044            2 
  176000    1.1981333    -6.326857    82.036966   0.03884326  0.041388035            2 
  177000    1.1829279   -6.3372774    82.456569   0.03882136  0.041366416            2 
  178000    1.1754054   -6.3011274    83.425796   0.03905702   0.04135034            2 
  179000    1.1977963   -6.2884676    83.725978  0.038978574  0.041333275            2 
  180000    1.1869818   -6.3708784    84.035227  0.038905198  0.041317166            9 
  181000     1.179472   -6.3313653    84.579295  0.038940744  0.041299469            4 
  182000    1.1911736    -6.322647    85.046575  0.038940739  0.041284871            1 
  183000    1.1588893   -6.3355442    85.594848  0.038977617  0.041271529            1 
  184000    1.1622483   -6.3649106    85.796739  0.038857219  0.041255664            2 
  185000    1.1669592   -6.3543352    86.344816  0.038894061  0.041240069            3 
  186000    1.1894914    -6.361736    87.103865  0.039025029  0.041226459            2 
  187000    1.2107577   -6.3400912    87.631025  0.039051259  0.041213891            3 
  188000     1.181414   -6.3520524    87.704279   0.03887601  0.041202223            3 
  189000    1.1851063   -6.3573928    88.321624  0.038942515  0.041188392            2 
  190000    1.1737461   -6.3571126    88.730247  0.038916775  0.041172663            2 
  191000    1.1913611   -6.3332287    89.594142   0.03908994  0.041159482            4 
  192000    1.1697873   -6.3507877    89.793029  0.038972669  0.041143298            5 
  193000    1.1871772   -6.3595455     89.89782  0.038815985  0.041125458            3 
  194000    1.1627728   -6.3533978     90.15539  0.038726542  0.041105788            3 
  195000    1.2195725   -6.3382846    90.704186  0.038762473  0.041085249            2 
  196000    1.1855602   -6.3636342     91.39029  0.038856416  0.041067109            5 
  197000    1.1870561   -6.3649331    91.691773  0.038786706  0.041050159            2 
  198000    1.1765851   -6.3814843    92.043479  0.038738838  0.041029812            4 
  199000    1.1847724   -6.3423788    92.497074  0.038734118  0.041007279            1 
  200000    1.1596973   -6.3617096    92.447234  0.038519681  0.040981955            2 
  201000    1.1657746   -6.3363905    92.972246  0.038545707  0.040953934            3 
  202000    1.1944203   -6.3412767     92.89561  0.038323271  0.040926833            2 
  203000    1.1695522   -6.3571307    93.819465  0.038513737  0.040898345            5 
  204000    1.1611705   -6.3474136    94.424503  0.038572101  0.040873022            2 
  205000    1.1851105   -6.3344703    94.970343   0.03860583  0.040849148            3 
  206000    1.1781067   -6.3504011    95.259882  0.038535551  0.040823721            3 
  207000    1.1673418   -6.3213351    95.668682  0.038513962  0.040799816            2 
  208000    1.1845204   -6.3521726    95.699792  0.038341263  0.040773657            5 
  209000    1.1572529    -6.337689    96.328614  0.038408538  0.040746599            3 
  210000    1.1533108   -6.3410044    96.730109  0.038384964  0.040719484            1 
  211000    1.1970422   -6.3505832    97.364335  0.038453529  0.040693481            2 
  212000    1.2023692   -6.3317983    97.833139  0.038456423  0.040667931            2 
  213000    1.1779761   -6.3889035    97.908856  0.038305499  0.040639901            3 
  214000    1.1848945   -6.3781318    98.213104  0.038244978  0.040610772            1 
  215000    1.1942562   -6.3629588    99.070678  0.038399487  0.040584667            4 
  216000    1.1659668   -6.3668495    99.529636  0.038398779   0.04056093            4 
  217000    1.1564957   -6.3516319    99.712147  0.038291915  0.040537506            2 
  218000    1.1753611   -6.3573611    100.30783  0.038343973  0.040512382            2 
  219000     1.179225   -6.3877699    100.60271   0.03828109  0.040487683            4 
  220000    1.1451805   -6.3307011    101.38008  0.038401546  0.040463367            1 
  221000    1.1435038   -6.3952829    101.47981  0.038265389  0.040438589            4 
  222000    1.1582386   -6.3421455    102.28686  0.038395967  0.040415421            3 
  223000    1.1477372   -6.4081245    102.96218   0.03847615  0.040394949            3 
  224000    1.1852527   -6.3630286    103.20801  0.038395836  0.040373468            2 
  225000    1.1770356   -6.3354881    103.59557   0.03836873  0.040352819            3 
  226000    1.1511042     -6.36741    104.08493  0.038379399   0.04032994            3 
  227000    1.1473656   -6.3671658    104.41519  0.038331568  0.040305499            3 
  228000     1.155926   -6.4067578    104.65142  0.038249789  0.040280826            2 
  229000     1.177036   -6.3670351    105.07835  0.038238117  0.040258055            3 
  230000    1.1592938   -6.3871356    105.72818  0.038307312   0.04023655            4 
  231000    1.1856446   -6.3846101    106.23488   0.03832427  0.040215021            3 
  232000    1.1560188   -6.3645073     107.1639   0.03849278  0.040195811            4 
  233000    1.1632775   -6.3933514    107.33606  0.038389149  0.040177842            3 
  234000    1.1651248    -6.378985    108.21379  0.038537673  0.040163669            3 
  235000    1.1643831   -6.3417877    108.61597  0.038516302  0.040148249            5 
  236000    1.1455918   -6.3900977    108.96982  0.038478043  0.040132559            3 
  237000    1.1772164   -6.3576217    109.39863  0.038466466   0.04011667            3 
  238000    1.1727433   -6.4049323    109.67739  0.038402448  0.040100511            1 
  239000    1.1685301   -6.3845658    109.86523  0.038307262  0.040085874            6 
  240000    1.1394581   -6.3760094    111.17749  0.038603295  0.040073137            5 
  241000    1.1464949   -6.3457842    111.39897    0.0385197  0.040058893            3 
  242000    1.1732079   -6.3734385    111.47777  0.038387663  0.040046474            4 
  243000    1.1738051   -6.3886356    112.11239  0.038447321  0.040033292            4 
  244000    1.1681852   -6.3866351    112.66604   0.03847884  0.040020945            2 
  245000    1.1330875   -6.4072189     112.8166  0.038372994  0.040007357            2 
  246000    1.1816535   -6.3973151    113.83755  0.038562856  0.039994337            4 
  247000    1.1673239   -6.4280096    114.01922  0.038468023  0.039981272            3 
  248000    1.1421816   -6.3945377    114.56728  0.038497069  0.039967391            4 
  249000     1.155483   -6.3825336    115.34835  0.038603865  0.039957352            2 
  250000    1.1533479    -6.395238    115.88175  0.038627248  0.039947972            5 
  251000    1.1440686   -6.4153001    116.40888  0.038648365  0.039937954            3 
  252000    1.1438443   -6.4083305    115.91577  0.038331935  0.039926532            3 
  253000    1.1471522   -6.4070629    116.84187  0.038485464  0.039913679            7 
  254000    1.1417571   -6.3740704    117.29134  0.038481412  0.039900246            1 
  255000     1.176415   -6.3925319    117.90665  0.038531586  0.039886069            2 
  256000    1.1719919   -6.4360737    117.66817  0.038303439  0.039871102            2 
  257000    1.1641395   -6.3789684    118.06062  0.038281653  0.039855258            2 
  258000    1.1553432   -6.3886438    118.60611  0.038309468  0.039838939            3 
  259000     1.168625   -6.4161543    119.17193  0.038343607  0.039823786            3 
  260000    1.1781907   -6.3534458    119.78403  0.038392317  0.039809272            2 
  261000    1.1590031   -6.3688033    119.75012  0.038234394  0.039792642            3 
  262000    1.1688739   -6.4226167    120.27931  0.038256777  0.039775558            3 
  263000    1.1591322   -6.3921979    120.60555  0.038214687  0.039757878            2 
  264000     1.152475   -6.4000917    120.91903  0.038168884  0.039741849            1 
  265000     1.152675   -6.4049173    121.06135  0.038069608  0.039722519            2 
  266000    1.1553629   -6.4120297    120.93043  0.037885472  0.039699677            2 
  267000    1.1415265    -6.368464    121.26495  0.037847986  0.039676475            4 
  268000    1.1459594   -6.3956848    121.85564  0.037890434  0.039652282            3 
  269000    1.1544072   -6.3935056    121.75279  0.037717718  0.039626477            4 
  270000    1.1609205   -6.4147558    122.13523  0.037696057  0.039600337            3 
  271000    1.1445773   -6.3966686    122.81761  0.037766794  0.039574645            3 
  272000    1.1849975    -6.391216    122.88744  0.037649339  0.039548058            5 
  273000    1.1467374   -6.3933929    123.48773  0.037694666  0.039521807            4 
  274000    1.1582213   -6.4012202    123.94207  0.037695276  0.039496073            5 
  275000     1.142729   -6.3575118    124.57985  0.037751469  0.039469211            2 
  276000    1.1578084   -6.3697905    124.59475  0.037619187  0.039443974            3 
  277000    1.1291797   -6.4117468    124.84113  0.037557501  0.039416663            9 
  278000    1.1417852   -6.4049488    125.17491  0.037522454   0.03938868            1 
  279000    1.1460554     -6.38877     125.5611  0.037503317  0.039361211            2 
  280000    1.1352942   -6.3876643    125.84503  0.037453878  0.039333143            4 
  281000    1.1601475   -6.4461347    126.19154  0.037423351  0.039306098            4 
  282000    1.1566495   -6.4236239    126.71702  0.037445927  0.039276642            2 
  283000    1.1493194   -6.4133296    126.60605  0.037280932  0.039247353            3 
  284000    1.1639408   -6.4369094    126.76284  0.037195668   0.03921761            3 
  285000    1.1306211   -6.4150116    127.18013  0.037187172  0.039185677            4 
  286000    1.1387452   -6.4144519    127.56816   0.03717021  0.039154217            3 
  287000     1.136003    -6.394862    127.77959  0.037102087  0.039122432            3 
  288000    1.1449123   -6.4141286     128.5035  0.037182726  0.039090223            2 
  289000    1.1267038   -6.4068289    128.26754  0.036986027  0.039058707            2 
  290000    1.1320527   -6.4059644    129.08071  0.037092158  0.039026114            4 
  291000    1.1545247   -6.4241119     129.1901  0.036996018  0.038994277            2 
  292000    1.1305847   -6.4613473    130.24173  0.037169445   0.03896415            3 
  293000    1.1336358   -6.4103188    130.28809  0.037055771  0.038933999            4 
  294000    1.1393047    -6.382755     130.9088  0.037105668  0.038903966            4 
  295000    1.1204013   -6.4000038    131.13493  0.037043764  0.038874376            3 
  296000    1.1422986   -6.4146541    132.15732  0.037206453  0.038846022            1 
  297000    1.1234251   -6.4075981    132.19983  0.037093107  0.038819486            3 
  298000    1.1597142   -6.3942741    132.75264  0.037123221  0.038792562            3 
  299000    1.1278784   -6.4417319    132.98427  0.037063621  0.038766281            6 
  300000    1.1152398    -6.401544    133.54494  0.037095817  0.038739233            4 
  301000    1.1464305   -6.4018571    133.82626  0.037050459  0.038712073            3 
  302000    1.1594879   -6.4361879     133.2613  0.036771881  0.038682211            6 
  303000    1.1240013   -6.4512775    133.97652  0.036847228  0.038651576            2 
  304000    1.1259405    -6.467727    134.10983  0.036762563  0.038619725            3 
  305000    1.1270946    -6.439013    134.30555  0.036695507  0.038589824            3 
  306000    1.1146715   -6.4271414    135.22048  0.036824749   0.03855909            2 
  307000    1.1300011   -6.4588987    135.09379   0.03667041  0.038527912            3 
  308000    1.1417403   -6.4120822    135.62762  0.036695784  0.038496045            3 
  309000    1.1063605    -6.443661    135.98476  0.036673345  0.038464798            2 
  310000    1.1300396    -6.451964    135.90145  0.036532647  0.038432791            5 
  311000    1.1092393   -6.4406276    136.61586  0.036606607  0.038401185            1 
  312000       1.1502    -6.431229    137.14687  0.036631109  0.038370109            4 
  313000    1.1497096   -6.4436048     137.8346  0.036697176  0.038339069            1 
  314000    1.1119323   -6.4398932    137.79077  0.036568674  0.038308922            4 
  315000    1.1105123    -6.438783     138.4593  0.036629445  0.038279174            5 
  316000    1.1218807   -6.4473839    138.92428  0.036636151  0.038249483            3 
  317000    1.1220897   -6.4387831    138.81153  0.036490939  0.038220774            4 
  318000    1.1089935   -6.4190774    139.75499  0.036623426  0.038192408            3 
  319000    1.1122498   -6.4671536    139.92895  0.036554062  0.038163737            7 
  320000    1.1039348   -6.4311763    140.71106  0.036643506  0.038135198            3 
  321000    1.1156278   -6.4553193    141.02598  0.036611106  0.038107809            3 
  322000    1.1213767   -6.4522574    140.94734  0.036477055  0.038080219            3 
  323000    1.1403293   -6.4744049    141.37571   0.03647464  0.038052348            3 
  324000    1.1237379   -6.4081885    141.89146  0.036494718  0.038024644            3 
  325000    1.1282887   -6.4402467    142.77352  0.036608595  0.037997808            4 
  326000    1.1100771   -6.4038754    143.27024  0.036623271   0.03797236            4 
  327000    1.0906892   -6.4709027     143.4446  0.036555708  0.037946892            4 
  328000    1.0943283   -6.4239418    143.83412  0.036543222  0.037921528            4 
  329000    1.1458373   -6.4170501    144.60412  0.036627183  0.037897159            2 
  330000    1.1144045   -6.4503672     144.5352  0.036498788  0.037873325            3 
  331000    1.1399796   -6.4934964    144.93722  0.036489734  0.037849336            3 
  332000    1.1316948   -6.4701588    145.60756  0.036548082  0.037826301            3 
  333000    1.1128241   -6.4139605    146.18216  0.036582122  0.037802756            4 
  334000    1.1149196   -6.4445844    146.29252  0.036500129  0.037779475            4 
  335000    1.1051045   -6.4415294    147.20869  0.036619077  0.037756601            3 
  336000    1.1275204   -6.4187183    147.54396  0.036593243  0.037734463            4 
  337000    1.1382967   -6.4423789    147.99048  0.036595073  0.037712514            2 
  338000    1.1237032   -6.4432521    147.89076  0.036462219  0.037690326           11 
  339000    1.1318463   -6.4392873    148.34252  0.036465712  0.037667078            3 
  340000    1.1455997   -6.4797128    148.95818  0.036509357  0.037643912            5 
  341000     1.110372   -6.4669729    148.73815  0.036348522  0.037620854            1 
  342000    1.1176829   -6.4343279    149.65452  0.036465526  0.037598331            1 
  343000    1.1208421   -6.4368238    149.69891  0.036369997  0.037574136            4 
  344000    1.1253904   -6.4722409     149.8412  0.036298741  0.037549735            3 
  345000    1.0998162   -6.4330488    150.53369  0.036360793  0.037526482            2 
  346000    1.1154144   -6.4831443    150.04971  0.036139141  0.037502549            1 
  347000    1.1260154   -6.4494183    150.75822  0.036205145  0.037477715            2 
  348000    1.1017898   -6.4648885    151.80496  0.036351763  0.037453544            3 
  349000    1.1434338   -6.4641634    151.14814  0.036090769  0.037429783            3 
  350000    1.0939515   -6.4547104    152.40916  0.036287895  0.037406382            2 
  351000    1.1014859   -6.4912781    152.30779  0.036160444  0.037382308            2 
  352000     1.103714   -6.4561392    152.75245  0.036162986  0.037358239            2 
  353000    1.0983661   -6.4630347    152.55246  0.036013329  0.037333744            2 
  354000      1.09163   -6.4676719    153.39054  0.036108884  0.037309185            1 
  355000    1.1092433   -6.4538886     153.6473  0.036067441  0.037285784            5 
  356000     1.105246   -6.4505662    154.17776    0.0360903  0.037262216            5 
  357000    1.1206827   -6.4494121    154.32101  0.036022645  0.037238801            3 
  358000    1.1145848    -6.476229    154.51681    0.0359676  0.037214787            4 
  359000    1.1220632   -6.4574905    155.10493  0.036003929  0.037190931            2 
  360000    1.1343322   -6.4552208    154.87205  0.035850011  0.037165981            3 
  361000    1.1195468   -6.4817423    155.37121   0.03586593  0.037139407            2 
  362000    1.0991021   -6.4670944    155.62307  0.035824832  0.037112681            4 
  363000    1.0911009   -6.5000408    156.05384  0.035825033  0.037086652            3 
  364000    1.1114167   -6.4700303    156.82186  0.035902441  0.037060953            4 
  365000    1.0816113   -6.4720573    156.86601  0.035814158  0.037036375            2 
  366000    1.1067894    -6.484313    156.80211  0.035701756   0.03701011            3 
  367000    1.0943471    -6.477968    157.35891  0.035730905  0.036984142            2 
  368000    1.0986179   -6.4741678    158.28703  0.035843983  0.036958973            3 
  369000    1.0957957   -6.5098677    158.18641  0.035724121  0.036934385            2 
  370000    1.0903474    -6.476221    158.78303  0.035761944   0.03691014            3 
  371000    1.1078814   -6.4571692    158.99615  0.035713421  0.036885448            7 
  372000    1.1011833   -6.5186419    158.63002  0.035535399  0.036860398            4 
  373000    1.1345007   -6.4173349    159.87902  0.035719174  0.036836139            4 
  374000    1.1004936   -6.4933964    159.99924  0.035650454  0.036812754            3 
  375000    1.1140854   -6.4979839    160.37719  0.035639374  0.036788633            5 
  376000    1.1415264    -6.460751    160.94109  0.035669568   0.03676485            3 
  377000    1.0995992   -6.4583487    161.57186  0.035714381  0.036741288            2 
  378000    1.0876543   -6.4689086    161.45975  0.035595182  0.036717332            3 
  379000    1.0968573   -6.4667251    161.22305  0.035449219  0.036692909            4 
  380000    1.0903716   -6.4870103    162.03675  0.035534375   0.03666852            4 
  381000    1.1207313   -6.4488543    162.83256  0.035615171  0.036643861            6 
  382000     1.102531   -6.5396379    162.76921  0.035508118  0.036619677            4 
  383000     1.104191   -6.4633238    163.09557  0.035486415  0.036595273            2 
  384000    1.0983602   -6.4641718    163.60145  0.035503786  0.036570763            2 
  385000    1.1042358   -6.4933953    163.65682  0.035423554  0.036547174            2 
  386000    1.1038477   -6.4843607    163.93472   0.03539178  0.036523152            2 
  387000    1.0982883   -6.4581339    164.57779    0.0354388  0.036499323            3 
  388000    1.1123011   -6.4920682    164.76357  0.035387364  0.036475513            1 
  389000    1.0794989   -6.4964142    164.66681  0.035275665  0.036451061            3 
  390000    1.0993411   -6.4991945    165.50004  0.035363256  0.036426496            3 
  391000     1.114618   -6.5019091    165.36594  0.035244232  0.036401781            3 
  392000    1.1084698   -6.4746494    166.24754  0.035341738  0.036378186            2 
  393000    1.0920155   -6.4866584    166.52078   0.03530975  0.036354159            3 
  394000    1.1114867   -6.5008927    166.58053  0.035232769  0.036330232            2 
  395000    1.1120879   -6.4763474    167.04823  0.035242243  0.036305447            5 
  396000     1.103322   -6.4980304    167.64849  0.035279565  0.036281498            2 
  397000    1.0845302   -6.5152446    168.01283  0.035267176  0.036256354            3 
  398000    1.0948753   -6.4622833    168.71034  0.035324611  0.036231912            7 
  399000    1.0967547    -6.447797    168.56197   0.03520509  0.036208059            3 
  400000    1.1174786   -6.4958694    169.11128  0.035231516   0.03618377            3 
  401000    1.1138036   -6.5054634    169.49041  0.035222445  0.036160595            3 
  402000    1.0875185   -6.5040259    169.79378  0.035197717  0.036137377            7 
  403000    1.1304548   -6.4802611    170.01281  0.035155668  0.036114411            3 
  404000    1.0769673   -6.5372746    169.89625  0.035044606   0.03609083            3 
  405000    1.1054406   -6.5416932    170.20911  0.035022451  0.036066401            4 
  406000    1.1148251   -6.5230587    170.98538  0.035095521  0.036043047            3 
  407000    1.0976952   -6.5222668    171.06757   0.03502612  0.036020883            2 
  408000     1.091687   -6.5168151    171.37206  0.035002463  0.035998161            4 
  409000    1.0942932   -6.5376414    171.90276  0.035025012  0.035975822            4 
  410000     1.114092   -6.4922764    172.14692  0.034989212  0.035953432            4 
  411000    1.0675477   -6.5340456    172.24092   0.03492314  0.035930588            3 
  412000    1.0900378   -6.5305265    172.69195  0.034929602  0.035906954            3 
  413000    1.0728091   -6.5126006     172.8623  0.034879399    0.0358833            6 
  414000    1.0872632   -6.4906385    173.50498  0.034924514  0.035860033            5 
  415000    1.0659719   -6.4935077    173.57019  0.034853453  0.035836731            4 
  416000    1.0824887   -6.5516496    174.38124   0.03493214   0.03581302            4 
  417000    1.0719687   -6.5030077    174.24821  0.034821784  0.035789485            4 
  418000    1.0849748   -6.5098416    174.85448  0.034859347  0.035765503            5 
  419000    1.0911987   -6.5403225    175.18564  0.034842012  0.035742095            6 
  420000    1.0886705   -6.5209818    175.38524   0.03479866  0.035718398            4 
  421000    1.0835484   -6.5149195    175.11997  0.034663493  0.035694528            3 
  422000    1.1047504   -6.5444514    175.60324  0.034676786  0.035670002            3 
  423000    1.0782218   -6.5130692    176.08275  0.034689273  0.035646489            1 
  424000    1.0744316   -6.5373436    177.23987   0.03483488  0.035623205            6 
  425000    1.0798536   -6.5301113    177.19117  0.034743366  0.035600636            1 
  426000    1.0856757   -6.5201474     176.7282  0.034571245   0.03557798            2 
  427000    1.0953844   -6.5287422    177.31345  0.034604498  0.035555011            3 
  428000    1.0898869   -6.5023051    177.66107   0.03459133  0.035532298            2 
  429000    1.0955675   -6.5184082    178.17925  0.034611354  0.035508662            4 
  430000    1.1083933   -6.5139414    178.83009  0.034656994  0.035486269            2 
  431000    1.0812776     -6.50692    178.90569  0.034591201  0.035463735            2 
  432000    1.1099384   -6.5335555    179.28949  0.034585164  0.035440922            3 
  433000    1.1092354   -6.5279774    179.95408  0.034633196  0.035418955            3 
  434000    1.1075609   -6.5332674    180.44958  0.034648537  0.035397419            2 
  435000    1.0649457   -6.5337636    179.99076  0.034480989  0.035375187            3 
  436000    1.0772838   -6.5275105    180.43803  0.034487391  0.035352489            2 
  437000    1.0853218   -6.5195205    180.67909  0.034454441  0.035330269            8 
  438000    1.0552287   -6.4935543    181.67676  0.034565594  0.035308305            3 
  439000    1.0924573   -6.5237968    182.10867  0.034568844  0.035286124            9 
  440000    1.0622422   -6.5304535    182.22091  0.034511536  0.035264156            3 
  441000    1.0730918   -6.4933131     182.5069   0.03448732  0.035242748            7 
  442000    1.0713432    -6.467351    183.25487  0.034550315  0.035221703            2 
  443000     1.077667   -6.5157749    183.34936  0.034490097  0.035200408            2 
  444000    1.0779173   -6.5634497    183.18258  0.034381115  0.035178463            3 
  445000    1.0464772    -6.547649    184.16712  0.034488224  0.035156913            3 
  446000    1.0798272   -6.5333132    183.72882  0.034329001  0.035135204            4 
  447000    1.0802638   -6.5240932    184.50891  0.034397634  0.035113414            2 
  448000    1.0831557   -6.5394307     184.0372   0.03423311   0.03509078            6 
  449000    1.0873866   -6.5138168    185.06091  0.034346866  0.035068616            5 
  450000     1.097336   -6.5165847    185.22582  0.034301078   0.03504642            3 
  451000    1.0633956   -6.5559389    185.46479  0.034269178  0.035024205            4 
  452000     1.055875   -6.5326272    185.59302  0.034217002  0.035001944            3 
  453000    1.0699471   -6.5367808    186.33871  0.034278644  0.034979997            2 
  454000    1.0717857   -6.5121407    186.71611  0.034272413  0.034958206            6 
  455000     1.084471   -6.5400659    186.35888  0.034131663  0.034936164            2 
  456000    1.0698911   -6.5505515    186.83171  0.034143222   0.03491409            5 
  457000    1.0747755   -6.5234131    187.35203  0.034163389   0.03489203            5 
  458000    1.0639696   -6.5099072    187.97105  0.034201428  0.034870139            2 
  459000    1.0703564   -6.5359306    188.29344  0.034185446  0.034848545            3 
  460000    1.0659209   -6.5542922    188.74187  0.034192368  0.034827439            3 
  461000    1.0638197    -6.548232    189.11565  0.034185764  0.034805967            6 
  462000     1.091533   -6.5424318    190.11508  0.034292041  0.034786287            3 
  463000     1.064925   -6.5387602    189.35414  0.034081019  0.034766585            3 
  464000    1.0585958   -6.5272095    190.15547  0.034151485  0.034745862            4 
  465000    1.0499901   -6.5353824    189.79302  0.034013086   0.03472529            6 
  466000     1.091702   -6.5631027    190.24085   0.03402018  0.034704386            4 
  467000    1.0559262   -6.5633359    190.58825  0.034009323  0.034683595            2 
  468000    1.0617744   -6.5399867     190.9408  0.033999431  0.034662183            2 
  469000     1.079243   -6.5334277    191.02029   0.03394106  0.034640542            2 
  470000     1.077677   -6.5255362    192.07765  0.034056321  0.034619611            9 
  471000    1.0794232   -6.5641119    191.73934  0.033924157  0.034598583            2 
  472000    1.0660861   -6.5425521    192.38071  0.033965521  0.034577592            2 
  473000    1.0777092   -6.5609842    193.01306   0.03400512  0.034556912            3 
  474000    1.0524591   -6.5457473    192.83546  0.033902156  0.034537913            3 
  475000    1.0311758   -6.5480409    193.58612  0.033962478  0.034517786            7 
  476000    1.0546911    -6.575267     193.5471  0.033884295  0.034497704            2 
  477000     1.062887    -6.565054     193.4022  0.033787946  0.034476954            9 
  478000    1.0577751   -6.5470934    193.80222  0.033786997  0.034456509            4 
  479000    1.0552554   -6.5349869    194.32629  0.033807636  0.034435824            3 
  480000    1.0707683   -6.5759673    194.38628  0.033747618  0.034415183            5 
  481000    1.0708739   -6.5657216     195.7759  0.033918209  0.034394958           10 
  482000    1.0721648   -6.5353734    196.02083  0.033890185  0.034375191            2 
  483000    1.0766301   -6.5611486    195.38615  0.033710517  0.034355581            3 
  484000    1.0709173   -6.5783818    196.47391  0.033828152  0.034336231            3 
  485000    1.0571588   -6.6071179    196.33714  0.033734904  0.034315863            3 
  486000    1.0439426   -6.5690891    197.04548  0.033786948  0.034295293            4 
  487000    1.0497377   -6.5699745    197.30728  0.033762368  0.034275492            2 
  488000    1.0700589   -6.6003737    196.74357  0.033596921  0.034255657            3 
  489000     1.071817   -6.5853355    197.64761  0.033682278  0.034235631            4 
  490000    1.0839273   -6.5924209    198.58761  0.033773402  0.034216204            5 
  491000    1.0572575   -6.5770793    198.43404  0.033678554  0.034196534            5 
  492000    1.0438153   -6.5475667    198.39574  0.033603615  0.034176805            4 
  493000    1.0514537   -6.5557897    199.58276  0.033736098   0.03415718            5 
  494000    1.0489701   -6.5652595     199.6929  0.033686387  0.034137915            3 
  495000    1.0770068   -6.5554016    200.27712  0.033716686  0.034118782            2 
  496000    1.0628046   -6.5467539    200.80077  0.033736689  0.034100077            5 
  497000    1.0545188   -6.6082266    200.65568  0.033644481  0.034080863            4 
  498000     1.056543   -6.5641183    200.32417  0.033521448  0.034061087            3 
  499000    1.0385522   -6.5596712    200.80978  0.033535367   0.03404128            2 
  500000    1.0724721    -6.591365    200.72913  0.033454855   0.03402077            2 
  501000    1.0468916   -6.5687512    200.65198  0.033375246  0.034000147            3 
  502000    1.0507644   -6.6095409    201.38046  0.033429691  0.033979826            6 
  503000    1.0466959   -6.5419602    201.89215  0.033448004  0.033959836            3 
  504000    1.0547814    -6.553412    202.12318  0.033419837   0.03393963            4 
  505000    1.0776796   -6.6002965    201.56056  0.033260818   0.03391925            2 
  506000     1.025213   -6.5718602    202.81011  0.033400875    0.0338988            3 
  507000    1.0637553   -6.5842902     203.1439  0.033389858  0.033878993            3 
  508000    1.0401946   -6.5934152    202.58877  0.033233067  0.033858793            3 
  509000    1.0553911   -6.5757823    203.50953  0.033318521  0.033838345            3 
  510000    1.0456732    -6.566391    203.68725   0.03328223  0.033818011            3 
  511000    1.0598896   -6.6040735     204.0648   0.03327867  0.033798081            3 
  512000    1.0449518    -6.585116    204.38238  0.033265361  0.033777841            3 
  513000    1.0269999   -6.5793522    204.98555  0.033298498  0.033757733            2 
  514000    1.0469081   -6.5934095    205.05524  0.033245013  0.033737787            4 
  515000    1.0500506   -6.5623613     206.2604  0.033375469  0.033718191            4 
  516000     1.047495   -6.5995917    205.52883   0.03319264  0.033698669            3 
  517000    1.0384339   -6.5928185    206.56706  0.033295786  0.033679764            4 
  518000     1.048058   -6.5916983    206.84672  0.033276499  0.033661072            4 
  519000    1.0374491   -6.5781039    207.43935  0.033307539  0.033642367            2 
  520000    1.0643233   -6.6096439    207.35186  0.033229465  0.033624466            2 
  521000    1.0634603   -6.5729108    207.87971  0.033250113  0.033606447            4 
  522000    1.0335774   -6.5424851    208.85298  0.033341791  0.033588626            4 
  523000    1.0558189   -6.5902323    208.65741  0.033246878  0.033571162            2 
  524000    1.0394875    -6.553589    209.43541  0.033307158  0.033553872            4 
  525000    1.0191873   -6.6297426    210.23228  0.033370203  0.033536541            5 
  526000    1.0495233   -6.6282496    209.61785  0.033209418  0.033519564            4 
  527000     1.034265   -6.5919808    210.82554  0.033337372  0.033502957            3 
  528000    1.0331266   -6.6411423    210.15339  0.033168148  0.033485886            3 
  529000    1.0378004   -6.5845365    211.23474  0.033275794  0.033469297            2 
  530000    1.0356866   -6.5708596    211.99567  0.033332653  0.033452559            3 
  531000    1.0404471   -6.5615503    211.62138  0.033211139  0.033436095            3 
  532000    1.0376768    -6.602823    211.74586  0.033168211  0.033419115            2 
  533000    1.0303678   -6.5779597    212.56346  0.033233812  0.033401805            2 
  534000    1.0527226   -6.5896588    213.02951  0.033244306  0.033384216            2 
  535000    1.0295328   -6.6015008     212.5826  0.033112554  0.033367022            1 
  536000    1.0304252   -6.5783818    213.19143  0.033145434  0.033349327            8 
  537000    1.0389695   -6.6126909    213.05791  0.033062991  0.033331949            2 
  538000    1.0196896   -6.5981128    213.81451  0.033118729  0.033314943            3 
  539000    1.0391251   -6.6215733    213.15841  0.032955845  0.033297479            3 
  540000    1.0277191   -6.6384738    213.98266  0.033022015  0.033279988            5 
  541000    1.0631036   -6.5826916    214.09708  0.032978601  0.033262263            6 
  542000    1.0536528   -6.5493901    214.74701  0.033017684  0.033244441            3 
  543000    1.0368233   -6.5824491    214.98208  0.032992953   0.03322702            3 
  544000     1.060308   -6.6357954     214.8046  0.032905116  0.033209463            4 
  545000    1.0470774   -6.6133135    215.08137   0.03288706   0.03319211            3 
  546000    1.0380707   -6.6131348    215.51645  0.032893231  0.033174141            2 
  547000    1.0378619   -6.6044788     215.7568  0.032869714  0.033155955            3 
  548000    1.0867566   -6.6059899    216.25031   0.03288478  0.033137741            5 
  549000    1.0333007   -6.5704487    216.20056  0.032817329  0.033119789            4 
  550000    1.0339045   -6.5989816    215.88017  0.032709117  0.033101652            6 
  551000    1.0401854   -6.6096424    216.40974  0.032729846  0.033083163            6 
  552000    1.0534862   -6.5986879    217.13647  0.032780264  0.033065184            2 
  553000    1.0311579   -6.5952697    217.25301  0.032738548  0.033046598            6 
  554000    1.0498738   -6.6330079    218.53378  0.032872109  0.033028756            5 
  555000     1.017932    -6.619611    217.47245  0.032653522  0.033010749            4 
  556000     1.036314   -6.5974788    218.20436  0.032704491  0.032992705            2 
  557000    1.0566288   -6.6092513      218.992  0.032763614   0.03297503            3 
  558000    1.0386901   -6.6103288    219.09167  0.032719783  0.032957195            2 
  559000     1.018997   -6.6219608    219.69613  0.032751361  0.032939181            2 
  560000     1.021014   -6.5976939    218.97831  0.032586058  0.032920808            7 
  561000     1.005232   -6.6202695    218.94215  0.032522601  0.032903033            4 
  562000    1.0150203   -6.6016148    219.88069  0.032603898  0.032885108            3 
  563000    1.0301505   -6.6035271    220.23665  0.032598676  0.032867546            3 
  564000    1.0159509   -6.6452876    220.66898  0.032604755  0.032850182            6 
  565000    1.0404733   -6.6525241    220.67352  0.032547716  0.032833056            3 
  566000    1.0253235   -6.6533091    221.21773  0.032570338  0.032815562            4 
  567000    1.0322017   -6.6617529    221.61448  0.032571205  0.032798224            2 
  568000    1.0355652   -6.6348704    221.57198  0.032507627  0.032781086            5 
  569000     1.023726    -6.647701    222.11392  0.032529866  0.032763739            6 
  570000    1.0058353   -6.6227642    222.80593  0.032573966    0.0327467            2 
  571000    1.0204069   -6.6298685    222.72281  0.032504789  0.032729911            2 
  572000    1.0053977   -6.6247078    223.13698  0.032508301  0.032712715            3 
  573000    1.0482462   -6.6206067    223.66943  0.032529004  0.032696043            3 
  574000    1.0233733   -6.5978193    224.10121  0.032535019  0.032679433            9 
  575000    1.0370441   -6.6406971    224.08139  0.032475563  0.032662704            4 
  576000    1.0152934   -6.6511621    224.19444  0.032435538  0.032645558            9 
  577000    1.0039452   -6.6537427    224.52077  0.032426454  0.032628457            3 
  578000    1.0249854   -6.6635513     224.6309  0.032386232  0.032611342            5 
  579000     1.038689   -6.6217029    224.24027  0.032274074  0.032593965            3 
  580000    1.0139119   -6.6388488    225.23392  0.032361196  0.032576761            3 
  581000    1.0388869   -6.6390336    225.59746  0.032357639  0.032559698            3 
  582000    1.0374445   -6.6738015    225.70348  0.032317222   0.03254271            3 
  583000    1.0249272   -6.6264451    227.27957  0.032487073  0.032526204            6 
  584000     1.038641   -6.6502481    226.75119  0.032356048  0.032509804            4 
  585000    1.0003358   -6.6669174    227.22169  0.032367763  0.032493004            3 
  586000    1.0169794    -6.647169    227.21385  0.032311413  0.032475926            4 
  587000    1.0151105   -6.6437151    226.46602  0.032150201  0.032458701            3 
  588000    1.0071655   -6.6277582    227.42929  0.032232043  0.032441208            3 
  589000    1.0327856   -6.6731912    228.20232   0.03228669  0.032423804            3 
  590000    1.0124272   -6.6427945    228.56726  0.032283512  0.032406825            3 
  591000   0.98843155    -6.662555    228.26964   0.03218692  0.032389743            4 
  592000    1.0156698   -6.6670614    228.78388  0.032204938  0.032372925            4 
  593000    1.0254237   -6.6605748    229.05843  0.032189212  0.032355968            5 
  594000    1.0237296   -6.6593469    228.87016  0.032108608   0.03233901            5 
  595000    1.0183084   -6.6853455    229.20212  0.032101138  0.032321826            6 
  596000    1.0064355    -6.642415     229.6199  0.032105691  0.032304811            7 
  597000    1.0152319   -6.6445116    229.63262  0.032053688  0.032287658            4 
  598000    1.0191807   -6.6404594    230.02529  0.032054806  0.032270271            6 
  599000    1.0150493   -6.6855075    230.20079  0.032025708  0.032252969            3 
  600000    1.0223714   -6.6636268    230.45738  0.032007969  0.032236158            3 
  601000    1.0020883   -6.6454679    231.21776  0.032060144  0.032219844            2 
  602000   0.98710656   -6.6567142    231.90254  0.032101681  0.032202994            4 
  603000    0.9992364   -6.6345861     232.1553  0.032083375  0.032186208            6 
  604000    1.0222175   -6.6594776    232.24369  0.032042452   0.03216915            6 
  605000    1.0184662   -6.6559716    232.54789   0.03203139  0.032152451            5 
  606000    1.0031998   -6.6556476    232.25872  0.031938768  0.032135122            7 
  607000   0.98724046   -6.6573634    232.74397  0.031952769  0.032117933            5 
  608000   0.99710807   -6.6478876    232.87133  0.031917671  0.032100611            8 
  609000    1.0234447   -6.6590377    232.91138  0.031870742  0.032083478            4 
  610000     1.015217   -6.6586674    232.93823  0.031822163  0.032066286            4 
  611000    1.0256797   -6.6407163     233.1588  0.031800164  0.032049153            5 
  612000    1.0089351   -6.6377526    234.04441  0.031868792  0.032031677            3 
  613000    1.0451629   -6.6663556    233.57827  0.031753436  0.032014284            8 
  614000    1.0128228   -6.6906451    233.59866  0.031704487  0.031996944            3 
  615000   0.99191591   -6.6221137    234.95131  0.031836221   0.03197935            1 
  616000   0.99383357   -6.6650008    235.04916  0.031797776  0.031962307            3 
  617000   0.99421608   -6.6672862    234.81282  0.031714319  0.031945034            5 
  618000    1.0408123   -6.6774495    235.73514   0.03178737  0.031927757            3 
  619000    1.0175092   -6.6741756    234.84711  0.031616466  0.031910002            3 
  620000    1.0153339   -6.6907019    234.97418  0.031582551  0.031891759            2 
  621000     1.006118   -6.6699371    235.78411   0.03164038  0.031873738            5 
  622000   0.99802778   -6.6768663    236.51982  0.031688079  0.031855829            4 
  623000   0.99126403   -6.6567412    236.05299  0.031574772  0.031837826            6 
  624000   0.98837862   -6.6792011    236.41642  0.031572706  0.031819887            6 
  625000    1.0338044   -6.7017412    236.45302  0.031527069  0.031802249            4 
  626000   0.98210048   -6.6674415    237.58228  0.031627034  0.031784498            8 
  627000   0.99840954   -6.7233606    236.73717   0.03146427  0.031766491            3 
  628000    1.0256111   -6.6672034    237.52675  0.031518942  0.031748743            3 
  629000   0.98812732   -6.6506005    237.96939  0.031527476  0.031731083            7 
  630000    1.0035569   -6.6966379    238.74749  0.031580356  0.031713124            4 
  631000    1.0149985   -6.7006452    237.82466  0.031408434  0.031694774            3 
  632000    1.0061675   -6.6396839    237.91324  0.031370417  0.031676445            4 
  633000   0.99280124   -6.6675069     238.8183  0.031440007  0.031658199            7 
  634000   0.99966204   -6.6791366    238.72821  0.031378576  0.031639888            3 
  635000    1.0075198   -6.7071491    238.17186  0.031256149  0.031621481            4 
  636000   0.98938096   -6.6750747    238.77774  0.031286391  0.031603026           10 
  637000   0.98720082   -6.6691724    239.17497  0.031289243  0.031584698            5 
  638000    1.0159494   -6.6860604    239.27404   0.03125314  0.031566402            2 
  639000    1.0184473   -6.6781447    239.52152  0.031236505  0.031547816            4 
  640000   0.99454416   -6.6956822    239.43074  0.031175878   0.03152932            5 
  641000    1.0023428    -6.695355    240.23728  0.031232095  0.031510651            5 
  642000   0.99263661    -6.664758    240.98749  0.031280827  0.031492446            4 
  643000   0.98089437    -6.686996     241.6991  0.031324404  0.031474593            8 
  644000   0.98543022   -6.6644871    241.90759  0.031302743  0.031456887            3 
  645000    1.0135865   -6.6870044    241.68767  0.031225798   0.03143933           10 
  646000    0.9831941    -6.662054    241.91776  0.031207142  0.031421446            5 
  647000     1.011745   -6.6901514    242.39893  0.031220883  0.031403925            6 
  648000    1.0039323   -6.6385318    242.41875  0.031175251  0.031386346            4 
  649000    1.0101747   -6.6921398    242.44396  0.031130452  0.031369064            5 
  650000    1.0025117   -6.6355605    243.82186  0.031259213  0.031351955            4 
  651000    1.0058491   -6.6847762    243.04391  0.031111611  0.031334785            4 
  652000   0.98748253   -6.7287712    242.77071  0.031028976  0.031317017            4 
  653000   0.97879496   -6.6919219    243.54939   0.03108083  0.031299306            2 
  654000    1.0135975   -6.7219952    243.40201  0.031014527  0.031281413            2 
  655000    1.0029337   -6.6984126    244.02996  0.031047068  0.031263501            7 
  656000   0.99438904   -6.7227015    243.59062   0.03094393  0.031245244            2 
  657000    0.9886004   -6.6710703    244.03527  0.030953231  0.031226752            3 
  658000   0.96114025   -6.6919548     244.4437  0.030957915  0.031208879            4 
  659000    1.0049865   -6.6879211    244.86672  0.030964432   0.03119104            2 
  660000    1.0081547   -6.6935293    245.57908   0.03100746  0.031173162            6 
  661000   0.96839319   -6.7016192    245.12079  0.030902772  0.031155173            5 
  662000   0.96902628   -6.7022573    245.32444  0.030881727  0.031136974            3 
  663000    0.9956817   -6.6926328    246.16805  0.030941182  0.031118886            6 
  664000    1.0044087   -6.6796332    245.98948  0.030872173  0.031100482            9 
  665000   0.97723659   -6.7286702    245.31588  0.030741338  0.031082166            3 
  666000   0.97949485   -6.6999378      246.514  0.030845095  0.031063848           10 
  667000   0.98136422   -6.7327369    246.39376  0.030783828  0.031045399            6 
  668000   0.97756418    -6.673493    246.60594  0.030764214  0.031026983            6 
  669000   0.96476915   -6.7229599    246.10932  0.030656368   0.03100835            4 
  670000   0.98889451   -6.6912619    247.66317  0.030803877  0.030989772            3 
  671000    0.9837472   -6.6975129    247.76693  0.030770856  0.030971572            3 
  672000   0.98049331   -6.7028651    247.28303  0.030665058  0.030953457            4 
  673000   0.98493292   -6.6888555    248.02969  0.030711948  0.030935251            5 
  674000   0.99005377     -6.72869     247.8869  0.030648727  0.030917265            4 
  675000   0.97079061   -6.7000413    247.82762  0.030596002  0.030898926            6 
  676000   0.98528078   -6.7001172    248.54183  0.030638785  0.030881035            5 
  677000   0.96105346    -6.701023    249.08709  0.030660646  0.030862867            2 
  678000   0.98678471   -6.7180465     249.2309    0.0306331  0.030844739            4 
  679000    0.9611971   -6.7078102    249.02348  0.030562528  0.030826592            3 
  680000    0.9811269   -6.7047824    249.46528  0.030571725  0.030808385            3 
  681000   0.96862976   -6.6718352    249.19196  0.030493388  0.030790116            2 
  682000   0.96490019   -6.7655157    249.22856  0.030453148  0.030771668            5 
  683000   0.97120601   -6.7117243    250.07706  0.030512087   0.03075326            5 
  684000   0.98849274   -6.7361906    249.02808  0.030339678  0.030734624            2 
  685000   0.98731865    -6.702193    250.15916  0.030432988  0.030715801            5 
  686000   0.97321828   -6.7121592    249.51439    0.0303103  0.030697265            4 
  687000   0.96421618   -6.7221771    250.68798  0.030408538  0.030678608            3 
  688000   0.97731336   -6.7079824    250.61754  0.030355806  0.030659993            4 
  689000   0.97658994   -6.6903763    250.71394  0.030323408  0.030641581            7 
  690000     0.976039   -6.7244582    251.24095  0.030343109   0.03062313            3 
  691000   0.97121658   -6.7131873    251.41462  0.030320142  0.030604536            5 
  692000   0.98376957   -6.7189778    252.12457  0.030361822  0.030586384            3 
  693000   0.98612323   -6.7166806    252.35204  0.030345363  0.030568296            8 
  694000    1.0007522    -6.739508    252.74539   0.03034887  0.030550294            4 
  695000   0.98524363   -6.7316988    253.35679  0.030378512  0.030532446           11 
  696000   0.97658808   -6.7204586    253.26749  0.030324173  0.030514987            5 
  697000    1.0054304   -6.7509041     253.0909  0.030259552  0.030497186            4 
  698000   0.96673261    -6.735033    253.82439  0.030303771  0.030479583            4 
  699000     0.994088   -6.7106795    254.51582  0.030342849   0.03046201            3 
  700000   0.97747318   -6.7201385    254.46175  0.030293065  0.030444726            4 
  701000   0.97299661   -6.6985108    255.47645  0.030370477  0.030427408            2 
  702000   0.95318086   -6.7150791    255.77133  0.030362218  0.030410727            5 
  703000   0.98056351   -6.7070075    255.11679   0.03024144   0.03039372            3 
  704000   0.96939435   -6.7418745    254.83369  0.030164972  0.030376459            5 
  705000   0.96460435   -6.7323852    255.65064  0.030218752  0.030358903            4 
  706000   0.96822724   -6.7319145     255.3989  0.030146234  0.030341401            6 
  707000   0.98047828   -6.7328941    255.67532  0.030136176  0.030323732            5 
  708000   0.96155939   -6.7141647    256.10486  0.030144169  0.030306251            4 
  709000   0.97139026   -6.7124843    256.30282   0.03012492  0.030288803            3 
  710000   0.96444396   -6.7435466    256.95218  0.030158707    0.0302714            3 
  711000   0.97329505   -6.7410714    256.08084  0.030014164  0.030253445            8 
  712000   0.96118401    -6.722856    256.94092  0.030072673  0.030235692            7 
  713000   0.97439064   -6.7764407    257.55774  0.030102588  0.030217882            2 
  714000   0.94627755   -6.7350906    257.54928  0.030059439  0.030200483            5 
  715000   0.98505825   -6.8011802    256.71807  0.029920521   0.03018287            5 
  716000   0.97475038    -6.716604    257.53214   0.02997348   0.03016535            4 
  717000   0.98456543   -6.7472691     258.5864  0.030054208  0.030147846            5 
  718000   0.95630787   -6.7065934    258.56455  0.030009814  0.030130424            3 
  719000    0.9596541   -6.7223282    259.02584  0.030021539  0.030112852            3 
  720000   0.95829181   -6.7378733    258.71075  0.029943373  0.030095648            4 
  721000   0.99033616   -6.7534424    259.13567  0.029950956  0.030078342            9 
  722000   0.98440095   -6.7673427    259.66773  0.029970883  0.030061031            5 
  723000   0.98352082   -6.7512795    259.27213  0.029883832  0.030043501            6 
  724000   0.98956069    -6.740379      260.492  0.029982965  0.030026331            3 
  725000   0.96251983   -6.7419446    260.18126  0.029905892  0.030008922            6 
  726000   0.95338669   -6.7541333     260.3197   0.02988059  0.029991252            4 
  727000   0.96856257   -6.7741743    260.15822  0.029820979  0.029973856            8 
  728000   0.96063489   -6.7683779    260.62943  0.029833955  0.029956388            2 
  729000   0.98593451    -6.760987    261.51995  0.029894828   0.02993917            3 
  730000   0.97125335   -6.7318326    261.66134  0.029870016  0.029921977            4 
  731000   0.96049018   -6.7491089    261.69707  0.029833227    0.0299049            3 
  732000   0.96567746   -6.7554309    262.29806   0.02986089  0.029887817            7 
  733000   0.98830824   -6.7918493    261.59257  0.029739947  0.029870831           10 
  734000   0.96507811   -6.7041686    262.46338  0.029798295  0.029853794            4 
  735000   0.94850517   -6.7619523    262.47284  0.029758826  0.029836906            4 
  736000   0.95306785   -6.7377296    262.57012  0.029729406  0.029819833            4 
  737000   0.91576571   -6.7384132    263.39636  0.029782492  0.029802843            2 
  738000   0.96565144   -6.7774586    262.74386  0.029668458  0.029785732            7 
  739000   0.96610119   -6.8278387    262.45489  0.029595725  0.029768194            4 
  740000   0.96174932   -6.7735406    262.86665    0.0296021  0.029750851            8 
  741000   0.94518186   -6.7982045    262.46275  0.029516728  0.029733594            9 
  742000   0.97297024   -6.7892017    263.09768  0.029548257  0.029716122            7 
  743000   0.94227239   -6.7701891    263.54013  0.029558112  0.029698814            3 
  744000   0.94133172   -6.7942459       263.95  0.029564293  0.029681519            4 
  745000   0.96358812    -6.741619    264.96623  0.029638281  0.029664155            3 
  746000    0.9668694   -6.7988661    264.20268  0.029513257  0.029647077            6 
  747000   0.94228678   -6.7536058    264.41377  0.029497297  0.029629875            5 
  748000   0.98305284   -6.7486504    264.81942  0.029503055  0.029612804            4 
  749000   0.93027263   -6.7560843    265.92135  0.029586265  0.029595728            7 
  750000   0.96395602   -6.7821683    265.42924  0.029492137  0.029578789            4 
  751000   0.96837781   -6.7649508    266.06712  0.029523648  0.029561612            6 
  752000   0.97115571   -6.7960907    265.85495  0.029460877  0.029544442            5 
  753000   0.93225074   -6.7916658    265.87314  0.029423765  0.029527144            3 
  754000   0.95545206   -6.7686136    265.84197  0.029381297  0.029509851            8 
  755000   0.95471706   -6.7531084     266.8761  0.029456523  0.029492733            3 
  756000   0.96441708   -6.7657339    267.04923  0.029436644  0.029475748            1 
  757000   0.95497833   -6.7519804    267.09859  0.029403191  0.029458882           10 
  758000   0.94455749   -6.7878241    267.31696  0.029388408  0.029442087            6 
  759000    0.9283994   -6.7650263    267.56603  0.029377034  0.029425091            6 
  760000    0.9558672   -6.7780764    267.58362  0.029340309   0.02940809            6 
  761000   0.95564156   -6.7907568    267.60208  0.029303775  0.029390933            6 
  762000    0.9440561   -6.7948046    268.36442   0.02934869  0.029374048            3 
  763000   0.94439169   -6.7784195    268.58739  0.029334577  0.029357302            3 
  764000   0.94214556   -6.7555986    268.06696  0.029239416  0.029340438            4 
  765000   0.95670927   -6.7768972    268.23295  0.029219275  0.029323476            2 
  766000   0.93738878   -6.7396673    268.32853  0.029191529  0.029306284            4 
  767000    0.9735912   -6.7755177    268.28684  0.029148939  0.029288836            6 
  768000   0.93308786   -6.7837778    268.48051  0.029131999  0.029271423            2 
  769000    0.9544249   -6.7802888    268.93575   0.02914345  0.029253903            5 
  770000   0.91957668   -6.7538945    269.49955  0.029166618  0.029236358            6 
  771000   0.93979999   -6.7811046    269.62826    0.0291427  0.029218847           11 
  772000    0.9537977   -6.7905416    269.69351  0.029111994  0.029201393            9 
  773000   0.95157438   -6.7884534    270.22634  0.029131775   0.02918401            2 
  774000   0.96614799   -6.8307058    269.82968   0.02905143  0.029166745            6 
  775000   0.92881736   -6.8264276    270.25005  0.029059145  0.029149604            8 
  776000   0.94124434    -6.772286    270.58452  0.029057616   0.02913241            4 
  777000   0.92336767   -6.7670285    271.15815  0.029081741  0.029115477            5 
  778000   0.92026259    -6.825144    271.58845  0.029090451  0.029098721            6 
  779000   0.93387433   -6.7688777    271.10431  0.029001317  0.029081792            5 
  780000   0.92455168   -6.7936231    271.51663  0.029008187  0.029064978            5 
  781000   0.95062514   -6.7663859    271.13062  0.028929858  0.029048164            3 
  782000   0.94945109    -6.766549    271.96182  0.028981438  0.029031282            8 
  783000   0.94150554   -6.8029923    271.84685  0.028932189  0.029014389           11 
  784000   0.94578216   -6.7731569    272.81424  0.028998112  0.028997503            2 
  785000   0.93804543   -6.8017498    272.86258  0.028966304   0.02898091            3 
  786000    0.9620871   -6.8547147    272.32706  0.028872674  0.028964076           11 
  787000   0.93384229   -6.7810795    273.01153  0.028908463  0.028947213            5 
  788000   0.93816866   -6.8376303     273.5574  0.028929505  0.028930674            7 
  789000   0.93644576   -6.8358883    274.00171  0.028939767  0.028914102            3 
  790000   0.96936793   -6.8217508    273.87875  0.028890163  0.028897477            4 
  791000   0.94449181   -6.7702234    273.07107  0.028768549  0.028880722            4 
  792000   0.94291522   -6.8253668    273.60518  0.028788424  0.028863969            8 
  793000   0.92696129   -6.8195249    273.61823  0.028753492  0.028847323            4 
  794000   0.95170764   -6.8047551    274.76814  0.028837966  0.028830776            3 
  795000   0.92711634   -6.8167394     275.1728  0.028844109  0.028814236            3 
  796000   0.93063247   -6.8292454    274.92339  0.028781761  0.028797669            3 
  797000   0.92287773   -6.8138666     274.8789  0.028740998  0.028781064            8 
  798000   0.94196025   -6.7962163      275.508  0.028770677  0.028764443            5 
  799000   0.93371693    -6.813119    275.74485  0.028759371  0.028747736            7 
  800000   0.94681437   -6.8043907    276.27667   0.02877882  0.028731472            4 
  801000    0.9198913   -6.8207397    276.39235  0.028754926  0.028715215            6 
  802000    0.9471311   -6.8082086    276.66383  0.028747281  0.028698717            4 
  803000   0.91716267   -6.8007546    277.04774  0.028751322  0.028682135            4 
  804000   0.94288665   -6.8183178    276.12963  0.028620401  0.028665447            2 
  805000   0.90220364   -6.8192224    277.35323  0.028711515  0.028648787            3 
  806000   0.92611593   -6.8036838    277.36434  0.028677041  0.028632195            4 
  807000   0.94748308   -6.8276555    277.35894  0.028640947  0.028615742            5 
  808000   0.93179439   -6.7906637    277.33331  0.028602857  0.028599187            6 
  809000   0.94216916   -6.7983875    278.94981  0.028734014  0.028582877           14 
  810000   0.94714973   -6.7872307    278.41912  0.028643942  0.028567034           13 
  811000   0.93455603   -6.7854462    278.04622  0.028570306  0.028550766            5 
  812000   0.92913154   -6.8144926     278.1874   0.02854961  0.028534348           17 
  813000   0.94990375   -6.8198357    279.09186  0.028607202  0.028517912            3 
  814000   0.91278621   -6.8202413      278.564  0.028518018  0.028501692            5 
  815000   0.90469871   -6.8241533    279.13944  0.028541865  0.028485443            3 
  816000   0.93288316   -6.8204168    279.60725  0.028554662  0.028468966            4 
  817000   0.91457607   -6.8146176    279.77844  0.028537172  0.028452985            4 
  818000     0.931848     -6.82822    279.39645  0.028463371  0.028436725            3 
  819000   0.92378628   -6.8287366    279.54502  0.028443734  0.028420238            9 
  820000   0.90810175   -6.8111183    280.08822   0.02846425  0.028404102            7 
  821000   0.94120679   -6.8308416    280.96994  0.028519076  0.028387916            2 
  822000   0.93661647   -6.8073496    280.61386  0.028448282  0.028371801            6 
  823000   0.92460927   -6.8121172    280.88189  0.028440856  0.028355842            5 
  824000   0.91852506   -6.8116624    281.15205  0.028433662  0.028339702            7 
  825000   0.92964333   -6.8188774    281.26181  0.028410284  0.028323696            4 
  826000   0.90950248   -6.8453871    281.00882  0.028350366  0.028307614            3 
  827000    0.9175382   -6.8200203    282.49501  0.028465842  0.028291565            7 
  828000    0.9291886    -6.847742    281.91738  0.028373328  0.028275806            5 
  829000   0.92532932   -6.8265425    281.70399  0.028317651  0.028260023            8 
  830000   0.92393286   -6.8272274    282.82887  0.028396473  0.028244065            8 
  831000   0.92306678   -6.8456979    282.26901  0.028306158  0.028228144            5 
  832000   0.93840442   -6.8026952    282.62421  0.028307713  0.028212107            5 
  833000    0.9238868   -6.8162763    282.56688  0.028267995  0.028195963            5 
  834000   0.94500802    -6.877866    282.17664  0.028195107  0.028179538            4 
  835000   0.92225041   -6.8275566    283.07561  0.028251059  0.028163118            6 
  836000   0.91774291   -6.8516167    282.57974  0.028167837  0.028146948            7 
  837000   0.92194245    -6.826244    283.45004  0.028220832  0.028130783            7 
  838000   0.89169227   -6.8506422    283.32528  0.028174749  0.028114827            6 
  839000   0.91019631   -6.8703747    284.42183  0.028250083  0.028098895            7 
  840000    0.9468187   -6.8402962     285.0137  0.028275168  0.028082966            7 
  841000   0.91512241   -6.8318795    284.07854  0.028148884  0.028067094            5 
  842000   0.90979773   -6.8279293    285.12919  0.028219437  0.028051232            5 
  843000   0.92145943   -6.8653596    285.10288  0.028183361  0.028035491            8 
  844000   0.90804528   -6.8386223    285.35119  0.028174486  0.028019961            5 
  845000   0.93610518   -6.8268235    286.14342  0.028219272  0.028004528            4 
  846000   0.90780721   -6.8539604    285.35147  0.028107907   0.02798895            3 
  847000   0.90744724   -6.8511874    286.11174  0.028149522  0.027973249           11 
  848000   0.92163708   -6.8749071    285.12092  0.028018958  0.027957653           10 
  849000   0.92062647   -6.8728022    285.98573  0.028070841  0.027941917            5 
  850000   0.93923753   -6.8103167    286.79516  0.028117173   0.02792619            9 
  851000   0.89751875   -6.8183793    286.88571  0.028092999  0.027910522            5 
  852000   0.92251157   -6.8499218    286.01823  0.027975179  0.027894574            4 
  853000   0.92857442    -6.842598    286.09764   0.02795014  0.027878566            4 
  854000   0.91700387   -6.8695477    286.57778  0.027964264  0.027862492            7 
  855000   0.92328707   -6.7850664    287.29084  0.028001056  0.027846664            3 
  856000   0.89234707   -6.8201333    286.67287  0.027908185  0.027830701            2 
  857000   0.91012265   -6.8783118    286.89231  0.027896958  0.027814686            3 
  858000   0.91831354   -6.8539454    287.01588  0.027876445  0.027798463            5 
  859000   0.91460312   -6.8573927    286.20245  0.027765081   0.02778208            3 
  860000   0.91297194   -6.8804314    286.82252   0.02779288   0.02776564            6 
  861000    0.9014652   -6.8710143    286.23474  0.027703711  0.027749056           11 
  862000   0.90683616   -6.8516038    286.96309  0.027741985  0.027732445            8 
  863000   0.89053883   -6.8481842    286.90214  0.027703954  0.027715988            6 
  864000   0.89751516   -6.8489938    287.49601  0.027729168  0.027699709            4 
  865000   0.91043973   -6.8350627    287.60919  0.027708015  0.027683403            5 
  866000   0.89313046   -6.8631387    287.09673  0.027626706  0.027666893            5 
  867000   0.92425825   -6.8855878     287.7471  0.027657353  0.027650446            4 
  868000   0.90549184   -6.8848149    289.03142  0.027748792  0.027634043            5 
  869000   0.88892585    -6.875793    288.74687  0.027689573  0.027617681            4 
  870000   0.91950203   -6.8609622    288.82619  0.027665344  0.027601461            8 
  871000   0.90388657   -6.8707142    289.95886  0.027741949  0.027585112            7 
  872000   0.91962518   -6.8781476     288.9101   0.02760991  0.027568751            5 
  873000   0.89675715   -6.8864472    288.33778  0.027523652  0.027552075           11 
  874000   0.90248604   -6.8609925    288.98631  0.027553996   0.02753549           15 
  875000   0.90718762   -6.8782105    289.00719  0.027524494   0.02751904            4 
  876000    0.8885888    -6.856635    289.49682  0.027539652  0.027502512            4 
  877000    0.8996265   -6.8294763    290.31476  0.027585971  0.027486101            6 
  878000   0.90864745    -6.862187    289.98989  0.027523717  0.027469853            6 
  879000   0.88318875   -6.8751487    289.57391  0.027452968  0.027453586            5 
  880000   0.89532483   -6.8502621    290.17261  0.027478467  0.027437301            4 
  881000   0.90160374   -6.8859323     290.2115  0.027450955  0.027421093            6 
  882000   0.88394629   -6.8788223    289.84086  0.027384813  0.027404505            5 
  883000   0.91240849    -6.856527    289.73437   0.02734375  0.027388027            5 
  884000   0.90636201   -6.8906979    290.43402  0.027378772   0.02737162            3 
  885000   0.88397207   -6.8803438    290.57262  0.027360887  0.027355096            8 
  886000   0.90055723   -6.8745647    291.09836  0.027379454  0.027338669            2 
  887000   0.92537972   -6.8702456    290.91255   0.02733113   0.02732229           12 
  888000    0.8875076   -6.8830608    291.23178   0.02733031   0.02730594            5 
  889000   0.90729817   -6.8379851    291.23774  0.027300126  0.027289364            2 
  890000   0.88066705   -6.8595383    292.14684  0.027354573    0.0272728            5 
  891000   0.90355578   -6.8820114    291.98781  0.027308998  0.027256166            4 
  892000   0.89776407   -6.8848853    291.28517   0.02721274   0.02723958            5 
  893000   0.91643542   -6.8670547    291.85065  0.027235037  0.027222997            4 
  894000   0.88269382   -6.8695681    292.28884  0.027245418  0.027206612            4 
  895000   0.90060007   -6.8893357    292.22092  0.027208652  0.027190043            8 
  896000   0.88174843   -6.9060318    292.11691  0.027168612  0.027173439            6 
  897000   0.89675754   -6.8922434    291.37674   0.02706956  0.027156534            5 
  898000   0.89004157   -6.8793398    291.64308  0.027064131  0.027139681            6 
  899000   0.89365263   -6.8910915    291.74042   0.02704305  0.027122735            4 
  900000   0.88812325   -6.8564258    292.32542  0.027067169  0.027105777            3 
  901000    0.8843021    -6.837901     292.7373  0.027075222  0.027088838            6 
  902000   0.89567841   -6.9064357    292.08949  0.026985356  0.027071723            4 
  903000   0.90052013   -6.9215355    292.37175   0.02698152   0.02705453            7 
  904000   0.90852377   -6.9046563     292.2129   0.02693703  0.027037431            3 
  905000   0.89009036   -6.8898868    292.94904   0.02697505  0.027020128            7 
  906000   0.89228994   -6.8893705    292.55734  0.026909248  0.027002825            2 
  907000   0.88554769   -6.8731087    293.98524  0.027010771   0.02698559            7 
  908000   0.90717697   -6.8852392    293.34365  0.026922141  0.026968477            6 
  909000   0.89360457   -6.8722036    293.15112  0.026874874  0.026951445            7 
  910000   0.88310741    -6.944349    293.24663  0.026854087   0.02693445            3 
  911000   0.90582619    -6.911736    294.06082  0.026899087  0.026917415            8 
  912000   0.88301661   -6.9256663    294.36474  0.026897363   0.02690056            3 
  913000   0.88598616   -6.9149219    294.28607  0.026860722  0.026883701           10 
  914000    0.9090285   -6.8940418     295.3265  0.026926194  0.026867019            9 
  915000   0.90005003   -6.8880615    294.98159  0.026865354  0.026850559            7 
  916000   0.89419576   -6.9046798    294.66462  0.026807189  0.026834183            5 
  917000   0.88752894   -6.8922381    295.22536  0.026828913  0.026817459           15 
  918000   0.88824556   -6.8914792    294.63858  0.026746422  0.026800894            5 
  919000   0.88848226    -6.912664    295.37268  0.026783885  0.026784308            8 
  920000   0.88080406   -6.9349144    295.81818  0.026795125  0.026767712            5 
  921000   0.88363964   -6.8985892    295.47805  0.026735256  0.026751001            7 
  922000   0.87920336   -6.9005284    296.24259   0.02677536  0.026734367            5 
  923000   0.87563603   -6.8773777    295.81108  0.026707392  0.026717809            3 
  924000    0.8721065   -6.9360255    295.97181  0.026692984  0.026701267            7 
  925000   0.88318836   -6.9087738    296.72309   0.02673181  0.026684825            2 
  926000    0.8606028   -6.9144984    297.34407  0.026758825  0.026668331           10 
  927000   0.87216398   -6.9093769    297.39641  0.026734664   0.02665168            7 
  928000   0.90312559   -6.9194736    296.87821  0.026659322  0.026635014            9 
  929000   0.89044477   -6.8995051    297.06667  0.026647531  0.026618371            4 
  930000    0.8834334   -6.8939304    297.65844  0.026671903  0.026601989            4 
  931000   0.88215716   -6.9180009    297.50477  0.026629499   0.02658569            6 
  932000   0.86560671    -6.898466    298.21174   0.02666414  0.026569413           13 
  933000   0.87676593   -6.9543442    297.46454  0.026568823  0.026553099            5 
  934000   0.88468316   -6.8950987    298.85029  0.026664016  0.026536844           10 
  935000   0.89819504   -6.8952644    297.41717  0.026507769  0.026520724            6 
  936000   0.86290896   -6.8912544    299.50831  0.026665625  0.026504591            4 
  937000   0.88261021   -6.9148934    298.59096  0.026555581  0.026488465            4 
  938000     0.899035   -6.8958124    299.25807  0.026586538  0.026472086            4 
  939000   0.87048382   -6.9275324     299.3906  0.026569986  0.026455771            9 
  940000   0.87693775   -6.9015229    299.13579   0.02651913  0.026439415            8 
  941000   0.88718549   -6.9169382     299.0667   0.02648483  0.026422916            3 
  942000   0.87497192   -6.9541867    298.71487   0.02642559  0.026406479            6 
  943000   0.88490774    -6.927852    299.12767  0.026434046  0.026389842            8 
  944000   0.87692405   -6.9346088    298.66579  0.026365271  0.026373268            7 
  945000   0.90104144   -6.9281134    299.15413  0.026380434  0.026356698           12 
  946000    0.8748203   -6.9225897    298.84049   0.02632492  0.026339989            4 
  947000       0.8766    -6.940922    299.20677  0.026329353  0.026323208            7 
  948000   0.87534584   -6.9367533     299.1198  0.026293934  0.026306594            9 
  949000   0.85639965   -6.9466755     299.5943  0.026307895  0.026289911            7 
  950000   0.87392487   -6.9289555    299.39012  0.026262291   0.02627325            6 
  951000   0.86835153   -6.9215985    298.92327  0.026193767  0.026256686            7 
  952000   0.88748152   -6.9510937    299.91558  0.026253115  0.026240189            4 
  953000   0.90713295   -6.9192954    300.30072  0.026259244  0.026223904           14 
  954000   0.87013322   -6.9438265    300.08779  0.026213119  0.026207463            7 
  955000   0.85762627   -6.9526468     300.0295  0.026180584  0.026190754            3 
  956000   0.88136011   -6.9208468    299.74912  0.026128759  0.026174039            4 
  957000   0.88397942   -6.9245476    300.40527  0.026158592  0.026157527            5 
  958000   0.86629342   -6.9534872     300.8838  0.026172913  0.026140962            9 
  959000   0.86951536   -6.9225531    300.96281  0.026152486   0.02612431            4 
  960000   0.87063363   -6.9231273    300.53675   0.02608826  0.026107764            8 
  961000   0.86454423   -6.9487896    301.09844   0.02610982  0.026091027           12 
  962000   0.87422074   -6.9034593    301.45731  0.026113765  0.026074265            5 
  963000   0.85243722   -6.9127072    301.59359  0.026098442  0.026057438            6 
  964000   0.86843666   -6.9046676     301.4547  0.026059362  0.026040802            7 
  965000   0.87535843   -6.9417145    301.45236  0.026032156  0.026024227           11 
  966000   0.88148356    -6.942628    301.67389  0.026024318  0.026007482            5 
  967000   0.85963267   -6.9295901    302.14116  0.026037673  0.025990905            6 
  968000   0.87109716    -6.945697    302.52894  0.026044158  0.025974406            6 
  969000   0.87095578   -6.9481756     301.8958  0.025962831  0.025957729           12 
  970000   0.86868828   -6.9471916    301.66889  0.025916571   0.02594098            5 
  971000   0.87263954   -6.9648241    302.83108  0.025989622  0.025924289            5 
  972000   0.87950228   -6.9346068     302.7669  0.025957381  0.025907808            6 
  973000   0.87826069   -6.9208259    303.28917  0.025975434  0.025891273           10 
  974000   0.85718726    -6.973181    302.74932  0.025902577  0.025874726            8 
  975000   0.88153052   -6.9608191     302.3647  0.025843137  0.025858203            6 
  976000   0.86604493   -6.9512203     303.3038  0.025896841  0.025841824           15 
  977000   0.85707266    -6.927905    303.98913   0.02592879  0.025825559            8 
  978000   0.86148215   -6.9710632    303.13613  0.025829595  0.025809202            7 
  979000    0.8612643   -6.9512296    304.02089  0.025878523  0.025792668            4 
  980000   0.83837847   -6.9397905    304.17381   0.02586512  0.025776226            7 
  981000    0.8600419   -6.9684321    304.15499  0.025837155  0.025759817            5 
  982000   0.84739732   -6.9561158    303.79344  0.025780163   0.02574336            4 
  983000   0.85269988   -6.9647165    304.37305  0.025803073  0.025726881           13 
  984000   0.84845899    -6.950936    303.72308  0.025721805  0.025710308            7 
  985000   0.87242682   -6.9779874    303.93974  0.025714022    0.0256938            5 
  986000   0.87124184   -6.9876277    304.52616  0.025737505  0.025677447            8 
  987000    0.8502935   -6.9541638    304.50671  0.025709786  0.025661239           14 
  988000   0.84993069   -6.9681232    305.16552  0.025739332  0.025645071           11 
  989000   0.85557797   -6.9687355    305.81843  0.025768321  0.025628815            5 
  990000   0.85948496   -6.9469478    304.84804  0.025660609  0.025612688            6 
  991000   0.86478833   -6.9624814    304.74418  0.025625982  0.025596518            4 
  992000   0.88699293   -6.9630097    306.72687  0.025766706  0.025580356           10 
  993000   0.83640195   -6.9673683    306.44886  0.025717427   0.02556443            5 
  994000   0.85969499   -6.9789165    305.79772  0.025636965  0.025548371            4 
  995000   0.86775814   -6.9486659    306.36968  0.025659102  0.025532237            8 
  996000   0.85777417   -6.9580714    305.82604  0.025587855  0.025515939            5 
  997000   0.87342423   -6.9424506    306.11671  0.025586485  0.025499722            4 
  998000    0.8639588   -6.9724201    306.20763   0.02556844  0.025483558           11 
  999000   0.86334673   -6.9516929    306.91216  0.025601615  0.025467614           10 
 1000000   0.85590242    -6.958866    307.08675  0.025590563  0.025451559           11 
 1001000   0.85671289   -6.9551471    306.93216  0.025552128  0.025435667            6 
 1002000   0.84563185   -6.9925873    307.07053  0.025538134  0.025419709            6 
 1003000   0.86020633   -6.9616978    307.79289  0.025572689  0.025403833            4 
 1004000   0.85330812   -6.9588496    307.17008  0.025495525  0.025387902            6 
 1005000   0.84704859   -6.9905829    308.02858  0.025541341  0.025372082            8 
 1006000    0.8550705    -6.972099    307.69693   0.02548848  0.025356262            9 
 1007000   0.85511393   -6.9843965    307.91189  0.025480958   0.02534051           13 
 1008000   0.85497521   -6.9802875     307.6483  0.025433887  0.025324763            4 
 1009000   0.83988162   -7.0003671     307.6497  0.025408795  0.025308935            4 
 1010000   0.86306876   -6.9952789    308.60903  0.025462791  0.025293013            8 
 1011000    0.8497602   -6.9998777      308.362  0.025417244  0.025277292           11 
 1012000   0.85441275   -6.9818685    308.33177  0.025389639  0.025261516           10 
 1013000   0.85091717   -6.9889331    308.88567  0.025410141  0.025245939            5 
 1014000   0.86342883   -6.9718736      309.152  0.025406969  0.025230129            5 
 1015000   0.86597037   -6.9680892    309.12948  0.025380088  0.025214495           10 
 1016000   0.85433889   -6.9458022      310.417  0.025460712  0.025199051            3 
 1017000   0.84594976   -6.9718041    309.63672  0.025371741  0.025183491           12 
 1018000   0.83765382   -7.0007713    309.40965   0.02532823  0.025167863            3 
 1019000   0.84835257    -6.979714    309.69897  0.025327034  0.025151957            4 
 1020000   0.84587342   -6.9731402    309.60557  0.025294573  0.025135916            6 
 1021000   0.84928842   -6.9839988    309.69818  0.025277357  0.025119961            8 
 1022000   0.83137967   -6.9793875    309.97563  0.025275247  0.025104039           11 
 1023000   0.84428909   -6.9938006    310.42728  0.025287331  0.025088206            8 
 1024000   0.83137798   -6.9955984    309.46643  0.025184443  0.025072344            6 
 1025000   0.85265253   -6.9798541    310.97542  0.025282554  0.025056501            6 
 1026000   0.84541991   -6.9687059     310.6098  0.025228216  0.025040879            6 
 1027000   0.87000836   -6.9918279    309.32956   0.02509977  0.025025094            2 
 1028000   0.83074077   -7.0041352    310.14029  0.025141074  0.025009337            6 
 1029000   0.82996525   -6.9801271    310.63086   0.02515637  0.024993397            5 
 1030000   0.83779456   -6.9993424    310.29462  0.025104743  0.024977567            9 
 1031000   0.84878049   -6.9903441    311.44504  0.025173379  0.024961802            8 
 1032000   0.85866874   -6.9790192    311.22207  0.025130981  0.024946147            5 
 1033000   0.83891963   -6.9749831    311.06347  0.025093858  0.024930404            9 
 1034000   0.86607347   -6.9943901     310.7871  0.025047316  0.024914568            8 
 1035000   0.82200792   -6.9985039      311.003  0.025040499  0.024898737            3 
 1036000   0.82585192    -6.963958     311.5935  0.025063827  0.024882869           12 
 1037000   0.84550682   -7.0109844    310.84926  0.024979851  0.024866955            8 
 1038000   0.83133719   -7.0218842    310.85835  0.024956515  0.024850884            6 
 1039000   0.84100177   -7.0137889     311.1821  0.024958461  0.024834778            8 
 1040000   0.84004884   -7.0168054    310.65416   0.02489216   0.02481862            5 
 1041000   0.84167745   -7.0097138    311.26553  0.024917189  0.024802553            7 
 1042000   0.81662682   -7.0220953    310.93515  0.024866854  0.024786409            7 
 1043000   0.82204127   -7.0112298    311.18768   0.02486319  0.024770257            5 
 1044000   0.82153511    -7.002774    312.20898  0.024920895  0.024754138            8 
 1045000   0.83804311   -7.0184159    310.65313  0.024772977  0.024737988            9 
 1046000   0.83216538   -7.0193264    310.95448  0.024773301   0.02472185            6 
 1047000   0.83120834   -7.0039152    312.32643  0.024858837  0.024705679            9 
 1048000   0.84318291    -7.024606    311.63744  0.024780331   0.02468954            9 
 1049000   0.83856802   -7.0021602    312.05512  0.024789889  0.024673373            6 
 1050000   0.83577865   -7.0409986    311.97344  0.024759797  0.024657214            5 
 1051000   0.83339319   -7.0095725    313.02036  0.024819248  0.024641146            6 
 1052000   0.84909169   -7.0297717    312.35006  0.024742559  0.024625086           11 
 1053000   0.82414579   -7.0182064    312.35716  0.024719624  0.024608997            8 
 1054000   0.82744159   -6.9995082    312.66133  0.024720219  0.024592834            9 
 1055000   0.81779607   -7.0106695    312.40319  0.024676397  0.024576763            3 
 1056000    0.8384923   -6.9693986    313.08503  0.024706836  0.024560782            8 
 1057000   0.82765499   -7.0216802    312.92977  0.024671221    0.0245448           11 
 1058000   0.83496956   -7.0305083    312.91445  0.024646696  0.024528735           11 
 1059000   0.84071408   -7.0234381    312.78134  0.024612948  0.024512652            4 
 1060000   0.83546648    -7.011913    313.43714  0.024641284  0.024496681            6 
 1061000   0.81393023   -6.9910742     313.7404  0.024641879  0.024480862            5 
 1062000   0.81434259   -7.0219718    314.19736  0.024654532  0.024465127            6 
 1063000   0.82515633   -7.0110679    313.18074  0.024551642  0.024449255            9 
 1064000   0.81193992   -7.0488006    313.54096  0.024556779  0.024433273            5 
 1065000   0.83597517    -7.030934    313.26164  0.024511865  0.024417293           10 
 1066000   0.81936862   -7.0354305    314.19697  0.024561989  0.024401354            9 
 1067000   0.82320144   -7.0360099    313.92751  0.024517925  0.024385468            6 
 1068000   0.82802412   -7.0023129    314.09565  0.024508087  0.024369611            6 
 1069000   0.83843282    -7.024684    314.25033  0.024497219  0.024353838           10 
 1070000   0.83432668   -7.0447213    314.39037  0.024485231  0.024338032           10 
 1071000    0.8367337   -7.0272975    315.18784  0.024524419   0.02432231            5 
 1072000   0.83533396   -7.0306227     315.3444  0.024513713  0.024306723            9 
 1073000   0.84054861   -7.0348266     314.9679  0.024461626  0.024291154            9 
 1074000   0.83404239    -7.014229     314.7957  0.024425489  0.024275552            9 
 1075000    0.8254272   -7.0616656    315.93597  0.024491161  0.024260014           14 
 1076000   0.82398263   -7.0030654    315.70598  0.024450587  0.024244428           11 
 1077000   0.83352153   -7.0200381    315.33706  0.024399339  0.024228863            4 
 1078000   0.81461294   -7.0312073    316.39025  0.024458121  0.024213405            5 
 1079000   0.83068357   -7.0164823     316.3788  0.024434569  0.024197994            5 
 1080000   0.80622526   -7.0306477    316.02926  0.024384974  0.024182516            9 
 1081000     0.830184   -7.0500843    316.19396  0.024375112  0.024167037            3 
 1082000   0.82316942   -7.0461358    316.86456  0.024404233  0.024151551            4 
 1083000   0.82455435   -7.0531963    316.85794  0.024381189  0.024135996            5 
 1084000   0.81715239   -7.0511628    315.42821  0.024248786  0.024120386            7 
 1085000   0.82098636   -7.0613215    317.05453  0.024351346  0.024104727            4 
 1086000   0.82244465   -7.0310405    316.76817   0.02430695  0.024089062            8 
 1087000   0.80546382   -7.0441955     316.2806  0.024247209  0.024073393           10 
 1088000   0.80281074    -7.048874    317.50319  0.024318565   0.02405785            5 
 1089000   0.82043398   -7.0668174    317.04863   0.02426145  0.024042368            7 
 1090000   0.82184443   -7.0568765    316.74195  0.024215746  0.024026929            5 
 1091000   0.82524731    -7.084003    317.13755  0.024223766  0.024011424            6 
 1092000   0.82254954   -7.0593013    317.42093  0.024223209  0.023995763            8 
 1093000     0.807646   -7.0852755    316.60331   0.02413871  0.023980154            9 
 1094000   0.80671339   -7.0513176    317.34804  0.024173373  0.023964458            3 
 1095000   0.81803748   -7.0376765    317.23255  0.024142508  0.023948741           11 
 1096000   0.80038063   -7.0511085    317.32787  0.024127727  0.023933036            7 
 1097000   0.81812588   -7.0380079    317.16346  0.024093243   0.02391723            5 
 1098000   0.81751605   -7.0303127     317.6193  0.024105897  0.023901553           10 
 1099000   0.80803578    -7.020167    317.34751  0.024063354  0.023885937            5 
 1100000   0.82031017   -7.0448401    317.33517  0.024040543  0.023870196            8 
 1101000   0.82270769   -7.0562483    318.13112  0.024078952  0.023854508           10 
 1102000   0.81277494   -7.0362078    318.08602  0.024053692  0.023838948           14 
 1103000   0.82730291   -7.0499196    318.25769  0.024044854  0.023823314           13 
 1104000   0.81477327   -7.0404276    317.84465  0.023991897  0.023807824            5 
 1105000   0.79792549   -7.0661966    317.99141  0.023981252   0.02379225            7 
 1106000   0.78877794   -7.0221766    318.64588  0.024008882  0.023776679           10 
 1107000   0.81152849   -7.0330905    318.62212  0.023985405  0.023761143           10 
 1108000   0.82445311   -7.0610493    320.04383  0.024070685  0.023745684           19 
 1109000   0.79346389   -7.0458779    317.87758  0.023886203  0.023730217            9 
 1110000    0.8283314   -7.0399145    319.20792  0.023964558  0.023714679            3 
 1111000   0.80688891   -7.0061191    318.80066  0.023912441  0.023699333            4 
 1112000   0.81207075   -7.0405102    317.86752  0.023821007  0.023683943           13 
 1113000   0.82735446   -7.0641215    319.53496   0.02392445  0.023668513            5 
 1114000   0.82071219   -7.0401023    319.24071  0.023880963  0.023653033            7 
 1115000   0.80795675   -7.0619947    319.68364  0.023892649   0.02363778            9 
 1116000     0.794409   -7.0361399    319.44539  0.023853449  0.023622398            8 
 1117000   0.81242327   -7.0117983    319.86475  0.023863381  0.023607205           10 
 1118000   0.80425933   -7.0734579    320.04301  0.023855323  0.023591953            6 
 1119000    0.7951912   -7.0652509     320.0443    0.0238341  0.023576649            5 
 1120000   0.81858847    -7.094946    319.25206  0.023753873  0.023561384           10 
 1121000   0.80451662   -7.0683241    319.84651  0.023776874  0.023546176            8 
 1122000   0.81298441   -7.0654645    320.24091  0.023784976  0.023531041            7 
 1123000   0.79622445   -7.0925379      320.094  0.023752894   0.02351579            8 
 1124000    0.7966581   -7.0711439    321.42789  0.023830656  0.023500596            4 
 1125000   0.79033222    -7.048233    321.57557  0.023820413  0.023485426            4 
 1126000   0.80763178   -7.0816071    321.02527  0.023758531  0.023470327            5 
 1127000   0.82997804   -7.0697876    320.95469  0.023732231  0.023455266            7 
 1128000   0.80773388   -7.0832443    321.80896  0.023774302  0.023440357            3 
 1129000   0.81214367   -7.0685087     321.2907  0.023714991  0.023425398            6 
 1130000   0.79121473   -7.0792239    321.30636  0.023695159  0.023410275            7 
 1131000   0.79541183   -7.0824213     321.4649   0.02368589  0.023395186           11 
 1132000   0.82616719   -7.0883031    321.22721  0.023647469  0.023380036            7 
 1133000   0.80689695   -7.0429099    321.68543    0.0236603  0.023364897            7 
 1134000   0.78924294   -7.0967664     321.2092  0.023604439  0.023349713            5 
 1135000   0.80311038   -7.0649504    321.33703  0.023593027   0.02333441            5 
 1136000   0.81098331   -7.0882712    322.14831  0.023631772  0.023319267            8 
 1137000   0.79541725   -7.0587783    322.49707  0.023636549  0.023304181            6 
 1138000   0.79721676   -7.0563158    322.06191  0.023583913  0.023289082            8 
 1139000   0.80817776   -7.0798945    321.52036  0.023523585  0.023273897            5 
 1140000   0.81379415   -7.1029268    321.72126  0.023517636  0.023258577            4 
 1141000   0.79944884   -7.0498046     321.4939  0.023480419  0.023243272            5 
 1142000    0.7927213   -7.0880995    322.17242  0.023509371  0.023227927            8 
 1143000   0.80603854    -7.085007    321.28845  0.023424355  0.023212586            7 
 1144000   0.78099762   -7.1204764    321.96417  0.023453101  0.023197259            7 
 1145000   0.78431606   -7.0934029    322.06779  0.023440159  0.023181927            6 
 1146000   0.79562831   -7.1125242    322.56319  0.023455729  0.023166632            5 
 1147000   0.80294583   -7.0941827    322.45854  0.023427676  0.023151254            8 
 1148000   0.79413871   -7.0926529    322.22646  0.023390422  0.023135941            5 
 1149000   0.80187339   -7.1263375    322.40595  0.023383083  0.023120703            9 
 1150000   0.78957443   -7.0777736    322.45696  0.023366446  0.023105427           11 
 1151000   0.78866645   -7.1157081    322.27418  0.023332912  0.023090192           13 
 1152000   0.81946881   -7.0909807    322.52245  0.023330617  0.023075028           11 
 1153000    0.8006027   -7.1073651    323.37169  0.023371762  0.023059882            6 
 1154000   0.78077814   -7.0757756    323.78834  0.023381596  0.023044812            8 
 1155000   0.79621203   -7.1002697    322.57401  0.023273738   0.02302978            8 
 1156000   0.78635021   -7.1137479    323.77091  0.023339887  0.023014788           11 
 1157000   0.78325421   -7.0867726    322.84449  0.023252988  0.022999697            9 
 1158000   0.77697729   -7.0914111    323.41092   0.02327367  0.022984683           12 
 1159000   0.77958323   -7.0618635    324.01802  0.023297241  0.022969811            5 
 1160000   0.78605584   -7.1052907     324.4914  0.023311164  0.022954897            6 
 1161000   0.80001122   -7.0784888    324.70124  0.023306147  0.022939975            4 
 1162000   0.79245806   -7.1147326    324.02522  0.023237609  0.022925025            7 
 1163000   0.80235992   -7.1127635    323.22733  0.023160456  0.022910055            7 
 1164000   0.79574132   -7.1138777    323.41122  0.023153724  0.022895008           10 
 1165000   0.79232503   -7.1043803    323.54439  0.023143375  0.022879905            6 
 1166000    0.7889369   -7.1121539    324.07874  0.023161716  0.022864799           23 
 1167000   0.78603712   -7.1132518    323.14782  0.023075394  0.022849559           12 
 1168000   0.79194922   -7.1310542    323.88053  0.023107915  0.022834388           11 
 1169000   0.78365921   -7.0986581    323.74695  0.023078625  0.022819252            7 
 1170000   0.78163426   -7.0750247    324.15444  0.023087923   0.02280409            6 
 1171000   0.77531054   -7.1174121    324.43643  0.023088274  0.022789069           11 
 1172000   0.79891612   -7.1424257    324.28146  0.023057556  0.022774033            7 
 1173000   0.79078435   -7.0965342     324.4879  0.023052565  0.022759086            7 
 1174000   0.76831265   -7.1153793    324.47612  0.023032093  0.022744074           13 
 1175000   0.76648168   -7.1151125    324.69629  0.023028106  0.022729024            6 
 1176000   0.76122456   -7.0908814    325.18845  0.023043399   0.02271406            6 
 1177000   0.78396067   -7.1341024    325.21598   0.02302577  0.022699043           11 
 1178000   0.78620011   -7.1067481     325.0925  0.022997489  0.022683993            5 
 1179000   0.79501114   -7.1012872    324.77392  0.022955465  0.022668928            6 
 1180000    0.7754515   -7.1062582    324.95837  0.022949038   0.02265381           10 
 1181000   0.77906255   -7.1068512    324.83996  0.022921251  0.022638615            6 
 1182000   0.77930979   -7.1213996    324.66255  0.022889351  0.022623461           15 
 1183000   0.78522846   -7.1470628    324.35121  0.022848071  0.022608269           15 
 1184000   0.80576648   -7.1114038    325.45416  0.022906402  0.022593061            7 
 1185000   0.77718198   -7.0988423    325.44615  0.022886508   0.02257798            8 
 1186000   0.78678191   -7.1285175    324.86525  0.022826395  0.022562804           17 
 1187000    0.7839508   -7.1391993    325.40803   0.02284527  0.022547617           15 
 1188000   0.77860959   -7.1559257    325.01543  0.022798501  0.022532448           10 
 1189000   0.77060275   -7.1480389    325.19361  0.022791814  0.022517349            7 
 1190000   0.77537554    -7.106691    325.21793  0.022774365  0.022502252            5 
 1191000   0.76640238   -7.1493892    324.55288   0.02270871  0.022487049           11 
 1192000   0.75571799   -7.1482869    325.45237  0.022752543  0.022471847           10 
 1193000   0.77535781   -7.1237268    324.85181  0.022691521  0.022456736            8 
 1194000   0.78253485   -7.1367671    324.71961   0.02266329  0.022441533            8 
 1195000    0.7735606   -7.1075688    324.88328  0.022655738  0.022426298           10 
 1196000   0.78733793   -7.1381407    325.12448  0.022653601  0.022411001           11 
 1197000   0.78358513   -7.1358386    325.58634  0.022666829  0.022395788            6 
 1198000   0.76544227   -7.0919871    327.14068   0.02275603  0.022380661           10 
 1199000   0.77474491   -7.1598256    326.05648  0.022661696   0.02236562            9 
 1200000   0.78389302   -7.1310106    326.00238  0.022639054  0.022350549            7 
 1201000   0.78889314   -7.1375175    326.29547  0.022640541  0.022335554            5 
 1202000   0.77746719   -7.1360481    326.16118  0.022612395  0.022320503            7 
 1203000   0.76203193   -7.1469628    326.59801  0.022623858   0.02230547            8 
 1204000   0.77426391   -7.1323153    325.97301  0.022561809  0.022290437            7 
 1205000   0.77120967   -7.1422118    326.27098  0.022563692  0.022275407           13 
 1206000   0.76700933   -7.1339282    325.55729  0.022495667  0.022260421            8 
 1207000   0.75002528   -7.1308464    327.22086  0.022591885  0.022245406            8 
 1208000    0.7702959   -7.1475213    326.79726  0.022543961  0.022230398            4 
 1209000   0.75566217   -7.1507774    325.97403  0.022468571   0.02221534           19 
 1210000   0.77645795   -7.1485354    326.29119  0.022471845  0.022200277           20 
 1211000   0.77422131    -7.154601    326.81557  0.022489373  0.022185126           11 
 1212000   0.78843614   -7.1506798    327.01204  0.022484326  0.022169965            8 
 1213000   0.77996392   -7.1480594    326.79893  0.022451149  0.022154841           13 
 1214000   0.76493182   -7.1805729    326.73911   0.02242855  0.022139652           11 
 1215000   0.77514507   -7.1251968    326.07761  0.022364719   0.02212451           13 
 1216000   0.76756595   -7.1363439    326.82681   0.02239767  0.022109423           19 
 1217000   0.76405665   -7.1661415    326.32147  0.022344664  0.022094346           23 
 1218000   0.77662072   -7.1657942    326.38086  0.022330382  0.022079253            9 
 1219000   0.76781503    -7.166232    327.21223  0.022368897  0.022064127            7 
 1220000   0.77681364   -7.1751149     326.8206  0.022323812  0.022049073           10 
 1221000   0.75228299   -7.1670498    325.82157  0.022237344  0.022033925            6 
 1222000   0.77230235     -7.15643    326.71455  0.022280043  0.022018739            8 
 1223000   0.77432875   -7.1666805    327.01059  0.022281997  0.022003587           16 
 1224000   0.74694392   -7.1670703    326.67324  0.022240825  0.021988489            6 
 1225000   0.75925021    -7.151791    327.07659  0.022250108  0.021973345            5 
 1226000   0.75636161    -7.148862    326.76651  0.022210883  0.021958242           11 
 1227000   0.77257555   -7.1633261     326.7895  0.022194342  0.021943148            4 
 1228000    0.7606786   -7.1449859    326.76903   0.02217488   0.02192802           26 
 1229000   0.77894537   -7.1449225    326.71737  0.022153334  0.021912906            7 
 1230000    0.7667595   -7.1696616    326.81332  0.022141824  0.021897714           33 
 1231000   0.77031248   -7.1830834    326.59416  0.022109001  0.021882538            4 
 1232000   0.76935486   -7.1538595    327.59837   0.02215898  0.021867355            5 
 1233000   0.75521923   -7.1758505    327.29121  0.022120249  0.021852178           11 
 1234000   0.75849713   -7.1890894    327.21399  0.022097109  0.021836983           13 
 1235000   0.77853424    -7.172569    326.50113  0.022031115  0.021821743           13 
 1236000   0.76577853   -7.1983853    327.31292  0.022068024  0.021806469            8 
 1237000   0.75168538   -7.1346364    326.99102  0.022028498  0.021791344            5 
 1238000   0.76272173   -7.1709257     327.9476  0.022075094  0.021776323            9 
 1239000   0.75145975   -7.1609661    328.56307  0.022098673  0.021761267           16 
 1240000   0.76446855   -7.1602148    328.02041  0.022044383  0.021746295           11 
 1241000   0.76558493   -7.1855371    327.73473  0.022007436  0.021731379            8 
 1242000    0.7637859   -7.1812301    328.06651  0.022011977  0.021716453           12 
 1243000   0.77830671   -7.1682219    328.44097  0.022019373  0.021701545            8 
 1244000   0.76349981   -7.1918416    328.28051  0.021990924  0.021686605           11 
 1245000   0.76385371   -7.1827175    329.03203  0.022023563  0.021671708            4 
 1246000   0.74613038   -7.1856564    328.62898  0.021978931  0.021656793           23 
 1247000   0.73695588   -7.1766755    328.61243  0.021960199  0.021641906           10 
 1248000   0.75684337   -7.1793243    328.62697  0.021943574  0.021626999           18 
 1249000   0.75991045   -7.1973688    328.56816  0.021922082  0.021612098           16 
 1250000   0.77429822   -7.1904804    328.70039   0.02191336  0.021597188           20 
 1251000   0.76007387   -7.1683287    328.81394  0.021903407  0.021582375           31 
 1252000   0.74513755   -7.2050376    329.25113  0.021915011  0.021567589           22 
 1253000   0.74112344   -7.1806767      329.673  0.021925578  0.021552756           22 
 1254000   0.76243814   -7.1587351    329.44531  0.021892963  0.021538032           14 
 1255000    0.7592998   -7.1744557    328.68837  0.021825257  0.021523208            6 
 1256000   0.75342252   -7.1700336    329.17128   0.02183992   0.02150836            7 
 1257000   0.73351771   -7.1811822    329.42628  0.021839451   0.02149348            8 
 1258000   0.73979477   -7.1868779    329.72327  0.021841764  0.021478674            7 
 1259000   0.75437585   -7.1833211     329.0415  0.021779289  0.021463926           13 
 1260000   0.75988836   -7.2006056    329.50543  0.021792687  0.021449107           10 
 1261000   0.74454221    -7.193643    329.24773  0.021758375  0.021434408            6 
 1262000   0.75590251   -7.1985843    329.15137  0.021734771  0.021419696            8 
 1263000   0.74003575   -7.1853502     330.1375  0.021782628  0.021404978            9 
 1264000   0.75148452   -7.1989982    329.74977  0.021739832  0.021390311           15 
 1265000   0.74028127   -7.1690492    330.21467  0.021753272   0.02137564           13 
 1266000   0.75929195   -7.1927118    329.63317  0.021697813  0.021360922           30 
 1267000   0.74614514   -7.2157017    330.07938  0.021710035   0.02134619           10 
 1268000   0.74210773    -7.163367    330.77667   0.02173874  0.021331545           17 
 1269000   0.73852999   -7.1748143    329.85994  0.021661409  0.021316916           11 
 1270000   0.76897825   -7.1776424    330.62762  0.021694725  0.021302297           14 
 1271000   0.75375204   -7.1853879    330.41896  0.021663976  0.021287618           11 
 1272000   0.73966694   -7.1970109    329.89599  0.021612683  0.021272898           33 
 1273000   0.76055218   -7.2120686    330.56524  0.021639516   0.02125819           19 
 1274000   0.73890381   -7.2206327     330.1028  0.021592281  0.021243461           32 
 1275000   0.73536627   -7.1930211    329.65977   0.02154639  0.021228718           26 
 1276000   0.74045094   -7.2036732    330.40569  0.021578219  0.021214004           15 
 1277000   0.74606284     -7.19689    330.17244    0.0215461  0.021199321           39 
 1278000   0.75248987   -7.2029438    330.97233  0.021581399  0.021184631           10 
 1279000   0.75030214    -7.218887    330.88462   0.02155881  0.021170035            5 
 1280000   0.72105303   -7.1949564    330.35986  0.021507803  0.021155489           16 
 1281000   0.75662191   -7.1938944    330.79284   0.02151918  0.021140963           16 
 1282000    0.7364087   -7.1928753    331.71194  0.021562139  0.021126375            8 
 1283000   0.74930829   -7.1958618     331.3775   0.02152361  0.021111892           27 
 1284000    0.7459409   -7.2204387    330.88394  0.021474814  0.021097367            7 
 1285000   0.72615531   -7.2227046     330.8906  0.021458535  0.021082843           14 
 1286000   0.73416718   -7.1913014    331.51597  0.021482372  0.021068371            5 
 1287000   0.75499284   -7.1904369    331.01917  0.021433513  0.021053853           13 
 1288000   0.74185284   -7.2284645     330.9352  0.021411439  0.021039282           13 
 1289000    0.7471613   -7.2113604    330.39728  0.021360052  0.021024678            7 
 1290000   0.74395965   -7.1931913    331.31803  0.021402974  0.021010188           13 
 1291000   0.74469827   -7.1880956    331.28809  0.021384462  0.020995654           14 
 1292000   0.72761115   -7.2152585    332.16145  0.021424242  0.020981131           14 
 1293000   0.73302587   -7.2299615    330.94339  0.021329169  0.020966543           10 
 1294000   0.72712834   -7.2229626    330.90472  0.021310196  0.020951939            7 
 1295000   0.74068164   -7.2123684    331.13816  0.021308762  0.020937338           11 
 1296000   0.73600511   -7.2004923    330.83386  0.021272754  0.020922744           11 
 1297000   0.73116064   -7.2056101    331.70053  0.021312036   0.02090817           19 
 1298000   0.74338458   -7.2149778    331.46728  0.021280642  0.020893604           18 
 1299000   0.72949641   -7.2228505    331.88931  0.021291334  0.020878999           21 
 1300000    0.7302208   -7.2241203    330.74362  0.021201514  0.020864388           10 
 1301000   0.73338716   -7.2385169    331.35571  0.021224424   0.02084982           13 
 1302000   0.73005128   -7.2242141     331.7078  0.021230658  0.020835272           13 
 1303000   0.73384646   -7.2179142    332.10127  0.021239529  0.020820707           17 
 1304000   0.72438285   -7.2328296    330.95807  0.021150183  0.020806099           22 
 1305000    0.7432818   -7.2812054    331.57884  0.021173617  0.020791439           20 
 1306000      0.71921   -7.2358558    331.27097  0.021137759  0.020776849           22 
 1307000   0.72961392   -7.2439209    331.52674  0.021137895  0.020762156           44 
 1308000   0.72285456   -7.2310594    331.09091  0.021093967  0.020747429           14 
 1309000   0.73826568   -7.2420754    330.98476  0.021071095   0.02073269            5 
 1310000   0.73228753   -7.2417897    330.84869  0.021046354  0.020717952            8 
 1311000    0.7256495   -7.2569145    331.89615  0.021096882  0.020703283           20 
 1312000   0.72913396   -7.2313656     331.3754  0.021047726  0.020688557           16 
 1313000   0.72197498   -7.2436968    331.60766  0.021046437  0.020673854           19 
 1314000   0.72653885    -7.266497    331.42124  0.021018597  0.020659204           14 
 1315000    0.7297314   -7.2617081    330.84525  0.020966112  0.020644554           14 
 1316000   0.72385554   -7.2548597    331.60792  0.020998475  0.020629926           31 
 1317000   0.74598472   -7.2465766    331.96557  0.021005162  0.020615322           11 
 1318000   0.71983095   -7.2373137    331.61336  0.020966955  0.020600755           20 
 1319000   0.72371485   -7.2246472    331.74403  0.020959314  0.020586139           15 
 1320000   0.71749954   -7.2325676     331.1312  0.020904747  0.020571555           20 
 1321000   0.72745672   -7.2605089    332.04791  0.020946752  0.020556903           27 
 1322000    0.7092919   -7.2507752    331.36744  0.020888013   0.02054229           33 
 1323000   0.74835387   -7.2506328    331.32283  0.020869415   0.02052765           23 
 1324000   0.71118645   -7.2432777    331.82567  0.020885302  0.020513035           17 
 1325000   0.72691686   -7.2388251    332.50006  0.020911953  0.020498469           39 
 1326000    0.7397199   -7.2083383    331.68434  0.020844918  0.020483944            7 
 1327000   0.71355276    -7.245487    332.03559  0.020851268  0.020469477           24 
 1328000   0.72591418    -7.240585     331.7114  0.020815223  0.020454904           16 
 1329000   0.70872752   -7.2435724     332.2595  0.020833929  0.020440327           11 
 1330000   0.72829236   -7.2616966    331.66437  0.020780976  0.020425786           15 
 1331000   0.71081193   -7.2584607    332.05046  0.020789535  0.020411212            9 
 1332000   0.73457363   -7.2500765    331.84447   0.02076104   0.02039669            8 
 1333000   0.72099847   -7.2686371    332.33117  0.020775892  0.020382241           11 
 1334000   0.70677697   -7.2302033    332.14554  0.020748722  0.020367689           20 
 1335000    0.7035907   -7.2803243    332.32045  0.020744098  0.020353163           16 
 1336000   0.71809558   -7.2621648    332.31875  0.020728465  0.020338657           26 
 1337000   0.72709705   -7.2473827    332.82909   0.02074477  0.020324219           28 
 1338000   0.72919298   -7.2514785    333.02697   0.02074159  0.020309809           17 
 1339000   0.71822893   -7.2645666    332.43447  0.020689225   0.02029531           23 
 1340000   0.70710947   -7.2516828    333.22604  0.020723012  0.020280826            8 
 1341000   0.72053612   -7.2600142    332.46357  0.020660177  0.020266309           14 
 1342000    0.7238121   -7.2552395    332.14209  0.020624819  0.020251793           13 
 1343000   0.71992974   -7.2481971    332.11895  0.020608026  0.020237336            9 
 1344000   0.71496423   -7.2749221    332.26066  0.020601479  0.020222879           24 
 1345000    0.7171821   -7.2680279    332.82851  0.020621345  0.020208421           22 
 1346000   0.71528626   -7.2515771    333.23818  0.020631388  0.020194013           27 
 1347000   0.70390853   -7.2447354    333.11806   0.02060864  0.020179675           16 
 1348000   0.73411598   -7.2395057    333.02882  0.020587835  0.020165381            9 
 1349000   0.71809971   -7.2367338    332.87598  0.020563132  0.020151038           17 
 1350000   0.70838438   -7.2819054    332.71651  0.020538056  0.020136612           13 
 1351000   0.70593292   -7.2920597    332.67423  0.020520246  0.020122148           27 
 1352000   0.70798399   -7.2506325    333.24872  0.020540478  0.020107668           25 
 1353000    0.7171329   -7.2715547    333.41001  0.020535231  0.020093279           20 
 1354000   0.72443748   -7.2379093    332.87934  0.020487404  0.020078913           23 
 1355000   0.70990213   -7.2591562    332.73201  0.020463223  0.020064538           12 
 1356000   0.70592409   -7.2955182    333.23516  0.020479054  0.020050105           12 
 1357000   0.70705045    -7.260725    332.96657  0.020447468  0.020035676           25 
 1358000   0.69789396   -7.2957114    333.47573  0.020463655  0.020021269           28 
 1359000   0.70424199    -7.299872    332.76292  0.020404889  0.020006842           14 
 1360000   0.70272469   -7.2919598    332.14921   0.02035228  0.019992467           14 
 1361000   0.70022438   -7.2940316    333.14585   0.02039835  0.019978077           15 
 1362000   0.70726942    -7.289676     332.8174  0.020363277  0.019963691           34 
 1363000    0.6969054    -7.288866    332.21461  0.020311483   0.01994927           28 
 1364000   0.70388141   -7.2801495    332.48501  0.020313111  0.019934848           16 
 1365000   0.69462478   -7.2704983     332.5778  0.020303895  0.019920398           17 
 1366000   0.71363458    -7.266533    333.16434  0.020324813  0.019905969           10 
 1367000   0.71273641   -7.2855967    333.46441  0.020328238  0.019891592           18 
 1368000   0.69647376   -7.2808701     333.1708  0.020295492  0.019877189            9 
 1369000   0.70607707   -7.2948039    332.59084  0.020245364  0.019862776           10 
 1370000   0.72143305    -7.310661    332.85813  0.020246845  0.019848355           17 
 1371000    0.7035225   -7.2992672     333.5551  0.020274441  0.019834026            9 
 1372000   0.71418363   -7.2699726    333.49263  0.020255869  0.019819672           17 
 1373000    0.7136541   -7.2845895    333.19113  0.020222817   0.01980534            7 
 1374000   0.69998333   -7.2838799    333.35696  0.020218156  0.019791019           21 
 1375000   0.72006975   -7.3018492    332.92414   0.02017722  0.019776679           12 
 1376000   0.69489166   -7.2822276    333.36166  0.020189054  0.019762326           19 
 1377000   0.68294866   -7.2812309    333.46556   0.02018068   0.01974799           32 
 1378000   0.70325905   -7.3042339    333.23885  0.020152325  0.019733632           36 
 1379000   0.70015134   -7.3071321     333.0226  0.020124643   0.01971926           35 
 1380000   0.69704711   -7.3019159    333.95375   0.02016629  0.019704898           35 
 1381000   0.69976966    -7.275968    333.46221  0.020122026  0.019690601           24 
 1382000   0.68643955   -7.3083132    332.93324  0.020075569  0.019676249           32 
 1383000   0.68921488   -7.2935282    333.31076  0.020083801  0.019661895           18 
 1384000   0.69954022   -7.3031201    332.84648  0.020041334  0.019647592           13 
 1385000   0.70231732   -7.3034901     332.8691  0.020028225  0.019633282           22 
 1386000   0.69831482     -7.31853    333.08487  0.020026748  0.019618978           27 
 1387000   0.67668425   -7.3178589     333.5901  0.020042664  0.019604755           22 
 1388000   0.69525414   -7.2969313     333.3041  0.020011053  0.019590523           16 
 1389000   0.69310252   -7.2878347    334.41609   0.02006336  0.019576322           19 
 1390000   0.68977667   -7.3167979    334.18784  0.020035242  0.019562144           44 
 1391000    0.6932537   -7.3103702    333.83569  0.019999742  0.019547953           26 
 1392000   0.69560363    -7.304563    333.65021   0.01997427  0.019533792           24 
 1393000   0.70506263   -7.3145197    334.08119  0.019985714  0.019519706            6 
 1394000   0.70477919   -7.2843298    334.82915   0.02001609  0.019505647            6 
 1395000   0.68027151   -7.2830465    334.10797   0.01995866  0.019491624           23 
 1396000   0.68966289   -7.2693395    334.62841   0.01997543  0.019477597            7 
 1397000   0.71282928   -7.2868318     333.9125  0.019918426  0.019463617           33 
 1398000   0.68827121   -7.2925963    335.10123  0.019975038  0.019449594           19 
 1399000   0.68959112   -7.2942204    334.46963  0.019923137  0.019435611           14 
 1400000   0.71803356   -7.2857477    334.53763  0.019912954  0.019421636           15 
 1401000   0.68755888   -7.2883138    335.10093  0.019932247  0.019407661           16 
 1402000   0.69901329   -7.3093238     334.5386  0.019884605  0.019393717            5 
 1403000   0.68020091   -7.3085993    334.58404  0.019873132  0.019379729           12 
 1404000   0.69729394   -7.2963389    334.31387  0.019842941  0.019365723           10 
 1405000   0.70741702   -7.3172636    333.84164  0.019800809  0.019351688           10 
 1406000   0.67475484   -7.2906868     334.0576  0.019799526  0.019337643           14 
 1407000   0.69264782   -7.3040084    334.04653  0.019784798  0.019323615           12 
 1408000    0.6851076   -7.2838446    335.40616  0.019851217  0.019309596           19 
 1409000    0.6986631   -7.3032388    334.49326  0.019783136  0.019295603           12 
 1410000   0.69221978   -7.3359391     334.6765  0.019779935  0.019281595           10 
 1411000   0.69330724   -7.3121876    334.79249  0.019772767  0.019267608           20 
 1412000   0.68990831   -7.2973659    334.85964  0.019762727  0.019253617           14 
 1413000   0.67970295   -7.3125965    334.68224  0.019738278  0.019239616           16 
 1414000   0.67351399   -7.3081629    334.75887  0.019728835    0.0192257           16 
 1415000   0.69914195   -7.3114611    334.69831  0.019711326  0.019211757           27 
 1416000   0.70135982    -7.325555    334.51517  0.019686627  0.019197852           21 
 1417000   0.67775423   -7.3083397    334.77205  0.019687841  0.019183932           15 
 1418000   0.68518742   -7.2982696    334.52508  0.019659443  0.019170035           21 
 1419000   0.66828933    -7.326787    334.44985  0.019641171  0.019156119           13 
 1420000   0.68876973   -7.3180083    335.01378  0.019660433  0.019142162           18 
 1421000   0.67983661   -7.3262179     334.4268  0.019612174  0.019128248           19 
 1422000   0.67917094   -7.3250989    334.94393  0.019628688   0.01911435           24 
 1423000   0.70003852    -7.313586     334.3266  0.019578742  0.019100458            6 
 1424000   0.69001452   -7.3233199    334.70482  0.019587127  0.019086606           11 
 1425000   0.68997281   -7.3181692    335.14105  0.019598892  0.019072782           10 
 1426000   0.67890173   -7.3575591    334.41174  0.019542528  0.019058925           11 
 1427000   0.67363783   -7.3379289    334.37842  0.019526887  0.019045007           20 
 1428000   0.68572042   -7.3495701    335.21479  0.019562021  0.019031125           31 
 1429000   0.68229974   -7.3301773    335.14385  0.019544195  0.019017209           14 
 1430000   0.69070993   -7.3494165    333.88911  0.019457407  0.019003266           23 
 1431000   0.68717744   -7.3356541    334.82158  0.019498112  0.018989397           14 
 1432000   0.69327049   -7.3391271    334.49186  0.019465309  0.018975506           11 
 1433000   0.67481088   -7.3613171    334.57867  0.019456773  0.018961691           15 
 1434000   0.67578331   -7.3537474    334.60692  0.019444847  0.018947854           28 
 1435000   0.68165623   -7.3388897    334.47274  0.019423504  0.018934046           26 
 1436000   0.67268111   -7.3600905    335.66518  0.019479177  0.018920232           15 
 1437000   0.68438175   -7.3565862    334.74917  0.019412501  0.018906356           35 
 1438000   0.67827802   -7.3381323    334.82353  0.019403311  0.018892525           15 
 1439000   0.68460015   -7.3567325    334.83535  0.019390511  0.018878705           27 
 1440000   0.69179027   -7.3740232    334.84674  0.019377705  0.018864883           45 
 1441000   0.69852738   -7.3354536    334.52902  0.019345884  0.018851096           21 
 1442000   0.68303791   -7.3437246    335.34317  0.019379517  0.018837283           26 
 1443000   0.68662473   -7.3147726    335.07677  0.019350703  0.018823509           16 
 1444000     0.688585   -7.3403138    334.36155  0.019296027  0.018809793           28 
 1445000   0.67608125   -7.3565934    335.43088  0.019344341  0.018796069           15 
 1446000   0.67283885   -7.3395349      335.264  0.019321346  0.018782326           27 
 1447000   0.67158973   -7.3298066    336.23886  0.019364136  0.018768658           26 
 1448000   0.68164533   -7.3415505    335.81389  0.019326306  0.018754975           11 
 1449000   0.67068297   -7.3512911    335.14503  0.019274502  0.018741291           46 
 1450000   0.66036642    -7.351518    335.59195  0.019286894  0.018727577           22 
 1451000   0.69411733   -7.3613387     335.1777  0.019249811  0.018713854           20 
 1452000   0.66208255   -7.3706849    335.48618  0.019254257  0.018700128           31 
 1453000   0.66834041   -7.3396015    335.40088  0.019236114  0.018686485           33 
 1454000   0.66747465   -7.3432866    335.84875  0.019248553  0.018672855           21 
 1455000   0.67737517   -7.3688855    335.27467  0.019202444  0.018659245           17 
 1456000   0.68210859   -7.3720684    334.95504  0.019170961  0.018645603           22 
 1457000   0.66901078    -7.355094    335.58176  0.019193649  0.018631962           38 
 1458000   0.67485795   -7.3507345    335.86457  0.019196649  0.018618317           24 
 1459000     0.668043   -7.3365621    335.19689  0.019145356  0.018604735            8 
 1460000   0.67306193    -7.361198    335.82852  0.019168294  0.018591123           19 
 1461000   0.65650388   -7.3649071    335.63978  0.019144409  0.018577523           30 
 1462000   0.66901272   -7.3745009     335.3886  0.019116997  0.018563886           26 
 1463000   0.68523379   -7.3728808    336.01103  0.019139384  0.018550274           23 
 1464000   0.66006817   -7.3597851    335.86305  0.019117888   0.01853669           23 
 1465000   0.68029416   -7.3780744    334.82803  0.019045963  0.018523093           14 
 1466000   0.67597482   -7.3298678    335.96666  0.019097696  0.018509526           31 
 1467000   0.64912444    -7.363241    335.28025  0.019045686  0.018495995           23 
 1468000   0.69494201   -7.3602148     336.1088  0.019079745  0.018482495           25 
 1469000   0.64889857   -7.3534112     335.6859  0.019042767  0.018469016           21 
 1470000   0.65496324   -7.3433989    336.55179    0.0190789  0.018455541           36 
 1471000   0.67757129   -7.3497613    336.25336  0.019049023   0.01844209           28 
 1472000   0.65281977   -7.3673126    335.83897  0.019012623  0.018428619           10 
 1473000    0.6677551   -7.3589548    336.18787  0.019019454  0.018415141           10 
 1474000   0.67188819   -7.3783278    336.25711  0.019010465  0.018401708            9 
 1475000   0.66339907   -7.3855592    335.60529  0.018960751  0.018388263           15 
 1476000   0.67232862   -7.3515639    336.06605  0.018973919  0.018374811           17 
 1477000   0.66476674   -7.3376644    336.68016  0.018995721   0.01836143           13 
 1478000   0.66754566   -7.3540717    335.52767  0.018917888  0.018348038           15 
 1479000    0.6561144   -7.3726878    336.35144  0.018951512   0.01833465           19 
 1480000   0.66036642   -7.3725998    336.50112  0.018947135  0.018321249           14 
 1481000   0.65534326   -7.4071231     335.9982  0.018906043   0.01830781           17 
 1482000   0.66792407   -7.3894444    335.59252  0.018870475  0.018294364            7 
 1483000    0.6752366   -7.3493441    335.85199   0.01887233   0.01828089           18 
 1484000   0.66629048   -7.3838155    336.11756  0.018874526  0.018267435           19 
 1485000   0.66744361   -7.3715762    336.20539  0.018866744  0.018253997            7 
 1486000   0.66907837    -7.363099    335.52424   0.01881585  0.018240611           14 
 1487000   0.66111264   -7.3712653    336.61058  0.018864076  0.018227246           18 
 1488000   0.66675739   -7.3834866    336.05954  0.018820539  0.018213863           11 
 1489000   0.65944822   -7.3841094    336.12412  0.018811513  0.018200506           46 
 1490000   0.65407492   -7.3744204    336.13513  0.018799504  0.018187121           38 
 1491000   0.64627029   -7.3961908    336.34682  0.018798727  0.018173773           31 
 1492000   0.66918896   -7.3773009    336.63713  0.018802342  0.018160446           48 
 1493000    0.6567291   -7.3782884    336.67634  0.018791937  0.018147144           53 
 1494000   0.65865535   -7.3837421    336.12601  0.018748662  0.018133821           49 
 1495000   0.64779095   -7.3976185    335.70141  0.018712453  0.018120495           45 
 1496000   0.65675873   -7.3714635     335.8033   0.01870562  0.018107157           23 
 1497000    0.6433799    -7.387466     335.9407  0.018700774  0.018093813           41 
 1498000   0.65542618   -7.3757316    335.91662   0.01868695  0.018080515           66 
 1499000   0.64600201   -7.4107544    336.71284  0.018718748  0.018067188           38 
 1500000   0.65733026   -7.4134548    336.45532  0.018691962  0.018053883           44 
 1501000   0.64414552   -7.3983256    336.96806  0.018707976  0.018040567           29 
 1502000   0.65449302   -7.4043688    336.40683  0.018664383  0.018027267           20 
 1503000   0.65639869   -7.4100863    336.56786  0.018660893  0.018014013           15 
 1504000    0.6518509    -7.404253    335.76915   0.01860423   0.01800075           16 
 1505000   0.66200485   -7.3873233    335.74765  0.018590679  0.017987472           30 
 1506000    0.6316123   -7.4101771    337.48893  0.018674686  0.017974188           30 
 1507000   0.64927012   -7.3850699    336.37672  0.018600792  0.017960913           23 
 1508000   0.65338009   -7.3792154     336.5054  0.018595568  0.017947656           13 
 1509000   0.65172177   -7.4143275    335.66107  0.018536617  0.017934445           33 
 1510000   0.63327766   -7.4153083     336.3568  0.018562737  0.017921209           21 
 1511000   0.64260318   -7.4164785    336.23531  0.018543752   0.01790797           12 
 1512000    0.6627124   -7.4248978    336.44992  0.018543315  0.017894753           34 
 1513000   0.65903256   -7.4153678    335.78563  0.018494472   0.01788155           14 
 1514000   0.64926382   -7.4079773     336.3841  0.018515197  0.017868327           16 
 1515000   0.65285688   -7.3892347    336.22794  0.018494386  0.017855092           32 
 1516000   0.65455965   -7.4328062    335.97804   0.01846845  0.017841874           24 
 1517000   0.66719906   -7.4149824    336.17459  0.018467072  0.017828686           14 
 1518000    0.6353334   -7.4139565    336.49948  0.018472743  0.017815512           20 
 1519000   0.65382757   -7.4174567    336.66135  0.018469462  0.017802372           19 
 1520000   0.63798164   -7.3889551    336.62891  0.018455532   0.01778925           19 
 1521000    0.6543785   -7.4101715    336.50201  0.018436446  0.017776133           20 
 1522000   0.64560464   -7.3931995    336.72663  0.018436631  0.017763017           16 
 1523000   0.63220686   -7.4105579    336.27866  0.018400014  0.017749905           22 
 1524000   0.64063639   -7.4305278    336.09488  0.018377892  0.017736777           22 
 1525000   0.64339345   -7.4278255    336.21697  0.018372512  0.017723645           23 
 1526000   0.65518674   -7.4167612    336.18594  0.018358778  0.017710511           14 
 1527000   0.64627691   -7.4354343    336.33198  0.018354725   0.01769733           24 
 1528000   0.65089416   -7.4322224    336.53828  0.018353964  0.017684151           13 
 1529000    0.6320907    -7.426401    336.81402  0.018356988  0.017670959           27 
 1530000   0.65490788   -7.4222887    335.82488  0.018291116  0.017657817           17 
 1531000   0.65428792   -7.4309366    336.20889   0.01830007  0.017644655           20 
 1532000    0.6353481   -7.4349581    336.53918  0.018306091  0.017631528           36 
 1533000   0.63332712   -7.4403262    336.09168  0.018269824  0.017618424           40 
 1534000   0.63681049   -7.4330456    336.51663  0.018280999  0.017605319           33 
 1535000   0.64386188   -7.4092949    336.59536  0.018273364  0.017592246           35 
 1536000   0.63761815    -7.418679    336.02477  0.018230511  0.017579179           44 
 1537000   0.64820079   -7.4319617    337.42404  0.018294515  0.017566087           34 
 1538000   0.62765147   -7.4079245    336.11383  0.018211629  0.017553005           46 
 1539000   0.63630909   -7.4434725    336.03304  0.018195421   0.01753996           56 
 1540000   0.63012004   -7.4468784    336.27582  0.018196743  0.017526899           65 
 1541000   0.65495663   -7.4280907     336.4482  0.018194257  0.017513833           56 
 1542000   0.63781362   -7.4116219    336.69395  0.018195739   0.01750077           51 
 1543000   0.64554934   -7.4404533    336.64025  0.018181046  0.017487713           86 
 1544000    0.6249523   -7.4305428    336.69968  0.018172479   0.01747469          107 
 1545000   0.63379218   -7.4247247    336.61701  0.018156257  0.017461699          105 
 1546000    0.6306732   -7.4513073    336.60327  0.018143773  0.017448712           91 
 1547000   0.65315019   -7.4659273    336.05998  0.018102778  0.017435682           73 
 1548000   0.63734061   -7.4317598    336.07231  0.018091748  0.017422635           70 
 1549000   0.63864186   -7.4591962    336.11019  0.018082106  0.017409599           41 
 1550000   0.62089335   -7.4652288    336.45355    0.0180889  0.017396574           42 
 1551000   0.63670658   -7.4413543    336.59621  0.018084903  0.017383573           30 
 1552000   0.61882395   -7.4420029    336.55484  0.018071029  0.017370563           35 
 1553000     0.639804   -7.4454494    336.57386  0.018060413  0.017357563           44 
 1554000   0.63985347   -7.4422476    336.38779  0.018038813  0.017344574           43 
 1555000   0.62173513   -7.4524835    336.31081  0.018023087  0.017331554           43 
 1556000   0.63703945    -7.431515    335.94722  0.017992032  0.017318535           42 
 1557000   0.63611819   -7.4481147     336.5474  0.018012599  0.017305535           42 
 1558000   0.63561599   -7.4557385    336.69049  0.018008691  0.017292575           41 
 1559000   0.62385926   -7.4221641    336.90474  0.018008592  0.017279602           43 
 1560000   0.61582123   -7.4563548    336.76075  0.017989356  0.017266645           36 
 1561000   0.62147571   -7.4417625     336.1123  0.017943215  0.017253718           54 
 1562000   0.62664231   -7.4558687    336.43977  0.017949198  0.017240787           43 
 1563000   0.63922431   -7.4571961    336.55966  0.017944106  0.017227851           53 
 1564000   0.63442912   -7.4388903    336.71141  0.017940719  0.017214923           48 
 1565000   0.64221723   -7.4517066     336.3867  0.017911965  0.017202004           46 
 1566000   0.63031546     -7.43732    336.84953  0.017925156  0.017189121           60 
 1567000   0.62810503   -7.4421899    336.35095  0.017887202  0.017176247           44 
 1568000   0.62796495   -7.4448459    336.16712  0.017866024   0.01716332           42 
 1569000    0.6300839   -7.4573857    336.54473  0.017874694  0.017150412           52 
 1570000   0.62067705   -7.4450465    335.87939  0.017827993  0.017137502           36 
 1571000   0.62339684   -7.4330219    336.32978  0.017840536  0.017124626           57 
 1572000   0.61996114   -7.4607427     336.0376  0.017813698  0.017111747           44 
 1573000   0.62817025    -7.456435    336.07418  0.017804311  0.017098876           41 
 1574000   0.61108488   -7.4409145    336.33267  0.017806685  0.017086031           28 
 1575000   0.61762297   -7.4275416     336.0897  0.017782524  0.017073204           29 
 1576000   0.62031473    -7.429739    336.68783  0.017802868  0.017060352           37 
 1577000   0.62012284   -7.4458468    335.84679  0.017747135  0.017047545           33 
 1578000   0.62836768   -7.4370028    336.17724  0.017753339  0.017034695           46 
 1579000   0.62613121   -7.4573893    335.97605  0.017731478  0.017021854           34 
 1580000   0.63511969   -7.4454212    336.02053  0.017722602  0.017008999           44 
 1581000   0.63313376    -7.470642    336.18085  0.017719842  0.016996148           31 
 1582000   0.61141505   -7.4683028     335.8826  0.017692931  0.016983281           27 
 1583000   0.61798729   -7.4777861    335.38814  0.017655724  0.016970436           40 
 1584000   0.62837369   -7.4666466    336.33073  0.017694167  0.016957582           45 
 1585000   0.61697776   -7.4512392    336.05541  0.017668529  0.016944747           49 
 1586000   0.62563388   -7.4571951    335.99323  0.017654121  0.016931876           62 
 1587000   0.61873012   -7.4699225    335.81755  0.017633772  0.016919026           44 
 1588000   0.60949815   -7.4728587    335.64978  0.017613863  0.016906144           66 
 1589000   0.61303982   -7.4774614    336.04497  0.017623504  0.016893347           50 
 1590000   0.61310388   -7.4656621    335.70699  0.017594706  0.016880544           59 
 1591000   0.60292305   -7.4853243     335.8518  0.017591232  0.016867713           71 
 1592000   0.60274721   -7.4666306    335.66947  0.017570638  0.016854893           42 
 1593000   0.62471459   -7.4655905    335.74647  0.017563636  0.016842087           74 
 1594000   0.62568911    -7.480506    335.35556  0.017532181   0.01682928           45 
 1595000   0.61764841   -7.4800045    335.71749  0.017540099   0.01681649           60 
 1596000   0.61272877   -7.4967387    336.12854  0.017550571  0.016803685           71 
 1597000    0.6174171   -7.4789458    335.71834  0.017518177  0.016790906           50 
 1598000   0.61620478   -7.4862696    335.26824  0.017483742  0.016778111           54 
 1599000   0.61506878   -7.4683005    335.36007  0.017477594  0.016765341           60 
 1600000   0.60145803   -7.4886383    335.83932  0.017491631  0.016752579           66 
 1601000   0.61272922   -7.4729646    335.56937  0.017466654  0.016739845           69 
 1602000   0.61805652   -7.4923484    335.49421  0.017451842  0.016727096           59 
 1603000   0.61447561   -7.4636376    335.53046  0.017442839  0.016714365           71 
 1604000   0.61602682   -7.4832315    335.66987  0.017439208  0.016701648           72 
 1605000   0.61465264   -7.5154481    335.25275  0.017406685  0.016688923           56 
 1606000   0.61016883   -7.4981777    335.13348  0.017389657  0.016676204           57 
 1607000   0.61741835   -7.5090601    335.73856  0.017410214  0.016663501           51 
 1608000   0.60725105   -7.4935863    336.52316  0.017440048  0.016650791           44 
 1609000   0.61942079    -7.477899    336.40611  0.017423146    0.0166381           66 
 1610000   0.60501229   -7.4911169    336.12039  0.017397536   0.01662542           47 
 1611000    0.6041714   -7.4934579    336.37377  0.017399843  0.016612775           46 
 1612000   0.61195538   -7.5208639    335.44007  0.017340781  0.016600128           78 
 1613000    0.6048168   -7.5005162    335.45707  0.017330909  0.016587442           69 
 1614000   0.60220818   -7.4952391    336.16431  0.017356687  0.016574779           88 
 1615000   0.62196634   -7.4945311    336.25712  0.017350729  0.016562152           79 
 1616000    0.6154453    -7.474644    336.21847  0.017337998  0.016549535           52 
 1617000    0.6100441   -7.4812306    335.78878  0.017305132  0.016536944          150 
 1618000   0.60101043   -7.5138721    335.32615  0.017270609  0.016524324           50 
 1619000   0.58899047   -7.5008452    335.46165  0.017266916  0.016511718           80 
 1620000   0.60878332   -7.5135174    335.91814   0.01727974  0.016499116           44 
 1621000   0.61002094   -7.4935781    335.98011  0.017272266  0.016486528           55 
 1622000   0.60596782   -7.5026887    335.64564  0.017244433  0.016473971           70 
 1623000   0.59782593   -7.5165778      335.727  0.017237985  0.016461397           63 
 1624000   0.60886187   -7.5071444    335.72085  0.017227055  0.016448819           81 
 1625000    0.6011823    -7.522776    335.93973  0.017227678   0.01643625           73 
 1626000   0.60685322   -7.5051476    335.74861  0.017207288  0.016423683           65 
 1627000   0.60528282   -7.5215392    335.11275  0.017164144   0.01641113          101 
 1628000   0.60821337   -7.5059053    335.48666  0.017172741  0.016398583          102 
 1629000   0.60760963   -7.5171153     335.1496  0.017144956  0.016386009           70 
 1630000   0.59206801   -7.5058574    335.83551  0.017169504  0.016373432           74 
 1631000    0.6089436   -7.5260852    335.65646  0.017149829  0.016360887          104 
 1632000   0.59843699   -7.5152686    336.14002  0.017164012   0.01634836          177 
 1633000    0.5873876   -7.5093503    335.51148  0.017121427   0.01633583           68 
 1634000   0.59566425   -7.5236149    335.49116  0.017109912  0.016323342           64 
 1635000   0.59636924   -7.5124536    335.21124  0.017085181  0.016310862          111 
 1636000    0.5969234    -7.535464    335.41926  0.017085333  0.016298394           63 
 1637000   0.59762615   -7.5329651    335.19793  0.017063629  0.016285931           62 
 1638000   0.60799195   -7.5313686     335.7415  0.017080866  0.016273437           80 
 1639000   0.60234849   -7.5340977    335.63315  0.017064935  0.016260955           70 
 1640000   0.59214443   -7.5124971    335.88143  0.017067146   0.01624851           61 
 1641000   0.57697813   -7.5209662    335.55225  0.017040029  0.016236074           61 
 1642000   0.60051696   -7.5053738    335.99228  0.017051983  0.016223656           60 
 1643000   0.60176736   -7.5368496    335.35374  0.017009218  0.016211259           70 
 1644000   0.59731196    -7.515764    335.23657  0.016992932  0.016198856           66 
 1645000   0.59841981   -7.5065374    335.11901  0.016976647   0.01618647           59 
 1646000   0.60875794    -7.517213    335.45047  0.016983114  0.016174072           58 
 1647000   0.57800723   -7.5515393    335.25376  0.016962849  0.016161672           56 
 1648000   0.60185027   -7.5384545    335.12604  0.016946098   0.01614927           61 
 1649000   0.59360474   -7.5385262    334.78389  0.016918531   0.01613687           68 
 1650000   0.59436948   -7.5278512    336.22973    0.0169813  0.016124499           63 
 1651000   0.59646975   -7.5452929    335.71991  0.016945281  0.016112143           68 
 1652000   0.59673856    -7.547718    334.85138  0.016891212  0.016099772           75 
 1653000   0.59445852   -7.5420869    334.96125  0.016886532  0.016087444           57 
 1654000   0.60724355   -7.5406214    335.02688  0.016879629  0.016075105           50 
 1655000   0.59196845   -7.5246219    334.85408  0.016860729  0.016062757           60 
 1656000   0.58914254   -7.5392226     335.0395  0.016859878   0.01605043           49 
 1657000   0.59756354   -7.5592209    334.92675  0.016844033  0.016038072           61 
 1658000   0.58440492   -7.5630502    335.77834  0.016876676  0.016025723           63 
 1659000   0.59984844   -7.5362233    334.83123  0.016818928  0.016013418           67 
 1660000   0.58847112   -7.5419176    335.23063  0.016828847  0.016001118           60 
 1661000   0.59285589    -7.544811    335.61448  0.016837973  0.015988838           62 
 1662000     0.591804   -7.5559065    335.14423  0.016804263   0.01597656           56 
 1663000   0.59355339   -7.5220673    335.36073  0.016805008  0.015964276           91 
 1664000   0.58118921   -7.5428455    335.53568   0.01680367  0.015952006           45 
 1665000   0.58474336    -7.526095     335.0694   0.01677024  0.015939727           74 
 1666000   0.59499921   -7.5438895     335.1621  0.016764811  0.015927477           73 
 1667000   0.58300549   -7.5327711    335.59422  0.016776356  0.015915235           65 
 1668000   0.59618237   -7.5487917    335.63515  0.016768343  0.015903005           66 
 1669000   0.57712821   -7.5462622    335.45774  0.016749438  0.015890793          101 
 1670000   0.58023573   -7.5490424    335.38573  0.016735815  0.015878578           67 
 1671000   0.59039263   -7.5303668    334.68673   0.01669094  0.015866375           78 
 1672000   0.58640937   -7.5639536    335.33572  0.016713303  0.015854171          123 
 1673000   0.58703756   -7.5412315    335.29697  0.016701383  0.015841973          105 
 1674000    0.5936525   -7.5518432    334.53579  0.016653514  0.015829793           96 
 1675000    0.5914203   -7.5601559    335.23764   0.01667849  0.015817634          107 
 1676000   0.58572307   -7.5435515    334.91401  0.016652447  0.015805477           97 
 1677000   0.58221635   -7.5631745    335.27686  0.016660548  0.015793304           89 
 1678000   0.58167659   -7.5650572    335.28135  0.016650842  0.015781136          125 
 1679000   0.58518099   -7.5668076     334.8014  0.016617104   0.01576899          146 
 1680000   0.57845489   -7.5725919    335.05744  0.016619912  0.015756865          130 
 1681000   0.58075229   -7.5424359    335.12928  0.016613587   0.01574475          120 
 1682000   0.57987798   -7.5623454    335.30828  0.016612578   0.01573266          121 
 1683000    0.5736326   -7.5811485    335.47565  0.016610995  0.015720585          134 
 1684000   0.58936728   -7.5560066    334.95864  0.016575546  0.015708502          128 
 1685000   0.56624327    -7.571182    335.24833  0.016580036  0.015696414          117 
 1686000    0.5885188   -7.5636852    335.33297  0.016574386  0.015684334          141 
 1687000   0.58900935   -7.5624733    335.76431  0.016585868  0.015672263          121 
 1688000   0.57039428   -7.5529667    335.04707  0.016540633  0.015660181          132 
 1689000   0.56746468    -7.585061    335.20845  0.016538802  0.015648118          138 
 1690000   0.56775511   -7.5562782     335.5801  0.016547342   0.01563605          122 
 1691000   0.57399112   -7.5875272    334.47738  0.016483214  0.015624002          148 
 1692000   0.57096512   -7.5703753    334.98009  0.016498232  0.015611979          133 
 1693000   0.58188293   -7.5606536    335.23314  0.016500942  0.015599977          141 
 1694000   0.58176369   -7.5725888    335.28819   0.01649391  0.015587958          155 
 1695000   0.57342426   -7.5688545    334.88352  0.016464283  0.015575966          185 
 1696000   0.56733929   -7.5623293    334.28243  0.016425041  0.015563982          182 
 1697000   0.57752056   -7.5870645     335.0736  0.016454213     0.015552          132 
 1698000      0.57698   -7.5621518    335.01846  0.016441817  0.015540016          125 
 1699000   0.57332383   -7.5794409    335.08573  0.016435439  0.015528043          161 
 1700000   0.58051563    -7.606575    334.77681  0.016410628  0.015516071          141 
 1701000   0.57511733   -7.5726554    335.60734  0.016441669  0.015504104          127 
 1702000   0.56820767   -7.5841867      334.698  0.016387485  0.015492132          128 
 1703000   0.57369913    -7.576236    335.21646  0.016403232  0.015480189          128 
 1704000   0.57285903   -7.5880376    335.11351  0.016388572   0.01546824          102 
 1705000   0.57747784   -7.5775931    335.10509  0.016378548  0.015456312          119 
 1706000   0.57250365   -7.5793823    335.75448  0.016400668  0.015444388          142 
 1707000   0.56874572   -7.5800309    335.49153  0.016378224  0.015432477           96 
 1708000   0.56849651   -7.5747368    334.66355  0.016328237  0.015420573          117 
 1709000   0.57938175   -7.5805731     334.9481  0.016332558  0.015408691          125 
 1710000   0.58035034   -7.5874736    334.89001  0.016320176  0.015396796          106 
 1711000    0.5642715    -7.601921    334.92455   0.01631232  0.015384914          120 
 1712000   0.56141757   -7.5776776    334.69391  0.016291565  0.015373045          139 
 1713000   0.57502174   -7.5948902    334.94181  0.016294114  0.015361181          127 
 1714000   0.56131446   -7.5971203    335.05019  0.016289877  0.015349318          181 
 1715000   0.57162109   -7.5936494    334.78842  0.016267659  0.015337459           93 
 1716000   0.56545099   -7.5866776    334.79688   0.01625859  0.015325632          116 
 1717000   0.57544546   -7.5825399    334.89062   0.01625367  0.015313822          215 
 1718000   0.58398024   -7.5913895    334.53959  0.016227182  0.015302006           94 
 1719000    0.5747176    -7.590552    334.69415  0.016225235  0.015290185          213 
 1720000   0.57343955   -7.5850611    334.78074  0.016219997  0.015278395          158 
 1721000   0.55361534   -7.5849274    334.44517  0.016194324  0.015266596          105 
 1722000    0.5661241   -7.5861182    335.08067  0.016215673   0.01525481          160 
 1723000   0.57258517   -7.6003389    334.95904  0.016200379  0.015243028          156 
 1724000   0.57617609   -7.5915019    334.71525  0.016179198  0.015231259          294 
 1725000   0.56698907   -7.5901484    334.70629  0.016169386  0.015219498          128 
 1726000   0.56325315   -7.5955227    334.96516  0.016172517  0.015207746          158 
 1727000   0.56172392   -7.5835256    334.37084  0.016134474  0.015196003          195 
 1728000   0.57237879   -7.6061344    334.89588  0.016150457  0.015184267          192 
 1729000   0.56336693   -7.6029013    334.54626  0.016124265  0.015172529          153 
 1730000   0.55811033   -7.5850807    334.67065  0.016120937  0.015160806           93 
 1731000    0.5639985   -7.6078502    334.65793  0.016111011  0.015149095          121 
 1732000   0.56086691    -7.592545    334.67278  0.016102424  0.015137389          134 
 1733000   0.56810518   -7.5932189     334.9247  0.016105246  0.015125698          161 
 1734000   0.56432481   -7.5965867    334.56717  0.016078776  0.015114013          113 
 1735000   0.56381663    -7.596325    334.41486  0.016062193   0.01510232          140 
 1736000    0.5843972   -7.5893858    333.95561  0.016030895  0.015090637          169 
 1737000   0.57945333   -7.5911954    334.49795  0.016047685  0.015078962           99 
 1738000   0.56694481   -7.5949676    334.66704  0.016046559  0.015067291          129 
 1739000   0.55182091   -7.5865498    334.66383  0.016037178  0.015055644          207 
 1740000   0.56298225   -7.5948521    334.93034  0.016040725  0.015043986          180 
 1741000   0.54781184   -7.6065915    334.65924  0.016018535   0.01503236          196 
 1742000   0.56524437   -7.6014674    334.75933  0.016014128   0.01502074          129 
 1743000   0.55728391   -7.5995095    334.54416  0.015994653  0.015009127          159 
 1744000    0.5645825   -7.6100074    334.35996   0.01597668  0.014997528          156 
 1745000   0.56966623   -7.5993869    334.62946  0.015980394  0.014985937          170 
 1746000    0.5469927   -7.5847848    334.66707  0.015973037   0.01497436          176 
 1747000   0.54815176   -7.5977974    334.38967  0.015950661  0.014962775           97 
 1748000   0.53632917   -7.6114788    335.13657  0.015977144  0.014951223          186 
 1749000   0.56400123   -7.6187128      334.516  0.015938441  0.014939677          296 
 1750000   0.55538862   -7.6095687    334.75434  0.015940683   0.01492813          120 
 1751000   0.55164797   -7.5846298    334.75995  0.015931846  0.014916598          107 
 1752000   0.54787381   -7.6202423    334.01983  0.015887549  0.014905082          368 
 1753000   0.55487031   -7.6144546    333.96065  0.015875673  0.014893567          140 
 1754000   0.55298158   -7.6166439    334.76307  0.015904745  0.014882065          111 
 1755000   0.55172512   -7.6215293    334.65133  0.015890376  0.014870569          149 
 1756000   0.54463573   -7.6116843    334.79993  0.015888379  0.014859079          138 
 1757000   0.55065831   -7.6226842    334.57972  0.015868892  0.014847611          123 
 1758000    0.5484516   -7.6242343    334.29292  0.015846271  0.014836156          117 
 1759000   0.54813185   -7.6137436    334.24247  0.015834871  0.014824702          160 
 1760000   0.55695988   -7.6160948    334.05962  0.015817217   0.01481325          135 
 1761000   0.56139073    -7.620345    334.03614  0.015807124    0.0148018          292 
 1762000   0.55931976   -7.6058913    334.72955  0.015830947  0.014790362          106 
 1763000   0.54514128   -7.6124076    334.76941  0.015823852  0.014778938          132 
 1764000   0.55087018    -7.612197    334.62298  0.015807964   0.01476754          103 
 1765000   0.55850979   -7.6281511    334.71975  0.015803576  0.014756147          119 
 1766000    0.5548646   -7.6220986    334.85881  0.015801189  0.014744759          129 
 1767000   0.54130578   -7.6351658    334.58896  0.015779521  0.014733369          180 
 1768000   0.54666227   -7.6270473    334.68039  0.015774905  0.014721973          112 
 1769000   0.55354965    -7.648703    335.03703  0.015782788  0.014710594          120 
 1770000   0.54409921    -7.606143    333.91527  0.015721058  0.014699236          246 
 1771000   0.53739935   -7.6412022    334.78157  0.015752944  0.014687875          189 
 1772000   0.54533696   -7.6288629    334.73286  0.015741764  0.014676511          153 
 1773000   0.54343115   -7.6335529    334.87876  0.015739742  0.014665169          114 
 1774000   0.55048681   -7.6333336    334.24488  0.015701094  0.014653832          180 
 1775000   0.55484068   -7.6112824    334.65994  0.015711734  0.014642514          147 
 1776000   0.55194258   -7.6289279    334.93142  0.015715626  0.014631222          173 
 1777000   0.53900563   -7.6403502    334.56227  0.015689471  0.014619918          125 
 1778000   0.53368578   -7.6248647    333.85252  0.015647381  0.014608625          182 
 1779000      0.53097   -7.6271665    334.10829  0.015650567  0.014597347          159 
 1780000    0.5321092   -7.6257648    334.09603    0.0156412  0.014586087          140 
 1781000   0.53075001   -7.6445181    334.72243  0.015661727  0.014574836          168 
 1782000    0.5417511   -7.6347182    334.17487  0.015627332  0.014563579          123 
 1783000    0.5485242   -7.6354776    334.25455  0.015622292  0.014552322          146 
 1784000   0.54503507   -7.6442603    333.94093  0.015598885  0.014541073          144 
 1785000   0.54591606    -7.641752    334.20335  0.015602397  0.014529838          231 
 1786000   0.53747179   -7.6426663    334.50875  0.015607911  0.014518606          132 
 1787000   0.53098365   -7.6494229    334.15593  0.015582724  0.014507391          131 
 1788000   0.53646749   -7.6341968    334.04882  0.015569017  0.014496177          159 
 1789000   0.54054226   -7.6662558    334.42033  0.015577619  0.014484981          133 
 1790000   0.53146761   -7.6522769    334.11104  0.015554518  0.014473792          112 
 1791000   0.53779085   -7.6500009    334.13211  0.015546813   0.01446261          118 
 1792000   0.53380055   -7.6325108    334.34581  0.015548075  0.014451437          142 
 1793000   0.53949339   -7.6478595    333.91001  0.015519149   0.01444026          284 
 1794000   0.53972369    -7.646099    334.40308  0.015533402  0.014429112          142 
 1795000   0.53924139   -7.6418383    334.59634   0.01553372   0.01441798          138 
 1796000    0.5389205   -7.6339672    333.98115  0.015496527  0.014406841          155 
 1797000   0.53398638   -7.6688679    334.51497  0.015512659   0.01439571          126 
 1798000   0.53106436   -7.6574816     334.4674  0.015501826  0.014384584          210 
 1799000   0.53377506   -7.6373898    334.21845  0.015481677  0.014373469          169 
 1800000   0.54175223   -7.6589425    333.78656  0.015453082  0.014362361          128 
 1801000   0.52455544   -7.6524506    334.22891  0.015464969  0.014351253          186 
 1802000   0.53137429   -7.6524793    334.24719  0.015457232  0.014340153          161 
 1803000   0.54995871   -7.6388934    334.44768  0.015457926  0.014329075          106 
 1804000   0.53771304   -7.6471926    334.97102  0.015473532  0.014318001          118 
 1805000   0.54535953   -7.6565059    334.17491  0.015428204   0.01430694          157 
 1806000   0.54044474    -7.630838    334.14006  0.015418054  0.014295882          134 
 1807000   0.52943274   -7.6530198    333.70186  0.015389313  0.014284832          203 
 1808000   0.53366742   -7.6535945    333.74469  0.015382775  0.014273783          189 
 1809000    0.5251849   -7.6639154    334.07545  0.015389509  0.014262741          159 
 1810000   0.52782721   -7.6452696    333.62223  0.015360139  0.014251718          132 
 1811000   0.53689149   -7.6430994    333.96787  0.015367563  0.014240688          203 
 1812000   0.54440022   -7.6473103    334.42742  0.015380216   0.01422968          163 
 1813000   0.52730926   -7.6485441    333.88136  0.015346634  0.014218672          199 
 1814000   0.52800363    -7.662686    333.99725  0.015343497  0.014207681          162 
 1815000   0.53728212   -7.6534315    334.13784  0.015341499  0.014196702          120 
 1816000   0.53569295   -7.6633545    333.92555  0.015323309   0.01418573          135 
 1817000   0.53056174   -7.6494955    334.18894  0.015326955  0.014174772          149 
 1818000   0.53544842   -7.6407686    334.13945  0.015316257  0.014163818          134 
 1819000   0.52949892   -7.6651666    334.33406  0.015316752  0.014152879          132 
 1820000   0.53173507   -7.6460875    334.27423  0.015305597  0.014141952          154 
 1821000   0.52934779   -7.6826685     333.6607  0.015269115  0.014131023          164 
 1822000   0.51618834   -7.6554677    333.95621   0.01527425  0.014120101          134 
 1823000   0.52588763   -7.6505399    334.29305  0.015281269  0.014109191          337 
 1824000   0.52023241   -7.6846812    333.56834  0.015239782  0.014098295          172 
 1825000   0.51572398   -7.6534626    333.48065  0.015227427  0.014087405          139 
 1826000   0.52889615   -7.6823077    334.24349  0.015253902  0.014076523          142 
 1827000   0.52511512   -7.6655954    333.40488  0.015207302  0.014065646          129 
 1828000   0.52010992   -7.6650233    334.03087  0.015227519  0.014054782          130 
 1829000   0.52421415   -7.6518598     333.7453  0.015206183  0.014043927          124 
 1830000   0.52361972   -7.6663172     333.6523  0.015193638  0.014033075          251 
 1831000   0.52991768   -7.6702035    333.94324  0.015198582   0.01402224          126 
 1832000   0.52091389   -7.6675565    333.75504  0.015181725    0.0140114          119 
 1833000   0.52593066   -7.6722574    333.83632  0.015177138  0.014000588          182 
 1834000   0.52438735   -7.6509287    333.48914  0.015153087  0.013989784          121 
 1835000   0.51908465   -7.6731719    333.77587   0.01515785   0.01397899          150 
 1836000   0.51769245   -7.6813727     333.8819  0.015154407  0.013968195          119 
 1837000   0.52249693    -7.668627    333.94832  0.015149171  0.013957406          153 
 1838000   0.51872619   -7.6557811     333.6436  0.015127113  0.013946631          188 
 1839000   0.52522824   -7.6772515    334.25463  0.015146575   0.01393587          327 
 1840000    0.5078054   -7.6522313    333.58501  0.015108017  0.013925108          169 
 1841000   0.51639341   -7.6722012     333.0351  0.015074918  0.013914378          291 
 1842000   0.51360459   -7.6753394    334.14334  0.015116872  0.013903637          225 
 1843000   0.50826163   -7.6835963    333.76061  0.015091364    0.0138929          127 
 1844000   0.51476973   -7.6676343    333.42251  0.015067901   0.01388217          121 
 1845000   0.52805578   -7.6791925    333.10712  0.015045489  0.013871457          132 
 1846000   0.51895847   -7.6588963    333.92287  0.015074163  0.013860746          191 
 1847000   0.51200376   -7.6701088    334.26805  0.015081576   0.01385005          135 
 1848000    0.5127988   -7.6677189    333.78587  0.015051672  0.013839365          129 
 1849000   0.51188954   -7.6539895    333.68463  0.015038968  0.013828676          265 
 1850000   0.51521405   -7.6884045    333.32916  0.015014827  0.013817997          137 
 1851000   0.49875939   -7.6740162    333.54401  0.015016388  0.013807333          236 
 1852000   0.51047684   -7.6814755    333.76041  0.015018017  0.013796682          275 
 1853000   0.50758717   -7.6764659    333.47387  0.014997026  0.013786042          302 
 1854000   0.51106304   -7.6956537    333.32517  0.014982253  0.013775403          259 
 1855000   0.51229226   -7.6932242    333.51741  0.014982813  0.013764761          162 
 1856000   0.51334568   -7.6814833     333.3943  0.014969212  0.013754117          121 
 1857000   0.53103421   -7.6769646    333.01529  0.014944143  0.013743492          179 
 1858000   0.51236546   -7.6823785    333.26792  0.014947431  0.013732877          323 
 1859000   0.50820686   -7.6868868      333.018  0.014928187  0.013722274          159 
 1860000   0.51618044    -7.695056    333.71379  0.014951335  0.013711677          180 
 1861000   0.50560251   -7.6750823    333.11073  0.014916296  0.013701093          272 
 1862000   0.50560257   -7.6753116    333.39767  0.014921127   0.01369051          146 
 1863000   0.51728894   -7.6925699    333.58353  0.014921432  0.013679938          135 
 1864000    0.5058253   -7.6996077    333.44629  0.014907291  0.013669379          146 
 1865000   0.50777484   -7.6888106    333.74676  0.014912724  0.013658831          146 
 1866000   0.48698677   -7.6888322    333.30289  0.014884909  0.013648298          117 
 1867000   0.50909356   -7.6990632    333.37906  0.014880336  0.013637758          149 
 1868000   0.50227304   -7.6880008    333.43358  0.014874803   0.01362723          274 
 1869000   0.50969303    -7.693125    333.98782  0.014891556  0.013616719          144 
 1870000   0.50283671   -7.6919651    332.80318  0.014830801  0.013606217          120 
 1871000   0.51310595   -7.6982371    333.30931  0.014845417  0.013595715          123 
 1872000   0.49897879   -7.6904774    332.71507  0.014811034  0.013585211          145 
 1873000   0.50911014   -7.6883155    333.11202  0.014820788   0.01357471          131 
 1874000   0.51110953   -7.6973827    333.28925   0.01482076  0.013564225          112 
 1875000   0.49224581   -7.6837741    332.56724  0.014780766  0.013553757          114 
 1876000   0.50264692   -7.7090221    333.12824  0.014797807  0.013543302          129 
 1877000   0.51329753   -7.6859524    333.20639  0.014793393  0.013532852          131 
 1878000   0.49496787   -7.7022675    333.33912  0.014791406  0.013522409          104 
 1879000   0.51428505   -7.7057324    332.85586  0.014762101  0.013511981          117 
 1880000   0.50076283   -7.7070774    333.57293  0.014786034  0.013501567          122 
 1881000   0.49634922   -7.6890207     333.3756  0.014769431  0.013491165          120 
 1882000   0.50735262   -7.7112941    332.85078  0.014738345  0.013480771          115 
 1883000    0.5019854   -7.6997737    332.88657  0.014732102  0.013470375          126 
 1884000    0.4840457   -7.7024661    332.90614  0.014725148   0.01345999          125 
 1885000   0.49537638   -7.7089415    333.27353  0.014733578  0.013449611          131 
 1886000   0.49772312   -7.7213466    333.19029  0.014722088  0.013439245          136 
 1887000   0.49966474   -7.7074693    333.33583  0.014720713  0.013428899          156 
 1888000   0.48680097   -7.7005073    333.42835     0.014717  0.013418547          175 
 1889000   0.50191202   -7.6943098    333.20176  0.014699213  0.013408217          144 
 1890000   0.50188156   -7.7050707    333.37105    0.0146989  0.013397884          148 
 1891000   0.50206417   -7.7119302     332.6953  0.014661348  0.013387559          121 
 1892000   0.49565102   -7.7259893    333.05968  0.014669648  0.013377242          151 
 1893000   0.49800438    -7.714565    333.65687  0.014688188  0.013366933          148 
 1894000   0.49355736   -7.7061469    333.14837  0.014658059  0.013356641          160 
 1895000    0.5017269   -7.7206006    333.27056  0.014655697  0.013346367          132 
 1896000   0.52038234   -7.7091453    333.11888  0.014641301  0.013336083          140 
 1897000   0.49129886   -7.7105653     332.6494  0.014612959  0.013325815          180 
 1898000   0.49557057   -7.6986712    332.50211  0.014598793  0.013315539          248 
 1899000   0.48414496   -7.7141869    333.08938  0.014616876   0.01330528          111 
 1900000   0.49914502   -7.7225484    332.93952  0.014602611   0.01329503          157 
 1901000   0.50773198    -7.721884    332.79043  0.014588393  0.013284794          248 
 1902000   0.48837331   -7.7118377    332.60262  0.014572495  0.013274557          114 
 1903000   0.47900005   -7.7138693    332.93494  0.014579389  0.013264334          115 
 1904000   0.49491705    -7.720264    333.19315  0.014583034   0.01325412          127 
 1905000    0.4865597   -7.7184341      332.616  0.014550131  0.013243909          115 
 1906000   0.47998955   -7.7265396    333.39688  0.014576639  0.013233705          152 
 1907000   0.49316028   -7.6947777    332.89348  0.014546997  0.013223514          135 
 1908000   0.49549082   -7.7340223    332.54459  0.014524135  0.013213334          126 
 1909000   0.50143568   -7.7179651    332.91861  0.014532854  0.013203161          140 
 1910000   0.48593202   -7.7192843    332.55627  0.014509436  0.013192998          124 
 1911000   0.49519226   -7.7252835    332.79803  0.014512386  0.013182854          192 
 1912000   0.49271793   -7.7294631    332.65994  0.014498777  0.013172727          199 
 1913000   0.48884525   -7.7184319    333.26814  0.014517692  0.013162589          177 
 1914000   0.50080509   -7.7252199    332.71545  0.014486044  0.013152464          170 
 1915000   0.49138513   -7.7334971    332.92999  0.014487815  0.013142346          156 
 1916000   0.48477957   -7.7185345    332.40652  0.014457486  0.013132237          154 
 1917000   0.48962398   -7.7150694    332.89177  0.014471039  0.013122132          115 
 1918000   0.49216902   -7.6954291    332.94955  0.014466004  0.013112048          156 
 1919000   0.48688932   -7.7405025    333.15215  0.014467264   0.01310197          116 
 1920000   0.48425348   -7.7286339    332.58907   0.01443529  0.013091897          202 
 1921000   0.47521563   -7.7412594    333.13263  0.014451355  0.013081822          116 
 1922000   0.48248614   -7.7217132    333.06024  0.014440697  0.013071763          125 
 1923000   0.47562013   -7.7298763    333.04939  0.014432717  0.013061718          160 
 1924000   0.48227709   -7.7488599    332.54624  0.014403423  0.013051688          111 
 1925000   0.48106789   -7.7371321     332.4829  0.014393199  0.013041664          129 
 1926000   0.48607799    -7.738114    332.98112  0.014407283  0.013031642          137 
 1927000   0.48485214   -7.7296152    332.96506  0.014399112  0.013021631          138 
 1928000   0.48325099   -7.7333281    332.79986  0.014384503  0.013011629          155 
 1929000   0.47789664   -7.7169486    332.54559  0.014366061  0.013001636          142 
 1930000   0.48347533   -7.7312156    332.39432  0.014352086   0.01299165          155 
 1931000   0.48403426   -7.7317109     332.8698  0.014365173  0.012981665          172 
 1932000   0.48264524   -7.7324001    333.09596  0.014367493  0.012971698          335 
 1933000   0.48435744   -7.7299171    333.03899  0.014357604  0.012961737          143 
 1934000   0.47371303   -7.7318757    332.60374  0.014331426  0.012951784          154 
 1935000   0.46892168   -7.7426921    332.63314  0.014325286  0.012941844          152 
 1936000   0.46978194   -7.7241743    332.62244  0.014317426  0.012931905          125 
 1937000   0.48242346   -7.7417766    332.31847  0.014296957   0.01292198          143 
 1938000   0.49333313   -7.7430566     332.4453  0.014295033  0.012912054          137 
 1939000   0.48226667    -7.757548    332.71368  0.014299195  0.012902143          122 
 1940000    0.4836456   -7.7493616     332.3498  0.014276194  0.012892239          144 
 1941000   0.47414779   -7.7389296    332.58921  0.014279118  0.012882343          159 
 1942000   0.48404171    -7.718423    332.33865  0.014261013  0.012872455          172 
 1943000   0.47495521   -7.7217123    332.48475  0.014259939  0.012862589          146 
 1944000   0.48311166   -7.7322263    332.64858  0.014259627   0.01285272          129 
 1945000   0.47856495   -7.7344319    332.53034   0.01424723  0.012842875          114 
 1946000   0.47467819   -7.7480553     332.4396  0.014236023  0.012833023          144 
 1947000   0.48617535   -7.7334286    332.34128  0.014224503  0.012823185          196 
 1948000    0.4651525   -7.7518742    332.11295  0.014207433  0.012813346          349 
 1949000   0.47189873   -7.7551506    332.46339  0.014215127  0.012803515          164 
 1950000   0.47882256   -7.7461869    331.98671  0.014187466   0.01279369          154 
 1951000   0.46582806   -7.7527248    333.01574  0.014224148  0.012783882          148 
 1952000   0.48338791   -7.7589868    332.23639  0.014183589  0.012774075          123 
 1953000   0.47459765   -7.7549869    332.11818  0.014171283  0.012764272          261 
 1954000   0.47913371   -7.7386224    332.31652  0.014172489  0.012754478          121 
 1955000   0.46227571   -7.7513205    331.63009   0.01413598  0.012744699          173 
 1956000   0.47504287   -7.7587683    332.39695  0.014161424  0.012734925          201 
 1957000   0.47027824    -7.747176    332.40577  0.014154564  0.012725159          186 
 1958000   0.47965496   -7.7490704    332.54335   0.01415319  0.012715398          133 
 1959000   0.46547764   -7.7477483    331.86979  0.014117313  0.012705653          128 
 1960000   0.46232534   -7.7601271     332.4274  0.014133818  0.012695906          272 
 1961000   0.47520948   -7.7392418    332.43308  0.014126852  0.012686179          126 
 1962000   0.46462315   -7.7486761    331.90467  0.014097208  0.012676449          144 
 1963000   0.47525583   -7.7521948    332.24152  0.014104327  0.012666732          127 
 1964000   0.46369981    -7.746005    332.43269  0.014105257  0.012657024          192 
 1965000   0.47721696   -7.7523358    331.86083  0.014073827  0.012647322          177 
 1966000    0.4677451   -7.7413803    331.83944  0.014065761  0.012637638          150 
 1967000   0.47827342   -7.7593495    332.13369  0.014071076  0.012627956          158 
 1968000    0.4675406   -7.7564207    332.43344  0.014076619  0.012618292          117 
 1969000   0.46223615    -7.757406    332.22807  0.014060778  0.012608647          177 
 1970000   0.47345749   -7.7696905    331.70862  0.014031668  0.012598999          129 
 1971000   0.46052471   -7.7387331    332.31866  0.014050341  0.012589352          178 
 1972000   0.46068722   -7.7362933    332.16479  0.014036713  0.012579721          137 
 1973000   0.46694005   -7.7732206     332.5429  0.014045569  0.012570094          146 
 1974000    0.4746658   -7.7697805    332.10404  0.014019928  0.012560476          118 
 1975000   0.47007484   -7.7669269    331.96922   0.01400714  0.012550866          301 
 1976000   0.46281121   -7.7505606    331.84066   0.01399463  0.012541264          157 
 1977000   0.47733579   -7.7595708    331.64476  0.013979294  0.012531663          184 
 1978000   0.46759215   -7.7513472     332.3115  0.014000316  0.012522074          175 
 1979000    0.4654383    -7.774394    332.85127  0.014015971  0.012512507          126 
 1980000   0.46539018   -7.7580322    332.14475  0.013979156  0.012502939          153 
 1981000   0.46319675   -7.7586515    332.33179  0.013979968  0.012493385          136 
 1982000   0.46335071   -7.7659347    332.64055  0.013985896  0.012483835          121 
 1983000   0.46502316   -7.7465726    331.76181  0.013941915  0.012474292          176 
 1984000   0.45885942   -7.7693379     332.5366  0.013967431  0.012464756          160 
 1985000   0.45461508   -7.7581481    332.18163  0.013945493  0.012455231          178 
 1986000   0.45595112   -7.7662904    332.33397  0.013944863  0.012445717          153 
 1987000   0.45709068   -7.7611877    332.10479  0.013928233  0.012436206          279 
 1988000   0.45378748   -7.7680707    332.78034  0.013949545   0.01242671          137 
 1989000   0.46741936   -7.7540804    331.82664  0.013902574  0.012417221          181 
 1990000     0.460658   -7.7595926    331.79609  0.013894309  0.012407739          267 
 1991000   0.46276818   -7.7625861    332.46297  0.013915242  0.012398277          183 
 1992000   0.45864212   -7.7696289    332.01552  0.013889538  0.012388815          146 
 1993000   0.45101224   -7.7656154     332.6251  0.013908057  0.012379369          336 
 1994000   0.45699418   -7.7690664    331.71015  0.013862845  0.012369925          130 
 1995000   0.45530454   -7.7718061    331.51996  0.013847952  0.012360485          136 
 1996000   0.45643073   -7.7837207    332.04513   0.01386294  0.012351054          156 
 1997000   0.45362787   -7.7848832    331.93898  0.013851568  0.012341639          306 
 1998000    0.4510557   -7.7613997    331.74161  0.013836403  0.012332224          162 
 1999000   0.45275596   -7.7829375    331.92923  0.013837303  0.012322824          117 
 2000000   0.46061686   -7.7705064    332.07951  0.013836646  0.012313428          125 
 2001000   0.44552992   -7.7643587    331.72168  0.013814829  0.012304033          136 
 2002000    0.4424644   -7.7615353    331.55949  0.013801178  0.012294651          298 
 2003000   0.46643537   -7.7756522    331.92174  0.013809358  0.012285281          151 
 2004000   0.45336205   -7.7760896    331.80527  0.013797624  0.012275913          204 
 2005000    0.4451605   -7.7830037    332.27789  0.013810386  0.012266556          175 
 2006000   0.45830093   -7.7843943    332.11978  0.013796933  0.012257204          162 
 2007000   0.44901274   -7.7646337    331.85567  0.013779093  0.012247862          298 
 2008000   0.44189446   -7.7642486    331.47125  0.013756277  0.012238537          277 
 2009000   0.46033974   -7.7877007    331.93723  0.013768759  0.012229218          272 
 2010000    0.4429236   -7.7711754    331.36646  0.013738245  0.012219903          151 
 2011000   0.44819246   -7.7661952    332.16281  0.013764413  0.012210597          305 
 2012000   0.45087094   -7.7796099     331.7011  0.013738449  0.012201308          166 
Loop time of 4392.97 on 48 procs for 2000000 steps with 4000 atoms

Performance: 78671.216 tau/day, 455.273 timesteps/s
99.4% CPU use with 48 MPI tasks x no OpenMP threads

MPI task timing breakdown:
Section |  min time  |  avg time  |  max time  |%varavg| %total
---------------------------------------------------------------
Pair    | 270.52     | 282.75     | 299.01     |  43.9 |  6.44
Neigh   | 26.898     | 27.707     | 28.655     |   8.2 |  0.63
Comm    | 241.43     | 260.9      | 286.5      |  75.3 |  5.94
Output  | 4.1615     | 4.1637     | 4.2017     |   0.3 |  0.09
Modify  | 3732.8     | 3762.1     | 3781.6     |  25.3 | 85.64
Other   |            | 55.34      |            |       |  1.26

Nlocal:        83.3333 ave          90 max          77 min
Histogram: 3 3 6 7 3 10 6 7 1 2
Nghost:        1813.98 ave        1840 max        1784 min
Histogram: 2 0 5 8 4 11 6 4 6 2
Neighs:        11183.2 ave       12267 max       10018 min
Histogram: 2 4 3 4 8 10 5 6 4 2
FullNghs:      22367.8 ave       24487 max       20864 min
Histogram: 7 5 6 4 8 7 3 5 1 2

Total # of neighbors = 1073655
Ave neighs/atom = 268.41375
Neighbor list builds = 107811
Dangerous builds = 0

#clear
#
#next RN
#
#jump SELF
Total wall time: 1:13:16
