
units lj                  # Use reduced LJ style units
atom_style atomic         # Uncharged point particles
atom_modify map hash      # Needed for indexing of clusters etc
                          # Used to be able to find where atoms are in relation to each other.

lattice fcc 1.0 spacing 1 1 1
Lattice spacing in x,y,z = 1.5874011 1.5874011 1.5874011
region box block 0 10 0 10 0 10 units lattice
create_box 2 box
Created orthogonal box = (0.0000000 0.0000000 0.0000000) to (15.874011 15.874011 15.874011)
  3 by 4 by 4 MPI processor grid
create_atoms 1 box
Created 4000 atoms
  using lattice units in orthogonal box = (0.0000000 0.0000000 0.0000000) to (15.874011 15.874011 15.874011)
  create_atoms CPU = 0.003 seconds
set type 1 type/fraction 2 0.57 78393
Setting atom values ...
  2292 settings made for type/fraction
mass 1 1.0
mass 2 1.0
pair_style lj/cut  3.5
pair_modify tail  yes
pair_coeff 1  1  1.0  1.0   # Intearaction between 1 and 1 set with epsilon = 1 and sigma = 1
pair_coeff 1  2  1.5  0.8
pair_coeff 2  2  0.5  0.88

write_data data.0
System init for write_data ...
Neighbor list info ...
  update every 1 steps, delay 10 steps, check yes
  max neighbors/atom: 2000, page size: 100000
  master list distance cutoff = 3.8
  ghost atom cutoff = 3.8
  binsize = 1.9, bins = 9 9 9
  1 neighbor lists, perpetual/occasional/extra = 1 0 0
  (1) pair lj/cut, perpetual
      attributes: half, newton on
      pair build: half/bin/atomonly/newton
      stencil: half/bin/3d
      bin: standard
WARNING: Not all mixed pair coeffs generated from mixing. Use write_data with 'pair ij' option to store all pair coeffs. (../write_data.cpp:312)


#############################
#   M E L T   S Y S T E M   #
#############################

velocity all create 2.4 1741580 mom yes dist gaussian # Assign velocities
                                                    # Temperature 2.4, random number seed, zero linear momentum
                                                                                # Gaussian distribution

timestep 0.002   # simulation timestep
thermo 1000       # output thermodynamic data every 1000 steps bf 100

# Define a fix  in this case with index 1 applied to all
# particles in the simulation. This fix is for simulations
# in the anisotropic NPT ensemble. Note that we use the MTK
# correction.
fix 1 all npt temp 2.4 2.4 0.1 iso 5.68 5.68 0.5 mtk yes tchain 5 pchain 5 # Use NPT ensemble
                                                                         # Set temperature and pressure and damping
                                                                         # Numbers of thermostats in chain and in barostat
run 10000          # run for 10000 steps
Per MPI rank memory allocation (min/avg/max) = 3.642 | 3.644 | 3.648 Mbytes
Step Temp E_pair E_mol TotEng Press Volume 
       0          2.4   -4.8904957            0   -1.2913957   -4.1230707         4000 
    1000    2.3702208   -4.6014489            0   -1.0470066     5.553913    3642.3292 
    2000    2.4168658   -4.6451069            0   -1.0207144    5.6655184    3617.5696 
    3000    2.3895335   -4.6013952            0    -1.017991    5.9044389    3614.2615 
    4000    2.3994816   -4.6313019            0   -1.0329793    5.5455674    3631.0763 
    5000    2.3944104   -4.5965905            0   -1.0058728    5.7110438    3641.8081 
    6000    2.3891627   -4.6402635            0   -1.0574154    5.8634466    3605.5435 
    7000    2.4218925    -4.653033            0   -1.0211025    5.9344777    3594.3526 
    8000    2.4151503   -4.6285826            0   -1.0067628     5.557726    3640.2056 
    9000    2.4291267   -4.6129376            0  -0.97015852    5.8447015    3616.3989 
   10000    2.4157015   -4.6141571            0  -0.99151074    5.5576341    3653.7025 
Loop time of 2.64577 on 48 procs for 10000 steps with 4000 atoms

Performance: 653118.784 tau/day, 3779.623 timesteps/s
99.6% CPU use with 48 MPI tasks x no OpenMP threads

MPI task timing breakdown:
Section |  min time  |  avg time  |  max time  |%varavg| %total
---------------------------------------------------------------
Pair    | 1.1894     | 1.2765     | 1.3557     |   3.0 | 48.25
Neigh   | 0.21894    | 0.2241     | 0.23756    |   0.7 |  8.47
Comm    | 0.78982    | 0.88452    | 0.98083    |   4.2 | 33.43
Output  | 0.00025078 | 0.00025564 | 0.00032477 |   0.0 |  0.01
Modify  | 0.21617    | 0.24467    | 0.26811    |   2.7 |  9.25
Other   |            | 0.01574    |            |       |  0.59

Nlocal:        83.3333 ave          92 max          75 min
Histogram: 1 5 5 5 14 5 1 5 5 2
Nghost:        1745.33 ave        1794 max        1699 min
Histogram: 1 3 6 7 9 6 9 4 1 2
Neighs:        10451.0 ave       11744 max        9118 min
Histogram: 2 0 6 9 11 6 2 4 4 4

Total # of neighbors = 501647
Ave neighs/atom = 125.41175
Neighbor list builds = 906
Dangerous builds = 195

# Equilibrate just above the melting temperature to avoid step fn in T

fix 1 all npt temp 1.25 1.25 0.1 iso 5.68 5.68 0.5 mtk yes tchain 5 pchain 5
run 2000
Per MPI rank memory allocation (min/avg/max) = 3.644 | 3.646 | 3.650 Mbytes
Step Temp E_pair E_mol TotEng Press Volume 
   10000    2.4157015   -4.6141571            0  -0.99151074    5.5576341    3653.7025 
   11000     1.231897   -6.7063449            0   -4.8589613    5.9658959    2786.8034 
   12000    1.2347562   -6.8329132            0   -4.9812419    5.5609055    2768.6159 
Loop time of 0.669344 on 48 procs for 2000 steps with 4000 atoms

Performance: 516326.365 tau/day, 2988.000 timesteps/s
99.6% CPU use with 48 MPI tasks x no OpenMP threads

MPI task timing breakdown:
Section |  min time  |  avg time  |  max time  |%varavg| %total
---------------------------------------------------------------
Pair    | 0.28519    | 0.32647    | 0.36012    |   2.3 | 48.77
Neigh   | 0.041458   | 0.04419    | 0.048826   |   0.7 |  6.60
Comm    | 0.21403    | 0.24683    | 0.29024    |   2.8 | 36.88
Output  | 5.1678e-05 | 5.3372e-05 | 6.9905e-05 |   0.0 |  0.01
Modify  | 0.040807   | 0.046898   | 0.050948   |   1.4 |  7.01
Other   |            | 0.004906   |            |       |  0.73

Nlocal:        83.3333 ave          90 max          76 min
Histogram: 5 0 4 5 5 9 6 10 2 2
Nghost:        2109.04 ave        2130 max        2084 min
Histogram: 2 0 5 5 3 11 10 10 1 1
Neighs:        13795.8 ave       15241 max       11570 min
Histogram: 1 0 1 5 7 8 9 10 4 3

Total # of neighbors = 662199
Ave neighs/atom = 165.54975
Neighbor list builds = 144
Dangerous builds = 8

#############################
# L I N E A R  Q U E N C H  #
#############################

# Define solid atoms. This closely follows ten Wolde  Ruiz-Montero and Frenkel  Faraday Discuss  1996  104  93-110
# Compute components of the per-atom q6 vector
compute q6 all orientorder/atom degrees 1 6 components 6 nnn NULL cutoff 1.3 # compute the Q6 parameter.
                                                                             # Use all neighbours within 1.3 unit cell.

# get number of connections
compute coord_number all coord/atom orientorder q6 0.5

# An atom is solid if it has 8 or more connections (of a possible 14)
variable is_solid atom c_coord_number>=8
group solid dynamic all var is_solid    # Must be dynamic to update
dynamic group solid defined

# do clustering
compute cluster solid cluster/atom 1.3 # Create a cluster where all atoms within are solid and max 1.3 units from another member

# define chunks one chunk per cluster
compute clus_chunks solid chunk/atom c_cluster nchunk every compress yes  # Says which atoms are in which chunk

# count the size of each chunk
compute size_chunks solid property/chunk clus_chunks count


# Find the maximum entry in the vector of chunk sizes
variable max_n equal max(c_size_chunks)


# Thermo style which includes this variable
# thermo_style custom step temp pe vol v_max_n

thermo ${N}  # Print the thermo information every 100 steps
thermo 1000  

# Reset the npt fix at a lower temperature (below freezing)
fix 1  all npt temp  ${temp} ${temp}  0.1  iso  5.68  5.68  0.5  mtk yes tchain  5  pchain  5
fix 1  all npt temp  0.45 ${temp}  0.1  iso  5.68  5.68  0.5  mtk yes tchain  5  pchain  5
fix 1  all npt temp  0.45 0.45  0.1  iso  5.68  5.68  0.5  mtk yes tchain  5  pchain  5

dump dmp2 all dcd ${N} traj.dcd
dump dmp2 all dcd 1000 traj.dcd


compute msd all msd com yes
variable twopoint equal c_msd[4]/6/(step*dt+1.0e-6)
fix 9 all vector 10 c_msd[4]
variable fit equal slope(f_9)/6/(10*dt)
thermo_style custom step temp pe c_msd[4] v_twopoint v_fit v_max_n

fix 1 all npt temp 1.25 ${temp} 0.1 iso 5.68 5.68 0.5 mtk yes tchain 5 pchain 5
fix 1 all npt temp 1.25 0.45 0.1 iso 5.68 5.68 0.5 mtk yes tchain 5 pchain 5
run 2000000 # 5000000  # Run for this many steps
Neighbor list info ...
  update every 1 steps, delay 10 steps, check yes
  max neighbors/atom: 2000, page size: 100000
  master list distance cutoff = 3.8
  ghost atom cutoff = 3.8
  binsize = 1.9, bins = 8 8 8
  4 neighbor lists, perpetual/occasional/extra = 1 3 0
  (1) pair lj/cut, perpetual
      attributes: half, newton on
      pair build: half/bin/atomonly/newton
      stencil: half/bin/3d
      bin: standard
  (2) compute orientorder/atom, occasional
      attributes: full, newton on
      pair build: full/bin/atomonly
      stencil: full/bin/3d
      bin: standard
  (3) compute coord/atom, occasional
      attributes: full, newton on
      pair build: full/bin/atomonly
      stencil: full/bin/3d
      bin: standard
  (4) compute cluster/atom, occasional
      attributes: full, newton on
      pair build: full/bin/atomonly
      stencil: full/bin/3d
      bin: standard
Per MPI rank memory allocation (min/avg/max) = 9.844 | 9.851 | 9.855 Mbytes
Step Temp PotEng c_msd[4] v_twopoint v_fit v_max_n 
   12000    1.2347562   -6.8329132            0            0 8.3333333e+20            1 
   13000    1.2371217    -6.836118   0.45545465  0.002919581  0.036926457            3 
   14000     1.255688   -6.8303553   0.85241446 0.0050738954  0.034511391            1 
   15000    1.2463225   -6.8385881    1.2469792 0.0069276618  0.033380051            2 
   16000     1.256357   -6.8381407    1.7006743 0.0088576783  0.034057466            1 
   17000    1.2437002   -6.8286168    2.1512383  0.010545285  0.034727396            2 
   18000    1.2243561   -6.9160045    2.5296513  0.011711348  0.034997601            2 
   19000     1.256707   -6.8719466    2.9349802   0.01287272  0.034784893            2 
   20000    1.2581505   -6.8238261    3.4085918  0.014202465  0.034908215            3 
   21000    1.2642194   -6.8371859    3.9328188  0.015606423  0.035354372            2 
   22000    1.2609118   -6.8855023    4.4018514  0.016673679  0.035916705            3 
   23000    1.2354838   -6.8496606    4.7503719  0.017211492  0.036147439            1 
   24000    1.2515553   -6.8168206     5.234965  0.018176962  0.036275733            1 
   25000    1.2707027   -6.8261649    5.6559564  0.018853187  0.036395789            3 
   26000    1.2704762   -6.8270035    6.0968919   0.01954132  0.036388273            1 
   27000    1.2405571   -6.8041313    6.5645553  0.020260973  0.036475891            2 
   28000    1.2540612   -6.8557342    6.9952797  0.020819284  0.036490442            2 
   29000    1.2690117   -6.8235454    7.3739352  0.021189469  0.036480644            2 
   30000    1.2531556   -6.8476983    7.8231631  0.021731008  0.036425543            3 
   31000    1.2543401   -6.8208729    8.2236504  0.022106587  0.036378638            1 
   32000    1.2499952   -6.8298934    8.6754779   0.02259239  0.036337491            3 
   33000    1.2529389   -6.8503133    9.0945005   0.02296591  0.036308136            2 
   34000    1.2350409   -6.8689575    9.4543768  0.023172492  0.036265448            3 
   35000    1.2567755   -6.8980329    9.8271185  0.023397901  0.036189258            2 
   36000    1.2650164   -6.9037926     10.26646  0.023764954  0.036091972            1 
   37000     1.270326   -6.8190252    10.720463  0.024145187  0.036021502            3 
   38000    1.2536418   -6.8935671    11.119913  0.024385775  0.035959224            4 
   39000    1.2091648   -6.9436232     11.43317  0.024429851   0.03588422            2 
   40000      1.22014    -6.894094    11.720976  0.024418699  0.035740925            4 
   41000    1.2378146   -6.8695464    12.181993  0.024760149  0.035568968            6 
   42000    1.2592188   -6.8697152    12.554771  0.024910259  0.035424013            3 
   43000    1.2513112   -6.8660909    12.948542  0.025094073  0.035306394            2 
   44000    1.2273104   -6.8676593    13.320387  0.025228005  0.035183123            3 
   45000    1.2691374   -6.7796477    13.731594  0.025428877  0.035055322            2 
   46000    1.2398022   -6.8638008    14.124027  0.025587006  0.034913562            2 
   47000    1.2471556   -6.8848541    14.517509  0.025740265  0.034813232            2 
   48000    1.2646054   -6.8707945    15.013928  0.026065847  0.034749268            2 
   49000    1.2289804   -6.8244391    15.606539  0.026541733  0.034724603            1 
   50000    1.2553829   -6.8153009    15.976616  0.026627693  0.034712081            2 
   51000      1.22705   -6.8735175    16.289391  0.026616652  0.034694047            1 
   52000    1.2356298   -6.8872084    16.679663  0.026730229    0.0346722            2 
   53000    1.2335873   -6.8664923    17.144615  0.026956942  0.034649745            2 
   54000    1.2495589   -6.8244448    17.626246  0.027200996  0.034645702            4 
   55000    1.2280653   -6.9269088     17.93594  0.027175666  0.034637836            2 
   56000    1.2194378   -6.8838106    18.269727  0.027187094  0.034601403            1 
   57000    1.2175265   -6.8967245    18.756289  0.027421475   0.03456811            1 
   58000    1.2382918   -6.8466275    19.246716  0.027653327  0.034552198            3 
   59000    1.2132804   -6.9395634    19.588074  0.027666771  0.034551949            2 
   60000    1.2645284   -6.8702955     20.12061  0.027945291  0.034554847            5 
   61000     1.236191   -6.8968468    20.287062  0.027714566  0.034532787            2 
   62000    1.2177549   -6.8548056    20.813739  0.027975456  0.034498621            4 
   63000    1.2545004   -6.9063064    21.025313   0.02781126  0.034460769            2 
   64000     1.229479   -6.9099773    21.277297  0.027704814  0.034395515            3 
   65000    1.2179138   -6.8631055    21.765636  0.027904661  0.034337002            3 
   66000     1.196752   -6.8452736    22.107541  0.027913562  0.034283288            3 
   67000    1.2288363   -6.8985756    22.466944  0.027943961  0.034222111            2 
   68000    1.2076348   -6.9254765    22.931678  0.028102546  0.034164369            1 
   69000    1.2497785     -6.85907     23.28066  0.028116738  0.034111532            2 
   70000    1.2361571   -6.8818146    23.770313  0.028297991  0.034068885            2 
   71000    1.2473039   -6.8846501     24.23173  0.028440997  0.034041149            1 
   72000    1.2371312   -6.9041582    24.492312  0.028347583  0.034010498            1 
   73000    1.2123645   -6.9009789    24.839696  0.028355817  0.033964058            5 
   74000    1.2254381   -6.9687153    25.049463  0.028208855  0.033905705            2 
   75000    1.2134969   -6.9331439    25.360356  0.028178173  0.033841013            4 
   76000    1.2300031   -6.9439486    25.716517  0.028197935  0.033773985            3 
   77000    1.2268626   -6.8707301    26.234211  0.028392003  0.033712233            2 
   78000    1.2077908   -6.8455504    26.712372  0.028538859  0.033658908            4 
   79000    1.2047903   -6.8706882     26.92206  0.028398798  0.033606389            2 
   80000    1.2313822   -6.8846413    27.242165  0.028377256  0.033556969            3 
   81000    1.2375522   -6.8863187    27.602774  0.028397915  0.033501203            3 
   82000    1.2380867   -6.8529933    28.133977   0.02859144  0.033449235            3 
   83000    1.2312939   -6.9065834    28.434319  0.028548513  0.033405142            2 
   84000    1.1953586   -6.9056788    28.874581  0.028645417  0.033357346            3 
   85000    1.2142117   -6.9603198    29.176884  0.028604788  0.033315895            3 
   86000    1.2042855   -6.8849047    29.587928  0.028670472  0.033275598            3 
   87000    1.2334805   -6.9018296    30.064477  0.028797392  0.033238211            2 
   88000    1.2078161   -6.8655969    30.584893  0.028962966  0.033208493            2 
   89000    1.2341011   -6.9379814    30.841478  0.028877788  0.033180992            2 
   90000    1.2182447   -6.9028732    31.113454  0.028808754  0.033146576            5 
   91000    1.2321028   -6.8956158    31.687444  0.029017806  0.033113251            2 
   92000    1.1984321   -6.8643047    32.028645  0.029011454  0.033082998            2 
   93000    1.2250132   -6.9152706    32.282255  0.028926752   0.03305413            1 
   94000    1.2484818   -6.9186089    32.626975  0.028924623  0.033026735            2 
   95000    1.2298984   -6.8886527    33.143701  0.029073421  0.032994938            3 
   96000     1.211611   -6.8945504    33.497067  0.029077315  0.032971631            2 
   97000    1.2169965   -6.8652664     33.95003  0.029166693  0.032954791            4 
   98000    1.2222551   -6.8814264      34.3334  0.029195068  0.032931289            2 
   99000    1.2136973   -6.9064841     34.71683  0.029222921  0.032908269            2 
  100000    1.2490273   -6.9362446    35.075977   0.02922998  0.032894611            5 
  101000    1.2223645   -6.9134379    35.585898  0.029361302   0.03288192            3 
  102000    1.1978485   -6.9420258    35.918343  0.029345051  0.032869147            2 
  103000    1.2272457   -6.9694711    36.413017   0.02946037  0.032865164            2 
  104000     1.216415   -6.9366908    36.841305  0.029520276  0.032863105            2 
  105000    1.2168732     -6.89103    37.212894  0.029534042  0.032863453            1 
  106000    1.1857558   -6.9130115    37.698534  0.029637212   0.03286276            4 
  107000    1.2128776   -6.9139167    38.211902  0.029760048   0.03286408            1 
  108000    1.2087873   -6.9314453     38.47126  0.029684614  0.032862955            1 
  109000    1.2311582   -6.9539842    38.792191  0.029657638  0.032857998            3 
  110000    1.2398576   -6.9036642    39.381174  0.029834222  0.032856644            4 
  111000    1.2090918   -6.9116725    39.810656   0.02988788  0.032861316            2 
  112000    1.2012019   -6.9214171    40.090422  0.029829183  0.032865111            2 
  113000    1.2238689   -6.9572592    40.671987  0.029994091  0.032871755            2 
  114000    1.2119301   -6.9248877    40.998361  0.029969562  0.032879821            2 
  115000    1.1958395   -6.9421033    41.348284  0.029962524  0.032885711            4 
  116000    1.1963642   -6.9314458    41.805257  0.030032512  0.032892163            1 
  117000    1.1738568   -6.9440627    42.208496  0.030063031  0.032895999            4 
  118000    1.2258147   -6.8707829    42.732605  0.030178393  0.032907018            4 
  119000    1.2052234   -6.9212251    43.041763  0.030141291  0.032914611            3 
  120000    1.1926145   -6.9540499    43.168433  0.029978079  0.032918393            4 
  121000    1.1989638   -6.8983008    43.640578  0.030055494   0.03291511            3 
  122000    1.2009179   -6.9189624    44.169422   0.03017037  0.032917569            2 
  123000    1.2096779   -6.9479541    44.325609    0.0300309  0.032917851            2 
  124000    1.2039165   -6.9541035     44.69641   0.03003791  0.032915466            4 
  125000    1.1813281   -6.9448755    45.090211  0.030060141  0.032913092            4 
  126000    1.2065337   -6.9289553     45.50918  0.030098664  0.032907558            4 
  127000     1.190633   -6.9108492    45.962074  0.030158841  0.032904296            3 
  128000    1.2185589   -6.9490348    46.171352  0.030059474  0.032902747            2 
  129000    1.2214588   -6.9555713    46.913354  0.030305784   0.03290148            4 
  130000    1.2070333   -6.9397252    47.317172   0.03033152  0.032902581            2 
  131000     1.215356   -6.9338039     47.69429  0.030339879  0.032906086            2 
  132000    1.2065696    -6.964908    48.161995    0.0304053  0.032911381            2 
  133000    1.1966115    -6.950368    48.596235  0.030448769  0.032921711            7 
  134000    1.2241439   -7.0017848    48.902955  0.030412286  0.032929961            3 
  135000    1.1861683   -6.9262127    49.354065  0.030465472  0.032937077            3 
  136000    1.1817075   -6.9906199    49.740963  0.030478531  0.032943347            1 
  137000    1.1973887   -6.9427348     50.37982  0.030644659  0.032949787            2 
  138000    1.1815023   -6.9687644    50.632427  0.030575137  0.032955667            2 
  139000    1.2209064   -6.9079041    51.005554  0.030578869  0.032960551            2 
  140000     1.223263   -6.9513917     51.08616  0.030408428  0.032957748            3 
  141000    1.1850761   -6.9783128    51.200395   0.03026028  0.032950866            4 
  142000    1.1728185    -6.958418    51.643255  0.030307075  0.032944079            2 
  143000    1.2216091   -6.9727057    52.020021  0.030314698  0.032931013            2 
  144000    1.1897456   -6.9983608     52.17582   0.03019434  0.032917049            3 
  145000    1.2143781   -6.9620091    52.505976  0.030175848  0.032894922            2 
  146000    1.1860374   -6.9604706    52.860464  0.030171498  0.032878527            5 
  147000    1.1853911   -6.9621702    53.291108  0.030210378  0.032861481            1 
  148000    1.1729805   -7.0223196    53.348128   0.03003836  0.032838617            3 
  149000    1.1689964   -6.9709115    53.813985  0.030097307  0.032817951            2 
  150000    1.2121663   -6.9493255    54.345304  0.030191835   0.03279741            2 
  151000    1.1715936   -6.9665241    54.778163  0.030230774  0.032780866            5 
  152000    1.1906421   -6.9673867    55.141708  0.030231199  0.032763372            2 
  153000    1.2017789    -6.982138    55.631495  0.030300378   0.03274985            3 
  154000    1.1892758   -6.9947118    55.848379  0.030220984   0.03273848            1 
  155000    1.1935196    -6.981517    56.152512  0.030189522  0.032723151            3 
  156000    1.2099726   -6.9190082    56.688716  0.030282434  0.032707435            3 
  157000    1.1830564   -6.9607727    57.107716  0.030311951  0.032692263            3 
  158000    1.1681586   -7.0088437    57.224238   0.03018156   0.03267478            5 
  159000    1.1875244    -6.979986    58.051112  0.030425111  0.032659304            1 
  160000     1.210516   -6.9765691    57.966091  0.030190672  0.032644135            2 
  161000    1.1719538   -7.0251966    58.515941  0.030287754  0.032631638            2 
  162000    1.1768809   -7.0284323    58.665913  0.030177939  0.032615957            1 
  163000    1.1776984   -6.9867369     59.05236  0.030190368  0.032598208            1 
  164000    1.2257625   -7.0068127    59.403037   0.03018447   0.03257698            4 
  165000    1.1656949   -7.0474876    59.440087  0.030020246  0.032554359            3 
  166000    1.2042921    -7.008212    59.855505  0.030047944  0.032532381            2 
  167000    1.1650294   -6.9986703    60.044436  0.029962293  0.032509415            1 
  168000    1.1760958   -7.0159225    60.205843  0.029864009  0.032483061            2 
  169000    1.1894067   -7.0467908    60.457971  0.029811623  0.032452396            4 
  170000    1.1817886   -6.9880754    60.775741   0.02979203  0.032420464            3 
  171000    1.1742502   -6.9896603    61.078851  0.029765522  0.032387806            3 
  172000    1.2029054   -6.9935597    61.350971  0.029724308  0.032355472            2 
  173000    1.1813162   -7.0229135    61.818811  0.029777847  0.032322058            2 
  174000    1.1887759   -6.9974608    61.931501  0.029660681  0.032290289            1 
  175000    1.1925524   -6.9849399    62.426579  0.029726942    0.0322564            3 
  176000    1.1791059   -6.9918152    62.522607  0.029603507  0.032223045            4 
  177000     1.168451   -7.0022716    62.898604  0.029613279   0.03218953            2 
  178000    1.1597723   -6.9547904     63.50494  0.029730777  0.032155759            3 
  179000     1.190814   -7.0095113    63.578789  0.029599064   0.03212266            2 
  180000    1.1817057   -6.9999086    63.919048  0.029592152  0.032089961            2 
  181000    1.1890839   -6.9327141    64.308751  0.029608081  0.032056061            3 
  182000    1.1691124   -7.0631956    64.144832  0.029370344  0.032021393            2 
  183000     1.174136   -6.9748561    65.026757  0.029611456   0.03198491            2 
  184000    1.1979872   -6.9974711    65.438594  0.029637044  0.031952357            4 
  185000     1.176543   -7.0403063    65.542389  0.029523599  0.031922008            2 
  186000    1.1747611    -7.039102    65.776141  0.029469597  0.031892366            3 
  187000    1.1790471    -7.035149    66.247575  0.029522092  0.031861828            2 
  188000    1.1751705   -7.0331662    66.707858  0.029569086  0.031832845            2 
  189000    1.1653232   -6.9681679    67.089134  0.029580747  0.031803264            9 
  190000    1.1616198   -7.0126728    67.437377  0.029577797  0.031775115            2 
  191000    1.1620351   -7.0268246    67.593231  0.029490938  0.031748057            3 
  192000    1.1693244   -7.0013888    68.229119  0.029613333  0.031722571            2 
  193000    1.1690674   -7.0182287    68.389268  0.029529045  0.031697158            2 
  194000    1.1708136   -6.9977439    68.832571  0.029567256  0.031669133            1 
  195000    1.1713078     -7.03091    69.168573  0.029559219   0.03164065            2 
  196000    1.1772869    -7.033423    69.516729  0.029556433  0.031613168            2 
  197000    1.1858267   -7.0220669    69.713622  0.029489688  0.031585257            3 
  198000     1.159738   -7.0152799    70.059139  0.029486169  0.031558096            1 
  199000    1.1595088   -7.0109865     70.52511  0.029533128  0.031532424            2 
  200000    1.1688078   -7.0080313    70.887552   0.02953648  0.031507513            2 
  201000    1.1771533   -7.0156812    71.298189   0.02955978  0.031481513            3 
  202000    1.2062119    -6.990879    71.344163  0.029432411  0.031455753            2 
  203000    1.1596442   -7.0265196    71.532064  0.029364558  0.031428474            5 
  204000    1.1689499   -7.0116515    71.861802  0.029355311  0.031399171            3 
  205000    1.1821359   -7.0197406    72.252003  0.029370733  0.031370255            2 
  206000    1.1608413   -7.0189341    72.690022  0.029405348  0.031341031            4 
  207000    1.1527914   -7.0673745     72.51326  0.029192134  0.031312194            3 
  208000    1.1700394    -7.039352     72.88661  0.029201366  0.031281094            4 
  209000    1.1813938   -7.0045291    73.188205    0.0291819  0.031247886            2 
  210000     1.144228   -7.0028946    73.455802  0.029149128   0.03121639            3 
  211000    1.1635906     -6.99202    73.940163  0.029202276  0.031184324            2 
  212000    1.1873013   -7.0312043    73.477983  0.028882855  0.031147971            3 
  213000    1.1612704   -7.0852345    73.470641  0.028744382  0.031109508            2 
  214000    1.1896879   -7.0620499    74.095212  0.028853276  0.031070042            2 
  215000    1.1710749   -7.0341785    74.265988  0.028785267  0.031030123            3 
  216000    1.1771683   -7.0284937    74.414463  0.028709283   0.03099055            6 
  217000    1.1703485   -7.0149349    74.575149   0.02863869  0.030950547            5 
  218000    1.1693091   -7.0774133    74.674278  0.028545213  0.030908396            4 
  219000    1.1856023   -7.0442502    75.015366   0.02854466  0.030867213            4 
  220000     1.156504   -7.0563318    75.089234  0.028442892  0.030824984            3 
  221000    1.1641673   -7.0609556    75.733204  0.028557015  0.030782271            2 
  222000    1.1685393   -7.0841055    76.042461  0.028544467  0.030742147            3 
  223000    1.1929472   -7.0141048    76.629677  0.028635903  0.030705062            3 
  224000    1.1718324   -7.0611686    76.984352  0.028640012  0.030668518            5 
  225000    1.1669074   -7.0602864    77.111519  0.028559822  0.030631653            4 
  226000    1.1520938   -7.0568873    77.677049   0.02864198  0.030596144            1 
  227000    1.1522799   -7.0460936    77.610805  0.028491485  0.030559509            3 
  228000    1.1641197   -7.0707277    77.816499  0.028441703   0.03052257            3 
  229000    1.1863598   -7.0676819    78.355968  0.028513816  0.030484232            2 
  230000    1.1606027   -7.0564811    78.453686  0.028425248  0.030446456            4 
  231000    1.1712002   -7.0590679    78.970559  0.028488658   0.03040903            4 
  232000    1.1898599   -7.0533106    79.106862  0.028414821    0.0303714            1 
  233000    1.1745023   -7.0297942     79.41013  0.028401334  0.030334043            1 
  234000    1.1558537   -7.0650444    79.812318   0.02842319  0.030300344            3 
  235000      1.14219   -7.0252903     80.10882  0.028407383  0.030265387            6 
  236000    1.1778065   -7.0601445    80.377942  0.028382042  0.030230216            3 
  237000    1.1767395   -7.0647091    80.663536  0.028362706  0.030195489            5 
  238000    1.1623692   -7.0292474    81.215567  0.028436823  0.030161951            5 
  239000    1.1692768   -7.1102147    80.973315  0.028233373  0.030128784            4 
  240000    1.1431683   -7.0236833    82.019234  0.028478901   0.03009641            4 
  241000    1.1756389   -7.0407943    81.760722  0.028271342  0.030063711            2 
  242000    1.1868366   -7.1066057    81.820723   0.02817518  0.030029892            3 
  243000    1.1475403   -7.0368813    82.257255  0.028208935  0.029996084            1 
  244000    1.1524889   -7.0815497     82.83584  0.028290929  0.029961761            3 
  245000    1.1218806   -7.0601942    82.957408  0.028216805  0.029928226            3 
  246000    1.1492288    -7.034553    83.183505  0.028178694  0.029894889            1 
  247000    1.1440565   -7.0955778    83.134158  0.028047962  0.029861939            2 
  248000    1.1618135   -7.0992629    83.532573  0.028068741  0.029827336            2 
  249000    1.1555456   -7.0711816    83.673064  0.028003034   0.02979186            2 
  250000    1.1695486   -7.0739635    84.113996  0.028037999  0.029756314            2 
  251000    1.1573671   -7.0355941    84.400792  0.028021511  0.029722052           10 
  252000    1.1555903   -7.1047503    84.544423  0.027957812  0.029687036            2 
  253000    1.1359857   -7.1056163    84.752584  0.027915871   0.02965208            3 
  254000    1.1367306   -7.0823627    85.328396  0.027994881  0.029619155            2 
  255000    1.1469425   -7.1011618    85.666585  0.027995616  0.029586591            3 
  256000    1.1400097   -7.0855392    86.105765   0.02802922  0.029554596            4 
  257000    1.1506966   -7.0881333    86.498132  0.028047384  0.029523611            2 
  258000    1.1475255   -7.1125497    86.525727  0.027947586  0.029492059            3 
  259000    1.1714249   -7.1416834    86.666872  0.027885094  0.029461217            2 
  260000    1.1253084   -7.1031344    87.387957  0.028008961   0.02943176            6 
  261000    1.1254962   -7.1051083     87.60643  0.027971402  0.029402931            3 
  262000    1.1428769   -7.1440625    87.599671  0.027862491   0.02937299            1 
  263000    1.1414214   -7.1133623    87.933057  0.027862185  0.029342113            2 
  264000    1.1454746   -7.0608647    88.608156  0.027969746  0.029312999            3 
  265000    1.1360879    -7.110926    88.595138  0.027860106  0.029283729            2 
  266000    1.1474686   -7.0721199    88.816132  0.027824603  0.029253218            2 
  267000    1.1583597   -7.0951955    89.122384  0.027815975  0.029223469            2 
  268000    1.1126588   -7.0894177    89.127263  0.027713701  0.029193141            2 
  269000    1.1281461   -7.1356515     89.78121  0.027813262  0.029163715            1 
  270000    1.1435661   -7.0614416    90.047323  0.027792384   0.02913447            3 
  271000    1.1530891   -7.0579608    90.073544  0.027697892  0.029104715            1 
  272000    1.1456375    -7.128152    90.068478  0.027594509   0.02907349            2 
  273000    1.1362901   -7.1655505    90.354181  0.027580641  0.029041361            5 
  274000    1.1472235   -7.1598378    90.745941   0.02759913  0.029009369            1 
  275000    1.1315285    -7.108489    90.896915   0.02754452  0.028978439            5 
  276000    1.1592209   -7.1136285    91.430095  0.027605705  0.028949416            4 
  277000    1.1450283   -7.0918531    91.848705  0.027631981  0.028919691            4 
  278000    1.1275231   -7.0829411    91.931705  0.027557465  0.028890797            3 
  279000    1.1164856   -7.0772371    92.288054  0.027565129   0.02886228            5 
  280000    1.1415107   -7.0752979    92.811815  0.027622564  0.028834518            2 
  281000    1.1446512   -7.0627577    93.185545  0.027635096  0.028808165            3 
  282000    1.1496951   -7.0911191    93.245927  0.027554943  0.028782023            3 
  283000    1.1543436   -7.0962906    93.872958  0.027642214  0.028756971            6 
  284000    1.1436257   -7.1127651     93.94412  0.027565763  0.028730119            2 
  285000    1.1580389   -7.1418946      94.2054  0.027545438  0.028702974            2 
  286000    1.1311239     -7.12244    94.224168  0.027454594  0.028676486            2 
  287000    1.1162524   -7.1548482     94.17495  0.027344643  0.028649956            4 
  288000    1.1416975   -7.1382544    94.849004  0.027444735  0.028623601            2 
  289000    1.1568639   -7.1683978    94.988435  0.027389975  0.028595457            1 
  290000    1.1052196   -7.1394423    95.439211  0.027425061  0.028567166            2 
  291000    1.1518121   -7.2266851    94.942803  0.027188661  0.028539725            2 
  292000    1.1172295   -7.1220222    95.524163  0.027261462  0.028510113            3 
  293000    1.1395482   -7.1125938    95.787769  0.027243393  0.028481202            3 
  294000    1.1400442   -7.0947608     96.12501  0.027246318  0.028452664            3 
  295000    1.1646409   -7.1102188    96.666267  0.027306855   0.02842546            4 
  296000    1.1444335   -7.1003829    96.804807  0.027253605  0.028398107            2 
  297000    1.1364908     -7.14086    96.676164  0.027125748  0.028370595            2 
  298000    1.1224654   -7.1814753    96.837109  0.027079728  0.028340422            4 
  299000    1.1293447   -7.1810091    97.372024  0.027138245  0.028311362            1 
  300000    1.1453436   -7.1169057    97.683096  0.027134193  0.028282949            2 
  301000    1.1223133   -7.1049356    98.135589  0.027169321   0.02825564            4 
  302000    1.1260907   -7.1721283    98.149002  0.027083058  0.028228572            2 
  303000     1.123643   -7.2130315    97.981979  0.026947739  0.028200692            7 
  304000    1.1507269   -7.1402999    98.756351  0.027071368  0.028173203            2 
  305000    1.1506003   -7.1608245    98.996342  0.027048181  0.028146072            2 
  306000    1.1264716   -7.1638683    99.327011   0.02704984   0.02811908            4 
  307000    1.1342402   -7.0846516    99.834568  0.027099503  0.028094367            4 
  308000    1.1437405   -7.1475024    100.26072  0.027126817  0.028070392            3 
  309000    1.1207423     -7.11179    100.51998  0.027108948  0.028046633            4 
  310000    1.1257516   -7.1471769      100.814  0.027100538  0.028023607            2 
  311000     1.107434   -7.1397725    101.24595  0.027129139  0.028000108            3 
  312000    1.1176457   -7.1597357    101.62464  0.027143333  0.027978001            3 
  313000    1.1232043   -7.1126175    101.99245  0.027154538  0.027956226            2 
  314000     1.127881   -7.1102381    101.92911  0.027051249  0.027932515            3 
  315000    1.1392386   -7.1387547    102.32269  0.027069494  0.027908747            5 
  316000    1.1244045   -7.1399613    102.44297   0.02701555  0.027886251            1 
  317000    1.1421583   -7.2143331    102.39011  0.026916432  0.027863036            4 
  318000    1.1277022   -7.1225619    103.35444  0.027084496  0.027839535            7 
  319000    1.1395508   -7.1200757    103.69847  0.027089463  0.027816703            5 
  320000    1.1309439    -7.114832    103.75458  0.027019422  0.027794274            2 
  321000    1.1455599   -7.1797209    103.53471   0.02687817  0.027770958            2 
  322000     1.124868    -7.146162    104.00617  0.026916711  0.027747321            2 
  323000    1.0919078   -7.1594354    103.86891  0.026797966  0.027722841            2 
  324000    1.1171803   -7.1935143    103.83922  0.026707619  0.027697687            8 
  325000    1.1149778   -7.1391775    104.41188  0.026772278   0.02767361            2 
  326000    1.1293238    -7.154896    104.88288  0.026810552  0.027648977            2 
  327000    1.1075258   -7.1129383    105.19492  0.026808084  0.027625813            3 
  328000    1.1033783   -7.1813727    105.28218  0.026748521  0.027602962            3 
  329000    1.1209209   -7.1879361      105.865  0.026814842  0.027580311            3 
  330000    1.0996528   -7.1451122    106.24523  0.026829603  0.027557427            3 
  331000    1.1077336   -7.1427838    105.98472   0.02668296  0.027534923            5 
  332000     1.109812   -7.1341203    106.99183  0.026855379  0.027513327            2 
  333000    1.1324553   -7.2060204    106.86882   0.02674395  0.027492214            5 
  334000    1.1277414   -7.1735636     107.3053  0.026772779  0.027471112            2 
  335000     1.120668   -7.1570058    107.50377  0.026742231  0.027449378            3 
  336000    1.1125382   -7.1766658    107.85139  0.026748856  0.027427121            4 
  337000    1.1188543   -7.1817415    107.67446  0.026625733   0.02740405            3 
  338000    1.1220121   -7.1983414    107.57675  0.026522867  0.027381452            2 
  339000    1.1320046   -7.1645858     108.1034  0.026574091  0.027358388            3 
  340000    1.1453313   -7.2034194    108.11089  0.026497767  0.027336056            2 
  341000    1.1208213   -7.2128232    108.89899  0.026612656  0.027314912            3 
  342000     1.107206    -7.204789    109.06269   0.02657473  0.027293148            5 
  343000    1.1052925   -7.1759796    109.68453   0.02664833  0.027272154            2 
  344000    1.1169195   -7.1340346    110.08514  0.026667912  0.027251572            2 
  345000    1.1021702   -7.1841491    110.15076  0.026606465  0.027231533            6 
  346000    1.1214037   -7.1659716    110.51715   0.02661781  0.027210469            2 
  347000    1.1143491   -7.1491361    110.44365  0.026523451  0.027188408            3 
  348000    1.0923141    -7.184076    110.89547  0.026555428  0.027166585            5 
  349000    1.1026112   -7.1945074    110.93827  0.026489557  0.027145123            2 
  350000    1.1197914   -7.1891601    110.86897  0.026397374  0.027123049            3 
  351000    1.1055844   -7.2140432    110.91631  0.026333406  0.027100633            4 
  352000    1.1144405   -7.2013412     111.1105  0.026304568  0.027077838            2 
  353000     1.104997   -7.1957189    111.65075   0.02635759   0.02705595            3 
  354000    1.1145439   -7.1935039    112.17727  0.026407079  0.027034579            2 
  355000    1.1124568   -7.1641471    112.04753  0.026302237  0.027013077            4 
  356000    1.1098692   -7.1991511    112.44378   0.02632111  0.026990846            2 
  357000    1.1075967   -7.1887512    112.72354  0.026312685  0.026968688            4 
  358000    1.0989968   -7.2132243    112.41409  0.026167154  0.026946316            3 
  359000    1.1325073   -7.2068864    113.08937  0.026251014  0.026924262            2 
  360000    1.0948442   -7.1912697    113.27204   0.02622038  0.026901003            3 
  361000    1.1089972   -7.2297082    113.17307    0.0261249  0.026877737            4 
  362000    1.1159784   -7.1943878    113.30041  0.026082047  0.026854405            3 
  363000    1.0905988     -7.21037    113.50977  0.026058258  0.026830456            3 
  364000    1.1313853   -7.2067451    113.92554  0.026081855  0.026806452            5 
  365000    1.1130396   -7.1833348     114.3987  0.026118424  0.026783588            3 
  366000     1.091619    -7.205426    114.84858  0.026149494  0.026761224            8 
  367000    1.1009608   -7.2212309    114.63415  0.026029553  0.026738592            3 
  368000    1.1151847   -7.2077141    114.95803  0.026032162  0.026716741            2 
  369000    1.1112632   -7.2003689    115.47593  0.026078574  0.026694502            7 
  370000    1.1038676   -7.2074933    115.44081  0.026000183  0.026672001            2 
  371000    1.0991422   -7.2279957    116.00826  0.026057561   0.02664935            3 
  372000    1.0915529   -7.1764934    116.38368  0.026071612  0.026627622            4 
  373000    1.1157866    -7.195543     116.6213  0.026054803  0.026606394            4 
  374000    1.1171726    -7.265771    116.69125  0.026000724  0.026585021            3 
  375000    1.1030978   -7.2482647    116.89156  0.025975902    0.0265641            4 
  376000    1.1323057   -7.2218057    117.39642   0.02601871  0.026543687            2 
  377000    1.0717902   -7.2208479    117.75211  0.026028318  0.026523029            2 
  378000    1.1257333   -7.2186993    117.76393  0.025962065  0.026502712            3 
  379000    1.1069691   -7.2053859    117.80842  0.025903347  0.026481662            9 
  380000     1.089909   -7.2414786    118.23965  0.025929748  0.026460743            6 
  381000    1.0867048   -7.2185683    118.72392  0.025967611  0.026440623            2 
  382000     1.077439   -7.2321785    119.11189  0.025984269  0.026421126            5 
  383000      1.11223   -7.2675981    118.95799  0.025882939  0.026401248            4 
  384000    1.0935802   -7.2417421     119.3261  0.025895422  0.026381849            2 
  385000    1.1211722   -7.2024789    119.81511  0.025934006  0.026362126            3 
  386000    1.0941718   -7.2212054    120.06856  0.025921537  0.026342758            5 
  387000    1.0934387   -7.1946996    119.76927   0.02579011  0.026322903            2 
  388000    1.0878972   -7.2250371    120.60028  0.025902122  0.026303495            2 
  389000    1.0820168   -7.2402561    120.26008  0.025762657  0.026284239            2 
  390000     1.092678   -7.2038724    120.94478  0.025842902  0.026265096            7 
  391000    1.1024496   -7.2695564    120.69974  0.025724583  0.026245291            5 
  392000    1.0822358   -7.2160685    121.33455  0.025793908  0.026225466            2 
  393000    1.0874322    -7.271411    121.13334   0.02568561  0.026205077            2 
  394000    1.1197798   -7.2311621    121.61327  0.025721927  0.026184999            5 
  395000    1.1003772   -7.2919133    121.42273  0.025616609  0.026165253            2 
  396000    1.0906232   -7.2961529    121.41029  0.025549303  0.026144142            2 
  397000    1.1190323   -7.2167441    121.87976  0.025583492  0.026123944            2 
  398000     1.095048   -7.2250977    122.31587  0.025610525  0.026103533            5 
  399000    1.0868814   -7.1902253    122.76076  0.025639257  0.026083973            5 
  400000    1.0914534   -7.2592626    122.84585  0.025592886  0.026063778            9 
  401000    1.0857199   -7.2681458    122.69857  0.025498456  0.026043506            2 
  402000    1.1102422   -7.2324873    123.51638  0.025604555  0.026023922            3 
  403000    1.1048244   -7.3012712     123.3099  0.025498326  0.026003319            6 
  404000    1.0804695   -7.2943859    123.42627  0.025459214   0.02598227            2 
  405000    1.0569289   -7.2540911    123.84849  0.025483229  0.025961755            4 
  406000     1.115131   -7.2035755    124.41648  0.025537045  0.025942072            3 
  407000    1.0668598   -7.2235339    124.34171   0.02545899  0.025922262            5 
  408000    1.0716181   -7.2489025    124.92684  0.025516103  0.025902081            6 
  409000    1.1011549   -7.2918952    124.65245   0.02539781  0.025881915            5 
  410000    1.1082358   -7.2568391    125.21284  0.025449764  0.025861121            2 
  411000    1.0960548   -7.2344541    125.12763  0.025370566   0.02584117            3 
  412000    1.0868708   -7.2772329    125.13805  0.025311095  0.025820504            2 
  413000      1.08579   -7.2474853    125.40359  0.025303387  0.025799282            2 
  414000      1.07194   -7.2685788    125.25631  0.025212623  0.025777625            7 
  415000    1.0872556   -7.2602478    125.23199  0.025146985  0.025755701            3 
  416000    1.0830637   -7.2782637    125.39471  0.025119133  0.025733659            2 
  417000    1.0881987    -7.304205     125.8396  0.025147802   0.02571172            2 
  418000    1.0803389   -7.2526388    126.17767  0.025155037  0.025689661            4 
  419000    1.0772878   -7.2687851    126.09444  0.025078449  0.025667428            3 
  420000    1.0818216    -7.251155    126.47935   0.02509511  0.025645227            4 
  421000    1.0854932   -7.2819232    126.64694  0.025068673  0.025623008            1 
  422000    1.0785107    -7.302089     126.4758  0.024975474  0.025600514            2 
  423000    1.0795346   -7.2584453     127.0401    0.0250276   0.02557809            7 
  424000    1.0885858   -7.2903606    126.53214  0.024868738  0.025555135            5 
  425000    1.0823543   -7.2617026    127.11398   0.02492431  0.025532056            4 
  426000    1.0844972   -7.2694106    127.51322  0.024943901  0.025508861            2 
  427000    1.0905329   -7.3044946    127.32015  0.024847805  0.025485628            7 
  428000     1.089375   -7.2633617    127.51676  0.024828029   0.02546263            3 
  429000    1.0768885   -7.2620558    128.11806  0.024886958  0.025439914            3 
  430000    1.0879251   -7.2782647    128.28444  0.024861326  0.025417329            3 
  431000     1.074347   -7.3117212    128.47253   0.02484001  0.025394517            2 
  432000    1.0901339   -7.2532639    128.76441  0.024838813  0.025371974            6 
  433000    1.0770601   -7.2948103    128.73668  0.024776111  0.025349487            4 
  434000    1.0696796    -7.317728    128.97358  0.024764512  0.025326636            4 
  435000    1.0921258   -7.2821875    129.07131  0.024726305  0.025303676            8 
  436000     1.107943   -7.2842243    129.27588  0.024708692  0.025281159            2 
  437000    1.0816036   -7.2820887    129.34196  0.024664752  0.025258562            3 
  438000    1.0841681   -7.2924781    129.65477  0.024667954  0.025235936            2 
  439000    1.1036262   -7.3412962    129.08786  0.024504149  0.025213118            3 
  440000    1.0821681   -7.2868908     130.0112  0.024623333  0.025190753           12 
  441000    1.0694049   -7.2912652    130.16772  0.024597075  0.025168099            2 
  442000    1.0769535   -7.2781657    130.69496   0.02464083  0.025145815            3 
  443000     1.046313    -7.287088    130.73815  0.024593331  0.025123591            2 
  444000    1.0638847   -7.3017758    130.39799  0.024474097  0.025100943            1 
  445000    1.0886465   -7.2864512     131.1713  0.024563914  0.025078424            4 
  446000    1.0859731   -7.2998814    131.25492  0.024524462  0.025055754            3 
  447000    1.0946791   -7.2590074    131.69783  0.024552169  0.025033363            3 
  448000    1.0793623   -7.3028057    131.72386  0.024502206  0.025011241            2 
  449000    1.0838264   -7.3216117    131.57118  0.024419299  0.024988931            2 
  450000    1.0646034   -7.2550693    132.06797  0.024457031  0.024966208            2 
  451000    1.0953852   -7.2893664    132.21035  0.024429111  0.024944131            3 
  452000    1.0427848    -7.264534    132.63791  0.024453892  0.024922008            5 
  453000    1.1003955   -7.2943908    133.05828   0.02447724  0.024899748            3 
  454000    1.0702506   -7.2742257    133.14421  0.024439098  0.024877625            4 
  455000    1.0860321   -7.2941214    133.31173  0.024416069  0.024855388            3 
  456000     1.062404   -7.3574557    132.70346  0.024251364  0.024832914            3 
  457000    1.0728827   -7.3354341    133.06306   0.02426387  0.024810106            2 
  458000    1.0716264   -7.3173766     133.7491  0.024335717  0.024787968            4 
  459000    1.0566093    -7.294502    133.87177  0.024304969  0.024765839            2 
  460000    1.0509712   -7.2600935     134.0638  0.024286921  0.024744388            3 
  461000    1.0921082   -7.2923192    134.12214  0.024244783  0.024722464            4 
  462000    1.0753047   -7.3687401    133.95873  0.024162831  0.024699673            4 
  463000    1.0824567   -7.3576112    134.22321  0.024158245  0.024676949            5 
  464000    1.0774325   -7.3357081    134.28853  0.024117911  0.024654309            3 
  465000    1.0599876   -7.3075318    134.35189  0.024077399  0.024631644            2 
  466000    1.0544435   -7.2526925    135.17175  0.024172345   0.02460969            3 
  467000    1.0658532   -7.3161078    135.14086  0.024115071  0.024587824            6 
  468000    1.0648598   -7.2796169    135.21853  0.024077373  0.024566045            2 
  469000    1.0512294   -7.2950195    135.56568  0.024087719  0.024544366            2 
  470000    1.0803102   -7.3480427    135.99509  0.024112605  0.024522554            3 
  471000    1.0603278   -7.2989277     136.5068  0.024151945  0.024500864            2 
  472000    1.0672536    -7.326182    136.52758  0.024104445  0.024479761            3 
  473000    1.0769503   -7.2905936    136.50144  0.024048879  0.024458666            4 
  474000    1.0386958    -7.353333    136.32068  0.023966365  0.024437382            4 
  475000    1.0535964   -7.3115399    137.08166  0.024049413  0.024415793            4 
  476000    1.0740968     -7.35353    136.86606  0.023961146  0.024394807            3 
  477000    1.0696288   -7.3532109    137.27156  0.023981754  0.024373763            4 
  478000    1.0437995   -7.3387215      137.984  0.024055787   0.02435308            2 
  479000    1.0690488   -7.3056871    138.03222  0.024013956  0.024332526            3 
  480000    1.0663158   -7.2999979    138.04444  0.023966048  0.024311668            6 
  481000    1.0476692    -7.309952    138.22286  0.023947134  0.024291223            2 
  482000    1.0549905   -7.3373712    138.61004  0.023964391  0.024270895            4 
  483000     1.064424   -7.3511097    138.43664  0.023884858  0.024250706            6 
  484000     1.058763   -7.3618128    138.43955  0.023836011  0.024230657            2 
  485000    1.0757011   -7.3279958    139.07061  0.023895294  0.024210133            6 
  486000    1.0816248    -7.378007    139.55549  0.023929269  0.024189889            1 
  487000     1.047484   -7.3697727    139.54036  0.023877543  0.024169964            3 
  488000    1.0541954   -7.3483284    139.16096  0.023763826  0.024149826            5 
  489000    1.0595463   -7.3142306    140.17532  0.023888091  0.024129828            3 
  490000    1.0509514   -7.3292399    140.33971  0.023867297  0.024109502            5 
  491000    1.0457795   -7.3674421    140.09289  0.023776797  0.024089571            2 
  492000    1.0455438   -7.3443707    140.55737  0.023807143  0.024069871            3 
  493000    1.0743568   -7.3681168    140.26721  0.023709805      0.02405            3 
  494000    1.0518241   -7.3554796    140.55631  0.023710578  0.024029234            3 
  495000    1.0670439   -7.3554757     140.4721  0.023648501  0.024008145            3 
  496000     1.049677   -7.3651307    140.70099  0.023639279  0.023987205            2 
  497000    1.0661062   -7.3572764    140.49648  0.023557425  0.023966048            4 
  498000    1.0344636   -7.3807725    140.50924  0.023512256  0.023944996            3 
  499000    1.0416798   -7.3715627    141.47835  0.023626979  0.023924409            3 
  500000    1.0546419   -7.4067576    141.34061  0.023556769  0.023904025            4 
  501000    1.0662537   -7.3168043    141.52387  0.023540231  0.023883506            3 
  502000    1.0576438   -7.3604512    141.85314  0.023547999  0.023863318            5 
  503000     1.045847   -7.3661431    142.18536  0.023556222  0.023843124            5 
  504000    1.0603003   -7.3716999    142.42877   0.02354973  0.023822633            6 
  505000    1.0670063   -7.3677499     142.2716  0.023477162  0.023802238            5 
  506000    1.0499905   -7.3405741    142.83472  0.023523504  0.023781692            3 
  507000    1.0417499   -7.3817006     142.2605  0.023382725  0.023761169            5 
  508000    1.0618416   -7.3954325    142.03199  0.023299211   0.02374018            4 
  509000    1.0371875   -7.3946483    142.56108  0.023340058  0.023718812            4 
  510000    1.0548993   -7.3617151     143.2787  0.023411552  0.023697801            3 
  511000    1.0628312   -7.3576166    143.45054  0.023393761  0.023677422            2 
  512000    1.0619991   -7.3668118    143.60782  0.023373668  0.023657123            4 
  513000    1.0461873   -7.3499888    143.96133  0.023385531  0.023637155            7 
  514000    1.0383685   -7.3609433    144.19863  0.023378506  0.023616753            7 
  515000    1.0463915   -7.3494571    144.10781  0.023318415  0.023596726            6 
  516000    1.0574945   -7.3742542    144.45468  0.023329244  0.023576249            3 
  517000    1.0733325   -7.3641596    144.46988   0.02328657  0.023556006            7 
  518000    1.0751559   -7.3778902    144.72688   0.02328296  0.023535785            5 
  519000    1.0242503   -7.3785877    144.73214  0.023238944  0.023515166            7 
  520000    1.0228704   -7.3968123    144.70095  0.023189254  0.023494517            3 
  521000    1.0518837   -7.3658159    145.53872  0.023278747   0.02347406            4 
  522000    1.0468417   -7.4091813    144.78102   0.02311319  0.023453678            5 
  523000    1.0278323     -7.40339    145.24431  0.023142816  0.023433254            9 
  524000     1.033615   -7.3889137    145.15148  0.023083887  0.023412759            6 
  525000     1.046167   -7.4025885    144.88903  0.022998259  0.023392043            3 
  526000    1.0531915   -7.3325048    145.74497   0.02309014  0.023371832            2 
  527000    1.0299342   -7.4273097    145.31015  0.022977569  0.023350937            3 
  528000    1.0628665   -7.3208937    146.57628  0.023133882  0.023330293            2 
  529000    1.0359733   -7.4034003    146.08111  0.023012148  0.023309915            4 
  530000    1.0491101   -7.3816917    146.05041  0.022963901  0.023289264            2 
  531000     1.037895   -7.3903681    146.60469  0.023007642  0.023268938            7 
  532000     1.045705   -7.4332038    146.18017  0.022897897  0.023248122            2 
  533000    1.0166994   -7.4158759     146.7778  0.022948374  0.023227471            2 
  534000    1.0476517   -7.4013082    146.94944  0.022932185  0.023207147            3 
  535000    1.0489354   -7.3787447    147.41857  0.022962395  0.023186987            2 
  536000    1.0458315   -7.4225922    147.42238  0.022920145  0.023166914            7 
  537000    1.0343834   -7.4106075    147.71874  0.022923454  0.023146621            4 
  538000    1.0609858   -7.3943814    147.80239  0.022893803  0.023126487            4 
  539000    1.0523589   -7.3587518    148.51041  0.022960794  0.023106567            2 
  540000    1.0441363   -7.3449199    148.71327  0.022949578  0.023086611            4 
  541000    1.0341463   -7.3861818    148.36175  0.022853012  0.023066588            3 
  542000     1.039038   -7.4050244    148.16976  0.022781329  0.023046524            2 
  543000    1.0388858   -7.4309537    148.59601   0.02280479  0.023026236            6 
  544000    1.0309082   -7.3775128    148.74491  0.022785678  0.023006126            2 
  545000    1.0459272   -7.4105194     149.1527  0.022806223   0.02298595            6 
  546000    1.0593332    -7.400365    148.74089    0.0227016  0.022966037            2 
  547000    1.0483168   -7.4072599    148.43074  0.022612849  0.022945496            6 
  548000    1.0208203   -7.4138758    149.49635   0.02273363    0.0229247            3 
  549000    1.0309964    -7.380387    149.64788  0.022715221  0.022904583            7 
  550000    1.0454098   -7.4288533    149.80206  0.022697282  0.022884264            4 
  551000    1.0284252   -7.3897826    150.01199  0.022687838  0.022864013            2 
  552000    1.0214917   -7.4101916    149.89297  0.022628769  0.022844231            4 
  553000    1.0647121   -7.3916285    149.93417  0.022594058  0.022824392            3 
  554000      1.03273   -7.3849802    150.64723  0.022660534  0.022804599            3 
  555000    1.0268671   -7.4029205    150.52226   0.02260094  0.022784785            3 
  556000    1.0382735    -7.403671    150.49903  0.022556809  0.022764778            3 
  557000    1.0519185    -7.416456    150.48812  0.022514681  0.022744495            5 
  558000    1.0345998   -7.4671817    150.35474  0.022454412  0.022724242            3 
  559000    1.0306531   -7.4255036    151.03248  0.022515277  0.022704134            3 
  560000    1.0238356    -7.436732    151.04528  0.022476977  0.022684048            3 
  561000    1.0116931   -7.4213176    151.29707  0.022474313  0.022664066            8 
  562000    1.0368447   -7.3734371    152.22551  0.022571991  0.022644803            6 
  563000    1.0004685   -7.4276512    151.76044  0.022463062  0.022625265            5 
  564000    1.0265213   -7.4598438     151.2967  0.022354713  0.022605184            4 
  565000    1.0292971    -7.464182    151.54886   0.02235234  0.022585108            3 
  566000    1.0113656   -7.5069465    151.38217  0.022288306  0.022565085            9 
  567000    1.0433548   -7.4226273    152.19916  0.022369072  0.022545137            5 
  568000    1.0360418    -7.474902    152.21512  0.022332031  0.022525772            3 
  569000     1.023026   -7.4512699    152.61371  0.022351159  0.022506348            2 
  570000    1.0173218   -7.4193896    153.19165   0.02239644  0.022487484           12 
  571000    1.0394373   -7.4151776    153.92736  0.022464589  0.022469219            7 
  572000    1.0303132   -7.4207557    153.85679  0.022415034    0.0224509            9 
  573000    1.0185901   -7.4559379    153.67247  0.022349109  0.022432411            4 
  574000    1.0403572    -7.464486    153.64982  0.022306884  0.022414116            4 
  575000    1.0228076   -7.3939342    154.72638  0.022424113  0.022395903            3 
  576000     1.027695   -7.4187798    154.43874  0.022343568  0.022377743            2 
  577000     1.008579   -7.4426026    154.28433  0.022282544  0.022359601            2 
  578000    1.0060616   -7.4289939    154.62199  0.022292674  0.022341295            4 
  579000    1.0238521   -7.4329118    154.64871  0.022258018  0.022322805            4 
  580000    1.0309261   -7.4268413    155.15561  0.022292473  0.022304456            2 
  581000    1.0559333   -7.4308368    155.00013  0.022231803  0.022286077            5 
  582000    1.0148485   -7.4643931    154.80934  0.022166285    0.0222675            3 
  583000     1.004336   -7.4431129    155.42361  0.022216068   0.02224889            2 
  584000    1.0025589   -7.4896582     154.8891  0.022101755  0.022230374            7 
  585000    1.0044035   -7.4843365    155.27126  0.022118413  0.022211676            4 
  586000    1.0270135   -7.4435721    155.17613   0.02206714  0.022192599            2 
  587000    1.0022837   -7.4121491    156.46932  0.022213134  0.022174255           12 
  588000     1.046737   -7.3941859    156.64817  0.022200705  0.022155913            3 
  589000    1.0117679   -7.4546503    156.43178  0.022132397  0.022138287            6 
  590000   0.99914102   -7.4643335    156.68879  0.022131184  0.022120125            4 
  591000    1.0071562   -7.4568435    156.33924   0.02204445  0.022101916           10 
  592000    1.0019958   -7.4342192    156.72228  0.022061131  0.022083737            7 
  593000    1.0192364    -7.456448    156.97046  0.022058806  0.022065433            3 
  594000    1.0252252   -7.4398734    157.00768  0.022026892  0.022047211            5 
  595000    1.0007695   -7.4605218    157.23519  0.022021735  0.022029043            2 
  596000    1.0254766   -7.4843128    157.30269  0.021994225  0.022010814            3 
  597000    1.0323146   -7.4417769    157.42823  0.021974907  0.021992523            6 
  598000    1.0260336   -7.4128704    157.81142  0.021991558  0.021974434            4 
  599000    1.0075532    -7.479225    157.40565  0.021898393  0.021956105            2 
  600000    1.0101281   -7.4403981    157.98006  0.021941675  0.021937939            3 
  601000     1.034782   -7.4263252    158.11377  0.021923706  0.021919591            5 
  602000    1.0181448   -7.4484712    158.10939  0.021886682  0.021901544            3 
  603000    1.0143331   -7.5073223    158.60387  0.021918721   0.02188383            4 
  604000    1.0229302    -7.461006     158.9463  0.021929678  0.021866028            2 
  605000   0.99342668   -7.4845686      158.416  0.021820386  0.021848392            7 
  606000    1.0117445   -7.4530716    158.99048  0.021863377  0.021830642            4 
  607000    1.0066744   -7.4990126    158.82851  0.021805122  0.021813025            6 
  608000    1.0040243   -7.5013691    159.24762  0.021826703  0.021795349            8 
  609000    1.0215607   -7.4868291    159.05574  0.021764606  0.021777905            6 
  610000    1.0275312   -7.5137717    159.25894  0.021756686  0.021760415            3 
  611000    1.0280468   -7.5325232    159.21761  0.021715441  0.021742387            8 
  612000   0.98629506   -7.4839691    160.14815  0.021806665  0.021724848            2 
  613000    1.0203227   -7.5090133    160.11639  0.021766774  0.021707368            8 
  614000    1.0118221   -7.4704135    160.68768   0.02180886    0.0216899            4 
  615000    1.0014139   -7.5335702    160.39764  0.021734097  0.021672499            6 
  616000    1.0194196   -7.5045086    160.58682  0.021724408  0.021655308            5 
  617000    1.0283497   -7.4734167      160.639  0.021696246  0.021638024            4 
  618000    1.0261101   -7.5166818    160.98999  0.021708467  0.021621103            4 
  619000   0.98822144   -7.5321824    161.08659  0.021686401   0.02160391            3 
  620000    1.0079379   -7.5054622    161.71329  0.021735657  0.021586695            9 
  621000   0.99575406   -7.5132686    161.43298   0.02166304  0.021569781            3 
  622000    1.0230239    -7.475684    161.35945  0.021618362  0.021552644            4 
  623000   0.99708432   -7.4992785    161.81254  0.021644268  0.021535392            4 
  624000    1.0062625   -7.4858698    161.72996  0.021598552  0.021517844            3 
  625000   0.98130453   -7.5130818    162.10487  0.021613983  0.021500847            5 
  626000   0.99128577   -7.5175084    162.26677  0.021601007  0.021483926            8 
  627000   0.99072798   -7.5289257    161.86707  0.021513433  0.021466889            3 
  628000    1.0183699   -7.4813635    162.20109  0.021523499   0.02144979            3 
  629000   0.98662842   -7.4978492     162.2343   0.02149368  0.021432351            4 
  630000   0.99287407    -7.555622    162.35257  0.021475208  0.021415069            7 
  631000    1.0183245   -7.4931451    163.01284  0.021528372  0.021398114            6 
  632000    1.0283094   -7.5277457    162.26132  0.021395216  0.021381168            5 
  633000    1.0096306   -7.5160221    163.18412  0.021482901   0.02136392            2 
  634000    1.0153162   -7.4732901    163.23763  0.021456051  0.021346787            6 
  635000   0.99657518   -7.4864224    162.89126  0.021376805  0.021329384            3 
  636000    1.0107295   -7.5331201    163.19677  0.021383225  0.021311671            5 
  637000   0.99571134   -7.5017272    163.05291  0.021330835  0.021293926            2 
  638000    1.0051861   -7.5415608    163.04266  0.021296063  0.021276322           11 
  639000    1.0177157   -7.5239778    163.39281    0.0213084  0.021258646            6 
  640000    1.0069696   -7.5314042    163.49333  0.021288194  0.021240936           10 
  641000    1.0108625   -7.5471559     163.2814  0.021227432   0.02122319            3 
  642000   0.98999616   -7.5310954    163.68519  0.021246779  0.021205435            2 
  643000   0.98278321   -7.5037218    164.29413  0.021292655  0.021187962            4 
  644000   0.98377297   -7.5243458    163.77199  0.021192027  0.021170095            4 
  645000   0.97874852   -7.5426894    164.10069   0.02120164  0.021152519            7 
  646000    1.0078911   -7.5217949    164.15098  0.021175307  0.021134635            4 
  647000    1.0042336   -7.4755037    164.48489  0.021185585  0.021117095            3 
  648000    1.0104311   -7.5059604    164.44437  0.021147681   0.02109941            2 
  649000   0.99551953    -7.515597    164.55102  0.021128791   0.02108167            6 
  650000     1.000872    -7.563256    164.17643  0.021048261  0.021063698            5 
  651000     1.014653   -7.5506947    164.58707  0.021068493  0.021045791            1 
  652000   0.97594614   -7.5563154    164.36842  0.021008234  0.021027909            8 
  653000   0.99760025   -7.5091412      164.417  0.020982262   0.02100998            9 
  654000   0.98411254   -7.5627874    164.52292  0.020963675  0.020991765           10 
  655000    1.0018743   -7.5494105    164.91829   0.02098197  0.020973669            5 
  656000   0.99412421   -7.5443374    164.64469   0.02091523  0.020955679            5 
  657000    1.0149701   -7.5242437    165.59611  0.021004073  0.020937593            3 
  658000   0.98628291   -7.5551151    165.82426  0.021001046  0.020920037            9 
  659000    1.0053733   -7.5420191    165.66901  0.020949546  0.020902136           13 
  660000   0.96843528   -7.5007259    165.72228  0.020924531  0.020884398            7 
  661000     1.015231   -7.5405051    165.89881   0.02091513  0.020866775            6 
  662000   0.97897142   -7.5187584     166.1137  0.020910586  0.020849098            7 
  663000   0.99744125   -7.5381748    166.15974  0.020884834  0.020831448            2 
  664000   0.98882297   -7.5071459    166.31983  0.020873473  0.020813696            3 
  665000    0.9951902   -7.5188939    166.13555  0.020818992  0.020795842            2 
  666000    1.0061364   -7.5617551    165.86806  0.020754261  0.020778152            7 
  667000    1.0068566   -7.5145046    166.82191  0.020842317  0.020760271            4 
  668000   0.99990907   -7.5376916    166.07257  0.020717636  0.020742378            2 
  669000    0.9860096   -7.5691817    166.32337  0.020717909  0.020724202            5 
  670000   0.96389022   -7.5605783    166.24576  0.020677333  0.020705955            9 
  671000   0.99756831   -7.5716472    166.50951  0.020679273  0.020687872            4 
  672000   0.95731137   -7.5462382     166.6397  0.020664645  0.020669782            3 
  673000   0.97864195   -7.5093562    166.96319  0.020673996  0.020651978            3 
  674000   0.99533483   -7.5081534    167.14681  0.020666025  0.020634269            3 
  675000   0.99083083   -7.5544822    167.93128  0.020732257  0.020616688           10 
  676000   0.97434677   -7.5202975    167.63697  0.020665307  0.020599305            3 
  677000    0.9834613   -7.5641667    167.45976  0.020612969  0.020581609            4 
  678000   0.97868859   -7.5664316    167.66695  0.020608032    0.0205642            3 
  679000   0.99280756    -7.568465    168.44237  0.020672848  0.020546775            4 
  680000   0.98444863   -7.5910153    167.97924  0.020585691  0.020529286            5 
  681000   0.98931959   -7.5537732    168.03949  0.020562835  0.020511785            5 
  682000   0.99266551   -7.5568004    168.42847  0.020580214  0.020494406            4 
  683000    0.9757578   -7.5765042    168.38864  0.020545222  0.020477075            5 
  684000   0.99034221   -7.5904734    168.63727  0.020545477  0.020460013            6 
  685000   0.98242465   -7.5549867    168.72478  0.020526129  0.020443158            4 
  686000   0.97368385   -7.5572021    169.13624   0.02054619  0.020426355            3 
  687000   0.99399033   -7.5525903    169.22434   0.02052697  0.020409334            8 
  688000   0.99115941   -7.5699277    169.59639  0.020542199  0.020392246            3 
  689000    0.9823836   -7.6070188    169.05762  0.020447221  0.020375098            4 
  690000   0.97426491   -7.5395544    169.58349  0.020481098  0.020358038            3 
  691000   0.97584201   -7.5528204    169.89717  0.020489287  0.020341166            8 
  692000   0.96802232   -7.6012031    169.72718  0.020439207  0.020324051            2 
  693000   0.96343534    -7.573274    169.98716  0.020440976  0.020307196            3 
  694000     0.969522   -7.5988401    169.94808   0.02040683  0.020290387            3 
  695000   0.98769514   -7.5588587     170.6192  0.020457937  0.020273833            5 
  696000   0.98070697   -7.5643437    171.05162  0.020480319  0.020257309            1 
  697000   0.96436097   -7.5602416    170.44506  0.020378414  0.020240727            5 
  698000   0.97094684   -7.5676216    170.90327  0.020403924  0.020224336            2 
  699000   0.98223484   -7.5839081    171.65409  0.020464245  0.020208169            4 
  700000   0.99218515   -7.5985518    171.11938  0.020371355  0.020191738            5 
  701000   0.97539256   -7.5756437    171.38609  0.020374001  0.020175285            4 
  702000   0.95600576   -7.6040313    171.07108  0.020307583  0.020158601            7 
  703000   0.98411846    -7.596938    171.81744  0.020367169  0.020142268            2 
  704000   0.97973764   -7.6281036    171.76955   0.02033257  0.020125834            6 
  705000   0.97135106   -7.6062837    171.73083  0.020299153  0.020109664            4 
  706000   0.99158818   -7.6252879    171.72918  0.020270205  0.020093572            2 
  707000   0.99432545   -7.5663438    172.28503  0.020307052  0.020077436            5 
  708000   0.97681677   -7.6134207    172.18686  0.020266814  0.020061276            5 
  709000    0.9431558   -7.5764161    172.36844  0.020259572  0.020045155            4 
  710000    0.9666514   -7.6056419    172.54447  0.020251698  0.020028944            3 
  711000   0.98403513   -7.5939074    172.46181  0.020213527  0.020012887            2 
  712000   0.96633703   -7.6219416    172.27751  0.020163566  0.019996758            3 
  713000   0.98823884   -7.6067804    173.14509  0.020236687  0.019980514            8 
  714000   0.98097837   -7.6179474    172.58388  0.020142843  0.019964181            4 
  715000   0.97584008   -7.6250136    172.60339  0.020116946  0.019947858            5 
  716000   0.96338437   -7.5914902    172.63713  0.020092776  0.019931448            3 
  717000   0.99148191   -7.5902669    173.03004  0.020110418  0.019914943            4 
  718000   0.97616402   -7.5796067    172.94099  0.020072074  0.019898341            2 
  719000   0.97612903   -7.5708056    173.46638  0.020105051  0.019881949            5 
  720000   0.96119786   -7.5781631    172.96062   0.02001859  0.019865421            4 
  721000   0.98370136   -7.5741457    173.47771   0.02005059  0.019848812            5 
  722000   0.95752754   -7.6135472     172.7885  0.019943271  0.019832208            5 
  723000   0.96708311   -7.5977612     173.5602  0.020004633  0.019815447            3 
  724000   0.95975361   -7.6185899    173.88225  0.020014071  0.019798898            7 
  725000   0.97596768   -7.6373593    173.10503   0.01989713  0.019781998           13 
  726000   0.93743314   -7.5960413    173.30957  0.019893201  0.019764801            4 
  727000    0.9670776   -7.5967101    173.71337  0.019912123  0.019747913            3 
  728000   0.96330645   -7.6371751    173.20134  0.019826161  0.019730875            6 
  729000   0.95541708   -7.6288803    173.65264  0.019850553  0.019713545            3 
  730000   0.97793992    -7.625186      173.531  0.019809475  0.019696248            5 
  731000   0.95651355   -7.6321249    173.16725  0.019740909  0.019679011            7 
  732000   0.95944171   -7.6211083    173.39389  0.019739742  0.019661692            5 
  733000   0.94644742   -7.5903416    173.62216  0.019738763  0.019644244            6 
  734000   0.96958818   -7.6359045    173.29236  0.019674427  0.019626853           14 
  735000   0.97110442   -7.5967087    173.98724  0.019726444  0.019609501            7 
  736000   0.95475517   -7.6146969    173.77997  0.019676174  0.019592177            4 
  737000   0.95028441   -7.5983164    173.55816  0.019624396  0.019574664            9 
  738000   0.94619823   -7.6939346    173.51317  0.019592725   0.01955699            3 
  739000   0.97532302   -7.6323197    173.41255  0.019554865   0.01953962            6 
  740000   0.95402435   -7.6704537    173.76627  0.019568274  0.019522035           10 
  741000    0.9405908   -7.6652951    174.10999  0.019580521   0.01950439            5 
  742000   0.95880607   -7.6428156    174.01866  0.019543875  0.019486827            4 
  743000   0.96930407   -7.6489478    174.12096  0.019529045  0.019469362            4 
  744000   0.94859168   -7.6557304    174.47055  0.019541952  0.019452058            9 
  745000   0.95208845    -7.660324    174.39816  0.019507624   0.01943475            5 
  746000   0.96075127   -7.6507694    174.82435  0.019529082  0.019417309            6 
  747000   0.96535535   -7.6626355    174.82876  0.019503432   0.01940011            5 
  748000   0.95466573   -7.6583147    174.89988   0.01948528  0.019383014            5 
  749000   0.95193098   -7.6661376     174.7727  0.019445115  0.019365734            4 
  750000   0.96714955    -7.628007    174.89754   0.01943306  0.019348387            5 
  751000   0.96419024   -7.6380547     175.6846  0.019494518   0.01933146            6 
  752000   0.93548421   -7.6271405    175.39146   0.01943611  0.019314438            3 
  753000   0.94134563   -7.6702163    175.61318  0.019434836  0.019297544            2 
  754000    0.9429135   -7.6506498    175.26188  0.019370234  0.019280418            8 
  755000   0.94967941   -7.6198562    175.80735  0.019404785  0.019263177            8 
  756000   0.94948935   -7.6721972    175.60299  0.019356591  0.019245982            5 
  757000   0.95974762   -7.6904581    176.12262  0.019388223  0.019228853            6 
  758000   0.94275224   -7.6427628    176.32012  0.019384358  0.019211967            3 
  759000   0.93988214   -7.6350318    176.62092  0.019391844  0.019195064            5 
  760000   0.98209917   -7.6748014    176.50191  0.019353279  0.019178343            3 
  761000   0.94827892   -7.6607481    176.48854  0.019326384  0.019161809            3 
  762000    0.9406779   -7.6756509    176.26762  0.019276862  0.019145203           14 
  763000   0.93540859   -7.6932577    176.98535  0.019329985  0.019128646            6 
  764000   0.94473858   -7.6728547    176.99463  0.019305697  0.019112193           13 
  765000   0.95599405    -7.645474    177.42299  0.019327124  0.019095698            5 
  766000   0.94234465   -7.7104369    177.06158  0.019262573  0.019079124            4 
  767000   0.95633876   -7.6814775    176.65615  0.019193411  0.019062452           11 
  768000   0.94109595    -7.665448    176.96317  0.019201732  0.019045816            8 
  769000   0.93777419   -7.6304094    177.71474  0.019258207  0.019029378            5 
  770000   0.95626286   -7.6372065    177.65509  0.019226741  0.019013145            7 
  771000   0.93324168   -7.6919571    177.34458  0.019168243  0.018996837           10 
  772000   0.95419036   -7.7076261    177.49777  0.019159949  0.018980259            4 
  773000   0.93875054   -7.6685544    177.78762  0.019166411  0.018963845           12 
  774000    0.9483206   -7.6409034    178.07893  0.019173011  0.018947609            6 
  775000    0.9577514    -7.667977    178.14688  0.019155579  0.018931542            4 
  776000   0.95001864   -7.6606956    177.90011  0.019104393  0.018915447            6 
  777000   0.93816494   -7.6625781    178.40728    0.0191342  0.018899233            6 
  778000   0.94393101   -7.6760189    178.10733  0.019077478  0.018882972            3 
  779000   0.94647849   -7.6950083    178.50481  0.019095508  0.018866665            3 
  780000    0.9568358   -7.7303182    178.08002  0.019025643  0.018850104            5 
  781000   0.95431104   -7.7258719    177.93154  0.018985439  0.018833705           12 
  782000   0.93444376   -7.7035542    178.37577  0.019008501  0.018817205            5 
  783000   0.96076898   -7.7131989    178.39244  0.018985998   0.01880087            8 
  784000   0.95941937   -7.7278475    178.72019  0.018996619  0.018784629           10 
  785000   0.96215298   -7.6871171    178.73171  0.018973643  0.018768212           11 
  786000   0.93858449    -7.725008    178.44149  0.018918733  0.018751943            3 
  787000   0.94673366   -7.6927936     178.8381   0.01893669  0.018735629            4 
  788000    0.9474035   -7.6807718    179.56193  0.018989206  0.018719408           11 
  789000   0.96039985    -7.697228    178.47312   0.01885014  0.018703104           14 
  790000   0.95604911   -7.6882761    179.32555  0.018916197  0.018686767            8 
  791000    0.9421891   -7.6831775    179.86247  0.018948849  0.018670633            4 
  792000   0.91099772   -7.6734379    179.70397  0.018908246  0.018654726            4 
  793000   0.93632372   -7.6672086    179.58595  0.018871999   0.01863871            5 
  794000   0.94328226   -7.7055865    179.71546  0.018861824  0.018622786            9 
  795000   0.93366381   -7.6979651    180.31414  0.018900853  0.018606954            8 
  796000   0.95552539   -7.7510653    179.77857   0.01882104  0.018590977           10 
  797000     0.940279   -7.7299468    179.37541   0.01875527  0.018574898           10 
  798000   0.93196166    -7.724354    179.73278  0.018769088  0.018558699            4 
  799000   0.92406664    -7.784919    179.31283  0.018701797  0.018542322            5 
  800000   0.94827576   -7.7255198    179.93295  0.018743015   0.01852593            4 
  801000   0.95345249   -7.7418614    180.05153  0.018731952  0.018509738            4 
  802000   0.95235113   -7.6909534    181.12019  0.018819638  0.018493627            6 
  803000   0.93045454   -7.6967357    180.45493  0.018727161  0.018477795            4 
  804000    0.9299032   -7.6880788    181.13099  0.018773941  0.018461981           10 
  805000   0.93666984   -7.6775819    181.16182  0.018753812  0.018446276            4 
  806000   0.92449178   -7.7095004    180.61101  0.018673595   0.01843047            6 
  807000   0.95754695   -7.7523283    180.01612  0.018589025  0.018414369            5 
  808000   0.92836113    -7.752772    180.73368  0.018640024  0.018398404            7 
  809000   0.93318276   -7.7345803    180.63742  0.018607069   0.01838241            4 
  810000   0.95145649   -7.7301468    180.87762  0.018608809  0.018366345           13 
  811000   0.95792869   -7.7257769    180.69737  0.018567341  0.018350321            4 
  812000   0.93669326   -7.6966972    181.40256  0.018616848  0.018334399            6 
  813000   0.91968704   -7.7006693    180.96334  0.018548928  0.018318517            8 
  814000   0.92915152   -7.7279687    181.27106  0.018557644  0.018302617            6 
  815000   0.93572484   -7.7432643    181.22729  0.018530397  0.018286876            8 
  816000   0.91891289   -7.7706661    181.30261  0.018515381  0.018271012            4 
  817000   0.92150318   -7.7317795    181.26682  0.018489068  0.018255111           14 
  818000   0.92871849   -7.6758496     181.7291  0.018513559  0.018239197            5 
  819000   0.90098178    -7.703412    181.62321   0.01848018  0.018223427            5 
  820000   0.92294473   -7.6907142    182.00563  0.018496507   0.01820762           14 
  821000   0.92039979   -7.7590682    181.70222  0.018443181  0.018191686           10 
  822000   0.91921057   -7.7452544    181.86768  0.018437518  0.018175698            5 
  823000      0.92039   -7.7158198    181.87046  0.018415397  0.018159675            5 
  824000   0.91894795   -7.7258434    182.09026  0.018415278    0.0181438            5 
  825000   0.92233289   -7.7486454    181.60864  0.018344307  0.018127989            3 
  826000   0.91986361   -7.7352646     182.2259  0.018384372  0.018112104            4 
  827000   0.93994063   -7.7453499    182.30163  0.018369773  0.018096291            8 
  828000   0.92366841   -7.7602481    181.89213  0.018306374  0.018080404           12 
  829000   0.90948922   -7.7187893    182.38913  0.018334251  0.018064599            7 
  830000   0.92251333   -7.7218766    182.13877  0.018287025  0.018048759           10 
  831000   0.92585359   -7.7082098    182.71047   0.01832235  0.018032992            6 
  832000   0.91500543   -7.7408437    182.66575  0.018295848  0.018017216            5 
  833000   0.92352178   -7.7407899    182.42243  0.018249542  0.018001467           10 
  834000   0.92715202   -7.7573086    182.56988  0.018242394  0.017985611            4 
  835000   0.90536968   -7.7543681      182.656  0.018229142  0.017969896            9 
  836000   0.91043841   -7.7378328    183.69027  0.018310433  0.017954169            6 
  837000    0.9149474   -7.7409922    183.16902  0.018236661  0.017938466            4 
  838000   0.92478073   -7.7090331    183.22032      0.01822  0.017922866            8 
  839000   0.91928955   -7.7303029    183.52492  0.018228538  0.017907389            6 
  840000   0.90565141   -7.7567797    183.18277  0.018172894  0.017891951           10 
  841000   0.92451382   -7.6733934    184.60993    0.0182927  0.017876657            3 
  842000   0.91045581   -7.7647379    183.63889  0.018174871   0.01786143            9 
  843000   0.91282259   -7.7688277    183.67471  0.018156851  0.017846004            5 
  844000   0.90910566    -7.757221    183.70594  0.018138422  0.017830532           10 
  845000   0.90895795   -7.7416854    184.36865  0.018182313   0.01781511            8 
  846000   0.90831375   -7.7615332    183.94415  0.018119006  0.017799668            3 
  847000   0.92132832   -7.7651104    183.98495  0.018101628  0.017784387            7 
  848000   0.92789054   -7.8015049    183.88455  0.018070416   0.01776903            5 
  849000    0.9009488   -7.8048945    184.05843  0.018066198  0.017753717            4 
  850000   0.90903065   -7.7576554    184.34811  0.018073344  0.017738427            6 
  851000   0.91492247   -7.7587872    184.50979  0.018067939  0.017723175           12 
  852000   0.92095632   -7.7867267    184.50672  0.018046432  0.017708014            7 
  853000   0.90497934   -7.7740427    184.97635  0.018071156  0.017692934            5 
  854000   0.91546205   -7.7880724    185.03778  0.018055989  0.017677823            6 
  855000   0.89715742   -7.7717823    184.86991   0.01801851  0.017662616            8 
  856000   0.90587177   -7.7645848    184.86504  0.017996986  0.017647423            5 
  857000   0.87943893   -7.7884631    185.26651  0.018015024   0.01763223            7 
  858000    0.8946592   -7.7564294     185.1413  0.017981867  0.017617106            6 
  859000   0.92079053   -7.7624603    184.63166  0.017911492  0.017601943            5 
  860000    0.9228403   -7.7783736    184.98063  0.017924479  0.017586718            7 
  861000   0.88219112   -7.7846282    185.15202   0.01792025   0.01757147            4 
  862000   0.91341145   -7.7755116    185.15552  0.017899799  0.017556311            9 
  863000   0.91013267   -7.7640701    186.08467  0.017968779  0.017541295            5 
  864000    0.8921329   -7.7822803    185.77405  0.017918022  0.017526216            9 
  865000   0.90920477   -7.8013931     185.4884  0.017869788  0.017511132           14 
  866000   0.92272504    -7.818212    185.40982  0.017841591  0.017495945            4 
  867000   0.92419187   -7.7990369    185.75772  0.017854452  0.017480688           17 
  868000   0.89890785   -7.8371827    185.22168  0.017782419  0.017465472            6 
  869000    0.9200764   -7.8100683    185.38444  0.017777564  0.017450254            8 
  870000   0.92026416   -7.8012734    185.42366  0.017760887  0.017435188            8 
  871000   0.89910697   -7.7587773    186.30969  0.017825267  0.017420052            6 
  872000   0.91729997   -7.8071398    185.99767  0.017775006  0.017405089            9 
  873000   0.89894863   -7.8094947    185.99288  0.017754189  0.017390062            3 
  874000   0.90539017   -7.8024175    186.16226  0.017750025  0.017375141            8 
  875000   0.88549938   -7.7921741    186.51641  0.017763467  0.017360161            8 
  876000   0.91641372   -7.7933551     186.3335   0.01772579  0.017345031            6 
  877000   0.92004469   -7.8080221    185.96379  0.017670447  0.017330045           10 
  878000   0.88893948   -7.8194684    186.23149  0.017675729   0.01731497            4 
  879000   0.91385612   -7.8322237    186.15902   0.01764875  0.017299783           11 
  880000   0.90504643   -7.8184288    185.98787  0.017612488  0.017284649            5 
  881000   0.89115596   -7.7746007    186.83327  0.017672462  0.017269591            7 
  882000   0.91752837   -7.7859171    186.35873   0.01760759  0.017254502            5 
  883000   0.90104672   -7.8015429    186.26256  0.017578573  0.017239403           10 
  884000   0.89193521   -7.8111596    186.01127  0.017534999  0.017224241            6 
  885000   0.91330036   -7.7963391    186.77446  0.017587049  0.017209042           10 
  886000   0.89242869   -7.8442326    186.61957  0.017552631  0.017193798           10 
  887000   0.90238121   -7.8446599    186.50871  0.017522427  0.017178624            5 
  888000   0.90528777   -7.8026509    187.11489   0.01755958   0.01716334            6 
  889000   0.89366192    -7.852201    186.56964  0.017488717  0.017148145            4 
  890000   0.89535514   -7.8138953    187.11746  0.017520361  0.017133057           12 
  891000   0.89984649    -7.835175    187.32532  0.017520138  0.017118023            6 
  892000   0.89239061   -7.8461367     186.8508  0.017456166  0.017102954            5 
  893000   0.90547521   -7.8356291    187.11083  0.017460884  0.017087876            8 
  894000   0.90353486   -7.8293894    187.27849  0.017456981  0.017072772            9 
  895000   0.87257217    -7.828925    187.12735  0.017423403  0.017057765           12 
  896000    0.8929889   -7.8732912    187.10631     0.017402  0.017042882            8 
  897000    0.8820368    -7.859363    187.52055  0.017421084  0.017027958           16 
  898000    0.9051478   -7.8279543    187.93929  0.017440543  0.017013183            9 
  899000   0.91418767    -7.829341    187.81803  0.017409903   0.01699833            4 
  900000   0.87514015    -7.860695    187.73116  0.017382515  0.016983509            4 
  901000   0.91581595   -7.8171097    188.21684  0.017408143  0.016968774            3 
  902000   0.88804972   -7.8436124     187.8907  0.017358712  0.016954049            6 
  903000   0.89111432   -7.8485618    188.13551  0.017362081  0.016939342            5 
  904000   0.88155458   -7.8296933     188.3307  0.017360868  0.016924593            5 
  905000   0.91040573   -7.8028915    188.70906  0.017376525  0.016910002            3 
  906000   0.89233219   -7.8330347    187.97096  0.017289456  0.016895332            7 
  907000   0.90611268   -7.8717833    188.26266  0.017297194   0.01688061           13 
  908000   0.88812264   -7.8292248     188.5565  0.017305112  0.016865924            6 
  909000   0.88646609   -7.8708833    187.78947  0.017215756  0.016851086            6 
  910000   0.89573967   -7.8555314    188.14009  0.017228946  0.016836263            7 
  911000    0.8974024   -7.8541689    188.69003   0.01726034  0.016821372            8 
  912000   0.89467772    -7.862365    188.04724  0.017182679  0.016806549            4 
  913000   0.90319133   -7.8686385     188.0109  0.017160542  0.016791627           13 
  914000   0.89130324   -7.8335265    188.28612   0.01716686   0.01677664           14 
  915000    0.8855509   -7.8252463    188.43537  0.017161691  0.016761716            9 
  916000   0.89035034   -7.8581093    188.51196  0.017149923  0.016746999           11 
  917000   0.88346495   -7.8395181    188.36443  0.017117814  0.016732294           12 
  918000   0.91115469    -7.830325    188.78739  0.017137562  0.016717641            9 
  919000   0.89972319    -7.833643    188.44893  0.017088224  0.016702874            9 
  920000   0.84996139   -7.8612875    188.26958  0.017053404  0.016688082           11 
  921000   0.88233446     -7.91477    188.35743  0.017042836  0.016673245            5 
  922000   0.88327447   -7.8665547    188.67365  0.017052933  0.016658506            5 
  923000   0.88247506   -7.8943822     188.6954  0.017036421  0.016643755            7 
  924000   0.90033584   -7.8324323    189.29872  0.017072395  0.016629092            9 
  925000   0.89256177   -7.8586353    188.73923  0.017003534  0.016614354            8 
  926000   0.86753284   -7.8757176    188.69942   0.01698159  0.016599505           10 
  927000   0.87744886   -7.8547905    188.77038  0.016969649  0.016584721           10 
  928000    0.8956149   -7.8637665    189.01322   0.01697317  0.016569913           11 
  929000   0.86896396   -7.9014717    188.97585  0.016951548  0.016555084            9 
  930000    0.9010742   -7.8772741     188.4049   0.01688216  0.016540351            9 
  931000    0.8703584   -7.8397009    188.84276  0.016903219  0.016525594            8 
  932000   0.86754928   -7.8393504    189.11247  0.016909198  0.016510831           16 
  933000   0.87072341   -7.8739509    189.51565  0.016927085  0.016496269           15 
  934000   0.87667524   -7.8813719    189.39816   0.01689848  0.016481625           11 
  935000   0.88699733   -7.8747177    189.15153  0.016858426  0.016466991            7 
  936000   0.89187313   -7.8455797    189.33419  0.016856676  0.016452464           12 
  937000   0.87626225   -7.8520597    189.84757  0.016884345  0.016437936            6 
  938000   0.86046932   -7.8844719     189.9242  0.016873152  0.016423338           13 
  939000    0.8877841   -7.8680532    189.39628  0.016808331  0.016408743            8 
  940000   0.88742359   -7.8844491    189.57207  0.016806034  0.016394243            7 
  941000   0.86460656   -7.8821952    189.74712  0.016803677  0.016379741            9 
  942000   0.87466886    -7.845621    189.83373    0.0167935  0.016365235           10 
  943000   0.86048618    -7.911435     189.5116  0.016747225   0.01635062            8 
  944000   0.87856776   -7.8875335    189.34084  0.016714411  0.016335875           11 
  945000   0.87899718   -7.8691269    189.95949  0.016751278  0.016321249           16 
  946000   0.88559561   -7.8834211    189.64955  0.016706267  0.016306514            4 
  947000   0.87835893   -7.8869492     189.9223  0.016712627  0.016291826           10 
  948000   0.87301758   -7.9187267    189.27859  0.016638414  0.016277148            6 
  949000   0.86443073   -7.8641942    189.95192  0.016680007  0.016262457            8 
  950000   0.87648157   -7.8953767    190.11957  0.016677156  0.016247775           10 
  951000   0.86943138   -7.8713582    189.99002  0.016648267  0.016233046           11 
  952000   0.87735291   -7.9074758    190.04357  0.016635466  0.016218469           10 
  953000   0.86415147   -7.9196336    190.06853  0.016620193  0.016203746           17 
  954000   0.86117871   -7.8809749    190.23508   0.01661732    0.0161892           12 
  955000   0.87543996   -7.8879844    190.42346  0.016616358  0.016174763            9 
  956000   0.87034446   -7.9157012    189.69924  0.016535847  0.016160204            5 
  957000   0.87774282   -7.8654933    190.72086  0.016607529  0.016145598            9 
  958000   0.86808994   -7.9230513    190.21603  0.016546279  0.016130991           14 
  959000   0.86574859   -7.9287329    189.92875  0.016504063  0.016116336           10 
  960000   0.88721887   -7.9048904    190.74294  0.016557547  0.016101779            8 
  961000   0.86714022   -7.9164914    190.59434  0.016527431  0.016087275           10 
  962000   0.88194058   -7.9512178    190.15226  0.016471956  0.016072773            6 
  963000   0.87551766   -7.9104745    191.04143  0.016531796  0.016058249            6 
  964000   0.86423515   -7.8757858    190.97546  0.016508944  0.016043765            6 
  965000   0.86748949   -7.9109998    190.32617  0.016435766  0.016029264            5 
  966000   0.86788034   -7.9561418    190.40503  0.016425555  0.016014628            7 
  967000   0.87389496   -7.9281479    190.33348  0.016402403  0.016000045            7 
  968000   0.85634294   -7.9177054     190.6447   0.01641225    0.0159855            6 
  969000   0.86549103   -7.9300644    190.99943  0.016425819  0.015971024           11 
  970000   0.88301385   -7.9457328    191.17272  0.016423773  0.015956642            3 
  971000   0.87204349   -7.9265686     190.9867  0.016390894  0.015942262            9 
  972000   0.87961636   -7.9382278     190.9162  0.016367987  0.015927811           12 
  973000   0.85887295   -7.9652002    190.94335   0.01635349  0.015913337            7 
  974000   0.87041307   -7.9395059    190.86251  0.016329784  0.015898877            4 
  975000    0.8709418   -7.9506109    190.98376  0.016323399  0.015884331            7 
  976000   0.86691178   -7.9207416    190.89383  0.016298995  0.015869803            4 
  977000   0.85516921    -7.929087    191.22669  0.016310703  0.015855394            6 
  978000   0.84381907   -7.9375502    191.05131  0.016279082  0.015841048            4 
  979000   0.84419123   -7.9459833    191.09015   0.01626576  0.015826639            6 
  980000   0.86669534   -7.9577217    190.72991  0.016218529  0.015812149            8 
  981000   0.87619767   -7.9344908    191.10027  0.016233458  0.015797585            8 
  982000   0.83945571   -7.9194356    191.55486  0.016255504  0.015783022            8 
  983000   0.85247521   -7.9404635     190.8433  0.016178645   0.01576859           17 
  984000    0.8509684   -7.9398037    190.83043  0.016161114  0.015754179            4 
  985000   0.85262632   -7.9422933    190.95008  0.016154829  0.015739701           13 
  986000   0.86864931   -7.9509746     191.3552  0.016172684  0.015725214           16 
  987000   0.86359783   -7.9672028    190.95285  0.016122328  0.015710705            7 
  988000   0.85401431   -7.9649586    191.42823  0.016146106  0.015696277            8 
  989000   0.85951323   -7.9419744    191.66494  0.016149725  0.015681913            5 
  990000   0.86263034   -7.9646958    191.39619   0.01611079  0.015667651           13 
  991000   0.86352267   -7.9633801    191.59665   0.01611139  0.015653334            5 
  992000   0.86003467   -7.9187859    191.85634  0.016116964  0.015639098           27 
  993000   0.87040929   -7.9351047    191.97479  0.016110674  0.015624877           15 
  994000   0.83711246   -7.9779249    191.99603  0.016096246  0.015610695            7 
  995000   0.86902652   -7.9523156    191.71061  0.016056165  0.015596597            9 
  996000   0.84642823   -7.9790852    191.78793  0.016046514   0.01558246            5 
  997000   0.87623989   -7.9581645    191.48325  0.016004952  0.015568217            9 
  998000   0.83735101   -7.9464318    192.61605  0.016083505  0.015554126           10 
  999000    0.8486023   -7.9280643    192.01089  0.016016925  0.015540081            6 
 1000000   0.85494215   -7.9303735    192.44363  0.016036969  0.015526157            6 
 1001000   0.83738251   -7.9494109    192.34792  0.016012981  0.015512246            7 
 1002000   0.84917393   -7.9153057    192.93239  0.016045608  0.015498304            7 
 1003000   0.86488647   -7.9534984    192.41268  0.015986431  0.015484371           14 
 1004000   0.85307008   -7.9515298    192.31198   0.01596215   0.01547043           13 
 1005000   0.85605979   -7.9478261    192.39791  0.015953392  0.015456453            9 
 1006000   0.86334129   -7.9697535    191.99867  0.015904462  0.015442501            7 
 1007000   0.83976835   -7.9643198    192.20979  0.015906139  0.015428504            5 
 1008000    0.8453122   -7.9249333    192.74234  0.015934387  0.015414456           15 
 1009000   0.84684122   -7.9475772    192.51644  0.015899937  0.015400476            7 
 1010000   0.84786074   -7.9766049    192.23345  0.015860846  0.015386462            9 
 1011000   0.85485335   -7.9761309    192.07855   0.01583239  0.015372398           11 
 1012000   0.86193217   -7.9883891    192.58043  0.015858073  0.015358354            9 
 1013000   0.82918113   -7.9771274    192.62199  0.015845836  0.015344333            8 
 1014000    0.8592174   -7.9723899    192.90951  0.015853839  0.015330347           10 
 1015000    0.8608525    -8.014282    192.08615   0.01577062  0.015316337            5 
 1016000   0.83755809   -7.9889484     192.5411  0.015792413  0.015302309           19 
 1017000    0.8517938   -8.0057856    192.42524  0.015767391  0.015288213            6 
 1018000   0.85544729   -7.9808308    192.72751  0.015776646  0.015274225            7 
 1019000   0.86334552   -7.9891563    192.89376   0.01577476   0.01526025           12 
 1020000   0.84092533   -8.0267139    192.72607  0.015745594  0.015246278           13 
 1021000   0.85797765   -7.9884114    192.75254  0.015732333  0.015232238           18 
 1022000   0.84101593   -8.0087552    192.46041  0.015693119  0.015218256           12 
 1023000   0.85474708   -8.0336776    192.79681  0.015705182  0.015204104           18 
 1024000   0.85020794   -8.0519048    192.20299   0.01564152  0.015189955           16 
 1025000   0.85017404    -8.009983    192.14522  0.015621562   0.01517586           23 
 1026000   0.85693362   -8.0241119    192.50169   0.01563529  0.015161791           23 
 1027000   0.84778409    -8.018377    192.21916  0.015597141  0.015147682           17 
 1028000    0.8379822   -8.0445742     192.3224  0.015590337  0.015133683           32 
 1029000   0.86206551   -8.0316271    192.99083  0.015629319   0.01511958           30 
 1030000   0.84059792   -7.9740546    192.90831  0.015607469  0.015105502           28 
 1031000   0.85108978   -8.0201354    192.65718  0.015572032  0.015091462           18 
 1032000   0.83672609   -8.0099887    192.99271  0.015584037  0.015077452           32 
 1033000   0.85756886   -8.0130825    192.82595  0.015555498  0.015063397           15 
 1034000     0.833656    -8.017304    192.29254  0.015497465  0.015049345           13 
 1035000   0.84812746    -7.969682    193.04464  0.015543046  0.015035338           10 
 1036000   0.83848685   -7.9864924    193.14298  0.015535954  0.015021393           23 
 1037000   0.84579212    -7.987475     193.2796  0.015531951  0.015007521           22 
 1038000   0.83786065   -7.9704856    192.95066  0.015490579  0.014993743           25 
 1039000   0.82771115   -7.9925669    192.85568  0.015468053  0.014979923           16 
 1040000   0.85284276    -8.000154    193.63314  0.015515476   0.01496606           18 
 1041000    0.8507607   -8.0169737    192.87056  0.015439526  0.014952145           10 
 1042000   0.83030968   -8.0306149    192.77349  0.015416946  0.014938183           23 
 1043000    0.8437616   -8.0164951    192.56804  0.015385749  0.014924178           11 
 1044000    0.8469616   -8.0099317    192.92839  0.015399776  0.014910201           18 
 1045000   0.83275822   -8.0561772    192.31523  0.015336143  0.014896141           19 
 1046000   0.83652823    -8.027889    193.49801  0.015415712  0.014882099           23 
 1047000   0.84127565     -8.03173    193.15611  0.015373775  0.014868096           36 
 1048000   0.84497938   -8.0211591    193.23558  0.015365425  0.014854111           21 
 1049000   0.83165465   -8.0478708    192.78655  0.015315106  0.014840131           20 
 1050000   0.82515251   -8.0380616    193.04326  0.015320894  0.014826163           20 
 1051000   0.82539608   -8.0725914    192.71846  0.015280563  0.014812172           19 
 1052000    0.8422737   -8.0682434    192.68637  0.015263496  0.014798232           31 
 1053000   0.84344279   -8.0654253    192.95829   0.01527052  0.014784233            8 
 1054000   0.83286306   -8.0404635     193.9285   0.01533274  0.014770383           23 
 1055000   0.83048112   -8.0510641    193.14851  0.015256596  0.014756518           17 
 1056000   0.82748871   -8.0394171    193.50591  0.015270353  0.014742583           16 
 1057000    0.8262849   -8.0285343    193.37604  0.015245667  0.014728689           10 
 1058000   0.82788373   -8.0503939    192.81562  0.015187115  0.014714749           13 
 1059000   0.81838119   -8.0749565    193.08956  0.015194331  0.014700795            6 
 1060000    0.8379196   -8.0637608    193.14047  0.015183999  0.014686846           21 
 1061000   0.82200444   -8.0219954    193.04149  0.015161914  0.014672965           24 
 1062000   0.81570242   -8.0756565    193.35758   0.01517244  0.014659058           17 
 1063000   0.83615719   -8.0489578    193.06211  0.015135004  0.014645149           12 
 1064000   0.81121207   -8.0803844    192.98656  0.015114862  0.014631205           12 
 1065000   0.81042104   -8.0270786    194.03068   0.01518237  0.014617347           19 
 1066000   0.84605838   -8.0357287    194.02747  0.015167876  0.014603544           13 
 1067000   0.82868135   -8.0535137    193.26774  0.015094325  0.014589723           11 
 1068000   0.82174922   -8.0588143    193.60586  0.015106575  0.014575901           18 
 1069000   0.81736578   -8.0706183    193.58368  0.015090714  0.014562013           19 
 1070000   0.82049313   -8.0373417    193.98404  0.015107792  0.014548142           16 
 1071000   0.83890963   -8.0531167    193.00297  0.015017349  0.014534256           13 
 1072000   0.84217508   -8.0776873     193.4471  0.015037866  0.014520384           18 
 1073000    0.8325499   -8.0516496    193.43814  0.015023155  0.014506579           12 
 1074000   0.85462597   -8.0490828    193.39395  0.015005738  0.014492702           29 
 1075000   0.82871924   -8.0864908    192.80718  0.014946293  0.014478854           19 
 1076000    0.8280848   -8.1110873    192.93378  0.014942207  0.014464915            8 
 1077000   0.81702937   -8.0895622     193.3774  0.014962659  0.014451069            5 
 1078000   0.82594251   -8.0692442    193.25903  0.014939628   0.01443727           17 
 1079000   0.81238906    -8.064523    193.29165  0.014928301  0.014423481           11 
 1080000   0.81888522   -8.0814073    193.34552  0.014918636  0.014409717            9 
 1081000   0.82874928   -8.0572605    193.59803  0.014924301  0.014395938            6 
 1082000   0.82011779   -8.0953377    192.96797  0.014861982  0.014382198           12 
 1083000   0.82629854   -8.0638811    193.95824  0.014924457  0.014368415           18 
 1084000   0.82343146   -8.1106674    193.41667  0.014869055  0.014354752           15 
 1085000   0.82694254   -8.1214082    193.19279  0.014838156  0.014341017            8 
 1086000   0.80475913   -8.0988597     193.0435  0.014813037  0.014327274            5 
 1087000   0.83047369   -8.0811537    193.33759  0.014821956  0.014313546           13 
 1088000   0.82889995   -8.0941179    193.03503  0.014785158  0.014299772            8 
 1089000   0.83932741   -8.1172108     193.1493  0.014780326  0.014286045           11 
 1090000   0.81477474   -8.0884468    193.13508  0.014765679  0.014272262            9 
 1091000   0.82740522   -8.1221885    193.59537  0.014787303  0.014258479           18 
 1092000   0.83171284   -8.0937498    193.10542  0.014736372  0.014244694            9 
 1093000   0.82510751   -8.1181546    193.07998   0.01472095  0.014230907           26 
 1094000   0.79776777   -8.1355125     192.9415  0.014696946   0.01421705           15 
 1095000   0.80752844   -8.1180753     193.0128   0.01468895  0.014203167            8 
 1096000   0.81293776   -8.1147182    193.36828  0.014702576  0.014189341           17 
 1097000   0.81345937   -8.0964088    193.08413  0.014667588  0.014175531           15 
 1098000   0.79173238   -8.1142213    193.47716  0.014684059  0.014161771            6 
 1099000    0.8069061   -8.1013276    193.49608  0.014672133  0.014147983            9 
 1100000   0.83421152   -8.0746815    193.70678  0.014674756  0.014134261           16 
 1101000   0.80820331   -8.1201963    193.00899  0.014608613  0.014120541           14 
 1102000   0.82103458   -8.0855503    193.69649  0.014647345  0.014106848           11 
 1103000   0.81834847   -8.1023847    193.15647  0.014593266  0.014093171           29 
 1104000   0.80551612   -8.0884403    193.54065  0.014609047  0.014079512            9 
 1105000   0.80391391   -8.0601455    193.77554   0.01461354  0.014065959           17 
 1106000   0.80491584   -8.0957644    193.73488  0.014597264   0.01405239           29 
 1107000   0.80147505   -8.1134544    193.66646  0.014578927  0.014038773           11 
 1108000   0.80887809   -8.0885342    193.80536  0.014576215  0.014025156           16 
 1109000   0.80492425   -8.0772126    193.73656  0.014557902  0.014011531           17 
 1110000   0.81607256   -8.1133595    193.68895  0.014541213  0.013997969           34 
 1111000   0.80141186   -8.1207499    193.73088  0.014531269  0.013984331           20 
 1112000   0.81395032   -8.1025183    193.26116  0.014483001  0.013970699           40 
 1113000   0.81348204   -8.1176043    192.86511  0.014440335  0.013957119           30 
 1114000   0.81597169   -8.1189862     193.2869  0.014458924  0.013943461           14 
 1115000   0.80391427   -8.1252261    193.43521  0.014457041  0.013929864           61 
 1116000   0.80150073   -8.1148029     193.4479  0.014445034  0.013916237           42 
 1117000   0.80412795   -8.1202595    193.20509  0.014413988  0.013902664           34 
 1118000   0.80718757   -8.1272482    193.56216   0.01442771  0.013889049           24 
 1119000   0.80412178   -8.1109284    192.97888   0.01437138  0.013875477           33 
 1120000   0.80671003   -8.1338522    193.52322  0.014399049  0.013861911           50 
 1121000    0.8184166   -8.1621478     193.4567   0.01438126  0.013848332           50 
 1122000   0.80373836    -8.149235    192.99748  0.014334334  0.013834752           48 
 1123000   0.80350911   -8.1161784    193.76238   0.01437833  0.013821178           44 
 1124000    0.8142892    -8.124735    193.66466  0.014358293   0.01380754           32 
 1125000   0.81631285   -8.1632346     193.1452  0.014307052  0.013793881           40 
 1126000   0.80607505   -8.1503528    193.47604   0.01431883  0.013780232           45 
 1127000   0.81413501   -8.1399713    193.63449  0.014317842  0.013766584           34 
 1128000   0.79494192   -8.1726836    193.20935   0.01427374   0.01375297           43 
 1129000   0.78928121   -8.1543398    193.30899  0.014268452  0.013739346           53 
 1130000   0.81744422   -8.1441296    193.51266  0.014270845  0.013725747           68 
 1131000   0.81037138   -8.1922927    193.47082  0.014255145   0.01371213           56 
 1132000    0.7955151   -8.1499935    193.91085  0.014274945  0.013698523           73 
 1133000   0.79620412   -8.1501812    193.41205  0.014225658  0.013684987           93 
 1134000   0.79910457   -8.1542876    193.87102  0.014246842  0.013671392           83 
 1135000   0.80728171    -8.169949    193.39451  0.014199304  0.013657812           70 
 1136000    0.7997221   -8.1859766    193.38402  0.014186034  0.013644228           86 
 1137000    0.7952548   -8.1827714    193.46179  0.014179258  0.013630678          146 
 1138000   0.78312153   -8.1791245    192.75608   0.01411512  0.013617133          192 
 1139000   0.77904756   -8.1892566    193.41254  0.014150757   0.01360362           99 
 1140000   0.80092606   -8.1831656    193.31757  0.014131401   0.01359013          180 
 1141000   0.79772225   -8.1860802    193.17153   0.01410835   0.01357666          145 
 1142000   0.79688472   -8.1793458    193.12682  0.014092734  0.013563113          221 
 1143000   0.78104971   -8.1913285    193.49731  0.014107416  0.013549597          248 
 1144000   0.80392016   -8.2076986    193.43313  0.014090409   0.01353616          276 
 1145000   0.80486912   -8.1816834    193.44049  0.014078638   0.01352269          272 
 1146000   0.78411633   -8.2043616    193.19203  0.014048286  0.013509239          297 
 1147000    0.7878398   -8.2268781     192.8882  0.014013964  0.013495736          275 
 1148000   0.80680465   -8.2348384    193.15686  0.014021259  0.013482262          280 
 1149000   0.80819268   -8.2255053    192.87866  0.013988879  0.013468746          270 
 1150000   0.78357189   -8.2166368    193.36878   0.01401223  0.013455319          218 
 1151000   0.78422375   -8.2159633    193.25649  0.013991927  0.013441941          255 
 1152000   0.79901298   -8.2057951    193.26023  0.013980051  0.013428565          248 
 1153000    0.7880126   -8.2011697    193.17829  0.013962004    0.0134152          262 
 1154000   0.77116632   -8.2370085    193.18896  0.013950676  0.013401845          292 
 1155000    0.7837061   -8.2202173    193.57953  0.013966777  0.013388545          292 
 1156000   0.78680871   -8.2116858    193.54968  0.013952543  0.013375247          290 
 1157000   0.80766448   -8.1966501    193.71016  0.013952042  0.013361984          311 
 1158000   0.78725706   -8.2401856    193.35348  0.013914326  0.013348721          375 
 1159000   0.77847875   -8.2124004    193.59471  0.013919665  0.013335422          300 
 1160000   0.80708375   -8.2188541    194.00885  0.013937417   0.01332216          366 
 1161000   0.78563681   -8.2115336    194.09098  0.013931307  0.013308916          390 
 1162000   0.77418378   -8.2215145    193.15936  0.013852507  0.013295682          385 
 1163000   0.79967657    -8.259336    193.35707  0.013854763  0.013282433          410 
 1164000   0.78715606    -8.246266    193.26647  0.013836374  0.013269141          384 
 1165000   0.79130899   -8.2420133    193.62343  0.013850031  0.013255841          400 
 1166000   0.78086154   -8.2245364    193.03421  0.013796041  0.013242524          376 
 1167000   0.79447569   -8.2357419    193.32425  0.013804931   0.01322922          381 
 1168000    0.7790821   -8.2470654    193.26823  0.013789114  0.013215934          321 
 1169000   0.79076197   -8.2685201    193.28984   0.01377886  0.013202631          403 
 1170000   0.78092202   -8.2506434     193.1473   0.01375693  0.013189379          372 
 1171000   0.77943569   -8.2386392    193.20281  0.013749133  0.013176097          389 
 1172000   0.80323022   -8.2337951    193.38597  0.013750424  0.013162804          372 
 1173000   0.82193748   -8.2684034    193.16504  0.013723006  0.013149526          413 
 1174000   0.79415571   -8.2485695    193.05788  0.013703711  0.013136243          407 
 1175000   0.77844965   -8.2560123    193.25564  0.013706074  0.013122944          413 
 1176000   0.79765893   -8.2869596    192.95126   0.01367285  0.013109663          475 
 1177000   0.77966024   -8.2777991    193.35398  0.013689746  0.013096395          456 
 1178000   0.78263806    -8.275624    193.19986  0.013667223  0.013083135          544 
 1179000    0.8007686   -8.2917025    193.03428  0.013643927  0.013069905          462 
 1180000    0.7697783    -8.246167    193.36536  0.013655746  0.013056703          413 
 1181000   0.80027102   -8.2734225    193.29809  0.013639436  0.013043519          455 
 1182000   0.80145099   -8.2826126    193.09489  0.013613571  0.013030334          469 
 1183000    0.7904894    -8.251857    193.32603  0.013618345  0.013017156          424 
 1184000   0.77157618    -8.316878    192.94477  0.013580009  0.013003991          509 
 1185000   0.76530321   -8.2836936    193.17853  0.013584988  0.012990882          485 
 1186000   0.79498269   -8.2683444    193.83408  0.013619595  0.012977827          531 
 1187000   0.78551253   -8.2733993    193.21977  0.013564994  0.012964779          521 
 1188000   0.75748528   -8.2860944    192.88554  0.013530131  0.012951749          730 
 1189000   0.76537938   -8.2957626    193.24476  0.013543928  0.012938697          603 
 1190000   0.78471083   -8.3153113    193.33183  0.013538643  0.012925608          613 
 1191000   0.78898639   -8.3007946    193.18965  0.013517328  0.012912526          548 
 1192000   0.79437689   -8.3205278    192.70492    0.0134721  0.012899456          596 
 1193000    0.7515688    -8.307799    193.43525  0.013511822  0.012886387          614 
 1194000   0.76881784   -8.3632449     192.8473  0.013459471  0.012873278          672 
 1195000   0.77718405    -8.339277    192.96349   0.01345631  0.012860169          667 
 1196000   0.77542603   -8.3425636    192.75583   0.01343059   0.01284705          699 
 1197000   0.75942303   -8.3233214    192.82097  0.013423905  0.012833942          676 
 1198000   0.78049531   -8.3335786    193.30148  0.013446124  0.012820836          651 
 1199000   0.77012886   -8.3140997    193.02765  0.013415878  0.012807768          651 
 1200000   0.77754963   -8.3506016    193.00436  0.013403081   0.01279471          670 
 1201000   0.78280209   -8.3198084    193.11239  0.013399417  0.012781616          704 
 1202000   0.76386077   -8.3356648    193.28363   0.01340014   0.01276855          729 
 1203000   0.77298062   -8.3717268    193.07775   0.01337474   0.01275552          730 
 1204000   0.77480042   -8.3200689    192.69472  0.013337121  0.012742446          727 
 1205000   0.76846418   -8.3549212    192.45945  0.013309782  0.012729401          800 
 1206000   0.77282265   -8.3626901    193.02763  0.013338006  0.012716308         1050 
 1207000   0.78183856   -8.3594627    192.51903  0.013291841   0.01270326          762 
 1208000   0.77175613   -8.3758976    192.58398  0.013285319  0.012690202          809 
 1209000   0.77563183     -8.36653    192.83395   0.01329156   0.01267714          785 
 1210000   0.78011724   -8.3496705    192.94318  0.013288098  0.012664105         1086 
 1211000   0.78135325   -8.3846152    192.01298  0.013213114  0.012651021         1183 
 1212000    0.7613394    -8.397344    192.50567  0.013236089  0.012637933          865 
 1213000   0.77791857   -8.4088369    192.27218  0.013209136  0.012624836          813 
 1214000   0.75413278   -8.3757119    192.38831  0.013206227  0.012611733          797 
 1215000   0.75076848    -8.387504    192.30445  0.013189606   0.01259866          888 
 1216000   0.76216169   -8.4011603    191.99698  0.013157688  0.012585591          849 
 1217000   0.77203079   -8.3718463    192.54215  0.013184207  0.012572513          890 
 1218000   0.76990374   -8.3879794    192.54771  0.013173763   0.01255947          858 
 1219000   0.76701978   -8.4054508    192.50417  0.013159979  0.012546424          918 
 1220000   0.76021532    -8.374135    192.54483  0.013151969   0.01253344          863 
 1221000   0.76402101   -8.3951145    192.29196  0.013123939  0.012520437         1094 
 1222000   0.77428094   -8.4050879    192.29766  0.013113588  0.012507431         1217 
 1223000   0.76544228   -8.3899424     192.0814  0.013088131  0.012494419         1184 
 1224000   0.76242614   -8.3954662     192.6097  0.013113405  0.012481421         1245 
 1225000   0.77115328   -8.3995489    192.10088  0.013068087  0.012468407         1218 
 1226000   0.76785267   -8.4155033    192.37406  0.013075996  0.012455405          955 
 1227000   0.75833292   -8.4309002    191.86904  0.013031041   0.01244238         1261 
 1228000   0.77815962   -8.4109547     191.8196  0.013017074  0.012429339         1286 
 1229000   0.76763761    -8.401222    191.98683  0.013017821  0.012416322         1316 
 1230000   0.75941636   -8.4247792    191.85979  0.012998631  0.012403294         1016 
 1231000   0.76957294   -8.4227669    191.95438  0.012994475  0.012390304         1353 
 1232000   0.78352706   -8.4429615    191.86357  0.012977785  0.012377319         1331 
 1233000    0.7476655   -8.4475448    191.86691  0.012967485  0.012364313         1326 
 1234000   0.76850915    -8.422727    192.00549  0.012966335  0.012351348         1347 
 1235000   0.76717425   -8.4310642    191.75315  0.012938809  0.012338367         1382 
 1236000   0.77874384   -8.4532709    192.42838  0.012973866   0.01232541         1386 
 1237000   0.76545968   -8.4613271     191.8294  0.012923026  0.012312482         1423 
 1238000   0.76848795   -8.4389462    192.06661  0.012928555  0.012299571         1461 
 1239000   0.74666395   -8.4536445    191.85013   0.01290356  0.012286671         1481 
 1240000   0.75190418   -8.4738328    192.13624  0.012912381  0.012273753         1539 
 1241000   0.74553738   -8.4733436    191.96167  0.012890255  0.012260833         1522 
 1242000   0.76205941   -8.4897133    191.43808  0.012844745  0.012247901         1584 
 1243000   0.76359458   -8.4984938    191.95295   0.01286893  0.012234975         1576 
 1244000   0.78078918   -8.4706296    191.79755  0.012848174   0.01222209         1616 
 1245000   0.77223261   -8.4595509     191.9862  0.012850482  0.012209217         1633 
 1246000   0.74619207   -8.4914371    191.69988  0.012821019   0.01219631         1667 
 1247000   0.74965945   -8.4699832    191.34395  0.012786952  0.012183386         1744 
 1248000   0.75180959   -8.4993755    191.42515  0.012782128  0.012170464         1832 
 1249000    0.7578591   -8.4985861    191.54863  0.012780133    0.0121575         1777 
 1250000   0.75530693   -8.5181766    191.43592  0.012762395  0.012144547         1842 
 1251000   0.74706144   -8.5058365    191.45313  0.012753339  0.012131642         1820 
 1252000   0.74674783   -8.5131101    191.40181  0.012739737  0.012118752         1789 
 1253000   0.75427112   -8.5127049    191.64019  0.012745424  0.012105866         1834 
 1254000   0.73589776   -8.5046269    191.45061  0.012722662  0.012093016         1889 
 1255000   0.74547196   -8.5349329    191.11789  0.012690431  0.012080147         1915 
 1256000   0.75232947     -8.52935    190.61042  0.012646658  0.012067253         1997 
 1257000   0.76680489   -8.5257288    191.25542  0.012679357  0.012054356         1994 
 1258000    0.7331172   -8.5629692     191.0058  0.012652742  0.012041442         1985 
 1259000   0.75101468   -8.5257981    191.27191  0.012660307  0.012028513         1927 
 1260000   0.76556727   -8.5525533    191.06413  0.012636517  0.012015624         2053 
 1261000   0.76833098   -8.5634285    190.89732  0.012615472  0.012002791         2194 
 1262000   0.75657776   -8.5776103    191.18046  0.012624172  0.011989957         2162 
 1263000   0.76535465   -8.5536658      191.048  0.012605437  0.011977133         2151 
 1264000   0.74660145   -8.5895681    190.82651  0.012580862  0.011964295         2151 
 1265000    0.7444031   -8.5665856    191.49321  0.012614836  0.011951486         2116 
 1266000     0.736527   -8.5600416    190.83636  0.012561635   0.01193867         2202 
 1267000   0.75096999   -8.5696509    190.75738  0.012546526  0.011925898         2188 
 1268000   0.73648566   -8.5678371    191.08082  0.012557887  0.011913109         2201 
 1269000   0.74619338    -8.581074    190.96628   0.01254047  0.011900329         2203 
 1270000   0.74197372   -8.5817661    190.67141  0.012511247  0.011887575         2253 
 1271000   0.74336849   -8.6119485     190.5145  0.012491116  0.011874783         2272 
 1272000   0.75534058   -8.5945822    190.26258  0.012464792  0.011861981         2301 
 1273000   0.74690265   -8.5829147     190.6802  0.012482338  0.011849175         2305 
 1274000   0.73719649   -8.5956387      190.797   0.01248018  0.011836426         2287 
 1275000   0.73654315    -8.574826    190.66817  0.012461972  0.011823651         2333 
 1276000   0.74841038    -8.596536    190.58459  0.012446747  0.011810911         2379 
 1277000   0.73171737   -8.5834998    190.88286  0.012456464  0.011798187         2393 
 1278000   0.75253457   -8.6064418    190.95425  0.012451373  0.011785441         2391 
 1279000   0.74853064   -8.6181773    190.15693  0.012389688  0.011772694         2451 
 1280000   0.74231632   -8.6303596    190.41018  0.012396496  0.011759969         2406 
 1281000   0.74753366   -8.6038734    190.81631  0.012413239  0.011747295         2498 
 1282000   0.74488221   -8.6105803    190.39617  0.012376246  0.011734612         2523 
 1283000   0.75571052   -8.6050314    190.73467  0.012388586  0.011721918         2525 
 1284000   0.75334085   -8.6329591    190.33575  0.012353047  0.011709213         2567 
 1285000   0.74491262   -8.6284691    190.22026  0.012335944  0.011696527         2643 
 1286000   0.74030807   -8.6372837    189.98654  0.012311207  0.011683822         2678 
 1287000   0.74554078   -8.6327082    190.19451  0.012315107  0.011671127         2666 
 1288000   0.73235571   -8.6481168    189.93081  0.012288484  0.011658447         2634 
 1289000   0.73169213   -8.6493535    190.09925   0.01228984  0.011645773         2631 
 1290000   0.73738505   -8.6440555    190.13966  0.012282924  0.011633081         2645 
 1291000   0.73343817   -8.6588547    189.73763  0.012247459  0.011620428         2678 
 1292000   0.74195015   -8.6535505    189.85086  0.012245283  0.011607767         2642 
 1293000   0.73469902   -8.6351262     190.0351  0.012247686  0.011595168         2729 
 1294000   0.73171756   -8.6444745    190.19782    0.0122487  0.011582592         2652 
 1295000   0.75285651   -8.6711605    190.01573  0.012227525  0.011569993         2723 
 1296000   0.73720651   -8.6510646    190.40507  0.012243125  0.011557401         2705 
 1297000    0.7406093   -8.6740468    190.07545  0.012212507  0.011544801         2758 
 1298000   0.72863004   -8.6744786     189.9392   0.01219435  0.011532206         2812 
 1299000    0.7379448   -8.6788131    190.32387   0.01220964  0.011519616         2773 
 1300000   0.74378076   -8.6734644    190.52567  0.012213184  0.011507025         2810 
 1301000   0.72778991    -8.700593    189.84056  0.012159913  0.011494448         2856 
 1302000   0.72478098   -8.6814447    189.88932  0.012153694  0.011481879         2863 
 1303000    0.7338438   -8.6625497    190.19586  0.012163971  0.011469344         2938 
 1304000   0.73915945   -8.6898259    189.94399  0.012138548  0.011456807         2883 
 1305000   0.73330897   -8.6942655    190.19012  0.012144963  0.011444293         2820 
 1306000   0.72903559   -8.7131495    189.55484  0.012095128  0.011431778         2937 
 1307000   0.71503759   -8.6986074     190.1717  0.012125204  0.011419297         2944 
 1308000   0.72823068   -8.6940197    189.57433  0.012077875  0.011406826         2905 
 1309000   0.73471097   -8.7267089    189.72255  0.012078084  0.011394357         2908 
 1310000   0.72044003   -8.7152349    189.49001  0.012054072  0.011381883         2954 
 1311000   0.73203961   -8.6829551    189.73791  0.012060635  0.011369413         2938 
 1312000    0.7216532   -8.7025192    189.78553  0.012054467  0.011356949         2959 
 1313000   0.70684704   -8.7086615    189.91127  0.012053267  0.011344505         2871 
 1314000   0.74285514   -8.7160644    189.90396   0.01204363  0.011332065         2885 
 1315000   0.73027412   -8.7030746    189.93945   0.01203672  0.011319643         2905 
 1316000   0.73256489   -8.7244651    189.58457  0.012005102  0.011307257         2898 
 1317000   0.73461187   -8.7443206    189.70113  0.012003362  0.011294873         3027 
 1318000   0.72215971   -8.7326346    189.78871  0.011999792   0.01128249         2991 
 1319000   0.74802256   -8.7381792    189.61644   0.01197981  0.011270117         2969 
 1320000   0.72673962   -8.7463184    189.42031  0.011958353  0.011257766         3050 
 1321000   0.72854279   -8.7200027    189.50639   0.01195473  0.011245412         2999 
 1322000   0.71866797   -8.7304564    189.48001  0.011944025  0.011233083         3039 
 1323000   0.72655606   -8.7294795    189.15713  0.011914659  0.011220752         2970 
 1324000   0.73094179   -8.7242677    189.60852  0.011934071  0.011208455         3049 
 1325000    0.7242774   -8.7410488    189.50835  0.011918764  0.011196174         2990 
 1326000   0.72064854   -8.7415083    189.10826  0.011884631  0.011183883         3002 
 1327000   0.73412725   -8.7422683    189.56337  0.011904256   0.01117161         3062 
 1328000   0.71965053   -8.7362188    188.95569  0.011857159  0.011159356         3014 
 1329000   0.72973527   -8.7800224    189.22498  0.011865123  0.011147109         2998 
 1330000   0.71999391   -8.7359255    189.52446  0.011874966  0.011134872         3014 
 1331000   0.72315725   -8.7649985    189.66977  0.011875142  0.011122644         3056 
 1332000   0.73387285   -8.7674446     189.4097  0.011849956  0.011110432         3025 
 1333000   0.72029415   -8.7369239    189.31332  0.011835041  0.011098231         2985 
 1334000   0.71971132   -8.7638928    189.24105  0.011821655  0.011086033         2990 
 1335000   0.72739297   -8.7321605    189.34096  0.011819036  0.011073868         3067 
 1336000   0.72089553   -8.7363239    189.55121  0.011823304  0.011061726         3132 
 1337000   0.70436675   -8.7410226      188.918  0.011774994  0.011049585         3041 
 1338000   0.72002876   -8.7635705    189.10578  0.011777889  0.011037451         3061 
 1339000   0.72139049   -8.7478233    189.33759   0.01178352   0.01102531         3070 
 1340000   0.70311633   -8.7877481    188.97847  0.011752392  0.011013196         3081 
 1341000   0.72252711   -8.7410854    189.30539  0.011763944  0.011001101         3092 
 1342000   0.69272504   -8.7684647    189.18444  0.011747668  0.010989047         3149 
 1343000   0.72527808   -8.7750513     188.7395  0.011711312  0.010976996         3103 
 1344000   0.71485354   -8.7769104    189.00246  0.011718903  0.010964961         3038 
 1345000    0.7034915   -8.7596034    189.16804  0.011720449  0.010952949         3046 
 1346000   0.72003264   -8.7673078    189.49147  0.011731765  0.010940928         3068 
 1347000   0.72768157   -8.7764853    189.53032  0.011725459  0.010928929         3122 
 1348000   0.72704479   -8.7791812     188.9803  0.011682758  0.010916941         3110 
 1349000   0.72194188   -8.7893723    188.93833  0.011671505   0.01090497         3100 
 1350000   0.70250751   -8.7990053    188.77911  0.011653032  0.010892996         3103 
 1351000   0.71555414   -8.7738683    189.06029   0.01166175  0.010881042         3029 
 1352000   0.71212505   -8.7653282    189.32465  0.011669419  0.010869116         3075 
 1353000   0.72704068   -8.7643756    189.15335  0.011650244  0.010857205         3128 
 1354000   0.70465251   -8.7477863     189.5934  0.011668722  0.010845296         3089 
 1355000   0.71287339   -8.7792391    188.92236  0.011618841    0.0108334         3118 
 1356000   0.70856732   -8.7743025     188.8088  0.011603294  0.010821528         3121 
 1357000   0.72059723   -8.7707722    189.20239  0.011618914  0.010809671         3116 
 1358000   0.71564536   -8.7620918     188.9912  0.011597398  0.010797831         3090 
 1359000   0.70687052   -8.7902814    189.01635  0.011590407  0.010786007         3154 
 1360000   0.72668948   -8.7824899    189.15533    0.0115904  0.010774206         3176 
 1361000   0.72646714   -8.7762274    189.17024  0.011582797  0.010762431         3090 
 1362000   0.70728664   -8.7871938    189.03528  0.011566035  0.010750655         3060 
 1363000   0.70087825   -8.7919388    188.98837  0.011554681  0.010738904         3150 
 1364000   0.72565237   -8.7817517    189.43774  0.011573664  0.010727157         3152 
 1365000   0.71422694   -8.7590509    189.09601  0.011544323  0.010715417         3052 
 1366000   0.69532992   -8.7910874    188.85057  0.011520898  0.010703704         3183 
 1367000   0.69681484   -8.7846242    188.92324  0.011516901  0.010691997         3114 
 1368000   0.70572888    -8.789397    188.59669   0.01148859  0.010680283         3098 
 1369000   0.71127299   -8.8172503    188.89527  0.011498373  0.010668574         3159 
 1370000   0.69638296   -8.7843603    188.85059  0.011487262  0.010656895         3180 
 1371000   0.72310154   -8.7957573    188.62156  0.011464962   0.01064522         3153 
 1372000   0.69275581   -8.7999303    188.95557  0.011476893  0.010633554         3134 
 1373000   0.69870803    -8.794231    188.89829  0.011465058  0.010621912         3201 
 1374000   0.71137372   -8.7912394    188.80724  0.011451191  0.010610275         3210 
 1375000   0.70278177   -8.8232653    188.97942  0.011453298  0.010598639         3189 
 1376000   0.70560619   -8.8032745    188.95597  0.011443554  0.010587042         3180 
 1377000   0.68298037   -8.7989774    188.94366  0.011434499  0.010575451         3207 
 1378000   0.69222796    -8.817321    189.03533  0.011431745  0.010563875         3199 
 1379000   0.70105067   -8.7936416    188.98028  0.011420128  0.010552327         3249 
 1380000   0.69681143   -8.8054357    188.72723  0.011396572  0.010540775         3131 
 1381000   0.69534208   -8.8417726    188.51253  0.011375364  0.010529238         3205 
 1382000   0.71247253   -8.8239179     188.9521  0.011393639  0.010517709         3202 
 1383000   0.69305443   -8.8174444    188.55664  0.011361572  0.010506198         3201 
 1384000   0.70676162   -8.8074676    188.82405  0.011369464  0.010494706         3226 
 1385000    0.6945442    -8.831404    188.96908  0.011369981  0.010483238         3274 
 1386000   0.69551012   -8.8242813    188.77259  0.011349963  0.010471769         3252 
 1387000    0.6855512    -8.816076    188.80144  0.011343514  0.010460302         3229 
 1388000   0.70549029   -8.8094156    188.98431   0.01134632  0.010448879         3126 
 1389000   0.70123625   -8.8220523    188.68174  0.011319999  0.010437458         3182 
 1390000   0.71077736   -8.8099368    188.88448  0.011324009  0.010426057         3212 
 1391000    0.6944452   -8.8128525    188.70397  0.011305055  0.010414671         3250 
 1392000   0.68980472   -8.8321019    188.41036  0.011279356   0.01040327         3218 
 1393000   0.68868387    -8.848598    188.12232  0.011254027  0.010391896         3286 
 1394000   0.69538672    -8.827847    188.58878  0.011273839  0.010380541         3260 
 1395000   0.68130911   -8.8139574    188.67879  0.011271135  0.010369203         3216 
 1396000   0.69919509    -8.801617    188.58589  0.011257515  0.010357887         3189 
 1397000   0.70842525   -8.8242036    188.70761  0.011256717  0.010346597         3267 
 1398000   0.69059001   -8.8178005     188.7561  0.011251556  0.010335301         3212 
 1399000   0.67972431   -8.8248353    188.61256  0.011234963  0.010324031         3220 
 1400000   0.69547679   -8.8360392    188.56849  0.011224315  0.010312773         3190 
 1401000   0.69484965   -8.8230975    188.36893  0.011204433  0.010301521         3277 
 1402000     0.695372   -8.8092663    188.88119  0.011226889  0.010290301         3196 
 1403000   0.69272364   -8.8457149    188.85043   0.01121706   0.01027909         3232 
 1404000   0.69603476   -8.8423478    188.48641  0.011187465  0.010267874         3214 
 1405000   0.69625251   -8.8493277    188.87363  0.011202469   0.01025667         3231 
 1406000    0.6852508   -8.8260608    188.53368  0.011174353  0.010245488         3246 
 1407000   0.70143763   -8.8076359    188.17063  0.011144908  0.010234331         3189 
 1408000   0.69069546   -8.8268975    188.44493  0.011153227  0.010223171         3256 
 1409000   0.69315143   -8.8296768    188.64515  0.011157153   0.01021205         3260 
 1410000   0.69464948    -8.827371    188.58627  0.011145761  0.010200938         3199 
 1411000   0.68343999   -8.8482976    188.62221  0.011139984  0.010189821         3145 
 1412000   0.69998024   -8.8548202    188.41642  0.011119949  0.010178724         3297 
 1413000   0.69507173   -8.8539816     188.3674  0.011109189  0.010167667         3203 
 1414000   0.69313273   -8.8282002    188.60224  0.011115172  0.010156616         3283 
 1415000   0.68587957   -8.8417725    188.20912  0.011084165  0.010145555         3281 
 1416000     0.674223   -8.8527705    188.44694  0.011090333   0.01013452         3229 
 1417000   0.68957648   -8.8646757    188.72456  0.011098833  0.010123506         3324 
 1418000   0.68945399   -8.8365925    188.31335   0.01106684  0.010112513         3268 
 1419000    0.6855687   -8.8328447    188.52144  0.011071262  0.010101522         3262 
 1420000   0.67379591   -8.8407826    188.34576  0.011053155  0.010090566         3204 
 1421000   0.68367662     -8.84141    188.31897  0.011043805  0.010079611         3278 
 1422000   0.68819237   -8.8311621    188.25409  0.011032237  0.010068668         3271 
 1423000   0.67599805   -8.8629182    188.38634  0.011032229  0.010057746         3315 
 1424000   0.67389836   -8.8548532    188.42522  0.011026757  0.010046845         3200 
 1425000     0.697894   -8.8512676    188.54445  0.011025991  0.010035963         3211 
 1426000    0.6775845   -8.8574605     188.2095  0.010998685   0.01002507         3264 
 1427000   0.67946929   -8.8639456    188.68971  0.011019021  0.010014196         3237 
 1428000    0.6663041   -8.8469726    188.33707  0.010990725  0.010003353         3261 
 1429000   0.69057235   -8.8456826    188.58929  0.010997742  0.009992505         3345 
 1430000   0.68155794   -8.8381148    188.78037  0.011001187 0.0099816656         3313 
 1431000   0.68926807   -8.8491922    188.46939   0.01097539  0.009970844         3314 
 1432000   0.67163948   -8.8713351     188.4234  0.010965049 0.0099600322         3335 
 1433000   0.67225963   -8.8365835    188.37349  0.010954495 0.0099492199         3293 
 1434000   0.68222914   -8.8870331    188.43458  0.010950406 0.0099384438         3299 
 1435000    0.6664372   -8.8552063    188.63772  0.010954571 0.0099276539         3336 
 1436000   0.67966285   -8.8624205    188.06309  0.010913596 0.0099168952         3327 
 1437000   0.66256629   -8.8594044    188.39037  0.010924981 0.0099061348         3228 
 1438000   0.68370894   -8.8751607    188.40313  0.010918123 0.0098954063         3293 
 1439000   0.67042485   -8.8583057    188.24574  0.010901421 0.0098846914         3255 
 1440000   0.68419829   -8.8652223    188.31062  0.010897605 0.0098739901         3324 
 1441000   0.68545583   -8.8806201    188.31779  0.010890458 0.0098633046         3330 
 1442000   0.67864133   -8.8630426    188.34868   0.01088469 0.0098526387         3290 
 1443000   0.66709653   -8.8580558    188.17957  0.010867381 0.0098419827         3323 
 1444000   0.69187771   -8.8710081    188.48701  0.010877598 0.0098313469         3273 
 1445000   0.67979038   -8.8669294    188.38985  0.010864467 0.0098207217         3296 
 1446000   0.67386207   -8.8981581    188.28029  0.010850639 0.0098101014         3325 
 1447000   0.66171458   -8.8655814    188.37899  0.010848825    0.0097995         3349 
 1448000    0.6681796   -8.8839324    187.99788  0.010819399 0.0097889133         3367 
 1449000   0.67265344    -8.897323    187.99296   0.01081165  0.009778341         3320 
 1450000   0.67413523   -8.8826178    188.45609   0.01083081 0.0097677929         3354 
 1451000   0.68524077   -8.8554692    188.17178  0.010807017 0.0097572426         3268 
 1452000   0.66462413   -8.8631009    188.13995  0.010797747 0.0097467136         3325 
 1453000   0.67963429   -8.8801324    187.97142   0.01078065 0.0097362004         3328 
 1454000   0.66723486   -8.8794642    188.19904  0.010786281 0.0097256949         3295 
 1455000    0.6794958    -8.856019    188.27038  0.010782954 0.0097151983         3304 
 1456000   0.67627595   -8.8866848    187.97673  0.010758741  0.009704724         3332 
 1457000   0.65700107   -8.8928698    187.88124  0.010745896 0.0096942552         3298 
 1458000   0.68114899   -8.8679685    188.46103  0.010771664 0.0096838178         3300 
 1459000   0.66782848   -8.8703212    188.04546  0.010740545 0.0096733911         3338 
 1460000    0.6649508   -8.8862096    188.27068  0.010746043  0.009662989         3320 
 1461000   0.66471165   -8.8732916    188.12943  0.010730631 0.0096525866         3362 
 1462000   0.66104984   -8.8994584    188.09048  0.010721072 0.0096422101         3384 
 1463000   0.67267279   -8.8690733    187.69795  0.010691385 0.0096318227         3381 
 1464000   0.67727419   -8.8663511    188.11733  0.010707954 0.0096214558         3327 
 1465000   0.67629396   -8.8692736    187.74768  0.010679618 0.0096111105         3322 
 1466000   0.66763115    -8.870983    188.06327  0.010690272 0.0096007835         3378 
 1467000   0.67717919   -8.8755709    188.38624  0.010701332 0.0095904698         3317 
 1468000   0.68387314    -8.873679     188.0155  0.010672996 0.0095801644         3357 
 1469000   0.66416637   -8.8985406    188.29575  0.010681629 0.0095698761         3301 
 1470000   0.65446878   -8.9043245    187.48082  0.010628165 0.0095596014         3385 
 1471000   0.67634515   -8.8738481    188.09527  0.010655748 0.0095493425         3295 
 1472000   0.67086781   -8.8840841    187.79824  0.010631694 0.0095390988         3314 
 1473000    0.6634175   -8.8970725    188.01622  0.010636808 0.0095288839         3403 
 1474000   0.66381101   -8.8917274    187.85584  0.010620525 0.0095186707         3363 
 1475000   0.66995545   -8.9008079    187.96517  0.010619501 0.0095084842         3442 
 1476000   0.65816506   -8.8693827    188.27233  0.010629648 0.0094982789         3387 
 1477000   0.66863564   -8.8966139     188.0742  0.010611273  0.009488107         3353 
 1478000   0.65590906   -8.8972294    187.98765  0.010599213 0.0094779306         3381 
 1479000   0.65153838   -8.8874824    187.88134  0.010586057  0.009467777         3363 
 1480000   0.64963015   -8.8934065     187.8694  0.010578232  0.009457624         3317 
 1481000   0.66996401    -8.877032    187.98496  0.010577592 0.0094474987         3374 
 1482000   0.66644142   -8.8792961     187.7191  0.010555505 0.0094373887         3320 
 1483000   0.65741819   -8.8947424    187.97277  0.010562641 0.0094273026         3371 
 1484000   0.64801284    -8.897113    187.95381  0.010554459 0.0094172195         3402 
 1485000    0.6723601    -8.884882     187.7302  0.010534803 0.0094071519         3376 
 1486000   0.66183331   -8.8991219    187.86344  0.010535186 0.0093971066         3344 
 1487000   0.66730248   -8.8920526    188.20474  0.010547228 0.0093870509         3417 
 1488000   0.66519871   -8.8955824    187.68632  0.010511107 0.0093770239         3332 
 1489000   0.64932723   -8.9293608    187.58452   0.01049835 0.0093670015         3395 
 1490000   0.64325707    -8.907664    187.96778  0.010512739 0.0093570022         3423 
 1491000   0.65428474    -8.892886    187.94196  0.010504245 0.0093470076         3363 
 1492000   0.65022213   -8.8921861     187.8711  0.010493248 0.0093370305         3362 
 1493000   0.66504597   -8.8892253    187.88329    0.0104869 0.0093270577         3355 
 1494000   0.65726776    -8.900192    187.86861  0.010479061 0.0093171029         3394 
 1495000   0.66209552   -8.9112745    187.89633  0.010473597 0.0093071644         3415 
 1496000   0.65772521   -8.8926552    187.98816  0.010471711 0.0092972292         3384 
 1497000   0.66290678   -8.8949949    187.37397  0.010430526 0.0092873133         3461 
 1498000   0.67042578    -8.904758    188.26993  0.010473405 0.0092774052         3378 
 1499000   0.63899186   -8.8873026    188.12858   0.01045856 0.0092675161         3392 
 1500000   0.65896647   -8.9240271    188.05994  0.010447774 0.0092576487         3368 
 1501000   0.65842814   -8.8997596    187.98579  0.010436697 0.0092478022         3379 
 1502000   0.65528856   -8.9084716    188.07649  0.010434781 0.0092379591         3384 
 1503000   0.64772165   -8.9120265    187.44023  0.010392561 0.0092281301         3388 
 1504000    0.6520469   -8.9092478    187.94463  0.010413599 0.0092183179         3378 
 1505000   0.65628391   -8.9164021    187.71618   0.01039403 0.0092085131         3342 
 1506000   0.64102874   -8.9143684    187.81886   0.01039281 0.0091987274         3426 
 1507000     0.650525   -8.8934111    187.99984  0.010395921 0.0091889506         3359 
 1508000   0.65307517   -8.9124665    187.93103  0.010385225 0.0091791925         3358 
 1509000   0.65122325   -8.9107398    188.11069  0.010388264 0.0091694282         3334 
 1510000   0.64948426    -8.911526    187.53556  0.010349644 0.0091596975         3417 
 1511000   0.65030034   -8.9116698    187.61611  0.010347238 0.0091499799         3396 
 1512000   0.65864985   -8.9087688    187.59009   0.01033896 0.0091402614         3378 
 1513000   0.65632217   -8.9142042    187.82539  0.010345086 0.0091305552         3372 
 1514000   0.64700556    -8.919597    187.66038  0.010329171 0.0091208599         3389 
 1515000   0.64035398   -8.9121251    188.13111  0.010348246 0.0091111905         3394 
 1516000   0.64992841   -8.9343724    187.64528  0.010314714 0.0091015137         3403 
 1517000     0.649132   -8.9017959    187.75482  0.010313932 0.0090918649         3431 
 1518000   0.62411621   -8.8966267    188.08355  0.010325184 0.0090822313         3280 
 1519000   0.64952312   -8.9171894    187.70753  0.010297758 0.0090726196         3395 
 1520000   0.64865496   -8.9332685      187.882  0.010300548 0.0090630064         3319 
 1521000   0.66504644   -8.9213077    187.81251  0.010289969  0.009053414         3359 
 1522000   0.64038383   -8.9149795     187.6689  0.010275345 0.0090438217         3400 
 1523000   0.65797719   -8.9216372    187.61112  0.010265437 0.0090342421         3377 
 1524000   0.64978878   -8.9391943    187.67127   0.01026199 0.0090246764         3380 
 1525000   0.62539047   -8.9357546    187.64363  0.010253751 0.0090151298         3359 
 1526000   0.65479221    -8.914845    188.31156  0.010283506 0.0090056007         3347 
 1527000   0.64170367   -8.9271814    187.63072  0.010239616 0.0089960691         3353 
 1528000   0.64278049   -8.9331693    187.38395  0.010219456 0.0089865583         3343 
 1529000   0.63819012   -8.9402198    187.33164  0.010209921 0.0089770579         3391 
 1530000   0.63565137   -8.9330935    187.85498  0.010231753 0.0089675804         3380 
 1531000   0.65142736    -8.922817    187.68345  0.010215733 0.0089580993         3408 
 1532000    0.6509133    -8.906674     187.7402  0.010212152 0.0089486532         3340 
 1533000   0.64254402   -8.9468363    187.32116  0.010182712 0.0089392021         3402 
 1534000   0.63193577   -8.9272044    187.76051  0.010199941 0.0089297674         3371 
 1535000   0.64553404   -8.9479993    187.77745  0.010194216 0.0089203489         3459 
 1536000   0.63917796   -8.9278206    187.84703  0.010191354 0.0089109364         3338 
 1537000   0.64697012   -8.9388393    187.27303  0.010153602 0.0089015416         3388 
 1538000   0.64198812   -8.9440723    187.43122  0.010155571 0.0088921519         3414 
 1539000   0.61817319    -8.936692    187.83918  0.010171062  0.008882779         3396 
 1540000   0.63817008   -8.9307034    187.46942  0.010144449 0.0088734198         3416 
 1541000   0.64385853   -8.9445766    187.52466  0.010140853 0.0088640737         3433 
 1542000   0.65378453    -8.947086    187.32732  0.010123612  0.008854737         3430 
 1543000   0.63348349   -8.9436059    187.45194  0.010123781 0.0088454179         3372 
 1544000   0.65950911   -8.9425156    187.64523  0.010127657 0.0088361094         3413 
 1545000   0.63650841   -8.9464827     187.6333  0.010120459 0.0088268179         3406 
 1546000   0.62444193   -8.9479412    187.42213   0.01010253 0.0088175311         3364 
 1547000   0.64812372    -8.944224    187.56699  0.010103802  0.008808264         3406 
 1548000   0.63332802   -8.9551857    187.54314  0.010095992 0.0087990029         3354 
 1549000    0.6408094   -8.9243111    187.43729  0.010083779 0.0087897545         3341 
 1550000   0.63076735   -8.9501959    187.38997  0.010074729 0.0087805228         3363 
 1551000    0.6311626   -8.9241355     187.7938  0.010089931 0.0087713045         3365 
 1552000   0.63871836   -8.9540944    187.41123  0.010062888 0.0087620937         3434 
 1553000   0.62240412   -8.9418359    187.36386  0.010053867 0.0087528887         3435 
 1554000   0.63656224   -8.9603507    187.44165  0.010051569 0.0087436977         3364 
 1555000   0.62531727    -8.953225    187.82288  0.010065535 0.0087345326         3431 
 1556000    0.6336544   -8.9442064    187.42571  0.010037795  0.008725357         3396 
 1557000   0.62177648   -8.9455827    187.77142  0.010049851 0.0087162132         3373 
 1558000   0.63858252   -8.9508752    187.11263  0.010008164 0.0087070825         3435 
 1559000   0.63688201   -8.9317101    187.60715  0.010028178 0.0086979552         3357 
 1560000   0.64287945   -8.9648222    187.30211  0.010005455 0.0086888532         3484 
 1561000   0.63626083   -8.9756198    187.31137 0.0099995395 0.0086797592         3503 
 1562000   0.61125333   -8.9627636     187.5115  0.010003815 0.0086706716         3428 
 1563000   0.62378616   -8.9605239    187.42396 0.0099927466 0.0086615905         3415 
 1564000   0.62094444   -8.9456337    187.22972  0.009976008 0.0086525384         3382 
 1565000   0.62370673   -8.9453527    187.28664 0.0099726643 0.0086434975         3379 
 1566000   0.63342676   -8.9736109    187.20292 0.0099618411 0.0086344554         3412 
 1567000   0.62946512   -8.9326525    187.50933 0.0099717787 0.0086254392         3377 
 1568000   0.64807759   -8.9460823     187.4243 0.0099609004 0.0086164375         3437 
 1569000   0.61974618   -8.9517118    187.71518 0.0099700012 0.0086074372         3382 
 1570000   0.63263661   -8.9431325     187.4412 0.0099491082 0.0085984377         3386 
 1571000   0.61670438   -8.9685405    187.38942 0.0099400289 0.0085894579         3419 
 1572000   0.61673594   -8.9795841    187.21982 0.0099247147  0.008580482         3420 
 1573000   0.62427735   -8.9600565    187.52393 0.0099345161 0.0085715258         3369 
 1574000   0.62739906   -8.9716442    187.62358 0.0099334806 0.0085625828         3403 
 1575000   0.61504869   -8.9680955    187.69041 0.0099307095 0.0085536512         3379 
 1576000   0.63590355   -8.9473524    187.40212 0.0099091644 0.0085447349         3459 
 1577000   0.62505597   -8.9508683    187.59197  0.009912913 0.0085358298         3381 
 1578000   0.62822888   -8.9716054    187.44506 0.0098988728 0.0085269311         3423 
 1579000   0.60965983   -8.9654992    187.46384 0.0098935951 0.0085180532         3420 
 1580000   0.61836406    -8.971793    187.25976 0.0098765697 0.0085091869         3403 
 1581000   0.62030102    -8.987454    187.08596 0.0098611618 0.0085003177         3425 
 1582000   0.63395493   -8.9412932    187.40348 0.0098716539 0.0084914767         3429 
 1583000    0.6158456   -8.9494417    187.11916 0.0098504508 0.0084826434         3441 
 1584000    0.6204073   -8.9605411    186.89355 0.0098323627 0.0084738205         3394 
 1585000   0.61619325   -8.9644707    187.35275 0.0098503024 0.0084650115         3422 
 1586000    0.6141828   -8.9674672    187.07585 0.0098295423 0.0084562092         3445 
 1587000   0.61697436   -8.9753675    187.24402 0.0098321793 0.0084474192         3410 
 1588000   0.61059599   -8.9716265    187.49136 0.0098389674 0.0084386447         3373 
 1589000   0.61973218   -8.9581167    187.40583 0.0098282898 0.0084298725         3420 
 1590000   0.60433456   -8.9659851    187.15554 0.0098089905 0.0084211258         3404 
 1591000   0.60625737   -8.9726115    186.97901 0.0097935788  0.008412381         3396 
 1592000   0.61477406   -8.9684986    187.30062 0.0098042621 0.0084036538         3356 
 1593000   0.61957972   -8.9492885    187.63376 0.0098155348 0.0083949468         3412 
 1594000    0.6135814   -8.9631689     187.2187 0.0097876775 0.0083862407         3369 
 1595000    0.6225534   -8.9713564     187.2513 0.0097832443 0.0083775511         3427 
 1596000   0.61334329   -8.9897222    187.24429 0.0097767488 0.0083688692         3418 
 1597000   0.60285507   -8.9894348    187.28783 0.0097728986  0.008360204         3398 
 1598000   0.61493799   -8.9960897    187.18628 0.0097614875 0.0083515381         3436 
 1599000   0.61527869   -8.9813714     187.0884 0.0097502814 0.0083428974         3414 
 1600000   0.61441835   -8.9688772    187.15606 0.0097477116 0.0083342623         3374 
 1601000   0.59527445    -8.992904    187.12055 0.0097397747 0.0083256394         3456 
 1602000     0.603768   -8.9806307    187.40229 0.0097483502 0.0083170193         3427 
 1603000   0.61445822   -8.9912148    187.09262 0.0097261708 0.0083084171         3449 
 1604000    0.6113093   -8.9937307    187.16341 0.0097237849 0.0082998294         3417 
 1605000   0.60837666   -8.9779075    187.24479 0.0097219518 0.0082912576         3410 
 1606000   0.62362079   -8.9773482    187.22172 0.0097147011 0.0082826978         3430 
 1607000   0.61551792   -8.9911463    187.32204 0.0097138582 0.0082741457         3453 
 1608000   0.61960344    -8.960158    187.44687 0.0097142863 0.0082656005         3417 
 1609000   0.59966104   -8.9884525    187.00115 0.0096851641 0.0082570668         3414 
 1610000   0.60498296   -8.9865195    187.21274 0.0096901005 0.0082485477         3460 
 1611000   0.60835849    -8.984221    186.96481 0.0096712606 0.0082400447         3448 
 1612000   0.62444512    -8.972483    187.13459  0.009674038 0.0082315505         3470 
 1613000   0.60206909   -8.9792939    187.16077  0.009669393 0.0082230666         3417 
 1614000   0.61252387   -8.9946211    187.04993  0.009657679 0.0082145973         3456 
 1615000   0.60155826   -8.9920604    187.08383 0.0096534482 0.0082061359         3447 
 1616000   0.62191017   -8.9920285    187.34475 0.0096609295 0.0081976829         3427 
 1617000   0.60607496   -8.9962425    187.07099 0.0096408469 0.0081892489         3475 
 1618000   0.62354668    -8.977639    186.93729  0.009628002 0.0081808168         3431 
 1619000   0.61473075   -8.9803656    187.11162 0.0096310287 0.0081724026         3480 
 1620000   0.61451117   -9.0024156    187.18611 0.0096289149 0.0081639984         3454 
 1621000   0.61159168   -8.9785593    187.23402 0.0096254379 0.0081556091         3484 
 1622000    0.6187636   -8.9985292    187.54575 0.0096355194 0.0081472288         3445 
 1623000   0.60831577    -8.987934    187.19221 0.0096114298 0.0081388568         3471 
 1624000   0.59738088   -9.0037505    187.00556 0.0095959337 0.0081304871         3446 
 1625000   0.60799615   -8.9692577    186.75569 0.0095772151 0.0081221339         3455 
 1626000   0.61366559   -9.0036109    186.92515 0.0095800099 0.0081137988         3435 
 1627000   0.60596778   -8.9912033    186.82091 0.0095687826 0.0081054704         3469 
 1628000   0.60428671   -8.9869661    187.05861 0.0095750722 0.0080971535         3479 
 1629000   0.61444471   -8.9874946    187.16257 0.0095745126 0.0080888476         3435 
 1630000   0.60344381   -8.9937739    186.73317 0.0095466853  0.008080551         3429 
 1631000   0.62124369   -8.9977273    187.12859 0.0095610356 0.0080722729         3464 
 1632000   0.60940717   -8.9989622    186.96499 0.0095468234 0.0080640033         3465 
 1633000   0.61387322   -8.9892489     186.6528 0.0095250461 0.0080557444         3462 
 1634000    0.5962628   -8.9860318    187.10453 0.0095422545 0.0080474942         3445 
 1635000   0.60418489   -9.0028241    186.82646 0.0095222458 0.0080392496         3476 
 1636000   0.60684812   -8.9959977    186.97905 0.0095241979 0.0080310175         3497 
 1637000     0.591015   -9.0102996    186.98699 0.0095187838 0.0080228042         3490 
 1638000   0.60385852   -8.9964572    187.07606 0.0095175041  0.008014597         3431 
 1639000   0.61254783   -9.0139911    187.13089 0.0095144852 0.0080063985         3472 
 1640000   0.61636688    -9.009356     186.8445 0.0094941311 0.0079982074         3414 
 1641000   0.60418683   -9.0119401     186.8994 0.0094911334 0.0079900285         3520 
 1642000   0.61183483   -9.0224776    186.83285 0.0094819759 0.0079818681         3495 
 1643000    0.6018158   -9.0073496    187.05488  0.009487466 0.0079737075         3490 
 1644000   0.60019626   -9.0195864    186.76629 0.0094670665  0.007965565         3480 
 1645000   0.58763566   -8.9911012    187.06334 0.0094763596 0.0079574342         3495 
 1646000   0.60586536    -8.999277    186.74242 0.0094543549 0.0079493112         3462 
 1647000   0.59595585    -9.004018    186.85087 0.0094541017  0.007941199         3449 
 1648000   0.59167737   -8.9919333    186.61036 0.0094362035 0.0079330972         3478 
 1649000   0.59761215   -9.0187915    186.82356 0.0094412551 0.0079250061         3498 
 1650000   0.61413926   -9.0217299    187.01596 0.0094452505 0.0079169247         3473 
 1651000    0.6057108   -9.0213785    187.35589 0.0094566873 0.0079088594         3459 
 1652000   0.59639014   -8.9997627    186.77855 0.0094218395 0.0079007991         3448 
 1653000   0.60221126   -9.0182183    186.96053 0.0094253139 0.0078927447         3437 
 1654000    0.5986196   -9.0079358    186.75838 0.0094094306 0.0078847028         3499 
 1655000   0.59252991    -9.021697    186.91219 0.0094114899 0.0078766795         3431 
 1656000    0.5901082   -9.0175222    186.99054 0.0094097496 0.0078686673         3501 
 1657000   0.58062264    -9.009062    187.10299 0.0094097261 0.0078606754         3426 
 1658000   0.59039542   -9.0281368    186.73678 0.0093856443 0.0078526825         3475 
 1659000   0.59084841     -9.01536    187.06699 0.0093965738 0.0078446964         3499 
 1660000   0.60315129   -9.0132059    186.70736 0.0093728594 0.0078367223         3466 
 1661000   0.58655643   -9.0194834    186.94083 0.0093789296 0.0078287651         3459 
 1662000   0.58261389   -9.0243028    186.83843 0.0093681521 0.0078208187         3511 
 1663000   0.58156384   -9.0301957    186.63412 0.0093522812 0.0078128758         3500 
 1664000   0.58963694   -9.0260964    186.61673 0.0093457899 0.0078049424         3481 
 1665000   0.57928757   -9.0242232     186.5703  0.009337853 0.0077970222         3494 
 1666000   0.57944288   -9.0252606    187.15198 0.0093613435 0.0077891077         3536 
 1667000   0.57636678   -9.0416443    186.71166 0.0093337162 0.0077812077         3488 
 1668000   0.58398054   -9.0165964    186.90012 0.0093375359 0.0077733133         3477 
 1669000   0.59116974   -9.0263237    186.86813  0.009330344 0.0077654368         3528 
 1670000   0.58663549   -9.0075962    186.59896 0.0093113252 0.0077575659         3508 
 1671000   0.59814602   -9.0131298    186.71929 0.0093117542 0.0077497058         3528 
 1672000   0.59002418   -9.0227377    186.61591 0.0093010322 0.0077418524         3435 
 1673000    0.5857041   -9.0304285    186.62712  0.009296031 0.0077340097         3492 
 1674000   0.57453701   -9.0197218    186.63466 0.0092908534 0.0077261821         3517 
 1675000   0.60505221    -9.040159    186.96171 0.0093015774 0.0077183751         3480 
 1676000   0.57309407   -9.0321151    186.84516 0.0092902328 0.0077105665         3467 
 1677000   0.57461649   -9.0206249    186.78596 0.0092817509 0.0077027681         3520 
 1678000   0.56683704   -9.0236888    186.94072 0.0092839052 0.0076949868         3506 
 1679000   0.56951277   -9.0339094    186.48542 0.0092557781 0.0076872065         3486 
 1680000   0.58259677   -9.0378209    186.69101 0.0092604665 0.0076794373         3491 
 1681000   0.59401473   -9.0359851    186.87893 0.0092642736 0.0076716745         3470 
 1682000   0.57434815   -9.0245934    186.88106 0.0092588715  0.007663932         3511 
 1683000   0.59060683   -9.0206965    186.66925 0.0092428825 0.0076561982         3453 
 1684000   0.57342748   -9.0212229    186.70106 0.0092389676 0.0076484739         3439 
 1685000   0.58983567   -9.0347165    186.79121 0.0092379433 0.0076407621         3523 
 1686000   0.57832598    -9.049444    186.35197 0.0092107535 0.0076330613         3517 
 1687000   0.58654857   -9.0387431    186.77133 0.0092260091 0.0076253657         3517 
 1688000   0.57519766   -9.0406245     186.4798 0.0092061514 0.0076176831         3476 
 1689000   0.58634736   -9.0490144    186.55037 0.0092041823 0.0076100104         3549 
 1690000    0.5835179   -9.0208334    186.67851 0.0092050548 0.0076023421         3455 
 1691000   0.57513615   -9.0340907    186.93771 0.0092123847 0.0075946837         3496 
 1692000   0.57398953   -9.0294187    186.79277 0.0091998015 0.0075870351         3500 
 1693000   0.56910775   -9.0172769    186.66542  0.009188099 0.0075793993         3513 
 1694000   0.57141933   -9.0336255    186.33773 0.0091665548 0.0075717736         3512 
 1695000    0.5911112   -9.0397022    186.70507 0.0091792068 0.0075641625         3505 
 1696000   0.57930007   -9.0571791    186.38818 0.0091582241 0.0075565522         3490 
 1697000    0.5732918   -9.0486134    186.36284 0.0091515831  0.007548951         3507 
 1698000    0.5722369    -9.048189    186.55053 0.0091554049 0.0075413636         3499 
 1699000   0.57884794     -9.05422    186.36342 0.0091408386 0.0075337788         3571 
 1700000    0.5778146   -9.0670263     186.3462 0.0091346178 0.0075262065         3466 
 1701000   0.57608886   -9.0471625    186.62945 0.0091431242 0.0075186463         3485 
 1702000   0.57883897   -9.0518115    186.85466  0.009148779 0.0075111004         3475 
 1703000   0.57286334   -9.0417826    186.54243 0.0091281283  0.007503558         3515 
 1704000   0.57569505   -9.0562401    186.52671 0.0091220028 0.0074960348         3535 
 1705000   0.57341048   -9.0494064    186.76938 0.0091285134 0.0074885167         3514 
 1706000   0.57067749   -9.0347694    186.86684 0.0091279228 0.0074810145         3494 
 1707000   0.56666219   -9.0451648    186.35747 0.0090977092  0.007473518         3524 
 1708000   0.58980897   -9.0478045    186.38641 0.0090937946 0.0074660256         3498 
 1709000   0.57073577    -9.047419    186.47027 0.0090925626 0.0074585486         3517 
 1710000   0.57655964   -9.0483358     186.4971 0.0090885524 0.0074510774         3536 
 1711000    0.5620768   -9.0533952    186.38036 0.0090775549 0.0074436197         3531 
 1712000   0.57973182   -9.0701584    186.33372 0.0090699825  0.007436171         3459 
 1713000   0.57079138    -9.056491    186.52498 0.0090739918 0.0074287338         3496 
 1714000    0.5718701   -9.0391476    186.36785 0.0090610586 0.0074213084         3476 
 1715000   0.55751025   -9.0666463    186.33651 0.0090542523 0.0074138862         3525 
 1716000   0.55859353    -9.052007    186.56726 0.0090601817 0.0074064825         3524 
 1717000   0.58108133   -9.0370138    186.41609 0.0090475681 0.0073990866         3512 
 1718000   0.57218278   -9.0446133    186.60507 0.0090514681 0.0073916988         3479 
 1719000   0.56207802   -9.0564051    186.26851 0.0090298868 0.0073843155         3492 
 1720000   0.56915081   -9.0573833    186.10853 0.0090168863 0.0073769448         3587 
 1721000   0.57369836   -9.0645141     186.2972 0.0090207824 0.0073695865         3559 
 1722000   0.56867077   -9.0564034    186.84191 0.0090419045 0.0073622422         3565 
 1723000   0.56236459   -9.0529944    186.18166 0.0090047232 0.0073549039         3518 
 1724000    0.5681055   -9.0825598     186.2162 0.0090011695 0.0073475677         3519 
 1725000   0.56428263   -9.0635106    186.33832 0.0090018511 0.0073402424         3553 
 1726000   0.56153063   -9.0610095    186.37751  0.008998528 0.0073329218         3606 
 1727000   0.56234981   -9.0715457    186.57041 0.0090026253 0.0073256183         3520 
 1728000   0.56153495   -9.0656542    186.25367 0.0089821407 0.0073183227         3542 
 1729000   0.55281473   -9.0753181    186.33479 0.0089808555 0.0073110391         3566 
 1730000   0.55094078   -9.0716221    186.47987 0.0089826526 0.0073037599         3569 
 1731000    0.5711386   -9.0643289    186.45064 0.0089760563 0.0072964925         3487 
 1732000   0.56255703   -9.0661961    186.24533 0.0089609957 0.0072892322         3540 
 1733000   0.55819425   -9.0729163    186.43545 0.0089649666 0.0072819921         3477 
 1734000   0.56182762   -9.0787923     186.3786 0.0089570648 0.0072747531         3537 
 1735000    0.5730977   -9.0844439    186.08146 0.0089376302 0.0072675261         3533 
 1736000   0.55985189   -9.0880898    186.31609 0.0089437447   0.00726031         3546 
 1737000   0.55179521    -9.051235    186.33699 0.0089395983 0.0072531014         3546 
 1738000   0.56817062    -9.070137    186.03648 0.0089200459 0.0072459009         3534 
 1739000   0.57256012   -9.0897155    186.31831  0.008928422 0.0072387118         3536 
 1740000   0.55793895    -9.086368     186.3344 0.0089240615 0.0072315329         3493 
 1741000   0.56601665   -9.0744257    186.28145  0.008916401 0.0072243662         3569 
 1742000   0.55558503   -9.0589286    186.29941 0.0089121419 0.0072172028         3504 
 1743000   0.55498862   -9.0568911    186.48237 0.0089157758 0.0072100522         3515 
 1744000   0.56300895   -9.0854667    186.20269 0.0088972998 0.0072029037         3486 
 1745000   0.55675325   -9.0808573    186.29684 0.0088966971 0.0071957701         3516 
 1746000   0.54831117   -9.0648089    186.45817 0.0088993017  0.007188643         3489 
 1747000   0.54950424   -9.0657796     186.3765 0.0088903118 0.0071815196         3524 
 1748000   0.56300581   -9.0443375    185.91464 0.0088632077 0.0071744109         3554 
 1749000   0.55013125   -9.0981011    186.04257 0.0088642352 0.0071673161         3524 
 1750000   0.55145171   -9.0746901    186.08176 0.0088610364 0.0071602262         3549 
 1751000   0.54822774   -9.0872267     186.1385 0.0088586758  0.007153146         3555 
 1752000   0.55954627   -9.0768211    186.22887 0.0088579181 0.0071460734         3535 
 1753000   0.54851108   -9.0881092    186.17582  0.008850343 0.0071390132         3566 
 1754000   0.56291756   -9.0819607    186.17642 0.0088453257 0.0071319675         3555 
 1755000   0.56139059   -9.0755146    186.33231 0.0088476879 0.0071249211         3524 
 1756000    0.5487426   -9.0794747    186.33045 0.0088425613 0.0071178947         3533 
 1757000   0.54780598    -9.079598    186.19492 0.0088311002 0.0071108706         3509 
 1758000   0.54092713   -9.0985122    185.97469 0.0088156375 0.0071038575         3494 
 1759000   0.55246469   -9.0742858    186.39085 0.0088303418 0.0070968486         3535 
 1760000   0.55657344    -9.079714    186.58762  0.008834641 0.0070898534         3505 
 1761000   0.55126883   -9.0840748    186.03994 0.0088037073 0.0070828686         3475 
 1762000   0.54889032   -9.0731024    186.08127 0.0088006653 0.0070758918         3542 
 1763000   0.56725492   -9.0761208    186.23741 0.0088030538 0.0070689311         3529 
 1764000   0.53980034   -9.0815734    185.94024  0.008784025 0.0070619802         3485 
 1765000   0.55508993   -9.0710965    186.20315 0.0087914614  0.007055036         3549 
 1766000   0.54044268   -9.0800203    186.53985 0.0088023713 0.0070481018         3534 
 1767000   0.53082629   -9.0954361    186.19388 0.0087810733 0.0070411691         3527 
 1768000   0.54836058    -9.090274    186.14791 0.0087739398 0.0070342441         3486 
 1769000   0.54096983    -9.089259    186.20263 0.0087715579 0.0070273304         3525 
 1770000   0.54650023   -9.0792626    186.56079 0.0087834647  0.007020429         3492 
 1771000   0.55193644   -9.0841275    186.34764 0.0087684756 0.0070135336         3521 
 1772000   0.55202736   -9.0832761    186.21496 0.0087572872 0.0070066397         3509 
 1773000   0.54405624   -9.0762507    185.98335 0.0087414622 0.0069997607         3525 
 1774000   0.54762115   -9.0938882    186.10869 0.0087424224 0.0069928933         3488 
 1775000   0.54051726   -9.0896937     186.1195 0.0087380046 0.0069860324         3497 
 1776000   0.53946647   -9.0944789    186.20653 0.0087371683 0.0069791855         3489 
 1777000   0.54573405   -9.0835102    186.23884 0.0087337669 0.0069723486         3516 
 1778000   0.54502473   -9.0928279    186.13362 0.0087239228 0.0069655104         3556 
 1779000   0.55230017   -9.0815198     185.9908 0.0087123291 0.0069586856         3551 
 1780000   0.53314574   -9.1059801    186.30159 0.0087219845 0.0069518715         3555 
 1781000   0.55026403   -9.0886793    186.14173 0.0087096075 0.0069450585         3487 
 1782000   0.53460567   -9.0929333    186.23968 0.0087093003 0.0069382601         3514 
 1783000   0.52541492   -9.0869091    186.09954  0.008697866 0.0069314738         3486 
 1784000   0.53331251   -9.0724223    185.84927    0.0086813 0.0069246903         3519 
 1785000   0.54696745    -9.073294    186.18731 0.0086922179 0.0069179246         3511 
 1786000   0.54600133   -9.0871343    186.21016 0.0086884175 0.0069111704         3522 
 1787000   0.54160746   -9.0971592    186.24471 0.0086851666  0.006904417         3548 
 1788000   0.54918934   -9.0924095    186.01466 0.0086695873 0.0068976732         3537 
 1789000   0.54830836   -9.0600883    185.84607  0.008656888 0.0068909452         3531 
 1790000   0.54556304   -9.1060126     186.2382 0.0086703073 0.0068842253         3538 
 1791000   0.53560588   -9.1060961    185.91148 0.0086502643 0.0068775084         3542 
 1792000   0.54213389   -9.0864839    186.08565 0.0086535365 0.0068707957         3529 
 1793000   0.53222049   -9.1005049    186.19566 0.0086538232 0.0068641038         3531 
 1794000   0.53908459    -9.098217    186.25512 0.0086517616 0.0068574153         3543 
 1795000   0.54008798   -9.0968769    185.72237 0.0086222083 0.0068507369         3523 
 1796000    0.5327252   -9.1038402    186.01118 0.0086308081 0.0068440663         3498 
 1797000   0.53862234   -9.0824158    186.17228  0.008633476 0.0068374077         3474 
 1798000   0.54013118   -9.0983207    186.23279  0.008631479  0.006830753         3490 
 1799000   0.53399971   -9.1098015    185.79915 0.0086065942 0.0068241016         3551 
 1800000    0.5431649   -9.1011397     185.9295  0.008607847 0.0068174667         3510 
 1801000   0.54074858   -9.1097607    185.82934 0.0085984334 0.0068108385         3554 
 1802000   0.52866595   -9.1048577    186.15929 0.0086089204  0.006804221         3578 
 1803000   0.53361934   -9.1164581    186.13161 0.0086028661 0.0067976144         3519 
 1804000   0.53740646   -9.1073304    186.22228 0.0086022855 0.0067910138         3515 
 1805000   0.53053603   -9.1020465    185.76683 0.0085764926 0.0067844235         3494 
 1806000   0.51902754   -9.1217096    185.87601 0.0085767818 0.0067778409         3496 
 1807000   0.52640146   -9.1209571    186.12493 0.0085835145 0.0067712627         3519 
 1808000   0.52965746     -9.10739    186.06584 0.0085760435 0.0067646928         3530 
 1809000   0.54019096   -9.1102837    186.12693 0.0085741167 0.0067581303         3499 
 1810000   0.51997882   -9.1087029    185.82271 0.0085553736 0.0067515807         3483 
 1811000   0.53992572   -9.0994932    185.82067 0.0085505554 0.0067450345         3518 
 1812000   0.51433409   -9.1091307    185.92535 0.0085506508 0.0067384958         3540 
 1813000   0.53508266   -9.1150413    185.96541 0.0085477758 0.0067319679         3492 
 1814000   0.54030062   -9.1172826    185.57256 0.0085250165 0.0067254476         3510 
 1815000    0.5178781   -9.1306955    185.76051  0.008528949 0.0067189344         3529 
 1816000   0.52064708   -9.1108164    185.88302 0.0085298744 0.0067124338         3542 
 1817000   0.51896148   -9.1097952    185.84769 0.0085235593 0.0067059394         3497 
 1818000   0.52791642    -9.110665    185.77854 0.0085157012 0.0066994535         3526 
 1819000    0.5281456   -9.1033098    185.76071 0.0085102029 0.0066929749         3506 
 1820000   0.51312467   -9.1051612     186.0962 0.0085208884  0.006686506         3511 
 1821000   0.50926115   -9.1170423    186.00144 0.0085118726 0.0066800451         3527 
 1822000   0.53506547   -9.1099469    185.88877 0.0085020479  0.006673593         3479 
 1823000   0.53133625    -9.138861    185.88178 0.0084970645 0.0066671492         3509 
 1824000   0.52634777   -9.1181733     186.0702 0.0085010141  0.006660717         3543 
 1825000   0.51349363   -9.1249807    185.87794 0.0084875771 0.0066542916         3504 
 1826000   0.51916259   -9.1155339    186.13414 0.0084946211 0.0066478742         3508 
 1827000   0.53035007   -9.1190486     185.7263 0.0084713693 0.0066414641         3531 
 1828000   0.53726299   -9.1154631    185.84388 0.0084720951 0.0066350693         3553 
 1829000   0.52094575   -9.1222229    185.83802 0.0084671961 0.0066286799         3559 
 1830000   0.51971153   -9.1304059    186.04538  0.008472012 0.0066222991         3568 
 1831000   0.51450748   -9.1151081    185.76448 0.0084546005  0.006615924         3543 
 1832000   0.52338426   -9.1170251    185.54606 0.0084400499 0.0066095577         3529 
 1833000    0.5297714   -9.1301141    185.70265 0.0084425647 0.0066031979         3537 
 1834000   0.52044859   -9.1167924    185.42216 0.0084252162 0.0065968453         3549 
 1835000   0.51705129   -9.1253276    185.89338 0.0084420247 0.0065904982         3523 
 1836000   0.52432309   -9.1252241    185.67445 0.0084274897 0.0065841626         3476 
 1837000   0.50959026   -9.1304855    185.73218 0.0084255206 0.0065778312         3530 
 1838000   0.52570945   -9.1145352    185.66716 0.0084179886 0.0065715102         3514 
 1839000   0.51270392   -9.1399897    185.99507 0.0084282704 0.0065651954         3539 
 1840000   0.53093516   -9.1196527    185.89611 0.0084192078 0.0065588938         3492 
 1841000    0.5224445   -9.1196915    185.71405 0.0084063937 0.0065525996         3493 
 1842000   0.51510897   -9.1078637    186.14753 0.0084214411 0.0065463177         3531 
 1843000   0.51624234   -9.1205283    185.66014 0.0083948335 0.0065400393         3564 
 1844000   0.52722422   -9.1144004    185.76533 0.0083950346 0.0065337718         3472 
 1845000   0.52089212   -9.1266383    185.72377 0.0083886073 0.0065275101         3501 
 1846000   0.51496595    -9.137447    185.67944 0.0083820623 0.0065212533         3507 
 1847000   0.52017925   -9.1335564    185.66351 0.0083768052 0.0065150059         3495 
 1848000   0.51570387   -9.1413039    185.77572 0.0083773324 0.0065087674         3446 
 1849000   0.50649547   -9.1403037    185.71709 0.0083701592 0.0065025322         3487 
 1850000   0.51260666   -9.1240744    185.84564 0.0083714251  0.006496311         3502 
 1851000   0.51851682   -9.1364207    185.66801 0.0083589057 0.0064900902         3510 
 1852000   0.50855668   -9.1390041    185.90139 0.0083648935 0.0064838823         3504 
 1853000   0.51152298   -9.1349493    185.64111  0.008348674 0.0064776852         3518 
 1854000   0.50075241   -9.1329419    185.92159 0.0083567777 0.0064714883         3535 
 1855000   0.51437176   -9.1354809     185.4156 0.0083295419  0.006465308         3511 
 1856000   0.52629952   -9.1423267    185.86791 0.0083453625 0.0064591329         3515 
 1857000   0.52314239   -9.1454661    185.63453 0.0083303952 0.0064529654         3542 
 1858000   0.51104506   -9.1548655     185.6821 0.0083280455 0.0064468051         3550 
 1859000   0.51213721   -9.1413117    185.64639  0.008321965 0.0064406492         3455 
 1860000   0.50437826   -9.1399391     185.5556  0.008313423 0.0064345058         3506 
 1861000   0.51575882   -9.1288128    185.63184 0.0083123699 0.0064283729         3523 
 1862000   0.51037821   -9.1424885    185.57377 0.0083053064  0.006422246         3508 
 1863000   0.50486767   -9.1238158    185.78775 0.0083104202 0.0064161229         3522 
 1864000   0.50472691   -9.1385191    185.79651 0.0083063532  0.006410011         3475 
 1865000    0.5080873   -9.1314989    185.52752 0.0082898801 0.0064039052         3507 
 1866000    0.5201989   -9.1342404    185.68232 0.0082923509 0.0063978089         3479 
 1867000   0.50411357   -9.1558201     185.5242 0.0082808515 0.0063917205         3478 
 1868000   0.49809334   -9.1462858    185.95973 0.0082958481 0.0063856381         3497 
 1869000   0.50985484   -9.1284859    185.61945 0.0082762372 0.0063795619         3491 
 1870000   0.49428708    -9.139589     185.6148 0.0082716044 0.0063734966         3518 
 1871000   0.50168979   -9.1496951    185.70349 0.0082711337 0.0063674407         3512 
 1872000   0.51088813   -9.1531581    185.84145 0.0082728565 0.0063613924         3522 
 1873000   0.49954033   -9.1443328    185.42241 0.0082497957 0.0063553489         3546 
 1874000   0.49172048    -9.153893    185.21981 0.0082363843  0.006349313         3538 
 1875000   0.50453908   -9.1597064     185.6308 0.0082502577 0.0063432897         3522 
 1876000   0.48582734   -9.1691902    185.46267 0.0082383917 0.0063372664         3521 
 1877000   0.49977072   -9.1367899    185.61938 0.0082409598 0.0063312531         3543 
 1878000   0.51059029   -9.1436275    185.76841 0.0082431847 0.0063252516         3485 
 1879000   0.50267479   -9.1579424    185.51302  0.008227471 0.0063192499         3566 
 1880000   0.50466588   -9.1536547    185.51478  0.008223173 0.0063132573         3531 
 1881000   0.50857475   -9.1397435    185.40554 0.0082139614 0.0063072748         3514 
 1882000   0.49986186   -9.1661164    185.23009 0.0082018284 0.0063013011         3520 
 1883000   0.49340617   -9.1405835    185.62736 0.0082150542  0.006295333         3471 
 1884000   0.50965444   -9.1447623    185.42862 0.0082019029 0.0062893679         3474 
 1885000   0.50494782   -9.1506548    185.49372 0.0082004299 0.0062834134         3524 
 1886000   0.50232655   -9.1500643    185.23069 0.0081844597 0.0062774675         3526 
 1887000   0.51021071   -9.1578079    185.31214 0.0081837193 0.0062715321         3532 
 1888000   0.51220582   -9.1536016     185.5437 0.0081896056  0.006265607         3545 
 1889000   0.50365085   -9.1659743    185.39982 0.0081789226 0.0062596869         3563 
 1890000   0.49367621   -9.1662756    185.49142  0.008178634 0.0062537734         3513 
 1891000    0.4901201   -9.1595709    185.38171 0.0081694744 0.0062478663         3560 
 1892000   0.49887892   -9.1572688    185.51509 0.0081710312 0.0062419651         3492 
 1893000   0.50170427   -9.1706967    185.34262 0.0081591224 0.0062360758         3506 
 1894000   0.49882577   -9.1736782    185.44321 0.0081592401 0.0062301925         3508 
 1895000   0.49403257   -9.1727542    185.58598 0.0081612127 0.0062243168         3547 
 1896000    0.5040174   -9.1464248    185.57877 0.0081565914 0.0062184493         3552 
 1897000   0.49236803   -9.1642467     185.4745 0.0081477112 0.0062125931         3509 
 1898000   0.51273948   -9.1612055    185.47202 0.0081433097 0.0062067437         3554 
 1899000   0.49408948   -9.1582057    185.40258 0.0081359742  0.006200895         3567 
 1900000   0.49935638   -9.1726051    185.24783 0.0081249047 0.0061950543         3577 
 1901000   0.49363893   -9.1743851     185.7295 0.0081417457 0.0061892237         3550 
 1902000   0.49882704   -9.1657668     185.6104 0.0081322469 0.0061833992         3590 
 1903000   0.48905518   -9.1668664    185.26734 0.0081129506 0.0061775762         3567 
 1904000   0.49403592   -9.1821605    185.18725 0.0081051842 0.0061717613         3525 
 1905000   0.47921388   -9.1649881    185.64749 0.0081210624 0.0061659551         3538 
 1906000   0.48858275   -9.1751978     185.6079 0.0081150709  0.006160162         3560 
 1907000    0.4914709     -9.17596    185.61751 0.0081112352 0.0061543741         3518 
 1908000   0.49705858   -9.1642145    185.30542 0.0080933534 0.0061485915         3539 
 1909000   0.49023603   -9.1753096     185.5715 0.0081007291 0.0061428173         3498 
 1910000   0.49694591    -9.167029    185.47284 0.0080921834 0.0061370523         3543 
 1911000   0.49760328   -9.1625802    185.42702 0.0080859507 0.0061312914         3521 
 1912000   0.47940064   -9.1774618    185.10487 0.0080676808 0.0061255406         3528 
 1913000   0.49227524   -9.1866395    185.40484 0.0080765306 0.0061197933         3543 
 1914000   0.49947258   -9.1757433     185.4174 0.0080728581 0.0061140565         3547 
 1915000   0.48716488   -9.1748562    185.35983 0.0080661369 0.0061083231         3507 
 1916000   0.49042079   -9.1925172    185.35918 0.0080618987 0.0061025987         3536 
 1917000   0.49076389   -9.1696423    185.19558 0.0080505816 0.0060968833         3554 
 1918000    0.4794359   -9.1734032    185.38921  0.008054797 0.0060911641         3528 
 1919000   0.49913371   -9.1834096    185.31129  0.008047216 0.0060854557         3550 
 1920000   0.48067641   -9.1794409    185.19771 0.0080380949   0.00607976         3554 
 1921000   0.49099011   -9.1827709    185.36425 0.0080411354 0.0060740703         3554 
 1922000   0.47861702   -9.1853376    185.49521 0.0080426296 0.0060683926         3588 
 1923000    0.4950283   -9.1669292     185.2578 0.0080281592 0.0060627205         3500 
 1924000   0.48426261   -9.1884928    185.15585 0.0080195709 0.0060570552         3557 
 1925000    0.4808172   -9.1921885    185.20326 0.0080174569 0.0060513946         3535 
 1926000   0.47720843   -9.1987491     185.2329 0.0080145768 0.0060457406         3528 
 1927000   0.48506218   -9.1920536    185.30042 0.0080133378 0.0060400969         3544 
 1928000   0.47942074   -9.1734344    185.42018 0.0080143577 0.0060344568         3540 
 1929000   0.47911282   -9.1851256    185.25645   0.00800313 0.0060288293         3577 
 1930000   0.49612936   -9.1945824    185.00834 0.0079882702 0.0060232036         3601 
 1931000   0.48150879   -9.1945442    185.49346 0.0080050689 0.0060175916         3613 
 1932000   0.47820243   -9.1965933    185.11329 0.0079845275 0.0060119788         3537 
 1933000    0.4732071   -9.1724178    185.26809 0.0079870706 0.0060063759         3532 
 1934000   0.48719636   -9.1741779    185.19488 0.0079797861 0.0060007791         3574 
 1935000    0.4856949   -9.2017472     185.2164 0.0079765891 0.0059951932         3540 
 1936000   0.47536975   -9.1832972    185.29181 0.0079757149  0.005989608         3569 
 1937000   0.48652685   -9.1714182    185.15802 0.0079658415 0.0059840366         3554 
 1938000   0.47265567   -9.1936494    185.08671 0.0079586649 0.0059784698         3565 
 1939000   0.48650364   -9.1972417     185.4325 0.0079694217 0.0059729114         3545 
 1940000   0.47733555   -9.2000988    185.30743  0.007959941 0.0059673602         3544 
 1941000   0.49031307   -9.1896276    185.27148 0.0079542969 0.0059618098         3595 
 1942000   0.47500375    -9.195281    185.15674 0.0079452774 0.0059562645         3582 
 1943000   0.47139065   -9.1959415     184.9035 0.0079303267 0.0059507276         3528 
 1944000   0.47987511   -9.1844513    185.12735 0.0079358432 0.0059451999         3519 
 1945000   0.47017146   -9.1880898    185.37006  0.007942162 0.0059396762         3556 
 1946000   0.49125445   -9.1868379    185.02665 0.0079233749 0.0059341636         3534 
 1947000   0.47800357   -9.1952932    185.31624    0.0079317 0.0059286581         3500 
 1948000   0.47773327   -9.1834449    185.32213 0.0079278802 0.0059231596         3520 
 1949000     0.464291   -9.1941133    185.29698 0.0079227372  0.005917663         3533 
 1950000   0.46144032   -9.2186521    185.37886 0.0079221734 0.0059121772         3524 
 1951000   0.47428702   -9.2057569    185.14558 0.0079081488 0.0059066981         3486 
 1952000   0.48149973   -9.1949188    185.18422  0.007905747 0.0059012273         3598 
 1953000   0.48588326    -9.189967    185.32628 0.0079077606  0.005895765         3533 
 1954000   0.48163277   -9.1959824     185.1015 0.0078941276 0.0058903053         3530 
 1955000   0.46994063   -9.2096041     185.1104 0.0078904689 0.0058848532         3561 
 1956000   0.47467383   -9.1943467    184.85136 0.0078753987 0.0058794096         3593 
 1957000   0.46444906   -9.2077163    185.05531 0.0078800594 0.0058739739         3561 
 1958000   0.46804167   -9.1954931    185.15453 0.0078802573 0.0058685457         3519 
 1959000   0.46804827   -9.2228214    184.98243  0.007868914 0.0058631162         3572 
 1960000   0.47377232   -9.2270201    185.43748 0.0078842467 0.0058576992         3555 
 1961000   0.46655993   -9.2051281    184.98281 0.0078609048 0.0058522874         3522 
 1962000    0.4657886   -9.1957286      185.136 0.0078634048 0.0058468845         3513 
 1963000   0.46673153   -9.2032756    185.21289 0.0078626632 0.0058414899         3593 
 1964000   0.48236433   -9.2019193    185.11339 0.0078544379 0.0058360993         3540 
 1965000   0.46805842   -9.1974928    185.01698  0.007846352 0.0058307149         3523 
 1966000    0.4755732   -9.1923789     185.1096 0.0078462868  0.005825339         3506 
 1967000   0.46821474   -9.1928353    185.14702 0.0078438833 0.0058199724         3518 
 1968000   0.46630816   -9.1999581     185.1919 0.0078417981 0.0058146072         3560 
 1969000   0.46424477   -9.1949225    185.07346 0.0078328026 0.0058092495         3525 
 1970000   0.47335804   -9.2051596    185.14666 0.0078319228 0.0058038964         3555 
 1971000   0.46507822   -9.2030689    185.18956 0.0078297632 0.0057985503         3571 
 1972000   0.46148744   -9.1939949    185.07821 0.0078210874 0.0057932123         3574 
 1973000   0.46298121   -9.1995653    184.84105 0.0078071064 0.0057878865         3537 
 1974000   0.47300186   -9.1909345    185.22483 0.0078193528  0.005782563         3565 
 1975000   0.46966022   -9.1873806    185.16029 0.0078126706 0.0057772481         3521 
 1976000   0.46890769   -9.2135348     185.2166 0.0078110915 0.0057719377         3562 
 1977000   0.47382447   -9.2170351    185.19927 0.0078064098 0.0057666319         3515 
 1978000    0.4752272   -9.2025831     185.3068 0.0078069935 0.0057613374         3564 
 1979000   0.45880975   -9.2198299    184.97772 0.0077891914 0.0057560437         3561 
 1980000   0.45435371   -9.2049937    185.08601 0.0077898153  0.005750762         3529 
 1981000   0.45793251    -9.221491    184.84853  0.007775893 0.0057454821         3505 
 1982000   0.45658964   -9.2163105    185.07335 0.0077814223 0.0057402135         3540 
 1983000   0.45975726   -9.2119432    184.91034  0.007770648 0.0057349509         3509 
 1984000   0.46304334   -9.2092182    184.95278 0.0077685139 0.0057296934         3558 
 1985000    0.4592139   -9.2204645     185.0695 0.0077695004 0.0057244425         3538 
 1986000   0.45388929   -9.2221853    185.06817 0.0077655323 0.0057191965         3549 
 1987000   0.45070615   -9.2098951    184.88379 0.0077538917  0.005713959         3523 
 1988000   0.45893309   -9.2178769    185.05137  0.007757016 0.0057087282         3535 
 1989000   0.44592947   -9.2106899    185.12665 0.0077562697 0.0057035015         3555 
 1990000   0.46630373   -9.2234644    184.95995 0.0077453917 0.0056982783         3566 
 1991000   0.45938621   -9.2232438    185.00664 0.0077434555 0.0056930665         3538 
 1992000   0.46140259   -9.2321565    184.83353 0.0077323266 0.0056878567         3554 
 1993000   0.45491502   -9.2078425      185.083 0.0077388777 0.0056826569         3550 
 1994000    0.4640767   -9.2209351    184.92533 0.0077284072 0.0056774618         3545 
 1995000   0.44827481   -9.2196325     185.0446 0.0077295156 0.0056722733         3538 
 1996000   0.45060455     -9.23749    184.88874 0.0077191358 0.0056670911         3584 
 1997000   0.46635293   -9.2155991    185.05453 0.0077221888 0.0056619133         3532 
 1998000   0.44534692   -9.2317233    184.58979 0.0076989401 0.0056567425         3574 
 1999000   0.46058171   -9.2129688     184.9153 0.0077086584 0.0056515767         3566 
 2000000     0.454953   -9.2177326    184.75108 0.0076979616   0.00564642         3608 
 2001000   0.45593922   -9.2211658    185.01267 0.0077050086 0.0056412686         3560 
 2002000   0.44749171   -9.2189692    184.90135 0.0076965266 0.0056361257         3569 
 2003000   0.45413167   -9.2094654    184.95744 0.0076950177 0.0056309857         3526 
 2004000   0.46146282   -9.2385702    184.76851 0.0076833214 0.0056258518         3559 
 2005000   0.45356849   -9.2330206    184.81776 0.0076815362 0.0056207282         3529 
 2006000   0.45190955   -9.2174227     184.9044 0.0076813061 0.0056156104         3552 
 2007000   0.44074563   -9.2241961    185.05667 0.0076838014 0.0056104955         3583 
 2008000   0.45222058   -9.2306699    184.73906 0.0076667938   0.00560539         3600 
 2009000   0.45179271   -9.2311675    184.92456  0.007670672 0.0056002895         3568 
 2010000   0.44722334   -9.2303442    184.91516  0.007666466 0.0055951973         3557 
 2011000   0.45768192   -9.2270293    184.65944  0.007652057 0.0055901071         3559 
 2012000     0.452782   -9.2310537    184.91208 0.0076587175 0.0055850249         3569 
Loop time of 5368.14 on 48 procs for 2000000 steps with 4000 atoms

Performance: 64379.885 tau/day, 372.569 timesteps/s
99.4% CPU use with 48 MPI tasks x no OpenMP threads

MPI task timing breakdown:
Section |  min time  |  avg time  |  max time  |%varavg| %total
---------------------------------------------------------------
Pair    | 396.41     | 429.57     | 482.01     | 101.9 |  8.00
Neigh   | 36.91      | 38.475     | 40.676     |  14.4 |  0.72
Comm    | 318.61     | 386.79     | 426.95     | 123.6 |  7.21
Output  | 5.6882     | 5.6903     | 5.7346     |   0.3 |  0.11
Modify  | 4423.3     | 4453.4     | 4489.5     |  21.7 | 82.96
Other   |            | 54.17      |            |       |  1.01

Nlocal:        83.3333 ave          92 max          76 min
Histogram: 2 9 5 9 3 4 5 4 0 7
Nghost:        2422.46 ave        2444 max        2398 min
Histogram: 1 4 2 7 7 6 9 7 3 2
Neighs:        16820.9 ave       20315 max       14548 min
Histogram: 7 9 3 7 5 5 7 1 1 3
FullNghs:      33641.6 ave       37859 max       30251 min
Histogram: 2 5 10 9 6 4 3 2 3 4

Total # of neighbors = 1614798
Ave neighs/atom = 403.69950
Neighbor list builds = 106432
Dangerous builds = 0

#clear
#
#next RN
#
#jump SELF
Total wall time: 1:29:31
