
units lj                  # Use reduced LJ style units
atom_style atomic         # Uncharged point particles
atom_modify map hash      # Needed for indexing of clusters etc
                          # Used to be able to find where atoms are in relation to each other.

lattice fcc 1.0 spacing 1 1 1
Lattice spacing in x,y,z = 1.5874011 1.5874011 1.5874011
region box block 0 10 0 10 0 10 units lattice
create_box 2 box
Created orthogonal box = (0.0000000 0.0000000 0.0000000) to (15.874011 15.874011 15.874011)
  3 by 4 by 4 MPI processor grid
create_atoms 1 box
Created 4000 atoms
  using lattice units in orthogonal box = (0.0000000 0.0000000 0.0000000) to (15.874011 15.874011 15.874011)
  create_atoms CPU = 0.003 seconds
set type 1 type/fraction 2 0.73 78393
Setting atom values ...
  2936 settings made for type/fraction
mass 1 1.0
mass 2 1.0
pair_style lj/cut  3.5
pair_modify tail  yes
pair_coeff 1  1  1.0  1.0   # Intearaction between 1 and 1 set with epsilon = 1 and sigma = 1
pair_coeff 1  2  1.5  0.8
pair_coeff 2  2  0.5  0.88

write_data data.0
System init for write_data ...
Neighbor list info ...
  update every 1 steps, delay 10 steps, check yes
  max neighbors/atom: 2000, page size: 100000
  master list distance cutoff = 3.8
  ghost atom cutoff = 3.8
  binsize = 1.9, bins = 9 9 9
  1 neighbor lists, perpetual/occasional/extra = 1 0 0
  (1) pair lj/cut, perpetual
      attributes: half, newton on
      pair build: half/bin/atomonly/newton
      stencil: half/bin/3d
      bin: standard
WARNING: Not all mixed pair coeffs generated from mixing. Use write_data with 'pair ij' option to store all pair coeffs. (../write_data.cpp:312)


#############################
#   M E L T   S Y S T E M   #
#############################

velocity all create 2.4 2750902 mom yes dist gaussian # Assign velocities
                                                    # Temperature 2.4, random number seed, zero linear momentum
                                                                                # Gaussian distribution

timestep 0.002   # simulation timestep
thermo 1000       # output thermodynamic data every 1000 steps bf 100

# Define a fix  in this case with index 1 applied to all
# particles in the simulation. This fix is for simulations
# in the anisotropic NPT ensemble. Note that we use the MTK
# correction.
fix 1 all npt temp 2.4 2.4 0.1 iso 5.68 5.68 0.5 mtk yes tchain 5 pchain 5 # Use NPT ensemble
                                                                         # Set temperature and pressure and damping
                                                                         # Numbers of thermostats in chain and in barostat
run 10000          # run for 10000 steps
Per MPI rank memory allocation (min/avg/max) = 3.642 | 3.644 | 3.648 Mbytes
Step Temp E_pair E_mol TotEng Press Volume 
       0          2.4   -4.0230884            0  -0.42398835   -3.6147038         4000 
    1000    2.4019622   -3.6101236            0 -0.0080809535    5.6402729    3679.5231 
    2000    2.4237215   -3.5647503            0  0.069923122    5.4972717    3708.6218 
    3000    2.3676245   -3.5961765            0 -0.045627668    5.8677804    3656.9932 
    4000    2.4069804   -3.5844411            0  0.025126767    5.4189675    3703.5621 
    5000    2.3729752   -3.5108602            0  0.047712805    5.8392913    3711.0509 
    6000    2.4104207   -3.5318287            0  0.082898466    5.5393783    3728.2932 
    7000    2.4519603    -3.578926            0  0.098094918    5.7856531    3685.2739 
    8000    2.3617417   -3.6175588            0 -0.075831941    5.6346725    3661.1571 
    9000    2.3970118   -3.5774972            0  0.017121639    5.7913908    3678.6075 
   10000    2.3894532   -3.5519373            0  0.031346518    5.6220011    3709.3964 
Loop time of 2.57553 on 48 procs for 10000 steps with 4000 atoms

Performance: 670930.451 tau/day, 3882.699 timesteps/s
99.7% CPU use with 48 MPI tasks x no OpenMP threads

MPI task timing breakdown:
Section |  min time  |  avg time  |  max time  |%varavg| %total
---------------------------------------------------------------
Pair    | 1.1766     | 1.2415     | 1.2988     |   2.6 | 48.20
Neigh   | 0.21804    | 0.22254    | 0.23452    |   0.7 |  8.64
Comm    | 0.79811    | 0.8614     | 0.94179    |   3.6 | 33.45
Output  | 0.00024802 | 0.0002523  | 0.00031343 |   0.0 |  0.01
Modify  | 0.21505    | 0.23449    | 0.25757    |   2.3 |  9.10
Other   |            | 0.01537    |            |       |  0.60

Nlocal:        83.3333 ave          95 max          74 min
Histogram: 7 2 4 4 12 7 6 3 1 2
Nghost:        1723.46 ave        1757 max        1665 min
Histogram: 1 0 3 3 8 4 7 11 3 8
Neighs:        10291.1 ave       12162 max        8870 min
Histogram: 6 3 4 9 9 6 5 3 1 2

Total # of neighbors = 493971
Ave neighs/atom = 123.49275
Neighbor list builds = 909
Dangerous builds = 204

# Equilibrate just above the melting temperature to avoid step fn in T

fix 1 all npt temp 1.25 1.25 0.1 iso 5.68 5.68 0.5 mtk yes tchain 5 pchain 5
run 2000
Per MPI rank memory allocation (min/avg/max) = 3.644 | 3.646 | 3.649 Mbytes
Step Temp E_pair E_mol TotEng Press Volume 
   10000    2.3894532   -3.5519373            0  0.031346518    5.6220011    3709.3964 
   11000    1.2510917   -5.2746483            0   -3.3984798    5.6685552    2818.6114 
   12000    1.2277229   -5.2488016            0   -3.4076777     5.548626    2830.6744 
Loop time of 0.647692 on 48 procs for 2000 steps with 4000 atoms

Performance: 533586.833 tau/day, 3087.887 timesteps/s
99.6% CPU use with 48 MPI tasks x no OpenMP threads

MPI task timing breakdown:
Section |  min time  |  avg time  |  max time  |%varavg| %total
---------------------------------------------------------------
Pair    | 0.29789    | 0.3177     | 0.34513    |   1.9 | 49.05
Neigh   | 0.041207   | 0.043549   | 0.045412   |   0.4 |  6.72
Comm    | 0.20769    | 0.23553    | 0.26082    |   2.5 | 36.36
Output  | 5.0776e-05 | 5.2077e-05 | 6.6095e-05 |   0.0 |  0.01
Modify  | 0.041171   | 0.045842   | 0.049862   |   1.3 |  7.08
Other   |            | 0.005017   |            |       |  0.77

Nlocal:        83.3333 ave          92 max          73 min
Histogram: 1 1 3 7 6 12 6 9 2 1
Nghost:        2073.58 ave        2099 max        2050 min
Histogram: 1 5 4 9 4 12 2 6 4 1
Neighs:        13486.1 ave       15208 max       11695 min
Histogram: 1 2 6 7 7 9 8 4 2 2

Total # of neighbors = 647335
Ave neighs/atom = 161.83375
Neighbor list builds = 144
Dangerous builds = 13

#############################
# L I N E A R  Q U E N C H  #
#############################

# Define solid atoms. This closely follows ten Wolde  Ruiz-Montero and Frenkel  Faraday Discuss  1996  104  93-110
# Compute components of the per-atom q6 vector
compute q6 all orientorder/atom degrees 1 6 components 6 nnn NULL cutoff 1.3 # compute the Q6 parameter.
                                                                             # Use all neighbours within 1.3 unit cell.

# get number of connections
compute coord_number all coord/atom orientorder q6 0.5

# An atom is solid if it has 8 or more connections (of a possible 14)
variable is_solid atom c_coord_number>=8
group solid dynamic all var is_solid    # Must be dynamic to update
dynamic group solid defined

# do clustering
compute cluster solid cluster/atom 1.3 # Create a cluster where all atoms within are solid and max 1.3 units from another member

# define chunks one chunk per cluster
compute clus_chunks solid chunk/atom c_cluster nchunk every compress yes  # Says which atoms are in which chunk

# count the size of each chunk
compute size_chunks solid property/chunk clus_chunks count


# Find the maximum entry in the vector of chunk sizes
variable max_n equal max(c_size_chunks)


# Thermo style which includes this variable
# thermo_style custom step temp pe vol v_max_n

thermo ${N}  # Print the thermo information every 100 steps
thermo 1000  

# Reset the npt fix at a lower temperature (below freezing)
fix 1  all npt temp  ${temp} ${temp}  0.1  iso  5.68  5.68  0.5  mtk yes tchain  5  pchain  5
fix 1  all npt temp  0.45 ${temp}  0.1  iso  5.68  5.68  0.5  mtk yes tchain  5  pchain  5
fix 1  all npt temp  0.45 0.45  0.1  iso  5.68  5.68  0.5  mtk yes tchain  5  pchain  5

dump dmp2 all dcd ${N} traj.dcd
dump dmp2 all dcd 1000 traj.dcd


compute msd all msd com yes
variable twopoint equal c_msd[4]/6/(step*dt+1.0e-6)
fix 9 all vector 10 c_msd[4]
variable fit equal slope(f_9)/6/(10*dt)
thermo_style custom step temp pe c_msd[4] v_twopoint v_fit v_max_n

fix 1 all npt temp 1.25 ${temp} 0.1 iso 5.68 5.68 0.5 mtk yes tchain 5 pchain 5
fix 1 all npt temp 1.25 0.45 0.1 iso 5.68 5.68 0.5 mtk yes tchain 5 pchain 5
run 5000000 # 5000000  # Run for this many steps
Neighbor list info ...
  update every 1 steps, delay 10 steps, check yes
  max neighbors/atom: 2000, page size: 100000
  master list distance cutoff = 3.8
  ghost atom cutoff = 3.8
  binsize = 1.9, bins = 8 8 8
  4 neighbor lists, perpetual/occasional/extra = 1 3 0
  (1) pair lj/cut, perpetual
      attributes: half, newton on
      pair build: half/bin/atomonly/newton
      stencil: half/bin/3d
      bin: standard
  (2) compute orientorder/atom, occasional
      attributes: full, newton on
      pair build: full/bin/atomonly
      stencil: full/bin/3d
      bin: standard
  (3) compute coord/atom, occasional
      attributes: full, newton on
      pair build: full/bin/atomonly
      stencil: full/bin/3d
      bin: standard
  (4) compute cluster/atom, occasional
      attributes: full, newton on
      pair build: full/bin/atomonly
      stencil: full/bin/3d
      bin: standard
Per MPI rank memory allocation (min/avg/max) = 9.841 | 9.847 | 9.854 Mbytes
Step Temp PotEng c_msd[4] v_twopoint v_fit v_max_n 
   12000    1.2277229   -5.2488016 3.9936083e-30 2.773339e-32 8.3333333e+20            5 
   13000    1.2643049   -5.3005181   0.66956967 0.0042921131  0.056238404            1 
   14000    1.2315508    -5.297291    1.3323308 0.0079305404  0.054641558            1 
   15000    1.2474821   -5.3136543     2.049769  0.011387605  0.056843678            1 
   16000    1.2393614    -5.277874    2.7180726  0.014156628  0.057026044            3 
   17000    1.2307468    -5.294861    3.3979986  0.016656855  0.056888454            2 
   18000    1.2463921     -5.28903    4.0380468   0.01869466  0.056376903            1 
   19000    1.2507427   -5.3080284    4.6593485  0.020435739   0.05613442            5 
   20000    1.2558148   -5.3111518    5.3334548  0.022222728  0.055596338            4 
   21000    1.2467593   -5.3005433    5.9056845  0.023435255  0.055036876            1 
   22000    1.2577531   -5.3352718    6.5170823  0.024685917  0.054612945            1 
   23000     1.231558   -5.3053982    7.1857845   0.02603545  0.054319407            5 
   24000    1.2463567   -5.3259033    7.9042544  0.027445327  0.054232413            4 
   25000    1.2547157   -5.3010638    8.6488776  0.028829591  0.054393737            2 
   26000     1.244355   -5.2926957    9.3610982  0.030003519  0.054674409            1 
   27000    1.2371975   -5.2999995    9.9754904   0.03078855  0.054824252            2 
   28000    1.2694533   -5.2953862    10.702362  0.031852267  0.054992262            1 
   29000    1.2429291    -5.305804    11.314377  0.032512578   0.05517622            2 
   30000    1.2456457   -5.2758775    11.931028  0.033141745   0.05526776            3 
   31000    1.2485553   -5.2801231    12.761978  0.034306393  0.055444145            1 
   32000    1.2293102   -5.3212371    13.543624  0.035269854  0.055659777            2 
   33000     1.244027   -5.2783187    14.224906  0.035921478  0.055908594            4 
   34000    1.2335956   -5.2900574    15.059951  0.036911644  0.056109638            1 
   35000    1.2485818    -5.265294     15.73586  0.037466334  0.056366113            1 
   36000    1.2498582   -5.3362632    16.252127  0.037620665  0.056493589            1 
   37000    1.2558414   -5.2964913    16.881953  0.038022417  0.056502241            3 
   38000    1.2206961   -5.3217976    17.405243  0.038169393  0.056441804            2 
   39000    1.2698278   -5.2639648    18.120431  0.038718869  0.056331108            1 
   40000    1.2379939   -5.2849349    18.723032  0.039006316  0.056246029            1 
   41000    1.2506942   -5.3290468    19.432648  0.039497251  0.056170172            4 
   42000    1.2402587   -5.3136552    20.059069   0.03979974  0.056134241            1 
   43000    1.2730122   -5.3058463    20.720082  0.040155197  0.056067728            3 
   44000    1.2499221   -5.3163365    21.365554  0.040465065   0.05601525            2 
   45000    1.2208774   -5.2819682    22.116334  0.040956174  0.055994996            1 
   46000    1.2266893   -5.3049009    22.611008  0.040961971  0.055954572            2 
   47000    1.2338236   -5.3283489    23.240522  0.041206598  0.055889644            4 
   48000    1.2293611   -5.2861383    23.846971   0.04140099   0.05578244            2 
   49000    1.2444719   -5.3118181    24.396444  0.041490551  0.055680131            1 
   50000    1.2376091   -5.3097968    25.047687  0.041746144  0.055567161            2 
   51000     1.254247   -5.3202084     25.70276  0.041997973  0.055458045            3 
   52000    1.2188643   -5.3495837    26.361265  0.042245617  0.055379307            2 
   53000    1.2377452   -5.3209441    26.966897  0.042400782  0.055309505            3 
   54000    1.2412481   -5.2894734    27.742921  0.042813149  0.055262409            2 
   55000    1.2350376   -5.2914079    28.517054  0.043207657  0.055208644            3 
   56000    1.2456219   -5.2707621    29.033123  0.043204052  0.055184928            4 
   57000    1.2525865   -5.3225818    29.665637  0.043370814  0.055149928            2 
   58000    1.2533289   -5.2644428    30.263688   0.04348231  0.055091247            2 
   59000    1.2439939   -5.3457598    30.646607  0.043286168   0.05500917            2 
   60000    1.2432378    -5.290933    31.445687  0.043674565  0.054921265            1 
   61000    1.2468391   -5.3010495    32.236128  0.044038427  0.054824992            3 
   62000    1.2496105    -5.336257    32.726843  0.043987692  0.054787303            3 
   63000    1.2464761   -5.3167068    33.431516  0.044221582  0.054741074            2 
   64000    1.2474193   -5.2961426    34.073215  0.044366165  0.054706288            3 
   65000    1.2250326   -5.3618416    34.760368  0.044564574  0.054686201            5 
   66000    1.2204888    -5.304903    35.595818  0.044944214  0.054661505            2 
   67000    1.2252344    -5.286938    36.256204  0.045094781   0.05465757            2 
   68000    1.2240162   -5.2917761    36.959383  0.045293361   0.05466327            2 
   69000    1.2276542   -5.3056165    37.588915   0.04539724  0.054653854            2 
   70000    1.2618588   -5.2907216    38.065537  0.045316115  0.054643293            2 
   71000     1.228799   -5.3277541    38.902608  0.045660338  0.054628917            6 
   72000    1.2260373   -5.3212132    39.723449  0.045976213  0.054634241            2 
   73000    1.2336339   -5.3103318    40.574371  0.046317775  0.054657595            3 
   74000    1.2553633   -5.2764676    40.943154  0.046107155  0.054669576            2 
   75000    1.2342717   -5.2845636     41.71416  0.046349066  0.054684305            2 
   76000    1.2313473   -5.2738883    42.678291  0.046796372  0.054725497            3 
   77000    1.2519332   -5.3242197    43.061685  0.046603555  0.054766003            2 
   78000    1.2248374   -5.3553973    43.554732  0.046532833  0.054793063            1 
   79000    1.2315032   -5.2946608     44.13875  0.046559862  0.054793021            2 
   80000    1.2612289    -5.333998    44.747232  0.046611699  0.054787187            1 
   81000    1.2240897   -5.2917887    45.473019  0.046782941  0.054783305            5 
   82000    1.2677775   -5.2910661    46.171838  0.046922599  0.054781568            2 
   83000    1.2407592   -5.3169635    46.759125  0.046946912   0.05477851            7 
   84000    1.2168392   -5.2952521    47.408755  0.047032494  0.054766746            3 
   85000    1.2232783   -5.2843335     47.99426  0.047053196  0.054763716            1 
   86000    1.2169181    -5.299426    48.877572  0.047361988  0.054757755            3 
   87000    1.2720264   -5.3205648    49.545414  0.047457293   0.05477023            2 
   88000    1.2341712    -5.314136     50.21557  0.047552623  0.054790615            2 
   89000    1.2398969    -5.343508    50.774704  0.047541858  0.054807049            4 
   90000    1.2519389   -5.3424543    51.541505  0.047723615   0.05482035            2 
   91000    1.2657345    -5.311393    52.343106  0.047933247  0.054825355            1 
   92000    1.2126235   -5.2846787    53.460698  0.048424545  0.054844754            2 
   93000    1.2467878   -5.3078705    53.813364   0.04821986  0.054882682            2 
   94000    1.2059563   -5.2820805    54.602128  0.048406141  0.054917642            2 
   95000    1.2553546   -5.3458141    55.104519  0.048337297  0.054939281            1 
   96000    1.2490444   -5.3437961     55.58456  0.048250486  0.054955799            2 
   97000    1.2351684   -5.3117591    56.533076  0.048567935  0.054972188            2 
   98000    1.2865788   -5.3485925    56.766153  0.048270538  0.054982004            4 
   99000    1.2186248   -5.3229404    57.268877  0.048206125  0.054983369            1 
  100000    1.2092996   -5.2955239    57.961387  0.048301156  0.054971566            2 
  101000    1.2308748   -5.3077429    58.669517  0.048407192  0.054962978            2 
  102000    1.2398091   -5.3694916    59.354987  0.048492636  0.054965997            2 
  103000    1.2412101   -5.3203239     60.55197  0.048990267  0.054980527            3 
  104000    1.2240298    -5.289881    61.028876  0.048901343  0.054997907            3 
  105000    1.2097386    -5.277206    61.646469  0.048925769     0.055013            1 
  106000    1.1947562   -5.2781033    62.378462  0.049039671  0.055020918            5 
  107000    1.2461203   -5.2928505    62.846218  0.048945652  0.055013931            2 
  108000    1.2426238   -5.3486586    63.405734  0.048924178  0.055016171            3 
  109000    1.2296359   -5.3127808     64.48787  0.049302652  0.055030312            1 
  110000    1.2206352   -5.2898702    65.193028  0.049388657  0.055042881            4 
  111000    1.2592763   -5.3062145    65.686518  0.049314202  0.055052232            2 
  112000    1.2197728   -5.3671362     66.26415  0.049303683  0.055058477            3 
  113000    1.2403465   -5.3799493    66.718493  0.049202428  0.055061916            1 
  114000    1.1884467   -5.3695979    66.916887  0.048915853  0.055051772            2 
  115000    1.2186473   -5.3149634    67.716452  0.049069893   0.05503368            2 
  116000    1.2352656   -5.3255522    68.251479  0.049031235  0.055016399            4 
  117000    1.2434397    -5.299855    69.384065   0.04941885  0.054997143            3 
  118000    1.2374894   -5.3505401     69.96306   0.04940894  0.054985735            2 
  119000    1.2253428   -5.3654722    70.474101  0.049351611  0.054976715            2 
  120000     1.207673    -5.333242    70.972924  0.049286753  0.054964252            3 
  121000    1.2246759   -5.2982161    71.971758  0.049567327  0.054952042            2 
  122000     1.228642   -5.3264428    72.183703  0.049305808  0.054934536            1 
  123000    1.2136284   -5.3321363     73.12485  0.049542581  0.054919939            2 
  124000    1.2154923    -5.373211    73.539805  0.049421912  0.054910225            2 
  125000    1.2146063   -5.3320758     74.34814  0.049565426  0.054895639            3 
  126000    1.2322031   -5.3473736    74.770238  0.049451215  0.054878757            2 
  127000    1.2080144   -5.3306209    75.286036  0.049400286  0.054858238            1 
  128000    1.2325113   -5.3065977    75.694337  0.049280167  0.054825761            2 
  129000    1.2450792   -5.3378436     76.36651  0.049332371  0.054794687            2 
  130000    1.2076438   -5.3565268    76.733593  0.049188201  0.054762644            3 
  131000    1.2583046   -5.3615296    77.119227  0.049058032  0.054731364            1 
  132000    1.2337585    -5.364483    78.069993  0.049286612  0.054694598            2 
  133000    1.2406428   -5.2686401    78.864606  0.049413913  0.054658363            4 
  134000    1.2262439   -5.3071621    79.657139  0.049538021  0.054630675            2 
  135000     1.239557   -5.3626667    79.830793  0.049278267  0.054598469            4 
  136000    1.2227435   -5.3590288    80.383331  0.049254492  0.054570199            3 
  137000    1.2428394   -5.3219907    81.037552  0.049292915  0.054539245            3 
  138000    1.2235541    -5.364962    81.635496  0.049296797  0.054507467            3 
  139000    1.1968103   -5.3269537    82.606436  0.049524242  0.054475961            4 
  140000    1.2276218   -5.3107427    83.529991  0.049720233  0.054451938            2 
  141000    1.2282025   -5.3069084    83.935866  0.049607485  0.054427588            2 
  142000    1.2471971   -5.3579646    84.059098  0.049330456  0.054408346            2 
  143000    1.2229167   -5.3637386    84.901499  0.049476398  0.054381018            2 
  144000     1.210875   -5.3355567    85.667512  0.049576107  0.054359167            4 
  145000    1.2433415   -5.3212847    86.816572  0.049894582  0.054347682            2 
  146000    1.2369973   -5.3320914    87.544676  0.049968422  0.054331879            2 
  147000    1.2425879   -5.3349753    87.671841   0.04970059  0.054313104            2 
  148000    1.2312395   -5.3624323    88.017016   0.04955913  0.054291287            2 
  149000    1.2380297   -5.3261195    88.720114   0.04961975  0.054268371            2 
  150000    1.2226895   -5.3654608    88.818401  0.049343556  0.054235778            5 
  151000    1.2095823   -5.3383912    89.753317  0.049532735  0.054202479            6 
  152000    1.2452714   -5.3506102     89.60824  0.049127324  0.054165816            2 
  153000    1.2148158   -5.3402209    90.647731  0.049372403  0.054131127            1 
  154000    1.2248497   -5.3384453    91.187928  0.049344117  0.054096792            3 
  155000    1.2296566   -5.3563755    91.292064  0.049081755  0.054054954            4 
  156000    1.2388416   -5.3490318    91.950678  0.049118952  0.054015925            2 
  157000     1.222503   -5.3996574    92.891136  0.049305274  0.053975802            2 
  158000    1.2082267   -5.3437228    93.550701  0.049341087  0.053936379            1 
  159000    1.2251394    -5.361083    94.336982  0.049442862   0.05390053            2 
  160000    1.2048392   -5.3117254    95.179339  0.049572572  0.053870807            2 
  161000    1.2534449   -5.3862917    95.501936  0.049431643   0.05383923            1 
  162000    1.2597879    -5.331823    96.265379  0.049519228  0.053806331            2 
  163000    1.2274411   -5.3603792    96.983368  0.049582499  0.053780535            2 
  164000    1.2082879   -5.3571479    97.876327  0.049733906  0.053760313            2 
  165000    1.2142985   -5.3617163    98.705529  0.049851277  0.053744841            1 
  166000    1.2085106   -5.3423512    99.565011  0.049982435  0.053732549            4 
  167000    1.2286295   -5.3694618    100.01622  0.049908293  0.053723432            3 
  168000    1.2412758   -5.3223424    101.07429  0.050136056  0.053713689            3 
  169000    1.2369311   -5.3481956    101.07503  0.049839757  0.053702245            3 
  170000     1.227869   -5.3427706    102.10222  0.050050106  0.053690625            2 
  171000    1.2290134   -5.3440715    102.65828  0.050028399  0.053677022            2 
  172000    1.2201843   -5.3661879      103.154  0.049977712  0.053658684            4 
  173000    1.1971967   -5.3256334    103.63372  0.049919905  0.053641875            6 
  174000     1.206929   -5.2893602    104.63377   0.05011196    0.0536292            2 
  175000    1.2452075   -5.3565676    105.00381  0.050001815  0.053615843            2 
  176000    1.2258875   -5.3118202    106.29013  0.050326766  0.053606203            2 
  177000    1.2125923   -5.3646787    106.40359   0.05009585  0.053598956            2 
  178000    1.2307456   -5.2756841    107.25149  0.050211371  0.053590048            2 
  179000     1.198395   -5.3423944    107.51628  0.050054133  0.053580315            2 
  180000    1.2115324   -5.3266502    108.72565  0.050335951  0.053570588            6 
  181000    1.2239738   -5.3572482    108.45899  0.049935078  0.053564199            3 
  182000    1.2125583   -5.3883105    108.99062  0.049904128   0.05354818            3 
  183000    1.2234234   -5.3464129    110.15396  0.050161182  0.053533729            1 
  184000    1.2180343   -5.3171024    110.77041  0.050167756  0.053520635            1 
  185000    1.2498361   -5.3287178    111.40111  0.050180681  0.053508377            3 
  186000    1.2216576   -5.3660921    111.71408  0.050051112  0.053495097            3 
  187000    1.2172932   -5.3691276    111.81393  0.049827953  0.053477816            2 
  188000    1.2112206   -5.3132495    112.76616  0.049984999  0.053458363            1 
  189000    1.2470993   -5.3376902    112.83905  0.049752667   0.05343527            3 
  190000    1.2255233   -5.3795459     113.7866  0.049906403  0.053411341            2 
  191000    1.2083999   -5.3723061    114.29163  0.049865458  0.053386512            5 
  192000    1.2313083   -5.3249847    114.93497  0.049884969  0.053363148            1 
  193000    1.2097835   -5.3210185    115.80578  0.050002497  0.053348337            3 
  194000    1.2155822    -5.365511    116.69383  0.050126213  0.053334867            2 
  195000    1.2312544   -5.3693468    117.24974  0.050106727  0.053322886            2 
  196000    1.2334975   -5.3716956    117.59112  0.049996225   0.05330915            4 
  197000    1.2176472   -5.3377632    118.66996    0.0501988  0.053294853            4 
  198000    1.2200128   -5.3366244    119.45817  0.050277008  0.053280016            2 
  199000    1.2249532   -5.3756807    119.74478  0.050144381  0.053271765            4 
  200000    1.1989619    -5.348211    120.54584  0.050227434   0.05326201            3 
  201000     1.234902    -5.330872    121.36041  0.050315259  0.053253422            2 
  202000    1.2247601   -5.3278963    121.91977  0.050296935  0.053244462            1 
  203000    1.2387001    -5.394373    122.36497  0.050231926  0.053236074            3 
  204000    1.2226453   -5.3515755    123.90727  0.050615715  0.053230997            2 
  205000    1.2033157   -5.3568991    123.76398   0.05031056  0.053226475            1 
  206000    1.2184207   -5.3915931    123.98231  0.050154657  0.053221802            4 
  207000     1.196535   -5.3916212     125.1029  0.050363487  0.053219067            2 
  208000    1.2214548   -5.3337641    126.42116  0.050649503  0.053215065            5 
  209000    1.2051337   -5.3555769    127.02707  0.050648752  0.053215658            2 
  210000    1.2174094   -5.3292751    128.00652  0.050796236  0.053219069            3 
  211000     1.257645   -5.3878233    128.13493  0.050606214   0.05321992            3 
  212000    1.1868944   -5.3906734    128.66052  0.050574102  0.053219083            3 
  213000     1.206062   -5.3431517    129.11396  0.050514068    0.0532157            2 
  214000    1.2188549   -5.3569203    129.82386  0.050554462  0.053211822            1 
  215000    1.2273138    -5.372784    130.27528  0.050494296  0.053209407            1 
  216000    1.2258928   -5.3246482     131.6544  0.050792592   0.05320672            2 
  217000    1.2110616   -5.3549452    132.19057  0.050764429  0.053210159            2 
  218000    1.2071801   -5.3740847    132.12893     0.050508   0.05320679            2 
  219000    1.1918181   -5.3442992    133.30879  0.050726328  0.053206386            3 
  220000    1.2164538   -5.3433671     133.9046  0.050721439  0.053205244            2 
  221000    1.1975097   -5.3742473    134.37234  0.050668303  0.053207253            2 
  222000    1.2171217   -5.3546868    135.18644  0.050745662  0.053206569            2 
  223000    1.2199322   -5.3604468    136.43669  0.050985308  0.053205834            2 
  224000     1.232932   -5.3713355    136.03127   0.05060687  0.053206645            3 
  225000    1.2168434   -5.3673801     136.5532  0.050575259  0.053204198            2 
  226000    1.2447672   -5.3940828    137.47931  0.050692959  0.053200219            2 
  227000    1.2351947   -5.3583637     137.6533  0.050533516  0.053193999            3 
  228000    1.2210123   -5.3600488    138.65185  0.050676844  0.053187619            3 
  229000    1.2221402   -5.3713318    138.50417  0.050401807  0.053180985            2 
  230000    1.1883364    -5.393015    139.02276  0.050370566  0.053175295            2 
  231000    1.2101883   -5.3619325    140.64204  0.050736667  0.053169233            4 
  232000    1.2251436   -5.3797823    140.67918  0.050531316  0.053164312            6 
  233000    1.2192382   -5.3674114    141.57744  0.050635709  0.053158926            1 
  234000    1.1998997   -5.3703689    142.33299  0.050688388  0.053152236            3 
  235000    1.2200155   -5.3785551    142.58096  0.050560625  0.053145131            2 
  236000    1.2403431   -5.3799992    143.41787  0.050641902  0.053140047            5 
  237000    1.2271111   -5.3734149    144.26729  0.050726896   0.05313581            3 
  238000    1.2157758   -5.3717419    145.13213  0.050816573  0.053129602            1 
  239000    1.2241269   -5.3418954    145.62484  0.050775747  0.053125875            5 
  240000    1.2062412   -5.3606175    146.34332  0.050813653  0.053122501            1 
  241000    1.2171379   -5.3638065    146.98013  0.050823004  0.053120218            3 
  242000    1.2154521   -5.3856854    147.34155  0.050737449  0.053118218            3 
  243000    1.2216428   -5.3710128    147.72479  0.050660079  0.053114834            6 
  244000    1.1934982    -5.397678    148.54969  0.050734184  0.053110809            2 
  245000    1.2208647   -5.3455748    149.18814  0.050744265  0.053103536            2 
  246000    1.1993542   -5.3570275    149.58633  0.050672874  0.053093724            2 
  247000    1.2029684   -5.3790582    149.57627   0.05046433  0.053082562            3 
  248000    1.2443129   -5.3847082    149.70855  0.050305293  0.053068961            3 
  249000    1.1991462   -5.3465227    150.81422  0.050473299  0.053054507            5 
  250000    1.1618196   -5.3814882    150.67144  0.050223815   0.05303773            1 
  251000    1.1846362   -5.3629374    151.16195   0.05018657  0.053022046            2 
  252000    1.2195754   -5.3267699     152.9664  0.050584126  0.053007215            3 
  253000     1.217203   -5.4196865    151.95703  0.050051723  0.052990785            2 
  254000    1.2215605   -5.3315708    153.95623  0.050510575  0.052973737            3 
  255000    1.2288935   -5.3769851    153.70163  0.050229291  0.052958201            1 
  256000    1.2158089   -5.3828646    154.21663  0.050200726  0.052942079            5 
  257000    1.2287365   -5.3907346    155.20982  0.050327437  0.052927119            2 
  258000    1.2239369   -5.4036976     155.6355  0.050269864  0.052914821            4 
  259000    1.2236476   -5.3196264    156.89897  0.050482294  0.052898866            3 
  260000    1.2207621   -5.3346493    157.54696   0.05049582  0.052885856            3 
  261000    1.2519464   -5.3781807    158.42552   0.05058286  0.052871926            1 
  262000    1.2078953   -5.3852661    158.39827  0.050381128  0.052859014            3 
  263000    1.2311961   -5.3365795    159.20893  0.050446428  0.052845712            5 
  264000    1.2205124   -5.3613641    159.16095  0.050240199  0.052834134            2 
  265000     1.231823   -5.3959271    159.84551  0.050265885  0.052820141            5 
  266000    1.1915525    -5.376427    160.70335  0.050345661  0.052806681            1 
  267000    1.1986805   -5.3781821    161.66511  0.050457277  0.052793755            3 
  268000    1.2307187   -5.3489721    161.86921  0.050332467  0.052781169            5 
  269000    1.2316479   -5.4059529    161.52401  0.050038417  0.052768521            2 
  270000    1.2296111   -5.3953844    162.94797  0.050292585  0.052751205            3 
  271000    1.2174521    -5.371869    163.07053  0.050144688  0.052731273            2 
  272000    1.2238491   -5.3723431    164.51978  0.050404344  0.052712932            3 
  273000    1.2077511   -5.4056422    164.01505  0.050065644  0.052695798            3 
  274000    1.2216721   -5.3773647    165.29915  0.050273465  0.052679768            2 
  275000     1.216741   -5.3967415    165.18908  0.050057296  0.052662433            2 
  276000    1.2103027   -5.3870916    166.03291  0.050130708  0.052646809            3 
  277000    1.2074639   -5.3648066     165.9686  0.049930386  0.052629565            1 
  278000    1.2296174   -5.3768843    167.60086  0.050240065  0.052611016            4 
  279000    1.2175395   -5.4033062    168.11023  0.050212137  0.052593942            3 
  280000    1.1979251   -5.3923681    168.24275  0.050072247   0.05257688            1 
  281000    1.2273898   -5.3798313    169.02188  0.050125111  0.052559606            3 
  282000    1.1946436   -5.4033792    168.67624  0.049845226  0.052541629            3 
  283000    1.2110989   -5.4025053    169.63178  0.049950465  0.052525963            3 
  284000    1.1977047   -5.4209236    170.38343  0.049995137   0.05250872            2 
  285000    1.2139949   -5.3798571    170.35905  0.049812588  0.052487621            3 
  286000    1.2208557   -5.3544462    171.90721  0.050089513  0.052466659            1 
  287000    1.1844864   -5.3810512    172.19908  0.049999733  0.052448475            2 
  288000    1.1767929   -5.3691417    172.54474  0.049926141  0.052429337            1 
  289000    1.2166809   -5.3717073    173.26598  0.049961354  0.052409941            3 
  290000    1.1984092    -5.362227    173.91255  0.049974871   0.05238964            1 
  291000    1.2221445   -5.3806293      173.992  0.049825886   0.05237059            2 
  292000    1.2033005   -5.4020429    174.73404   0.04986702  0.052352418            1 
  293000    1.2113258   -5.3859792    175.73178  0.049980596  0.052333423            3 
  294000    1.1851206   -5.4075222    175.58567   0.04976918  0.052314362            3 
  295000     1.183272   -5.4626402     176.3937  0.049828729  0.052297224            4 
  296000    1.2155954   -5.3993007    176.88614  0.049799025  0.052277876            1 
  297000    1.2194815   -5.3918667    177.87449  0.049908667  0.052258221            2 
  298000    1.2139378   -5.3841021    177.94219   0.04976012  0.052238632            3 
  299000    1.2136364   -5.4023127     178.5731  0.049769538  0.052215909            3 
  300000    1.2319689   -5.3697257    179.46038  0.049850104  0.052195321            2 
  301000    1.2294437   -5.4140985     178.8923  0.049527214  0.052172167            1 
  302000    1.1996755   -5.3685946    180.60383  0.049835493  0.052147771            3 
  303000    1.1769436   -5.3897482    179.91798  0.049482392  0.052126793            3 
  304000    1.1905954    -5.352202    182.13009  0.049926011  0.052106451            3 
  305000    1.2143581   -5.4055472     182.0272  0.049734208  0.052086547            3 
  306000    1.1709378   -5.4273252    182.02521  0.049571135  0.052066501            7 
  307000    1.1806644   -5.3818868    183.58097  0.049831968  0.052047169            2 
  308000    1.1936647   -5.4121528    183.83282  0.049738318  0.052028855            4 
  309000    1.2025258   -5.4049816    184.17945  0.049670833  0.052010638            2 
  310000    1.1931963   -5.3952176    185.29799  0.049811288  0.051993065            1 
  311000    1.1773146   -5.3794099     185.8067  0.049787433  0.051974951            3 
  312000    1.2103175   -5.4140959    186.61117  0.049842727  0.051958469            2 
  313000    1.2074394   -5.3762991    187.98845  0.050050174  0.051942902            3 
  314000    1.2126341   -5.4095902    187.78169  0.049835904  0.051926613            3 
  315000    1.1805582   -5.4229857    188.57228  0.049886846  0.051910576            3 
  316000    1.2218949   -5.4089744     188.0218  0.049583808  0.051894772            3 
  317000     1.194584   -5.3914227    190.41012  0.050055237  0.051879306            2 
  318000    1.1987288   -5.3850952    190.69193   0.04997168  0.051864602            2 
  319000     1.207388   -5.4122762    190.35638  0.049727371  0.051848631            1 
  320000    1.1857461   -5.3995217     191.3829  0.049839298  0.051832525            3 
  321000    1.2008639    -5.402849     191.9848   0.04984029  0.051814664            3 
  322000    1.2062056   -5.3959196    192.21458  0.049744973  0.051798521            3 
  323000    1.2139437   -5.4355871     192.8084  0.049744168  0.051782256            3 
  324000      1.17697   -5.3797235    193.87925  0.049866061   0.05176663            3 
  325000    1.2006772   -5.4186671    193.59665  0.049640166  0.051752424            9 
  326000    1.2206299    -5.379683    195.11425  0.049875832  0.051738694            2 
  327000    1.1943204    -5.395251     195.5829  0.049842737   0.05172625            2 
  328000    1.2119058    -5.426974    196.18327   0.04984331  0.051713828            2 
  329000    1.2333583   -5.3876991    197.67008   0.05006841  0.051701711            3 
  330000    1.1947554   -5.3985234    197.21539  0.049801867  0.051689541            4 
  331000    1.1928482   -5.4063241    198.15387  0.049887682  0.051677315            2 
  332000    1.2054134    -5.396895    198.36045  0.049789271  0.051666393            3 
  333000    1.2118662   -5.4110898    199.50825   0.04992699  0.051656907            2 
  334000    1.2188001   -5.3774652    199.63787  0.049809847  0.051645112            3 
  335000     1.216731   -5.3981159    200.69767  0.049924794  0.051634523            4 
  336000    1.2069984   -5.3969668    200.86667  0.049818122  0.051622233            3 
  337000    1.2015544   -5.4035091    201.95907  0.049940422  0.051609946            1 
  338000    1.1713977   -5.4060558    201.86243  0.049768844  0.051596104            5 
  339000    1.1996609   -5.4127127    202.81276  0.049855644  0.051582817            2 
  340000    1.2188344   -5.3876199    203.74752  0.049938117  0.051571341            2 
  341000    1.2137366   -5.4334686    204.21799  0.049906643  0.051562459            3 
  342000    1.2101638   -5.4174512    205.14544  0.049986706  0.051552732            2 
  343000     1.194992   -5.3937281    205.29187  0.049876547  0.051542142            7 
  344000    1.1879088   -5.3950502    206.45591  0.050013545  0.051533468            5 
  345000    1.2175501   -5.4454471    205.66498  0.049677532  0.051523166            4 
  346000    1.2083398   -5.4190945    206.49884  0.049734788  0.051511148            3 
  347000    1.2311459   -5.3741935    209.65358  0.050349082  0.051502117            2 
  348000    1.2176557   -5.4148376    209.25822  0.050109728  0.051493634            1 
  349000    1.2157116   -5.4047667    209.77348  0.050089178  0.051484622            3 
  350000     1.197625   -5.3895418    210.36344  0.050086534  0.051476534            2 
  351000    1.1905624   -5.4059976    210.81464  0.050050958  0.051468312            1 
  352000    1.1772927   -5.4642116    211.23491  0.050008264   0.05146136            4 
  353000    1.1743744   -5.4114846     212.5069  0.050166879  0.051453811            2 
  354000    1.1989698   -5.4216085    212.48307  0.050019555  0.051446021            2 
  355000    1.1939632   -5.4099525    212.84267  0.049963068  0.051439887            2 
  356000    1.2059652   -5.4009586    213.80179  0.050047236  0.051432492            4 
  357000    1.1910399   -5.4377583    214.14933  0.049988172  0.051425193            3 
  358000    1.1938147   -5.4380978    214.42001  0.049911548  0.051417794            2 
  359000     1.185259    -5.416493    214.76965  0.049853679  0.051409169            2 
  360000    1.1938757    -5.441402    215.57962  0.049902689  0.051400556            5 
  361000    1.1951371   -5.3817951    217.23571  0.050146747  0.051391032            2 
  362000    1.1807514   -5.3939924    217.06251   0.04996835  0.051383346            1 
  363000    1.1869395   -5.4263699    217.17611  0.049856774   0.05137397            4 
  364000    1.1791616    -5.413308    217.00914  0.049681579  0.051364513            4 
  365000    1.2047124   -5.4221698    218.67669  0.049926184  0.051356171            2 
  366000     1.183684   -5.4471221     218.4932  0.049747996  0.051345686            4 
  367000     1.189394   -5.4287703    219.84107    0.0499185   0.05133647            4 
  368000    1.1953427   -5.4230237    220.29486  0.049885611  0.051326519            2 
  369000    1.2161293   -5.3908332    221.56917  0.050038204  0.051318089            2 
  370000    1.1941788   -5.3922063    221.13369  0.049804884  0.051310255            1 
  371000    1.1832643   -5.4236318     222.1213  0.049892475  0.051302455            4 
  372000    1.1951563   -5.3812838    222.54461  0.049853183  0.051295236            2 
  373000    1.1837037   -5.4375329    222.85934  0.049789843  0.051286883            2 
  374000    1.1659028    -5.399615    224.99587  0.050132769   0.05127965            3 
  375000    1.1783655   -5.4223997    224.59934  0.049910965  0.051271479            1 
  376000    1.2038991   -5.4191334    225.05024  0.049878156  0.051264272            4 
  377000    1.2031339   -5.4033743     226.2641  0.050014169  0.051258556            2 
  378000    1.1795322   -5.4210342    226.14495  0.049855588  0.051251803            1 
  379000    1.1857702   -5.4296171     227.0739  0.049928298  0.051243721            4 
  380000     1.200167   -5.3979569    227.54317  0.049899817  0.051232752            2 
  381000    1.1827292   -5.4090805    228.39996  0.049956246  0.051223508            2 
  382000    1.2002144   -5.4499371    227.71597   0.04967626  0.051213607            2 
  383000    1.1901516   -5.4059484    229.12586  0.049853321    0.0512039            3 
  384000    1.1744966   -5.4009466    229.41385  0.049785991  0.051193666            2 
  385000    1.1907431   -5.4398823    229.45871  0.049666387  0.051183051            2 
  386000    1.1985023   -5.4009688    230.44725  0.049751133  0.051173439            4 
  387000     1.182707   -5.4276879    230.71302  0.049679806  0.051162656            7 
  388000    1.1776434   -5.4223193    231.50708  0.049722311  0.051152081            1 
  389000    1.1963677    -5.395835    232.97459  0.049908866  0.051143669            2 
  390000    1.1955927   -5.3989216    231.74938  0.049519098  0.051134758            2 
  391000     1.207511   -5.4130412    233.26252  0.049714944  0.051125523            1 
  392000      1.18121   -5.4143666     234.2459  0.049797173  0.051117407            2 
  393000    1.1826338   -5.4108914    234.77021  0.049781639  0.051108164            2 
  394000    1.1568862   -5.4274921    235.07443  0.049719635  0.051099495            2 
  395000     1.191454    -5.415714     235.0589  0.049590484  0.051090889            2 
  396000    1.2160838   -5.4361876    236.33609  0.049734026  0.051079262            4 
  397000    1.1503114   -5.4072902    236.12676  0.049564812  0.051067476            1 
  398000     1.197163    -5.401197    236.55219  0.049529352  0.051055077            2 
  399000    1.1950566   -5.4181189    236.83711  0.049464727  0.051042211            4 
  400000    1.1895429   -5.4336915    238.22198  0.049629579   0.05102978            2 
  401000    1.1717929   -5.4238179    237.46806   0.04934914  0.051017033            3 
  402000    1.1795157   -5.4669946    237.95825  0.049327995  0.051003659            2 
  403000    1.1829219   -5.3937266    239.83633  0.049593946  0.050991566            2 
  404000    1.1787643   -5.4152368    240.26974  0.049560589  0.050980222            2 
  405000    1.1802152    -5.420785    241.15271    0.0496199  0.050969731            3 
  406000    1.2002453   -5.4155337     242.8772  0.049851641   0.05095886            2 
  407000    1.1895591   -5.4334733    242.61221    0.0496749  0.050949178            2 
  408000    1.1628146   -5.4416057    244.05723   0.04984829  0.050940669            4 
  409000    1.2212765   -5.4342139    244.01102  0.049716997  0.050933147            3 
  410000    1.1575939   -5.4096557    244.76573  0.049749133  0.050926295            2 
  411000    1.1848465   -5.4448331    245.82197  0.049842248  0.050917719            1 
  412000     1.170235   -5.3808834    246.12281  0.049782121  0.050909971            9 
  413000    1.1742025   -5.4143264    245.75466  0.049587301  0.050901315            1 
  414000    1.1685552   -5.4322042    247.18306  0.049755044  0.050892537            4 
  415000    1.1785789   -5.4066863    247.94053  0.049787254   0.05088488            2 
  416000    1.2206456   -5.3735017    248.70867  0.049821449  0.050876205            2 
  417000     1.196342   -5.3993935    248.60806  0.049681866  0.050869398            4 
  418000     1.190534   -5.4283271       248.83  0.049607257  0.050859272            3 
  419000    1.1828024   -5.4778934    248.02383  0.049328525  0.050848578            3 
  420000    1.1857698   -5.4082053    250.55317  0.049712931  0.050839094            3 
  421000    1.2120623   -5.4332946     251.0197  0.049687194  0.050829814            3 
  422000     1.183571   -5.4788139    251.45511  0.049655433  0.050821542            4 
  423000    1.1943768   -5.4766839     251.8852  0.049622774  0.050814461            1 
  424000    1.1717069    -5.460928    252.35804  0.049598672  0.050807291            4 
  425000    1.1439558   -5.4565041    253.87814  0.049780028  0.050800635            3 
  426000    1.1841793   -5.4560696    254.01855   0.04969064  0.050794625            4 
  427000    1.1938721   -5.4267599    254.97287  0.049760513  0.050788951            5 
  428000    1.1840136   -5.4598487    256.26209  0.049895266  0.050782839            4 
  429000    1.1936153   -5.4829098    255.69477  0.049668759  0.050776361            5 
  430000    1.2049096   -5.4194998    256.75603   0.04975892   0.05077024            5 
  431000    1.1781181   -5.4428596    257.05694  0.049701651  0.050764431            2 
  432000    1.1711406    -5.421116    257.67243  0.049705329  0.050759185            2 
  433000    1.1726997     -5.39147    259.56723  0.049955201  0.050755675            2 
  434000    1.1792749   -5.4031335    260.89223  0.050094514  0.050751512            3 
  435000    1.1956131   -5.4076038    260.59969  0.049923313  0.050747484            3 
  436000     1.186819   -5.4481629    260.55541  0.049800346   0.05074293            4 
  437000     1.182251   -5.4233708    260.99932  0.049771038  0.050737006            3 
  438000    1.1587899   -5.4462939     261.1282  0.049681926  0.050730225            3 
  439000    1.1769114   -5.4397787     261.6233  0.049662737   0.05072383            3 
  440000    1.1681097   -5.4366115    262.32561   0.04968288  0.050717543            3 
  441000     1.174484   -5.4513276    262.11855  0.049531095  0.050711743            3 
  442000    1.1575119   -5.4427857    263.04059  0.049592871  0.050705992            2 
  443000    1.2025037   -5.4442575    264.27308  0.049712768  0.050699938            2 
  444000    1.1819324   -5.4301587    263.23556  0.049406074  0.050693062            2 
  445000    1.1960729   -5.4735102    263.26548  0.049300651  0.050683897            3 
  446000    1.1753305   -5.4459961    265.27141  0.049564911  0.050675389            3 
  447000    1.2379578   -5.4559487    265.51454  0.049499355  0.050667692            3 
  448000    1.2134785   -5.4654318     265.5945  0.049403739  0.050658918            5 
  449000    1.1904672   -5.4085012    267.76857   0.04969721  0.050651042            2 
  450000     1.180217   -5.4221884    268.19017  0.049664847  0.050643593            4 
  451000    1.2053285   -5.4117592    268.65786  0.049641141  0.050637284            3 
  452000    1.1952429   -5.4294185    269.15607  0.049623169  0.050630648            2 
  453000    1.1729758   -5.4133619    268.92004  0.049470206  0.050622715            3 
  454000    1.1810229   -5.4302548    268.39563  0.049264983  0.050614447            4 
  455000    1.1741948   -5.4365861    270.23796  0.049494133  0.050606112            4 
  456000    1.1649949   -5.4559868    269.78755  0.049303281  0.050596852            1 
  457000    1.1607439   -5.4297402    271.54279  0.049515461  0.050587631            2 
  458000    1.1524155    -5.458452    271.11925  0.049330285  0.050577761            2 
  459000    1.1547007   -5.4306648    271.87559  0.049360128  0.050568589            2 
  460000    1.1904421   -5.4570804    273.12405  0.049478994  0.050559022            2 
  461000    1.1898056   -5.4467687    272.74884  0.049303839  0.050550298            4 
  462000    1.1715992   -5.4053144    274.78479  0.049564355  0.050542093            1 
  463000    1.1698286   -5.4107442    275.23673  0.049538649  0.050534532            2 
  464000    1.1681962   -5.4367215    275.16478  0.049418962  0.050526756            1 
  465000    1.1756793   -5.3923919    277.15943  0.049670149  0.050518971            4 
  466000     1.214091   -5.4662517    275.72018  0.049306183  0.050512505            3 
  467000    1.1987232   -5.4521753    276.94372  0.049418936  0.050505395            3 
  468000    1.1814774   -5.4323564    278.67335  0.049621324  0.050498637            5 
  469000    1.1855358   -5.4506162    278.41283   0.04946923  0.050491731            2 
  470000    1.1740241   -5.4409508    279.43819  0.049545778  0.050485095            3 
  471000    1.1882354    -5.470234    279.74744  0.049495301  0.050478618            1 
  472000    1.1591611   -5.4374448    281.67512  0.049730777  0.050473261            1 
  473000    1.1829929   -5.4531303    281.12392  0.049528527  0.050468052            2 
  474000    1.1686296   -5.4401064    281.70465  0.049526134  0.050461897            1 
  475000    1.1636551   -5.4733344     282.4258  0.049548386  0.050456436            2 
  476000    1.1776553   -5.4719534    282.67684  0.049488243   0.05045025            1 
  477000    1.1653776   -5.4531334    282.69604  0.049387848  0.050443477            8 
  478000    1.1696874   -5.4797978    282.58505  0.049265176  0.050437086            2 
  479000    1.1580907    -5.444045    283.00936  0.049236145  0.050428609            2 
  480000    1.2016051   -5.4368894    285.15683  0.049506394  0.050420806            1 
  481000    1.1874335   -5.4345693    284.46235  0.049283151  0.050413416            1 
  482000    1.1624586   -5.4719332    285.39459  0.049342081  0.050405295            4 
  483000    1.1788245   -5.4183512    285.88812  0.049325073  0.050397394            2 
  484000     1.183969   -5.4694575    286.70644  0.049364056  0.050389569            3 
  485000    1.1518927   -5.4742347    288.35073  0.049544798  0.050382042            6 
  486000    1.1547618   -5.4296126    288.24888  0.049425391  0.050373631            5 
  487000    1.2027148   -5.4327295     287.7231  0.049233932  0.050366272            4 
  488000    1.1728248   -5.4261418     290.0631  0.049532633  0.050358787            6 
  489000    1.1776889   -5.4477674    289.19627  0.049283618  0.050351663            4 
  490000    1.1681514   -5.4471646    290.10742  0.049337997  0.050343359            3 
  491000    1.1889144   -5.4897202    290.21193   0.04925525  0.050335619            5 
  492000    1.1705287   -5.4678663     291.1462   0.04931338  0.050327832            2 
  493000    1.1841351   -5.4571819     291.6812  0.049303787  0.050318602            4 
  494000    1.1632901   -5.4426997    291.17347  0.049118332  0.050308439            3 
  495000    1.1776574    -5.468818    291.16895  0.049018343  0.050298034            1 
  496000    1.1800362   -5.4568573    292.24705  0.049100647  0.050287511            2 
  497000    1.1949133   -5.4362529    292.92184  0.049114997  0.050277621            3 
  498000     1.176394   -5.4347987    294.51725  0.049283341  0.050268811            5 
  499000    1.1707647   -5.4724166    294.44398  0.049172342  0.050258553            2 
  500000    1.1624678   -5.4376205    295.38452  0.049230753  0.050248983            3 
  501000    1.1779221   -5.4472457    294.09421  0.048917866  0.050239243            3 
  502000     1.158355   -5.4680629     295.7034  0.049087549  0.050229241            2 
  503000     1.173813   -5.4515727    295.23802  0.048912859  0.050218364            2 
  504000    1.1671062   -5.4752593    296.47109   0.04901969  0.050207901            2 
  505000    1.1851262   -5.4487845    296.84921  0.048985019  0.050198653            2 
  506000    1.1734065   -5.5135995     297.9881  0.049075774  0.050189142            2 
  507000    1.1525916   -5.4539338    298.49792  0.049062774  0.050180637            2 
  508000    1.1944327   -5.4301836     298.3676  0.048944816  0.050170885            2 
  509000    1.1852718   -5.4371686    299.55874   0.04904367   0.05016171            4 
  510000    1.1576575   -5.4806418    298.76427  0.048817691  0.050152776            2 
  511000    1.1518256   -5.4359092    301.91472   0.04923593  0.050143635            2 
  512000    1.1775025   -5.4947239    300.09772  0.048844031  0.050133621            3 
  513000    1.1690163   -5.4680979    302.53729  0.049145109  0.050123915            2 
  514000    1.1598463   -5.4372813    303.49078  0.049204082  0.050114793            2 
  515000    1.1765074   -5.4455784    303.58005  0.049122986  0.050106202            3 
  516000    1.1666322   -5.4641142    304.06961  0.049106849  0.050097539            3 
  517000    1.1731141   -5.4290534     305.9572  0.049316119  0.050089266            5 
  518000    1.1648165   -5.4585982    305.51925  0.049150459  0.050082513            1 
  519000    1.1928128   -5.4484032    306.95982  0.049287061  0.050076061            2 
  520000    1.1777155   -5.4371463    308.76205  0.049481098  0.050070529            5 
  521000    1.1831158   -5.4650233    307.84936  0.049240141   0.05006462            3 
  522000    1.1792931   -5.4417577    308.50888  0.049251098  0.050057951            4 
  523000    1.1614556   -5.4368023    309.16985  0.049262244  0.050052279            2 
  524000    1.1844846    -5.418786    310.95418     0.049452  0.050046418            2 
  525000    1.1573976   -5.5013361    309.50522  0.049127812  0.050040797            4 
  526000    1.1635695   -5.4613818     311.2514  0.049311059  0.050034645            4 
  527000     1.183747   -5.4227886    311.95618  0.049328934  0.050029097            2 
  528000    1.1718933   -5.4789077    312.08726  0.049256196  0.050024043            3 
  529000     1.154018   -5.4882767    312.10328  0.049165607  0.050017944            2 
  530000    1.1491493   -5.4676068    314.39025  0.049432429  0.050011516            3 
  531000    1.1715773   -5.5085859    312.93362  0.049110737  0.050005947            2 
  532000    1.1967257   -5.4878198    314.16543  0.049211376   0.04999885            3 
  533000    1.1654821   -5.5301969    312.64023  0.048880585  0.049991682            3 
  534000    1.1555574   -5.4339187    315.51269  0.049237311  0.049985253            1 
  535000     1.171891   -5.4692534     315.7522  0.049182585  0.049978907            2 
  536000    1.2077969   -5.4793658    316.79118  0.049252359  0.049971593            2 
  537000    1.1823543    -5.487742     316.2404  0.049075171  0.049964818            6 
  538000    1.1804779   -5.5113838    315.88739  0.048929274  0.049957043            1 
  539000    1.1648383   -5.4639887    319.16692  0.049345535  0.049950279            6 
  540000    1.1605744   -5.4688576    317.45623   0.04899016  0.049941988            1 
  541000    1.1848772   -5.4940547    317.12781  0.048849016    0.0499339            2 
  542000    1.1589245   -5.4655512    319.09589  0.049061483  0.049926412            3 
  543000    1.1838551   -5.4959537    319.16747  0.048982116  0.049919771            3 
  544000     1.171502   -5.4577102    320.10085  0.049035056  0.049912189            2 
  545000    1.1528121   -5.4790081     320.4664  0.049000979  0.049904216            3 
  546000    1.1459787   -5.4547118    321.54682  0.049076133   0.04989589            1 
  547000    1.1780156   -5.4495219    322.85835   0.04918622  0.049888122            3 
  548000    1.1597235    -5.423189    323.36039  0.049172808  0.049881191            3 
  549000    1.1834689   -5.4879173    321.14903  0.048747575  0.049873732            2 
  550000    1.1506104   -5.4700302    321.93994  0.048778778   0.04986448            2 
  551000    1.1799631   -5.4665718    324.92882   0.04914229  0.049856424            1 
  552000    1.1729618    -5.478824    324.03181  0.048917846  0.049848828            2 
  553000    1.1752037   -5.4758685    324.93927  0.048966135   0.04984119            4 
  554000    1.1695962   -5.5302294    324.34254  0.048787987  0.049833563            2 
  555000    1.1753347   -5.5009441    325.25111  0.048836503   0.04982554            2 
  556000    1.1406291   -5.4847955    327.63309   0.04910568  0.049818094            1 
  557000    1.1575224   -5.4798229     325.7632  0.048737762  0.049809568            1 
  558000    1.1400784   -5.4334444    327.42291  0.048898283  0.049800961            2 
  559000    1.1501167   -5.4672859    327.79421  0.048866161  0.049792565            2 
  560000     1.155247   -5.4520666    329.09691  0.048972755  0.049784768            2 
  561000    1.1804982   -5.4840928    328.36261  0.048776383  0.049775071            2 
  562000    1.1740956   -5.5080576     328.7332  0.048744543  0.049766065            3 
  563000    1.1530845   -5.4813097    328.85924  0.048676619   0.04975686            3 
  564000    1.1463868   -5.4837103    329.45626  0.048678526  0.049747979            7 
  565000      1.14704   -5.5203609    329.73172  0.048632997  0.049738605            3 
  566000    1.1651423    -5.490488    330.33837  0.048636391  0.049729606            4 
  567000    1.1498333   -5.4852638    331.22944  0.048681575  0.049720367            2 
  568000    1.1584978   -5.5203847    331.05759  0.048570656  0.049710282            3 
  569000    1.1559138   -5.4587755    333.10894  0.048785727  0.049700238            2 
  570000    1.1531972    -5.427618    334.81792  0.048949988  0.049691187            3 
  571000     1.168939   -5.4888888    333.27643  0.048639292   0.04968138            3 
  572000    1.1528348   -5.4867348    333.42641  0.048576108  0.049670886            2 
  573000    1.1266611   -5.5049421    333.59956  0.048516516  0.049660542            2 
  574000    1.1464402   -5.4801053    334.71009  0.048593218  0.049650257            2 
  575000     1.153596   -5.4965486    335.59176  0.048636487  0.049639479            3 
  576000    1.1624292   -5.4231463    335.82349  0.048585575   0.04962857            2 
  577000    1.1852176   -5.4863866    335.95087  0.048519767  0.049617378            6 
  578000    1.1778789   -5.4769682    336.79236  0.048557146  0.049605516            4 
  579000    1.1628679   -5.4626804    337.14331  0.048523793  0.049594209            4 
  580000    1.1593506   -5.4994866    336.44356  0.048339591  0.049582887            3 
  581000     1.144185   -5.4736634    337.70827   0.04843779  0.049571234            2 
  582000      1.15285   -5.4594483    338.10441  0.048411284  0.049560916            4 
  583000    1.1761969   -5.4688388    339.29275  0.048498106  0.049549699            2 
  584000    1.1799357   -5.4742171    340.00055   0.04851606  0.049538191            8 
  585000    1.1393428   -5.5442212    339.11124  0.048306444  0.049526704            2 
  586000    1.1769245   -5.4768668     340.9286  0.048482452  0.049514615            3 
  587000      1.14554   -5.5156512    340.19565  0.048295805  0.049503249            1 
  588000    1.1473005   -5.4961003    340.93471  0.048318411  0.049491551            4 
  589000     1.164738   -5.4668247    343.60729  0.048614501   0.04948097            2 
  590000    1.1436702   -5.4768133    343.65308  0.048538571  0.049470154            4 
  591000    1.1777302   -5.5210207    342.68181  0.048319489  0.049458897            3 
  592000    1.1511778   -5.4589299    343.67257  0.048377332  0.049447301            2 
  593000    1.1753536   -5.4765052    345.10165  0.048496578  0.049436094            2 
  594000    1.1669475   -5.5098891    344.27651  0.048299173  0.049425256            3 
  595000    1.1298444   -5.4857827    344.73069  0.048281609  0.049413687            3 
  596000    1.1517575   -5.5047375    345.71945  0.048338849    0.0494022            1 
  597000    1.1429206   -5.4921134    346.55566  0.048374604  0.049391163            3 
  598000    1.1455895   -5.5073077    345.23191   0.04810924  0.049380946            5 
  599000    1.1502882   -5.5124398    346.71282  0.048234949  0.049370607            3 
  600000    1.1376136    -5.502804    348.05317  0.048340718  0.049360491            3 
  601000    1.1390923    -5.495961    348.43002  0.048312538  0.049350846            2 
  602000    1.1383702   -5.4783175    349.17676  0.048335654  0.049340912            3 
  603000    1.1352993   -5.5110177    348.79859  0.048203233  0.049330662            2 
  604000    1.1438104   -5.5128565    349.78997  0.048260205  0.049319994            2 
  605000    1.1558438   -5.5167415     351.6675   0.04843905  0.049310221            3 
  606000    1.1638156   -5.4893311     350.0741  0.048140003  0.049300887            5 
  607000    1.1351197   -5.4932137      351.781   0.04829503   0.04929098            3 
  608000    1.1705128   -5.5118347    352.08055  0.048256654  0.049281033            2 
  609000    1.1861151    -5.450557    354.03613  0.048445009   0.04927075            3 
  610000    1.1319407   -5.4991049    354.52543  0.048432436  0.049261035            3 
  611000    1.1344737   -5.4987703    354.47091  0.048345732  0.049250464            3 
  612000    1.1456656    -5.457023    356.00419  0.048475516  0.049241122            2 
  613000    1.1328183   -5.4767109    355.25337  0.048294367  0.049231575            2 
  614000    1.1542169   -5.5132791    355.81856  0.048292422  0.049221746            5 
  615000    1.1613632   -5.5002996    354.61529  0.048050853  0.049211072            2 
  616000    1.1732476   -5.5080434    356.53185  0.048232123  0.049200901            4 
  617000    1.1723212   -5.5145572    356.24756  0.048115553   0.04919019            2 
  618000    1.1508681    -5.496891    357.84458  0.048253044  0.049179604            2 
  619000    1.1481606    -5.511728    357.68425  0.048153506  0.049169104            7 
  620000    1.1645746   -5.5180662    357.96755  0.048113918  0.049158813            3 
  621000    1.1205805   -5.4828312    358.62887  0.048125184  0.049149067            3 
  622000    1.1599937   -5.5018365     359.1171  0.048113224  0.049139203            3 
  623000     1.165079   -5.4546617    361.93188  0.048412504  0.049129693            2 
  624000    1.1657198   -5.4959058    361.80581  0.048318083  0.049119761            2 
  625000    1.1358368    -5.473607    360.90257  0.048120343  0.049109877            2 
  626000    1.1504732    -5.491761     361.8101  0.048164284  0.049099684            3 
  627000     1.129435   -5.5168093    361.49483  0.048045564  0.049089585            1 
  628000    1.1404925   -5.5085359    362.50502  0.048103107  0.049079545            5 
  629000    1.1478479   -5.4759925    364.18358  0.048249017  0.049069652            2 
  630000    1.1483093   -5.4389967    363.61603  0.048097359  0.049060101            3 
  631000    1.1463036   -5.5134166    364.50679  0.048138773  0.049050094            1 
  632000    1.1540137   -5.5039135    363.79943  0.047969334  0.049039724            1 
  633000    1.1623258   -5.4847573     365.1035  0.048065231  0.049028866            3 
  634000    1.1396401   -5.4879032    365.58109  0.048052194  0.049017847            2 
  635000    1.1436974   -5.4930088    366.51683  0.048099321  0.049007056            3 
  636000    1.1560899   -5.5114026    366.78891  0.048059343  0.048995738            2 
  637000    1.1563165   -5.5082012     364.7554  0.047717871  0.048983421            7 
  638000    1.1369541   -5.5456405    365.89244  0.047791594  0.048971114            1 
  639000    1.1567584    -5.512532    365.28042  0.047636987   0.04895863            4 
  640000    1.1608066   -5.5174101    366.54684  0.047727453  0.048946754            3 
  641000    1.1457615   -5.4785507    368.82347  0.047948968  0.048935049            2 
  642000    1.1320309   -5.4845682    368.59258  0.047844312  0.048923985            3 
  643000    1.1322596   -5.5361186    367.48071  0.047625805   0.04891206            2 
  644000    1.1315939   -5.4472091    370.00068  0.047877935  0.048899854            3 
  645000    1.1468566   -5.5018851    369.20813  0.047701308  0.048887841            4 
  646000    1.1693569   -5.5205912    370.15706  0.047749878  0.048875166            3 
  647000    1.1385232   -5.5163962    370.37629  0.047704313  0.048863363            4 
  648000    1.1217512   -5.4953288    371.89895  0.047826511  0.048851907            3 
  649000     1.114132   -5.5240324    371.00242  0.047637701  0.048839643            2 
  650000    1.1724638   -5.5200123    372.48506  0.047754495  0.048827996            3 
  651000    1.1617966   -5.5273325    373.54063  0.047816261  0.048817223            2 
  652000    1.1691211   -5.5310202    373.29743   0.04771184  0.048806378            1 
  653000    1.1326214   -5.5470376     373.3469  0.047645087  0.048794935            4 
  654000    1.1587066   -5.5090933     375.0803  0.047793106  0.048783887            2 
  655000    1.1530418   -5.4739421    375.86885  0.047820465  0.048773004            9 
  656000    1.1497298   -5.5178641    376.25272  0.047796331  0.048761478            4 
  657000    1.1380027    -5.490108    376.51454  0.047756791  0.048749136            2 
  658000    1.1754952   -5.5239911    376.62002  0.047697571  0.048737604            2 
  659000    1.1349897   -5.4979924    376.87941  0.047657993  0.048725698            5 
  660000    1.1651065     -5.50609    377.68264  0.047687202  0.048713709            3 
  661000    1.1698488   -5.4888435    377.76182   0.04762504  0.048701494            2 
  662000    1.1688286   -5.5114854    376.33338  0.047373285  0.048689244            2 
  663000    1.1137073   -5.5403351    379.01795  0.047639259  0.048676418            2 
  664000    1.1451165   -5.5424164    379.49978  0.047627984  0.048663882            3 
  665000    1.1344361   -5.5111455    378.69014  0.047454905  0.048651213            2 
  666000    1.1462852   -5.5016129    381.00892  0.047673789  0.048638238            4 
  667000     1.135942   -5.4820054    380.02965  0.047479966  0.048625838            2 
  668000    1.1340626   -5.4959899    381.04556  0.047535623  0.048613114            4 
  669000    1.1547871   -5.5098666    381.68504  0.047544225  0.048600097            3 
  670000     1.139929   -5.5149302    382.24849  0.047543344  0.048587397            2 
  671000    1.1552308   -5.5245433    382.87104  0.047549807  0.048574488            5 
  672000     1.151787    -5.482153    381.71567  0.047335772  0.048561742            4 
  673000    1.1501865   -5.5534396    381.55074  0.047245015  0.048548727            3 
  674000    1.1533843   -5.5207053    383.61629  0.047430302  0.048535936            2 
  675000    1.1504951    -5.502167     384.7792  0.047503605  0.048523522            3 
  676000    1.1569316   -5.5276946    384.59328  0.047410414  0.048511411            2 
  677000      1.16356   -5.4936008    385.99295  0.047512672   0.04849988            2 
  678000    1.1284174   -5.4710917    386.52929  0.047508516  0.048487611            3 
  679000    1.1554388   -5.5406842    385.98199  0.047371378  0.048476042            3 
  680000    1.1396048   -5.4863781    388.29275  0.047584896  0.048464816            2 
  681000    1.1499242   -5.5280781    387.12415   0.04737202  0.048452922            8 
  682000    1.1470957   -5.4796649    388.71337  0.047496746  0.048441296            2 
  683000    1.1552363   -5.5546193    388.75088  0.047431782  0.048429936            3 
  684000    1.1497902   -5.5363296    389.06004  0.047400102  0.048418561            3 
  685000    1.1135079   -5.5062632    388.53413  0.047266925  0.048406941            3 
  686000    1.1315772   -5.5183881    390.50591   0.04743755  0.048395561            3 
  687000      1.13535   -5.5173891     390.3904  0.047354488  0.048384929            2 
  688000    1.1606848   -5.5326567    391.20584  0.047384429  0.048373779            3 
  689000    1.1344423   -5.4948581    392.02976  0.047415308  0.048362404            3 
  690000    1.1404038   -5.5044595    392.93032  0.047455352  0.048350368            3 
  691000    1.1495004    -5.539403     391.1885  0.047176616  0.048337581            3 
  692000    1.1257108   -5.4972727    393.67106  0.047407402  0.048326001            3 
  693000    1.1368707   -5.5312893    393.98533  0.047376783  0.048314221            3 
  694000    1.1358297   -5.5220887    394.04455  0.047315628  0.048302606            4 
  695000    1.1741717   -5.5207284    394.60819   0.04731513  0.048290748            3 
  696000    1.1544184   -5.5327859    394.45475  0.047228777  0.048279431            4 
  697000    1.1354284   -5.5266177    396.71147  0.047430831  0.048268321            4 
  698000    1.1332808   -5.5111337    396.12044  0.047292316   0.04825752            2 
  699000    1.1468742   -5.5452599    396.53284  0.047273825  0.048246133            3 
  700000    1.1195542   -5.5232338    396.43611  0.047194775  0.048234058            4 
  701000    1.1635177   -5.4928004      397.848  0.047295292  0.048221344            5 
  702000    1.1456705   -5.5296635     396.7625  0.047099063   0.04820964            2 
  703000    1.1495893   -5.5364449    399.40578  0.047345398  0.048197765            3 
  704000    1.1388876   -5.5205623    398.34036  0.047152031  0.048185947            2 
  705000    1.1443024   -5.5020948    398.66679  0.047123734  0.048174246            1 
  706000    1.1552508   -5.5591689    399.72636  0.047182053  0.048162898            5 
  707000     1.123401   -5.5088285     400.0207  0.047150012   0.04815139            4 
  708000    1.1650432   -5.4947183    402.56685  0.047383104  0.048139954            2 
  709000    1.1406008   -5.5383916    402.57491   0.04731722  0.048129537            5 
  710000     1.141426   -5.5351212    401.47337  0.047121288   0.04811864            6 
  711000    1.1425343    -5.538025    403.35879  0.047275996  0.048106462            3 
  712000    1.1306748   -5.4855299    404.65491  0.047361296  0.048095255            2 
  713000    1.1272025   -5.5225334    403.52822  0.047163186  0.048084386            4 
  714000    1.1254549   -5.4948076    406.24253  0.047413928  0.048073788            2 
  715000     1.130344   -5.5022412    404.22246  0.047112175  0.048063006            3 
  716000    1.1476523   -5.5132989    404.32752  0.047058604  0.048051316            2 
  717000    1.1404327   -5.5266544    405.75371  0.047158729  0.048040102            4 
  718000    1.1393072   -5.5277841    404.95439  0.047000277  0.048029101            6 
  719000    1.1620817   -5.5110339    407.01507  0.047173745  0.048017257            3 
  720000    1.1476584    -5.500307    407.79588  0.047198597  0.048006696            2 
  721000    1.1246101   -5.5118312    407.99998  0.047156724  0.047995908            2 
  722000    1.1570116   -5.5171801    407.96269  0.047087107  0.047984625            3 
  723000    1.1438496   -5.5117954    408.93838  0.047134438  0.047972897            4 
  724000     1.147132   -5.5401994    407.27671  0.046878074  0.047961289            3 
  725000      1.13257   -5.5126086    410.16493  0.047145394  0.047949653            2 
  726000    1.1290982   -5.5111017    410.72605  0.047144863  0.047938006            4 
  727000    1.1454613   -5.5396195    410.40505   0.04704322  0.047926284            1 
  728000    1.1670766   -5.5380379    410.68374  0.047010501  0.047914133            2 
  729000    1.1385116   -5.5561696    409.85311  0.046851064   0.04790212            3 
  730000    1.1421602   -5.5399938    410.86123  0.046901967  0.047889792            3 
  731000    1.1241117   -5.4960355    412.57168  0.047032795   0.04787768            5 
  732000    1.1339597   -5.5264608      410.245  0.046703666  0.047864877            5 
  733000    1.1496395   -5.5109389    410.92126  0.046716833  0.047851397            3 
  734000    1.1157795   -5.5260346    412.45922  0.046827795  0.047838148            2 
  735000    1.1549338   -5.5009932     413.2179  0.046850102  0.047824848            4 
  736000    1.1361235   -5.5569084    412.22534  0.046674064  0.047811971            6 
  737000    1.1396781   -5.5211177    413.67761  0.046774945  0.047798894            2 
  738000    1.1213371   -5.5338997     413.3251  0.046671759  0.047786147            7 
  739000    1.1231934   -5.5506199    412.79708  0.046549062  0.047772833            2 
  740000     1.135448   -5.5608861    413.05434  0.046515128  0.047759208            4 
  741000    1.1533135   -5.5682532    414.14816  0.046575366  0.047745605            5 
  742000    1.1228505   -5.5345856    415.31236  0.046643347  0.047732026            2 
  743000    1.1235619   -5.5275942    416.61305  0.046726452  0.047718254            4 
  744000    1.1279375   -5.5720353    414.85886  0.046467166  0.047704572            3 
  745000    1.1295231   -5.5483255    415.64369  0.046492582  0.047690644            2 
  746000    1.1149739   -5.5443687    415.82348  0.046450344  0.047677408            2 
  747000     1.113317   -5.5357707    417.59736   0.04658605  0.047664111            4 
  748000    1.1251959   -5.5334956    417.04221  0.046461922  0.047650073            6 
  749000    1.1184759   -5.5527643    419.45242  0.046668048  0.047636356            2 
  750000    1.1324623   -5.5411856     418.9319  0.046547989  0.047622967            3 
  751000    1.1185128   -5.5053877    420.21998  0.046628936  0.047608968            3 
  752000    1.1351714   -5.4966905    421.06892  0.046661006  0.047595751            3 
  753000    1.1217312   -5.5438315    419.76283  0.046454497  0.047582697            3 
  754000    1.1390971   -5.5283632    420.04258  0.046423804  0.047569059            2 
  755000    1.1440148   -5.5262488    420.31943  0.046392873   0.04755521            4 
  756000    1.1194078    -5.515516    422.34258  0.046554518  0.047541264            4 
  757000    1.1348947   -5.5372456    421.88564  0.046442717  0.047527759            2 
  758000    1.0917864   -5.5124736    421.06309  0.046291017  0.047514504            2 
  759000    1.1357813   -5.5142794    423.51549  0.046499285  0.047501025            5 
  760000    1.1212139   -5.5256799     423.3905  0.046424397  0.047488055            2 
  761000    1.1126538   -5.5689007    423.68797  0.046395967  0.047475067            5 
  762000    1.1521171   -5.4920967    424.42032  0.046415171  0.047462145            5 
  763000    1.1175249   -5.5319161    425.56811  0.046479698  0.047449063            1 
  764000    1.1598597   -5.5331163    427.38918  0.046617493  0.047436323            3 
  765000    1.1455402   -5.5442113    426.14911  0.046421471  0.047423562            2 
  766000    1.1178806   -5.5847019    424.51809   0.04618343   0.04741129            5 
  767000     1.144761   -5.5560218    426.14774  0.046300276   0.04739841            2 
  768000    1.1202302   -5.5780221    427.12446   0.04634597  0.047385499            8 
  769000    1.1496751    -5.561867    427.41121  0.046316777  0.047372658            4 
  770000    1.1244153   -5.5430997    428.14066  0.046335569  0.047359635            3 
  771000    1.1136654   -5.5494911    428.91538  0.046359207    0.0473469            2 
  772000    1.1395919   -5.4948599    430.84316  0.046507249   0.04733455            2 
  773000    1.1330474   -5.5605765     430.2784  0.046386201  0.047322088            3 
  774000    1.1112783   -5.5718668    430.30963  0.046329632  0.047309803            9 
  775000    1.1153669   -5.5535275    430.92951  0.046336506  0.047297256            4 
  776000    1.1362945   -5.5091562    433.70747  0.046575115  0.047285575            2 
  777000    1.1385691   -5.5397634    432.05532  0.046337979  0.047274012            3 
  778000    1.1171585   -5.5480474    432.94694  0.046373923  0.047262248            2 
  779000    1.1255173   -5.5514891    432.07072  0.046220658  0.047249688            6 
  780000    1.1411466    -5.559261    432.51974  0.046209374  0.047237371            4 
  781000    1.1495984   -5.5465569    434.85002   0.04639885  0.047225726            4 
  782000    1.1310707   -5.5460253    435.16249  0.046372814  0.047213519            1 
  783000    1.1003998   -5.5667979    434.91849  0.046287622  0.047201879            2 
  784000    1.1228988   -5.5255682     437.4411  0.046496715  0.047190843            3 
  785000    1.1165819   -5.4992525    439.69247  0.046676483  0.047179734            2 
  786000    1.1302404   -5.5698801    439.64716  0.046612295  0.047169439            2 
  787000    1.1134342   -5.5405785    439.03045  0.046487764  0.047158467            4 
  788000    1.1500858   -5.5551848    439.22992  0.046449865  0.047147581            3 
  789000    1.1182093   -5.5598858    440.40481  0.046515083  0.047136477            4 
  790000    1.1257033   -5.5486641    440.63098  0.046480061  0.047126022            3 
  791000    1.1206181   -5.5500729    440.23977  0.046380085  0.047115038            2 
  792000    1.1480043   -5.5603095    440.86927   0.04638776  0.047103878            3 
  793000    1.1075009    -5.572198    440.24492  0.046263653  0.047092646            3 
  794000    1.1395203   -5.5505215    440.76967   0.04626046  0.047081478            2 
  795000    1.1063995   -5.5261189    441.93832  0.046324771  0.047070137            5 
  796000    1.1265904   -5.5548453    442.61414  0.046337327  0.047059057            2 
  797000    1.1254143   -5.5815245     440.8659  0.046096393  0.047047395            3 
  798000    1.1417717    -5.553812    443.74064  0.046338831  0.047035876            3 
  799000    1.1217598   -5.5466915    444.06034  0.046314178  0.047024941            3 
  800000    1.0842649   -5.5779753    442.40017  0.046083351  0.047013799            2 
  801000    1.0857919   -5.5705508     443.7548  0.046166749  0.047002684            3 
  802000    1.1313797   -5.5410215     446.6344  0.046408396  0.046992256            3 
  803000    1.1286017    -5.558741    447.34499  0.046424345  0.046982176            3 
  804000    1.1289297    -5.549329     449.1808  0.046556882  0.046972282            2 
  805000    1.1426557   -5.5198364    449.41154  0.046522934  0.046962565            3 
  806000    1.1246739   -5.6026872     446.9336  0.046209016  0.046952031            5 
  807000    1.1174881   -5.5730702    448.46614   0.04631001   0.04694132            3 
  808000    1.1222615   -5.5757162    447.90016  0.046194323  0.046931401            4 
  809000    1.1333567    -5.558983    451.19798  0.046476924  0.046921578            5 
  810000    1.1013953   -5.5583975    449.24244  0.046218358  0.046911941            3 
  811000    1.1533422   -5.5579637    451.69869  0.046413758  0.046902155            2 
  812000    1.1235753    -5.534834    450.78916  0.046263255  0.046892228            4 
  813000    1.1103064   -5.5078471    453.76482   0.04651136  0.046882059            6 
  814000    1.1333987   -5.5604774    451.97176  0.046270655  0.046872535            2 
  815000    1.1208654   -5.5907702    453.57553  0.046377866  0.046862759            3 
  816000    1.1181515   -5.5897381    451.30027  0.046088672  0.046852435            4 
  817000    1.1499195    -5.570649    453.97919  0.046305507  0.046841941            3 
  818000    1.1184375   -5.5752717    453.52618  0.046202749    0.0468316            6 
  819000    1.1180457   -5.6078663    451.19599  0.045909238  0.046820742            4 
  820000    1.1399019    -5.557709    455.22509  0.046262713  0.046810591            3 
  821000    1.1018791   -5.5739137    454.06305  0.046088414  0.046800169            2 
  822000    1.1371495   -5.5513195    455.15335  0.046142878  0.046789764            2 
  823000    1.1340587   -5.5176396    456.57061  0.046230317  0.046779363            5 
  824000    1.1473459   -5.5779611    455.68997   0.04608515  0.046769014            4 
  825000    1.1127713   -5.6081082     456.2915  0.046090051  0.046758447            3 
  826000     1.114817   -5.5277576    458.34528  0.046241452  0.046748351            2 
  827000    1.1002379   -5.5417586    458.59787   0.04621099  0.046738025            4 
  828000    1.1208177   -5.5745777    459.61982  0.046258033  0.046728113            4 
  829000    1.1096046   -5.5495041    458.42608  0.046082235  0.046717677            2 
  830000    1.0971425   -5.5832059    458.24539  0.046008573   0.04670717            4 
  831000    1.1189914   -5.6098196    458.62967  0.045991744  0.046696941            3 
  832000    1.1253153   -5.5702313    458.53118  0.045926601  0.046686105            6 
  833000    1.1196624     -5.57455    460.00998  0.046019406  0.046675463            5 
  834000    1.1080702   -5.5651474    462.17094   0.04618015  0.046665345            5 
  835000    1.1176342   -5.5625418    462.20351  0.046128094  0.046654886            3 
  836000    1.1217063   -5.5366829    463.09985  0.046162266    0.0466451            3 
  837000    1.1090172   -5.5841051    462.62016  0.046059355  0.046635963            2 
  838000    1.1253151   -5.5405642    465.77789  0.046318406  0.046626013            4 
  839000    1.1108806   -5.5832466    463.45468  0.046032447   0.04661643            2 
  840000    1.1112662   -5.5597345    465.39981  0.046170616  0.046607008            4 
  841000     1.107844   -5.5836472    465.22428  0.046098324  0.046597752            2 
  842000    1.1171867   -5.5650417    465.28198  0.046049286   0.04658826            3 
  843000    1.1174798   -5.5760031    466.42689  0.046107838  0.046579067            4 
  844000    1.1116382   -5.5773941    468.20488   0.04622876  0.046569901            4 
  845000    1.1087142   -5.5504018    470.05116   0.04635613  0.046561526            5 
  846000    1.1136299   -5.5662193    468.91448  0.046189369  0.046553123            4 
  847000    1.1194314   -5.5792403    469.56111  0.046198457  0.046544866            3 
  848000    1.1205689   -5.5822486    469.25986  0.046114373  0.046536347            2 
  849000    1.1211925   -5.5671351    471.74852  0.046304331  0.046528026            2 
  850000    1.0800389   -5.5836817    470.50451  0.046127893  0.046519126            4 
  851000    1.0955711   -5.5789752    470.80684  0.046103294  0.046509799            3 
  852000    1.1229022   -5.5699623    471.27634  0.046095104  0.046501286            4 
  853000    1.1115951   -5.5764287    470.97015  0.046011152  0.046491978            3 
  854000    1.1208383   -5.5914782    471.55663  0.046014503  0.046482723            2 
  855000    1.1314311   -5.6059682    470.44934  0.045852762  0.046473303            2 
  856000    1.1239848   -5.5816658     471.8506  0.045935611  0.046463375            5 
  857000    1.1152213   -5.5836967    471.06661  0.045805777  0.046453449            6 
  858000    1.1294497   -5.5688323    474.04109  0.046041287   0.04644384            7 
  859000    1.1031979   -5.5845572    472.79217  0.045866528  0.046434169            5 
  860000    1.0941069   -5.6113001    473.45479  0.045877402  0.046424381            3 
  861000    1.1299358   -5.5653381    473.87318  0.045864613  0.046414615            3 
  862000    1.0935012   -5.5393735    477.16376   0.04612952  0.046405772            3 
  863000     1.097217   -5.5931682    474.66457   0.04583474   0.04639644            4 
  864000    1.1295777   -5.5464588    474.14478  0.045731557  0.046386561            2 
  865000    1.1113601   -5.5415864    476.99544  0.045953318  0.046377261            4 
  866000    1.1288608   -5.5645766    478.79007  0.046072948  0.046367645            3 
  867000      1.10881   -5.5987658    476.87571  0.045835805  0.046358365            2 
  868000    1.0949521   -5.5866279    477.27389  0.045821226  0.046349086            2 
  869000    1.1299976    -5.588466    479.48965  0.045980979  0.046339767            5 
  870000    1.1234377   -5.5855923    478.12394  0.045797312  0.046330518            3 
  871000    1.1005557   -5.6061063      478.513  0.045781955  0.046320545            5 
  872000    1.0724419   -5.5912786    478.72646  0.045749853  0.046310833            3 
  873000    1.0879804   -5.6416151    479.43629  0.045765205  0.046301118            5 
  874000    1.1242113   -5.5471455    482.79537  0.046033121  0.046291675            4 
  875000    1.1223333   -5.6083311    479.98542  0.045712897  0.046282219            3 
  876000    1.1301361   -5.6069325    479.64337  0.045628175  0.046272889            1 
  877000    1.1062988   -5.5861822     482.5207  0.045849554  0.046263584            2 
  878000     1.139024   -5.5876146    482.94763  0.045837854  0.046254302            4 
  879000    1.1381472   -5.5930499     483.2453  0.045813927  0.046244909            1 
  880000    1.1259911     -5.58677    481.14296  0.045562781  0.046235295            3 
  881000    1.0842287   -5.5976187    483.68041  0.045751079  0.046225145            3 
  882000    1.1010452   -5.6041208    483.86414  0.045716567   0.04621494            4 
  883000    1.0871356   -5.5310505    484.17836  0.045694447   0.04620503            5 
  884000    1.0850189   -5.5756928    482.83099  0.045515742  0.046194722            4 
  885000    1.1069871   -5.5973162    483.50568  0.045527842   0.04618412            2 
  886000    1.1345148   -5.5682906    485.96966  0.045708208  0.046174237            2 
  887000    1.1002165   -5.6066372    486.11394  0.045670232  0.046164215            2 
  888000    1.1109386   -5.5663512    488.32213  0.045826025  0.046154867            4 
  889000    1.1157562   -5.5249859    488.00696  0.045744934  0.046145749            2 
  890000    1.1296955   -5.5856432    488.76741  0.045764738  0.046136428            2 
  891000    1.1098153   -5.6076318    488.11485  0.045652343  0.046127206            4 
  892000    1.1336706   -5.5744039    491.11785  0.045881712  0.046118478            2 
  893000    1.0972296   -5.5838731    489.69746  0.045697784  0.046109463            2 
  894000    1.1023361   -5.6176449    489.16584  0.045597114   0.04610045            4 
  895000    1.1019493   -5.6084142    491.53664  0.045766912  0.046091569            2 
  896000     1.116617   -5.5834271    491.81286  0.045741524  0.046083027            2 
  897000    1.1227272    -5.577912    492.59408  0.045763107  0.046074878            2 
  898000    1.0772833   -5.6087855    493.50097  0.045796304  0.046066468            5 
  899000    1.1078035   -5.5840355    493.28208  0.045725073  0.046057596            3 
  900000    1.1320668   -5.5609739    494.61194  0.045797402  0.046049014            1 
  901000     1.101785   -5.5715391      494.157  0.045704495  0.046040039            3 
  902000    1.0919739   -5.5828007    495.42405  0.045770884  0.046031218            3 
  903000    1.0949241   -5.5678054    496.00339  0.045773661  0.046023081            4 
  904000    1.1247118   -5.6494721    494.41721  0.045576808   0.04601445            4 
  905000    1.1037168   -5.5710986     494.7784  0.045559705  0.046005495            2 
  906000     1.093595   -5.5538272    498.26527  0.045830139  0.045996981            3 
  907000    1.1183334   -5.6053182    497.42824  0.045702705  0.045988539            3 
  908000    1.0971374   -5.5677625    498.00238  0.045705064  0.045980313            2 
  909000     1.093357   -5.5907154    498.97351  0.045743813  0.045972057            2 
  910000     1.097956   -5.5870105    499.18114  0.045712559  0.045963944            5 
  911000    1.1067608   -5.6125856    500.31434  0.045766039  0.045955636            2 
  912000    1.1295665   -5.5661862    500.29842  0.045714402  0.045947007            2 
  913000    1.1273203   -5.5695561    501.37246  0.045762364  0.045938849            4 
  914000    1.1096885   -5.5674355    501.43254  0.045717773  0.045931143            2 
  915000    1.0769084   -5.6459477    499.85636  0.045524259  0.045922722            2 
  916000    1.0985042   -5.6003182    500.94996   0.04557405  0.045914008            2 
  917000     1.084276   -5.6180997    501.72979  0.045595219   0.04590548            3 
  918000    1.1201193   -5.6086556    503.28774  0.045686977  0.045897112            4 
  919000     1.092652   -5.6359895    502.83144  0.045595887  0.045888613            3 
  920000    1.0816351   -5.5882855    504.08538  0.045659908  0.045880264            2 
  921000    1.0924107   -5.6098621    502.65849  0.045481224  0.045871452            2 
  922000    1.1182393   -5.5964308    504.81676  0.045626966   0.04586245            3 
  923000    1.1145226   -5.5936355    503.71123   0.04547772  0.045853444            6 
  924000     1.096879   -5.6156826    502.22242   0.04529423  0.045844605            3 
  925000    1.0958879   -5.5833188     506.0148  0.045586919  0.045835434            3 
  926000    1.0763969   -5.6283903    504.68263  0.045417803  0.045826259            4 
  927000    1.0982178   -5.6154275    504.77812  0.045377393  0.045816705            5 
  928000    1.1297526   -5.5857836    506.73255     0.045504    0.0458078            2 
  929000    1.1028811   -5.6127784    506.31152  0.045417252  0.045799107            5 
  930000    1.0782251      -5.6264     506.3148   0.04536871  0.045790199            5 
  931000    1.1046931   -5.6097951    506.68576  0.045353183  0.045780918            3 
  932000    1.0687296     -5.60578    508.22157  0.045441843  0.045771652            3 
  933000     1.098073   -5.6355323    505.16792  0.045120393  0.045762058            4 
  934000    1.1183219   -5.5998666    508.53916  0.045372873  0.045752536            4 
  935000      1.10813   -5.6452181    507.83166  0.045261289  0.045743052            5 
  936000    1.0963446   -5.6175991    507.30984  0.045166474  0.045733145            3 
  937000    1.0873297   -5.5669228     509.4722  0.045310583  0.045723297            3 
  938000    1.0904806   -5.6378069    508.64981  0.045189215  0.045713473            2 
  939000    1.0962792   -5.6584303    507.27103  0.045018729  0.045703771            5 
  940000    1.1113481   -5.6127434    510.04654  0.045216892  0.045693884            2 
  941000    1.1173484   -5.5752054    511.75087  0.045319773  0.045684412            2 
  942000    1.0982589   -5.6168326    510.19459  0.045133987   0.04567444            3 
  943000    1.0886901   -5.6075842    511.29565  0.045183426  0.045664483            3 
  944000    1.1298223   -5.6368332     510.8922  0.045099947  0.045654723            4 
  945000    1.0819024   -5.6318081    512.42672  0.045187542    0.0456454            3 
  946000    1.1059158   -5.5880876    514.55033  0.045326844  0.045636499            2 
  947000    1.0612982   -5.6208008    514.16907   0.04524543  0.045627356            2 
  948000    1.0786544   -5.6221191    514.76347  0.045249953  0.045617992            3 
  949000    1.1021409   -5.6188648    514.07433  0.045141757  0.045608594            3 
  950000    1.1325454   -5.6028203    513.92831   0.04508143  0.045599086            4 
  951000    1.1209517   -5.6092014    518.07171  0.045397101  0.045589595            4 
  952000    1.0744456    -5.611746    516.67991  0.045227583  0.045580661            4 
  953000    1.1201961   -5.5462751    520.66036  0.045528188  0.045571821            5 
  954000    1.1090546   -5.5998489    516.96496  0.045157666  0.045562789            3 
  955000    1.0985141    -5.578813    518.62532  0.045255263  0.045553393            5 
  956000    1.0973636   -5.6130394    518.05495  0.045158207  0.045544072            6 
  957000    1.1285411   -5.6150297    516.66017  0.044989566  0.045534528            4 
  958000    1.0844027   -5.6447235    516.76245    0.0449515  0.045525175            4 
  959000    1.0837843   -5.5739443    520.27767  0.045210086  0.045515418            2 
  960000    1.1226963   -5.5826008    521.37142  0.045257936  0.045505853            2 
  961000    1.1048477   -5.6344932    518.29187  0.044943797  0.045495933            3 
  962000    1.0947114   -5.6456102    518.55555  0.044919919  0.045486308            4 
  963000    1.1270338   -5.6077024    523.15519  0.045271304  0.045476395            2 
  964000    1.0850252   -5.6291095    520.39863   0.04498605  0.045466407            3 
  965000    1.0989096   -5.5822423    521.05213  0.044995866   0.04545655            4 
  966000    1.0880676   -5.5814282    523.23374  0.045137486  0.045446721            4 
  967000     1.081417   -5.5904928    522.84046  0.045056917  0.045437078            4 
  968000    1.0844046   -5.5821327    522.71611  0.044999665  0.045427033            2 
  969000    1.1209104   -5.5877024    520.39251  0.044753398  0.045417077            3 
  970000    1.0955645   -5.5991476    523.70409   0.04499176  0.045407001            6 
  971000     1.100285   -5.6321625     521.7149  0.044774708  0.045396868            5 
  972000    1.1256579    -5.606468    523.66879  0.044896159   0.04538659            2 
  973000    1.0992107    -5.636787     523.5471  0.044839594  0.045376502            6 
  974000    1.0832839   -5.6105957    524.82763  0.044903117  0.045366597            4 
  975000    1.1153317   -5.6383616    524.35206  0.044816415  0.045356717            4 
  976000    1.0830064   -5.6173503    527.45294  0.045035257  0.045346806            4 
  977000    1.0829402   -5.5704945    528.44704  0.045073954  0.045337121            5 
  978000     1.104576   -5.6088734    528.02504  0.044991909  0.045327682            2 
  979000     1.140214   -5.5923349    526.56819  0.044821943  0.045317869            3 
  980000    1.1204693   -5.6124025    526.44238  0.044765508  0.045307927            4 
  981000    1.0770081   -5.6129279    527.12232  0.044777635  0.045298185            6 
  982000    1.0947275   -5.6048741    530.27239  0.044999354  0.045288466            3 
  983000    1.1155143   -5.6459383    528.66573  0.044817373  0.045278752            4 
  984000    1.0813824   -5.5858706    530.34782   0.04491428  0.045269066            2 
  985000    1.1012607   -5.6489302    529.62255  0.044807322  0.045259668            3 
  986000    1.0785603    -5.614304    529.54272  0.044755132  0.045249761            3 
  987000    1.0742256     -5.57332    530.90478  0.044824787  0.045240067            3 
  988000     1.110616   -5.6467217     527.5552  0.044496896  0.045229483            1 
  989000    1.0863773   -5.6526824    529.09784  0.044581887  0.045218769            3 
  990000    1.1214528   -5.6207518    531.13725  0.044708522  0.045208544            5 
  991000    1.0860142   -5.6194541     530.0138  0.044568937  0.045198227            3 
  992000    1.1217907   -5.6361494    531.17865  0.044621862  0.045188183            2 
  993000    1.0878509   -5.6297173     531.4099  0.044596332  0.045177523            3 
  994000     1.065927   -5.5849255    530.93581  0.044511721  0.045166551            3 
  995000    1.0951987   -5.5965563    531.96052  0.044552807  0.045155508            4 
  996000    1.0880375   -5.6375274    532.37421  0.044542688  0.045144999            3 
  997000    1.0831811   -5.6248635    533.25027  0.044571236   0.04513409            4 
  998000    1.1062191   -5.6377785    531.89635  0.044413522  0.045123226            3 
  999000    1.1204401   -5.6200224     534.9435  0.044623248  0.045112565            4 
 1000000    1.0841767   -5.6586246    534.42317  0.044535264  0.045102049            2 
 1001000    1.0821766    -5.614493    535.45716  0.044576853  0.045091499            4 
 1002000    1.1012116   -5.6300453    535.01212  0.044495353  0.045080908            3 
 1003000    1.0907395    -5.631015    537.09346  0.044623917  0.045070456            4 
 1004000    1.0887249   -5.6122103    538.96052  0.044734439  0.045059754            3 
 1005000    1.0880932   -5.6220436    534.36352  0.044308749  0.045048958            1 
 1006000    1.0775678   -5.6016126    535.97305  0.044398033  0.045037717            2 
 1007000    1.0988306   -5.6405484    536.34977  0.044385118  0.045026871            3 
 1008000    1.0996265    -5.630848    537.17144  0.044409014  0.045015829            2 
 1009000    1.0873866   -5.6026908    539.97078  0.044596199  0.045005189            7 
 1010000    1.0942406   -5.6419022    538.13356  0.044400459  0.044994792            4 
 1011000    1.0882569   -5.6489003    540.70214  0.044568261   0.04498479            5 
 1012000    1.0871137   -5.6357037     539.1034  0.044392572  0.044974316            2 
 1013000    1.1133694   -5.6128024    540.19633  0.044438658  0.044964261            2 
 1014000    1.0640124   -5.6308388    541.55752    0.0445067  0.044954138            4 
 1015000     1.070224   -5.6006409    542.03119   0.04450174  0.044943752            7 
 1016000    1.0928643   -5.6610898    540.24006  0.044311028  0.044933398            5 
 1017000    1.0568306   -5.5920709    542.99841  0.044493478  0.044922862            4 
 1018000    1.0978105   -5.6495426    543.31676  0.044475832  0.044912395            1 
 1019000    1.1117339    -5.596539    542.95395  0.044402515  0.044902288            4 
 1020000    1.0849081    -5.625482    542.24018  0.044300668  0.044892198            5 
 1021000    1.0885468   -5.6186487     541.8935  0.044228983  0.044882407            4 
 1022000    1.1149392   -5.6382937    543.29254  0.044299783  0.044872058            3 
 1023000    1.0681845   -5.6281601    543.45109  0.044269394   0.04486167            4 
 1024000    1.0639671   -5.6804745     544.1533  0.044283309  0.044851428            3 
 1025000    1.0891781   -5.6267057    544.67795   0.04428276  0.044841205            2 
 1026000    1.0915633   -5.6325517    544.69596  0.044241063  0.044830696            2 
 1027000    1.0710321   -5.6287566    547.39528  0.044417014  0.044820408            3 
 1028000    1.0696259   -5.6544174    547.71706  0.044399891  0.044809991            4 
 1029000    1.0868497   -5.6489064    546.74393  0.044277934   0.04479969            2 
 1030000    1.1125435   -5.6703644    547.15209  0.044267968  0.044789327            3 
 1031000    1.0796317   -5.6113195     548.7507  0.044354244  0.044779083            2 
 1032000    1.1193693   -5.6218625    546.91577  0.044163095  0.044769329            4 
 1033000    1.0810403   -5.6232671     547.8095  0.044192441  0.044758992            9 
 1034000     1.072978   -5.6136213    548.20176  0.044181315  0.044749039            3 
 1035000    1.0813623   -5.6482973    549.64267  0.044254643  0.044738908            6 
 1036000    1.0860002   -5.6484809    550.20354  0.044257042  0.044728566            4 
 1037000    1.0832423   -5.6326557    550.89659  0.044270057  0.044718512            3 
 1038000    1.1120309   -5.6888152    548.08461  0.044001655  0.044708527            2 
 1039000    1.0789505   -5.6623376    549.70088  0.044088938  0.044697889            4 
 1040000    1.0686262   -5.6310806    551.26024  0.044171494  0.044687683            6 
 1041000    1.0834542   -5.5946238    552.85312  0.044256574  0.044677715            4 
 1042000     1.086653   -5.6223622    555.04224  0.044389174  0.044667715            2 
 1043000    1.0820256   -5.6539842    551.01806  0.044025092  0.044657846            5 
 1044000    1.0682341   -5.6267016    554.42873  0.044255167  0.044648083            3 
 1045000    1.0567551   -5.6636911    555.36526  0.044287501  0.044638319            3 
 1046000    1.0500559   -5.6229031    556.97326  0.044373268  0.044629008            2 
 1047000    1.0788917    -5.673338    554.68123  0.044148458  0.044619537            2 
 1048000    1.0829903   -5.6824882    557.09024  0.044297888  0.044609737            2 
 1049000     1.069588    -5.663414    556.34452  0.044196419  0.044600466            3 
 1050000    1.0604941   -5.6622199    556.81959  0.044192031  0.044591121            8 
 1051000    1.1173057   -5.6644946    558.19077  0.044258703  0.044582063            2 
 1052000    1.0908579   -5.6217805    558.41009  0.044234006  0.044572614            2 
 1053000    1.1096452   -5.6722787    558.87924  0.044229126  0.044563247            3 
 1054000    1.0678593   -5.6850656    557.13765  0.044049467  0.044553866            3 
 1055000    1.1034843   -5.6345989    559.83964  0.044221141  0.044544163            4 
 1056000    1.0829539   -5.5946649    560.95991   0.04426767  0.044534835            2 
 1057000     1.107313   -5.6498394     561.5237  0.044270238  0.044525286            4 
 1058000     1.089057   -5.6869063    559.59367  0.044076376  0.044515727            2 
 1059000    1.0891364   -5.5822341    563.74813  0.044361672  0.044506102            2 
 1060000    1.0798187   -5.6307621     562.7057   0.04423787  0.044496494            3 
 1061000    1.0859322   -5.6386083    562.37448  0.044170161  0.044487037            6 
 1062000    1.0724863   -5.6594985     562.4005   0.04413061  0.044477441            2 
 1063000    1.1024995   -5.6344532    561.31418  0.044003934  0.044467935            3 
 1064000    1.1024423   -5.6646671    561.50125  0.043977228  0.044458396            2 
 1065000    1.0847043   -5.6512177    563.00342  0.044053475  0.044448744            2 
 1066000    1.0861832   -5.6729442    561.82256  0.043919838  0.044438833            5 
 1067000    1.0868049    -5.692801    563.85631  0.044037512  0.044429268            2 
 1068000    1.0843456   -5.6384394    565.79202  0.044147317  0.044419432            2 
 1069000    1.0731568   -5.6476029    566.26943  0.044143236  0.044409994            3 
 1070000    1.0859706   -5.6799563    564.72175  0.043981444  0.044400494            3 
 1071000    1.0849499    -5.650451    566.09424  0.044047171  0.044390819            9 
 1072000    1.0683056   -5.6527269    565.72207  0.043977151  0.044381187            2 
 1073000    1.0858073   -5.6153668    567.06564  0.044040512   0.04437175            4 
 1074000    1.0833724   -5.6440057    568.02084  0.044073622  0.044362562            3 
 1075000    1.0857597   -5.6608211    567.04554  0.043957019  0.044353163            3 
 1076000    1.0733561    -5.685901    569.15109  0.044079236  0.044344232            3 
 1077000     1.066865   -5.6719852    569.66472   0.04407805  0.044335008            3 
 1078000    1.0899134   -5.6292898    569.87503  0.044053419  0.044326424            2 
 1079000    1.0609393    -5.641196    570.25134  0.044041654   0.04431749            2 
 1080000    1.0653461   -5.6017661    574.16259  0.044302669  0.044308854            8 
 1081000    1.0869644   -5.6398686    571.72898  0.044074081  0.044300433            4 
 1082000    1.0757824   -5.6496931    573.24931   0.04415044  0.044291875            2 
 1083000    1.0985786   -5.6737737    573.66169  0.044141404  0.044283074            6 
 1084000    1.0959174   -5.6557389    574.15784  0.044138825  0.044274091            2 
 1085000    1.0772446    -5.689041    573.05689  0.044013586  0.044265682            5 
 1086000    1.0971867   -5.6598062     574.1697  0.044058448  0.044256827            2 
 1087000    1.0748048   -5.6398329    575.31292   0.04410556  0.044247934            1 
 1088000     1.082682   -5.6997811    574.89747  0.044033201  0.044239467            4 
 1089000    1.0870636   -5.6763982    575.46764  0.044036397   0.04423109            2 
 1090000    1.0870819   -5.6570873    577.20828  0.044129074  0.044222213            8 
 1091000    1.0643319    -5.699916    576.97231  0.044070601  0.044213636            2 
 1092000    1.0618096   -5.6696449    579.07177  0.044190458  0.044205268            4 
 1093000    1.0715612   -5.6607284    580.58904  0.044265709  0.044197251            3 
 1094000    1.0682751   -5.6632629     579.1294  0.044114062  0.044189376            4 
 1095000    1.0919278   -5.6859841    578.08686  0.043994434  0.044181155            6 
 1096000    1.0738884   -5.6940219    579.23853  0.044041859  0.044173087            6 
 1097000    1.1016202   -5.6669924    579.45266  0.044017978  0.044165051            1 
 1098000    1.0785107   -5.6677593    582.32472  0.044195865  0.044156842            4 
 1099000    1.0775883   -5.6743667    579.31459  0.043927403  0.044148859            4 
 1100000    1.0635169   -5.6333177    582.55911  0.044133266   0.04414077            5 
 1101000    1.0452548    -5.668999    582.05596  0.044055098  0.044132714            3 
 1102000    1.0833289    -5.676648    581.11295   0.04394381  0.044124683            4 
 1103000    1.0808053     -5.71122    581.32504  0.043919994  0.044116636            3 
 1104000    1.0873856   -5.6569694     584.4376  0.044115157  0.044108578            3 
 1105000    1.0551565   -5.6719139    582.56901  0.043934315  0.044100614            5 
 1106000    1.0464482   -5.6546969    585.51581  0.044116622  0.044092524            3 
 1107000     1.072216    -5.657651    585.73907  0.044093576  0.044084596            2 
 1108000    1.0953574   -5.6602785    585.00393   0.04399849  0.044076674            4 
 1109000     1.046034     -5.64825     585.8194  0.044020093  0.044068501            5 
 1110000    1.0791304   -5.6910068    584.78596   0.04390285  0.044060126            3 
 1111000    1.0417039   -5.6647763    585.78771  0.043938472  0.044051644            2 
 1112000    1.0457008   -5.6521751    585.20357  0.043855184  0.044043441            5 
 1113000    1.0853625   -5.6763709    585.51042  0.043838755  0.044035271            2 
 1114000    1.1003205   -5.6627722    587.56712  0.043953255  0.044027198            5 
 1115000    1.0846665   -5.6703708    588.41702  0.043977355  0.044019125            3 
 1116000    1.0596421   -5.6960275    585.30929  0.043705891  0.044010908            4 
 1117000     1.085207    -5.696731    586.00361  0.043718562  0.044002802            3 
 1118000    1.0602121   -5.6768067    588.86236  0.043892543  0.043994628            2 
 1119000    1.0595361   -5.6625131    588.99489  0.043863188  0.043986352            4 
 1120000    1.0718272   -5.6641507    590.89054   0.04396507  0.043977885            7 
 1121000    1.0802533   -5.6514924    593.20395  0.044097826  0.043970052            8 
 1122000    1.0786954   -5.6405554    591.81888   0.04395565  0.043962316            4 
 1123000    1.0583849    -5.667363    589.62199  0.043753487  0.043954181            2 
 1124000    1.0573614   -5.6941991    590.56986  0.043784836   0.04394612            4 
 1125000    1.0878994   -5.6737327    592.37913  0.043879936  0.043938057            3 
 1126000    1.0673981   -5.6750528    591.49625  0.043775625  0.043929912            3 
 1127000    1.0612374   -5.7398357    591.01161  0.043700947  0.043921435            3 
 1128000    1.0654273   -5.6857515    593.84892  0.043871817  0.043912671            2 
 1129000    1.0575419   -5.7270473    592.14942  0.043707515  0.043904039            2 
 1130000    1.0753552   -5.6947528    593.14671  0.043742383   0.04389554            2 
 1131000    1.0581983   -5.6756662    595.62613  0.043886393  0.043887185            2 
 1132000    1.0604635   -5.6477259    594.51025  0.043765478   0.04387923            3 
 1133000    1.0679881   -5.6672569    593.97657  0.043687597   0.04387127            2 
 1134000    1.0552315   -5.6681217    595.06923  0.043729367  0.043863006            2 
 1135000    1.0526199    -5.684095    593.44553  0.043571625  0.043854399            3 
 1136000    1.0725287   -5.6649305    594.43244  0.043605666  0.043845869            3 
 1137000    1.0887821    -5.667989    596.13678   0.04369223  0.043837359            7 
 1138000    1.0788515   -5.6794102    595.88373  0.043635305   0.04382882            2 
 1139000     1.044068   -5.6281055    596.79729  0.043663835  0.043820329            3 
 1140000    1.0801342   -5.6580432    597.45543  0.043673643  0.043812278            5 
 1141000    1.0592077    -5.619789     598.7108  0.043727052  0.043804398            2 
 1142000    1.0962854   -5.6741897    598.46956  0.043671159  0.043796148            4 
 1143000    1.0696786    -5.645671    600.40441  0.043774016  0.043787809            3 
 1144000    1.0829747   -5.6713351    598.10462  0.043568227  0.043779326            4 
 1145000     1.053202   -5.6857791    597.96539  0.043520043  0.043770983            1 
 1146000     1.067744   -5.6473669    600.42911  0.043661221  0.043762386            5 
 1147000    1.0961438   -5.6678258    601.24194   0.04368221   0.04375381            2 
 1148000    1.0637699   -5.6861027    599.51051  0.043518475  0.043745299            4 
 1149000     1.083415   -5.7136648    598.53233  0.043409656  0.043736745            2 
 1150000    1.0826246   -5.6777645    601.77853   0.04360714  0.043727836            3 
 1151000    1.0889113   -5.6659152    602.53317   0.04362389  0.043719559            2 
 1152000     1.091993   -5.6604553    603.90761  0.043685446  0.043711385            2 
 1153000    1.0863347   -5.6833849    600.77074   0.04342084  0.043703085            7 
 1154000    1.0418663   -5.6506712     603.5331   0.04358269  0.043694677            8 
 1155000    1.0460389   -5.6656415    603.16695  0.043518539  0.043686512            3 
 1156000    1.0859829   -5.7072588    604.37379  0.043567891  0.043678531            1 
 1157000    1.0356917   -5.6943779    605.15125  0.043586233  0.043670256            4 
 1158000     1.079377   -5.7039849    603.80091  0.043451418  0.043661832            4 
 1159000    1.0806458   -5.6841935    605.38644  0.043527929  0.043653388            4 
 1160000    1.0563542   -5.7245691    604.56411   0.04343133  0.043645063            4 
 1161000    1.0488851   -5.6515886    607.76912  0.043623968   0.04363676            3 
 1162000    1.0726991   -5.6930658    608.26159  0.043621743  0.043628702            2 
 1163000     1.067974   -5.6663984    608.56001  0.043605618  0.043620703            2 
 1164000    1.0507659   -5.6677698    609.79747  0.043656749  0.043612823            5 
 1165000    1.0711027   -5.7130732    609.05009  0.043565815  0.043604896            2 
 1166000    1.0565517   -5.7022138    609.60134  0.043567848  0.043597359            7 
 1167000    1.0507332   -5.6835509    609.35948  0.043513245  0.043589945            2 
 1168000    1.0563737   -5.6598581    612.07623  0.043669822  0.043582388            2 
 1169000    1.0622682   -5.6823545     612.5299  0.043664806  0.043574981            2 
 1170000    1.0816626   -5.6492334    610.63754  0.043492702  0.043567268            4 
 1171000    1.0713578   -5.6681948    611.65316  0.043527837  0.043559082            4 
 1172000    1.0717943   -5.7402303    611.09182  0.043450783  0.043550351            3 
 1173000    1.0675355   -5.6781168    609.99769  0.043336011  0.043541967            3 
 1174000    1.0603923   -5.7220401    609.38583  0.043255667  0.043533411            3 
 1175000    1.0871854   -5.7131758    611.44692   0.04336503  0.043525043            5 
 1176000    1.0667212   -5.6747718    613.28873  0.043458669   0.04351665            4 
 1177000    1.0621024   -5.6606608    612.54738  0.043369256  0.043508251            7 
 1178000    1.0485104   -5.7123399    613.47484   0.04339805  0.043499682            4 
 1179000    1.0430599   -5.6713146    614.58685   0.04343984  0.043491145            3 
 1180000    1.0524521   -5.6825647    614.03149  0.043363806  0.043482939            2 
 1181000    1.0215862   -5.7047697    614.57802  0.043365652  0.043474698            2 
 1182000    1.0497351   -5.6879647    614.00442  0.043288524  0.043465902            4 
 1183000    1.0738311   -5.6873098    615.08767  0.043328238  0.043457434            4 
 1184000    1.0383446   -5.6908096    615.47634  0.043318999  0.043448717            6 
 1185000    1.0498426   -5.6957696    613.39741  0.043136245  0.043439899            6 
 1186000    1.0884914    -5.661714    618.00461  0.043423596  0.043431686            4 
 1187000    1.0466235   -5.6373539     619.1674  0.043468647  0.043423452            3 
 1188000    1.0500887   -5.7381914    615.88252  0.043201636  0.043414915            4 
 1189000    1.0717609   -5.7195207    618.57124  0.043353746  0.043406553            3 
 1190000    1.0686739   -5.6873256    617.95447  0.043274123  0.043398507            1 
 1191000     1.064084   -5.6771019    620.33269   0.04340419  0.043390494            1 
 1192000    1.0719303    -5.684994     619.6484  0.043319938  0.043382566            9 
 1193000    1.0846661   -5.7314043    618.69881  0.043217296  0.043374554            2 
 1194000    1.0564802   -5.6825717    619.57549  0.043242287   0.04336628            2 
 1195000    1.0737391   -5.6596162    622.51011  0.043410747  0.043358127            2 
 1196000     1.084009   -5.7082338    620.09935  0.043206476  0.043350013            3 
 1197000    1.0530889   -5.6885709    621.25154  0.043250594  0.043341687            3 
 1198000    1.0712165   -5.7099907    620.15646  0.043138318  0.043333208            2 
 1199000    1.0568033   -5.6985435    620.68511  0.043139082  0.043324619            2 
 1200000    1.0434185   -5.6814905    622.47829  0.043227659  0.043316358            5 
 1201000    1.0785305   -5.6720671    622.95152  0.043224502  0.043308125            3 
 1202000    1.0669113   -5.7001983    623.06881  0.043196673  0.043299752            3 
 1203000     1.059218   -5.6834579    623.29511  0.043176442  0.043291343            1 
 1204000    1.0721409   -5.6920256    622.69008  0.043098704   0.04328338            4 
 1205000    1.0719254   -5.6901307    624.00079  0.043153582  0.043274947            5 
 1206000    1.0597664   -5.6658402    626.02475  0.043257652  0.043266515            4 
 1207000    1.0659705    -5.698262    623.62801  0.043056339  0.043258532            2 
 1208000    1.0658078   -5.6603146    626.17307  0.043196266  0.043250115            1 
 1209000    1.0788407   -5.7161243    627.59919  0.043258836  0.043241893            3 
 1210000    1.0631291   -5.6949858    626.73344   0.04316346   0.04323359            3 
 1211000    1.0600085   -5.7368904    627.09013  0.043152362  0.043225574            4 
 1212000    1.0738837   -5.7110264    628.86323  0.043238671  0.043217439            4 
 1213000    1.0642534   -5.7091968    627.30056  0.043095669  0.043209643            5 
 1214000    1.0649895    -5.711077    627.62694  0.043082574  0.043201376            2 
 1215000    1.0447515   -5.6921123    631.13575  0.043287774   0.04319345            3 
 1216000    1.0580634   -5.7086379    628.75032    0.0430887  0.043185807            1 
 1217000    1.0755203   -5.7100644    628.82489  0.043058401  0.043177596            2 
 1218000     1.040556   -5.6975946    630.80104  0.043158254   0.04316969            6 
 1219000    1.0754391   -5.6851919    632.19859  0.043218389  0.043161619            4 
 1220000    1.0658077   -5.7099564    629.71083  0.043013035  0.043153359            2 
 1221000    1.0470851   -5.6640695    634.14498  0.043280438  0.043145113            4 
 1222000    1.0194833   -5.7180488    632.99621  0.043166681  0.043137288            5 
 1223000    1.0764428   -5.6723534    631.86183   0.04305409  0.043129079            4 
 1224000    1.0501861   -5.6777655    633.04017   0.04309914  0.043120933            9 
 1225000    1.0544787   -5.7042261    632.55037  0.043030637  0.043112905            4 
 1226000    1.0554213   -5.6942846     633.6713  0.043071731  0.043104382            2 
 1227000    1.0595284    -5.733744    632.47917  0.042955662  0.043095986            1 
 1228000    1.0474395   -5.6992835    634.03953  0.043026569  0.043087796            3 
 1229000     1.087779      -5.7216    633.38622  0.042947262  0.043079459            3 
 1230000    1.0684429   -5.7110368    633.68681   0.04293271  0.043071137            4 
 1231000    1.0574135   -5.6745941    638.11395  0.043197532  0.043063219            3 
 1232000    1.0567643   -5.6834888    635.31335  0.042973035  0.043055237            2 
 1233000    1.0912737   -5.7035694    637.33594  0.043074881  0.043047396            2 
 1234000    1.0566199   -5.6858215    637.85305  0.043074895  0.043039585           10 
 1235000    1.0734526   -5.6910936    637.98967  0.043049236  0.043031846            3 
 1236000    1.0639851   -5.7174938    637.25753  0.042965044  0.043024077            4 
 1237000    1.0539145   -5.7129723    636.28101  0.042864525  0.043015966            3 
 1238000    1.0224809   -5.7095178    636.70569  0.042858487  0.043008001            2 
 1239000    1.0289085   -5.7287333    637.34829  0.042867117   0.04299967            2 
 1240000    1.0426948   -5.7302335    638.48777  0.042909125   0.04299152            2 
 1241000    1.0533961   -5.6985442    638.12298  0.042850052  0.042983432            2 
 1242000    1.0469175   -5.7347236    636.72795  0.042721951  0.042975467            2 
 1243000    1.0456977   -5.7447385    639.57221  0.042878266   0.04296737            7 
 1244000    1.0534487   -5.7212433    642.93569  0.043069111  0.042959419            5 
 1245000    1.0396384   -5.6925751    642.43453  0.043000973  0.042951561            2 
 1246000    1.0548904   -5.7095171    644.21352  0.043085441  0.042943457            3 
 1247000    1.0674915   -5.6986514    641.39971  0.042862852  0.042935368            4 
 1248000    1.0647018   -5.7573395    640.44352  0.042764658  0.042927056            4 
 1249000    1.0727491   -5.7086827    642.90391  0.042894577  0.042918763            4 
 1250000    1.0532588   -5.7229455    643.32252  0.042888168  0.042910571            3 
 1251000    1.0589561   -5.7147317      642.913  0.042826606  0.042902533            4 
 1252000    1.0701965   -5.7367669    643.98025  0.042863435  0.042894653            4 
 1253000     1.053598   -5.7305955    643.43796   0.04279316  0.042886628            1 
 1254000    1.0678165   -5.7045658    642.57826  0.042701904  0.042878581            3 
 1255000    1.0484072   -5.7291133    645.17528  0.042840324  0.042870558            4 
 1256000    1.0479397   -5.7410801    647.37218  0.042951976  0.042862493            5 
 1257000    1.0519068   -5.6849374    647.42026  0.042920993  0.042854584            5 
 1258000    1.0387828   -5.7212568     646.9429  0.042855253  0.042846764            2 
 1259000     1.034031   -5.6959205     646.0605  0.042762807   0.04283862            4 
 1260000    1.0390655   -5.7472349    647.07968  0.042796275  0.042830575            3 
 1261000    1.0310396   -5.6885915    647.19003  0.042769629  0.042822768            4 
 1262000    1.0457844   -5.7089627    647.81058  0.042776716  0.042814861            5 
 1263000    1.0391541   -5.7354927    645.90587  0.042617173  0.042806681            5 
 1264000    1.0302681    -5.743059    647.58941  0.042694449  0.042798728            2 
 1265000    1.0539315   -5.7266939    647.90987   0.04268181  0.042791019            2 
 1266000       1.0338   -5.7151836    649.99654  0.042785449  0.042783306            3 
 1267000    1.0704586   -5.7119215    648.83997   0.04267561  0.042775532            4 
 1268000    1.0404101   -5.7331694     649.9847  0.042717186   0.04276778            5 
 1269000    1.0536256   -5.6968131    650.68744  0.042729672  0.042760262            2 
 1270000    1.0337946   -5.7066079    653.26736  0.042865312  0.042752629            3 
 1271000     1.056068   -5.7705508    651.38239  0.042707998  0.042744716            4 
 1272000    1.0400193    -5.712184    650.30148  0.042603608  0.042736495            3 
 1273000    1.0445292   -5.7340165    651.30395  0.042635765  0.042728382            3 
 1274000    1.0406528   -5.6850749     653.3764   0.04273786  0.042720237            5 
 1275000    1.0582038   -5.7131119    650.11453  0.042491146  0.042712047            3 
 1276000    1.0503938   -5.7545092    651.25126  0.042532083  0.042704067            3 
 1277000    1.0658776   -5.6867981    653.08171  0.042618227  0.042695963            4 
 1278000    1.0518727   -5.7004789    653.79183  0.042631183  0.042687623            2 
 1279000    1.0768201   -5.7164633    654.31483  0.042631928  0.042679741            2 
 1280000    1.0267146   -5.7424561    656.36948  0.042732388  0.042671824            3 
 1281000    1.0695689   -5.7316264    654.81459  0.042597878  0.042663677            7 
 1282000    1.0484056   -5.7222196    655.41545  0.042603708   0.04265565            3 
 1283000    1.0493284   -5.6932484     656.5278  0.042642751  0.042648119            2 
 1284000    1.0608537   -5.7208267    656.40023  0.042601261  0.042640614            3 
 1285000    1.0622003    -5.702216    659.52933  0.042771033  0.042632861            4 
 1286000     1.052316   -5.7456728    657.49479  0.042605935  0.042625404            4 
 1287000    1.0715867    -5.729893    657.80957  0.042593212  0.042617711            3 
 1288000    1.0453385   -5.7239838    658.30708  0.042592331  0.042610056            6 
 1289000    1.0453145   -5.7365615    659.16263    0.0426146  0.042602339            4 
 1290000    1.0339232    -5.709984    659.29157  0.042589894  0.042594416            4 
 1291000    1.0630258    -5.734443    658.69522  0.042518411  0.042586459            6 
 1292000    1.0565277   -5.6986286    661.91638  0.042693265  0.042578615            2 
 1293000    1.0091921   -5.7295533    659.72265  0.042518861   0.04257061            2 
 1294000    1.0556238   -5.7552438    659.65247  0.042481483  0.042562718            4 
 1295000    1.0503058   -5.7231407    662.09399  0.042605791  0.042554635            3 
 1296000    1.0360843    -5.736473    659.93903  0.042434351  0.042546477            5 
 1297000     1.043338   -5.7432053    660.67005  0.042448603   0.04253834            5 
 1298000    1.0573229   -5.7371189    660.65794  0.042415122  0.042530171            8 
 1299000     1.037844   -5.6768908    663.02239  0.042534154  0.042521964            3 
 1300000     1.032058   -5.7209188    662.26041   0.04245259  0.042513744            3 
 1301000    1.0361579   -5.7511353      662.154  0.042413144  0.042505613            5 
 1302000    1.0278682   -5.7135767    663.82447  0.042487485  0.042497195            9 
 1303000    1.0426278   -5.7314313    661.21912  0.042288253  0.042488903            4 
 1304000    1.0308586   -5.7449402    661.10765  0.042248699  0.042480574            4 
 1305000    1.0334356   -5.7411422    664.32671  0.042421885  0.042472363            5 
 1306000    1.0306599    -5.709532     663.2138  0.042318389  0.042464066            7 
 1307000    1.0297585   -5.7274479    667.15623  0.042537378  0.042455988            3 
 1308000    1.0517788   -5.7374798    665.01636  0.042368525  0.042447894            3 
 1309000    1.0484543   -5.7736802    664.76681  0.042320271  0.042439676            7 
 1310000    1.0623072   -5.7091573    667.79449  0.042480565  0.042431281            2 
 1311000    1.0416014    -5.716577    668.84041  0.042514646  0.042423676            4 
 1312000    1.0414378   -5.7231414    666.14711  0.042311173  0.042415764            2 
 1313000      1.03138   -5.7548294    665.19656  0.042218619   0.04240782            5 
 1314000    1.0232413   -5.7138238    668.98208  0.042426565  0.042399744            2 
 1315000    1.0510417   -5.7192818    669.26398  0.042412166  0.042391762            3 
 1316000    1.0545313   -5.7439477     667.9719  0.042298119  0.042383777            5 
 1317000    1.0424031   -5.7695993    668.17909  0.042279112  0.042375567            2 
 1318000    1.0324217   -5.7307311    672.12518  0.042496534  0.042367244            4 
 1319000    1.0318925   -5.6868281    669.64147  0.042307396  0.042359023            5 
 1320000    1.0532038    -5.728519    668.82038  0.042223509  0.042350924            2 
 1321000    1.0511427     -5.72748    668.25635  0.042155964  0.042342551            4 
 1322000    1.0408078   -5.7372116    669.61147  0.042209498   0.04233423            2 
 1323000    1.0248054   -5.7032471    669.90239  0.042195918  0.042325792            2 
 1324000    1.0425525   -5.7119349    671.24937  0.042248828  0.042317475            2 
 1325000    1.0329965   -5.7632832    670.10011  0.042144661  0.042308861            2 
 1326000    1.0418914   -5.7465686    671.01913  0.042170634  0.042300116            5 
 1327000     1.049547   -5.7227344    672.19027  0.042212401  0.042291549            3 
 1328000    1.0365572   -5.7142765    672.53534  0.042202268  0.042282926            5 
 1329000    1.0301726   -5.7081676    670.59547  0.042048876  0.042274349            6 
 1330000    1.0358919   -5.7646842    671.62662  0.042081868  0.042265658            3 
 1331000    1.0394253   -5.7568511    671.76399  0.042058852  0.042256989            5 
 1332000    1.0314068   -5.7328658    673.70724  0.042148851  0.042248297            2 
 1333000     1.031006   -5.7613931    671.96196  0.042008125   0.04223982            3 
 1334000    1.0307584   -5.7433873    672.08514  0.041984329  0.042231147            3 
 1335000    1.0420665   -5.7495256    672.79239  0.041997028  0.042222568            2 
 1336000     1.029167   -5.7294292    674.23432  0.042055534  0.042214009            2 
 1337000    1.0295667   -5.7476296    674.45384  0.042037761  0.042205251            5 
 1338000    1.0125194   -5.7470613    673.19905  0.041928192  0.042196453            3 
 1339000    1.0271845   -5.8052715    670.67549  0.041739824  0.042187579            3 
 1340000     1.007144   -5.7524654    673.46128   0.04188192  0.042178594            9 
 1341000    1.0434735   -5.7437859    674.41147  0.041909736  0.042169638            4 
 1342000    1.0286616   -5.7572016    676.38776  0.042001227  0.042160791            3 
 1343000    1.0341006   -5.7677523    674.64094  0.041861562  0.042151521            3 
 1344000    1.0365449   -5.7810174    674.37369  0.041813845  0.042142384            6 
 1345000    1.0030046   -5.7397627    678.06702  0.042011587   0.04213344            3 
 1346000    1.0018243   -5.7369238    675.01887  0.041791659  0.042124273            3 
 1347000     1.038488   -5.7222892    677.22406  0.041897059  0.042115287            3 
 1348000    1.0256868   -5.7317052    678.19711  0.041926132  0.042106288            2 
 1349000    1.0443258   -5.7689265    678.33806  0.041903759  0.042097251            5 
 1350000    1.0509394   -5.7655639    678.26399  0.041868148  0.042088387           11 
 1351000    1.0178728   -5.7552773    677.18897  0.041770847  0.042079483            4 
 1352000    1.0411643   -5.7783845    677.57337  0.041763645  0.042070451            3 
 1353000    1.0338998   -5.7504278    682.24011  0.042020209   0.04206188            2 
 1354000    1.0535809   -5.7585305    681.63484  0.041951923  0.042053084            7 
 1355000    1.0194787   -5.7437217    681.97228  0.041941714  0.042044422            8 
 1356000    1.0372107   -5.7422047     680.7272  0.041834268  0.042035963            4 
 1357000    1.0240075   -5.7345127    683.53002   0.04197556  0.042027182            2 
 1358000    1.0355793   -5.7580878    681.33179  0.041809756  0.042018564            2 
 1359000    1.0125992   -5.7381889     682.7377  0.041865201  0.042009807            3 
 1360000    1.0398163   -5.7235057     683.4057  0.041875349  0.042001327            2 
 1361000    1.0598525   -5.7710447    681.04654  0.041700131  0.041992673            5 
 1362000    1.0335601   -5.7816948    682.98396  0.041788054  0.041983984            4 
 1363000    1.0355149    -5.744504    682.94937  0.041755281  0.041975521            2 
 1364000    1.0219815   -5.7709343     683.6725  0.041768848  0.041966924            4 
 1365000    1.0467431   -5.7540376    685.31692   0.04183864  0.041958428            3 
 1366000    1.0387983    -5.713639    686.56268  0.041884009   0.04194982            7 
 1367000    1.0279862   -5.7560449    685.35274  0.041779611   0.04194121            5 
 1368000    1.0616006   -5.7542381    686.80523   0.04183755  0.041932651            5 
 1369000    1.0175526   -5.7723866    684.83487  0.041687051  0.041924186            2 
 1370000    1.0369317   -5.7484348    683.91976  0.041600959  0.041915298            5 
 1371000    1.0500358    -5.769501    687.44588  0.041784943  0.041906714            5 
 1372000    1.0332319   -5.7593279    686.07148  0.041671009  0.041898453            4 
 1373000    1.0164652   -5.7820235    685.80961  0.041624764  0.041889632            2 
 1374000    1.0505267   -5.7983087    687.09627  0.041672505  0.041880792            2 
 1375000    1.0479692   -5.7490924    688.98269  0.041756527  0.041871894            3 
 1376000    1.0352509   -5.7832644    686.48338  0.041574817  0.041863134            5 
 1377000     1.020439   -5.7965307    687.25748  0.041591472  0.041854213            2 
 1378000    1.0284958   -5.7660363    690.12123  0.041734472  0.041845376            7 
 1379000    1.0040353    -5.742961    690.49008  0.041726498  0.041836708            7 
 1380000    1.0403636   -5.7465005    691.72089  0.041770585  0.041827964            4 
 1381000    1.0498972   -5.7795415    688.48502  0.041545077  0.041819416            3 
 1382000    1.0306647   -5.7534526    690.13985  0.041614801  0.041810569            9 
 1383000     1.021948   -5.7298915    692.09416  0.041702468  0.041801838            6 
 1384000    1.0489921   -5.7990001    687.85836   0.04141729  0.041792984            5 
 1385000     1.037589   -5.7597079    691.03204  0.041578342  0.041784132            5 
 1386000    1.0365985   -5.7454918    691.10886  0.041552962  0.041775375            2 
 1387000    1.0341881   -5.7668922    693.35083  0.041657704  0.041766949            6 
 1388000    1.0095905   -5.7226626    693.80395  0.041654896  0.041758629            5 
 1389000    1.0106232   -5.7513062    694.83572  0.041686808  0.041749878            6 
 1390000    1.0262511   -5.7524913    691.57312  0.041461218  0.041741283            2 
 1391000    1.0167657   -5.7612249    694.36834   0.04159887  0.041732587            3 
 1392000    1.0232273   -5.7354447    691.99909  0.041427149  0.041723717            4 
 1393000    1.0217191   -5.7932671    693.07629   0.04146185  0.041714807            2 
 1394000    0.9909717   -5.7655082    691.44409  0.041334534  0.041705711            3 
 1395000    1.0171691   -5.7392557    695.46101  0.041544863  0.041696664            4 
 1396000    1.0111675   -5.7413009    696.29729  0.041565024  0.041687893            6 
 1397000     1.015471   -5.7694515    696.05701  0.041520938  0.041678731            3 
 1398000    1.0281339    -5.765932    694.96885  0.041426374   0.04166976            5 
 1399000    1.0403697   -5.7928508     693.9181  0.041334173  0.041660327            5 
 1400000    1.0352508   -5.7932422    694.16198  0.041319166  0.041650985            6 
 1401000    1.0382175   -5.7567288    696.86262   0.04145031  0.041641473            3 
 1402000    1.0245058   -5.7329981    694.22934  0.041264226  0.041632105            4 
 1403000    1.0151856   -5.7695851    694.75213  0.041265867  0.041622884            2 
 1404000    1.0123656   -5.7222486    698.53252  0.041460857  0.041613773            7 
 1405000    1.0260266   -5.7551194     697.3466  0.041361008  0.041604531            5 
 1406000    1.0294626     -5.77277    696.18537  0.041262765   0.04159533            2 
 1407000    1.0403691   -5.7596202    695.30173  0.041181102  0.041586032            4 
 1408000    1.0267975   -5.7827673    696.70467  0.041234888  0.041576487            5 
 1409000    1.0272815    -5.768814    697.78423  0.041269472  0.041567043            4 
 1410000    1.0211198   -5.7602118    697.16871  0.041203824  0.041557589            3 
 1411000    1.0315626    -5.773938    697.99696  0.041223539  0.041547866            5 
 1412000    1.0369379   -5.7856948    697.54142  0.041167458  0.041538196            7 
 1413000     1.018114   -5.7789516    698.80381  0.041212775  0.041528718            2 
 1414000     1.017638   -5.7365489     699.6536   0.04123371  0.041519022            4 
 1415000   0.99661939   -5.7587287    699.35575  0.041187029  0.041509393            5 
 1416000    1.0283737    -5.752031    699.24385  0.041151357  0.041499944            2 
 1417000    1.0336982   -5.7219756    698.66162  0.041088075  0.041490443            6 
 1418000    1.0336384   -5.7697417    702.03914  0.041257589  0.041481091            2 
 1419000    1.0328635   -5.7843339    698.31316  0.041009699  0.041471469            7 
 1420000    1.0152187   -5.7971081    698.78858   0.04100872  0.041461464            4 
 1421000    1.0367044    -5.749655    701.74917  0.041153482   0.04145173            2 
 1422000    1.0203959   -5.7621224    699.87179  0.041014521  0.041441809            4 
 1423000    1.0270954   -5.7576171    701.05178  0.041054801  0.041432037            3 
 1424000    1.0260797   -5.7708269    701.62956  0.041059782  0.041422441            5 
 1425000    1.0183081   -5.7423211    704.62459  0.041206116  0.041412989            3 
 1426000    1.0206751   -5.7922177    701.87956  0.041016805  0.041403756            4 
 1427000    1.0273565    -5.780132    704.66525  0.041150739  0.041394181            7 
 1428000    1.0331234   -5.8160053    702.09903  0.040972166  0.041384619            4 
 1429000    1.0207753     -5.77417    703.36428  0.041017278  0.041375025            2 
 1430000    1.0220841   -5.8032222    703.25608  0.040982289  0.041365349            3 
 1431000    1.0354246   -5.7696628    702.53557  0.040911692  0.041355811            4 
 1432000   0.98770349   -5.7725767    703.42201  0.040934707  0.041346103            3 
 1433000    1.0025672   -5.7942646    705.63214  0.041034667  0.041336309            3 
 1434000     1.023168   -5.7503308    704.33811  0.040930852  0.041326294            2 
 1435000     1.002821    -5.801841    702.83024  0.040814764  0.041316264            5 
 1436000    1.0255401   -5.7480321    702.42182   0.04076264  0.041306182            9 
 1437000   0.99113406   -5.7510342    703.69736  0.040808244  0.041296082            3 
 1438000    1.0433293   -5.7654689    705.50685  0.040884727  0.041285818            5 
 1439000    1.0179975   -5.7298969    706.18832   0.04089578  0.041275875            2 
 1440000    1.0386671   -5.7786115    703.25129  0.040697412  0.041265759            3 
 1441000    1.0424637   -5.8008192    705.45655  0.040796701  0.041255514            3 
 1442000     1.035601   -5.7626769    706.20175  0.040811474  0.041245342            4 
 1443000    1.0032209   -5.7781033    704.69187  0.040695996  0.041235049            2 
 1444000     1.031506   -5.8060912    705.05549  0.040688798  0.041224557            8 
 1445000    1.0167674   -5.8256923    706.50592  0.040744286  0.041214232            3 
 1446000    1.0005259   -5.7795809    704.51554  0.040601402  0.041203889            5 
 1447000    1.0217852   -5.8096875    704.54724   0.04057517  0.041193485            3 
 1448000    1.0087544   -5.8095681    706.37262  0.040652199  0.041182979            3 
 1449000    1.0416007   -5.7885538    704.68188  0.040526908  0.041172582            3 
 1450000    1.0326276   -5.7576716    707.12723  0.040639496  0.041162435            4 
 1451000    1.0040271   -5.7763807    708.51522  0.040691203  0.041152048            3 
 1452000    1.0372782   -5.7621958    709.50874  0.040720198  0.041141765            3 
 1453000    1.0037716   -5.7592147    709.13504  0.040670741  0.041131516            4 
 1454000    1.0245359   -5.7947625    707.41791  0.040544355  0.041121283            3 
 1455000    1.0223722   -5.7838718    708.66831  0.040588105  0.041110959            5 
 1456000    1.0375794   -5.7743344    711.16316   0.04070302  0.041100998            4 
 1457000    1.0259766   -5.7880751    709.80997  0.040597688  0.041090914            3 
 1458000    1.0194423   -5.7753619    707.69466   0.04044894  0.041080778            4 
 1459000    1.0158526   -5.7752264    711.10129  0.040615792  0.041070583            3 
 1460000    1.0239361   -5.7492578    711.15649  0.040591124  0.041060372            3 
 1461000    1.0176517   -5.7876762    710.72706  0.040538847  0.041050255            4 
 1462000    1.0213722   -5.8032497    710.70419  0.040509815  0.041040037            6 
 1463000     1.024967   -5.7339274     713.4373  0.040637805  0.041030146            5 
 1464000    1.0247971   -5.7499042     712.8354  0.040575786  0.041020163            3 
 1465000     1.036661   -5.7821828    715.72835  0.040712648  0.041010205            4 
 1466000    1.0159733   -5.7777568    714.42605  0.040610849  0.041000183            4 
 1467000    1.0104254   -5.7644644    713.54947  0.040533372  0.040990315            3 
 1468000    1.0174624   -5.7928332    713.81176   0.04052065  0.040980456            5 
 1469000    1.0058959   -5.7902633    713.53497  0.040477364    0.0409703            4 
 1470000    1.0167029   -5.7876983    715.15892  0.040541889  0.040960165            4 
 1471000    1.0059739    -5.787816    713.23706  0.040405453  0.040950151            4 
 1472000     1.020647   -5.7856814    715.33032  0.040496508  0.040940031            3 
 1473000    1.0127811   -5.8220609    715.56794  0.040482459  0.040929736            3 
 1474000    1.0224226   -5.8082407    714.82819  0.040413172  0.040919567            3 
 1475000    1.0256547   -5.7961438      716.615  0.040486723  0.040909571            4 
 1476000     1.038366   -5.7866915    716.50867   0.04045329  0.040899637            3 
 1477000    1.0087464   -5.7240988    719.42458  0.040590419  0.040889929            6 
 1478000    1.0220766   -5.8289956    715.23945  0.040326988  0.040880079            4 
 1479000    1.0146766   -5.7598292     718.1837  0.040465613  0.040869885            4 
 1480000     1.039775   -5.7747183     718.1815  0.040438148  0.040859919            4 
 1481000    1.0246383    -5.790984    717.98217  0.040399627  0.040849962            6 
 1482000    1.0145477   -5.8108203    716.80364  0.040306097  0.040840029            5 
 1483000    1.0231143   -5.7924614    716.36082  0.040254036  0.040829611            2 
 1484000   0.98650962   -5.8306825    716.66325  0.040243893  0.040819412            3 
 1485000    1.0117574   -5.8261977     718.8226  0.040337969  0.040809172           15 
 1486000    1.0148454   -5.8190774     717.9181    0.0402601  0.040798865            3 
 1487000    1.0141299   -5.8014686    718.91794  0.040289057  0.040788913            6 
 1488000     1.014494   -5.8018837    720.31006  0.040339945  0.040779069            4 
 1489000    1.0345806   -5.7849486    718.95317  0.040236913  0.040768915            7 
 1490000    1.0127488    -5.774833    724.12717  0.040499282  0.040758887            3 
 1491000   0.99685499   -5.8177171    719.60076  0.040219135   0.04074883            2 
 1492000    1.0084033   -5.8533326    717.27461  0.040062255  0.040738538            3 
 1493000    1.0182494   -5.8433295    720.62477  0.040222414  0.040728111            8 
 1494000    1.0168185   -5.8261419    718.81134   0.04009434  0.040717478            3 
 1495000    1.0171121   -5.7980519    720.67228  0.040171253   0.04070714            2 
 1496000    1.0178143   -5.8097779    722.06602  0.040222037  0.040696757            5 
 1497000    1.0152326   -5.7694213    721.99381  0.040191149  0.040686658            6 
 1498000    1.0337295   -5.8069692    721.74217  0.040150321  0.040676522            3 
 1499000    1.0083174   -5.7997134    722.71997  0.040177895  0.040666398            5 
 1500000    1.0204464   -5.8013519    722.28242  0.040126801  0.040656367            5 
 1501000    1.0106898   -5.8065379    722.34302  0.040103432  0.040646076            2 
 1502000   0.98675919   -5.7554899     726.2806  0.040295195  0.040635929            2 
 1503000    1.0251093   -5.8123772    723.47021  0.040112564  0.040625841            3 
 1504000    1.0228539    -5.797675    726.42143  0.040249414  0.040616157            3 
 1505000    1.0224302   -5.8012118    726.37331  0.040220006  0.040606267            5 
 1506000     1.014094    -5.825918    725.12759  0.040124368  0.040596268            5 
 1507000    1.0035807   -5.8465149     723.3945  0.040001907  0.040586134            3 
 1508000    1.0111516   -5.7987198    725.98915  0.040118764  0.040575966            9 
 1509000    1.0356631   -5.7976122      726.612  0.040126574  0.040566147           12 
 1510000    1.0308331   -5.7667445    728.76019  0.040218554  0.040556277            5 
 1511000     1.022003   -5.8315989    728.20565  0.040161353  0.040546427            3 
 1512000   0.99794238   -5.8281774    726.88253  0.040061868  0.040536485            3 
 1513000    1.0190449   -5.7896118    727.03172  0.040043606  0.040526557            2 
 1514000    1.0247154   -5.7867776    726.80571  0.040004718  0.040516869            8 
 1515000   0.99983189   -5.8215308    726.87785   0.03998228   0.04050709            4 
 1516000    1.0044096   -5.7941482    728.32387  0.040035393   0.04049688            5 
 1517000    1.0119258   -5.7747983     730.7429  0.040141886  0.040487013            4 
 1518000    1.0251893    -5.790946    727.41864  0.039932951  0.040476916            3 
 1519000    1.0025042    -5.815909    732.05405  0.040160964  0.040466894            2 
 1520000    1.0259576   -5.8255772    727.63861  0.039892468  0.040456765            2 
 1521000    1.0156187   -5.8023151    730.75287  0.040036865  0.040446708            4 
 1522000    1.0226563   -5.7960246    730.55052  0.039999481  0.040436528            3 
 1523000    1.0166669   -5.8283031    729.56682  0.039919392  0.040426491            6 
 1524000    1.0078202   -5.8123969    732.08799  0.040031058  0.040416329            4 
 1525000    1.0063176   -5.8050164    731.85901  0.039992295  0.040406354            5 
 1526000    1.0050228   -5.8250285     732.2715  0.039988614  0.040396233            2 
 1527000    1.0210877   -5.8118772    729.39227  0.039805297  0.040386064            5 
 1528000    1.0331284   -5.8031647    730.99595  0.039866707  0.040375979            2 
 1529000     1.023729   -5.7964037    733.53128  0.039978814  0.040365839            4 
 1530000    1.0267865   -5.7976483    731.44335  0.039838962   0.04035581            4 
 1531000    1.0135764   -5.8011027    733.26757  0.039912234  0.040345669            2 
 1532000    1.0008983   -5.8200971    731.81291  0.039807055  0.040335355            4 
 1533000    1.0130394   -5.8000184     732.8515  0.039837546  0.040325108            3 
 1534000    1.0103088    -5.791992    733.77845  0.039861932  0.040315002            3 
 1535000    1.0110292   -5.8316082    733.30861  0.039810456  0.040304912            7 
 1536000    1.0217951   -5.8138135    733.45315   0.03979238  0.040294447            4 
 1537000    1.0007607   -5.8211181    732.78702  0.039730374  0.040284291            4 
 1538000    1.0106739   -5.8029829    734.21506  0.039781917  0.040273904            5 
 1539000   0.96278731   -5.7969265    734.06061  0.039747705  0.040263568            6 
 1540000   0.99700487   -5.8356259    734.99268  0.039772331  0.040253277            3 
 1541000   0.99741989   -5.8115252    734.39156  0.039714015  0.040242851            4 
 1542000    1.0037434   -5.8340343    734.11611  0.039673374  0.040232398            3 
 1543000   0.97993886   -5.8251995    736.20555  0.039760507  0.040222105            4 
 1544000    1.0018205   -5.7973579    735.58044  0.039701017  0.040211675            4 
 1545000    1.0141149   -5.7989297    736.34883  0.039716765  0.040201346            5 
 1546000    1.0077236   -5.8159132      737.676  0.039762613  0.040191094            5 
 1547000    1.0069814   -5.8244675    735.96411  0.039644695  0.040180553            5 
 1548000   0.99874533    -5.829095    736.54806   0.03965052   0.04017033            2 
 1549000    1.0082551   -5.8028881    737.97838  0.039701871  0.040159917            3 
 1550000   0.99318903    -5.840539    735.96639  0.039568085  0.040149354            3 
 1551000   0.99248506   -5.8230143    737.31058  0.039614796  0.040138781            6 
 1552000    1.0040465   -5.8151158    738.11668  0.039632554  0.040128537            4 
 1553000    1.0052717   -5.7782444    743.25509  0.039882759  0.040118265            4 
 1554000    1.0231568   -5.8285698    736.06241  0.039471386  0.040107747            3 
 1555000    1.0262465   -5.8379091    736.16862  0.039451695  0.040097179            4 
 1556000   0.99029483   -5.8287971    737.31899  0.039487949   0.04008652           12 
 1557000   0.99737601   -5.8546285    738.23583  0.039511658   0.04007599            3 
 1558000    1.0229895   -5.8088798    738.47894  0.039499302  0.040065487            2 
 1559000    1.0065091   -5.8457787    738.84155  0.039493348  0.040055026            6 
 1560000    1.0235243   -5.8261173    739.41575  0.039498705  0.040044515            3 
 1561000    1.0064071   -5.8231907    742.89996  0.039659404  0.040034218            5 
 1562000    1.0091354   -5.8363061    741.07853   0.03953684  0.040023963            3 
 1563000    1.0017857   -5.8407733    740.97671  0.039506116  0.040013477            7 
 1564000   0.98717672   -5.8676768    741.13967  0.039489539  0.040003185            4 
 1565000   0.99892005    -5.835461    743.59056  0.039594811  0.039992821            8 
 1566000   0.99853356   -5.8110482    745.55083  0.039673841  0.039982675            3 
 1567000   0.99871488     -5.82365    745.16577  0.039628046  0.039972765            4 
 1568000    1.0040137   -5.8379364    744.77317  0.039581907  0.039962784            4 
 1569000   0.99857902    -5.833119    746.80339   0.03966451   0.03995273            3 
 1570000     1.005623   -5.8151179    747.80725  0.039692529  0.039942994            4 
 1571000    1.0058606   -5.8317553    747.70171  0.039661665  0.039933194            2 
 1572000    1.0123014   -5.8461057    743.01598   0.03938804  0.039923343            4 
 1573000    1.0080013   -5.8154039    748.71606  0.039664974  0.039913489            5 
 1574000    1.0146387   -5.8252421    748.13455  0.039608987  0.039903773            5 
 1575000   0.98647598   -5.8223206    745.17989  0.039427507  0.039894006            7 
 1576000   0.98166681   -5.8173414    748.04518  0.039553997  0.039884266            6 
 1577000    1.0012263    -5.812083    749.00881  0.039579836  0.039874656            4 
 1578000    1.0065567   -5.8433998    749.34192  0.039572345  0.039865139            3 
 1579000   0.99093854   -5.8576712    748.60606  0.039508447  0.039855482            5 
 1580000   0.98489689   -5.7975449    750.34839  0.039575337  0.039845905            6 
 1581000   0.99601635   -5.8399402     748.1173  0.039432706  0.039836099            2 
 1582000    1.0123895   -5.8408649    751.19242  0.039569765  0.039826295            4 
 1583000    1.0057665    -5.851684    749.23716  0.039441838  0.039816497            5 
 1584000    1.0080428    -5.841383     751.2269  0.039521617  0.039806997            5 
 1585000    1.0065041   -5.8173707    750.84012  0.039476347  0.039797075            5 
 1586000    1.0119255   -5.8380685    751.54418   0.03948845  0.039787493            3 
 1587000   0.98789431   -5.7989546     754.9595  0.039642906  0.039777923            5 
 1588000    1.0001508   -5.8165218    753.55663  0.039544324  0.039768552            6 
 1589000   0.99052442   -5.8573702    752.19717  0.039448142  0.039758909            2 
 1590000   0.98052362   -5.8882672    751.91816  0.039408709  0.039749206            2 
 1591000    1.0111477   -5.8285513    754.39154   0.03951349  0.039739637            4 
 1592000   0.98335978   -5.8323684    755.43643  0.039543364  0.039730317            3 
 1593000    1.0087023   -5.7918267    756.39238  0.039568549  0.039721013            4 
 1594000   0.98501065   -5.8705774    752.60096  0.039345512  0.039711447            3 
 1595000    1.0184723   -5.8657661    753.69435   0.03937797  0.039701741            5 
 1596000    0.9954845   -5.8585143    755.78762  0.039462595  0.039692102            6 
 1597000   0.98559481   -5.8466696    754.46321  0.039368775  0.039682453            5 
 1598000    1.0140577   -5.8354903    759.35687  0.039599336  0.039672906            4 
 1599000     1.004827   -5.8785409    753.62508  0.039275854  0.039663275            8 
 1600000   0.99662915   -5.8544861    754.47616  0.039295633  0.039653669            6 
 1601000   0.99938957   -5.8340469    756.40299  0.039371382  0.039644076           12 
 1602000   0.99687304   -5.8295856    756.29587  0.039341233   0.03963443            2 
 1603000   0.98424969   -5.8422182    758.57475  0.039435161  0.039624872            5 
 1604000    1.0001983   -5.8398501    759.92946  0.039480957  0.039615555            4 
 1605000   0.99467012    -5.863244    757.44763  0.039327499  0.039606248            6 
 1606000    1.0040838   -5.8478137    757.30016  0.039295359   0.03959687            2 
 1607000   0.96689165   -5.8222279     759.5896  0.039389629  0.039587509            4 
 1608000   0.99594534   -5.8465694    759.28236   0.03934921  0.039578067            4 
 1609000    1.0032954   -5.8673365    756.47113  0.039179155  0.039568386            6 
 1610000    1.0052072   -5.8212658    761.23506  0.039401401  0.039558792            8 
 1611000    1.0106142   -5.8286899    759.87747  0.039306718  0.039549341            2 
 1612000    1.0127608    -5.861076    762.04113  0.039394186  0.039540164            1 
 1613000   0.99579577   -5.8313376    760.55192  0.039292825  0.039530805            4 
 1614000   0.97157261   -5.8698114    758.40146  0.039157449  0.039521314            3 
 1615000   0.99921325   -5.8200549    761.87862  0.039312622  0.039511931            3 
 1616000   0.98124606   -5.8741606    759.99074  0.039190942  0.039502534            4 
 1617000    1.0263127   -5.8541303    761.10171  0.039223959    0.0394929            4 
 1618000   0.95436063   -5.8469685    762.07565  0.039249879  0.039483425            4 
 1619000   0.98627161   -5.8317949    763.12623  0.039279711  0.039474089            5 
 1620000   0.99469914   -5.8581211    763.26137  0.039262416  0.039464783            3 
 1621000    1.0079656     -5.84901    762.50986  0.039199561  0.039455437            4 
 1622000    1.0016455   -5.9029409    761.25947  0.039111153  0.039445968            8 
 1623000    1.0141029   -5.9094712    762.34661  0.039142874   0.03943636            3 
 1624000   0.98237692    -5.832594    764.46057  0.039227246  0.039426902            5 
 1625000    1.0016947   -5.8679696    761.90821  0.039072216  0.039417494            5 
 1626000    1.0024991   -5.8707771    763.88199  0.039149343  0.039407953            4 
 1627000   0.97163524    -5.837785    763.83121   0.03912268  0.039398697            4 
 1628000    1.0046808   -5.8415054    766.45456  0.039232932    0.0393893            6 
 1629000   0.96621315   -5.8637533    764.66926  0.039117519  0.039380112            6 
 1630000   0.98708363   -5.8710239    764.55484  0.039087671  0.039370676            8 
 1631000   0.99521119   -5.8570304     765.9303  0.039133982  0.039361241           10 
 1632000    1.0203792   -5.8396972    771.05684  0.039371775  0.039352057            5 
 1633000    1.0125892   -5.8610711    764.96466  0.039036776   0.03934271            6 
 1634000   0.98445945   -5.8642643    767.07643  0.039120585    0.0393336            6 
 1635000   0.96699877   -5.8614586     767.2247  0.039104215  0.039324254            3 
 1636000   0.99227623   -5.8520852    769.46102  0.039194225  0.039315017            3 
 1637000     0.994755   -5.8473468    768.48085  0.039120385  0.039305714            3 
 1638000   0.96840974   -5.8371698    768.25943  0.039085237  0.039296622            5 
 1639000   0.98984634   -5.8353624    767.22052  0.039008568  0.039287402           10 
 1640000   0.98027813   -5.8246497     771.2432  0.039189187   0.03927811            3 
 1641000   0.99159574   -5.8586961    767.85488   0.03899324   0.03926885            6 
 1642000   0.98343431   -5.8606476    770.38904  0.039098104  0.039259623            3 
 1643000    0.9904668   -5.8897346    769.05484  0.039006636  0.039250223            4 
 1644000   0.99451398   -5.9017173    768.54531  0.038957082  0.039240869            3 
 1645000    0.9823265   -5.8203769    772.39123  0.039128229  0.039231602            6 
 1646000   0.98136432   -5.8461631     772.5996  0.039115006  0.039222601            4 
 1647000   0.99204809   -5.8839268    769.77619  0.038948401  0.039213307            9 
 1648000   0.98949515   -5.8342268    771.57318  0.039015634  0.039203974            5 
 1649000   0.98056001   -5.8546603    772.49325   0.03903847  0.039194944            3 
 1650000    1.0018933   -5.8728654    772.74013  0.039027279  0.039185603            4 
 1651000    1.0159403   -5.8399568    770.73416   0.03890239  0.039176214            5 
 1652000   0.99914464   -5.8605545    772.10133  0.038947807  0.039166818            6 
 1653000     0.975897   -5.8039355    775.50087  0.039095627  0.039157832            7 
 1654000   0.99816303   -5.8622162    772.96382  0.038944167  0.039148709            3 
 1655000   0.96737462   -5.8541894    775.12113  0.039029261  0.039139453            3 
 1656000   0.99369684   -5.8614621    773.17309  0.038907664  0.039130174            8 
 1657000    1.0034772   -5.8235314    774.53749  0.038952801  0.039120904            3 
 1658000    1.0234625   -5.8689158    774.83588  0.038944304  0.039111757            5 
 1659000   0.98972345   -5.8718628    776.33229  0.038995996  0.039102502            3 
 1660000   0.98345131   -5.8903411    774.23488  0.038867213  0.039093374            5 
 1661000   0.97047449   -5.8453426    780.01632  0.039133871  0.039084133            2 
 1662000   0.97819997   -5.8598532     777.5155  0.038984933  0.039075167            5 
 1663000   0.98016725   -5.9050792    774.09553  0.038790115  0.039065887            2 
 1664000   0.98865816   -5.8467577    778.18179  0.038971444  0.039056751            4 
 1665000   0.97259893    -5.872216    777.58044   0.03891794  0.039047625            3 
 1666000   0.99464699   -5.8928823    777.64851  0.038897985  0.039038409            5 
 1667000   0.97483749   -5.8297048    778.77623  0.038931025  0.039028986            3 
 1668000   0.99907214   -5.8397268    778.11792  0.038874796  0.039019815           10 
 1669000    1.0068147   -5.8737308    779.01698  0.038896394  0.039010713            3 
 1670000   0.98135583   -5.8556819    777.55476  0.038800138  0.039001655            4 
 1671000   0.97216649   -5.8408192    777.06748  0.038752617  0.038992266           10 
 1672000   0.99136881   -5.8370382    779.24975  0.038838205  0.038983019            9 
 1673000   0.97991271   -5.8933789    778.17165  0.038761289   0.03897396            2 
 1674000   0.98007616   -5.8684802    778.91034  0.038774907  0.038964629            3 
 1675000   0.97420189   -5.8687822    778.25946  0.038719376  0.038955362            3 
 1676000   0.95795266   -5.8798042    776.32233  0.038599957  0.038945717            3 
 1677000    1.0090864   -5.8622248    778.65147  0.038692679   0.03893633            8 
 1678000   0.99004532   -5.8473227    777.86751  0.038630687  0.038927086            2 
 1679000   0.98140165   -5.8524876    778.91529  0.038659683  0.038917872            3 
 1680000   0.95200516   -5.9192841    780.76326  0.038728336  0.038908349            4 
 1681000   0.99736403   -5.8538807    782.57453  0.038795089  0.038898889            4 
 1682000    1.0060139   -5.8604434    783.63529  0.038824578  0.038889578            3 
 1683000   0.97710092   -5.8270017    783.14094  0.038777032  0.038880401            2 
 1684000    1.0042492    -5.870009    778.91891  0.038545077  0.038871125            7 
 1685000   0.97432695   -5.8472903    782.18911  0.038683932  0.038861727            3 
 1686000   0.98577446   -5.8689558    781.59529  0.038631638  0.038852362            3 
 1687000   0.98894819   -5.8677318    781.95453  0.038626483  0.038842951            3 
 1688000   0.97790366   -5.8653619    782.70367  0.038640584   0.03883337            3 
 1689000   0.98172808   -5.8648959    783.30398  0.038647325  0.038823781            2 
 1690000    0.9900098   -5.8909426    781.42596  0.038531852  0.038814004           11 
 1691000   0.99074475   -5.8808033    783.23572  0.038598251  0.038804442            2 
 1692000   0.96074809   -5.8810583    782.47612  0.038538028  0.038794863            7 
 1693000   0.98987377   -5.8740472    781.64849  0.038474527   0.03878528            3 
 1694000    0.9684703   -5.8639237    781.60682  0.038449765  0.038775677            3 
 1695000    0.9791452   -5.8438202    782.73448  0.038482521   0.03876629            6 
 1696000   0.98051877   -5.8579683    784.97362  0.038569851  0.038756909            3 
 1697000   0.97046234   -5.8649289     782.2822  0.038414958  0.038747311            4 
 1698000   0.99042781     -5.87342    782.45073  0.038400605  0.038737732            5 
 1699000   0.98527928   -5.8945979    785.40498  0.038522905  0.038728189            3 
 1700000    0.9859278   -5.8750802    784.88715   0.03847486  0.038718593            9 
 1701000   0.97295947   -5.8830727    785.09777   0.03846256  0.038709016            6 
 1702000   0.96986336   -5.8832417     787.4973  0.038557447  0.038699494            4 
 1703000   0.98663327   -5.8517277    784.15947  0.038371475  0.038690046            3 
 1704000   0.97859714   -5.8736774    785.76376  0.038427414  0.038680654            3 
 1705000   0.97937952   -5.8920284    785.77941  0.038405641  0.038671082           12 
 1706000   0.99650207   -5.8526505    788.18885  0.038500823  0.038661598            5 
 1707000   0.97844791   -5.8598548     788.7977  0.038507992  0.038652257            3 
 1708000   0.97026677   -5.9011672    784.76537  0.038288709  0.038642489            3 
 1709000   0.97110424   -5.9041355    787.25258  0.038387585  0.038632881            6 
 1710000   0.96331406   -5.8968067    786.47058  0.038327026  0.038623257            4 
 1711000   0.98771283   -5.8892661    786.00626  0.038282011  0.038613505            6 
 1712000   0.99013028    -5.879837    786.34114  0.038275951  0.038603739            3 
 1713000    0.9679457   -5.8717514    786.46547  0.038259655  0.038594163            4 
 1714000   0.97546222   -5.8479349    789.59134   0.03838931  0.038584439            6 
 1715000   0.97883097   -5.8643545    787.38361  0.038259651  0.038574825            3 
 1716000   0.97774462   -5.8659311    788.22195  0.038278067  0.038565242            4 
 1717000    0.9756807    -5.925958    784.94665  0.038096809  0.038555316            6 
 1718000    0.9892479   -5.8826153    786.03395  0.038127374  0.038545546            5 
 1719000    0.9780471    -5.869219    787.62448    0.0381823   0.03853572            3 
 1720000   0.96380554   -5.8884094    787.86238  0.038171627  0.038525934            3 
 1721000   0.97090336   -5.8892555    787.38402  0.038126284  0.038516093            3 
 1722000   0.96030054   -5.8744469    789.15201  0.038189702  0.038506211           11 
 1723000   0.99639684   -5.9140812    786.17893  0.038023744  0.038496316            4 
 1724000   0.98160708    -5.863963    793.06496   0.03833454  0.038486644            8 
 1725000   0.97340249   -5.8600771     789.1993   0.03812557  0.038476917            5 
 1726000   0.99473895   -5.8787463    788.67212  0.038078028  0.038467057            9 
 1727000   0.98294286   -5.8512871    792.69484  0.038250089   0.03845729            6 
 1728000   0.97514396   -5.8984264     789.8754  0.038091985  0.038447506            6 
 1729000   0.97817409    -5.868741    793.04895  0.038222911  0.038437812            3 
 1730000   0.95598188   -5.8659325    792.92054  0.038194631  0.038428203            5 
 1731000   0.99184817   -5.8718104    791.25668  0.038092465  0.038418657            4 
 1732000   0.96429966   -5.8745957    792.80787  0.038145106  0.038409013            4 
 1733000   0.99278994   -5.9302801    790.80542  0.038026804  0.038399356            5 
 1734000   0.96956971    -5.883869    794.53066  0.038183903  0.038389532            9 
 1735000   0.97284566   -5.8650706    792.90417  0.038083774  0.038379845            3 
 1736000   0.96557838   -5.8740435    795.29048  0.038176386  0.038370174            5 
 1737000   0.98962399   -5.9128316    791.89911  0.037991705  0.038360608            5 
 1738000    0.9544182   -5.8634287    796.79445  0.038204567  0.038351193            3 
 1739000   0.99947199   -5.9254822    791.34659  0.037921535  0.038341509            6 
 1740000   0.97910304   -5.8946595     792.9613  0.037977074  0.038331801            8 
 1741000   0.96559941   -5.8832444    793.29026  0.037971006  0.038322234            9 
 1742000   0.95668909   -5.8912368    793.85741   0.03797634  0.038312493            4 
 1743000   0.96608371   -5.9090274    796.25623   0.03806924  0.038302695            2 
 1744000   0.97374983   -5.8672765    796.57052  0.038062429  0.038292915            4 
 1745000   0.98322055   -5.8985675    794.92678  0.037962119  0.038283154            2 
 1746000   0.95163075   -5.8921048    795.79207  0.037981676  0.038273393            7 
 1747000   0.96415135   -5.8742456    797.08316   0.03802152  0.038263738            6 
 1748000    0.9920987   -5.8372674    798.12387  0.038049384  0.038254173            3 
 1749000   0.98824294   -5.8610836    796.65785  0.037957778  0.038244505            5 
 1750000   0.96605973   -5.9054358    795.04708  0.037859385  0.038234748            5 
 1751000   0.97980303   -5.9190988    795.33625  0.037851525   0.03822477            3 
 1752000   0.98604468   -5.9044915     793.7601  0.037754951  0.038214875            6 
 1753000   0.95974314    -5.875356    799.59203   0.03801065  0.038204887            3 
 1754000   0.97844887   -5.8879973    795.86452  0.037811883  0.038194914            3 
 1755000   0.96950245   -5.8701863    800.07053  0.037990053  0.038185226            2 
 1756000   0.96054655   -5.8953598    799.09596   0.03792217  0.038175397            5 
 1757000   0.98499241   -5.9084114    797.86741  0.037842317  0.038165583            3 
 1758000   0.97284351    -5.902287    800.54338  0.037947638  0.038155869            3 
 1759000   0.95565059   -5.8821134    800.94088  0.037944897  0.038146178            4 
 1760000   0.97438862   -5.8713752    801.09647  0.037930704  0.038136619            4 
 1761000   0.96754679   -5.8874314    799.81486  0.037848517   0.03812716            3 
 1762000   0.96170276   -5.9239999    802.48834  0.037953478  0.038117443            5 
 1763000   0.97052948   -5.9037452    801.74127  0.037896638  0.038107827            3 
 1764000   0.97682348   -5.8754245    802.12103  0.037893095  0.038098387            5 
 1765000   0.96102995   -5.9112118    801.38136  0.037836702  0.038088881           10 
 1766000   0.94053285   -5.9096232    802.30196  0.037858718  0.038079403            5 
 1767000   0.94920422    -5.877471    802.78421  0.037860036  0.038069806            7 
 1768000   0.97482542   -5.8639154    802.37417  0.037819295   0.03806037            3 
 1769000   0.96303556   -5.9131218    801.67934  0.037765184  0.038050948            3 
 1770000   0.98684336   -5.9101257    800.92551  0.037708357  0.038041346            4 
 1771000   0.95194097   -5.9549004     801.4913  0.037713688  0.038031645            5 
 1772000   0.97489289   -5.9438516    800.45137  0.037643499  0.038022002            4 
 1773000   0.96471761   -5.9017605    802.41941  0.037714768  0.038012453            6 
 1774000   0.99776966   -5.9065196    803.26656  0.037733303   0.03800291            7 
 1775000   0.95231306   -5.9038781    804.57521  0.037773484  0.037993456            5 
 1776000   0.97564602   -5.9236278    805.95616  0.037817012  0.037983949            2 
 1777000   0.93886225   -5.9107365    807.57097  0.037871458  0.037974626            5 
 1778000   0.98321831   -5.9096716    805.54227  0.037755074   0.03796516            3 
 1779000   0.97823428   -5.8928178    806.01133  0.037755824  0.037955857            2 
 1780000   0.96717986     -5.87887    807.36969  0.037798206  0.037946464            3 
 1781000   0.96730454   -5.8993433    805.11334  0.037671408  0.037937048            2 
 1782000   0.92797062    -5.944503    805.90409  0.037687247  0.037927325            2 
 1783000   0.95655197   -5.9432863    806.14085  0.037677176  0.037917717            6 
 1784000   0.94126313   -5.8969881    806.29415  0.037663217  0.037908188            4 
 1785000   0.98896567   -5.9114521    805.37088  0.037599014  0.037898596            2 
 1786000   0.96011572    -5.919001    807.61623  0.037682728   0.03788887            3 
 1787000   0.97047263   -5.8625152    809.60296  0.037754288   0.03787935            3 
 1788000   0.94146263   -5.9332893    807.56228  0.037638063   0.03786969            6 
 1789000   0.95692181   -5.8773579    808.93648  0.037681036  0.037860098            5 
 1790000   0.96660906   -5.9341814    805.00345  0.037476883  0.037850445            2 
 1791000   0.97342154   -5.8916535    805.55408  0.037481578   0.03784081            8 
 1792000   0.97552479   -5.9401402    807.24673  0.037539375  0.037831222            6 
 1793000   0.94922249   -5.8951319    808.26692  0.037565854  0.037821569            4 
 1794000   0.97529631   -5.9425885    806.01752  0.037440427  0.037811761            4 
 1795000   0.95543978   -5.9245638    809.60399  0.037586072  0.037802105            4 
 1796000   0.98333477   -5.9460709     809.9929  0.037583189  0.037792568            4 
 1797000   0.95504784   -5.8942402    813.23117  0.037712445  0.037783042            2 
 1798000    0.9847251    -5.895209    812.36116  0.037651147  0.037773636            2 
 1799000   0.95388484   -5.9383521    809.96854  0.037519387  0.037764242            6 
 1800000   0.95927385   -5.8939442    812.83361  0.037631186  0.037754851            4 
 1801000   0.98844017    -5.902751    810.12987  0.037485187  0.037745386            5 
 1802000   0.96454982   -5.9394931    810.50463  0.037481716  0.037735871            3 
 1803000   0.95734985   -5.8909799    809.73297  0.037425262  0.037726225           12 
 1804000   0.96953297   -5.8975498     812.4317   0.03752918  0.037716697            4 
 1805000   0.96253388   -5.9194855    810.13629  0.037402414  0.037707232            3 
 1806000   0.94671754   -5.9423278    811.78066  0.037457579  0.037697723            2 
 1807000   0.97672745    -5.921594    811.81869  0.037438604  0.037688255            5 
 1808000     0.935545   -5.9302657    814.12754  0.037524315  0.037678837            4 
 1809000   0.95355578   -5.9113323    814.99033  0.037543317  0.037669255            5 
 1810000   0.95067217   -5.9322261    810.91346  0.037334874  0.037659613            2 
 1811000   0.95761989   -5.9200663    816.55942  0.037574058  0.037650076            4 
 1812000   0.97291481   -5.9247706    811.29123  0.037311039  0.037640728            3 
 1813000   0.96985606   -5.9331889     813.9753  0.037413831  0.037631413            6 
 1814000   0.95805014   -5.9133278    815.16956  0.037448069  0.037622037            8 
 1815000   0.97873082   -5.9040113    816.29748  0.037479223  0.037612587            2 
 1816000   0.98295422   -5.9016115    814.94327  0.037396442  0.037603142            3 
 1817000   0.96187209   -5.9517597    814.38705  0.037350351  0.037593629            2 
 1818000    0.9513661   -5.9295609      814.754  0.037346626  0.037583976            6 
 1819000   0.96830947   -5.9017366     817.7534  0.037463506  0.037574506            6 
 1820000   0.93799534   -5.9110421    815.18212  0.037325188  0.037565058            4 
 1821000   0.95969758   -5.8985117    816.28814  0.037355306  0.037555603            3 
 1822000   0.96285889   -5.9180416    817.09039  0.037371496  0.037546042            3 
 1823000   0.95888691   -5.9349313    817.04234    0.0373488  0.037536487            6 
 1824000   0.95962499    -5.936043    816.77555  0.037316135  0.037526756            8 
 1825000   0.96309956   -5.9283051    815.06594  0.037217623  0.037517262            5 
 1826000   0.94196056   -5.9091608    816.88894  0.037280437  0.037507754            3 
 1827000   0.97069744   -5.8714768    819.36655  0.037373041   0.03749835            4 
 1828000   0.96700501   -5.9407332    816.76187  0.037233856  0.037489005           10 
 1829000   0.95154516   -5.9463941    815.91059  0.037174712  0.037479604            3 
 1830000   0.95667795   -5.9257456     817.3435  0.037219649  0.037470082            4 
 1831000   0.95028888   -5.9282591    817.01156  0.037184214  0.037460684            3 
 1832000   0.94426082   -5.9491697    816.40106  0.037136147  0.037451189            4 
 1833000   0.94211298   -5.9349281    821.36553  0.037341586  0.037441588            5 
 1834000   0.94807116   -5.9609852    818.12251  0.037173869  0.037432051            8 
 1835000   0.98313101   -5.9145769    820.36553  0.037255474  0.037422571            6 
 1836000   0.94555613   -5.9751693    818.08372  0.037131614  0.037412988            4 
 1837000   0.95839376   -5.9462262     817.9035  0.037103226  0.037403438            4 
 1838000   0.97459378   -5.9241569    822.43973  0.037288707  0.037394017            2 
 1839000   0.98122812   -5.9501207    820.73687  0.037191266  0.037384519            3 
 1840000   0.95380618   -5.9238842    822.97653  0.037272488   0.03737513            6 
 1841000   0.95331759   -5.9579733    819.85436  0.037110916  0.037365795            3 
 1842000   0.94671688    -5.901358    821.42812  0.037161967  0.037356259            6 
 1843000   0.96591167   -5.9337792    819.75257  0.037066041     0.037347            4 
 1844000   0.96414877   -5.9642579    820.93536  0.037099393   0.03733751            6 
 1845000    0.9689742   -5.9383832    821.60485  0.037109524  0.037327998            7 
 1846000   0.93521766   -5.9560783    822.02652  0.037108456  0.037318501            6 
 1847000   0.94489808   -5.9290067    824.74488  0.037211013  0.037309093            3 
 1848000   0.96357316   -5.9438461    824.06805  0.037160356  0.037299641            5 
 1849000   0.93402687   -5.9480982    822.30851  0.037060957  0.037290345            5 
 1850000   0.95029787   -5.9461033    823.86466  0.037111021  0.037280937            4 
 1851000   0.96238881   -5.9223911      824.363  0.037113407  0.037271661            2 
 1852000   0.93709242   -5.9175818    824.86143  0.037115795  0.037262342            8 
 1853000   0.93876598   -5.9201839     825.8591  0.037140632  0.037253159            6 
 1854000   0.97388958   -5.9120101    824.86049  0.037075714  0.037243878            5 
 1855000   0.96219457   -5.9344071    825.41821  0.037080782  0.037234645            3 
 1856000   0.94111095    -5.977461    824.54743  0.037021706  0.037225221            5 
 1857000   0.94366917   -5.9141561    825.85467  0.037060432  0.037215787            9 
 1858000   0.96272943   -5.9295673    824.73094  0.036990085  0.037206367            5 
 1859000   0.97368792   -5.9419166     827.3883  0.037089309  0.037197107            4 
 1860000   0.97847922   -5.9787117     824.8121  0.036953947  0.037187665            5 
 1861000   0.95037749   -5.9659682    825.05206  0.036944835  0.037178227           10 
 1862000   0.94603912   -5.9555389    825.04064  0.036924483  0.037168693            8 
 1863000    0.9474134   -5.9354576    826.24757   0.03695865   0.03715948            4 
 1864000   0.95559272   -5.9281984    828.37675   0.03703401  0.037150414            4 
 1865000   0.94610603   -5.9402308    831.17186  0.037139047  0.037141305            6 
 1866000   0.95792498   -5.9486917    828.45576  0.036997846  0.037132102            6 
 1867000   0.97052962   -5.9752604    830.03206  0.037048387  0.037122956            2 
 1868000   0.95290893   -5.9387631    826.13219  0.036854577   0.03711368            3 
 1869000   0.95277168    -5.952689    826.21281  0.036838453  0.037104331            3 
 1870000   0.93169866   -5.9230629    829.09391  0.036947144  0.037095065            2 
 1871000    0.9723422   -5.9182615    830.99966  0.037012278  0.037085781            2 
 1872000   0.95525569   -5.9104468    831.32141  0.037006829  0.037076548            7 
 1873000    0.9618923   -5.9410491       829.22  0.036893575  0.037067191            3 
 1874000   0.95727387   -5.9369859     831.6798  0.036983271  0.037057959           11 
 1875000   0.95393847   -5.9803245    830.57567  0.036914474  0.037048519            2 
 1876000   0.97073762   -5.9329838    829.18178   0.03683288  0.037039221            8 
 1877000   0.96379911    -5.936123     829.3453  0.036820516  0.037029906            3 
 1878000   0.94720396   -5.9413257      833.005  0.036963303  0.037020607            3 
 1879000   0.96218207   -5.9371475    833.69854   0.03697439  0.037011325            5 
 1880000   0.95081303   -5.9560934    833.08231  0.036927407  0.037002005            2 
 1881000   0.96843011   -5.9376532    830.92145  0.036812044  0.036992742           10 
 1882000   0.95844508   -5.9629178    832.96709  0.036883063  0.036983278            5 
 1883000   0.95296023   -5.9682454    830.85027  0.036769794   0.03697399            3 
 1884000   0.95826577   -5.9433801    833.93984  0.036886936  0.036964558            4 
 1885000   0.97239204   -5.9412422    832.14302  0.036787932  0.036955282            5 
 1886000   0.94141197   -5.9798847    830.05382  0.036676114  0.036945929            9 
 1887000   0.94624746   -5.9795688    832.70245  0.036773646  0.036936471            4 
 1888000   0.92889275   -5.9430095    832.62403  0.036750708  0.036927228            5 
 1889000   0.95238773   -5.9132848    836.53153  0.036903632  0.036918001            3 
 1890000   0.95006247   -5.9501603    833.10087  0.036732842  0.036908824            5 
 1891000   0.95001858   -5.9492941    833.64401  0.036737353    0.0368995            2 
 1892000   0.93945375   -5.9787962     834.3788  0.036750299  0.036890255            5 
 1893000   0.94710621   -5.9278584    836.60446  0.036828863  0.036880978            6 
 1894000   0.94707402   -5.9272298    834.38341  0.036711695  0.036871651            8 
 1895000   0.93574932   -5.9203571    834.37243  0.036691839   0.03686238            5 
 1896000   0.95218953   -5.9533451    833.97852  0.036655174  0.036853077            5 
 1897000   0.93576399   -5.9518606    832.56564  0.036573785  0.036843817            2 
 1898000   0.94525486   -5.9175941    836.41208  0.036723397  0.036834502            4 
 1899000    0.9394008   -5.9300947    835.00075  0.036642125  0.036825104            7 
 1900000   0.95903767   -5.9581407    834.64826   0.03660738   0.03681572            3 
 1901000   0.94227097   -5.9523431    836.84198  0.036684288   0.03680624            5 
 1902000   0.95074233   -5.9802556    835.16908  0.036591705  0.036796783            7 
 1903000   0.95440912    -5.949316    838.57368  0.036721566  0.036787344            4 
 1904000   0.94523166   -5.9892875    836.39753  0.036607035  0.036777991            4 
 1905000   0.93375661   -5.9441287    836.52861  0.036593553  0.036768724            5 
 1906000   0.93521477   -5.9406646    837.20238  0.036603812  0.036759465            4 
 1907000    0.9439145   -5.9487857    837.66306  0.036604748  0.036750223            5 
 1908000   0.95073314   -5.9544274    833.97004  0.036424268  0.036740981            5 
 1909000   0.92125169   -5.9439429    838.03767  0.036582752  0.036731624            4 
 1910000   0.93077605   -5.9263277    837.49073  0.036539735   0.03672233            5 
 1911000    0.9522921   -5.9683684    835.94201  0.036453079   0.03671288            3 
 1912000    0.9836382   -5.9727129    834.73054  0.036381213  0.036703282            7 
 1913000   0.94679598   -5.9467419    837.35173  0.036476378  0.036693893            4 
 1914000   0.93728489     -5.96441    839.21865  0.036538604  0.036684496            8 
 1915000   0.93324557   -5.9231077    840.08617  0.036557274  0.036675086            4 
 1916000    0.9543931   -5.9575895    838.82751  0.036483451  0.036665679            5 
 1917000   0.93466579   -5.9803149    837.79665  0.036419608  0.036656205            8 
 1918000   0.95780314   -5.9799098    837.17141  0.036373454  0.036646631            5 
 1919000    0.9360801   -5.9735568    837.31456  0.036360716  0.036637088            3 
 1920000   0.95048301   -5.9808003    838.29509  0.036384335   0.03662777            4 
 1921000   0.96029097   -5.9697774     839.7035  0.036426492  0.036618296            5 
 1922000   0.95415404   -5.9577605    842.87705  0.036545137  0.036608895            5 
 1923000    0.9601662   -5.9628191    839.83532   0.03639432  0.036599479            5 
 1924000   0.96403263   -5.9601793     840.0049  0.036382749  0.036590107            6 
 1925000   0.92841078   -5.9847575    840.70683  0.036394235  0.036580714            3 
 1926000   0.93977513   -5.9657973    844.73334  0.036549556  0.036571381            3 
 1927000   0.92927081   -5.9511417    840.57107  0.036350591  0.036562045            2 
 1928000   0.94485396   -5.9443737    844.46747   0.03650015   0.03655282            4 
 1929000   0.95795174   -5.9250425    843.77589  0.036451352  0.036543702            3 
 1930000   0.94394944   -5.9558507     844.4617  0.036462077  0.036534624            4 
 1931000   0.96547765   -5.9680955    842.78217  0.036370713  0.036525433            5 
 1932000   0.96246943   -5.9712932    843.00263  0.036361397  0.036516202            5 
 1933000   0.94581361   -5.9269903    845.13315  0.036434435  0.036507218            4 
 1934000   0.93848037   -5.9643566    846.45139  0.036472397  0.036498051            3 
 1935000   0.93008417   -5.9764115    846.34143  0.036448813  0.036489042            4 
 1936000   0.92284203   -5.9619049    846.09931  0.036419564  0.036480072            3 
 1937000   0.94821291   -5.9767215    843.98465  0.036309786  0.036470886            3 
 1938000   0.94724097   -5.9985482    846.03727  0.036379312  0.036461701            7 
 1939000   0.93113747   -5.9610987    847.19929  0.036410491  0.036452502            6 
 1940000   0.95253685   -5.9623566    847.11986   0.03638831  0.036443329            5 
 1941000   0.93659114   -5.9678656     846.1625   0.03632846  0.036434158            5 
 1942000   0.94290537   -5.9676523    846.58578  0.036327917  0.036425005            3 
 1943000   0.95758178   -5.9648139    848.57561  0.036394562  0.036416004            7 
 1944000   0.93819211   -5.9850502    848.69729  0.036381057  0.036406952            5 
 1945000   0.95852519   -5.9525112    848.79803  0.036366668  0.036397904            6 
 1946000   0.93534948   -5.9583376    847.79073  0.036304844  0.036388848            5 
 1947000   0.93812956   -5.9923551    849.20631  0.036346786  0.036379783           13 
 1948000   0.93696476   -5.9410829    849.34455  0.036334041  0.036370774            2 
 1949000   0.92423689   -5.9426707    849.83947   0.03633656  0.036361735            5 
 1950000   0.93634453   -5.9733212     848.7987  0.036273449  0.036352672            4 
 1951000   0.93338636   -5.9563716    852.54269  0.036414774  0.036343613            4 
 1952000   0.93514554   -5.9509874    849.58134  0.036269695   0.03633467            5 
 1953000   0.95121233   -5.9474038    849.55026  0.036249798  0.036325707            6 
 1954000   0.94861804   -5.9651647     851.8077  0.036327521  0.036316643            5 
 1955000   0.93946613   -5.9493156    853.98904   0.03640192  0.036307519            6 
 1956000   0.94972828   -5.9923856    848.57891  0.036152816   0.03629821            5 
 1957000   0.95167158    -5.987416    846.69031  0.036053922   0.03628891            5 
 1958000   0.94803442   -5.9612534    850.71195  0.036206671  0.036279686            5 
 1959000   0.95426509   -5.9772839      847.952  0.036070784  0.036270367            5 
 1960000   0.93937458     -5.96781    849.53088   0.03611951  0.036260982            5 
 1961000   0.93225494    -5.960874    851.44155  0.036182286   0.03625179            4 
 1962000   0.94674348   -5.9720055    848.85531  0.036053997  0.036242439            7 
 1963000   0.94481666   -6.0008289    847.47187  0.035976901   0.03623318            5 
 1964000   0.94110484   -5.9815558    850.23076  0.036075643  0.036223713            6 
 1965000   0.93759397   -5.9845848    849.42785  0.036023234  0.036214293            4 
 1966000   0.94033534   -5.9512833    850.63975  0.036056279  0.036204875            3 
 1967000   0.94773107    -5.991174    850.52702  0.036033173  0.036195559            3 
 1968000   0.94609055   -5.9466526    852.17795  0.036084771  0.036186273            6 
 1969000   0.92809687   -5.9787996     851.5114  0.036038234  0.036176941            6 
 1970000   0.94660454   -5.9899429     849.3398  0.035928079  0.036167478            5 
 1971000   0.93399867   -5.9959359    848.40395  0.035870284   0.03615805            4 
 1972000   0.94808417   -5.9961806    849.08172  0.035880735  0.036148713            4 
 1973000    0.9457419    -5.981743    851.55017  0.035966809  0.036139354            5 
 1974000   0.93241194   -6.0143827    852.05955  0.035970092  0.036129853            2 
 1975000   0.93852622   -5.9630471    851.58045  0.035931665  0.036120404            4 
 1976000   0.93341731   -5.9713416    850.36453  0.035862202  0.036111153            2 
 1977000   0.95914013   -5.9715596    852.56607   0.03593686  0.036101868            5 
 1978000   0.95349803   -6.0127319      851.324  0.035866363  0.036092509            3 
 1979000   0.95390693   -6.0055508    850.89937  0.035830359  0.036083163            2 
 1980000   0.94697858   -5.9499685    853.86719  0.035937171  0.036073673            4 
 1981000   0.94493815   -6.0133755    852.88345  0.035877648  0.036064295            4 
 1982000   0.92453537   -5.9769581    853.07651  0.035867663  0.036054848            5 
 1983000   0.94329438    -6.032661    851.15128   0.03576867  0.036045439            4 
 1984000   0.93020613   -5.9680141    854.24975  0.035880786  0.036036062            5 
 1985000   0.94520364   -5.9995188    851.04462  0.035728154  0.036026766            5 
 1986000   0.92229497   -5.9554537    857.28184   0.03597188  0.036017439            4 
 1987000   0.93268362   -5.9768021     856.1416  0.035905955  0.036008113            6 
 1988000    0.9382219   -5.9810329    854.69156  0.035827111  0.035998759            3 
 1989000   0.92104849    -5.993518    853.24442  0.035748467  0.035989488            9 
 1990000   0.92717804   -5.9674656    856.14969  0.035852165  0.035980272            7 
 1991000   0.93215734   -5.9751187    858.52473  0.035933565    0.0359709            2 
 1992000   0.91547506   -6.0125848    855.48699  0.035788445  0.035961572            3 
 1993000   0.93059129   -5.9797139    858.64463  0.035902518  0.035952258            5 
 1994000   0.91706163   -5.9786373    857.69944  0.035845012  0.035942928            4 
 1995000   0.93431841   -5.9757911    856.62335  0.035782095  0.035933532            5 
 1996000   0.93395465   -5.9567299     860.0533  0.035907369  0.035924199            4 
 1997000   0.93729214   -5.9875887    855.47816  0.035698471  0.035914855            5 
 1998000   0.94422087   -5.9676976    858.02301  0.035786745  0.035905535            8 
 1999000   0.92102049   -5.9939681     856.7603  0.035716204  0.035896127            6 
 2000000   0.92204928   -5.9833772    858.80006  0.035783336  0.035886765            5 
 2001000   0.93602028   -5.9839711    855.59102   0.03563181  0.035877417            3 
 2002000   0.92645529    -5.935082    860.22207  0.035806779  0.035867996            7 
 2003000   0.92556163   -5.9715139    858.01016  0.035696878  0.035858657            3 
 2004000   0.92408984   -5.9750021    859.49074  0.035740633  0.035849344            5 
 2005000     0.921253   -5.9323802    860.88198  0.035780631  0.035840168            8 
 2006000   0.94624249   -5.9608002    862.35099   0.03582382  0.035830992            4 
 2007000   0.92858411    -5.974751    861.75907  0.035781393  0.035821832            5 
 2008000   0.92785628   -5.9804097    858.35327  0.035622231   0.03581255            3 
 2009000   0.92959425   -5.9883193    857.85333  0.035583762  0.035803263            4 
 2010000   0.91887475   -5.9938743    860.00937  0.035655446  0.035793851            5 
 2011000   0.92457467   -6.0019218    859.40144  0.035612525  0.035784578            3 
 2012000   0.93651615    -6.022734    859.67416   0.03560612  0.035775348            3 
 2013000   0.92730026   -5.9991709    856.32974  0.035449981  0.035765884            4 
 2014000   0.90779109   -5.9898792    859.87256   0.03557897  0.035756431            3 
 2015000    0.9338861   -6.0088094    859.40364   0.03554192  0.035747051            4 
 2016000   0.92087465   -6.0369437    858.37016  0.035481571  0.035737589            5 
 2017000   0.93364236   -5.9926078    860.98108  0.035571851  0.035728048            7 
 2018000   0.92901863    -5.990403    860.02858   0.03551489  0.035718665            3 
 2019000   0.91718466   -5.9736988    862.95503  0.035618088  0.035709374            5 
 2020000   0.91501227   -6.0121269    860.26517  0.035489487  0.035700191            5 
 2021000   0.92201464   -5.9940961    861.73418  0.035532499  0.035690901            3 
 2022000   0.92977632   -6.0411541    858.98924  0.035401799  0.035681525            5 
 2023000    0.9346631    -5.997388    864.11212  0.035595326  0.035672261            5 
 2024000    0.9171586   -5.9769466    864.37077  0.035588388  0.035662846           12 
 2025000   0.91571531   -5.9925781    862.89872  0.035510235  0.035653497            4 
 2026000   0.91995853   -5.9975704    861.43264  0.035432405  0.035644179            3 
 2027000    0.9232695   -6.0134772    863.94119  0.035518056  0.035634719            4 
 2028000   0.90933379   -5.9957381    862.88131   0.03545699  0.035625441            7 
 2029000   0.91621544   -5.9978452     865.7146  0.035555881  0.035616139            4 
 2030000   0.93692667   -5.9896873    863.83637  0.035461263  0.035606932            4 
 2031000   0.91564964   -5.9911792    865.40069  0.035507988  0.035597697            4 
 2032000   0.92228747   -5.9948589    863.60943  0.035417053  0.035588356            5 
 2033000   0.91108246   -5.9539113    864.71778  0.035445064  0.035579074            8 
 2034000   0.93209575   -5.9723016    866.25107  0.035490457  0.035569932            4 
 2035000   0.93474733   -6.0008696    864.40525   0.03539743  0.035560773            2 
 2036000   0.90254029   -6.0045667    864.11504  0.035368166   0.03555148           10 
 2037000   0.92985662   -6.0311812    865.90749  0.035424132  0.035542128           10 
 2038000   0.93622322   -5.9930203    867.14432  0.035457324  0.035532868            5 
 2039000   0.92557298   -5.9919849    866.72389  0.035422752  0.035523591            4 
 2040000   0.93882978   -6.0375013    867.22481   0.03542585  0.035514368            5 
 2041000   0.91996571   -6.0277566    864.53097  0.035298504  0.035504966            5 
 2042000   0.91276398   -6.0045323    868.79085  0.035455062  0.035495689            4 
 2043000   0.92373074   -5.9970498    867.74702  0.035395131  0.035486437            4 
 2044000   0.93556351   -5.9788962    868.23183  0.035397579  0.035477302            4 
 2045000   0.91537349   -6.0274945    866.27579  0.035300562  0.035468141            4 
 2046000   0.92927238   -6.0164648     869.9554  0.035433178  0.035458991            4 
 2047000   0.92628998   -5.9709576    868.44291  0.035354295  0.035449844            6 
 2048000   0.93380625   -5.9906056    866.80795  0.035270506  0.035440663            6 
 2049000   0.91264972     -5.98293    871.89577  0.035460215  0.035431575            6 
 2050000   0.93274908   -5.9694655    870.55529  0.035388426  0.035422522            4 
 2051000    0.9322149   -6.0298173    866.36434  0.035200892  0.035413346            4 
 2052000   0.93019642   -5.9754867    866.53362  0.035190612  0.035404258            5 
 2053000   0.91452107   -6.0020768    870.34439  0.035328154  0.035395212            2 
 2054000    0.9324777   -5.9688168    870.84073  0.035331091  0.035386117            4 
 2055000   0.92486252    -5.993425    870.27833  0.035291092  0.035376975            3 
 2056000   0.90240043   -6.0154377    868.57826   0.03520502  0.035367823            3 
 2057000   0.92888359   -6.0597085    866.77693   0.03511493  0.035358352            3 
 2058000   0.92556549   -6.0180437    870.06014  0.035230812  0.035348959            5 
 2059000   0.93095765    -5.998799    871.98279  0.035291516  0.035339612            5 
 2060000   0.92122454   -5.9969723    870.44162   0.03521204   0.03533043            7 
 2061000   0.92944787   -6.0094301    869.40656  0.035153104  0.035321209            3 
 2062000   0.90866783    -6.015653    869.30699  0.035132032  0.035311953            3 
 2063000   0.95083909   -6.0274242    873.15844  0.035270579  0.035302743            6 
 2064000   0.92905701   -6.0113996    871.49612  0.035186374  0.035293556            3 
 2065000    0.9245716   -6.0443906    871.37388  0.035164402  0.035284386           14 
 2066000    0.9181416    -6.030779    871.97315  0.035171553  0.035275057            3 
 2067000   0.92434124   -6.0342846    872.85646  0.035190149  0.035265892            3 
 2068000   0.92258659   -6.0156273     873.0406  0.035180553  0.035256728            7 
 2069000    0.9319963   -5.9855598    876.04449  0.035284537  0.035247707            4 
 2070000   0.91695103   -6.0065218    875.08915  0.035229032  0.035238758            6 
 2071000   0.91053836   -6.0254794    873.47756  0.035147174  0.035229804            9 
 2072000   0.93355061   -6.0084307    879.65422  0.035378628  0.035220791            7 
 2073000   0.90617555   -6.0451193    873.73597  0.035123652  0.035211811            5 
 2074000   0.92089971    -6.014376    875.56117  0.035180053  0.035202867            4 
 2075000   0.90619225   -6.0364774    877.00493  0.035221082  0.035193945            4 
 2076000   0.90043665   -6.0183206    876.85564  0.035198123  0.035184988            5 
 2077000   0.92418401   -5.9799829    876.82155  0.035179809  0.035176078            4 
 2078000   0.91940627   -6.0296415    876.58171  0.035153261  0.035167169            2 
 2079000   0.91985613   -6.0275273     875.5123  0.035093487  0.035158178           10 
 2080000   0.92033554   -6.0305196    876.79249  0.035127904  0.035149117            4 
 2081000   0.93243835   -5.9794162    876.79247  0.035111023   0.03514024            4 
 2082000   0.94467098    -6.013476    878.52349  0.035163444  0.035131331            4 
 2083000   0.91312617   -6.0334049    878.75937     0.035156  0.035122385            7 
 2084000   0.91062581   -6.0243874    877.72691  0.035097845  0.035113363            2 
 2085000   0.92092993   -5.9968605    877.67491  0.035078933  0.035104333            9 
 2086000   0.91314995   -6.0349517    876.89179  0.035030832  0.035095281            4 
 2087000   0.89894997   -6.0173772    878.72917  0.035087413  0.035086351            7 
 2088000   0.93484658   -6.0089326    880.27814  0.035132429  0.035077347            9 
 2089000   0.91699321   -6.0273332    879.89861  0.035100471  0.035068468            3 
 2090000   0.90742506   -6.0094852    880.42434  0.035104639   0.03505948            5 
 2091000   0.90161851   -6.0472936    877.40065  0.034967346  0.035050552            4 
 2092000    0.9272771   -5.9914357    880.84144  0.035087693  0.035041631            4 
 2093000   0.91892623   -6.0136579    877.43863  0.034935445  0.035032681            3 
 2094000    0.9185928   -6.0132223     878.4987  0.034960948  0.035023764           10 
 2095000   0.92898207    -6.030153    877.08793  0.034888144  0.035014745            6 
 2096000   0.92514551    -6.006754    884.97197  0.035184954  0.035005768            2 
 2097000   0.90934312   -6.0283331    882.37695  0.035065051  0.034996881            5 
 2098000   0.91346231     -6.02376    880.63239  0.034979043   0.03498801           10 
 2099000   0.90671485   -6.0342263    880.10451  0.034941421    0.0349791            6 
 2100000   0.89533484   -6.0323571    881.99528  0.034999813   0.03497007            6 
 2101000   0.89972899   -5.9816022    882.36212  0.034997704  0.034961136            5 
 2102000   0.91530752   -6.0125099    878.27942  0.034819197  0.034952132            4 
 2103000   0.92527827   -6.0143542    882.07812  0.034953167   0.03494312            6 
 2104000   0.91420963   -6.0404697    881.38824   0.03490923  0.034934175            5 
 2105000   0.92184609   -6.0452144    879.85308  0.034831872  0.034925179            4 
 2106000   0.89568491   -6.0239917    882.18692  0.034907681  0.034916197            2 
 2107000    0.9152691   -6.0204086    881.67304  0.034870789  0.034907207            5 
 2108000   0.90721407   -6.0399569    883.16055  0.034913051  0.034898326            2 
 2109000   0.92036859   -6.0153777    882.44592   0.03486826  0.034889366           14 
 2110000   0.90889603   -6.0129027    884.81604  0.034945341  0.034880483           10 
 2111000   0.91172563   -6.0583271    883.11109  0.034861483  0.034871528            7 
 2112000   0.90611019   -6.0532178    882.12818  0.034806194  0.034862565            4 
 2113000   0.90583032   -6.0146524    885.75066  0.034932587  0.034853563            7 
 2114000   0.91404598   -6.0440477    883.80769  0.034839471  0.034844533            4 
 2115000   0.91819075    -6.046448    883.61987  0.034815598   0.03483561            3 
 2116000   0.91079164   -6.0175295    884.46796  0.034832544  0.034826662            6 
 2117000   0.91668079   -6.0305656     884.8876  0.034832609  0.034817844           15 
 2118000   0.91334162   -6.0277207    887.92824  0.034935798  0.034808965            7 
 2119000   0.91753619    -6.049987    882.48157  0.034705111  0.034799976            6 
 2120000   0.90743651   -6.0315029     887.1703  0.034873046  0.034790977            3 
 2121000   0.92383944   -6.0181714    882.63944  0.034678589  0.034782108            6 
 2122000   0.90384119   -5.9947856    888.41815  0.034889183  0.034773355            4 
 2123000   0.91601902   -6.0366224    884.17467  0.034706181  0.034764638            6 
 2124000   0.93597398   -6.0343966    886.68212  0.034788219  0.034755822            3 
 2125000   0.91570145   -6.0399041    886.58564  0.034768064  0.034747039            6 
 2126000   0.90885188    -6.023564    888.49446  0.034826531  0.034738091            6 
 2127000    0.9010341   -6.0071971     886.6443   0.03473767  0.034729376            7 
 2128000   0.91237519   -6.0489342    885.99259  0.034695825  0.034720495            3 
 2129000   0.91356711   -6.0421663    883.61043  0.034586286  0.034711729            5 
 2130000   0.90729896   -6.0366006    886.54802  0.034684977  0.034702894            7 
 2131000   0.88685972   -6.0476317    889.33792  0.034777801   0.03469404            4 
 2132000   0.91297355   -6.0647483    886.01794  0.034631721   0.03468507            7 
 2133000   0.90849922   -6.0517003    888.11158   0.03469728  0.034676173            5 
 2134000    0.8981826   -6.0320157    888.85966  0.034710233  0.034667296            4 
 2135000   0.90755804   -6.0512737    889.98552   0.03473792  0.034658524            4 
 2136000   0.90978976   -6.0461656    887.74517  0.034634253  0.034649734            8 
 2137000   0.89333655   -6.0447005    887.85652  0.034622388  0.034640966            7 
 2138000   0.89215244    -6.055984    885.22099  0.034503468  0.034632019            6 
 2139000   0.89311437   -6.0166882    889.06601  0.034637136  0.034623136            5 
 2140000   0.90401796   -5.9957859    891.99957  0.034735186  0.034614357            5 
 2141000    0.8956948   -6.0289719    887.18444  0.034531545  0.034605506            6 
 2142000   0.91345169   -6.0558511    885.74965  0.034459604  0.034596566            4 
 2143000   0.92001655   -6.0224156    891.28205  0.034658658  0.034587609            3 
 2144000   0.89652132   -6.0495101    890.93551  0.034629023  0.034578667            6 
 2145000   0.91731526    -6.025853    890.14515  0.034582174  0.034569759            6 
 2146000   0.92443977   -6.0531145    889.01669  0.034522239  0.034560886            5 
 2147000   0.90394322   -6.0108882    892.02593   0.03462296   0.03455189            9 
 2148000   0.92367645   -6.0288584    891.68385  0.034593569  0.034543011            6 
 2149000   0.90516197   -6.0355781    892.29436  0.034601146  0.034534222            4 
 2150000    0.9092041   -6.0183369    890.31242  0.034508233  0.034525241            8 
 2151000   0.86978944   -6.0399158    891.37881  0.034533504  0.034516224            3 
 2152000   0.89422118   -6.0527202    890.05502  0.034466195  0.034507167            8 
 2153000   0.91105298   -6.0550056    891.74193  0.034515479  0.034498131            6 
 2154000   0.91055741   -6.0564036    891.20393  0.034478642  0.034489025            7 
 2155000   0.89502584   -6.0342581    892.87694  0.034527337  0.034480057            5 
 2156000   0.91784748   -6.0312423    891.96973  0.034476257  0.034470958            5 
 2157000   0.90623931   -6.0475778    891.90102  0.034457619  0.034461968            8 
 2158000   0.92585394   -6.0334544    891.37223  0.034421232  0.034452925            4 
 2159000   0.92101533   -6.0518893    891.20634  0.034398886   0.03444398            9 
 2160000   0.91991052   -6.0810558    888.93772  0.034295437  0.034434893            7 
 2161000   0.92519911   -6.0301744     890.0827   0.03432372  0.034425802            6 
 2162000    0.9066217   -6.0416301    892.73785  0.034410185  0.034416687            4 
 2163000   0.90631539   -6.0508194    892.91368  0.034401051  0.034407602            3 
 2164000   0.89837305   -6.0468417    892.15194   0.03435582  0.034398456            6 
 2165000   0.91553602   -6.0472912    893.03036  0.034373763  0.034389406            3 
 2166000    0.9054547   -6.0379449    892.27298  0.034328754   0.03438031            5 
 2167000    0.9103177   -6.0369418     891.3906   0.03427898  0.034371224            7 
 2168000   0.90971512   -6.0439632    893.46595  0.034342941  0.034362211            6 
 2169000   0.91755943   -6.0423375    891.72593  0.034260255  0.034353122            6 
 2170000   0.90208919   -6.0757708    890.91928   0.03421349  0.034343841            5 
 2171000   0.91096507   -6.0597909    890.51015  0.034182026  0.034334597            5 
 2172000     0.893346   -6.0280468    892.80306  0.034254261  0.034325397            5 
 2173000   0.91969194   -6.0487697    891.99928  0.034207673   0.03431617            4 
 2174000   0.91905793   -6.0376439    893.73191  0.034258353     0.034307            6 
 2175000   0.90956613   -6.0364803     891.6927  0.034164471  0.034297813            7 
 2176000   0.89297039   -6.0776368    893.91431  0.034233851   0.03428858            8 
 2177000   0.91356016   -6.0493023    892.18862  0.034152068  0.034279386            6 
 2178000    0.8924796   -6.0373234    894.74198  0.034234083  0.034270317            4 
 2179000   0.91555483   -6.0291659    893.17736  0.034158534  0.034261224           10 
 2180000   0.89672872   -6.0840268    895.60166  0.034235538  0.034252301            5 
 2181000   0.89322447   -6.0572426    897.27652  0.034283834  0.034243249            4 
 2182000    0.9103316   -6.0801181      896.882  0.034253055  0.034234205            7 
 2183000   0.91343216   -6.0764295    895.33669  0.034178374  0.034225037            2 
 2184000   0.89662796   -6.0455515    896.18384  0.034195049  0.034215904            6 
 2185000    0.8850479   -6.0485377    896.12925  0.034177317  0.034206783            5 
 2186000   0.91253297   -6.0832172     894.6129  0.034103877  0.034197723            7 
 2187000   0.90069989   -6.0451121    894.84415  0.034097095  0.034188626            2 
 2188000   0.93308029   -6.0661094    895.62684  0.034111321  0.034179719            5 
 2189000   0.89457549   -6.0191055    899.45921  0.034241633  0.034170704            4 
 2190000   0.88089269   -6.0543892    897.42547   0.03414861   0.03416183           10 
 2191000   0.90066999   -5.9901282    901.64103   0.03429336  0.034152945            7 
 2192000    0.9087507   -6.0252746    901.23528   0.03426229  0.034144074            2 
 2193000   0.91121392   -6.0632349     899.2073  0.034169604  0.034135129           11 
 2194000   0.91152215   -6.0609112     896.1485   0.03403785   0.03412612            8 
 2195000   0.91393064   -6.0321696    900.07999  0.034171602  0.034117125            3 
 2196000    0.9136013   -6.0598447    898.79337  0.034107216  0.034108121            4 
 2197000   0.89123735   -6.0440047    899.44392  0.034116368  0.034099068            8 
 2198000    0.9068905   -6.0281809    899.31225  0.034095854  0.034090032            3 
 2199000   0.90121071   -6.0115431    900.69533  0.034132762   0.03408108            6 
 2200000   0.88842057   -6.0364472    900.18633  0.034097967  0.034072074            9 
 2201000    0.8920883    -6.081897    899.13918  0.034042828  0.034063021            8 
 2202000   0.87606086   -6.0597602    898.37463  0.033998434  0.034053896            3 
 2203000   0.88963026   -6.0946816    897.93291  0.033966293  0.034044794            8 
 2204000    0.8958379   -6.0575768    896.18449  0.033884773  0.034035692            4 
 2205000   0.91295964    -6.083511    897.27693  0.033910693  0.034026542            9 
 2206000   0.89344915   -6.0931651    896.79558  0.033877137  0.034017323            4 
 2207000   0.90843488   -6.0320482    901.92859  0.034055603  0.034008277            4 
 2208000    0.8835993   -6.0623287    901.05944  0.034007376  0.033999316            3 
 2209000   0.88652254   -6.0638743     901.5858  0.034011838    0.0339903            4 
 2210000   0.91589004   -6.0601576    902.14656  0.034017593  0.033981361            5 
 2211000   0.91086016   -6.0390325    902.15813  0.034002643  0.033972361            7 
 2212000    0.8926038   -6.0889997    898.82873  0.033861842  0.033963435            2 
 2213000   0.87511582   -6.0462815    902.09261  0.033969446   0.03395442            9 
 2214000   0.90783286   -6.0527589    900.17569  0.033881951  0.033945552            5 
 2215000   0.89008808   -6.0762367    903.67486  0.033998302  0.033936664            8 
 2216000   0.89363782   -6.0684851    902.95276  0.033955805  0.033927759            3 
 2217000   0.89274408   -6.0716148    899.99536  0.033829325  0.033918854            8 
 2218000   0.89894241   -6.0676064    901.90644  0.033885875  0.033909882            3 
 2219000   0.89579855    -6.038667    905.23669   0.03399567  0.033901032            5 
 2220000   0.89507015   -6.0397334    903.27533  0.033906732  0.033892175            8 
 2221000   0.89160421   -6.0597913    902.69389  0.033869649  0.033883351            8 
 2222000   0.89882215    -6.065006    905.51786  0.033960316  0.033874518            4 
 2223000   0.89316595   -6.0186129    905.87619  0.033958472  0.033865762            4 
 2224000   0.89685675   -6.0295362    904.81037  0.033903266  0.033856881            6 
 2225000   0.90058757    -6.067336    902.66637  0.033807729  0.033848067            6 
 2226000    0.8871124   -6.1138461    902.90676  0.033801541  0.033839091            4 
 2227000   0.89864161   -6.1076819    904.76671  0.033855961  0.033830209            3 
 2228000   0.89532086   -6.0801385    903.89219  0.033808056  0.033821313            6 
 2229000    0.8994396   -6.1016916    902.18694  0.033729136  0.033812339            3 
 2230000   0.88714571   -6.0507352    906.34464  0.033869381  0.033803359            5 
 2231000   0.89302868   -6.0508852    907.37857   0.03389282  0.033794484            8 
 2232000   0.87874398   -6.0708021    904.99576  0.033788671  0.033785531            6 
 2233000   0.90396111   -6.0869263    903.10277  0.033702895   0.03377658            9 
 2234000   0.88694205    -6.088456    902.84081  0.033678037  0.033767698            5 
 2235000   0.90350195   -6.0831576    905.43085  0.033759539  0.033758808            2 
 2236000   0.89906257   -6.0719822    905.89034  0.033761566  0.033749898            7 
 2237000    0.8858024   -6.0631276    906.87247   0.03378306  0.033741018            3 
 2238000   0.88732256   -6.0651019    907.99492   0.03380976  0.033732175            7 
 2239000   0.89064731   -6.1139084    905.93199   0.03371788  0.033723351            5 
 2240000   0.89019901    -6.068497    908.65789  0.033804237  0.033714507            4 
 2241000   0.90328888   -6.0663959    904.43868  0.033632258   0.03370567            5 
 2242000   0.87067505   -6.0529514    907.31417  0.033724137  0.033696878            5 
 2243000   0.91426189   -6.0588427    910.31699  0.033820664  0.033688017            8 
 2244000   0.90123154   -6.0852887    909.82809  0.033787437  0.033679271            7 
 2245000    0.9057076   -6.1196933    906.63691  0.033653931  0.033670438            8 
 2246000   0.89621605   -6.0885454    907.87199  0.033684773  0.033661597            3 
 2247000   0.89309151    -6.122315    906.59201  0.033622312  0.033652762            7 
 2248000   0.88990363   -6.1149384    907.52177  0.033641821  0.033643873            6 
 2249000   0.88635467   -6.0971913     910.5101  0.033737591  0.033635047            3 
 2250000   0.91949111   -6.0801284     911.8291  0.033771448  0.033626325            5 
 2251000   0.87470893   -6.0885302    910.50194  0.033707313  0.033617521            9 
 2252000   0.88082421   -6.0900699    912.12947  0.033752571   0.03360872            2 
 2253000   0.91783452   -6.1080071    911.09297  0.033699252  0.033600017           11 
 2254000   0.89856364   -6.0842921    909.42059  0.033622471  0.033591297            5 
 2255000   0.88457075   -6.0703182    911.93715   0.03370056  0.033582602            4 
 2256000   0.89199171   -6.0814393    913.28483  0.033735403  0.033573928            5 
 2257000   0.88616943   -6.1060935    912.35252  0.033686033  0.033565193           10 
 2258000   0.89499639   -6.0766549    910.29304  0.033595108  0.033556434            6 
 2259000   0.87276101   -6.0913737    911.26031  0.033615918  0.033547699            7 
 2260000   0.87111829   -6.1243518    910.76251  0.033582689  0.033538969           13 
 2261000   0.88903226   -6.0989043    911.83698  0.033607437  0.033530239            7 
 2262000   0.89669989   -6.0545577    914.49761  0.033690599  0.033521544            7 
 2263000   0.89855115   -6.0640775     915.8561  0.033725736  0.033512885            4 
 2264000   0.88287715   -6.0932827    912.25627  0.033578337  0.033504253            5 
 2265000   0.89169252   -6.0798053    911.25477  0.033526666  0.033495567            6 
 2266000   0.89641474   -6.1376963    911.52672  0.033521871  0.033486809            4 
 2267000   0.89942017   -6.0615411    912.89432  0.033557356  0.033478012            7 
 2268000   0.89240221   -6.0934131    914.47971  0.033600812  0.033469172            5 
 2269000   0.87840085   -6.0620585    914.28161  0.033578728  0.033460439            5 
 2270000   0.88255687   -6.1150605    913.50933  0.033535585  0.033451623            6 
 2271000    0.8939003   -6.0810387    915.81886  0.033605565  0.033442797            5 
 2272000   0.90555045   -6.0919952    912.82832  0.033481086  0.033434052           10 
 2273000   0.89501173    -6.083924    910.94329  0.033397246  0.033425214            6 
 2274000   0.86859216   -6.1277659     914.3235  0.033506431  0.033416311            4 
 2275000   0.89691714   -6.0961355    914.94749   0.03351456  0.033407454            3 
 2276000   0.86408818   -6.0750724    916.13683  0.033543381  0.033398703            4 
 2277000   0.87323644   -6.0788291    915.97843  0.033522853  0.033390059           10 
 2278000   0.87728243   -6.0739962    917.72214  0.033571925  0.033381353            4 
 2279000   0.88608032   -6.0698982    916.56846  0.033515009  0.033372792            3 
 2280000   0.90360414   -6.0426948    915.55476  0.033463259   0.03336425            3 
 2281000   0.88502472   -6.1287675    913.69587  0.033380676  0.033355654           11 
 2282000   0.89814969   -6.0772896    918.79441  0.033552235  0.033347001            5 
 2283000   0.88332166   -6.0829222    919.21718   0.03355297  0.033338448            6 
 2284000   0.88852084   -6.0927943    918.42366  0.033509328  0.033329927            6 
 2285000   0.89026078   -6.0856106    918.38898  0.033493398  0.033321362            4 
 2286000   0.89696587   -6.0858002    918.65746  0.033488534  0.033312739            4 
 2287000   0.87240141   -6.1110625    916.79028  0.033405855   0.03330418            4 
 2288000   0.90098756   -6.1023857     915.0874  0.033329232  0.033295595            4 
 2289000   0.88793671   -6.1039391    917.14827    0.0333897  0.033286998            6 
 2290000   0.89343853   -6.0995118    919.91273  0.033475718  0.033278403            2 
 2291000   0.87525606   -6.0867369    920.13694  0.033469262  0.033269888            7 
 2292000    0.8830279   -6.0855026    918.35219  0.033389768  0.033261355            5 
 2293000   0.86722677   -6.0704711    919.93642  0.033432782  0.033252919            8 
 2294000   0.90221786   -6.1072904    917.66419  0.033335665  0.033244435            5 
 2295000   0.90267738   -6.1126888    918.00264  0.033333429  0.033235858            7 
 2296000   0.87928676   -6.1122669    919.22247  0.033363185    0.0332272            5 
 2297000   0.87337466   -6.1294536    915.80959  0.033224844  0.033218571           13 
 2298000   0.87878238   -6.1357564    920.22084  0.033370352  0.033209905            8 
 2299000   0.86739888    -6.089573    922.13471  0.033425211  0.033201297            4 
 2300000   0.89404931   -6.1125408    918.14602   0.03326616  0.033192618            5 
 2301000   0.89036461   -6.1183191    921.15245  0.033360584  0.033183904            9 
 2302000   0.89124475   -6.0760717    920.20568  0.033311819  0.033175243            8 
 2303000   0.90276867    -6.054826    920.43943  0.033305812  0.033166709            7 
 2304000   0.89240647   -6.1037988    919.14053  0.033244377  0.033158009            5 
 2305000    0.8910614   -6.1222647    919.15918  0.033230628  0.033149295            5 
 2306000   0.87589846    -6.118849     920.0713   0.03324918   0.03314043            6 
 2307000   0.88632903   -6.1005948    917.89946  0.033156316  0.033131606            9 
 2308000   0.88006047    -6.087941    919.81711   0.03321119  0.033122874            5 
 2309000   0.85907451   -6.1107773    919.06423  0.033169634  0.033114033            3 
 2310000   0.89338477   -6.1221796     918.8479  0.033147471  0.033105247            5 
 2311000   0.90439313   -6.0970773    921.81463  0.033240106  0.033096512            5 
 2312000   0.88723086   -6.1092204    922.21769  0.033240257  0.033087835            3 
 2313000   0.89209021   -6.1041074    920.08319  0.033148984  0.033079145            8 
 2314000   0.87605408   -6.1227051    919.46621  0.033112439  0.033070543            6 
 2315000   0.88279264   -6.0881183    921.16411  0.033159255  0.033061877            5 
 2316000   0.90253007    -6.123207     920.2104  0.033110622  0.033053234            4 
 2317000   0.86837279   -6.1040391    921.00864  0.033125041  0.033044579            4 
 2318000   0.86112606   -6.0990875    922.85988  0.033177304  0.033035883            5 
 2319000   0.86959732   -6.1049182    922.66147  0.033155867  0.033027157            3 
 2320000   0.88909837   -6.1526968    919.21495  0.033017778  0.033018369            6 
 2321000   0.90529963   -6.1298385    921.44148  0.033083494  0.033009562            4 
 2322000   0.87286899   -6.1313714    919.86153  0.033012544  0.033000737            4 
 2323000   0.89500482   -6.1327219     920.0656  0.033005654  0.032991858            4 
 2324000   0.88184228    -6.094512    921.63275  0.033047646  0.032982928            9 
 2325000   0.86289973   -6.1118366    918.85469   0.03293386  0.032974084            6 
 2326000   0.86791905   -6.1256473    921.63355  0.033019259  0.032965286            9 
 2327000   0.88256583    -6.076846     922.8347  0.033048084  0.032956514            6 
 2328000   0.87559728   -6.1008968    921.38941  0.032982153  0.032947662            5 
 2329000   0.87743498   -6.1092751    922.20047  0.032997011  0.032938784            9 
 2330000   0.89755077   -6.1218039    919.72841  0.032894435  0.032929941            4 
 2331000    0.8788376   -6.1215219    919.70316  0.032879421  0.032921035            3 
 2332000   0.87925428   -6.1079793    920.84141  0.032905997  0.032912224            8 
 2333000   0.86073449   -6.0844976    923.36769  0.032982129  0.032903482            8 
 2334000    0.8878697    -6.129221    922.39181  0.032933155  0.032894723            8 
 2335000   0.88636445   -6.1302255    925.35442  0.033024783  0.032885923            6 
 2336000   0.87125585   -6.1080971    926.61801  0.033055722  0.032877095            7 
 2337000   0.88019817   -6.1018168    922.78058  0.032904742  0.032868247            7 
 2338000   0.89479049   -6.1050623    924.25427  0.032943195  0.032859362            7 
 2339000   0.89785676   -6.1013768    923.60062  0.032905822  0.032850616            8 
 2340000   0.86673999   -6.1126604     924.3996  0.032920214  0.032841849            6 
 2341000   0.87861269   -6.1375711     923.0883  0.032859472  0.032833124            6 
 2342000    0.8798396   -6.0991136    923.78556  0.032870252  0.032824271            6 
 2343000   0.88414254   -6.1220155    925.57893  0.032920007  0.032815566            5 
 2344000   0.88261416   -6.1253624    926.54048  0.032940148  0.032806825            8 
 2345000   0.87698766   -6.1374585    925.90735  0.032903601  0.032798015            3 
 2346000   0.87080562   -6.1204043     925.6962  0.032882076  0.032789258            7 
 2347000   0.88311679   -6.1352183     922.8785   0.03276802  0.032780422            6 
 2348000   0.86560023    -6.149042    922.68667  0.032747255  0.032771588            4 
 2349000   0.86438517   -6.1277325    922.51925  0.032727375  0.032762685            3 
 2350000   0.86849162   -6.1129358    926.70997  0.032862056  0.032753906            5 
 2351000   0.87687964   -6.1353944    923.29532  0.032727042  0.032745164            5 
 2352000   0.88796275   -6.1247789    926.74569  0.032835377  0.032736439            5 
 2353000   0.88271672   -6.1209995    923.60687  0.032710259  0.032727635            4 
 2354000   0.85390525    -6.143491     925.0453  0.032747285  0.032718795            7 
 2355000   0.86787809   -6.1416244     924.5938  0.032717403  0.032709897            4 
 2356000   0.87221648   -6.1287173    925.75636  0.032744636   0.03270108            3 
 2357000   0.87664017   -6.1242861    928.65048  0.032833067  0.032692337            7 
 2358000    0.8870086   -6.1436294    925.40896  0.032704586  0.032683548           12 
 2359000   0.87417001   -6.0997661    928.10591  0.032785994  0.032674857            4 
 2360000   0.89218861   -6.1078442    927.77125  0.032760284   0.03266611            5 
 2361000   0.88486276   -6.1505431    925.79856  0.032676781  0.032657347            5 
 2362000   0.88527729   -6.1150319    927.25395  0.032714294  0.032648621            3 
 2363000   0.84953977    -6.148434    924.37452  0.032598904  0.032639777            3 
 2364000   0.86919688   -6.1617529    924.64586  0.032594679  0.032630892           10 
 2365000   0.86641405   -6.1360226    928.35973  0.032711759  0.032622036           11 
 2366000   0.87513445   -6.1354934    925.06906  0.032582032  0.032613354            4 
 2367000   0.86861528   -6.1195916    928.98313  0.032706067  0.032604624            6 
 2368000   0.87451332   -6.1279607    927.03925  0.032623848  0.032595898            2 
 2369000   0.86667248   -6.1411206    925.43929  0.032553795  0.032587186            3 
 2370000   0.87028111   -6.1780854    924.47832   0.03250627  0.032578384            4 
 2371000    0.8403606   -6.1047781    929.98331  0.032686044  0.032569599            5 
 2372000   0.87671685   -6.1565886    928.23597  0.032610876   0.03256086            5 
 2373000   0.86926888   -6.1385415    928.81277  0.032617389  0.032552005            9 
 2374000   0.86830422   -6.1465978    927.38373  0.032553487  0.032543198            9 
 2375000   0.86296865    -6.164808    928.10183  0.032564977  0.032534325            6 
 2376000   0.87800685   -6.1372622    929.32275  0.032594092  0.032525523            7 
 2377000   0.86438016   -6.1352844    927.70062  0.032523511  0.032516735            4 
 2378000   0.87972373   -6.1337899    929.18757  0.032561942  0.032507949            9 
 2379000   0.86554623   -6.1536728    928.26179  0.032515826  0.032499203            5 
 2380000   0.86613396   -6.1445926    928.74416  0.032519053  0.032490419            5 
 2381000   0.86796586   -6.1322901    932.04151    0.0326208  0.032481507            5 
 2382000   0.87558796   -6.1032907    932.85473  0.032635556  0.032472898            4 
 2383000   0.86478883   -6.1363543    931.46926  0.032573411  0.032464144            2 
 2384000   0.87455277   -6.0870089    931.29834  0.032553773  0.032455451           11 
 2385000   0.85865143   -6.1136808    935.30674  0.032680179  0.032446876            7 
 2386000    0.8606119   -6.0923818    937.99584  0.032760402  0.032438338            8 
 2387000   0.87961701   -6.1448175    934.15107  0.032612452  0.032429787            4 
 2388000   0.88524996   -6.1183553    937.47848  0.032714911  0.032421286            5 
 2389000   0.87929315   -6.1544699      934.786  0.032607297  0.032412725            9 
 2390000   0.88119473   -6.1394695    934.26002  0.032575314  0.032404089            8 
 2391000   0.86515374   -6.1341455    935.45648  0.032603391   0.03239551            7 
 2392000   0.85130831   -6.1346222    930.87656  0.032430203  0.032386892            5 
 2393000   0.84873439   -6.1232527    934.39483  0.032539171  0.032378392            3 
 2394000   0.88687744   -6.1641798    933.41847  0.032491592  0.032369843            6 
 2395000   0.86855338   -6.1050439    937.31496  0.032613603  0.032361241            5 
 2396000    0.8677119   -6.1229166      933.146  0.032454995  0.032352848            8 
 2397000   0.86779322   -6.1468826    934.54005   0.03248992  0.032344271            5 
 2398000   0.86371881   -6.1396829    932.75007  0.032414167  0.032335614            6 
 2399000   0.84448155   -6.1413945    934.40906  0.032458283  0.032327022            7 
 2400000   0.85924472   -6.1359696    936.33157  0.032511513  0.032318381            8 
 2401000   0.85082934   -6.1452223    935.45227  0.032467453  0.032309795            4 
 2402000   0.89080779   -6.1399423    931.43801  0.032314669  0.032301165            4 
 2403000    0.8656886   -6.1429766    935.37753  0.032437839  0.032292422           10 
 2404000   0.87093958   -6.1490748    931.61426  0.032293894  0.032283728            6 
 2405000   0.87029986   -6.1459228    934.25006  0.032371797  0.032275015            6 
 2406000   0.86803158    -6.108007    934.14303  0.032354635  0.032266346            4 
 2407000   0.87834637   -6.1415416    933.64535  0.032323963   0.03225759            9 
 2408000    0.8784731   -6.1146249     934.3278  0.032334157  0.032248851            8 
 2409000   0.85797597   -6.1605221    934.98205  0.032343367  0.032240098            6 
 2410000    0.9007421   -6.1535849    934.38549  0.032309318  0.032231323            4 
 2411000     0.877118   -6.1324639    933.30291    0.0322585  0.032222563            3 
 2412000   0.87322305   -6.1377321    933.46751  0.032250812  0.032213809            3 
 2413000   0.84757571   -6.1597543    932.17553  0.032192828  0.032205086           11 
 2414000   0.87037713   -6.1702297    933.95326  0.032240861  0.032196333           17 
 2415000   0.86665596   -6.1748335    932.79948  0.032187698   0.03218756           15 
 2416000   0.88994164   -6.1243008    935.91682  0.032281899  0.032178757            7 
 2417000   0.88979055   -6.1829483    934.79908  0.032230006  0.032170084            7 
 2418000   0.86605997   -6.1062746    937.81591  0.032320648  0.032161462            5 
 2419000   0.86628524   -6.1441163    934.25538  0.032184628   0.03215285            6 
 2420000    0.8760168   -6.1639361    937.19823  0.032272666  0.032144189            9 
 2421000   0.88822508   -6.1564548        936.5  0.032235302  0.032135448            6 
 2422000   0.84685385   -6.1479642    937.80009  0.032266725  0.032126678            2 
 2423000   0.87632516    -6.166337    936.57392  0.032211237  0.032117941            5 
 2424000   0.88171017   -6.1700678    936.35271  0.032190344  0.032109275           11 
 2425000   0.87092215   -6.1510695    937.56493  0.032218726  0.032100678            6 
 2426000   0.87096832   -6.1150179    940.69213  0.032312865  0.032092062            5 
 2427000   0.87856097   -6.1623885    937.12328  0.032177011  0.032083409           12 
 2428000   0.83613123   -6.1841535    938.12088  0.032197998  0.032074579            3 
 2429000   0.87399993   -6.1566989    937.42117  0.032160737  0.032065842            5 
 2430000   0.84266121   -6.1777978    935.77381  0.032091009  0.032057144            7 
 2431000    0.8633937   -6.1655354    938.82224  0.032182306  0.032048473            9 
 2432000   0.86207755   -6.1800436     940.7556  0.032235321  0.032039869            9 
 2433000   0.84959709   -6.1552206    939.18433  0.032168254  0.032031328           11 
 2434000   0.85445424   -6.1651763    940.31229  0.032193656  0.032022817            2 
 2435000   0.84999359   -6.1553306    940.48006  0.032186176  0.032014268            3 
 2436000   0.85105629    -6.154848    939.76771  0.032148594  0.032005768            4 
 2437000   0.85376251     -6.16231    939.68648  0.032132625  0.031997134            4 
 2438000   0.88524643   -6.1854432     937.3177  0.032038477  0.031988557            5 
 2439000   0.86632201    -6.179655    937.12244   0.03201867  0.031979889            4 
 2440000   0.86744189   -6.1783287    937.21142  0.032008587  0.031971226            8 
 2441000   0.86021466   -6.1660951    939.15084  0.032061684  0.031962585            8 
 2442000   0.87502183   -6.1556442    940.55511  0.032096475  0.031954025            6 
 2443000   0.86465859   -6.1630531    939.79697  0.032057476  0.031945393            9 
 2444000   0.85416205   -6.1563366     940.1403  0.032056066  0.031936668            5 
 2445000   0.88101527   -6.1755317    938.43282  0.031984759  0.031928095            7 
 2446000   0.86279252   -6.1796165     940.9021  0.032055809  0.031919542            6 
 2447000   0.83856473   -6.1611625    941.43032  0.032060697   0.03191095            5 
 2448000   0.85060487   -6.1716314    943.05687  0.032102971  0.031902444            6 
 2449000   0.85491888   -6.1484823    941.95379  0.032052327  0.031893912            7 
 2450000   0.85343818     -6.18876    941.59158  0.032026924  0.031885331           18 
 2451000   0.84169605   -6.1823997    940.72327  0.031984335  0.031876812            9 
 2452000   0.87229616   -6.1514868    942.72933  0.032039469   0.03186829            7 
 2453000   0.84933219   -6.1890151     940.3525  0.031945662  0.031859852            4 
 2454000   0.85202465   -6.1714708    943.60134  0.032042968  0.031851431           10 
 2455000   0.86135072    -6.147212    943.64649  0.032031449  0.031842942            4 
 2456000   0.85831884   -6.1381473     941.8602  0.031957797  0.031834469            4 
 2457000   0.87820696   -6.1977162    942.22592  0.031957194  0.031825947            7 
 2458000   0.85130583   -6.1934986    943.87402  0.032000068  0.031817395           11 
 2459000   0.85184092   -6.1906496    943.97518  0.031990483  0.031808893           10 
 2460000   0.85577913   -6.1653915    944.98454  0.032011671  0.031800363            5 
 2461000   0.83611358   -6.1837531    943.23209  0.031939323  0.031791931            6 
 2462000   0.85236042   -6.1324856    943.49523  0.031935257  0.031783502            5 
 2463000   0.84139583   -6.1429124    946.95085  0.032039208  0.031775088            6 
 2464000   0.83619697   -6.1355816     944.2738  0.031935667  0.031766737            6 
 2465000   0.85736961   -6.1682298    945.44707  0.031962376  0.031758319            8 
 2466000   0.85996058    -6.172135    944.60593   0.03192099  0.031749912            7 
 2467000   0.86498394    -6.168747    948.32542  0.032033692  0.031741536            3 
 2468000   0.87050275   -6.1807442    945.20794  0.031915449   0.03173311            4 
 2469000    0.8638033   -6.1439739    948.57968  0.032016325  0.031724639           11 
 2470000    0.8591574   -6.1584536    947.55158  0.031968677  0.031716256            3 
 2471000   0.82771992   -6.1599563    948.97748  0.032003827  0.031707959            8 
 2472000   0.86042569   -6.1299644    950.10167  0.032028778  0.031699707            4 
 2473000   0.87668509   -6.1674475     949.1205  0.031982764  0.031691418           10 
 2474000   0.86484119   -6.1627694     951.2673  0.032042148  0.031683064            9 
 2475000   0.84811573   -6.2018175    948.47418  0.031935157  0.031674638            6 
 2476000    0.8540352   -6.1664763    950.83383  0.032001677  0.031666275            8 
 2477000   0.86505493   -6.1465153    947.44302  0.031874681  0.031657884            9 
 2478000   0.85466532   -6.2012483    947.28871  0.031856629  0.031649568            8 
 2479000   0.84789321   -6.1536656    947.28137  0.031843531  0.031641133            5 
 2480000    0.8567043   -6.1800193     947.4569  0.031836589  0.031632821            6 
 2481000   0.85568801   -6.1678729    947.77481  0.031834435  0.031624361            5 
 2482000   0.83479912   -6.1574778    947.42225  0.031809772  0.031616028            7 
 2483000   0.82568084   -6.1842169    948.12427  0.031820522  0.031607583           12 
 2484000   0.86958791    -6.193061    947.61838   0.03179074  0.031599172            5 
 2485000   0.85717723   -6.1732491    948.52503  0.031808351   0.03159078           21 
 2486000   0.86219523   -6.1764867    949.68139  0.031834318  0.031582348            6 
 2487000   0.86306815   -6.1647758    947.89156  0.031761545  0.031573968            4 
 2488000   0.85510663   -6.1641121    952.32792  0.031897372  0.031565578            5 
 2489000   0.86278404   -6.1465685    950.58234  0.031826113  0.031557285            4 
 2490000   0.85291303    -6.178138    953.67845  0.031916949  0.031549002            4 
 2491000   0.85093582   -6.1888954    949.48856  0.031763969   0.03154067           15 
 2492000   0.87957044   -6.1807615    948.99271  0.031734641  0.031532303            7 
 2493000   0.86171119   -6.1557758    948.86201  0.031717543  0.031523949            7 
 2494000   0.86372617   -6.1787643    950.55484  0.031761389  0.031515585            5 
 2495000   0.84731693   -6.1921963     950.0152  0.031730635  0.031507224            9 
 2496000   0.85023363    -6.193296    949.44396   0.03169885  0.031498856            7 
 2497000   0.85190755   -6.2038928    948.75218  0.031663068  0.031490471            7 
 2498000   0.86292705   -6.1998023    950.57705  0.031711271  0.031482052           16 
 2499000   0.84172122   -6.1661009    951.62537  0.031733539   0.03147363            4 
 2500000   0.84843906   -6.2198945    947.57012  0.031585671  0.031465206            9 
 2501000   0.81714902    -6.213796    947.93091  0.031585063  0.031456698            8 
 2502000   0.85595403   -6.1993257    948.47483  0.031590555  0.031448247            4 
 2503000   0.85947441   -6.1740303    952.30329  0.031705397  0.031439785            4 
 2504000   0.82981453   -6.2117904    948.99564  0.031582656  0.031431317            6 
 2505000   0.83106716   -6.1680121    951.04521   0.03163823  0.031422889            7 
 2506000   0.85963936   -6.1934679    950.48435  0.031606955  0.031414377            6 
 2507000   0.83974426   -6.1923575    951.35934  0.031623432  0.031405888            5 
 2508000    0.8458552   -6.1726532     952.2833  0.031641524  0.031397459            7 
 2509000   0.86703882   -6.1764726     950.1532  0.031558164   0.03138904            7 
 2510000   0.82732967   -6.1962858    950.94883  0.031572006  0.031380596            6 
 2511000   0.84663463   -6.1917004    949.78847  0.031520924  0.031372224            4 
 2512000   0.85422385   -6.1614493    953.21017  0.031621887  0.031363804            8 
 2513000   0.84731236   -6.1476098    954.23674  0.031643346  0.031355442            6 
 2514000   0.84378143   -6.1796066     950.5755  0.031509397  0.031347054           11 
 2515000   0.84631621   -6.1735182    951.87753  0.031540011  0.031338577           11 
 2516000     0.843366   -6.1554584    951.00286  0.031498505   0.03133003            5 
 2517000   0.84487958   -6.1790406    952.83259   0.03154657  0.031321519            9 
 2518000   0.84571435   -6.1856704    950.65621  0.031462014  0.031313028            6 
 2519000   0.82509377   -6.2097685    951.32057  0.031471502  0.031304477            8 
 2520000   0.84146563    -6.179823    952.88436  0.031510726  0.031296017            8 
 2521000   0.85598229   -6.2100695    951.40476  0.031449318   0.03128751            7 
 2522000    0.8442021   -6.2082279    951.05205  0.031425193  0.031278927           11 
 2523000   0.85834491   -6.1709693    954.47015  0.031525636  0.031270395            4 
 2524000   0.83437101   -6.1710447    954.17938  0.031503545  0.031261945            5 
 2525000   0.85554174   -6.1829802    954.11034   0.03148879    0.0312535            7 
 2526000   0.84558524   -6.1911531    952.37933  0.031419218  0.031245022            5 
 2527000   0.85807884   -6.2065353    948.75156  0.031287151  0.031236544            6 
 2528000   0.85390935   -6.2176229    952.34938  0.031393374  0.031228078            4 
 2529000   0.85101374   -6.1822925    953.41153  0.031415959  0.031219522           14 
 2530000   0.86010058   -6.1888315    951.89626  0.031353632  0.031210927            8 
 2531000   0.84401856    -6.209132    950.30651  0.031288901  0.031202397            6 
 2532000   0.87177632    -6.238489    949.52897  0.031250954  0.031193809            4 
 2533000   0.83661542   -6.1924303    952.60003  0.031339651   0.03118526            9 
 2534000    0.8467046   -6.1777332    954.62302  0.031393811  0.031176853            6 
 2535000   0.84491262   -6.1936121    954.41178  0.031374483  0.031168394            5 
 2536000   0.83730506   -6.2197851    950.47192  0.031232647  0.031159838           11 
 2537000   0.83865418   -6.2128982    950.18657  0.031210963  0.031151331            4 
 2538000   0.83106228   -6.1769146    954.01892  0.031324498   0.03114286            6 
 2539000   0.85608833   -6.2120674    953.12057  0.031282676  0.031134338           12 
 2540000    0.8412228    -6.227641    951.81629  0.031227568  0.031125766           11 
 2541000   0.83872135   -6.2230159    955.56695  0.031338284   0.03111724            6 
 2542000   0.82258954   -6.2111617    951.54068  0.031193964  0.031108776            7 
 2543000   0.82831118   -6.1993283    955.28029  0.031304243  0.031100308            7 
 2544000   0.84241879   -6.2384619    953.00303  0.031217342   0.03109179            7 
 2545000   0.84261286   -6.2224091     953.1686  0.031210498  0.031083319            3 
 2546000   0.84536243   -6.1663419    954.65675  0.031246948   0.03107485            9 
 2547000   0.83087483   -6.2123289    955.42533  0.031259826  0.031066445            5 
 2548000   0.83560151   -6.2050134    955.85506  0.031261612  0.031058038            8 
 2549000   0.83601283   -6.2149367    954.91291  0.031218547  0.031049686            8 
 2550000   0.84210739   -6.2101773    956.87786  0.031270518  0.031041286           10 
 2551000   0.85107843   -6.1844496    958.95218  0.031326022   0.03103295            7 
 2552000      0.84095   -6.1937736    960.29041  0.031357445  0.031024693            5 
 2553000   0.83486546   -6.2110843     956.4803  0.031220796   0.03101639            5 
 2554000   0.83708458    -6.218303    959.97105   0.03132247  0.031008145            9 
 2555000   0.84842731   -6.2165877    960.82523   0.03133807  0.030999888            7 
 2556000   0.82234688   -6.2143613    958.06755  0.031235901   0.03099164            6 
 2557000   0.84058349   -6.2257859    957.51869  0.031205798  0.030983451            7 
 2558000   0.82598924    -6.217942    958.00498   0.03120944  0.030975131           11 
 2559000   0.84028936    -6.221822    959.63454  0.031250311  0.030966821           11 
 2560000   0.85213006   -6.2238268    956.81252  0.031146241  0.030958551            9 
 2561000   0.84137121   -6.2173534    959.48311  0.031220978  0.030950297            9 
 2562000   0.85170266    -6.203597    961.44573   0.03127263  0.030942097            7 
 2563000   0.84753619   -6.2056582    962.04998  0.031280075  0.030933854            5 
 2564000   0.81419189   -6.1913752    957.84664  0.031131261  0.030925629            7 
 2565000   0.85273915   -6.1970588    961.97051  0.031253103  0.030917426            5 
 2566000   0.84345414   -6.2066055    959.13604  0.031148871  0.030909221            5 
 2567000   0.85732987   -6.1845698    963.43372  0.031276254  0.030901041            4 
 2568000   0.84379348   -6.1976387    960.37133  0.031164698   0.03089289            4 
 2569000    0.8396211   -6.2071358    962.52728  0.031222501  0.030884667           11 
 2570000   0.85651416   -6.1902277    959.77125  0.031120987  0.030876432            4 
 2571000   0.82975377   -6.2181991    958.61012  0.031071247  0.030868133            4 
 2572000   0.82891699   -6.2185852    959.62922  0.031092186  0.030859799            4 
 2573000    0.8270445   -6.2186131    959.95443  0.031090634  0.030851512            6 
 2574000   0.81639117   -6.2218373    961.56431  0.031130676  0.030843183            5 
 2575000   0.84864338    -6.207967    959.74287   0.03105964  0.030834884            7 
 2576000   0.85120517   -6.1964403    959.88812  0.031052281  0.030826566            4 
 2577000    0.8221056    -6.194224    958.61134  0.030998944   0.03081835            6 
 2578000   0.82988436   -6.1952905    959.84574  0.031026821  0.030810068            6 
 2579000   0.84787794   -6.2339396    962.08475  0.031087138  0.030801838            5 
 2580000   0.84123189   -6.1920116    967.84492  0.031261141   0.03079367            4 
 2581000   0.82633842   -6.2221956    961.55285  0.031045875  0.030785505            7 
 2582000   0.85336301   -6.2293426    963.14602   0.03108527  0.030777256            9 
 2583000    0.8358661   -6.2159939    960.93554  0.031001921  0.030769071            7 
 2584000   0.84161182   -6.1970102     964.2332  0.031096272  0.030760959            4 
 2585000   0.81454625   -6.1884384    964.22325  0.031083922  0.030752806           11 
 2586000   0.83018386   -6.2350131     963.2462  0.031040416  0.030744596           16 
 2587000   0.84113026   -6.1965199    963.42925  0.031034314  0.030736461            6 
 2588000   0.81998397   -6.2256528    964.72439  0.031064026  0.030728264            3 
 2589000   0.83631233   -6.2084021    963.09717  0.030999652  0.030720039            6 
 2590000   0.84942571   -6.2297548    964.11215  0.031020339  0.030711782            9 
 2591000   0.83444788   -6.1736486     966.9091  0.031098324  0.030703579           15 
 2592000   0.81953858   -6.2451295    962.84956  0.030955812  0.030695325            5 
 2593000   0.85381048   -6.2209747    961.13334  0.030888718  0.030687034            4 
 2594000   0.83045113    -6.206315     961.7193  0.030895634  0.030678759            7 
 2595000   0.84436166   -6.2371049    963.09626  0.030927947  0.030670482           12 
 2596000   0.83627522    -6.185467    964.22514  0.030952271  0.030662165            6 
 2597000    0.8378613   -6.2233816    963.21514  0.030907943  0.030653942            5 
 2598000   0.83729431   -6.2111665    963.82484  0.030915603  0.030645661            6 
 2599000   0.83937001   -6.2296906    963.57395  0.030895663   0.03063739           19 
 2600000    0.8457395   -6.2385375    963.78794  0.030890639  0.030629157            6 
 2601000   0.82280756   -6.2344929    964.68721  0.030907574  0.030620886           14 
 2602000   0.84433776   -6.2330735    963.23462  0.030849174  0.030612696            6 
 2603000   0.81676518   -6.2048081    966.19297  0.030932033  0.030604505            4 
 2604000   0.85024509   -6.2141079    966.55406  0.030931709  0.030596347            9 
 2605000   0.82598152   -6.2237215    966.24746  0.030910027  0.030588189           10 
 2606000   0.83854193   -6.2198552    967.15478   0.03092718   0.03058006            5 
 2607000   0.83308984   -6.2043753    965.60244  0.030865696   0.03057194            7 
 2608000   0.82831528   -6.2292614     963.8337  0.030797345  0.030563802            6 
 2609000   0.85690629   -6.2153109    965.17306  0.030828321   0.03055565            5 
 2610000   0.85099313   -6.1996671    966.94404  0.030873053  0.030547511            8 
 2611000   0.83117006   -6.2055709    968.68984  0.030916949  0.030539392            7 
 2612000    0.8450802   -6.1983933    967.90166  0.030879966  0.030531251            6 
 2613000   0.83384097   -6.2184328    966.81706  0.030833559  0.030523136            5 
 2614000   0.82266157   -6.1966861    966.21861  0.030802684  0.030515014           10 
 2615000   0.83361853   -6.2509137    965.33569  0.030762769  0.030506871            6 
 2616000    0.8357892   -6.2638316    964.35535  0.030719781  0.030498682            9 
 2617000   0.83821048   -6.2269829     967.6362  0.030812514  0.030490584            5 
 2618000   0.85258628   -6.2489213     963.5761  0.030671508  0.030482457            9 
 2619000   0.84246645   -6.2519803    968.07174  0.030802843  0.030474279            8 
 2620000   0.83377281   -6.2111282    969.34748  0.030831663  0.030466156           14 
 2621000   0.84051853   -6.2186493    967.66598  0.030766437  0.030458042            5 
 2622000   0.84002418   -6.2183257    967.53117  0.030750418  0.030449925            3 
 2623000   0.84767432   -6.2189553    967.99991  0.030753587  0.030441818            5 
 2624000   0.81231779   -6.2343389    969.06174  0.030775589  0.030433699            4 
 2625000   0.83098626   -6.2170495    966.85983  0.030693963  0.030425606           10 
 2626000   0.83626508    -6.234495    967.48674  0.030702169  0.030417519            7 
 2627000   0.86302889   -6.2187928    970.29376  0.030779526   0.03040949           10 
 2628000   0.83623626   -6.2567997    967.92436   0.03069268  0.030401461            7 
 2629000   0.82784192   -6.2477262    968.31514  0.030693392  0.030393316            4 
 2630000   0.83907759     -6.23851    969.31806    0.0307135  0.030385191            2 
 2631000   0.83152346   -6.2304033    969.67952  0.030713275  0.030377191            8 
 2632000   0.83184239   -6.2259986    971.72687  0.030766428  0.030369141            6 
 2633000   0.81808145   -6.2245368    970.35019  0.030711172   0.03036108           15 
 2634000    0.8392874   -6.2698719    968.89525  0.030653482  0.030353008            6 
 2635000   0.85672104   -6.2601309    970.03169  0.030677789   0.03034499            5 
 2636000   0.84903304   -6.2346567    972.99673  0.030759887  0.030336991            7 
 2637000   0.83435605     -6.25804    969.51768  0.030638278   0.03032897            7 
 2638000   0.83106915   -6.2702678    971.66263  0.030694422  0.030320955            5 
 2639000   0.83885104     -6.26919    972.45162  0.030707705  0.030312889           13 
 2640000   0.83414823   -6.2207389    971.34393  0.030661109  0.030304885            6 
 2641000   0.82239556    -6.281177    971.33839  0.030649325  0.030296902           15 
 2642000   0.83618306   -6.2574649    972.55846  0.030676207  0.030288864            8 
 2643000   0.82570311   -6.2777587    969.37025  0.030564077  0.030280783            7 
 2644000   0.82144237   -6.2535026    971.64928  0.030624347  0.030272674           10 
 2645000   0.81524223   -6.2359782    970.82284  0.030586731   0.03026465            5 
 2646000   0.83755745   -6.2114642     975.8653  0.030733979  0.030256616            6 
 2647000   0.82757296   -6.2447921    973.90194  0.030660557   0.03024861            9 
 2648000   0.83678767   -6.2537715    972.83695  0.030615463  0.030240542           13 
 2649000   0.82541125   -6.2317686    972.37172   0.03058927   0.03023241            9 
 2650000   0.81221235   -6.2532896    973.20776  0.030604018  0.030224384            5 
 2651000   0.82603914   -6.2311888    969.50001  0.030475921  0.030216299            8 
 2652000   0.83753718   -6.2458023    973.53817   0.03059132  0.030208225            6 
 2653000   0.82650994   -6.2481392    974.88481  0.030622088  0.030200225            9 
 2654000   0.82676012   -6.2534801    971.82663  0.030514526   0.03019216            7 
 2655000    0.8348178   -6.2528992    974.31603  0.030581168  0.030184108            6 
 2656000   0.80622017   -6.2633279    972.42557   0.03051034  0.030175958            9 
 2657000   0.83371224   -6.2780604    971.58571  0.030472516  0.030167804           11 
 2658000   0.82284607   -6.2327448     972.0971  0.030477085  0.030159732           15 
 2659000   0.83435088   -6.2583778    972.14727  0.030467195  0.030151676            9 
 2660000   0.81541991   -6.2607078    972.66757  0.030472042  0.030143657            4 
 2661000   0.82033742   -6.2301953    972.56916  0.030457508  0.030135588            7 
 2662000   0.82797963   -6.2591073    971.00983  0.030397252  0.030127539           12 
 2663000   0.83266452   -6.2373592    973.89322  0.030476068  0.030119445            6 
 2664000   0.82344623   -6.2453949    974.31021  0.030477672  0.030111464            9 
 2665000   0.85163981   -6.2313512    974.65958   0.03047716  0.030103432            5 
 2666000   0.84047958   -6.2577745    974.66765  0.030465981  0.030095458           12 
 2667000    0.8287927   -6.2200657    976.46614  0.030510753  0.030087528            6 
 2668000   0.84662478    -6.289184    973.70921  0.030413206  0.030079586            7 
 2669000   0.83304721    -6.288901     973.8332  0.030405682   0.03007154            8 
 2670000   0.82040468   -6.2649873    973.90158  0.030396429  0.030063465            6 
 2671000   0.83067617   -6.2626062    972.73626  0.030348692  0.030055459            7 
 2672000   0.82147416   -6.2783442    972.20136  0.030320651  0.030047393            9 
 2673000   0.82986494   -6.2700467    975.30327  0.030406013   0.03003934            6 
 2674000   0.82448269   -6.2468366    977.47395   0.03046229  0.030031313            9 
 2675000   0.83005213   -6.2858937    974.85389   0.03036928  0.030023262            3 
 2676000   0.82278388   -6.2701135    973.45804  0.030314463  0.030015172           11 
 2677000   0.82041763    -6.226608     975.7387  0.030374135   0.03000713            9 
 2678000   0.83458039   -6.2828345    977.01439  0.030402489  0.029999116            9 
 2679000   0.82256331   -6.2604769    975.74018  0.030351505  0.029991027            5 
 2680000    0.8120942   -6.2171011    976.75203  0.030371643  0.029982999            6 
 2681000    0.8276449   -6.2376909    977.38199  0.030379895  0.029974977            6 
 2682000   0.84234674    -6.276048    974.81455  0.030288794  0.029966867            4 
 2683000   0.81126536   -6.2736736    974.19508  0.030258264  0.029958759           10 
 2684000   0.81176475   -6.2517045    974.10419  0.030244169  0.029950682            9 
 2685000   0.82320213   -6.2601358    975.40825  0.030273378  0.029942613            6 
 2686000   0.80752394    -6.261381    975.52087  0.030265601  0.029934529            7 
 2687000   0.82713447   -6.2386649    977.09365  0.030303115  0.029926459            5 
 2688000   0.82447116    -6.251188    974.03025   0.03019687  0.029918374            9 
 2689000    0.8162567   -6.2771564    973.84704  0.030179963  0.029910319            8 
 2690000    0.8163076   -6.2467285    977.81974  0.030291814  0.029902281           15 
 2691000   0.81779952    -6.268782    977.75543  0.030278565  0.029894245            6 
 2692000   0.82703867   -6.2644973     975.9738  0.030212166  0.029886148           13 
 2693000   0.81593349   -6.2748212    976.27146  0.030210158  0.029878034            5 
 2694000   0.80510108   -6.2211304    977.78925  0.030245894  0.029869974            5 
 2695000    0.8323464   -6.2481924    977.82815  0.030235873  0.029861917            5 
 2696000   0.81858165   -6.2501278    976.10145  0.030171286  0.029853846            7 
 2697000   0.82158029   -6.2469783    974.57138  0.030112822  0.029845781            6 
 2698000   0.80676523   -6.2504591    976.79911  0.030170469  0.029837698            5 
 2699000   0.84246626   -6.2742186    975.16725  0.030108906  0.029829569            3 
 2700000   0.80951898   -6.2788048    976.04722  0.030124914  0.029821473           14 
 2701000   0.84210404   -6.2728192    975.99797  0.030112241  0.029813348            6 
 2702000   0.80138068    -6.255653    978.14157  0.030167209  0.029805273            4 
 2703000   0.81952259   -6.2708305    976.47338  0.030104618  0.029797236            8 
 2704000   0.82315406   -6.2792235    975.42566  0.030061195  0.029789084            6 
 2705000   0.82285816   -6.2687379    977.39088  0.030110625  0.029780929            8 
 2706000     0.817179   -6.2638126      979.738  0.030171779  0.029772831            4 
 2707000   0.82083525   -6.2518592    978.53276   0.03012353  0.029764757            6 
 2708000   0.83571007   -6.2571052    976.37366  0.030045964  0.029756633            5 
 2709000   0.81458278   -6.2802911    977.75637  0.030077408  0.029748458            4 
 2710000   0.81628321   -6.2721566    976.38465  0.030024128  0.029740308            8 
 2711000   0.84785127   -6.2874558    977.00326  0.030032069  0.029732182            4 
 2712000   0.82568249   -6.2999881    975.33563  0.029969753  0.029724037            7 
 2713000   0.82692743   -6.2651758    977.03986  0.030011054  0.029715917            7 
 2714000   0.80495417   -6.2463048    978.30287  0.030038777  0.029707922            7 
 2715000   0.82182121    -6.264813    975.14812  0.029930882  0.029699838            6 
 2716000   0.80679162    -6.262555    978.61164   0.03002613   0.02969172            5 
 2717000   0.81369071   -6.2918104    977.31602  0.029975341  0.029683612            8 
 2718000   0.80894459   -6.2788468    977.18818  0.029960393  0.029675598            7 
 2719000   0.83450675    -6.261207    978.75251  0.029997319  0.029667532            6 
 2720000   0.80261795   -6.2692939      978.852  0.029989338  0.029659474            3 
 2721000   0.81607686   -6.2555426    982.11596  0.030078279   0.02965137            9 
 2722000   0.81246931   -6.2615249    979.78791  0.029995956  0.029643333            7 
 2723000   0.81439974   -6.2785333    981.66738  0.030042459  0.029635298            6 
 2724000   0.81136078   -6.2925637    979.46299  0.029963993  0.029627282            5 
 2725000   0.82362342   -6.2702173    982.31943   0.03004035  0.029619231            3 
 2726000   0.82249106   -6.3060809    976.45169  0.029849954  0.029611128            9 
 2727000   0.80680576   -6.2969099    979.84516  0.029942707   0.02960307            6 
 2728000   0.82164016   -6.2556114    983.07779   0.03003048   0.02959501           17 
 2729000    0.8167689   -6.2939074    982.25811  0.029994446  0.029586935            4 
 2730000   0.81327459   -6.3176515    978.81999   0.02987851  0.029578846            9 
 2731000   0.80565871   -6.2901295    978.73329  0.029864924  0.029570747           10 
 2732000   0.82693042   -6.2808969    979.88423  0.029889099  0.029562669            8 
 2733000   0.80649339   -6.2597165    979.91745  0.029879176  0.029554639           11 
 2734000   0.82451841   -6.2651672    982.94661  0.029960577  0.029546623            7 
 2735000   0.81646198   -6.3001786    984.10339  0.029984869  0.029538567            6 
 2736000   0.81116816   -6.2832922    983.43801  0.029953643  0.029530586            7 
 2737000   0.81370406   -6.2601992    982.03509  0.029899985  0.029522602           11 
 2738000   0.82147474   -6.2531454    984.20434  0.029955087  0.029514701           12 
 2739000   0.82985788   -6.2729901     984.0838  0.029940483  0.029506705            6 
 2740000   0.83594991   -6.3002411    982.43992   0.02987956  0.029498696            8 
 2741000   0.81789615   -6.3072299     983.6356   0.02990501  0.029490654            7 
 2742000   0.80735937   -6.2660042    983.79734   0.02989902  0.029482729           11 
 2743000   0.81223433   -6.2762944    983.01932  0.029864483  0.029474788            5 
 2744000   0.82090756   -6.2825173    983.18743  0.029858705  0.029466909            9 
 2745000   0.80582975   -6.2754641    983.84428  0.029867768  0.029458948            7 
 2746000   0.79976071   -6.2588825     983.2906  0.029840089  0.029451079            5 
 2747000   0.82348049   -6.2677906    982.08759  0.029792731  0.029443129            7 
 2748000   0.80836309   -6.3064644    982.45446  0.029793015  0.029435148            8 
 2749000   0.81160929   -6.3241605    980.44052  0.029721126  0.029427089           10 
 2750000   0.82351363    -6.293315    984.67991  0.029838785  0.029419129           10 
 2751000   0.81625428     -6.23652    986.53116  0.029884017  0.029411178            6 
 2752000   0.81740629   -6.2738943    981.34466  0.029716105  0.029403293           10 
 2753000   0.82154988   -6.2928377     985.1343  0.029820024  0.029395339            8 
 2754000   0.81433317   -6.2707296    983.71828  0.029766348  0.029387431            6 
 2755000   0.82279136    -6.316632    984.57659  0.029781506  0.029379494            6 
 2756000   0.81132689   -6.2788344    986.40984  0.029826132  0.029371607            7 
 2757000   0.80751214   -6.2971036    982.26487  0.029690028  0.029363626            7 
 2758000   0.80415984   -6.2986305    984.65554  0.029751497  0.029355721            7 
 2759000   0.82688591   -6.2831395    985.90254  0.029778378  0.029347877            3 
 2760000   0.80288839   -6.2944573    986.02372  0.029771248  0.029339965            7 
 2761000   0.80037696   -6.2768467     987.0975  0.029792874  0.029332027            5 
 2762000   0.82761005   -6.2712512    984.81004  0.029713071  0.029324124            6 
 2763000   0.80046663   -6.2825435    984.13896  0.029682077  0.029316212           10 
 2764000   0.80382546   -6.2738074    986.16937  0.029732555  0.029308256            7 
 2765000   0.81104672    -6.304792    984.22244  0.029663124  0.029300256           12 
 2766000   0.79994859   -6.2940786    983.83475  0.029640719  0.029292258            8 
 2767000   0.82652033   -6.2721348    984.89596  0.029661967  0.029284313            2 
 2768000    0.8102147    -6.298297    985.04872   0.02965585  0.029276367            7 
 2769000   0.81334748   -6.2860118    987.19066  0.029709602  0.029268478            3 
 2770000   0.81769564   -6.2700407    985.54972   0.02964951  0.029260563           13 
 2771000   0.79957185   -6.2896367    985.30631   0.02963149  0.029252628            8 
 2772000   0.81406783   -6.2569503    984.80518  0.029605735  0.029244643            7 
 2773000   0.81709513   -6.2959764    986.62481  0.029649742  0.029236651            8 
 2774000   0.81632577   -6.3003051    987.39939  0.029662322  0.029228705           11 
 2775000   0.80822723   -6.2680977    985.56514  0.029596551  0.029220775            6 
 2776000   0.79487183   -6.2807256    985.24283  0.029576214  0.029212883            5 
 2777000   0.80538426    -6.302488    986.79574  0.029612164  0.029204883            7 
 2778000    0.8071473   -6.2917744     983.1842  0.029493167   0.02919695            7 
 2779000   0.82126515   -6.2757139    985.48907  0.029551669  0.029189009            5 
 2780000   0.79370283   -6.2915091    985.57359  0.029543573  0.029181095            4 
 2781000   0.80504035   -6.2849317    987.06766   0.02957772  0.029173079            5 
 2782000   0.82805099   -6.2775678     988.4786  0.029609352  0.029165153            9 
 2783000   0.80661563   -6.2798053    987.46917  0.029568486  0.029157246           17 
 2784000   0.80516554   -6.3110944    985.59022  0.029501623  0.029149271            4 
 2785000   0.80400153   -6.3159833    984.72645  0.029465184  0.029141266            3 
 2786000     0.815298   -6.3219487    987.01949  0.029523196  0.029133273            9 
 2787000   0.81327865   -6.3311134    984.85309  0.029447826  0.029125271            3 
 2788000   0.80705168    -6.300904    983.27501  0.029390095  0.029117292            5 
 2789000   0.81438425   -6.3054552    986.64329  0.029480199  0.029109268           10 
 2790000   0.78735738    -6.325698    986.08671  0.029453008  0.029101246            5 
 2791000   0.80581054   -6.3119334    989.16271  0.029534298  0.029093293            6 
 2792000   0.81088994   -6.2950783    989.40213  0.029530866  0.029085315            6 
 2793000    0.8224249   -6.3185326    986.22101  0.029425379  0.029077333           10 
 2794000   0.80422904   -6.3032864    987.84848  0.029463388  0.029069412            8 
 2795000   0.79958244   -6.3433133    986.91114    0.0294249  0.029061472            6 
 2796000   0.79339054   -6.2866568    989.96809  0.029505487  0.029053575            8 
 2797000   0.79696044    -6.296219    987.67247  0.029426542  0.029045658            9 
 2798000   0.79392223   -6.2772422      988.939  0.029453747  0.029037691            5 
 2799000   0.82144585   -6.2936811    987.04548  0.029386849  0.029029812            6 
 2800000   0.80235551   -6.3061033    988.00805  0.029405001  0.029021886            9 
 2801000   0.79757894   -6.3220555    986.34967  0.029345165  0.029013939            7 
 2802000   0.81359389    -6.302161    990.64327  0.029462386  0.029005951           12 
 2803000   0.79025702   -6.2887752    989.81811  0.029427343  0.028998021           15 
 2804000   0.79388775   -6.3246286    990.21588   0.02942867  0.028990109            5 
 2805000   0.78624301   -6.3180508    989.46364   0.02939583  0.028982205           10 
 2806000   0.80748018   -6.3332708    990.17429  0.029406459  0.028974237            9 
 2807000    0.8059267   -6.3089259    989.81574  0.029385338  0.028966346           17 
 2808000   0.79994132   -6.3074223    990.03079  0.029381256   0.02895846           12 
 2809000   0.82814803   -6.3283833    988.46978  0.029324486  0.028950567           16 
 2810000   0.80358199   -6.2939069     991.9335   0.02941677  0.028942687            9 
 2811000   0.79033846   -6.2978452    989.35752   0.02932994  0.028934828            7 
 2812000   0.81865083   -6.3073248     992.1171  0.029401289  0.028926963            4 
 2813000   0.80205716   -6.3198337    992.29871  0.029396217  0.028919093            9 
 2814000   0.80694873   -6.3015466    991.82077  0.029371617  0.028911164           10 
 2815000   0.82415389   -6.3338928    989.44908  0.029290973  0.028903307            9 
 2816000   0.80426556   -6.3374838    989.14972  0.029271713  0.028895404            4 
 2817000   0.80514592   -6.3217259    987.51274  0.029212896  0.028887497            9 
 2818000   0.79183578   -6.3056488    992.63806  0.029354095  0.028879597            7 
 2819000   0.78872366   -6.2992685    992.41447  0.029337072  0.028871757            5 
 2820000   0.80498585   -6.3246146    987.61695  0.029184898  0.028863881            6 
 2821000   0.79179055   -6.3246628    991.14391   0.02927874  0.028855984            8 
 2822000   0.80321928   -6.3211647    988.99679  0.029204961  0.028848116           13 
 2823000   0.79612007   -6.2836868    992.98511  0.029312348  0.028840259           14 
 2824000   0.80408463   -6.3121008    991.94306  0.029271219  0.028832342            6 
 2825000   0.80779148   -6.3388505    988.91875  0.029171645  0.028824412           10 
 2826000   0.81252327   -6.3349757    989.89231  0.029190031  0.028816421            7 
 2827000   0.77652277   -6.3127872    988.40396  0.029135832  0.028808427            2 
 2828000   0.79023981   -6.2949378    990.44261  0.029185603  0.028800439            6 
 2829000   0.81086023   -6.3180139    992.18917  0.029226734  0.028792476            5 
 2830000   0.81146765   -6.3053702    990.81306  0.029175885  0.028784546           10 
 2831000    0.7833699   -6.2984657    991.60639  0.029188932  0.028776621            5 
 2832000   0.82818349   -6.2966114    992.78736  0.029213376  0.028768815           11 
 2833000    0.8269539   -6.3262639    991.01378  0.029150894  0.028760877            6 
 2834000    0.7971622   -6.3390795    990.95638   0.02913892  0.028752902           16 
 2835000    0.8070225   -6.3260081    992.13751   0.02916336  0.028744936           10 
 2836000   0.78440605   -6.3315053    990.49339  0.029104766  0.028736982            7 
 2837000   0.79529346   -6.3018505    992.52994  0.029154328   0.02872911           21 
 2838000   0.82047526   -6.3385429    992.31218  0.029137661   0.02872123            9 
 2839000   0.80744153   -6.3100937    993.30606  0.029156571  0.028713334           10 
 2840000   0.80246048   -6.3142659    993.10666  0.029140454  0.028705488            7 
 2841000   0.79417771   -6.3233008    991.49838  0.029083022  0.028697588            6 
 2842000   0.79747482    -6.341195    990.72836   0.02905021  0.028689655            5 
 2843000   0.79852391    -6.335251    991.53277   0.02906357  0.028681667            8 
 2844000   0.80206771   -6.3494327    991.26217  0.029045422  0.028673682           12 
 2845000   0.80463941   -6.3438084    991.11572  0.029030923  0.028665708            6 
 2846000   0.79453577   -6.3287745    993.39402  0.029087433  0.028657751            9 
 2847000   0.79700051      -6.3343     992.9629  0.029064597  0.028649753            9 
 2848000    0.7755413   -6.3415336    992.22941   0.02903293  0.028641787            8 
 2849000   0.80712149   -6.3153233    994.22795  0.029081197  0.028633836            4 
 2850000   0.80028958   -6.3168663    992.47955   0.02901987  0.028625891            7 
 2851000   0.78470909    -6.316185     991.1759  0.028971586  0.028617905           12 
 2852000   0.78985779   -6.3035707     994.5233  0.029059236  0.028610043           11 
 2853000   0.78106434   -6.3141966    990.57864  0.028933831  0.028602111            8 
 2854000   0.80583853    -6.323835    992.08711  0.028967739  0.028594177           11 
 2855000   0.80981613   -6.3282985    993.26113   0.02899186  0.028586263           28 
 2856000   0.79183377   -6.3091391     996.0782  0.029063906  0.028578402           13 
 2857000   0.78993098   -6.3239182    995.95647  0.029050183  0.028570541           10 
 2858000   0.81947865   -6.3293516    994.34893  0.028993146  0.028562657            9 
 2859000   0.79175896   -6.3094643     993.3026  0.028952507  0.028554789           18 
 2860000   0.79819323    -6.336277    993.66893  0.028953057  0.028546994           11 
 2861000   0.79149686   -6.3542716    993.97896  0.028951968  0.028539127            6 
 2862000   0.79983624   -6.3490407    996.54496  0.029016566  0.028531224            9 
 2863000   0.80772632   -6.3133536    996.55683  0.029006777  0.028523395           11 
 2864000   0.79774581   -6.3369302    993.93559  0.028920379  0.028515583            6 
 2865000   0.80878088   -6.3328165    993.87446  0.028908507  0.028507727            4 
 2866000   0.79917925    -6.329714     993.7323  0.028894286  0.028499872            5 
 2867000   0.78772304   -6.3361686    993.91441  0.028889501  0.028492011            9 
 2868000    0.8055928    -6.337882    992.07656  0.028826027   0.02848417            8 
 2869000   0.79659326   -6.3066939    995.33048  0.028910494   0.02847629            5 
 2870000   0.81021613    -6.347631    992.61325  0.028821523  0.028468409            8 
 2871000   0.79611509   -6.3429697    995.60134  0.028898216  0.028460571            6 
 2872000   0.78708833   -6.3224511    996.50853  0.028914477  0.028452806            8 
 2873000   0.80946042    -6.340553    993.81434  0.028826266  0.028444988            6 
 2874000   0.78461235   -6.3494068    994.92485  0.028848436  0.028437146            8 
 2875000   0.80921895   -6.3354955    996.51881  0.028884603   0.02842932           10 
 2876000   0.78817715    -6.330274    994.94059   0.02882883  0.028421461           12 
 2877000   0.81028597    -6.344903    996.11276  0.028852762  0.028413679           10 
 2878000   0.77856839   -6.3158671    996.66708  0.028858787  0.028405896            9 
 2879000   0.78954351   -6.3050551    995.48258  0.028814478    0.0283981           14 
 2880000   0.79167123   -6.3385273     996.4119  0.028831363  0.028390298           11 
 2881000   0.80315523   -6.3307377    996.14319  0.028813583   0.02838252           10 
 2882000   0.78039286   -6.3465457    995.96738  0.028798502  0.028374716            8 
 2883000   0.78645612   -6.3369941    993.73568  0.028724005  0.028366955           14 
 2884000    0.8004476   -6.3401585    997.31899  0.028817585  0.028359233            5 
 2885000   0.78257263   -6.3067702    996.26435  0.028777133  0.028351501            5 
 2886000   0.78352014   -6.3519346    994.73778  0.028723082  0.028343713            8 
 2887000   0.80376163   -6.3155715    998.78917  0.028830076   0.02833591            9 
 2888000   0.77040343   -6.3359587    1000.0113  0.028855359  0.028328165           12 
 2889000   0.80177638   -6.3427752    996.60596  0.028747143  0.028320363           11 
 2890000   0.76923227   -6.3606168    996.09516  0.028722467  0.028312527           16 
 2891000   0.78956005   -6.3174831    999.91988   0.02882278  0.028304779           18 
 2892000   0.80216763   -6.3254236    999.94022    0.0288134  0.028297019            8 
 2893000   0.78222096   -6.3423523    997.80562  0.028741952   0.02828925            7 
 2894000   0.80030372   -6.3292021    1000.5016  0.028809652  0.028281482            6 
 2895000   0.79311842   -6.3674081    996.11753  0.028673504  0.028273706            5 
 2896000   0.81162264   -6.3223156    1002.0209  0.028833475  0.028265925            6 
 2897000   0.77918821    -6.337993    996.24511  0.028657379  0.028258072            4 
 2898000   0.79505651   -6.3558157    997.31241  0.028678181  0.028250237           12 
 2899000   0.75642781   -6.3518264    996.35325  0.028640717  0.028242362            6 
 2900000   0.79958855   -6.3410024    997.47254  0.028663004  0.028234547            5 
 2901000    0.8160741   -6.3368573     998.5937   0.02868533  0.028226721           14 
 2902000   0.79932362   -6.3413823    997.91753  0.028656028  0.028218899           10 
 2903000   0.79418413   -6.3345817    998.87543  0.028673655  0.028211071            7 
 2904000   0.79072151   -6.3261118    998.75663  0.028660371  0.028203271           12 
 2905000   0.80738365   -6.3705668    999.39279  0.028668755  0.028195454           12 
 2906000   0.78762073   -6.3701942    998.08894    0.0286215  0.028187586           14 
 2907000   0.79630369    -6.312759    997.48467  0.028594332  0.028179769            6 
 2908000   0.76918425   -6.3052054    1000.7198  0.028677206  0.028172001            5 
 2909000   0.78190013   -6.3524475    996.38207  0.028543087  0.028164144           14 
 2910000   0.78812101   -6.3507816    999.29634  0.028616734  0.028156294           11 
 2911000   0.78035604   -6.3292834    998.47185  0.028583301  0.028148444           16 
 2912000   0.78419339   -6.3594106    997.40822  0.028543047  0.028140623           12 
 2913000   0.78036582   -6.3656983    995.49129   0.02847841  0.028132647           12 
 2914000   0.79225032   -6.3706603    994.60154  0.028443192  0.028124741           10 
 2915000   0.78813781   -6.3405422    999.52898  0.028574299  0.028116831            8 
 2916000   0.79054974   -6.3706352    997.20882  0.028498195  0.028108972           16 
 2917000   0.78908397   -6.3668984     997.4342  0.028494863  0.028101063            4 
 2918000    0.8010078   -6.3400717    994.52716  0.028402078  0.028093169            5 
 2919000   0.79472123   -6.3707255    996.20164  0.028440152  0.028085214            6 
 2920000   0.79532575   -6.3972012    995.69311  0.028415899  0.028077258            6 
 2921000    0.7546446   -6.3639698    998.98559  0.028500102  0.028069319            7 
 2922000   0.78092494   -6.3707734    996.69199  0.028424937  0.028061412           10 
 2923000   0.78988746   -6.3854582    998.37589   0.02846322   0.02805346            6 
 2924000   0.78616548   -6.3561298      997.104  0.028417237  0.028045473            7 
 2925000   0.79134905   -6.3533357    997.48333  0.028418329  0.028037513           25 
 2926000   0.77468001   -6.3644809     1000.926  0.028506664  0.028029573            4 
 2927000   0.79498373   -6.3758118     995.4529  0.028341103  0.028021659            6 
 2928000   0.79770558   -6.3681868    997.32978  0.028384841  0.028013718            8 
 2929000   0.76022205   -6.3928035    994.56311  0.028296435  0.028005707            9 
 2930000   0.78801842   -6.3951517    995.56437  0.028315255  0.027997677            6 
 2931000   0.78110858   -6.3606847    998.52018  0.028389633  0.027989741           10 
 2932000   0.78418463   -6.3440202    995.70285  0.028299876  0.027981889           11 
 2933000   0.79197528   -6.3652558    995.99216  0.028298448  0.027973958           10 
 2934000   0.77413333   -6.3575037    999.62612  0.028392017  0.027966087           15 
 2935000   0.78388198   -6.3888894    997.49005  0.028321694  0.027958218           12 
 2936000   0.77320739   -6.3645495    1000.1476  0.028387478  0.027950293            6 
 2937000   0.77648898   -6.3678068    998.59473  0.028333751  0.027942452            5 
 2938000   0.77526157   -6.3615903     997.8515  0.028303026  0.027934568            7 
 2939000   0.77664375   -6.3397161    1001.1987  0.028388304  0.027926723           13 
 2940000   0.79091744   -6.3093493    998.38519    0.0282989  0.027918926            6 
 2941000   0.77150525   -6.3765062    995.48907  0.028207216  0.027911031            9 
 2942000   0.76667185   -6.3718674    998.46492   0.02828192  0.027903126           17 
 2943000   0.79114109   -6.3610944    998.25426  0.028266346  0.027895261            7 
 2944000   0.78828211   -6.3457454    998.86119  0.028273924  0.027887357           13 
 2945000    0.7632028   -6.3868243    999.24618  0.028275217  0.027879431            9 
 2946000   0.75983826   -6.3362686    1000.1503  0.028291193  0.027871555            8 
 2947000   0.76743947   -6.3523711    999.27938  0.028256967  0.027863656           11 
 2948000   0.78653319    -6.363092    997.29448  0.028191273  0.027855794            8 
 2949000   0.77331819   -6.3732001     1000.444  0.028270715  0.027847898           11 
 2950000   0.77701412   -6.3676418    997.59801  0.028180735  0.027839904            6 
 2951000   0.78686248   -6.3556814    1000.8405  0.028262751  0.027832017            7 
 2952000   0.79410004   -6.3845948    999.62615  0.028218895  0.027824164            7 
 2953000   0.78956703   -6.3580449    1000.0629  0.028221664   0.02781624            5 
 2954000   0.78253185   -6.3946247    998.93824  0.028180384  0.027808324           12 
 2955000   0.78779779   -6.3676777    998.85759  0.028168573  0.027800448            7 
 2956000   0.77383878   -6.3997419    997.78793  0.028128888  0.027792551            5 
 2957000   0.78407343   -6.3264134    1000.4095  0.028193256  0.027784628           11 
 2958000    0.7789804   -6.3906288    999.82515  0.028167263  0.027776775            7 
 2959000   0.77653736   -6.3642173    1000.7846  0.028184764  0.027768877            4 
 2960000   0.77495177   -6.3774821    998.95662  0.028123779   0.02776099           11 
 2961000   0.76328482   -6.3833193    1001.2121  0.028177759  0.027753151            7 
 2962000   0.77523732   -6.3541071    1001.6553  0.028180715  0.027745299           10 
 2963000   0.78121585   -6.3705343    999.97467  0.028123936  0.027737446           14 
 2964000   0.75166704   -6.3780934    999.51822  0.028101614  0.027729598           10 
 2965000   0.79855985   -6.4094547    999.55562  0.028093188  0.027721688            7 
 2966000    0.7900189    -6.392417    998.84026  0.028063617  0.027713785           10 
 2967000   0.78052761   -6.3721505    999.30499  0.028067211  0.027705969           15 
 2968000   0.78186499   -6.3792357    1001.7193  0.028125541  0.027698139            7 
 2969000   0.76692274   -6.3818544    1001.9765  0.028123287  0.027690293           13 
 2970000   0.79503339    -6.376038    1003.9638   0.02816958  0.027682515           18 
 2971000   0.76763683   -6.3805768    1003.8252   0.02815621  0.027674757            9 
 2972000   0.76373707   -6.3857265    1002.0306  0.028096416  0.027666941            5 
 2973000    0.7800428   -6.3809223    1001.8828  0.028082822  0.027659157           10 
 2974000   0.77796933   -6.3648902    1002.5942  0.028093313  0.027651369           11 
 2975000   0.80319052   -6.3867178    1001.2898  0.028047335  0.027643626            9 
 2976000   0.78019246   -6.3744925    1005.6025  0.028158671  0.027635897           24 
 2977000   0.77862964   -6.3580472    1005.2628  0.028139703  0.027628168           12 
 2978000   0.77274892   -6.3737657    1004.3385   0.02810439  0.027620435            8 
 2979000   0.78353706   -6.4033845    1003.2168  0.028063578  0.027612666           13 
 2980000   0.79695153   -6.3769076    1003.1269  0.028051646  0.027604909            8 
 2981000   0.77384644   -6.3664794    1005.1174  0.028097882  0.027597084            6 
 2982000   0.77483429   -6.3535002    1007.1013  0.028143898   0.02758933            5 
 2983000   0.76871692   -6.3422915    1005.4423  0.028088118   0.02758161            7 
 2984000   0.76746508   -6.3736127    1003.6947  0.028029902   0.02757384            7 
 2985000   0.75569837    -6.402188    1003.4621  0.028014018  0.027566035            7 
 2986000   0.76378889   -6.4048308    1002.7665  0.027985224  0.027558173            8 
 2987000   0.78887997   -6.3683028     1004.411  0.028021732  0.027550343            9 
 2988000   0.77187236   -6.3903042    1002.6967  0.027964545  0.027542563           11 
 2989000   0.77325541   -6.3818157         1001  0.027907885  0.027534775           10 
 2990000   0.79273135   -6.3926348     1006.326   0.02804699  0.027526978            7 
 2991000   0.76386944    -6.389042     1002.023  0.027917724  0.027519229            7 
 2992000   0.76931202   -6.4153719    1002.5764  0.027923807   0.02751147           13 
 2993000   0.75867967   -6.3986185    1005.0524  0.027983418  0.027503725            7 
 2994000    0.7619746   -6.3696663    1005.2907  0.027980703  0.027495987           17 
 2995000   0.76240438   -6.3946863    1003.4616  0.027920468  0.027488248            8 
 2996000    0.7666313      -6.4006    1004.5021   0.02794009  0.027480493           11 
 2997000   0.76547673   -6.3920325    1005.4937  0.027958338  0.027472773           17 
 2998000   0.77521126    -6.357734    1005.9697  0.027962243  0.027465099           10 
 2999000    0.7768787   -6.3836022    1007.0535  0.027983035  0.027457474           15 
 3000000   0.76433182   -6.3855259    1004.6783  0.027907731  0.027449762            8 
 3001000   0.76174932   -6.3767725    1008.3091  0.027999253  0.027442096           12 
 3002000   0.77846461   -6.3656213    1006.4819  0.027939205   0.02743446           13 
 3003000   0.77429277   -6.3808802    1004.8369  0.027884251   0.02742677           16 
 3004000     0.769699   -6.3859055     1008.201  0.027968291  0.027419023            8 
 3005000   0.77026467   -6.3666935    1004.9868  0.027869851  0.027411308            6 
 3006000    0.7666981   -6.4028639    1007.5446  0.027931488  0.027403576           14 
 3007000   0.77364373    -6.397397     1006.836   0.02790256   0.02739587           13 
 3008000   0.77988393   -6.3949959    1003.9839  0.027814271  0.027388138            9 
 3009000   0.78998738   -6.3733881    1008.1823    0.0279213  0.027380446           12 
 3010000   0.77878415   -6.4040844    1005.6962  0.027843196  0.027372743            7 
 3011000   0.77562854   -6.3854872    1007.2216  0.027876165   0.02736499            8 
 3012000   0.77341489   -6.3999591    1007.3388  0.027870154  0.027357285           12 
 3013000   0.76340071   -6.4072681    1008.5481   0.02789435  0.027349608            7 
 3014000   0.76790391   -6.3913835    1005.9697  0.027813806   0.02734191            6 
 3015000    0.7745288    -6.386853    1006.6425  0.027823175  0.027334193           12 
 3016000   0.77940906   -6.4088187    1006.3363  0.027805491  0.027326465            6 
 3017000    0.7848841   -6.3980006    1006.4302  0.027798867  0.027318728            8 
 3018000   0.76737653   -6.3830837    1008.0692  0.027834912  0.027311039            8 
 3019000   0.76511484   -6.3505429     1007.976  0.027823119  0.027303448            6 
 3020000    0.7851813   -6.3878983    1007.4043  0.027798133  0.027295806            8 
 3021000   0.76344089   -6.4091291    1007.5617  0.027793272  0.027288143           12 
 3022000   0.76511731   -6.3995343    1006.7121  0.027760646  0.027280492            9 
 3023000     0.760476   -6.4075016    1006.6804  0.027750589  0.027272829            5 
 3024000   0.76567918    -6.367242    1008.4529  0.027790257  0.027265163            5 
 3025000    0.7675234   -6.3910796    1006.4143  0.027724912  0.027257496           15 
 3026000   0.77264868   -6.3963885    1005.6188  0.027693841  0.027249882            9 
 3027000   0.75809095   -6.3752684    1010.0253  0.027806004  0.027242262            9 
 3028000   0.76561722   -6.3950262    1007.0481  0.027714885  0.027234664            6 
 3029000   0.75875806   -6.3822543    1007.7207  0.027724241  0.027226922           15 
 3030000   0.78951655   -6.4225052    1006.7464  0.027688296  0.027219184           13 
 3031000   0.76653517   -6.4118166    1005.7397  0.027651481  0.027211431            7 
 3032000   0.76585853   -6.3978977    1008.2451  0.027711223  0.027203686           15 
 3033000   0.76617089     -6.41848    1006.8337  0.027663306  0.027195963           10 
 3034000   0.78125121   -6.4121867    1006.5316  0.027645891  0.027188274           10 
 3035000    0.7613753   -6.4173012    1006.3488  0.027631764  0.027180567            6 
 3036000   0.75442984   -6.4263078    1007.0209  0.027641109  0.027172829            7 
 3037000   0.77261624   -6.3900875    1007.0748  0.027633486  0.027165129            9 
 3038000   0.76103576   -6.3970763    1005.4288   0.02757924  0.027157442           15 
 3039000   0.78089186   -6.4054226    1006.4003  0.027596805  0.027149716            8 
 3040000   0.76248671   -6.4241838    1006.2056   0.02758239  0.027141918            9 
 3041000   0.75635902   -6.4181121      1008.78  0.027643868  0.027134125           10 
 3042000    0.7586279    -6.415543    1006.1788  0.027563521  0.027126384           30 
 3043000    0.7474205   -6.3562862    1010.1429  0.027663023  0.027118704            7 
 3044000   0.74334526    -6.412129    1005.7581  0.027533895  0.027110991           13 
 3045000   0.75453946   -6.4332669    1004.3035  0.027485045  0.027103221           14 
 3046000   0.76518292   -6.4091793    1006.9822  0.027549304  0.027095476           23 
 3047000    0.7700359   -6.3945788    1009.9106  0.027620353  0.027087746           13 
 3048000   0.74649903    -6.383874    1011.0151  0.027641488   0.02708004           10 
 3049000   0.75745541   -6.3857925     1008.098  0.027552694  0.027072358           14 
 3050000   0.75715917   -6.4032948    1006.5756  0.027502066  0.027064699            9 
 3051000   0.76962061   -6.4015612    1006.1622   0.02748176  0.027056985           11 
 3052000   0.76700022   -6.4134643    1008.2977  0.027531064  0.027049264            7 
 3053000   0.77887446    -6.399694    1009.1578  0.027545523  0.027041522            4 
 3054000   0.77276913   -6.4177537    1006.1001   0.02745307  0.027033813           13 
 3055000   0.78059147   -6.3747073    1008.7679  0.027516856  0.027026054            9 
 3056000   0.76851382   -6.4250645    1006.9164  0.027457362   0.02701833            7 
 3057000   0.75584367   -6.3915984    1009.6871   0.02752391  0.027010607            5 
 3058000   0.75458401   -6.4241726    1009.2093  0.027501888  0.027002839           10 
 3059000   0.76199714   -6.3947719    1006.2819  0.027413149  0.026995064            9 
 3060000   0.76358369   -6.4153917    1009.6222  0.027495158   0.02698732            5 
 3061000   0.76359531   -6.3857571    1005.8916  0.027384614  0.026979562            7 
 3062000   0.75741015   -6.4156005    1007.6971  0.027424807   0.02697176           30 
 3063000   0.75696941   -6.4280427    1005.6287   0.02735958  0.026963981           32 
 3064000   0.76762525   -6.3743018    1007.5336  0.027402459  0.026956199            4 
 3065000   0.75956462   -6.4235879    1005.9128  0.027349451  0.026948443           15 
 3066000   0.76879614    -6.427387    1005.8494  0.027338806  0.026940662            4 
 3067000   0.77769706   -6.4137419    1005.3692  0.027316845  0.026932886            9 
 3068000   0.75673501   -6.4235537     1007.471  0.027365032  0.026925134            4 
 3069000   0.76703328   -6.4206225    1006.7539  0.027336643  0.026917342            7 
 3070000   0.74987498   -6.4073753    1006.9106  0.027331993  0.026909564            7 
 3071000   0.76926212   -6.4412658    1003.5847  0.027232842  0.026901771           11 
 3072000   0.75466807     -6.41486    1007.1219   0.02731993  0.026893968           14 
 3073000   0.76657509   -6.4325124    1005.3508   0.02726301  0.026886169            5 
 3074000    0.7639963   -6.4350297    1005.9865  0.027271375  0.026878391           11 
 3075000   0.77031115   -6.4163127     1007.178  0.027294797  0.026870613            8 
 3076000   0.75737199   -6.4386671    1003.7658  0.027193481  0.026862772           10 
 3077000   0.76910915    -6.428076     1007.639  0.027289542  0.026854918           23 
 3078000   0.75489717   -6.4242543    1006.9317  0.027261524  0.026847156            8 
 3079000   0.75637072   -6.4162229     1008.476  0.027294467   0.02683939            9 
 3080000   0.76596454   -6.4179562      1009.13    0.0273033  0.026831647           10 
 3081000   0.77104441   -6.4091093    1008.5782  0.027279513  0.026823905            5 
 3082000   0.77091921   -6.3976122    1008.9093  0.027279615  0.026816176           12 
 3083000   0.75831488   -6.3933411    1009.2075  0.027278828  0.026808393           11 
 3084000   0.77457267    -6.435352    1005.7902  0.027177643  0.026800639            8 
 3085000   0.75901509   -6.4339144    1005.1485  0.027151498  0.026792839           25 
 3086000   0.75577568   -6.4265576    1004.1186  0.027114889  0.026785022            7 
 3087000   0.75709101   -6.4171224    1006.9865  0.027183525  0.026777222           20 
 3088000   0.77557263   -6.4265119    1006.9914  0.027174855  0.026769446            8 
 3089000   0.76123276   -6.4180261     1009.074  0.027222239  0.026761626            8 
 3090000   0.76712877   -6.3961835    1008.9558  0.027210243   0.02675388           15 
 3091000   0.76157317   -6.4492307    1005.5968   0.02711088  0.026746083           10 
 3092000   0.76620553   -6.3993955    1007.5303  0.027154222   0.02673826           13 
 3093000   0.75833873   -6.4096241    1008.4234  0.027169506  0.026730458            9 
 3094000   0.74301521   -6.4476049    1005.7812   0.02708956  0.026722641            4 
 3095000    0.7600101   -6.4144778    1006.1379  0.027090412   0.02671483            7 
 3096000   0.75650249   -6.4088566    1006.9131  0.027102526  0.026707019           10 
 3097000   0.75270422   -6.4264928    1007.9993  0.027123003  0.026699252            8 
 3098000   0.76926537   -6.4111158    1009.1404  0.027144943  0.026691494           11 
 3099000   0.76641342    -6.395637    1006.6255  0.027068557  0.026683692            9 
 3100000   0.75092642   -6.4341753    1007.5848  0.027085613   0.02667588           16 
 3101000   0.74523834   -6.4307226     1005.952     0.027033  0.026668011           19 
 3102000   0.76876232   -6.4332739    1007.4962   0.02706577  0.026660193            6 
 3103000   0.75646137   -6.4314287     1007.547  0.027058411  0.026652374            4 
 3104000   0.74827628   -6.4459548    1007.3859   0.02704537  0.026644507            6 
 3105000   0.74524926   -6.4021856    1008.3909  0.027063632  0.026636691            6 
 3106000   0.75787982    -6.453635    1005.7101  0.026982992  0.026628895            7 
 3107000   0.75125886   -6.4575132    1006.1692  0.026986621  0.026621048           11 
 3108000   0.73260193   -6.4467852    1006.1482  0.026977374   0.02661317            9 
 3109000   0.76238842   -6.4673051     1004.889  0.026934947  0.026605275           12 
 3110000    0.7460973   -6.4186928    1005.6117  0.026945652  0.026597349           16 
 3111000    0.7395665   -6.4700346    1006.4197  0.026958633  0.026589439           11 
 3112000   0.75470917    -6.449246    1006.7496  0.026958805  0.026581561           25 
 3113000   0.74624329   -6.4576914    1007.3939  0.026967392  0.026573669           21 
 3114000    0.7623101   -6.4576368    1008.3705  0.026984866  0.026565749           14 
 3115000   0.74627793   -6.4356787    1007.1691  0.026944064  0.026557899           19 
 3116000   0.75774204   -6.4559316    1005.9979  0.026904095  0.026550032           23 
 3117000   0.75847746   -6.4137253    1006.5634  0.026910581  0.026542178           14 
 3118000    0.7511827   -6.4232054    1009.0784  0.026969168  0.026534353            9 
 3119000   0.76166239   -6.4190229    1006.3016  0.026886331  0.026526529            7 
 3120000   0.75678996   -6.3980435     1006.819  0.026891534  0.026518687           11 
 3121000   0.75923069   -6.4720296    1005.8065  0.026855883  0.026510801           12 
 3122000   0.74469896   -6.4789525    1006.7055  0.026871275  0.026502931           18 
 3123000   0.74367405    -6.467846    1008.2838  0.026904788  0.026495016            9 
 3124000   0.75481814   -6.4546369    1007.3982  0.026872551  0.026487101            5 
 3125000   0.75726827   -6.4320638    1007.8269  0.026875383  0.026479255           13 
 3126000   0.76052814   -6.4634263      1004.12  0.026767968  0.026471385           11 
 3127000   0.75766155   -6.4852899    1007.1686  0.026840652  0.026463475            6 
 3128000   0.74698136   -6.4149553    1007.1483  0.026831529  0.026455629            6 
 3129000     0.760326   -6.4451073    1006.7752  0.026813018  0.026447803            5 
 3130000   0.75687284   -6.4686557     1005.515  0.026770901  0.026439982           15 
 3131000   0.74591357   -6.4453055    1007.2975  0.026809793  0.026432138            5 
 3132000   0.73787055   -6.4636115    1005.4883  0.026753094  0.026424266           20 
 3133000   0.76166388   -6.4340622    1009.0368   0.02683894  0.026416419           24 
 3134000   0.75400284   -6.4321416    1006.7381  0.026769254  0.026408618           12 
 3135000   0.76273857   -6.4074825    1008.9143  0.026818561   0.02640084            7 
 3136000   0.75411905   -6.4293298    1008.6497  0.026802978  0.026393068           14 
 3137000   0.74416956   -6.4049912    1008.7341  0.026796678  0.026385261            8 
 3138000   0.75756809   -6.4759448    1006.8616  0.026738411  0.026377436           12 
 3139000   0.73809222   -6.4400583    1010.4175  0.026824295  0.026369572            8 
 3140000   0.76056874   -6.4356699    1009.2671   0.02678522  0.026361743           10 
 3141000   0.75311064   -6.4437367    1007.1462  0.026720424  0.026353881            8 
 3142000   0.74241528   -6.4657071    1007.5396  0.026722353  0.026346044           18 
 3143000   0.76895792   -6.4346369    1006.5478  0.026687555  0.026338166            5 
 3144000   0.74862621   -6.4513084    1006.9249  0.026689061  0.026330271           18 
 3145000   0.74532798   -6.4555805     1007.126  0.026685903  0.026322414           14 
 3146000   0.74774957   -6.4242461    1008.6279  0.026717205  0.026314561            8 
 3147000   0.74464744   -6.4336552    1011.8434  0.026793863  0.026306769            4 
 3148000   0.75856307   -6.4175503    1010.1888  0.026741551  0.026299058            6 
 3149000    0.7548831   -6.4515529    1009.8151  0.026723167  0.026291284            9 
 3150000   0.74391771   -6.4379557    1010.0925  0.026722024  0.026283538           16 
 3151000   0.74820664   -6.4652142    1011.1145  0.026740571  0.026275766           14 
 3152000   0.71855072   -6.4690802    1008.7407  0.026669329  0.026267978            3 
 3153000   0.75574208   -6.4578272    1009.8452  0.026690063  0.026260217           11 
 3154000   0.73647377   -6.4280881    1013.8915  0.026788509  0.026252483           12 
 3155000   0.75533302   -6.4295525    1010.4509  0.026689141  0.026244769            5 
 3156000   0.72533461   -6.4332415    1009.3988  0.026652905   0.02623705            5 
 3157000   0.74150642   -6.4724423    1010.3359  0.026669199  0.026229289           14 
 3158000   0.73235764   -6.4516683    1007.7847  0.026593432  0.026221508           12 
 3159000   0.75201011   -6.4638003    1009.0262  0.026617763  0.026213722           21 
 3160000   0.75801292   -6.4590637     1011.261  0.026668274  0.026205939           10 
 3161000   0.75804464   -6.4471003     1008.894  0.026597438  0.026198198            9 
 3162000   0.74874996   -6.4495164    1010.4462  0.026629935  0.026190487            9 
 3163000   0.75941361   -6.4547682    1013.1786  0.026693504  0.026182753           10 
 3164000   0.74670692    -6.430542    1010.1004  0.026603993  0.026175025           14 
 3165000   0.74906765   -6.4312699    1011.7004  0.026637714  0.026167317           12 
 3166000   0.75081789   -6.4576324    1009.3753  0.026568102  0.026159577           36 
 3167000   0.73868624   -6.4618809    1013.5139  0.026668611  0.026151843           18 
 3168000   0.74784158   -6.4367377    1010.8371  0.026589782  0.026144126           11 
 3169000    0.7527092   -6.4416904    1011.0325  0.026586529  0.026136387           18 
 3170000   0.73745715   -6.4484951    1011.8708   0.02660018  0.026128631            5 
 3171000   0.73585791    -6.449948    1008.4285  0.026501326   0.02612088           24 
 3172000   0.73681281   -6.4557606    1011.1448  0.026564333  0.026113138           20 
 3173000   0.75416298   -6.4656939    1011.0669  0.026553916  0.026105355            8 
 3174000   0.75592084   -6.4757935    1008.9684  0.026490453  0.026097587           13 
 3175000   0.74524574   -6.4786071      1008.69  0.026474803  0.026089812           17 
 3176000   0.74056789   -6.4526898    1007.9109  0.026446025  0.026082043           15 
 3177000   0.76325074    -6.494007    1008.6783   0.02645783  0.026074257           15 
 3178000   0.73357204   -6.4789186    1009.6554  0.026475125  0.026066409           21 
 3179000   0.75728489   -6.4935335    1008.6034  0.026439221   0.02605859           13 
 3180000   0.73214003    -6.490096    1008.7138    0.0264338  0.026050752           16 
 3181000   0.73717647   -6.5049975    1009.0359  0.026433927  0.026042935            5 
 3182000   0.75028179   -6.4586746    1006.9885     0.026372  0.026035109            5 
 3183000   0.73271283   -6.4541212    1010.0744  0.026444507  0.026027322           15 
 3184000   0.75270725   -6.4529958    1009.7095  0.026426651  0.026019578           11 
 3185000   0.75800514   -6.4783428    1008.1022    0.0263763  0.026011767           11 
 3186000   0.74522735   -6.4634077    1007.9401  0.026363782  0.026003974           18 
 3187000   0.73243412   -6.4848306    1010.4606  0.026421415  0.025996215           11 
 3188000   0.75185262   -6.4620576    1010.9692  0.026426421  0.025988471           18 
 3189000    0.7521811   -6.4481635    1012.3106  0.026453187  0.025980713           19 
 3190000   0.73681806   -6.4899384    1009.3079  0.026366456  0.025972943           26 
 3191000    0.7599633   -6.4723709    1012.5751  0.026443516  0.025965202            7 
 3192000   0.76188213   -6.4863259    1012.7932  0.026440924   0.02595748            4 
 3193000   0.74044558   -6.4646553    1014.1394  0.026467777  0.025949789            4 
 3194000   0.73710326   -6.4595007    1011.9812  0.026403184  0.025942054            8 
 3195000   0.73435553   -6.4647628    1012.3923  0.026405641  0.025934372            6 
 3196000   0.73813565    -6.454584    1011.8298  0.026382714  0.025926668           15 
 3197000   0.73024578   -6.4425582    1014.0712  0.026432885  0.025919013           11 
 3198000   0.74783435   -6.4630305    1014.5135  0.026436145  0.025911344           10 
 3199000   0.75756132   -6.4674442    1012.0919    0.0263648  0.025903636            7 
 3200000   0.73490083   -6.5002461    1012.0315  0.026354987  0.025895924            9 
 3201000   0.73451224   -6.4707981      1012.88  0.026368842  0.025888199            8 
 3202000   0.76121137   -6.4900168    1014.2478  0.026396206  0.025880487           21 
 3203000    0.7374453   -6.4718774    1013.6826  0.026373259  0.025872811           10 
 3204000   0.73975229   -6.4664657     1013.544  0.026361424  0.025865151           10 
 3205000   0.72918798   -6.5068567    1009.6562  0.026252111  0.025857432            7 
 3206000   0.72745309   -6.4760707    1013.1255    0.0263341  0.025849758           11 
 3207000   0.74494883   -6.4658004    1014.3705  0.026358241  0.025842097            6 
 3208000     0.723789   -6.4684326    1012.5448  0.026302597  0.025834473            6 
 3209000   0.72563024   -6.4794792     1012.489  0.026292953  0.025826855           23 
 3210000   0.75721074   -6.4725066    1012.3901  0.026282194  0.025819178            5 
 3211000    0.7327605   -6.4377317    1013.1652  0.026294125  0.025811528           11 
 3212000   0.75831897   -6.4758308    1013.9823  0.026307138  0.025803941            6 
 3213000   0.74621284   -6.4913637    1011.7194  0.026240259   0.02579631           32 
 3214000   0.74741125   -6.4422699    1016.1389  0.026346683  0.025788699           13 
 3215000   0.73643815   -6.4493822    1015.0363  0.026309909  0.025781166           11 
 3216000   0.73579419   -6.4702261     1013.831  0.026270496  0.025773586           13 
 3217000   0.75906058   -6.4586326    1015.2661  0.026299504  0.025765989           14 
 3218000   0.73824581   -6.4284864     1018.589  0.026377383  0.025758465           15 
 3219000   0.71799188   -6.4584342    1016.4886  0.026314814  0.025750916           13 
 3220000   0.73271719   -6.4628034    1013.5591  0.026230825  0.025743289           18 
 3221000   0.72457379   -6.5090977    1013.8343  0.026229802  0.025735661           13 
 3222000   0.73964095   -6.4924547    1012.7204  0.026192851  0.025728006           13 
 3223000   0.74537303   -6.4997957    1014.5697  0.026232541  0.025720351           10 
 3224000   0.72750697   -6.5014495     1012.446  0.026169509  0.025712673           13 
 3225000   0.73739367   -6.4673311    1016.8233  0.026274505  0.025705086            6 
 3226000   0.74107803   -6.4815815    1013.9545  0.026192253  0.025697477            6 
 3227000   0.73445592   -6.4837245    1015.3325  0.026219723  0.025689837            8 
 3228000   0.73368309   -6.4875096     1014.234   0.02618324  0.025682253           12 
 3229000   0.74086923   -6.4776467    1017.4956  0.026259306  0.025674584           15 
 3230000   0.73429066   -6.4535343     1014.852  0.026182971  0.025666915            9 
 3231000   0.74740764   -6.4888257    1014.8079   0.02617373  0.025659329            7 
 3232000      0.73808   -6.4756538    1014.7577  0.026164339  0.025651739            7 
 3233000   0.73302308   -6.5266059    1012.9162  0.026108779  0.025644143           19 
 3234000   0.73939295    -6.503157    1012.3309  0.026085625  0.025636529           19 
 3235000   0.75107656   -6.4662028    1014.3109  0.026128564  0.025628907            8 
 3236000   0.73611922   -6.4668762    1013.6449  0.026103339  0.025621341           17 
 3237000   0.73134328   -6.4672011     1015.158   0.02613423   0.02561374            6 
 3238000   0.71551071   -6.4937274    1012.8665  0.026067185  0.025606058            9 
 3239000   0.72868385   -6.4671253     1013.437  0.026073814  0.025598402            6 
 3240000   0.73033064   -6.4756692    1012.4553  0.026040517  0.025590771            7 
 3241000   0.74982392   -6.5108134     1012.825  0.026041987  0.025583111           21 
 3242000    0.7385526   -6.4839149    1014.0876   0.02606641   0.02557546           15 
 3243000   0.72314083   -6.5026034    1013.7923  0.026050783  0.025567801            7 
 3244000   0.75217216   -6.5091295    1015.6435  0.026090309  0.025560177           12 
 3245000   0.72566219   -6.4700273    1012.3671  0.025998128  0.025552586            8 
 3246000   0.71837647   -6.4794481    1012.2933  0.025988223  0.025544932           12 
 3247000   0.73074875   -6.4792217     1014.167  0.026028308  0.025537264           19 
 3248000   0.74657196   -6.5056136    1014.1674  0.026020304  0.025529638           14 
 3249000   0.74470037   -6.5179612    1013.0628  0.025983965  0.025522014           19 
 3250000   0.72009891   -6.4807949    1014.5272  0.026013518  0.025514389           19 
 3251000   0.74006711   -6.4849487    1015.2267  0.026023446  0.025506757            9 
 3252000   0.73019639   -6.4982495    1014.2877  0.025991382  0.025499173            8 
 3253000   0.73529457   -6.5006733    1014.4353  0.025987174  0.025491545           26 
 3254000   0.73082476   -6.4781613    1014.4745   0.02598019  0.025483887           10 
 3255000   0.71256809   -6.5112822     1012.372  0.025918381  0.025476225           10 
 3256000   0.72614863   -6.5031946    1011.2735  0.025882306  0.025468536           15 
 3257000   0.74069025   -6.5052309    1014.3497  0.025953069  0.025460855           11 
 3258000   0.73477955   -6.4969702    1012.7264   0.02590358  0.025453173            7 
 3259000   0.73581377   -6.4879485     1014.448  0.025939653  0.025445537           11 
 3260000   0.73223239   -6.4822029    1015.8646  0.025967908  0.025437892           16 
 3261000   0.72070578    -6.508403    1014.2807   0.02591947  0.025430236           18 
 3262000   0.72638502   -6.5079504    1014.9682  0.025929087  0.025422592           22 
 3263000   0.73068971   -6.4931289    1015.4293  0.025932917  0.025414962           10 
 3264000   0.72783073   -6.5214597    1015.2678  0.025920848  0.025407279           36 
 3265000   0.73182502    -6.509245    1012.9012  0.025852505  0.025399582           18 
 3266000   0.71950618   -6.5011261    1014.5757  0.025887316  0.025391908            9 
 3267000   0.71864694   -6.5235187     1012.511  0.025826726  0.025384255           46 
 3268000   0.72659099    -6.492671    1011.9936   0.02580563  0.025376591           32 
 3269000   0.72361787   -6.4882665    1016.0648  0.025901519  0.025368952           16 
 3270000   0.73060697   -6.5071264    1014.9198  0.025864418  0.025361305           36 
 3271000   0.72148158   -6.4978987    1015.9201  0.025881995  0.025353674           40 
 3272000     0.746601   -6.4900355    1015.9039  0.025873673  0.025346079           23 
 3273000   0.71692505   -6.4881754    1014.4377  0.025828436  0.025338481           18 
 3274000   0.74021332   -6.4901093    1015.8595  0.025856737  0.025330929           19 
 3275000   0.73752981   -6.5057231    1015.7128  0.025845111  0.025323323           10 
 3276000   0.72340279   -6.4797393    1016.4491   0.02585595  0.025315778            5 
 3277000   0.72571652   -6.4795598    1017.0315  0.025862869  0.025308267           10 
 3278000   0.70871288   -6.4904641    1016.2786  0.025835839  0.025300723           20 
 3279000   0.74124201   -6.4884522    1018.3496  0.025880595  0.025293174           15 
 3280000   0.71785204   -6.5252107    1014.9711  0.025786868  0.025285638           16 
 3281000    0.7360163   -6.5207519    1015.5408  0.025793479  0.025278143           26 
 3282000   0.72180525   -6.4905231    1016.5116  0.025810268  0.025270681           20 
 3283000   0.72329922   -6.4816994    1019.2761  0.025872578  0.025263191           10 
 3284000   0.71667541   -6.5165459    1015.4928  0.025768697  0.025255701           11 
 3285000   0.74515962   -6.5050157    1017.6204  0.025814825  0.025248233           15 
 3286000    0.7272412   -6.4909723    1017.1234  0.025794365  0.025240779           15 
 3287000   0.72211476   -6.5250193    1017.2306  0.025789236  0.025233272           17 
 3288000    0.7381288   -6.4902332    1017.8828  0.025797923  0.025225742           13 
 3289000   0.71474762   -6.5203306    1016.9589  0.025766668  0.025218215            9 
 3290000   0.71897383   -6.5134621    1016.3214   0.02574269   0.02521069           22 
 3291000   0.72256577   -6.5350548    1018.1737   0.02578177  0.025203124           21 
 3292000   0.72476619    -6.514894    1016.4896  0.025731308  0.025195572           30 
 3293000   0.73845466   -6.5040867    1017.5642  0.025750687  0.025188048           16 
 3294000   0.72140674   -6.5428667    1015.8777  0.025700205  0.025180489           33 
 3295000    0.7238811   -6.5182416    1016.5992  0.025710652  0.025172924           16 
 3296000   0.72237069   -6.4967967    1016.9865  0.025712644  0.025165391           26 
 3297000   0.73609456   -6.5129401    1016.1396  0.025683439  0.025157881            6 
 3298000   0.71065197   -6.4918671    1016.0994  0.025674636  0.025150359            5 
 3299000   0.71684141   -6.5319814    1016.3695  0.025673677  0.025142872           15 
 3300000   0.72301628   -6.5407418    1017.6854  0.025699126  0.025135343            7 
 3301000   0.73562767   -6.5549379    1014.1036   0.02560092  0.025127765           15 
 3302000   0.73070362    -6.533204    1014.2407  0.025596627  0.025120196           11 
 3303000   0.70819025   -6.5313392    1015.7275  0.025626388  0.025112649           18 
 3304000   0.71645746   -6.5235033    1014.9987  0.025600249  0.025105105           10 
 3305000   0.72450144    -6.538716    1016.2407  0.025623821  0.025097549            7 
 3306000   0.72049638   -6.5427358    1014.1249  0.025562738  0.025090013            6 
 3307000   0.71435005   -6.5403824    1013.0113  0.025526946  0.025082458           18 
 3308000   0.72487112   -6.5316985     1015.295  0.025576758  0.025074872           24 
 3309000   0.71689312   -6.5342573    1017.3756  0.025621426  0.025067301           15 
 3310000   0.71576496   -6.5273825    1016.5165  0.025592057  0.025059741            8 
 3311000   0.72256894   -6.5197306    1017.0791  0.025598488  0.025052197           15 
 3312000   0.71434751   -6.5177573     1016.121  0.025566652  0.025044643            7 
 3313000   0.70315214   -6.5033649    1018.5229  0.025619351  0.025037126           24 
 3314000   0.71662627   -6.5330461    1016.0368  0.025549105   0.02502958            4 
 3315000   0.72057478   -6.5365808    1013.7681  0.025484366  0.025022018           10 
 3316000   0.71863505   -6.5253732    1014.5696  0.025496823  0.025014467           11 
 3317000     0.731595   -6.5377314    1015.6265  0.025515689  0.025006903           18 
 3318000   0.72486441    -6.524179    1017.9635  0.025566693  0.024999375            9 
 3319000   0.71026466   -6.5219691    1018.3387  0.025568411  0.024991871           10 
 3320000   0.70985614   -6.4965628    1015.9692  0.025501235  0.024984391            6 
 3321000   0.71719569   -6.4877285    1019.3913  0.025579425  0.024976914            7 
 3322000   0.71153094   -6.4995726    1019.8006  0.025581995  0.024969417            6 
 3323000   0.71481431   -6.4973638    1019.2779  0.025561188  0.024961942            7 
 3324000   0.71004369   -6.5308484    1019.2197  0.025552038  0.024954484           10 
 3325000   0.72181205   -6.5308523    1018.5122  0.025526621     0.024947            7 
 3326000   0.72864444   -6.5112458    1018.5969  0.025521069  0.024939535           27 
 3327000   0.72470023   -6.4920935    1018.8163  0.025518893  0.024932082           16 
 3328000   0.71788021   -6.5231947    1018.6636  0.025507402  0.024924599           30 
 3329000    0.7067059   -6.4893964    1019.0632  0.025509742  0.024917155           11 
 3330000   0.70793549   -6.5003643    1018.5848  0.025490111  0.024909686           18 
 3331000   0.73199811   -6.5214308    1017.9897   0.02546757  0.024902174           14 
 3332000   0.71272015   -6.5258554    1015.9877  0.025409855  0.024894712           17 
 3333000   0.71252884     -6.52592    1017.8047  0.025447661  0.024887229           14 
 3334000    0.7173973    -6.531635    1018.2216  0.025450451  0.024879749           26 
 3335000   0.72335679   -6.5250402    1018.4002   0.02544728  0.024872255           15 
 3336000   0.72782545     -6.54881     1014.282  0.025336781  0.024864719           16 
 3337000   0.72860906    -6.545234    1017.0039   0.02539716  0.024857178            8 
 3338000   0.70758801   -6.5334879    1017.7729  0.025408749  0.024849677           14 
 3339000   0.72899971   -6.5692415    1017.2852  0.025388968  0.024842211           10 
 3340000   0.72800747   -6.5133442    1018.2023  0.025404248  0.024834771           11 
 3341000   0.72329878   -6.5180722    1019.2469  0.025422701  0.024827349           25 
 3342000    0.7191338   -6.5016657    1020.8222  0.025454375  0.024819904            6 
 3343000   0.72336635   -6.5369347    1019.1077  0.025404021  0.024812473            7 
 3344000   0.70641498    -6.539141    1017.9526   0.02536764   0.02480498            6 
 3345000   0.72544882   -6.5199856    1015.4456  0.025297598  0.024797504           13 
 3346000   0.71394135    -6.531159     1020.093  0.025405782  0.024790033           11 
 3347000   0.72128679   -6.5328842    1016.3929  0.025306066  0.024782546            8 
 3348000   0.72814999   -6.5067974    1019.6911  0.025380602  0.024775072           12 
 3349000   0.71064919   -6.5234839    1017.3105  0.025313787  0.024767602           18 
 3350000   0.69550101   -6.5081305    1017.7285   0.02531663  0.024760152            6 
 3351000   0.71528052   -6.5131709    1020.2627  0.025372095  0.024752734            9 
 3352000   0.72484975   -6.4989603    1021.3549  0.025391679  0.024745317           10 
 3353000   0.72073734   -6.5226141    1017.5358  0.025289188  0.024737889            6 
 3354000   0.70148559   -6.5068896    1019.8308  0.025338669  0.024730424           13 
 3355000   0.70890507   -6.5200286    1017.6454  0.025276835  0.024722986            9 
 3356000   0.71357548   -6.5442871    1018.5139   0.02529087  0.024715523           10 
 3357000   0.72643936   -6.5648325    1017.9408  0.025269109  0.024708045            9 
 3358000   0.71177647   -6.5604309      1017.91  0.025260819  0.024700529           10 
 3359000   0.71055123     -6.54851    1018.2854  0.025262613  0.024693039           14 
 3360000   0.70918457   -6.5476199      1019.09  0.025275049  0.024685591            8 
 3361000   0.70325159   -6.5442002    1019.4208  0.025275731  0.024678141           12 
 3362000   0.70844904   -6.5419633    1017.7415  0.025226589   0.02467069           12 
 3363000   0.70937561    -6.559277    1018.0229  0.025226061   0.02466326           10 
 3364000   0.70438825   -6.5454554    1018.7195  0.025235819  0.024655826            9 
 3365000   0.70522588   -6.5731473    1015.7167  0.025153956  0.024648361           16 
 3366000   0.71642934   -6.5580789    1018.2274  0.025208641   0.02464089           14 
 3367000   0.70962194   -6.5622839    1016.7223  0.025163901   0.02463341           10 
 3368000   0.70500538   -6.5394116    1017.4961  0.025175575  0.024625929           13 
 3369000   0.72146563   -6.5476601    1016.1908  0.025135816  0.024618445            7 
 3370000   0.71220957    -6.556697    1018.4654  0.025184604  0.024610982           13 
 3371000   0.70334495   -6.5494912    1018.3345  0.025173898  0.024603503           12 
 3372000   0.71283616   -6.5288391    1020.4862  0.025219607  0.024596051           18 
 3373000    0.6891759   -6.5551085    1020.5217  0.025213007  0.024588612           14 
 3374000   0.68614236   -6.5466058    1019.4455  0.025178954  0.024581141            8 
 3375000     0.711492   -6.5358306    1020.9866  0.025209546   0.02457368            9 
 3376000   0.70973638   -6.5467058    1019.0459  0.025154175  0.024566222            6 
 3377000   0.70314546   -6.5251968    1019.6747  0.025162242  0.024558781           10 
 3378000    0.7070158    -6.525152    1019.4286  0.025148721  0.024551381            7 
 3379000   0.71314912   -6.5382304    1018.2179  0.025111421  0.024543938           21 
 3380000   0.70498169   -6.5313363    1019.5233  0.025136175  0.024536474            8 
 3381000   0.70174352   -6.5370669    1019.8589  0.025137014  0.024529042            5 
 3382000   0.71704158    -6.567723    1015.4856  0.025021821  0.024521564            8 
 3383000   0.71180309   -6.5437845    1021.7807  0.025169493  0.024514095           15 
 3384000   0.70457786   -6.5279167    1019.9651  0.025117345  0.024506656           14 
 3385000   0.71419193   -6.5388246    1019.7561  0.025104778   0.02449922            7 
 3386000   0.71661416   -6.5582042    1018.1858  0.025058716  0.024491784           10 
 3387000   0.71068229    -6.539746    1020.3054  0.025103469  0.024484278           22 
 3388000   0.69784023   -6.5289816    1019.3571  0.025072734  0.024476809           14 
 3389000   0.71113132   -6.5601509    1018.6992   0.02504916  0.024469394            7 
 3390000   0.70185014   -6.5405658     1020.641  0.025089504  0.024461944           12 
 3391000   0.70636126    -6.558962    1017.6722  0.025009146  0.024454523           27 
 3392000   0.72084481    -6.552676    1018.2461  0.025015872  0.024447062            9 
 3393000   0.72080581    -6.569101    1017.0858  0.024980004  0.024439601           10 
 3394000    0.7072681   -6.5317971    1019.2378  0.025025482   0.02443216           15 
 3395000   0.71002529   -6.5699604    1019.8196  0.025032391   0.02442472           26 
 3396000   0.72392388   -6.5592135    1016.8485  0.024952112  0.024417258           15 
 3397000   0.70126639    -6.552171     1019.288  0.025004611  0.024409804           12 
 3398000   0.69674385   -6.5489652    1019.7228  0.025007915  0.024402383           33 
 3399000   0.70339703   -6.5427507    1019.0318  0.024983618  0.024395018           25 
 3400000   0.71133372   -6.5311164     1023.849  0.025094338  0.024387632           18 
 3401000    0.6992855   -6.5213757    1022.4163  0.025051854  0.024380253           15 
 3402000   0.70160533   -6.5497809    1019.9172  0.024983275  0.024372858            9 
 3403000   0.69102107   -6.5449733    1023.0943  0.025053735  0.024365482           12 
 3404000    0.7002378    -6.546539    1019.5992  0.024960811  0.024358103           16 
 3405000   0.69957873   -6.5641657    1018.4149  0.024924497  0.024350723           44 
 3406000   0.69525401   -6.5631941    1017.4042   0.02489245  0.024343346           10 
 3407000   0.70142681   -6.5950112    1018.9708  0.024923463  0.024335926           10 
 3408000   0.71630389   -6.6032835    1016.8829  0.024865095  0.024328492           16 
 3409000    0.7004446   -6.5584968    1019.2563  0.024915819   0.02432108           10 
 3410000   0.71642602   -6.5464816    1020.7033  0.024943872  0.024313704           24 
 3411000   0.71316777   -6.5589397    1019.6339  0.024910435  0.024306323           11 
 3412000   0.71060676    -6.568709    1019.3574   0.02489638  0.024298928           14 
 3413000   0.73456847   -6.5664288    1021.0457  0.024930307  0.024291547           14 
 3414000   0.70024342   -6.5748994    1017.9802  0.024848178  0.024284168           17 
 3415000   0.70839428   -6.5714636    1018.3771  0.024850588  0.024276816           16 
 3416000   0.70741727    -6.552414    1021.0306  0.024908045  0.024269447           15 
 3417000   0.68658206   -6.5837705    1020.9657  0.024899172  0.024262089           12 
 3418000   0.70515593   -6.5570735    1019.7128  0.024861341  0.024254718           11 
 3419000   0.70957192    -6.557863    1018.3296  0.024820356  0.024247361           16 
 3420000     0.696695   -6.5699137    1021.0163  0.024878564  0.024240005           10 
 3421000   0.69994022   -6.5768252    1021.6354  0.024886372  0.024232668           10 
 3422000    0.7230915   -6.5676767    1022.2405  0.024893837  0.024225325           15 
 3423000   0.70637399   -6.5554405    1022.0142  0.024881055  0.024217994           33 
 3424000   0.68736679   -6.5703735     1022.105  0.024875998  0.024210673           12 
 3425000      0.69587   -6.5753466    1020.1043  0.024820056  0.024203337           26 
 3426000   0.71642251   -6.5729995    1022.2042  0.024863889  0.024196007           14 
 3427000   0.70602656   -6.5836639    1020.6403  0.024818606  0.024188694            7 
 3428000   0.69283516   -6.6131664    1020.8396   0.02481621  0.024181377           25 
 3429000   0.69402674   -6.6056423    1020.4312  0.024799048  0.024174039           13 
 3430000   0.70296077   -6.5961221    1020.4187  0.024791514  0.024166721            8 
 3431000   0.69317393   -6.5880816    1020.5424  0.024787292  0.024159408           41 
 3432000   0.70248433     -6.58342    1022.1901  0.024820079  0.024152123           30 
 3433000   0.70333918   -6.5936314    1019.7422  0.024753427  0.024144849           13 
 3434000    0.7054933   -6.5889351    1020.8691  0.024773566  0.024137563           11 
 3435000    0.6980509   -6.5634404    1021.7169   0.02478692  0.024130269           12 
 3436000   0.71251815   -6.6119776     1022.387  0.024795959  0.024122976           10 
 3437000   0.71177275   -6.5597361    1023.5931  0.024817988  0.024115689           20 
 3438000     0.710462   -6.5751131     1023.545  0.024809603  0.024108422           28 
 3439000   0.71368335   -6.6059078    1019.7058  0.024709359   0.02410112           30 
 3440000    0.7035536   -6.5815212     1020.709  0.024726478  0.024093805           16 
 3441000   0.70543778   -6.5769621    1022.8141  0.024770272  0.024086526           32 
 3442000   0.69687774    -6.600846    1023.6205    0.0247826  0.024079252           30 
 3443000   0.70982253   -6.5763597    1024.8183  0.024804393  0.024071942           13 
 3444000   0.70621804   -6.5716781    1022.1307   0.02473216  0.024064686           41 
 3445000   0.70247838   -6.6008466    1020.7908   0.02469257  0.024057417           30 
 3446000   0.69529793   -6.5925528    1018.8096  0.024637493  0.024050131           35 
 3447000   0.69562361   -6.6088594    1022.6012  0.024722008  0.024042875           15 
 3448000   0.70426036   -6.6036935    1020.2218  0.024657332   0.02403561           14 
 3449000   0.70171381   -6.5862721    1021.2321  0.024674594  0.024028355           17 
 3450000   0.70402357   -6.5910808    1024.5821   0.02474836  0.024021097            7 
 3451000   0.69278673   -6.5987611    1022.9529  0.024701847  0.024013827           18 
 3452000   0.70938838   -6.5900038    1022.9054  0.024693544  0.024006592           13 
 3453000    0.7050363   -6.5567498    1022.5636  0.024678145  0.023999372           12 
 3454000    0.7039892   -6.5973523    1023.0215  0.024682048  0.023992176           20 
 3455000   0.68605922   -6.6046962    1023.4493  0.024685221  0.023984943           12 
 3456000   0.69941101   -6.6067519    1024.6507  0.024707048  0.023977733           21 
 3457000   0.70914394   -6.5760257    1024.9469  0.024707042  0.023970508           19 
 3458000   0.70562228   -6.5871125     1023.628  0.024668112  0.023963293           29 
 3459000   0.70137208   -6.5920586    1018.4682  0.024536672  0.023956026           22 
 3460000   0.69316655   -6.5944849    1023.8722  0.024659735  0.023948789           20 
 3461000   0.68276994   -6.5618065    1023.2836  0.024638438  0.023941559           38 
 3462000    0.7036373   -6.5750714    1025.5229  0.024685222  0.023934348           15 
 3463000   0.71219742   -6.5528958    1022.9638  0.024616512  0.023927164           10 
 3464000     0.688338   -6.6176377    1022.6775  0.024602519  0.023919924           37 
 3465000   0.69059682   -6.5954989    1021.4277   0.02456536  0.023912657           16 
 3466000   0.68615754    -6.626353    1024.2934  0.024627173  0.023905403            8 
 3467000   0.69521445   -6.5983451    1021.8743  0.024561925  0.023898127            5 
 3468000   0.70408208   -6.5974167    1022.8648  0.024578643  0.023890892           25 
 3469000   0.68386791   -6.5736618    1023.6659  0.024590801  0.023883681           10 
 3470000   0.70014259   -6.5819261    1025.6963  0.024632477  0.023876491           25 
 3471000   0.70084212   -6.5870326    1023.9382   0.02458317  0.023869315           17 
 3472000   0.68278911   -6.5687498     1024.644  0.024593031  0.023862131           13 
 3473000   0.69657175   -6.5794533    1026.1903  0.024623051  0.023854936           19 
 3474000   0.69285355   -6.5992205    1022.6935  0.024532084  0.023847768           12 
 3475000   0.68358887   -6.5546497    1025.6617  0.024596204  0.023840596           10 
 3476000   0.68890373    -6.586717     1022.802  0.024520569  0.023833392            5 
 3477000   0.70417158   -6.5959255     1023.174  0.024522434   0.02382621           11 
 3478000   0.70532727   -6.6124339    1024.5003   0.02454716  0.023819027           12 
 3479000   0.69531506   -6.5737665    1023.7807  0.024522868  0.023811824           18 
 3480000   0.68801033   -6.5952372    1024.0286  0.024521757  0.023804638            7 
 3481000   0.70063211    -6.567307    1021.8394  0.024462305  0.023797438           24 
 3482000   0.69341995   -6.5898787    1023.8135  0.024502525  0.023790245            8 
 3483000    0.6844186   -6.5749353     1025.142  0.024527275   0.02378303           11 
 3484000   0.69348528   -6.6235215    1021.0312  0.024421911  0.023775807           17 
 3485000   0.69051925   -6.6052315    1025.8637  0.024530456  0.023768608            6 
 3486000   0.70906517   -6.5866423    1024.8188   0.02449844  0.023761423           11 
 3487000   0.69572988   -6.5814406    1023.2985  0.024455083  0.023754243            9 
 3488000   0.70351322   -6.5977742      1024.43  0.024475105  0.023747069           15 
 3489000    0.6921749   -6.6059523    1022.6257  0.024424996  0.023739878           20 
 3490000   0.70019857   -6.6064774    1022.4618  0.024414082  0.023732699           14 
 3491000   0.68991018   -6.6032325    1021.8072  0.024391464  0.023725504            9 
 3492000   0.68469043   -6.5939511    1022.6706  0.024405084  0.023718275           14 
 3493000   0.69473107   -6.6106711    1022.6531  0.024397678  0.023711051           17 
 3494000   0.68133131   -6.6092774    1022.4427  0.024385677  0.023703882           15 
 3495000    0.6964951   -6.5895266     1026.488  0.024475155  0.023696714            8 
 3496000   0.69173715   -6.5888333    1024.0231  0.024409399  0.023689552           11 
 3497000   0.68870405   -6.5941784    1022.4442  0.024364794  0.023682379            7 
 3498000   0.67792257   -6.5875228    1023.1554   0.02437477  0.023675163           19 
 3499000   0.69955504   -6.5904054    1025.4238  0.024421829  0.023667973            7 
 3500000    0.6783751   -6.6017931    1022.4074  0.024343033  0.023660764            9 
 3501000   0.68926679   -6.6250921    1023.7758  0.024368652  0.023653578           13 
 3502000   0.69035023    -6.591518    1024.0047   0.02436714  0.023646382           10 
 3503000   0.70376563   -6.6042436    1023.2419  0.024342037  0.023639204           16 
 3504000   0.70421605    -6.602481     1022.282  0.024312263  0.023632043           11 
 3505000   0.70354881   -6.6222084    1022.6773  0.024314725  0.023624868           15 
 3506000   0.69827923     -6.60581    1023.2057  0.024320349  0.023617689           21 
 3507000   0.69904748   -6.5998737    1021.0819  0.024262947  0.023610473           18 
 3508000   0.69665817   -6.6122472    1022.6263  0.024292718  0.023603307           24 
 3509000   0.67548195   -6.5873144    1023.5395  0.024307484  0.023596158           16 
 3510000   0.68183459   -6.6169266    1023.5583  0.024301003  0.023588981           18 
 3511000   0.67424299   -6.6183513    1023.0536  0.024282105  0.023581785           35 
 3512000   0.68736749   -6.6022127    1023.9223  0.024295803  0.023574582           23 
 3513000   0.69961509   -6.6011214    1024.9396  0.024313018  0.023567401           11 
 3514000   0.68935059   -6.5902507    1022.9623  0.024259207   0.02356024           13 
 3515000   0.69342782   -6.5798963    1026.1747  0.024328466  0.023553067           13 
 3516000   0.68377474   -6.5900419     1022.031  0.024223336  0.023545938            6 
 3517000   0.70326889    -6.588782    1024.4808  0.024274496  0.023538776           13 
 3518000   0.69264926   -6.5883987    1023.2436  0.024238289  0.023531632           18 
 3519000   0.67689756   -6.6097091    1024.5528  0.024262404  0.023524464           11 
 3520000   0.68434678   -6.5823559     1025.154  0.024269745  0.023517317           23 
 3521000   0.68569794   -6.6049509    1022.0516  0.024189425   0.02351017           14 
 3522000   0.69967793   -6.6002489    1023.9932  0.024228497  0.023503028           15 
 3523000    0.6823672   -6.6169208    1022.1952   0.02417909  0.023495877           13 
 3524000   0.68400353   -6.6112307    1022.0425  0.024168616  0.023488685           15 
 3525000   0.68458478   -6.6213104     1023.148  0.024187896  0.023481466           15 
 3526000    0.6754827   -6.6141954    1023.1229  0.024180442  0.023474251            6 
 3527000   0.69759672   -6.5950535    1023.3116  0.024178045  0.023467105           14 
 3528000   0.68567616   -6.6153214    1026.2093  0.024239639  0.023459948           24 
 3529000   0.68290639   -6.5951836    1024.3783  0.024189531  0.023452792           21 
 3530000    0.7024943   -6.6142719    1022.8903  0.024147551  0.023445628           34 
 3531000   0.69114064   -6.6193475    1024.0215   0.02416741   0.02343848           21 
 3532000    0.6869334   -6.6224246    1025.7757  0.024201956  0.023431321           31 
 3533000   0.67797631   -6.6101833    1023.6144  0.024144126  0.023424178           34 
 3534000   0.68735815   -6.5683914    1025.4475  0.024180519  0.023417056           10 
 3535000   0.67265762   -6.5835909    1025.4093   0.02417278  0.023409943           23 
 3536000   0.70308545   -6.6012989    1024.0778  0.024134564  0.023402803           11 
 3537000   0.68324795   -6.6325917    1020.6771  0.024047617  0.023395637           34 
 3538000   0.69655018    -6.616563     1022.536  0.024084605  0.023388463           20 
 3539000   0.69072856    -6.619129    1024.2624  0.024118452  0.023381299           15 
 3540000   0.68062461   -6.6243481    1020.7681  0.024029381  0.023374119           12 
 3541000    0.6815413   -6.6106525    1024.3267  0.024106341  0.023366947           10 
 3542000   0.69061071   -6.6136645    1025.5975  0.024129434   0.02335982           22 
 3543000   0.67578663   -6.6001914    1025.5761  0.024122121  0.023352694           27 
 3544000   0.67920667   -6.5999135    1023.8865  0.024075586  0.023345551            8 
 3545000   0.67999078   -6.6080255    1025.1892  0.024099417  0.023338433           21 
 3546000   0.66553878   -6.6398181    1022.9871  0.024040871  0.023331283           36 
 3547000   0.68714473   -6.6173632    1023.7208  0.024051331  0.023324117           30 
 3548000    0.6629867   -6.6416241    1023.2216  0.024032825  0.023316966           61 
 3549000   0.69128463   -6.6302086    1022.3099  0.024004647  0.023309816           24 
 3550000   0.67902377   -6.6258346    1020.9612  0.023966224  0.023302656           29 
 3551000   0.68498869   -6.6268251    1024.5022  0.024042574  0.023295487           33 
 3552000   0.68304552   -6.6199717    1024.4888  0.024035491  0.023288329           22 
 3553000   0.68810357   -6.6288907    1023.9123  0.024015205  0.023281156           12 
 3554000    0.6828172   -6.6272685    1023.1939  0.023991602  0.023274008           13 
 3555000   0.68264408   -6.6336847    1024.1693   0.02400772  0.023266818           47 
 3556000   0.67924714   -6.6262734     1023.261  0.023979683   0.02325965           25 
 3557000   0.69268414   -6.6265322    1021.8046  0.023938821  0.023252493           25 
 3558000   0.68421298   -6.6249265    1021.6923  0.023929461  0.023245338           17 
 3559000   0.68349129   -6.6321843    1023.6039  0.023967498  0.023238195           34 
 3560000   0.66433555    -6.619491    1022.7937  0.023941801  0.023231033           20 
 3561000   0.67222584   -6.6223756     1023.113  0.023942549  0.023223864           14 
 3562000   0.69047949   -6.6285583    1021.8095  0.023905332  0.023216718           12 
 3563000   0.67290339   -6.6016019     1022.267  0.023909324   0.02320954           16 
 3564000   0.68993216    -6.628538    1023.1235   0.02392264  0.023202348           47 
 3565000   0.67576735   -6.6448138    1023.1373  0.023916253  0.023195163           55 
 3566000   0.67900726   -6.6356738    1023.4524   0.02391691  0.023188023           13 
 3567000   0.68282821   -6.6277705    1025.2847  0.023953012    0.0231809           36 
 3568000   0.68763875   -6.6248007     1024.493  0.023927807  0.023173796           19 
 3569000   0.67512982   -6.6175133    1024.9473  0.023931711  0.023166677           14 
 3570000   0.67176353   -6.6168741    1025.8598  0.023946307  0.023159588           12 
 3571000   0.68101152   -6.6040218    1023.9145  0.023894206  0.023152506           15 
 3572000   0.65728615   -6.6008471    1023.4195  0.023875968  0.023145433           20 
 3573000   0.67868718   -6.6262449    1025.0409  0.023907102  0.023138335           17 
 3574000   0.68106496    -6.628302    1022.9629   0.02385196  0.023131248           11 
 3575000   0.68007254   -6.6388816     1022.936  0.023844661   0.02312414           21 
 3576000    0.6868011   -6.6331409    1021.8026  0.023811582  0.023117021           15 
 3577000    0.6939348   -6.6426985    1021.6151  0.023800557  0.023109891           23 
 3578000   0.66602881   -6.6590875    1022.4389  0.023813093  0.023102753           25 
 3579000   0.66403551   -6.6349006    1022.2092   0.02380109  0.023095606           22 
 3580000   0.67307788   -6.6330463    1020.7435  0.023760325  0.023088436           13 
 3581000   0.68340986   -6.6513662    1021.1034  0.023762065  0.023081284           16 
 3582000   0.66703696   -6.6490656    1023.3446  0.023807571  0.023074175           13 
 3583000    0.6661018   -6.6151119    1022.2841   0.02377626  0.023067033           20 
 3584000    0.6769081   -6.6153497    1022.2475  0.023768776  0.023059912           12 
 3585000    0.6797677   -6.6374638    1023.4384  0.023789827  0.023052789           31 
 3586000   0.68604426   -6.6320169    1023.7407  0.023790219  0.023045662           13 
 3587000   0.67008123   -6.6397404    1024.9644  0.023812016  0.023038546            9 
 3588000   0.67538546   -6.6238588    1024.7974    0.0238015   0.02303144           12 
 3589000    0.6671923   -6.6370605    1022.0268  0.023730537  0.023024311            8 
 3590000   0.67114278   -6.6129329    1024.9319  0.023791363  0.023017204           35 
 3591000   0.67467327   -6.6228444    1024.2545  0.023769017  0.023010113           10 
 3592000   0.67543482   -6.6144406    1023.2339  0.023738724  0.023003059           18 
 3593000   0.66966519    -6.616464    1023.9972  0.023749818  0.022995991           15 
 3594000   0.69050098   -6.6299532    1024.0985  0.023745559   0.02298891           18 
 3595000   0.67246319   -6.6531692    1021.7183   0.02368378  0.022981808           11 
 3596000   0.67151953   -6.6152861    1025.6632  0.023768613  0.022974719           12 
 3597000   0.67497386   -6.6164567    1023.5366  0.023712737  0.022967632           22 
 3598000   0.66802433   -6.6209049    1026.6237  0.023777647  0.022960519           15 
 3599000   0.67510171   -6.6253618     1022.483  0.023675165  0.022953417           10 
 3600000   0.68089186   -6.6418194    1020.2727  0.023617423  0.022946297           16 
 3601000   0.68349795   -6.6341176    1024.0396  0.023698037  0.022939183           17 
 3602000   0.67862216   -6.6390595    1024.8926  0.023711193  0.022932082           30 
 3603000   0.66997941   -6.6360986    1023.3619  0.023669209  0.022924962           17 
 3604000   0.66870165   -6.6050732    1024.9971  0.023700452  0.022917887           24 
 3605000   0.67091658   -6.6248495    1022.4273  0.023634472  0.022910813           12 
 3606000   0.68127891   -6.6283734    1024.4783  0.023675316  0.022903726            9 
 3607000   0.66124554   -6.6280383    1024.2529  0.023663544  0.022896673           13 
 3608000   0.69681938   -6.6247156    1027.3182  0.023727785  0.022889614            9 
 3609000   0.67740024   -6.6268288    1024.5292  0.023656811  0.022882565           12 
 3610000   0.68106957   -6.6472245    1023.4503  0.023625353  0.022875483           12 
 3611000   0.66406688   -6.6604313    1021.1003  0.023564577   0.02286841           20 
 3612000    0.6810191   -6.6421342    1023.9731  0.023624333  0.022861318           12 
 3613000    0.6716759   -6.6233812    1024.3178  0.023625745  0.022854223           20 
 3614000   0.67219504   -6.6531884    1023.4742  0.023599756  0.022847089           21 
 3615000    0.6761799   -6.6499722    1020.3221  0.023520566  0.022839966           27 
 3616000   0.68498577   -6.6706392    1020.8259   0.02352567  0.022832848           14 
 3617000   0.69188716   -6.6651001    1020.1365  0.023503284  0.022825712           28 
 3618000   0.67044016   -6.6645227    1021.3038  0.023523674   0.02281856           10 
 3619000   0.66918653   -6.6264547    1021.2939  0.023516945  0.022811423           17 
 3620000   0.66728408   -6.6586396    1021.4072  0.023513056   0.02280431           48 
 3621000   0.70281145   -6.6538834    1021.2903  0.023503873  0.022797217           22 
 3622000   0.67374787   -6.6409149    1022.4753  0.023524647  0.022790159           22 
 3623000   0.67925246    -6.656895     1022.962   0.02352935  0.022783112           10 
 3624000   0.65526728   -6.6318828    1023.9618  0.023545847   0.02277608           15 
 3625000   0.68691167   -6.6453353    1022.3278  0.023501788  0.022769034           15 
 3626000   0.68145755   -6.6531522    1025.4066  0.023566064  0.022761975            7 
 3627000   0.68554933   -6.6487689    1022.5741  0.023494489  0.022754909           17 
 3628000   0.67554074   -6.6533487    1024.0927  0.023522894  0.022747835           16 
 3629000   0.68936403     -6.66298    1021.8569  0.023465071   0.02274077            7 
 3630000   0.66440734   -6.6711285     1022.654  0.023476905  0.022733709           16 
 3631000   0.66353898   -6.6612683    1023.0637  0.023479842  0.022726667           22 
 3632000   0.66948224   -6.6271327    1023.5697  0.023484987  0.022719631           17 
 3633000   0.66518036   -6.6432099    1023.1639  0.023469216  0.022712617           15 
 3634000   0.66842231   -6.6709861    1022.6801  0.023451664  0.022705574           16 
 3635000   0.69330815   -6.6499801    1023.0824  0.023454433  0.022698543            7 
 3636000    0.6699134   -6.6622809    1022.3005  0.023430063  0.022691512           33 
 3637000   0.66706009   -6.6577839     1023.336  0.023447347  0.022684459           24 
 3638000   0.68203116   -6.6702963    1021.9357  0.023408826  0.022677426           38 
 3639000    0.6682297   -6.6544886    1021.0067  0.023381118  0.022670403           17 
 3640000   0.66384448   -6.6479127    1024.4352  0.023453188  0.022663381           11 
 3641000   0.66822224   -6.6490862     1024.371  0.023445277  0.022656366           16 
 3642000   0.66355727   -6.6444054    1025.8845  0.023473469  0.022649366           17 
 3643000   0.67369026   -6.6447366    1024.5261  0.023435952  0.022642379           14 
 3644000   0.66307546   -6.6542315    1026.0836  0.023465139  0.022635401           13 
 3645000   0.66941619   -6.6185429    1027.4756  0.023490525  0.022628427           17 
 3646000   0.69306392   -6.6424154    1026.5537  0.023463012  0.022621448           24 
 3647000   0.66288956   -6.6754748    1025.2946  0.023427808  0.022614439           11 
 3648000   0.67054301    -6.689357    1022.6649  0.023361314  0.022607423           21 
 3649000   0.67370125   -6.6761675    1023.7911  0.023380631  0.022600414           15 
 3650000   0.66905312   -6.6603222    1025.5576  0.023414557  0.022593412           10 
 3651000   0.68247495   -6.6632503    1024.1955  0.023377054  0.022586422           18 
 3652000    0.6554893   -6.6479694    1023.8096  0.023361846  0.022579434           24 
 3653000   0.69077041   -6.6322267    1024.9564  0.023381612  0.022572438           16 
 3654000   0.67337907   -6.6911965    1022.8663  0.023327546  0.022565466           17 
 3655000   0.65789218   -6.6433954    1024.0354  0.023347821  0.022558465           15 
 3656000   0.66027661    -6.680625    1024.9375  0.023361997  0.022551481           18 
 3657000   0.67771402   -6.6483967    1021.6819  0.023281422  0.022544501           18 
 3658000   0.67054284   -6.6619599    1023.8091  0.023323518  0.022537533           30 
 3659000   0.66168271   -6.6448533    1027.5398  0.023402109   0.02253056           17 
 3660000   0.68131037   -6.6583395    1026.0801  0.023362479  0.022523615           15 
 3661000   0.66016101   -6.6680602    1023.9102  0.023306706  0.022516635           12 
 3662000   0.66767671   -6.6638424    1025.5358  0.023337333  0.022509648           18 
 3663000   0.68566502   -6.6683899    1021.9016  0.023248284  0.022502647           23 
 3664000   0.67654011    -6.670509    1023.1009  0.023269216  0.022495654           18 
 3665000   0.67512554   -6.6684994    1023.5068  0.023272097  0.022488665           26 
 3666000   0.66633395   -6.6694129     1021.966  0.023230724  0.022481673           18 
 3667000   0.66434255   -6.6625473    1023.8262  0.023266663  0.022474678           21 
 3668000   0.66124883   -6.6831986    1021.0924   0.02319821   0.02246767           13 
 3669000   0.65929358   -6.6728717    1023.6719  0.023250475  0.022460679           18 
 3670000   0.66210499   -6.6695009    1023.4971   0.02324017  0.022453694           18 
 3671000   0.67038409   -6.6491839    1022.3912  0.023208735  0.022446705           24 
 3672000   0.66106113   -6.6546289    1023.6436  0.023230837  0.022439765           19 
 3673000   0.65792893   -6.6657427    1024.7819  0.023250339  0.022432814           16 
 3674000   0.65940356   -6.6645956    1026.1139  0.023274223  0.022425865           21 
 3675000   0.67036762   -6.6618145    1025.6545  0.023257472    0.0224189           18 
 3676000   0.68378905    -6.664568    1022.5041  0.023179726  0.022411957           28 
 3677000   0.66706092   -6.6660052    1023.7484  0.023201622  0.022404969           29 
 3678000   0.65210389   -6.6604627     1024.498  0.023212297  0.022398004           26 
 3679000   0.66795108   -6.6706146    1024.7098  0.023210787  0.022391038           23 
 3680000   0.66513764   -6.6921572    1021.5459  0.023132833  0.022384081           27 
 3681000   0.67069273   -6.6749946    1025.1618  0.023208407   0.02237714           23 
 3682000   0.66250337   -6.6978636    1025.5044  0.023209859  0.022370181           26 
 3683000   0.67442563    -6.665697     1026.153  0.023218232  0.022363237           11 
 3684000   0.67094621   -6.6726482    1024.0608  0.023164604  0.022356303           12 
 3685000   0.67430517   -6.6886295    1024.8211  0.023175511  0.022349344           30 
 3686000    0.6638008   -6.6705187    1025.4854  0.023184243  0.022342418           15 
 3687000   0.65870862   -6.6869521    1022.2806   0.02310552  0.022335493           20 
 3688000   0.66245024   -6.6636271    1024.5943  0.023151535  0.022328563           22 
 3689000   0.65885865   -6.6610381    1022.0812  0.023088488  0.022321647           35 
 3690000   0.67124942   -6.6653581    1025.1323  0.023151135  0.022314717           26 
 3691000   0.67866455    -6.687361    1025.0294  0.023142541  0.022307796           50 
 3692000   0.65801001   -6.6887586    1022.6206  0.023081902  0.022300849           21 
 3693000   0.65855149   -6.6957596    1021.8762  0.023058855  0.022293894           34 
 3694000   0.64959469   -6.7129045    1022.8414  0.023074385  0.022286965           25 
 3695000   0.65052121   -6.6963761     1024.463  0.023104714  0.022280032           27 
 3696000   0.64610378   -6.6920693    1024.9426  0.023109275  0.022273118           39 
 3697000   0.66018942   -6.6794506    1024.9151  0.023102405  0.022266185           31 
 3698000   0.64953944   -6.6894579    1025.5688  0.023110888  0.022259287           21 
 3699000   0.66435421   -6.6924495    1027.0447  0.023137892  0.022252395           20 
 3700000   0.66926477   -6.6736677    1027.6984   0.02314636  0.022245511           29 
 3701000    0.6565178   -6.6504663    1027.1309  0.023127328  0.022238615           20 
 3702000   0.64386648   -6.6846588    1026.9663  0.023117376  0.022231743           22 
 3703000   0.64818796   -6.6893838     1025.962  0.023088533  0.022224886           14 
 3704000   0.65199428   -6.6845645    1025.6486  0.023075247  0.022218025           18 
 3705000   0.64994002   -6.6926248    1026.6414  0.023091349  0.022211169           31 
 3706000   0.64785933   -6.6957519    1024.2502   0.02303135  0.022204305           25 
 3707000   0.66535908   -6.6996641    1022.2585  0.022980364  0.022197411           54 
 3708000   0.65931132   -6.6782291    1025.0901  0.023037804  0.022190532           39 
 3709000   0.65333047   -6.6708749    1025.0107  0.023029809  0.022183632           16 
 3710000    0.6686318   -6.6965247    1025.0106  0.023023597  0.022176726           13 
 3711000   0.65143849   -6.7071615    1025.6594  0.023031963  0.022169841           20 
 3712000   0.65208448   -6.6880763    1025.2408  0.023016361  0.022162935           19 
 3713000   0.65003822    -6.729248    1022.8014  0.022955412  0.022156002           27 
 3714000   0.65240751   -6.7114196    1025.8993  0.023018743  0.022149067           18 
 3715000   0.65689502   -6.6999942    1024.7895   0.02298765  0.022142162           17 
 3716000   0.65931509    -6.709622    1025.0021  0.022986233  0.022135254           42 
 3717000   0.66973213   -6.7141449    1025.5477  0.022992281  0.022128354           27 
 3718000   0.64181563     -6.70331    1025.3574  0.022981832  0.022121448           56 
 3719000   0.66578218   -6.6881675    1025.5758  0.022980547  0.022114566           45 
 3720000   0.65196048    -6.704067    1025.9921  0.022983695  0.022107662           28 
 3721000   0.65160843   -6.7084412    1023.2774  0.022916719  0.022100772           12 
 3722000   0.65288243   -6.6875702    1027.0092  0.022994115  0.022093889           23 
 3723000   0.65388711   -6.6870781    1024.8218  0.022938978     0.022087           16 
 3724000   0.66000029   -6.7106497    1021.8332  0.022865942  0.022080101           21 
 3725000   0.63937471   -6.7117984    1025.2216  0.022935606  0.022073228           42 
 3726000   0.65431397   -6.7264465    1025.8107  0.022942627  0.022066331           21 
 3727000   0.65423468   -6.6940875    1023.3882  0.022882304  0.022059436           40 
 3728000   0.65363827   -6.7313428    1021.8339  0.022841424  0.022052534           23 
 3729000   0.65059102   -6.7333255    1024.3567  0.022891675   0.02204562           38 
 3730000    0.6634575   -6.7242279     1021.953  0.022831836   0.02203873           20 
 3731000   0.66360428   -6.6955139    1022.7073  0.022842566  0.022031838           23 
 3732000   0.65315904   -6.7054239    1023.5918  0.022856193  0.022024941           25 
 3733000   0.65172291   -6.7256548    1022.1097  0.022816986  0.022018027           20 
 3734000   0.63763239   -6.6899346    1022.6081  0.022821999  0.022011124           10 
 3735000   0.66132673   -6.7178637     1023.636  0.022838822  0.022004252           40 
 3736000   0.65366283    -6.700235    1022.5967  0.022809526  0.021997377           50 
 3737000   0.66751663   -6.7108688    1025.5454  0.022869178  0.021990506           49 
 3738000   0.66355087   -6.6790991    1025.0465  0.022851938  0.021983645           40 
 3739000   0.65834355   -6.7136735    1023.6662  0.022815062  0.021976793           54 
 3740000   0.65739492   -6.7173665    1024.6811  0.022831575   0.02196994           40 
 3741000   0.64600638   -6.7039613      1024.55  0.022822553  0.021963091           33 
 3742000   0.65243435   -6.7126044    1027.1389  0.022874106  0.021956238           25 
 3743000   0.65913061   -6.7016742    1025.7239  0.022836493  0.021949391           21 
 3744000   0.65362617   -6.7168106    1023.8083  0.022787755  0.021942558           15 
 3745000   0.63582735   -6.6928811    1023.2473  0.022769187  0.021935717           27 
 3746000   0.64746798   -6.6982421     1024.846  0.022798675  0.021928877           25 
 3747000   0.66237839   -6.7070442     1026.247  0.022823747  0.021922053           24 
 3748000   0.65057954   -6.7031469    1025.3561   0.02279785  0.021915215           21 
 3749000   0.65494557   -6.7227566    1023.7415  0.022755879  0.021908366           31 
 3750000   0.64530121   -6.7415491      1023.36  0.022741333  0.021901521           58 
 3751000   0.66057866   -6.7345692    1024.0585  0.022750788  0.021894685           16 
 3752000   0.65580566   -6.7025301    1025.3427  0.022773247  0.021887855           21 
 3753000   0.64401503   -6.6936359    1027.9246  0.022824509  0.021881015           54 
 3754000   0.63578417   -6.7220694    1023.6176  0.022722821  0.021874195           32 
 3755000   0.64265298   -6.7291728    1023.9007  0.022723051  0.021867379           42 
 3756000   0.65532714   -6.7154584    1025.1613  0.022744971  0.021860558           18 
 3757000   0.64163446   -6.7195305     1024.684   0.02272833  0.021853712           71 
 3758000   0.64562687   -6.7568271    1024.5502  0.022719315  0.021846841           23 
 3759000   0.65119549   -6.7031609    1025.3304  0.022730566  0.021840009           43 
 3760000   0.65031621   -6.7166703    1025.4572  0.022727331  0.021833194           38 
 3761000    0.6591693   -6.7275475    1025.2984  0.022717769  0.021826403           44 
 3762000   0.65249345   -6.7270153    1022.5728  0.022651357   0.02181959           64 
 3763000   0.64413441   -6.6950276    1024.7925  0.022694493  0.021812763           39 
 3764000   0.66252377   -6.7226862    1025.8571  0.022712032  0.021805954           38 
 3765000   0.65163627   -6.7062355      1024.86  0.022683931  0.021799158           40 
 3766000   0.64571322   -6.7028786    1026.2791  0.022709309  0.021792344           28 
 3767000   0.64821635   -6.7169801    1026.0848  0.022698981  0.021785559           40 
 3768000   0.66272032   -6.6943916     1027.024  0.022713729  0.021778778           18 
 3769000   0.64974993    -6.690537    1024.3176  0.022647863  0.021771981           24 
 3770000   0.65030934   -6.7100141    1024.9142  0.022655045  0.021765181           37 
 3771000   0.65334596   -6.7294696    1023.8499  0.022625517  0.021758369           26 
 3772000   0.64798251   -6.7309014      1025.76  0.022661719  0.021751554           39 
 3773000   0.63046526   -6.7519825    1023.0579   0.02259603  0.021744738           57 
 3774000   0.64334689   -6.7168874    1024.5777  0.022623602  0.021737905           54 
 3775000   0.66192356   -6.7175915    1024.0515  0.022605993  0.021731091           47 
 3776000   0.68233257   -6.7269584    1024.5217  0.022610384  0.021724277           22 
 3777000   0.66501448    -6.702611    1026.6015  0.022650284  0.021717498           43 
 3778000   0.63732994   -6.7004748    1028.0393  0.022676004  0.021710734           47 
 3779000    0.6530164   -6.7051088    1024.3976  0.022589697  0.021703955           82 
 3780000   0.65082622   -6.6934973    1025.4669  0.022607295  0.021697166           27 
 3781000   0.64368821    -6.719711    1025.8579  0.022609932  0.021690388           18 
 3782000    0.6445617   -6.7560408    1023.5488  0.022553076  0.021683613           52 
 3783000   0.64593902   -6.7401786    1024.4916  0.022567883  0.021676811           23 
 3784000   0.63688534   -6.7324693    1021.8774  0.022504347  0.021670008           16 
 3785000   0.66009468    -6.727267    1024.2828  0.022551361  0.021663218           41 
 3786000   0.65172035   -6.7371954    1024.7736  0.022556206   0.02165644           16 
 3787000   0.64899085   -6.7462838    1022.3267  0.022496406  0.021649655           18 
 3788000   0.64165359   -6.7302722    1024.6922  0.022542506  0.021642868           45 
 3789000   0.65403321    -6.753698    1023.3344  0.022506696  0.021636062           52 
 3790000   0.65690778   -6.7490406    1024.5505  0.022527495  0.021629269           33 
 3791000   0.63817802   -6.7429648    1022.9113  0.022485521  0.021622451           45 
 3792000   0.65095843   -6.7713385    1021.8353  0.022455944  0.021615644           44 
 3793000   0.64669266   -6.7548554    1024.8876  0.022517085   0.02160886           26 
 3794000    0.6435357    -6.747012    1024.7889  0.022508981  0.021602087           37 
 3795000   0.64294917   -6.7298327    1023.4075  0.022472717  0.021595308           48 
 3796000   0.65590179   -6.7300107    1024.2573  0.022485453  0.021588567           41 
 3797000   0.65488973   -6.7326962    1024.7706  0.022490795  0.021581825           29 
 3798000   0.64159223   -6.7195763    1025.2976  0.022496438  0.021575088           16 
 3799000   0.65307419   -6.7324783    1024.6569   0.02247646  0.021568339           24 
 3800000   0.63393124   -6.7398116    1024.0339  0.022456884  0.021561572           23 
 3801000   0.65374092   -6.7319266    1023.6101  0.022441685  0.021554824           17 
 3802000   0.63538532    -6.712208    1026.2585  0.022493831  0.021548071           19 
 3803000   0.64562515   -6.7648681    1024.0705   0.02243997  0.021541318           34 
 3804000   0.63729105   -6.7518717    1023.0708  0.022412171  0.021534544           35 
 3805000   0.64017828   -6.7477229    1023.0615  0.022406079  0.021527775           12 
 3806000   0.64352712   -6.7378213    1024.4851   0.02243136  0.021521038           26 
 3807000   0.64696917   -6.7126422    1028.1377  0.022505422  0.021514307           26 
 3808000   0.63067249   -6.7186108    1027.0497  0.022475702  0.021507591           33 
 3809000   0.64075933   -6.7349341    1025.3889  0.022433466  0.021500872           36 
 3810000   0.65351026   -6.7280322    1025.2585  0.022424726  0.021494137           22 
 3811000   0.64138648   -6.7286609    1025.0853  0.022415054  0.021487428           25 
 3812000   0.65146308   -6.7090883    1024.9726  0.022406711  0.021480746           27 
 3813000   0.63349797   -6.6963235    1026.7672  0.022440057  0.021474084           15 
 3814000   0.63750392   -6.7154979    1023.5925  0.022364807  0.021467401           47 
 3815000   0.64387335   -6.7229114    1026.3609  0.022419417  0.021460694           48 
 3816000   0.64560248   -6.7360539    1023.4749  0.022350518  0.021453993           40 
 3817000   0.64722276   -6.7263219    1024.9735   0.02237738   0.02144727           32 
 3818000   0.63529097   -6.7489242    1025.0828  0.022373904  0.021440553           29 
 3819000   0.63743695   -6.7334892    1024.9804  0.022365811  0.021433855           24 
 3820000   0.65921931   -6.7782467    1024.8324  0.022356728  0.021427137           44 
 3821000   0.63601422   -6.7476806    1025.3941  0.022363127  0.021420409           33 
 3822000   0.63097608   -6.7335547    1024.2921  0.022333248  0.021413679           42 
 3823000   0.63310148   -6.7462718    1024.3366  0.022328377  0.021406956           37 
 3824000   0.64102218   -6.7249742    1026.6571  0.022373107  0.021400244           34 
 3825000   0.65148865   -6.7257407    1026.0007  0.022352956  0.021393555           25 
 3826000   0.62726987   -6.7572663     1027.013  0.022369162  0.021386867           26 
 3827000   0.63983491   -6.7461093    1025.2338  0.022324575  0.021380182           25 
 3828000   0.63840526    -6.722549     1024.917  0.022311847  0.021373488           23 
 3829000   0.63690408   -6.7137897    1024.7345  0.022302047  0.021366813           33 
 3830000   0.64801602    -6.714056    1027.8163   0.02236328  0.021360143           30 
 3831000   0.64582586   -6.7477691    1023.9757  0.022273898  0.021353449           31 
 3832000   0.63498889   -6.7526396    1024.1308   0.02227146  0.021346755           68 
 3833000   0.64008866   -6.7358234    1027.0778  0.022329721   0.02134008           15 
 3834000    0.6463944   -6.7415077    1026.1782  0.022304343   0.02133342           18 
 3835000   0.63373664   -6.7177835    1024.3955  0.022259788  0.021326761           19 
 3836000   0.63690351   -6.7263542     1027.071   0.02231211  0.021320108           15 
 3837000   0.63910953   -6.7388963    1027.6096  0.022317991  0.021313433           16 
 3838000    0.6245097   -6.7235432    1026.5282  0.022288697  0.021306775           12 
 3839000   0.62797088   -6.7177797    1027.0598   0.02229443  0.021300132           31 
 3840000   0.63088189   -6.7220103    1027.2228  0.022292162  0.021293478           26 
 3841000   0.64420041   -6.7231337    1024.4747  0.022226737  0.021286813           28 
 3842000   0.63949785   -6.7189012    1024.4172  0.022219702  0.021280125           25 
 3843000   0.63924637   -6.7367015    1028.3216  0.022298586  0.021273463           40 
 3844000   0.62967638   -6.7702544    1022.8681  0.022174561   0.02126677           25 
 3845000   0.63480634   -6.7442369    1025.2669  0.022220782  0.021260065           39 
 3846000   0.64110359   -6.7782697    1025.1131  0.022211671  0.021253361           28 
 3847000   0.63591415   -6.7413476    1025.6921   0.02221844  0.021246638           29 
 3848000   0.64320498   -6.7463251     1024.204   0.02218044  0.021239934           43 
 3849000   0.64006977   -6.7602713    1023.6344  0.022162346   0.02123324           31 
 3850000   0.63877927   -6.7380739    1022.4074   0.02213003   0.02122654           26 
 3851000   0.64578479   -6.7476106    1023.0787   0.02213881  0.021219837           30 
 3852000   0.65476833   -6.7556463    1023.8857  0.022150522  0.021213125           21 
 3853000   0.63294744   -6.7670786    1023.2213  0.022130403  0.021206393           17 
 3854000   0.63549655     -6.75478    1024.3527  0.022149124   0.02119968           34 
 3855000   0.64149833   -6.7730795    1022.6501  0.022106574  0.021192968           39 
 3856000   0.63262966   -6.7621772    1023.1411  0.022111451   0.02118623           28 
 3857000   0.64147741   -6.7609164    1023.9828  0.022123904  0.021179498           22 
 3858000   0.64341444   -6.7637797    1022.6494  0.022089369  0.021172787           28 
 3859000   0.62789099   -6.7829839    1022.8784  0.022088589  0.021166065           43 
 3860000   0.63395036   -6.7696319    1024.2704  0.022112918  0.021159344           77 
 3861000    0.6374724   -6.7776029    1022.1473  0.022061369  0.021152638           52 
 3862000    0.6384866   -6.7523439    1023.5451  0.022085817  0.021145935           44 
 3863000   0.64201007   -6.7836195    1023.1328  0.022071205  0.021139222           36 
 3864000   0.64335762   -6.7410831    1024.1653  0.022087761  0.021132516           25 
 3865000   0.63163705    -6.743728    1023.0594  0.022058202  0.021125817           85 
 3866000   0.63324327   -6.7495525    1021.6778  0.022022715   0.02111914           28 
 3867000   0.62154592   -6.7404198    1023.7907  0.022062553  0.021112463           21 
 3868000   0.61769804   -6.7391969    1026.6974  0.022119471  0.021105801           19 
 3869000   0.64093174   -6.7605902     1025.132  0.022080038  0.021099119           28 
 3870000    0.6111577   -6.7844008    1020.8814  0.021982804  0.021092438           19 
 3871000   0.62834401   -6.7740712    1023.8191  0.022040367  0.021085747           18 
 3872000   0.63939688   -6.8041057    1022.9258  0.022015448  0.021079046           36 
 3873000   0.63983887   -6.7584566    1023.2709  0.022017189   0.02107236           20 
 3874000   0.63456809   -6.7634132    1025.1841  0.022052661  0.021065656           22 
 3875000   0.63071125   -6.7479545    1024.3588  0.022029222  0.021058984           21 
 3876000    0.6375676   -6.7644215    1022.8781  0.021991703  0.021052326           20 
 3877000   0.64129162   -6.7682528    1023.8851  0.022007675  0.021045659           18 
 3878000   0.63394838   -6.7749624    1022.5151  0.021972562  0.021039002           21 
 3879000   0.63207795    -6.762654    1022.9964  0.021977236  0.021032342           31 
 3880000   0.62272632   -6.7715244    1021.4279  0.021937885  0.021025682           35 
 3881000   0.62651073    -6.774695    1021.0624  0.021924384  0.021019033           17 
 3882000    0.6352314   -6.7631446    1024.2908  0.021988039  0.021012387           85 
 3883000   0.64750134   -6.7503551    1025.0083  0.021997774  0.021005746           83 
 3884000    0.6237035   -6.7831597    1023.3447  0.021956417  0.020999112           36 
 3885000    0.6351764   -6.7788807    1023.6866  0.021958099  0.020992448           67 
 3886000   0.61981788    -6.765485    1023.5355  0.021949208   0.02098579           54 
 3887000   0.62661937   -6.7812379    1024.2031  0.021957875   0.02097913           61 
 3888000   0.62097863   -6.7779165    1024.3355  0.021955065  0.020972453          102 
 3889000   0.63038151   -6.7805653    1023.6469  0.021934665  0.020965779           96 
 3890000   0.63724471   -6.7844514    1020.9022  0.021870227  0.020959113           40 
 3891000   0.62599098   -6.8052838    1020.3815  0.021853454  0.020952432           46 
 3892000   0.62886948   -6.8090048    1019.7249   0.02183378  0.020945728           42 
 3893000   0.61666735   -6.7735664    1021.3332  0.021862599  0.020939047           48 
 3894000   0.61965485   -6.8019184     1020.351  0.021835966  0.020932377           35 
 3895000   0.62196496   -6.8034798    1020.3247  0.021829796  0.020925689           49 
 3896000     0.610388    -6.796145     1022.873  0.021878699  0.020919011           40 
 3897000   0.61959883   -6.7928295    1022.6247  0.021867777  0.020912346           16 
 3898000   0.63779065   -6.7815512    1023.9307  0.021890086  0.020905684           35 
 3899000   0.63439508   -6.7930757    1022.3884  0.021851508  0.020899031           31 
 3900000    0.6268568   -6.7726428    1021.5404  0.021827786  0.020892419           20 
 3901000    0.6383027   -6.7698853    1023.7242   0.02186884  0.020885791           31 
 3902000   0.63117654   -6.7600681     1022.365  0.021834209   0.02087917           24 
 3903000   0.63822391   -6.7879505    1021.6828  0.021814049  0.020872545           22 
 3904000   0.61335858   -6.7850564    1023.9081  0.021855962  0.020865924           59 
 3905000   0.62498402   -6.7559583    1023.9709  0.021851704  0.020859314           25 
 3906000   0.63765855   -6.7924582    1021.1263  0.021785421  0.020852682           33 
 3907000   0.63020439   -6.7940554    1021.9971  0.021798419  0.020846039           28 
 3908000   0.61706241   -6.7785224     1022.211  0.021797402  0.020839409           62 
 3909000   0.63210948   -6.7773283    1023.3259  0.021815594  0.020832793           65 
 3910000   0.63233088   -6.8078336    1022.9025  0.021800992  0.020826151           58 
 3911000   0.62967508   -6.7853325    1024.4961  0.021829373  0.020819524           60 
 3912000   0.62309652   -6.7878525    1022.2507  0.021775961  0.020812895           51 
 3913000   0.63860284   -6.7721333    1024.1192  0.021810189  0.020806308           52 
 3914000   0.62926237   -6.7742639      1021.19  0.021742249  0.020799709           61 
 3915000    0.6221642   -6.7551663      1024.47  0.021806514  0.020793127           33 
 3916000   0.61385748   -6.7775654    1026.3672  0.021841318  0.020786557           25 
 3917000   0.61409302   -6.7657892    1023.7499   0.02178006  0.020779956           21 
 3918000   0.62531827   -6.7817837    1021.4384  0.021725336  0.020773349           44 
 3919000   0.62543082   -6.7652646    1022.4208  0.021740682  0.020766753           23 
 3920000   0.61672134   -6.7941942    1022.8503  0.021744266   0.02076017           19 
 3921000   0.61241684   -6.7893735    1023.7319  0.021757458  0.020753581           39 
 3922000   0.62662443    -6.802635    1021.4086  0.021702546  0.020746959           23 
 3923000   0.62567878   -6.7944085    1021.2305  0.021693229  0.020740363           29 
 3924000   0.63271696    -6.792145    1022.4765  0.021714164  0.020733753           32 
 3925000   0.61778205   -6.8014997    1021.6617  0.021691331  0.020727152           38 
 3926000   0.63109721   -6.7645843    1023.4038  0.021722785  0.020720561           58 
 3927000   0.62278604   -6.7671206    1021.8829  0.021684979  0.020713984           17 
 3928000   0.62923489   -6.7783587    1023.8676  0.021721563   0.02070741           32 
 3929000   0.62855388   -6.7623218    1022.9256  0.021696054  0.020700841           22 
 3930000   0.63794277   -6.7822762    1024.0906  0.021715237  0.020694281           34 
 3931000    0.6230402   -6.7968325     1024.548  0.021719409  0.020687712           33 
 3932000   0.63002945   -6.7741079    1023.6086  0.021693978   0.02068115           39 
 3933000   0.63139035   -6.7892946    1023.3938   0.02168391  0.020674569           38 
 3934000   0.62818696   -6.7831808    1021.5429  0.021639191     0.020668           36 
 3935000   0.62250418   -6.7968045    1020.4034  0.021609559  0.020661413           18 
 3936000   0.60655411   -6.8062442    1020.8579  0.021613692  0.020654835           34 
 3937000   0.63643396    -6.778211    1024.5728  0.021686834  0.020648263           27 
 3938000    0.6190146   -6.7932549    1022.3674  0.021634659  0.020641718           96 
 3939000   0.63041692   -6.7905784    1026.4347  0.021715214  0.020635173           36 
 3940000   0.61637187   -6.7725166    1023.1294  0.021639794  0.020628622           27 
 3941000   0.62609106   -6.7681257    1023.8437  0.021649406  0.020622036           34 
 3942000   0.60991794   -6.7852525    1022.7576  0.021620954  0.020615451           77 
 3943000   0.60914041   -6.7815065    1021.2075   0.02158271  0.020608884           35 
 3944000   0.63325932   -6.8178412    1020.2846  0.021557738  0.020602321           56 
 3945000   0.61572809   -6.7979356    1022.6339    0.0216019  0.020595753           26 
 3946000   0.61963111   -6.8037756    1022.4485   0.02159251  0.020589161           23 
 3947000    0.6139903   -6.7910869    1020.7691   0.02155158  0.020582597           22 
 3948000   0.60952228   -6.7823044    1021.2543  0.021556363  0.020576049           15 
 3949000   0.63286156   -6.7989538    1022.7707  0.021582905  0.020569499           30 
 3950000   0.62971675   -6.7858103     1023.342  0.021589495  0.020562943           24 
 3951000   0.62097007   -6.7795466    1021.8227  0.021551985  0.020556383           48 
 3952000   0.61008138   -6.7980251    1020.4516   0.02151762  0.020549818           26 
 3953000   0.60369441   -6.7813755    1023.2737  0.021571669   0.02054327           21 
 3954000   0.61730102   -6.7789016    1022.5276  0.021550489  0.020536735           39 
 3955000   0.61771865   -6.8121054    1021.4313   0.02152194  0.020530189           31 
 3956000   0.62461805   -6.8190875    1021.6347  0.021520785  0.020523631           46 
 3957000    0.6214685    -6.775478    1022.9558  0.021543167  0.020517072           32 
 3958000   0.61916536   -6.8066747    1021.2793  0.021502428  0.020510539           63 
 3959000   0.62281156   -6.8113579    1022.0416  0.021513042  0.020503996           52 
 3960000   0.61681337   -6.7916465    1022.2263  0.021511496  0.020497449           47 
 3961000   0.61965584   -6.8150017    1019.1189  0.021440691  0.020490905           39 
 3962000   0.61570737    -6.791561    1021.6155   0.02148779  0.020484387           29 
 3963000    0.6099736   -6.7859281    1021.2502  0.021474686  0.020477848           67 
 3964000   0.63065656   -6.7850913    1023.3219  0.021512821  0.020471324           32 
 3965000   0.62388575   -6.7941908    1024.2779  0.021527488  0.020464811           93 
 3966000   0.60757613   -6.7987282    1024.6985  0.021530899  0.020458314           39 
 3967000   0.61378065   -6.8038995    1020.7424  0.021442366  0.020451785           61 
 3968000    0.6238777   -6.8157221    1021.8587  0.021460407  0.020445253           60 
 3969000   0.60555978   -6.8257941    1019.7847  0.021411454  0.020438711           27 
 3970000   0.62617548   -6.8313832     1022.204  0.021456844  0.020432175           80 
 3971000   0.62039712   -6.8112493    1019.4531   0.02139371  0.020425648           46 
 3972000   0.61475467   -6.8116281    1023.1306  0.021465478  0.020419131           43 
 3973000   0.61138166   -6.8149112    1021.9691  0.021435714  0.020412613           63 
 3974000   0.63053697   -6.8238622    1022.7723  0.021447163  0.020406086           72 
 3975000   0.62627639    -6.797925    1022.3767  0.021433473  0.020399554          103 
 3976000   0.61733586   -6.8098523    1022.6078  0.021432926  0.020393053           49 
 3977000   0.60980927   -6.8230481    1021.2448  0.021398977   0.02038653           79 
 3978000   0.61107228   -6.8167356    1020.3441  0.021374729  0.020380016           62 
 3979000   0.62331772   -6.8069096    1021.4883  0.021393322  0.020373494           70 
 3980000    0.6040975    -6.817151    1022.5838  0.021410883  0.020366974           69 
 3981000   0.63660513   -6.8109807    1022.6152  0.021406162  0.020360466           70 
 3982000   0.61458712   -6.8185403    1020.0423  0.021346943  0.020353973          133 
 3983000   0.61279048   -6.8271592     1022.699  0.021397168   0.02034747          256 
 3984000   0.61054003   -6.8069824    1022.6376  0.021390512  0.020340975          125 
 3985000   0.60669764   -6.7924853    1021.6519  0.021364531  0.020334494           58 
 3986000   0.61001132   -6.8044188     1022.751   0.02138215  0.020327998          179 
 3987000    0.6103935   -6.8095828    1023.2539  0.021387299  0.020321498          215 
 3988000   0.62856507    -6.830983     1020.632  0.021327148  0.020314992          174 
 3989000   0.61771155     -6.83697    1021.8958  0.021348203  0.020308488           66 
 3990000   0.61601008   -6.8186101    1019.2249   0.02128707  0.020301993          239 
 3991000   0.61387851   -6.8187751    1022.0902  0.021341565  0.020295481          218 
 3992000   0.60604607   -6.8125416    1022.4161  0.021343022  0.020288983          255 
 3993000   0.60662971    -6.831046    1022.6606  0.021342779  0.020282474          209 
 3994000   0.60654287   -6.8137441    1022.6192  0.021336572  0.020275965          298 
 3995000   0.60252829   -6.8417248     1022.975  0.021338653  0.020269456          259 
 3996000   0.61245259   -6.8062514    1022.2236  0.021317642  0.020262967          227 
 3997000   0.61231924   -6.7993324    1022.3113  0.021314138  0.020256479          139 
 3998000   0.61595956   -6.8109404    1020.7763  0.021276812  0.020249977          112 
 3999000    0.6122116   -6.8472159    1017.1701  0.021196343  0.020243454          247 
 4000000   0.61098191   -6.8364039    1020.7718  0.021266079  0.020236938          102 
 4001000   0.59551361   -6.8372715    1020.7928  0.021261201  0.020230408          171 
 4002000   0.60595725   -6.8556715     1020.457  0.021248897  0.020223886          128 
 4003000    0.6124736   -6.8296881    1021.9363  0.021274384  0.020217366           91 
 4004000   0.59772842   -6.8507881    1018.9666  0.021207263   0.02021084          116 
 4005000   0.62156371   -6.8578638      1019.33   0.02120953  0.020204306          133 
 4006000   0.63023696   -6.8616529      1017.57  0.021167624  0.020197782          298 
 4007000   0.61058057   -6.8751024    1018.5038  0.021181762  0.020191255          127 
 4008000   0.61872567   -6.8323519    1020.4522  0.021216988  0.020184737          158 
 4009000   0.61632985   -6.8406204    1018.8804  0.021179021  0.020178211          123 
 4010000   0.61112077   -6.8409394     1018.626  0.021168453  0.020171684          221 
 4011000   0.62308165   -6.8433472    1018.7608  0.021165976   0.02016516          273 
 4012000   0.61930095   -6.8604677     1020.127  0.021189078  0.020158642          162 
 4013000    0.6124283   -6.8630859    1017.8349  0.021136201  0.020152115          364 
 4014000   0.61500368   -6.8667873    1018.2505  0.021139564  0.020145591          432 
 4015000   0.61181516   -6.8471252    1018.5988  0.021141527  0.020139067          315 
 4016000    0.6154151   -6.8511496     1020.154  0.021168534  0.020132549          161 
 4017000   0.60987272   -6.8776466    1017.7986  0.021114402  0.020126045          146 
 4018000   0.61975972   -6.8277713    1020.6727  0.021168756  0.020119551          239 
 4019000   0.60887882   -6.8527614    1019.0887  0.021130645  0.020113028          260 
 4020000   0.60194198    -6.861593    1019.1737   0.02112715  0.020106532          178 
 4021000   0.61099215   -6.8398515    1016.5338  0.021067186  0.020100026          161 
 4022000   0.59984059    -6.855756    1018.7503   0.02110787   0.02009354          188 
 4023000   0.61008803    -6.849042    1018.0018   0.02108712  0.020087061           96 
 4024000   0.61487283   -6.8778828    1017.9798  0.021081424  0.020080582          176 
 4025000   0.60586237   -6.8579277    1021.5327  0.021149745  0.020074108          157 
 4026000   0.61267317   -6.8666462    1019.5192  0.021102815  0.020067619          147 
 4027000   0.62133216   -6.8534323    1021.7806  0.021144371  0.020061138          124 
 4028000   0.60626571   -6.8332208     1018.819  0.021077852  0.020054672          324 
 4029000   0.59890824   -6.8502616    1019.6137  0.021089056  0.020048207          125 
 4030000   0.62733678   -6.8472799    1019.3834  0.021079062  0.020041741          131 
 4031000   0.61023688   -6.8418802    1020.9559   0.02110634  0.020035279          186 
 4032000   0.60351278   -6.8462838    1018.3474  0.021047194  0.020028821          138 
 4033000   0.60721326   -6.8577458    1018.2723  0.021040423   0.02002237          227 
 4034000   0.60394433   -6.8389271    1019.6811   0.02106431  0.020015929          121 
 4035000   0.61285234   -6.8313499    1018.2652  0.021029847  0.020009497          245 
 4036000   0.59532267   -6.8721864    1018.7362  0.021034362  0.020003038          250 
 4037000   0.59648748   -6.8683514    1019.3698  0.021042231  0.019996598          303 
 4038000   0.61278777   -6.8795638    1020.6049  0.021062507  0.019990159          167 
 4039000   0.61747767   -6.8526683    1018.1957  0.021007587  0.019983703          115 
 4040000    0.6008217   -6.8234103    1021.0528   0.02106132  0.019977257          136 
 4041000   0.60422486   -6.8571594    1016.5766  0.020963801   0.01997081          299 
 4042000   0.60680541   -6.8323939    1019.2949  0.021014657  0.019964369          142 
 4043000   0.60891068   -6.8507039    1019.8634  0.021021176  0.019957929          163 
 4044000   0.60668641   -6.8511949    1021.1328  0.021042137  0.019951493          169 
 4045000   0.60137558   -6.8330025    1021.3492  0.021041392  0.019945061           79 
 4046000   0.60972939   -6.8690505    1018.2966   0.02097332  0.019938636          118 
 4047000   0.60408284   -6.8638719    1021.2156  0.021028243   0.01993221          205 
 4048000   0.59520286   -6.8481438    1020.6706  0.021011828  0.019925781          134 
 4049000   0.58533794   -6.8463949    1019.8349  0.020989441  0.019919361          267 
 4050000    0.6057394   -6.8503706    1021.2325  0.021013014  0.019912936          282 
 4051000   0.61047032   -6.8604484    1020.7079  0.020997036   0.01990652          252 
 4052000   0.60978756   -6.8666971    1018.2494  0.020941292  0.019900096          347 
 4053000   0.60092014   -6.8487358    1019.6163  0.020964231  0.019893663          306 
 4054000   0.59311788   -6.8797748    1016.3133  0.020891164  0.019887227          318 
 4055000   0.59337097   -6.8776642      1018.32  0.020927251   0.01988079          370 
 4056000   0.60279764   -6.8732274    1018.5183  0.020926165  0.019874366          256 
 4057000   0.60136294   -6.8407109    1019.6366  0.020943977  0.019867956          130 
 4058000    0.6068048   -6.8575877    1022.3041  0.020993594   0.01986156          118 
 4059000   0.59379483   -6.8489417    1020.1344  0.020943879   0.01985516          153 
 4060000   0.61337189   -6.8544428    1020.7718  0.020951802  0.019848758          153 
 4061000   0.59751539   -6.8628462    1020.8717  0.020948693  0.019842356          182 
 4062000   0.59384174   -6.8657876    1019.8752  0.020923091  0.019835936          149 
 4063000   0.59423799   -6.8644398    1019.6418  0.020913155  0.019829534          200 
 4064000   0.60988758   -6.8336554    1020.6864  0.020929429   0.01982313          257 
 4065000   0.62088222   -6.8679718    1019.7449  0.020904979  0.019816725          288 
 4066000   0.59779329   -6.8733217    1018.5656  0.020875669  0.019810321          132 
 4067000   0.61705036   -6.8717722    1017.2644  0.020843874  0.019803902          215 
 4068000   0.61406298   -6.8683614    1019.3801  0.020882089  0.019797468          123 
 4069000   0.59449477    -6.897197    1015.9607  0.020806927   0.01979103          152 
 4070000   0.59801225   -6.8645338    1017.0423  0.020823962  0.019784597          254 
 4071000    0.6150677   -6.8878524    1018.1333  0.020841179  0.019778164          404 
 4072000   0.60557341   -6.8904212    1016.5012  0.020802659  0.019771744          220 
 4073000   0.60648965   -6.8766156    1017.7984  0.020824094  0.019765324          346 
 4074000    0.6054478   -6.8794702    1019.7782   0.02085948  0.019758915          189 
 4075000   0.60263011   -6.8710049    1018.9208  0.020836827  0.019752512          159 
 4076000   0.60421762   -6.8979319     1018.896  0.020831206  0.019746099          234 
 4077000   0.60392661   -6.8615636    1020.5437  0.020859776   0.01973969          187 
 4078000   0.59484204   -6.9016108    1018.9267  0.020821619   0.01973328          382 
 4079000   0.59756064   -6.8782427     1018.511   0.02080802  0.019726873          249 
 4080000   0.59156149   -6.8719722    1017.5635  0.020783567  0.019720481          241 
 4081000   0.58488173   -6.8598827    1017.4847  0.020776866  0.019714087          210 
 4082000   0.58534208   -6.8762722    1017.8815  0.020779877  0.019707686          469 
 4083000   0.59748301   -6.8471749    1019.2323  0.020802358  0.019701298          429 
 4084000   0.59950138    -6.886267    1017.6413  0.020764799  0.019694913          479 
 4085000   0.60179607   -6.8897051    1019.1351  0.020790189  0.019688518          451 
 4086000   0.59741578    -6.870315    1020.1218  0.020805225  0.019682141          422 
 4087000    0.6016793   -6.8596689    1017.9343  0.020755532  0.019675762          254 
 4088000   0.59516323   -6.8608395    1017.2708  0.020736929  0.019669382          293 
 4089000    0.5966333   -6.8584148    1018.4971   0.02075685  0.019663004          502 
 4090000   0.61223702   -6.8755954     1016.633  0.020713795  0.019656618          524 
 4091000   0.60495908    -6.866247    1017.4379  0.020725127  0.019650228          384 
 4092000   0.59140642   -6.8781153    1017.2338  0.020715906  0.019643848          477 
 4093000   0.58211241   -6.8747157    1018.7083  0.020740865  0.019637469          411 
 4094000   0.59847757   -6.8607035    1017.6345  0.020713942  0.019631093          449 
 4095000   0.59146402   -6.8755421    1017.4309   0.02070474  0.019624719          164 
 4096000   0.59281092   -6.8858042     1017.071  0.020692363  0.019618339          488 
 4097000   0.59018911   -6.8859889     1016.736  0.020680498  0.019611965          422 
 4098000   0.57332252   -6.8668072     1015.975  0.020659975   0.01960559          551 
 4099000   0.60212539   -6.8783633    1015.5531  0.020646358  0.019599211          325 
 4100000    0.6031085   -6.8830645    1015.9454  0.020649297  0.019592828          390 
 4101000   0.57763318   -6.8799144    1017.7263  0.020680449  0.019586449          368 
 4102000   0.59062082   -6.8815315    1018.3285  0.020687642   0.01958008          276 
 4103000   0.58929906   -6.8967506    1019.0085  0.020696412  0.019573696          252 
 4104000   0.59926296   -6.8991553     1019.036  0.020691927  0.019567319          302 
 4105000   0.58972002    -6.884551    1018.0997  0.020667878  0.019560945          469 
 4106000   0.59269921   -6.8859873    1016.8527  0.020637537  0.019554566          545 
 4107000   0.60114459   -6.8834813    1019.0787  0.020677679  0.019548202          443 
 4108000    0.5848619   -6.8936697    1019.3884  0.020678927  0.019541836          527 
 4109000   0.58529794   -6.9026089    1016.4067  0.020613423   0.01953546          492 
 4110000   0.59888529     -6.90009    1018.6578  0.020654051  0.019529091          436 
 4111000   0.59879308   -6.8929411    1015.9865  0.020594878  0.019522723          373 
 4112000   0.59415461   -6.8971566    1017.0537  0.020611498   0.01951637          404 
 4113000   0.60266598   -6.8837884    1016.1694  0.020588568  0.019510017          356 
 4114000   0.59393646   -6.8966515    1018.2085  0.020624869  0.019503662          397 
 4115000   0.59996788   -6.9137394     1017.095  0.020597306  0.019497302          437 
 4116000   0.59378552   -6.8995632    1015.7478  0.020565028  0.019490943          466 
 4117000   0.59463583   -6.8821212    1018.0023  0.020605666  0.019484585          238 
 4118000   0.59514914   -6.9192967     1017.654  0.020593614  0.019478244          444 
 4119000   0.59523342   -6.8842251    1018.1865  0.020599387  0.019471901          362 
 4120000    0.5966242   -6.9030137    1018.8347  0.020607499  0.019465566          413 
 4121000   0.57993876   -6.9047925    1016.6511  0.020558341   0.01945924          178 
 4122000   0.57831844   -6.8968382    1015.8471    0.0205371  0.019452916          165 
 4123000    0.5838157   -6.8833442    1018.7828  0.020591454  0.019446604          457 
 4124000   0.60030535   -6.9097215    1019.7815  0.020606641    0.0194403          404 
 4125000   0.59988618   -6.8912402    1016.0755  0.020526778  0.019433987          357 
 4126000   0.59726329   -6.8975029    1016.2738  0.020525808  0.019427671          160 
 4127000   0.58431489   -6.9064213    1017.8855  0.020553379  0.019421356          234 
 4128000   0.59974942   -6.9031448    1016.5837   0.02052212   0.01941503          225 
 4129000   0.59364526   -6.8951204    1015.7287  0.020499893  0.019408706          598 
 4130000   0.59500858   -6.9011915    1017.7667  0.020536052  0.019402373          609 
 4131000   0.58676533   -6.9069666    1017.5574  0.020526857  0.019396046          628 
 4132000     0.608523   -6.8986222    1018.9807  0.020550596  0.019389729          581 
 4133000   0.58751117   -6.9362864    1016.2174  0.020489907  0.019383409          403 
 4134000   0.60020932   -6.8912237    1018.2501  0.020525926  0.019377089          378 
 4135000   0.58686929   -6.9148342    1015.8992  0.020473582  0.019370774          624 
 4136000    0.5974794   -6.9078494    1018.2814   0.02051663  0.019364469          561 
 4137000   0.58246377   -6.9085699    1017.5563  0.020497066  0.019358185          587 
 4138000   0.58539212   -6.9426339    1017.3354  0.020487664  0.019351894          662 
 4139000   0.58367902   -6.8830772    1018.4325  0.020504802  0.019345597          538 
 4140000   0.58819973   -6.8998435    1016.2967  0.020456859  0.019339308          536 
 4141000   0.58429885   -6.9037599    1016.6327   0.02045868  0.019333021          525 
 4142000   0.59232687   -6.9192368    1014.4581  0.020409988  0.019326724          330 
 4143000    0.5861066   -6.9019962    1014.8509  0.020412964  0.019320442          548 
 4144000   0.59315297   -6.9253369    1014.5963  0.020402918  0.019314159          324 
 4145000    0.5976096   -6.9140491    1017.1547  0.020449432  0.019307874          639 
 4146000   0.59185433   -6.9121364    1017.4313  0.020450059  0.019301603          620 
 4147000   0.59206062   -6.9156834    1015.9665  0.020415692   0.01929532          606 
 4148000   0.58117253   -6.9264423     1017.044  0.020432416  0.019289034          633 
 4149000   0.58443175   -6.9136235    1018.2298   0.02045131  0.019282756          703 
 4150000   0.58116471   -6.8878192    1018.9475  0.020460794  0.019276489          604 
 4151000   0.59510255   -6.9264972    1014.2967  0.020362497  0.019270216          724 
 4152000   0.58268589   -6.9084058    1016.2214  0.020396222  0.019263933          738 
 4153000   0.58253147   -6.9097935    1017.2971  0.020412896  0.019257655          693 
 4154000   0.59673251   -6.9112775    1017.3072  0.020408185  0.019251372          733 
 4155000   0.59200836   -6.9183885    1015.6061  0.020369156  0.019245076          756 
 4156000   0.57908016   -6.9181458    1017.1296  0.020394803  0.019238794          689 
 4157000   0.57198441   -6.9261194    1018.6505  0.020420384  0.019232516          582 
 4158000   0.59481365    -6.933973    1017.8829  0.020400091  0.019226229          593 
 4159000   0.57957902   -6.9396771    1016.6112  0.020369705  0.019219953          690 
 4160000   0.57950111    -6.908123    1016.0226  0.020353017  0.019213667          768 
 4161000   0.58097489   -6.9247726    1016.2746  0.020353172    0.0192074          687 
 4162000   0.58761855   -6.9026106    1017.2572  0.020367955  0.019201133          759 
 4163000   0.57688049    -6.924566    1015.6393  0.020330676  0.019194867          739 
 4164000   0.56504391   -6.9186738    1015.5858  0.020324724  0.019188609          664 
 4165000   0.57670027   -6.9532875    1016.9719  0.020347578  0.019182342          652 
 4166000   0.56960527   -6.9180611    1018.6414  0.020376088  0.019176077          727 
 4167000   0.57975873   -6.9292481    1015.3358  0.020305091  0.019169828          687 
 4168000   0.56834651   -6.9457417    1015.9139  0.020311777  0.019163573          754 
 4169000   0.59021091   -6.9189259    1017.5128  0.020338865  0.019157308          729 
 4170000   0.58829152   -6.9561797    1016.1867  0.020307487  0.019151043          699 
 4171000   0.59369391   -6.9630372     1016.208  0.020303044  0.019144788          719 
 4172000   0.59714749   -6.9378149    1012.8562  0.020231228  0.019138512          773 
 4173000   0.56529181    -6.922283    1016.8798  0.020306731  0.019132249          735 
 4174000   0.58449305   -6.9498665    1014.7638  0.020259619  0.019125985          798 
 4175000    0.5867536   -6.9416512     1016.221  0.020283852  0.019119716          715 
 4176000    0.5932286   -6.9552546    1016.9592  0.020293725  0.019113461          683 
 4177000   0.59268706   -6.9395281    1014.6588  0.020242974  0.019107198          790 
 4178000   0.57907633    -6.944326    1015.8467  0.020261823  0.019100943          797 
 4179000   0.58654116   -6.9610472    1015.3892   0.02024785  0.019094672          772 
 4180000   0.58825169   -6.9564623    1015.1492  0.020238221  0.019088416          761 
 4181000   0.58715197   -6.9304747    1015.4908   0.02024019  0.019082162          800 
 4182000   0.57840051   -6.9475611    1013.0593  0.020186899   0.01907591          812 
 4183000   0.57217448   -6.9502313    1014.6398  0.020213559  0.019069652          827 
 4184000   0.58818737   -6.9552511    1014.0514  0.020197008  0.019063396          829 
 4185000   0.57154741   -6.9550196    1015.0641  0.020212348  0.019057152          764 
 4186000   0.57122349   -6.9510558    1015.4781  0.020215762  0.019050911          877 
 4187000   0.58915316   -6.9575347    1014.1461  0.020184423  0.019044661          848 
 4188000   0.58554678   -6.9577288    1015.2334  0.020201238  0.019038422          810 
 4189000   0.58351871   -6.9644383    1014.7843  0.020187481  0.019032177          837 
 4190000   0.57890453   -6.9554014     1013.427  0.020155668  0.019025942          757 
 4191000   0.58544973   -6.9237437    1015.8988  0.020200008  0.019019718          729 
 4192000   0.58796037   -6.9436427    1011.9556  0.020116802  0.019013487          830 
 4193000   0.57853636   -6.9316088     1013.814  0.020148939  0.019007259          733 
 4194000   0.57372192   -6.9531003    1014.5728  0.020159211   0.01900103          815 
 4195000   0.58239853   -6.9498898    1013.8523  0.020140093  0.018994808          775 
 4196000   0.58299651   -6.9476232    1015.1284  0.020160636   0.01898858          839 
 4197000   0.57531876   -6.9544224    1014.1968  0.020137335  0.018982359          761 
 4198000   0.57830676   -6.9613121    1014.5198  0.020138952  0.018976135          836 
 4199000   0.59084564   -6.9459926    1014.7174  0.020138076  0.018969922          452 
 4200000   0.56849706   -6.9389859    1014.6936   0.02013281  0.018963736          842 
 4201000   0.59298013   -6.9456831    1015.1921  0.020137906  0.018957541          885 
 4202000   0.59091372   -6.9352556    1012.7611  0.020084903  0.018951327          838 
 4203000   0.57477549   -6.9396659     1017.091  0.020165973  0.018945126          875 
 4204000   0.57480038   -6.9306055    1014.4636  0.020109094  0.018938926          869 
 4205000   0.57979951   -6.9384482    1012.4668   0.02006474   0.01893272          810 
 4206000   0.57477026   -6.9549394    1014.5058  0.020100369  0.018926538          793 
 4207000   0.57186874   -6.9437766    1014.4557  0.020094598  0.018920356          764 
 4208000   0.59306463   -6.9328783    1014.8148  0.020096935  0.018914177          779 
 4209000   0.58232123   -6.9569645    1015.7608  0.020110889  0.018908005          820 
 4210000   0.57941638   -6.9513437    1015.0668  0.020092375  0.018901826          785 
 4211000   0.56879814   -6.9397462    1014.3484  0.020073386  0.018895644          900 
 4212000   0.58445942    -6.949065    1015.2658  0.020086771  0.018889461          846 
 4213000   0.57310674   -6.9570733     1014.452  0.020065907  0.018883278          815 
 4214000   0.57894851   -6.9469533    1014.0572  0.020053338   0.01887709          714 
 4215000   0.57023839   -6.9462552    1014.5191  0.020057712  0.018870907          914 
 4216000   0.57135196   -6.9543657    1014.0308  0.020043303  0.018864729          687 
 4217000   0.58407727    -6.938102     1015.478  0.020067148  0.018858552          796 
 4218000   0.58431763   -6.9431987    1013.2923  0.020019209  0.018852385          753 
 4219000   0.58346815   -6.9601458    1014.0756  0.020029937  0.018846211          715 
 4220000   0.57170816   -6.9733118    1013.5734  0.020015273  0.018840017          826 
 4221000   0.58154121   -6.9765375     1015.147  0.020041598  0.018833823          811 
 4222000   0.56597835   -6.9559723     1014.729  0.020028599  0.018827641          770 
 4223000    0.5817084   -6.9841839    1011.0244  0.019950753  0.018821449          771 
 4224000   0.57687943   -6.9856787     1013.442  0.019993726  0.018815246          914 
 4225000   0.58302786   -6.9492712    1013.1175  0.019982594  0.018809059          910 
 4226000    0.5769872   -6.9843456    1012.6289   0.01996823  0.018802867          818 
 4227000   0.56768219   -6.9804191     1013.767  0.019985944  0.018796689          803 
 4228000   0.57409905   -6.9883876    1011.0721  0.019928101  0.018790496          936 
 4229000   0.58624977   -6.9908319    1013.4265  0.019969782  0.018784298          948 
 4230000    0.5645859   -6.9660353    1011.9913  0.019936786  0.018778104          879 
 4231000   0.58325178   -6.9784122     1012.981  0.019951567  0.018771915         1063 
 4232000   0.57973145   -6.9923096    1013.4741  0.019956564  0.018765718         1010 
 4233000   0.55453097   -6.9736762    1013.9023  0.019960277   0.01875952          923 
 4234000   0.57122787   -6.9648595    1014.5715  0.019968735   0.01875333          974 
 4235000   0.57019698   -6.9993501     1013.408  0.019941125  0.018747138          987 
 4236000   0.57211092   -6.9889288    1012.6383  0.019921276  0.018740952         1015 
 4237000    0.5716487   -6.9812059    1013.9147  0.019941678  0.018734783         1042 
 4238000   0.56560403    -6.986309    1012.9521  0.019918044  0.018728618         1057 
 4239000   0.56981705   -6.9817261    1011.3827  0.019882494  0.018722445          994 
 4240000   0.57231386   -6.9993394    1012.5551  0.019900847  0.018716278         1031 
 4241000    0.5747124   -6.9723359    1014.6448  0.019937217  0.018710103          915 
 4242000   0.58001461   -7.0069573    1011.3905  0.019868585   0.01870393         1081 
 4243000   0.56264209   -6.9811608    1012.8432  0.019892435  0.018697761         1076 
 4244000   0.59183356   -6.9630226    1009.4702  0.019821516  0.018691596         1022 
 4245000   0.56925117   -6.9956447     1011.353  0.019853809  0.018685435         1043 
 4246000   0.56801591   -6.9669304    1012.9607  0.019880685  0.018679265         1091 
 4247000   0.57083048    -7.001504    1012.2713  0.019862477  0.018673098         1202 
 4248000   0.57938732   -6.9821894    1011.8694  0.019849918   0.01866693         1149 
 4249000     0.559264   -7.0102108    1012.3369  0.019854416  0.018660762         1108 
 4250000   0.56664726   -6.9815289    1012.6683  0.019856241  0.018654598         1094 
 4251000   0.56712188   -6.9878197    1012.3939  0.019846191  0.018648443         1138 
 4252000   0.56344509   -6.9720416     1014.304  0.019878958  0.018642296         1186 
 4253000   0.56927249   -6.9901992    1010.9956  0.019809459   0.01863616         1218 
 4254000   0.56638502   -6.9949903    1011.6109  0.019816856  0.018630007         1103 
 4255000   0.56747224   -6.9878216    1012.1763  0.019823272  0.018623862         1117 
 4256000   0.56646455   -7.0142136    1011.2093  0.019799681  0.018617703         1138 
 4257000   0.57082707   -6.9991822    1012.9852  0.019829795  0.018611556         1136 
 4258000   0.55958188   -6.9967017    1011.2758  0.019791682  0.018605403         1126 
 4259000   0.58266246   -6.9973888      1012.45   0.01981001  0.018599257         1168 
 4260000   0.58573253   -7.0002295    1011.5948  0.019788631  0.018593108         1145 
 4261000   0.57948755   -7.0068879    1008.9701  0.019732655   0.01858696         1109 
 4262000   0.57772354   -7.0194345    1010.6453   0.01976078  0.018580813         1088 
 4263000    0.5755533   -6.9988126    1011.7518  0.019777774  0.018574682         1133 
 4264000   0.56939728    -6.997275    1013.0295  0.019798107  0.018568548         1106 
 4265000    0.5684083   -7.0115388    1011.1701  0.019757134  0.018562409         1161 
 4266000    0.5708911   -6.9941818    1011.9384  0.019767511  0.018556267         1194 
 4267000   0.57361248   -6.9904114    1011.1576  0.019747628  0.018550127         1133 
 4268000   0.57196874   -6.9960996    1014.7054  0.019812273  0.018544017         1075 
 4269000    0.5733645   -6.9834409    1012.3952  0.019762537  0.018537903         1038 
 4270000   0.56835323   -6.9835972      1011.68  0.019743949  0.018531778         1125 
 4271000   0.57638904   -7.0015876    1010.4796  0.019715906  0.018525665         1078 
 4272000   0.55890762   -6.9938125    1012.6941  0.019754488  0.018519556         1081 
 4273000   0.55866552   -6.9984933    1011.5699   0.01972794  0.018513443         1180 
 4274000   0.57188598   -6.9942934    1010.9013  0.019710289  0.018507329         1169 
 4275000   0.56514383   -6.9934633    1011.6007  0.019719311   0.01850121         1120 
 4276000   0.56927365   -7.0058266    1011.4485  0.019711734  0.018495106         1137 
 4277000   0.56989909   -6.9950863    1013.7855   0.01975266  0.018488998         1028 
 4278000   0.58475446    -7.003721    1010.3509  0.019681138  0.018482896         1015 
 4279000   0.56689351   -7.0002963    1012.4198   0.01971683  0.018476798         1084 
 4280000   0.57306201   -6.9945569    1012.2137  0.019708211  0.018470695         1098 
 4281000   0.56293078   -6.9930887    1014.6739  0.019751496  0.018464592         1072 
 4282000    0.5638885   -7.0086904    1011.4462   0.01968407  0.018458502         1080 
 4283000   0.56986847    -7.009679    1013.0316  0.019710321  0.018452421         1025 
 4284000     0.563786   -7.0085084    1011.4005  0.019673991  0.018446329         1020 
 4285000    0.5763519   -7.0111219    1012.3408  0.019687686  0.018440248          986 
 4286000   0.56541755   -7.0163616    1013.9445  0.019714273  0.018434164         1052 
 4287000   0.56835938   -7.0097254    1011.5913  0.019663932  0.018428079         1068 
 4288000   0.56171138   -6.9992096    1011.9747  0.019666797  0.018421998          991 
 4289000   0.55861354    -7.011836    1010.3412  0.019630474  0.018415917         1083 
 4290000   0.55649972   -7.0046849    1012.9114  0.019675824  0.018409831         1070 
 4291000   0.55263942   -7.0135973    1010.9007   0.01963219  0.018403752         1182 
 4292000   0.56849346   -7.0170338    1013.5396  0.019678852  0.018397682         1035 
 4293000   0.57052152   -7.0018593    1011.2894  0.019630589  0.018391608         1115 
 4294000    0.5545817   -7.0129242    1011.3742  0.019627663  0.018385539         1145 
 4295000   0.57638936   -6.9989234    1012.3106  0.019641261  0.018379472         1168 
 4296000    0.5706743   -7.0142112    1011.7996  0.019626777   0.01837341         1046 
 4297000    0.5591885   -6.9981712    1011.4798  0.019616007  0.018367356         1002 
 4298000   0.56306858   -7.0103715     1013.602  0.019652591  0.018361305         1017 
 4299000   0.55714955   -7.0093092    1011.7942  0.019612976  0.018355248         1146 
 4300000   0.56146861   -7.0144126    1012.1143  0.019614618  0.018349188         1195 
 4301000   0.56446851   -7.0289556    1009.9258  0.019567654  0.018343131         1009 
 4302000   0.56412118   -7.0001398    1012.0512  0.019604278  0.018337069         1154 
 4303000   0.56398338    -7.003459    1011.0795  0.019580903  0.018331004         1071 
 4304000    0.5483192   -7.0034604    1012.0861  0.019595843  0.018324946         1078 
 4305000   0.55449739   -7.0173983    1011.9923  0.019589475  0.018318904         1162 
 4306000   0.55769628   -7.0136733    1011.3484  0.019572464  0.018312851         1098 
 4307000   0.57234742   -7.0273047    1010.8693  0.019558651  0.018306806         1192 
 4308000   0.55158857   -7.0118784      1011.71  0.019570373  0.018300764         1151 
 4309000    0.5538669    -7.015226    1011.9314  0.019570113  0.018294731         1158 
 4310000   0.56677076   -7.0004592    1011.4961  0.019557155  0.018288689         1220 
 4311000   0.55498774   -7.0206414    1010.2836  0.019529182  0.018282653         1193 
 4312000   0.54482657   -7.0228436    1011.4511  0.019547216  0.018276617         1269 
 4313000   0.56888917   -7.0109839    1011.0884  0.019535675  0.018270579         1192 
 4314000   0.56731378   -7.0167065    1011.7675  0.019544265  0.018264548         1210 
 4315000   0.56034959   -7.0268378    1009.2567  0.019491245  0.018258516         1227 
 4316000   0.56649062   -7.0039063    1010.2421  0.019505755  0.018252478         1161 
 4317000   0.56223583   -6.9978473    1010.6008  0.019508161  0.018246442         1147 
 4318000   0.54939719    -7.005411    1011.4979  0.019520956  0.018240413         1237 
 4319000    0.5694125   -7.0194307     1012.504  0.019535849  0.018234387         1210 
 4320000   0.56361269   -7.0136118    1011.5082  0.019512117  0.018228367         1306 
 4321000   0.54852408   -7.0126026    1011.0018  0.019497835  0.018222341         1195 
 4322000   0.55540138   -7.0147449    1013.7625  0.019546554  0.018216332         1169 
 4323000   0.56450803   -7.0025469    1012.8171  0.019523809   0.01821033         1124 
 4324000   0.55049674   -6.9975557    1011.5355  0.019494594  0.018204328         1161 
 4325000   0.55768747    -7.014767    1011.3758  0.019487009  0.018198327         1173 
 4326000   0.56397712   -7.0098551    1011.7976  0.019490631  0.018192331         1207 
 4327000   0.55462134   -7.0127016    1011.4321  0.019479087  0.018186343         1294 
 4328000   0.55815683   -7.0131128    1011.7308  0.019480338   0.01818035         1224 
 4329000   0.56056241   -6.9934042    1011.7702  0.019476597   0.01817437         1232 
 4330000   0.56981075   -7.0080209    1012.2586  0.019481498  0.018168382         1260 
 4331000   0.55843696   -7.0215227    1010.6054   0.01944519   0.01816239         1186 
 4332000   0.56375545   -7.0163771    1008.8756  0.019407425  0.018156405         1290 
 4333000   0.54607148   -7.0129466    1008.9574  0.019404519  0.018150421         1388 
 4334000   0.56280253   -7.0210646    1011.1862  0.019442898  0.018144437         1461 
 4335000   0.56359939   -7.0175435    1013.3423   0.01947986  0.018138446         1371 
 4336000   0.56731235    -7.016546    1007.9687  0.019372093  0.018132451         1436 
 4337000   0.55660982    -7.026599    1010.9493  0.019424897  0.018126466         1369 
 4338000    0.5553059   -7.0218541    1010.4482  0.019410793  0.018120487         1496 
 4339000   0.55681151   -7.0275825    1009.7938  0.019393751   0.01811452         1280 
 4340000   0.56393095   -7.0165491    1011.6094  0.019424143  0.018108549         1392 
 4341000   0.56586139    -7.006346    1011.6939  0.019421291  0.018102586         1307 
 4342000   0.55791502   -7.0203738    1010.6862  0.019397477  0.018096616         1382 
 4343000   0.55243766   -7.0289396    1011.1875  0.019402632   0.01809064         1362 
 4344000   0.55766811   -7.0263944    1008.6422  0.019349337  0.018084664         1409 
 4345000    0.5481929   -7.0265365     1010.279  0.019376275   0.01807869         1411 
 4346000   0.56250068   -7.0340409    1011.1932  0.019389346  0.018072723         1516 
 4347000   0.55492706    -7.020985     1009.842  0.019358984   0.01806675         1412 
 4348000   0.55343826    -7.037658    1010.3807  0.019364856  0.018060801         1487 
 4349000   0.55423354   -7.0145872     1013.315  0.019416627  0.018054848         1310 
 4350000   0.55741373   -7.0217816     1011.231  0.019372242  0.018048894         1446 
 4351000   0.55970625   -7.0269229    1009.5004  0.019334644  0.018042925         1474 
 4352000    0.5603638   -7.0304714    1011.1005   0.01936084  0.018036971         1436 
 4353000   0.55454241   -7.0345594    1008.9742  0.019315687  0.018031022         1479 
 4354000   0.55457963    -7.043306    1010.2252  0.019335194  0.018025076         1511 
 4355000   0.56620684   -7.0317303    1011.6744  0.019358485  0.018019125         1279 
 4356000    0.5523862   -7.0314932    1009.3586  0.019309738  0.018013182         1377 
 4357000   0.56701359   -7.0282596    1010.8765  0.019334337   0.01800723         1400 
 4358000   0.55323945   -7.0175025    1009.6914  0.019307241  0.018001286         1376 
 4359000   0.55501685   -7.0132261    1011.2578  0.019332756  0.017995355         1378 
 4360000   0.55758698   -7.0253727    1009.6218  0.019297052  0.017989415         1357 
 4361000   0.54599056   -7.0441004     1010.164  0.019302988  0.017983482         1465 
 4362000   0.53833955   -7.0294506    1011.8888  0.019331514  0.017977551         1438 
 4363000   0.54609984    -7.040712    1010.4465  0.019299535  0.017971627         1368 
 4364000   0.54229655   -7.0398338    1010.2008  0.019290421  0.017965697         1399 
 4365000   0.54958914   -7.0507723     1010.392  0.019289652   0.01795977         1384 
 4366000   0.55784715   -7.0505339    1009.2259  0.019262977  0.017953849         1340 
 4367000   0.55334055   -7.0280047    1011.2752  0.019297672  0.017947921         1346 
 4368000   0.55099579   -7.0247695    1012.7627  0.019321634  0.017941996         1317 
 4369000   0.56245243   -7.0528524    1010.1655  0.019267671  0.017936068         1426 
 4370000   0.55656285   -7.0245889     1010.165  0.019263252  0.017930143         1485 
 4371000   0.55118601   -7.0318019    1009.6195  0.019248446  0.017924219         1432 
 4372000   0.55809764   -7.0457258    1010.6417  0.019263528  0.017918298         1400 
 4373000   0.54145481    -7.038897    1009.6205  0.019239662  0.017912383         1342 
 4374000   0.56470428   -7.0262313    1010.9084  0.019259801  0.017906474         1396 
 4375000    0.5519985   -7.0288473    1011.4048  0.019264854  0.017900569         1393 
 4376000   0.55283022   -7.0427788    1008.4327  0.019203852  0.017894661         1388 
 4377000   0.55032474   -7.0472101    1010.3343  0.019235669  0.017888756         1503 
 4378000   0.54837786   -7.0337664    1010.0161   0.01922522  0.017882842         1448 
 4379000   0.54452218   -7.0391098    1010.1741  0.019223836  0.017876932         1435 
 4380000   0.55381332   -7.0190109    1011.9254  0.019252766  0.017871037         1350 
 4381000   0.55490485   -7.0257454    1010.2413  0.019216337  0.017865145         1349 
 4382000   0.54619208   -7.0349117    1011.4087  0.019234152   0.01785925         1439 
 4383000   0.54937203    -7.038446    1010.0789  0.019204482  0.017853361         1431 
 4384000   0.54122616   -7.0246181    1011.3198  0.019223689  0.017847477         1351 
 4385000   0.56724674   -7.0456286    1010.4896  0.019203527  0.017841597         1435 
 4386000   0.54462056   -7.0396102    1009.1103  0.019172942  0.017835717         1447 
 4387000   0.55718294   -7.0470214     1010.903  0.019202626  0.017829834         1414 
 4388000   0.55319655    -7.023133    1010.9315   0.01919879  0.017823954         1482 
 4389000   0.55617045   -7.0291108    1009.6867  0.019170781  0.017818086         1469 
 4390000   0.55666684   -7.0305542    1009.0273  0.019153898  0.017812213         1413 
 4391000    0.5539596   -7.0431342    1010.5241  0.019177942   0.01780634         1419 
 4392000   0.56183867    -7.038615    1009.4152  0.019152535   0.01780048         1486 
 4393000   0.55193715   -7.0389529     1009.645  0.019152535  0.017794608         1469 
 4394000   0.54233397   -7.0387764    1009.5159  0.019145727  0.017788741         1433 
 4395000   0.55802738   -7.0406465    1009.8973  0.019148602  0.017782868         1503 
 4396000   0.55533139   -7.0217846    1009.8227  0.019142832  0.017776994         1462 
 4397000   0.54094229   -7.0448006     1009.981  0.019141479  0.017771125         1400 
 4398000   0.54106333   -7.0389815    1009.0329  0.019119162  0.017765264         1465 
 4399000    0.5454379   -7.0326479    1012.2058  0.019174923  0.017759407         1500 
 4400000   0.53456878   -7.0382173    1010.3501  0.019135419  0.017753541         1527 
 4401000   0.55033576   -7.0343287    1011.6491  0.019155668  0.017747683         1458 
 4402000    0.5516209   -7.0574994    1009.8004  0.019116319  0.017741835         1479 
 4403000   0.54257631   -7.0623648    1008.6559  0.019090315  0.017735982         1529 
 4404000   0.54703368   -7.0524672     1009.884   0.01910922  0.017730127         1423 
 4405000   0.53770472   -7.0479693     1010.243  0.019111672  0.017724285         1423 
 4406000   0.55332664   -7.0269715    1011.3685  0.019128622  0.017718441         1445 
 4407000   0.55395984   -7.0484171    1009.6356  0.019091513  0.017712589         1429 
 4408000   0.54477827   -7.0581895    1009.2092  0.019079122  0.017706745         1477 
 4409000   0.54319362   -7.0536658     1009.684  0.019083768  0.017700901         1451 
 4410000   0.55676008   -7.0437704    1011.0651  0.019105539  0.017695058         1473 
 4411000   0.54854232   -7.0439404    1007.7428  0.019038441  0.017689217         1419 
 4412000   0.55398015   -7.0503516    1008.6808  0.019051843  0.017683372         1327 
 4413000   0.55993536   -7.0502372    1009.4862  0.019062735  0.017677533         1413 
 4414000   0.54763219    -7.059434    1007.6114  0.019023021  0.017671691         1514 
 4415000   0.54709547   -7.0603531    1010.5917  0.019074966  0.017665861         1505 
 4416000   0.53167119   -7.0587819    1009.8802  0.019057219  0.017660024         1469 
 4417000    0.5620021   -7.0535612    1011.3589  0.019080803   0.01765419         1379 
 4418000   0.54129878   -7.0627219    1009.2959  0.019037572  0.017648366         1450 
 4419000   0.55299766   -7.0496356     1008.451  0.019017331  0.017642539         1472 
 4420000   0.54642982   -7.0416964    1009.2705  0.019028479  0.017636723         1509 
 4421000   0.53128438   -7.0604861    1009.0463  0.019019949  0.017630906         1488 
 4422000   0.52670647   -7.0618103    1008.8194  0.019011371  0.017625088         1485 
 4423000   0.54682927   -7.0255567    1010.2399  0.019033837  0.017619273         1450 
 4424000   0.55079703    -7.049836    1008.2175  0.018991439  0.017613463         1477 
 4425000   0.54230159   -7.0491713    1009.4374  0.019010121  0.017607649         1549 
 4426000   0.54478007   -7.0367428    1010.2782  0.019021656  0.017601825         1407 
 4427000   0.53647248   -7.0529604    1009.7137  0.019006734  0.017596023         1497 
 4428000   0.54473055   -7.0719149    1006.8106  0.018947806  0.017590214         1584 
 4429000   0.54829279   -7.0577336    1007.4812  0.018956144    0.0175844         1479 
 4430000   0.53802755   -7.0731861    1009.4052  0.018988059  0.017578597         1637 
 4431000   0.54814723   -7.0422059    1009.1229  0.018978464   0.01757279         1604 
 4432000   0.55098855   -7.0625071    1008.3812  0.018960236  0.017566988         1548 
 4433000   0.54650745   -7.0471802    1007.9807   0.01894843  0.017561193         1560 
 4434000    0.5484135   -7.0545025     1009.562  0.018973875  0.017555394         1577 
 4435000    0.5461889   -7.0553949    1009.6921  0.018972043  0.017549602         1543 
 4436000   0.55324347   -7.0523213    1009.6221  0.018966451  0.017543812         1667 
 4437000   0.54146913   -7.0695192    1010.2957  0.018974828  0.017538016         1606 
 4438000   0.53947372   -7.0619109    1010.9563  0.018982956   0.01753223         1581 
 4439000   0.53612839   -7.0746754    1008.5646   0.01893378  0.017526449         1718 
 4440000   0.52892202   -7.0600852    1009.2244  0.018941899   0.01752066         1657 
 4441000    0.5422415   -7.0563433    1008.8653  0.018930896  0.017514878         1621 
 4442000   0.54867628   -7.0779041    1009.1096  0.018931217  0.017509095         1700 
 4443000   0.54360416   -7.0626797     1008.689  0.018919068  0.017503315         1693 
 4444000   0.54106691   -7.0553219    1010.1141  0.018941533  0.017497531         1617 
 4445000   0.53534657   -7.0787052    1009.2121  0.018920363  0.017491762         1699 
 4446000   0.53923509   -7.0625305     1011.662  0.018962025  0.017485992         1640 
 4447000   0.54994657   -7.0774325    1006.4839  0.018860729  0.017480218         1719 
 4448000   0.54333134   -7.0723137    1007.4962  0.018875454  0.017474443         1736 
 4449000   0.53415124   -7.0737943    1010.4898  0.018927283  0.017468671         1622 
 4450000   0.53505199   -7.0665504    1009.6111  0.018906575  0.017462903         1543 
 4451000   0.54564191   -7.0584134    1009.0166  0.018891197  0.017457142         1656 
 4452000   0.53784287   -7.0638499    1010.1931  0.018908976  0.017451381         1571 
 4453000   0.53246682   -7.0725344    1007.6099  0.018856387  0.017445621         1579 
 4454000   0.53188653   -7.0798162    1008.1307  0.018861898  0.017439851         1660 
 4455000   0.54035757   -7.0713665    1007.1821  0.018839919  0.017434092         1715 
 4456000   0.52664541   -7.0657998    1007.6576  0.018844584  0.017428337         1625 
 4457000   0.53847372   -7.0664398    1007.6645  0.018840486  0.017422578         1660 
 4458000   0.53920106   -7.0960488    1006.3552  0.018811784  0.017416814         1680 
 4459000   0.54004038   -7.0573193    1009.0898  0.018858672  0.017411055         1690 
 4460000   0.52674238   -7.0844742    1008.5941   0.01884518  0.017405306         1698 
 4461000   0.53219817   -7.0624515    1007.8768  0.018827557  0.017399549         1590 
 4462000   0.54645749   -7.0838304    1006.6658  0.018800721  0.017393806         1679 
 4463000   0.55658774   -7.0643341    1008.5618   0.01883191   0.01738806         1719 
 4464000   0.53895316   -7.0765279    1006.1393  0.018782469  0.017382311         1735 
 4465000   0.55052465   -7.0772889    1007.8154  0.018809545  0.017376563         1712 
 4466000   0.54371821   -7.0580527    1005.0975  0.018754618  0.017370812         1690 
 4467000    0.5303423   -7.0760443    1007.2995  0.018791499  0.017365065         1697 
 4468000    0.5465053   -7.0575833    1007.7641  0.018795959  0.017359332         1693 
 4469000   0.53392006   -7.0788127    1007.7954  0.018792336  0.017353603         1721 
 4470000   0.53736312   -7.0675263    1008.0079  0.018792094  0.017347866         1670 
 4471000   0.53817636   -7.0860731     1009.264  0.018811303  0.017342132         1727 
 4472000   0.53153207   -7.0631135    1008.2907  0.018788959  0.017336393         1818 
 4473000   0.54708857   -7.0721066    1007.7614  0.018774897  0.017330661         1756 
 4474000    0.5387099   -7.0584722    1005.8509  0.018735115  0.017324926         1706 
 4475000   0.53658367    -7.083137    1005.3235  0.018721107  0.017319192         1703 
 4476000   0.52464172   -7.0699468     1007.211  0.018752067  0.017313466         1637 
 4477000   0.54434697   -7.0803079    1007.4537  0.018752396  0.017307743         1740 
 4478000   0.53739332   -7.0573593    1009.0291  0.018777526  0.017302029         1634 
 4479000   0.54736013   -7.0685972    1008.3351  0.018760421  0.017296308         1656 
 4480000   0.53708625   -7.0764514    1007.5932  0.018742433  0.017290592         1693 
 4481000   0.52726433   -7.0668004    1008.7356  0.018759495  0.017284877         1658 
 4482000   0.52547181   -7.0596337    1007.0298  0.018723595  0.017279162         1720 
 4483000   0.52980807    -7.083713    1007.2307  0.018723152  0.017273458         1697 
 4484000   0.53841537   -7.0464368    1009.5927  0.018762874  0.017267746         1682 
 4485000   0.53016785   -7.0850291    1005.1934  0.018676948  0.017262035         1763 
 4486000   0.52654473    -7.070263    1007.4614  0.018714917  0.017256331         1622 
 4487000   0.54455071   -7.0883045    1007.5229  0.018711887   0.01725063         1709 
 4488000   0.53671045   -7.0793879    1008.4282  0.018724528   0.01724493         1746 
 4489000   0.53139985   -7.0860116    1006.5778  0.018686006   0.01723923         1684 
 4490000   0.53056599   -7.0812914    1006.4422  0.018679329  0.017233529         1736 
 4491000   0.52212136   -7.0726193    1007.5468  0.018695665  0.017227827         1735 
 4492000   0.53423372   -7.0754021    1008.1948  0.018703524   0.01722213         1711 
 4493000   0.53556879   -7.0921848    1006.6961  0.018671565  0.017216443         1803 
 4494000   0.52724296     -7.06718    1007.5026  0.018682366   0.01721075         1725 
 4495000   0.51674577    -7.066726    1007.5668  0.018679399  0.017205066         1726 
 4496000   0.53595675   -7.0774841    1008.3039  0.018688907  0.017199377         1704 
 4497000   0.52981156   -7.0837357    1008.9572  0.018696857  0.017193695         1811 
 4498000   0.53557449   -7.0914872    1008.0702  0.018676267  0.017188019         1825 
 4499000   0.53647107   -7.0901842    1005.8397  0.018630802  0.017182338         1847 
 4500000   0.53305572   -7.1016048    1005.5093  0.018620543  0.017176662         1843 
 4501000   0.54111294     -7.08926    1005.6473   0.01861896  0.017170977         1834 
 4502000   0.53195057   -7.0984789    1009.1778  0.018680176    0.0171653         1801 
 4503000   0.52640643    -7.107524    1006.0444   0.01861804   0.01715961         1717 
 4504000   0.52907027   -7.0802173    1006.3461  0.018619489  0.017153927         1821 
 4505000   0.53630953   -7.0889695     1008.213  0.018649889  0.017148253         1838 
 4506000   0.54103454    -7.069629    1007.7956   0.01863803   0.01714259         1759 
 4507000   0.51829789   -7.0858334    1008.2432  0.018642171  0.017136924         1750 
 4508000   0.51650408   -7.0923779    1005.9976  0.018596525  0.017131257         1816 
 4509000   0.53405248   -7.0960678    1007.4227  0.018618738   0.01712559         1835 
 4510000   0.54096727   -7.0944251    1006.1075  0.018590309  0.017119922         1849 
 4511000   0.52482958   -7.0987557    1007.9132  0.018619545   0.01711426         1886 
 4512000   0.52304986   -7.1020705     1007.606  0.018609744  0.017108607         1821 
 4513000   0.51494292   -7.0971697    1005.2005  0.018561203  0.017102951         1878 
 4514000   0.52387066    -7.081181    1007.3529  0.018596827  0.017097294         1743 
 4515000   0.52797237   -7.1019072    1006.5691   0.01857824  0.017091641         1760 
 4516000   0.52122538   -7.0781471    1005.5552  0.018555418  0.017085999         1816 
 4517000   0.53348609    -7.100354    1006.8254  0.018574744  0.017080357         1874 
 4518000   0.53433252   -7.1046886     1006.616  0.018566769  0.017074721         1948 
 4519000   0.53005808   -7.0850022    1006.6696  0.018563649  0.017069074         1847 
 4520000   0.52226047   -7.0883449    1007.1306  0.018568043   0.01706343         1912 
 4521000   0.53390906   -7.1033023      1006.49  0.018552127  0.017057785         1861 
 4522000   0.53563423   -7.0975035    1006.0225   0.01853941  0.017052138         1840 
 4523000    0.5374438   -7.0820683     1005.509   0.01852585  0.017046492         1950 
 4524000   0.52417813   -7.1056175     1005.599  0.018523412  0.017040852         1922 
 4525000   0.54049637   -7.1014237    1005.9813   0.01852636  0.017035222         1934 
 4526000   0.52407639   -7.0919499    1005.8631   0.01852009  0.017029587         1927 
 4527000    0.5183567   -7.0967475    1008.1877  0.018558789  0.017023963         1827 
 4528000   0.52489287   -7.1069073    1005.4893  0.018505029   0.01701834         1969 
 4529000   0.51579854   -7.1042862    1006.8914  0.018526742  0.017012718         1954 
 4530000    0.5025428   -7.0966169    1005.6873  0.018500502  0.017007099         1948 
 4531000   0.51665244   -7.1129009    1006.3909  0.018509359  0.017001483         1968 
 4532000   0.52506683   -7.1002477    1005.6841   0.01849228  0.016995862         1936 
 4533000   0.52691237   -7.1134158    1006.1194  0.018496202  0.016990241         2011 
 4534000   0.52763876   -7.0982096    1005.9993  0.018489914  0.016984622         1980 
 4535000   0.52657359   -7.1130363    1005.1309  0.018469881     0.016979         1923 
 4536000   0.52433685   -7.0921677    1004.6387  0.018456766  0.016973389         1944 
 4537000   0.52263917   -7.1103391    1006.6939  0.018490447  0.016967777         1942 
 4538000   0.52509456   -7.1109254    1006.5953  0.018484561  0.016962157         1905 
 4539000   0.52350075   -7.1090507     1005.086  0.018452779  0.016956548         1910 
 4540000   0.52847685   -7.0950038    1007.6885  0.018496485  0.016950938         1910 
 4541000   0.51586809   -7.1150303    1006.6084  0.018472591  0.016945339         1918 
 4542000   0.52637155   -7.1133605    1006.4831  0.018466225  0.016939739         2002 
 4543000   0.52038843   -7.1004421    1005.8887  0.018451256  0.016934135         1926 
 4544000   0.53200244   -7.1110624    1003.7002   0.01840706  0.016928537         1910 
 4545000   0.53332701   -7.1130334    1004.9699  0.018426291  0.016922934         1885 
 4546000   0.52875037   -7.1054765    1006.7417  0.018454717  0.016917337         1970 
 4547000   0.52825485   -7.1076142    1005.9011  0.018435251   0.01691174         1912 
 4548000   0.52422478    -7.111453    1005.0476   0.01841556  0.016906145         2023 
 4549000   0.52309272   -7.0978086     1007.822  0.018462335  0.016900554         1906 
 4550000    0.5199917   -7.0898254    1004.3008  0.018393788  0.016894962         1931 
 4551000   0.52012694   -7.0968268    1005.4312  0.018410444  0.016889377         1928 
 4552000    0.5159792   -7.1043733    1005.2967  0.018403938    0.0168838         2028 
 4553000    0.5265508   -7.0980513    1006.1907  0.018416259  0.016878219         2005 
 4554000   0.53792691   -7.1013626    1006.8767  0.018424767  0.016872643         1988 
 4555000   0.51781568   -7.1003858    1004.9742  0.018385916  0.016867062         2053 
 4556000   0.52389396   -7.0850915    1007.1027  0.018420813  0.016861487         2069 
 4557000   0.52176085   -7.0930807    1005.7011   0.01839114  0.016855916         2079 
 4558000   0.50949351   -7.1129236    1005.0191  0.018374637  0.016850342         1969 
 4559000   0.52393623   -7.1013935    1004.1397  0.018354531  0.016844764         2064 
 4560000   0.52210685   -7.1244005    1003.4076  0.018337127  0.016839186         2027 
 4561000   0.51836075   -7.1105173    1005.6868   0.01837475  0.016833604         2051 
 4562000   0.51089583   -7.1178565    1006.0057  0.018376546  0.016828033         2180 
 4563000   0.52566063   -7.1122201     1005.987  0.018372178  0.016822464         2046 
 4564000   0.53525172    -7.106138    1004.2914  0.018337194  0.016816892         1994 
 4565000   0.51163052   -7.1061961    1005.7071   0.01835902  0.016811339         2039 
 4566000   0.51688455   -7.1099956    1005.7227  0.018355283  0.016805783         1913 
 4567000   0.51704917   -7.1155755    1004.6349  0.018331416   0.01680023         2075 
 4568000   0.52609338   -7.1236751    1005.4605  0.018342464  0.016794681         1940 
 4569000   0.51731454   -7.1089054    1006.7959  0.018362805   0.01678913         2051 
 4570000   0.51886827   -7.1049885    1004.0874  0.018309399  0.016783583         1971 
 4571000   0.51914236   -7.0962874    1007.0294  0.018359028  0.016778039         1917 
 4572000   0.52554916   -7.1031505    1005.6492  0.018329855  0.016772496         2041 
 4573000   0.52144903   -7.1007147    1004.2202  0.018299807  0.016766948         1935 
 4574000   0.52250279   -7.1124216    1004.7514  0.018305483  0.016761404         1990 
 4575000   0.52801445   -7.1205904    1004.6889  0.018300345  0.016755866         2105 
 4576000   0.52172996   -7.1016503    1005.1443  0.018304638  0.016750327         2057 
 4577000   0.51705528   -7.1209453    1005.6546  0.018309931  0.016744792         1996 
 4578000   0.52098299   -7.0939241     1004.239  0.018280162  0.016739256         1962 
 4579000   0.52103477   -7.1133345    1005.3699  0.018296751  0.016733721         2027 
 4580000   0.51879103   -7.1236975    1005.3788  0.018292918  0.016728182         2132 
 4581000   0.52201433    -7.120144    1005.1576  0.018284902  0.016722655         2129 
 4582000   0.51792263   -7.1094278    1004.9701    0.0182775  0.016717121         2116 
 4583000   0.51594165    -7.109845    1004.7452  0.018269424  0.016711591         1949 
 4584000   0.52576952   -7.1240249    1006.6156   0.01829944  0.016706062         2097 
 4585000    0.5199143   -7.1215364    1004.0198  0.018248269  0.016700541         2086 
 4586000   0.51452625   -7.1118417    1005.4666  0.018270581   0.01669502         2101 
 4587000   0.50548043   -7.1265903    1005.2726  0.018263073  0.016689505         2049 
 4588000   0.51213138   -7.1069059    1006.3952  0.018279482   0.01668399         2073 
 4589000   0.51356723   -7.1010053    1005.0638  0.018251322  0.016678478         2056 
 4590000    0.5198048   -7.1094603    1003.7825  0.018224083  0.016672965         2024 
 4591000   0.50087119   -7.1319626      1003.94  0.018222972  0.016667455         2114 
 4592000   0.51448128   -7.1174245     1004.099  0.018221889  0.016661942         2131 
 4593000   0.51169082   -7.1197506    1004.2933  0.018221448  0.016656429         2184 
 4594000   0.52523381   -7.1179149    1006.0697  0.018249705  0.016650921         2173 
 4595000   0.51732313   -7.1241026    1004.4883  0.018217054  0.016645415         2195 
 4596000   0.51967537   -7.1126583    1002.8515   0.01818341  0.016639904         2148 
 4597000   0.51221234   -7.1342662    1004.0725  0.018201589  0.016634385         2156 
 4598000   0.51427379   -7.1285398    1003.9288  0.018195026  0.016628873         2021 
 4599000   0.51889166   -7.1265668    1002.8562  0.018171636  0.016623372         2162 
 4600000   0.51910332   -7.1217925    1003.5483  0.018180222   0.01661787         2234 
 4601000   0.51923563   -7.1388962    1005.1806  0.018205836  0.016612364         2123 
 4602000   0.51550285   -7.1312448    1003.7273  0.018175563  0.016606856         2185 
 4603000   0.51860721    -7.127021    1004.5288  0.018186125  0.016601357         2219 
 4604000   0.50900259   -7.1356619    1002.1858  0.018139767  0.016595851         2281 
 4605000   0.51509352   -7.1436001    1002.7343  0.018145754  0.016590348         2219 
 4606000    0.5095863   -7.1241985    1004.3155  0.018170421  0.016584853         2270 
 4607000   0.50800665   -7.1412376    1002.9611  0.018141978  0.016579356         2242 
 4608000   0.51746837   -7.1171169    1005.3285  0.018180855  0.016573862         2336 
 4609000   0.51762276   -7.1351157    1003.1003  0.018136623  0.016568376         2269 
 4610000   0.51698786   -7.1425464    1003.7982  0.018145303   0.01656289         2296 
 4611000   0.51731422   -7.1304574    1003.9662  0.018144404  0.016557408         2195 
 4612000   0.50837666   -7.1305785    1005.0306  0.018159703  0.016551924         2130 
 4613000   0.51721084   -7.1280293    1004.4909  0.018146017  0.016546438         2276 
 4614000   0.51315029   -7.1365083    1003.3955  0.018122299   0.01654096         2293 
 4615000   0.51554315   -7.1274888    1002.4533   0.01810136  0.016535483         2227 
 4616000   0.50268192   -7.1455517    1004.4056  0.018132684  0.016530009         2155 
 4617000   0.51105077   -7.1392011    1005.9294   0.01815626  0.016524536         2143 
 4618000    0.5162624   -7.1342284    1003.8085  0.018114056  0.016519067         2148 
 4619000   0.50855166   -7.1459186     1004.655  0.018125406  0.016513594         2222 
 4620000   0.51857201   -7.1251098    1005.0964  0.018129444  0.016508128         2176 
 4621000   0.50793881    -7.144109    1004.4589  0.018114024  0.016502668         2139 
 4622000   0.52034413   -7.1135891       1002.8  0.018080196  0.016497198         2253 
 4623000   0.50945991    -7.116963    1002.1087  0.018063824  0.016491731         2258 
 4624000   0.51145335   -7.1561943    1002.6578  0.018069814  0.016486265         2267 
 4625000   0.49712253    -7.144361    1002.0018  0.018054087  0.016480795         2330 
 4626000   0.51354521    -7.141693    1002.5376  0.018059835  0.016475332         2371 
 4627000   0.50568731   -7.1175813    1001.6272  0.018039536  0.016469877         2325 
 4628000   0.51536297   -7.1324518    1005.3089  0.018101932   0.01646443         2319 
 4629000    0.5206551    -7.116568    1004.1408  0.018076993  0.016458978         2241 
 4630000   0.50706938   -7.1304401    1003.2018  0.018056188  0.016453533         2270 
 4631000   0.51422688   -7.1373865    1003.3268  0.018054539  0.016448087         2301 
 4632000    0.5121219   -7.1396623    1004.4804  0.018071394  0.016442635         2250 
 4633000   0.51303877   -7.1296493    1002.5497  0.018032767  0.016437191         2339 
 4634000   0.52808342   -7.1459647    1002.0855  0.018020527  0.016431743         2299 
 4635000   0.50973178    -7.136265     1002.767  0.018028892  0.016426305         2374 
 4636000    0.5031902   -7.1240791    1003.1339  0.018031599  0.016420874         2249 
 4637000   0.51082401   -7.1463756    1001.9578  0.018006573  0.016415437         2310 
 4638000   0.51137785   -7.1245691    1002.8977   0.01801958  0.016410006         2306 
 4639000   0.49773528   -7.1429301    1003.1647  0.018020491  0.016404573         2290 
 4640000   0.51481193    -7.134113     1003.817  0.018028323  0.016399141         2290 
 4641000   0.50762563   -7.1432598    1002.1634  0.017994746  0.016393717         2359 
 4642000   0.52171058    -7.149273    1003.8857  0.018021789  0.016388295         2336 
 4643000   0.50257446   -7.1327711    1003.3646  0.018008554  0.016382874         2300 
 4644000    0.5022709    -7.119471    1004.4604   0.01802434  0.016377455         2237 
 4645000   0.50191873   -7.1436259    1003.4399  0.018002151  0.016372038         2265 
 4646000       0.5117   -7.1410748    1004.6413  0.018019826  0.016366625         2337 
 4647000   0.51253646   -7.1375031    1003.4588  0.017994742  0.016361211         2286 
 4648000   0.50743987   -7.1428681    1005.1455  0.018021112   0.01635581         2336 
 4649000   0.50555918    -7.131534    1003.2251  0.017982812  0.016350404         2200 
 4650000   0.50274639   -7.1426369    1003.7525  0.017988395  0.016345003         2326 
 4651000   0.51695331   -7.1326427    1002.1097  0.017955094  0.016339603         2318 
 4652000   0.51717877   -7.1498807     1002.978  0.017966789  0.016334199         2319 
 4653000   0.51026535   -7.1548701    1000.5961  0.017920269  0.016328799         2334 
 4654000   0.51109836   -7.1323948    1003.4202  0.017966985  0.016323412         2282 
 4655000   0.51045583   -7.1419131    1003.1868  0.017958947  0.016318019         2294 
 4656000   0.51215257   -7.1348264    1001.3832   0.01792281  0.016312632         2399 
 4657000   0.49601006   -7.1632264    1002.9375  0.017946774  0.016307242         2368 
 4658000   0.50762462   -7.1568507    1004.3856  0.017968827  0.016301853         2293 
 4659000   0.50411068   -7.1384043    1004.3808  0.017964885  0.016296466         2306 
 4660000   0.52060453   -7.1473504     1001.444  0.017908513  0.016291083         2363 
 4661000   0.51097447   -7.1349319    1003.7957  0.017946715  0.016285696         2339 
 4662000    0.5094181   -7.1429688    1003.7596  0.017942221  0.016280313         2354 
 4663000   0.51500128   -7.1464555    1002.6171  0.017917956  0.016274926         2295 
 4664000   0.50861244   -7.1613204    1003.5566    0.0179309  0.016269545         2362 
 4665000   0.50827747   -7.1447574    1001.8862  0.017897217  0.016264178         2333 
 4666000   0.49911374   -7.1404755    1003.8865  0.017929105  0.016258807         2361 
 4667000   0.50464968   -7.1399295    1003.2171  0.017913312  0.016253439         2350 
 4668000   0.51305921   -7.1537115    1001.5792  0.017880233  0.016248071         2287 
 4669000   0.51264463   -7.1580426    1002.0337  0.017884516  0.016242702         2316 
 4670000    0.5091689   -7.1424669    1003.2157   0.01790178  0.016237343         2366 
 4671000   0.50189499   -7.1405137    1003.5445  0.017903813  0.016231987         2376 
 4672000   0.51565466   -7.1708385    1000.9261  0.017853276  0.016226622         2419 
 4673000   0.50664075   -7.1456131    1004.3702  0.017910875  0.016221263         2371 
 4674000   0.50589853   -7.1573724    1001.9751  0.017864339  0.016215903         2420 
 4675000   0.50481242   -7.1508413    1002.9574  0.017878028  0.016210546         2267 
 4676000   0.50230215   -7.1432375    1001.7399  0.017852507  0.016205193         2378 
 4677000   0.51198834    -7.157501    1004.6963  0.017901366  0.016199839         2401 
 4678000    0.4969166   -7.1527559    1001.2693  0.017836491  0.016194488         2270 
 4679000   0.49559406   -7.1495541    1001.8155  0.017842408  0.016189148         2354 
 4680000   0.49892442   -7.1596084    1002.9809  0.017859347  0.016183808         2364 
 4681000   0.50281704   -7.1523869    1004.1242  0.017875885  0.016178468         2334 
 4682000   0.50224214   -7.1495009    1002.7805  0.017848151  0.016173136         2290 
 4683000   0.50688374   -7.1547047    1002.6183  0.017841452  0.016167802         2397 
 4684000   0.50094853   -7.1547658    1001.8687  0.017824309   0.01616246         2356 
 4685000   0.50296866   -7.1664253    1000.9819  0.017804729  0.016157123         2376 
 4686000   0.50194196   -7.1546322    1003.4942  0.017845607   0.01615179         2332 
 4687000   0.50266005   -7.1468721    1003.1646   0.01783594  0.016146462         2354 
 4688000   0.49918599   -7.1517648    1003.7708  0.017842912  0.016141134         2401 
 4689000   0.49778556   -7.1361435    1002.7312   0.01782063  0.016135808         2270 
 4690000   0.50475188   -7.1736752     1004.496  0.017848187  0.016130485         2364 
 4691000   0.49994974   -7.1683486     1002.693  0.017812354  0.016125157         2333 
 4692000   0.49959009   -7.1764636    1002.1568  0.017799033  0.016119835         2311 
 4693000   0.50316039   -7.1411267    1002.1044   0.01779431  0.016114515         2359 
 4694000    0.5031512   -7.1549891    1000.7257  0.017766043  0.016109204         2388 
 4695000   0.50247029   -7.1671693    1003.1164  0.017804694   0.01610388         2417 
 4696000   0.48655806   -7.1545742    999.86002  0.017743115  0.016098564         2433 
 4697000     0.489247   -7.1747125    1002.7167   0.01779002  0.016093248         2458 
 4698000   0.49679348   -7.1558747    1002.0853  0.017775034  0.016087928         2450 
 4699000   0.50112955   -7.1615867    1002.7903  0.017783754  0.016082606         2540 
 4700000   0.50506491   -7.1555035    1000.2795  0.017735452  0.016077294         2421 
 4701000    0.4942741   -7.1395386     1002.118  0.017764271  0.016071988         2427 
 4702000   0.49171522   -7.1429441    1003.9117  0.017792282  0.016066682         2425 
 4703000   0.49611944   -7.1657418    999.81016  0.017715822  0.016061377         2468 
 4704000   0.51397791   -7.1742981     1003.115  0.017770602  0.016056077         2430 
 4705000   0.50426501   -7.1593241    1003.3792  0.017771505  0.016050776         2337 
 4706000   0.49126154   -7.1714586     1003.232  0.017765122  0.016045484         2363 
 4707000   0.50454623    -7.169947    1000.0185  0.017704456  0.016040192         2503 
 4708000   0.49427129   -7.1589175    1002.6445  0.017747177    0.0160349         2463 
 4709000    0.5033305   -7.1584249    1002.0682  0.017733209  0.016029609         2415 
 4710000   0.49725678   -7.1590471     1000.825  0.017707449  0.016024321         2460 
 4711000   0.49777577   -7.1573653    1002.3244  0.017730214  0.016019032         2465 
 4712000   0.49221839   -7.1429455    1002.2689  0.017725468  0.016013742         2472 
 4713000   0.50505434   -7.1801473    998.73372    0.0176592  0.016008454         2535 
 4714000   0.50940213   -7.1628806    1002.8795  0.017728742  0.016003172         2459 
 4715000   0.49219839   -7.1572224    1003.8442  0.017742032  0.015997891         2413 
 4716000   0.49225233   -7.1597477    1003.6451  0.017734752  0.015992615         2458 
 4717000   0.49662054   -7.1571519    1000.5646  0.017676571  0.015987339         2401 
 4718000   0.49276992   -7.1527683    1001.4351    0.0176882  0.015982067         2349 
 4719000   0.50399638   -7.1739827    1002.1267  0.017696665  0.015976794         2319 
 4720000   0.49657938   -7.1624434    1001.7315  0.017685938   0.01597152         2419 
 4721000   0.49123535   -7.1582708    1002.4701  0.017695228  0.015966252         2419 
 4722000   0.48964927   -7.1693665    1002.8435   0.01769807  0.015960989         2469 
 4723000   0.49149851    -7.147307    1000.5691  0.017654194  0.015955724         2386 
 4724000   0.49199007   -7.1531322    1002.6337  0.017686878  0.015950464         2453 
 4725000   0.48950821   -7.1514402    1000.2019  0.017640245    0.0159452         2362 
 4726000    0.4927771   -7.1683924     1000.107   0.01763484  0.015939945         2292 
 4727000   0.49766081    -7.175788    1001.3196  0.017652486  0.015934689         2400 
 4728000   0.48774773   -7.1645257    1002.7336  0.017673675  0.015929436         2485 
 4729000   0.50395072   -7.1677973    1001.2406  0.017643629  0.015924187         2443 
 4730000   0.48625862   -7.1577684    1002.6166   0.01766414  0.015918939         2344 
 4731000   0.48164742   -7.1596566    1001.9526  0.017648711  0.015913693         2451 
 4732000   0.49804348   -7.1676722    1000.2052  0.017614209  0.015908448         2371 
 4733000   0.50004501   -7.1807204    1001.8212   0.01763894  0.015903206         2367 
 4734000   0.48997593   -7.1778509    1000.8837  0.017618711   0.01589796         2422 
 4735000   0.50366757   -7.1607946     1001.053  0.017617969  0.015892719         2386 
 4736000   0.48349571   -7.1756543    1001.9421  0.017629894  0.015887474         2450 
 4737000   0.49067957   -7.1702824    1000.4778  0.017600412  0.015882243         2415 
 4738000   0.50272803   -7.1636958    1002.7236  0.017636198  0.015877005         2397 
 4739000   0.49824972   -7.1590305    1001.7958  0.017616161  0.015871768         2434 
 4740000   0.49325749   -7.1757859    1002.5987  0.017626559  0.015866532         2455 
 4741000   0.49585143   -7.1552188     1000.285  0.017582173  0.015861297         2418 
 4742000   0.49730994   -7.1779613    1000.5455  0.017583043  0.015856066         2457 
 4743000   0.48347705   -7.1701525    1000.5808  0.017579957  0.015850838         2488 
 4744000   0.48865151   -7.1722463    1001.1317  0.017585927  0.015845609         2449 
 4745000   0.49251285   -7.1572124    1002.0645  0.017598604   0.01584038         2398 
 4746000    0.4857917   -7.1823172    1000.3077  0.017564048  0.015835158         2494 
 4747000    0.4997072   -7.1764256    1000.5646  0.017564858  0.015829935         2461 
 4748000   0.49141521   -7.1708743    1002.6288  0.017597388   0.01582471         2525 
 4749000   0.50733672   -7.1788367    1001.0645  0.017566232  0.015819483         2500 
 4750000   0.49572546    -7.183421    1000.6511  0.017555283  0.015814267         2433 
 4751000   0.49829427   -7.1828736     1000.505  0.017549024  0.015809049         2497 
 4752000   0.48919306    -7.178716    1000.1507  0.017539118  0.015803829         2559 
 4753000   0.49496468   -7.1745058    998.35316  0.017503913  0.015798612         2513 
 4754000   0.49110808   -7.1705605    1001.2441  0.017550907  0.015793398         2477 
 4755000   0.50184105   -7.1830494    1000.6112  0.017536123  0.015788185         2480 
 4756000   0.49116537   -7.1823639    1000.1883  0.017525027  0.015782973         2538 
 4757000   0.50243793   -7.1820393    999.23682  0.017504674  0.015777767         2491 
 4758000   0.48161544   -7.1832306    1000.0074  0.017514491  0.015772564         2576 
 4759000   0.48662189   -7.1875561    999.69111  0.017505273   0.01576736         2585 
 4760000   0.49333445   -7.1852821    999.71775  0.017502061  0.015762149         2481 
 4761000   0.48306176   -7.1630238    1000.4483  0.017511173  0.015756944         2626 
 4762000   0.48260028   -7.1811792    999.07149  0.017483401  0.015751744         2631 
 4763000   0.48989746   -7.1897223    1001.8794  0.017528858  0.015746545         2539 
 4764000   0.49898371   -7.1687559    1000.6222  0.017503188  0.015741353         2480 
 4765000   0.49755032   -7.1850897    1001.1136  0.017508108  0.015736156         2501 
 4766000   0.49237218   -7.1763192    999.43048  0.017475005  0.015730967         2598 
 4767000   0.48566715    -7.186458     1001.519  0.017507849  0.015725776         2536 
 4768000   0.48085199   -7.1865339    998.78151  0.017456332   0.01572059         2475 
 4769000   0.48171508   -7.1824616    998.56548  0.017448897  0.015715399         2642 
 4770000   0.49910903   -7.1731252    999.55615  0.017462546  0.015710215         2601 
 4771000   0.48477536   -7.1851095    999.76076   0.01746246  0.015705036         2548 
 4772000   0.49363699   -7.1818659    998.63045  0.017439062  0.015699855         2576 
 4773000   0.48707347   -7.1986679    1000.0815  0.017460743   0.01569468         2510 
 4774000    0.4989347   -7.1759597    1001.1175  0.017475169  0.015689509         2601 
 4775000   0.48850984   -7.1897754     1000.965  0.017468848  0.015684343         2537 
 4776000   0.48255346   -7.1816751      1000.54  0.017457776  0.015679171         2481 
 4777000   0.48478079   -7.1948189    1000.1817   0.01744787  0.015674005         2531 
 4778000   0.49737765    -7.176016    1000.9507   0.01745763  0.015668843         2477 
 4779000   0.49276306   -7.1742606    1001.0977   0.01745654  0.015663683         2484 
 4780000   0.50035254   -7.1876704    1000.0237  0.017434164  0.015658522         2515 
 4781000     0.468945   -7.2008638      999.546  0.017422192  0.015653357         2528 
 4782000     0.486621   -7.1827825    999.57068  0.017418979  0.015648195         2527 
 4783000    0.4844248   -7.2023464    1000.9773  0.017439845  0.015643036         2550 
 4784000   0.47702689   -7.1929038    1001.4274  0.017444039  0.015637883         2522 
 4785000   0.48491054   -7.1961571    999.96932     0.017415  0.015632731         2573 
 4786000     0.482899   -7.1824312    999.47284  0.017402717  0.015627582         2484 
 4787000   0.48971149   -7.1738369    1000.7996  0.017422178   0.01562243         2496 
 4788000   0.48812807   -7.1931761    999.44617  0.017394983  0.015617282         2518 
 4789000   0.48504162   -7.1894748    1000.5862  0.017411189  0.015612129         2548 
 4790000   0.48145427   -7.1635389    999.88891  0.017395423  0.015606984         2492 
 4791000   0.48156677   -7.1798498    999.46951  0.017384497  0.015601844         2520 
 4792000   0.47753651   -7.2114559    999.40094  0.017379677  0.015596702         2611 
 4793000   0.49167308   -7.1899217    999.80778  0.017383124  0.015591559         2565 
 4794000   0.48432608   -7.1851911    1000.5491  0.017392385  0.015586421         2535 
 4795000   0.49170444   -7.1865211    999.70736  0.017374129  0.015581285         2594 
 4796000    0.4794151   -7.1830573    1000.4863   0.01738404  0.015576152         2541 
 4797000   0.48272239   -7.2033609    998.99435  0.017354499  0.015571019         2559 
 4798000   0.49168048   -7.1998158    999.75926  0.017364167  0.015565886         2495 
 4799000   0.49582593   -7.1748229    998.05486  0.017330952  0.015560756         2597 
 4800000   0.49506059   -7.2075992    1000.3551  0.017367276  0.015555628         2540 
 4801000   0.47830768    -7.200176    999.23172   0.01734416  0.015550496         2497 
 4802000   0.47940774   -7.1802486    998.89355  0.017334679  0.015545368         2546 
 4803000   0.48542232   -7.1909931    1000.0384  0.017350934   0.01554025         2572 
 4804000   0.49759791   -7.2139672    999.94262   0.01734566  0.015535127         2573 
 4805000   0.48527182   -7.1847585    997.82573  0.017305337  0.015530006         2594 
 4806000   0.48048188   -7.1876554    999.37256  0.017328557  0.015524883         2507 
 4807000   0.46492313   -7.1959929    1000.2232  0.017339698  0.015519769         2576 
 4808000   0.48460339   -7.1776268    999.55844  0.017324571  0.015514655         2574 
 4809000   0.47819273   -7.1958136    999.36153  0.017317556  0.015509544         2577 
 4810000   0.47818663   -7.2102347    999.22363  0.017311567  0.015504439         2557 
 4811000    0.4851523   -7.2029665    999.68143  0.017315898  0.015499325         2551 
 4812000   0.47800752   -7.2079612    998.81564  0.017297306  0.015494215         2566 
 4813000   0.48132409   -7.1991601    1000.7321  0.017326895  0.015489111         2608 
 4814000    0.4863153   -7.1955549    999.29949  0.017298496  0.015484005         2556 
 4815000    0.4965571   -7.1999871    998.46035   0.01728038  0.015478903         2491 
 4816000   0.48354639   -7.2093397    999.98862  0.017303236  0.015473805         2558 
 4817000   0.47738452   -7.2116653    997.71264   0.01726027  0.015468711         2599 
 4818000   0.47528688   -7.1974876     1000.934  0.017312405  0.015463618         2579 
 4819000    0.4804891   -7.1862336    998.81297  0.017272134  0.015458524         2586 
 4820000   0.48330147   -7.1992933    1000.0028  0.017289121  0.015453434         2505 
 4821000   0.48608322   -7.2076383    999.82185  0.017282408  0.015448341         2619 
 4822000   0.47997525   -7.2003529    999.08898  0.017266158  0.015443259         2513 
 4823000   0.48506942   -7.1918913    1000.1883  0.017281573  0.015438179         2519 
 4824000   0.48287625   -7.2062304    999.68995  0.017269381  0.015433096         2624 
 4825000    0.4929739   -7.2135744    1001.3665  0.017294758  0.015428017         2593 
 4826000   0.48852019    -7.206023    999.32155  0.017255863  0.015422939         2543 
 4827000   0.48006157   -7.2129344     999.1119  0.017248669  0.015417861         2522 
 4828000   0.47297251    -7.202414    998.32852  0.017231575  0.015412784         2564 
 4829000   0.47326634   -7.1940526    999.52415  0.017248639  0.015407714         2563 
 4830000   0.47979728   -7.2092748     997.7828  0.017215024  0.015402644         2529 
 4831000   0.47894639   -7.1920303    998.32013   0.01722073  0.015397573         2530 
 4832000   0.48117926   -7.1935139    999.61596  0.017239514  0.015392503         2441 
 4833000    0.4774945   -7.2019338    999.74092  0.017238101  0.015387444         2541 
 4834000   0.48356406    -7.208583    1000.2306  0.017242977  0.015382376         2557 
 4835000   0.47112796   -7.1981919    998.24269  0.017205148  0.015377317         2564 
 4836000   0.47726016   -7.2001964    999.67295  0.017226236   0.01537226         2562 
 4837000   0.47404068   -7.1909132    998.69745  0.017205869  0.015367203         2523 
 4838000   0.47284947   -7.2102171    999.35774  0.017213686  0.015362152         2643 
 4839000   0.47857272    -7.200313    998.48357  0.017195074  0.015357096         2469 
 4840000   0.48089544     -7.20856    997.49924  0.017174574  0.015352043         2581 
 4841000   0.47888884   -7.2251883    999.18708  0.017200081  0.015346992         2551 
 4842000   0.48202734   -7.1892025    999.26253  0.017197827  0.015341947         2564 
 4843000   0.48527198   -7.2080651    999.06069  0.017190803  0.015336909         2594 
 4844000   0.47730225   -7.2038221    997.73884  0.017164513  0.015331866         2553 
 4845000   0.47359424   -7.1995522    999.82671  0.017196882  0.015326822         2566 
 4846000   0.46813478   -7.2146233    998.19922  0.017165346  0.015321782         2568 
 4847000   0.47541694   -7.1931707    999.09093  0.017177136  0.015316739         2570 
 4848000   0.47808331   -7.2000598    997.96002  0.017154153  0.015311706         2605 
 4849000    0.4601165   -7.2170467    999.79608  0.017182169  0.015306673         2589 
 4850000   0.48357806   -7.2107563    998.95634  0.017164198  0.015301639         2564 
 4851000   0.48173834   -7.2186278    998.63366  0.017155117  0.015296611         2639 
 4852000   0.48098868   -7.1932391    998.25981   0.01714516   0.01529159         2624 
 4853000   0.48365365   -7.2157206    997.17308  0.017122967  0.015286569         2597 
 4854000   0.47684942   -7.2279736     998.2995  0.017138777  0.015281548         2581 
 4855000    0.4701909   -7.1985899    998.59011  0.017140235  0.015276529         2613 
 4856000   0.48325436   -7.2018058    999.40361  0.017150666  0.015271511         2585 
 4857000   0.48467429   -7.2093718    998.52229  0.017132014  0.015266498         2598 
 4858000   0.47729265   -7.2018118    999.14493  0.017139168   0.01526148         2570 
 4859000   0.47386848   -7.2019351    997.87585  0.017113875  0.015256466         2615 
 4860000   0.46465197   -7.2135762    998.60616  0.017122876  0.015251452         2553 
 4861000   0.47958781   -7.2036293      999.933    0.0171421  0.015246435         2506 
 4862000   0.46741167    -7.203947    998.36823  0.017111755  0.015241427         2580 
 4863000   0.47955018   -7.2066031    998.98981  0.017118888  0.015236421         2526 
 4864000   0.48113209   -7.2210893    998.22404  0.017102249  0.015231421         2610 
 4865000   0.47759613   -7.2048817    998.73404  0.017107469  0.015226417         2595 
 4866000   0.48282299   -7.2234527    998.11097  0.017093283  0.015221421         2508 
 4867000   0.46543951   -7.2228649    997.35376  0.017076806  0.015216425         2554 
 4868000   0.46614838   -7.2168968    997.57175  0.017077029  0.015211424         2587 
 4869000   0.47394652   -7.2183501    998.98663  0.017097738  0.015206431         2534 
 4870000   0.46724051   -7.2207057    998.46773  0.017085348  0.015201437         2587 
 4871000   0.46630554   -7.2092092    996.49559  0.017048101  0.015196445         2648 
 4872000   0.47492647   -7.1987883    999.24893  0.017091696  0.015191458         2518 
 4873000   0.46663217   -7.2272981    999.07039  0.017085136  0.015186473         2610 
 4874000   0.46045235   -7.2311511    997.23707  0.017050285  0.015181485         2539 
 4875000   0.47253865   -7.2082236    998.27363  0.017064507    0.0151765         2593 
 4876000   0.46535684   -7.2049693     999.2175  0.017077138  0.015171517         2606 
 4877000   0.47344757   -7.2097148    997.60235  0.017046038  0.015166538         2549 
 4878000   0.46656324   -7.2186921    999.15076  0.017068996  0.015161561         2630 
 4879000   0.47438078   -7.2240037    998.62969  0.017056598  0.015156582         2579 
 4880000   0.47825369    -7.216514    998.75645  0.017055267  0.015151604         2629 
 4881000   0.46733757    -7.230765    999.01268  0.017056148  0.015146632         2559 
 4882000   0.46838671   -7.2278604    998.94882  0.017051564  0.015141663         2526 
 4883000    0.4797057   -7.2332765    997.31534  0.017020195  0.015136689         2639 
 4884000   0.47624038   -7.2216127    996.38612  0.017000855  0.015131724         2545 
 4885000   0.46835581   -7.2242053     998.8331  0.017039118  0.015126758         2483 
 4886000   0.46872889   -7.2312386    996.59135  0.016997396  0.015121796         2533 
 4887000   0.46568261   -7.2227283    997.57223  0.017010644  0.015116837         2552 
 4888000   0.46439776   -7.2098476    997.99801  0.017014423  0.015111882         2523 
 4889000   0.46282286   -7.2319454    998.27218  0.017015616  0.015106927         2624 
 4890000   0.45693748   -7.1915108    997.17029  0.016993359  0.015101971         2589 
 4891000   0.47300614   -7.2200412    998.60752  0.017014372  0.015097019         2526 
 4892000   0.46842032   -7.2155278    998.15878   0.01700325  0.015092071         2542 
 4893000   0.46026317   -7.2229004    998.95714  0.017013372  0.015087119         2554 
 4894000   0.46934206   -7.2221945    997.58697  0.016986565  0.015082171         2459 
 4895000   0.46757167   -7.2082636    998.87647  0.017005047  0.015077228         2560 
 4896000   0.46980871   -7.2160597    997.35418  0.016975663  0.015072285         2547 
 4897000   0.47672325   -7.2146812    997.47146  0.016974193   0.01506734         2555 
 4898000   0.46842668   -7.2006986    999.90504  0.017012131  0.015062404         2607 
 4899000   0.47311106   -7.2172824    998.37579  0.016982646  0.015057469         2569 
 4900000   0.47545043   -7.2201167    994.58597  0.016914727  0.015052538         2517 
 4901000   0.46369975   -7.2160035    998.53783  0.016978471  0.015047602         2596 
 4902000   0.47069287   -7.2290252    996.85278  0.016946362  0.015042669         2601 
 4903000    0.4739565   -7.2068385    997.93306  0.016961266  0.015037736         2598 
 4904000   0.48328194     -7.20442    997.53246     0.016951  0.015032809         2609 
 4905000   0.46978212   -7.2296414    998.00591  0.016955588  0.015027886         2501 
 4906000   0.46652708   -7.2294536    996.61031  0.016928426  0.015022969         2602 
 4907000   0.46985516   -7.2252683    998.81896  0.016962485  0.015018046         2612 
 4908000   0.46478124   -7.2327909    997.71253  0.016940243  0.015013125         2552 
 4909000   0.47083154   -7.2179557    997.67819  0.016936209  0.015008211         2575 
 4910000   0.46869186   -7.2280229    996.79211  0.016917721  0.015003296         2604 
 4911000   0.47295423   -7.2276604    996.25235  0.016905117  0.014998385         2648 
 4912000    0.4692509   -7.1992995    1000.1642  0.016968041  0.014993472         2554 
 4913000   0.46753735   -7.2412173    997.72858  0.016923275   0.01498856         2607 
 4914000   0.46863894   -7.2104178    997.06525  0.016908582  0.014983648         2668 
 4915000   0.46785839   -7.2278232    996.17367  0.016890025  0.014978743         2606 
 4916000   0.46297231   -7.2307403    997.27309  0.016905226  0.014973842         2585 
 4917000   0.45951533   -7.2261518    998.22487  0.016917919  0.014968938         2475 
 4918000   0.47433308   -7.2096337    995.80323  0.016873445  0.014964038         2643 
 4919000   0.47190553   -7.2285684    998.14983  0.016909769  0.014959137         2627 
 4920000   0.46762177   -7.2255155    996.90218    0.0168852  0.014954237         2591 
 4921000   0.46481536   -7.2184424    997.70221  0.016895316   0.01494934         2561 
 4922000   0.47864603   -7.2245349    995.90932  0.016861528  0.014944441         2640 
 4923000   0.46619984   -7.2272412    996.65288   0.01687069  0.014939548         2620 
 4924000   0.45589322   -7.2113793    997.46197  0.016880957  0.014934661         2593 
 4925000       0.4599   -7.2297782    996.18703  0.016855957  0.014929769         2636 
 4926000   0.46503529   -7.2355694    996.63311  0.016860081  0.014924881         2645 
 4927000   0.46538035   -7.2186668    996.99026    0.0168627  0.014919991         2546 
 4928000   0.46039536   -7.2346524    996.66423  0.016853765  0.014915104         2659 
 4929000   0.45348072   -7.2338311    997.37181  0.016862308  0.014910223         2614 
 4930000    0.4690521   -7.2395343    997.37879  0.016859006  0.014905343         2583 
 4931000   0.46003115   -7.2345785    995.64148  0.016826227  0.014900464         2630 
 4932000   0.47029055   -7.2295369    997.72019  0.016857938  0.014895583         2576 
 4933000   0.46916888   -7.2167399    995.78068  0.016821756  0.014890707         2565 
 4934000    0.4650885   -7.2268136    996.41938  0.016829134  0.014885836         2631 
 4935000   0.45869345   -7.2456381    995.22068  0.016805483  0.014880965         2676 
 4936000    0.4650184   -7.2229705    996.22351  0.016819008  0.014876098         2686 
 4937000   0.46386093   -7.2413132     997.3259  0.016834209  0.014871228         2607 
 4938000   0.47207818   -7.2363412     995.6328  0.016802228  0.014866361         2568 
 4939000   0.46372927   -7.2245092    996.54101  0.016814149  0.014861496         2622 
 4940000   0.46860349   -7.2265301    998.50721  0.016843914  0.014856637         2623 
 4941000   0.46100348   -7.2252683    997.82773  0.016829045   0.01485178         2622 
 4942000   0.46346598   -7.2359014    996.84574  0.016809081  0.014846928         2613 
 4943000   0.47456688   -7.2223777    996.17563  0.016794383  0.014842072         2628 
 4944000   0.46563248   -7.2278048    998.66156  0.016832888  0.014837224         2620 
 4945000   0.47019233   -7.2414317    997.44765  0.016809027  0.014832375         2620 
 4946000   0.45219506   -7.2390489    999.65976  0.016842899  0.014827526         2561 
 4947000    0.4641672   -7.2523163    997.02459  0.016795105  0.014822678         2645 
 4948000   0.46640735   -7.2287608    996.11584  0.016776405  0.014817835         2621 
 4949000   0.45698421   -7.2565422    996.40338  0.016777857  0.014812989         2623 
 4950000   0.46256148   -7.2343865    995.73716  0.016763252  0.014808145         2609 
 4951000   0.45434446   -7.2328103    996.99597  0.016781054  0.014803304         2616 
 4952000   0.46260186   -7.2134244    997.59359  0.016787722  0.014798472         2632 
 4953000   0.44542975   -7.2327142    996.38436  0.016763987  0.014793639         2658 
 4954000   0.46010548   -7.2408209    997.99466  0.016787691  0.014788804         2642 
 4955000   0.46184821   -7.2367776    996.38745  0.016757273  0.014783973         2666 
 4956000   0.46560114   -7.2371699    994.82188  0.016727567  0.014779145         2610 
 4957000   0.46434661   -7.2350956    997.31118  0.016766041  0.014774318         2578 
 4958000   0.45401519   -7.2288583    996.13844  0.016742948  0.014769494         2623 
 4959000   0.45804789   -7.2287498    998.64894  0.016781759  0.014764668         2614 
 4960000   0.45690197   -7.2237004    997.63853    0.0167614  0.014759843         2621 
 4961000   0.45931752     -7.23745    996.70378   0.01674232  0.014755023         2621 
 4962000   0.45906456    -7.232362     996.0596  0.016728127   0.01475021         2618 
 4963000   0.45322619   -7.2255881     996.0642  0.016724834  0.014745397         2595 
 4964000   0.45822131   -7.2493483    995.48165  0.016711685  0.014740582         2686 
 4965000   0.46609764   -7.2352314    997.35814  0.016739814  0.014735772         2607 
 4966000   0.45887622   -7.2392833    996.06029  0.016714665  0.014730958         2560 
 4967000   0.45522061   -7.2304223    997.11874  0.016729057  0.014726146         2618 
 4968000   0.46365987   -7.2301229    994.93386  0.016689041  0.014721333         2631 
 4969000   0.46029284   -7.2537632    995.63085  0.016697371  0.014716524         2659 
 4970000   0.45785422    -7.258113    998.25319  0.016737981   0.01471172         2601 
 4971000   0.46180098   -7.2336173      997.347  0.016719423  0.014706918         2612 
 4972000   0.45640036   -7.2465145    997.65662  0.016721249  0.014702119         2592 
 4973000   0.45717158   -7.2304401    997.24917  0.016711059  0.014697322         2656 
 4974000   0.45760821   -7.2401654    997.26848  0.016708023  0.014692523         2634 
 4975000   0.46136076   -7.2485121    994.65207  0.016660839   0.01468773         2621 
 4976000   0.46653717   -7.2413149    996.49003  0.016688271  0.014682941         2719 
 4977000   0.45608865    -7.251956    996.47876  0.016684729  0.014678147         2627 
 4978000   0.44589548   -7.2213868      996.234   0.01667728  0.014673358         2655 
 4979000   0.45219282   -7.2596684    995.49951  0.016661637  0.014668568         2679 
 4980000   0.44490561   -7.2517518    996.38538  0.016673116  0.014663782         2594 
 4981000   0.45387408   -7.2373634    996.99479  0.016679964  0.014658996         2634 
 4982000    0.4632923   -7.2476249    995.83545  0.016657224  0.014654221         2658 
 4983000   0.45805262   -7.2414377    996.62317  0.016667054  0.014649442         2703 
 4984000   0.45893227   -7.2287847    994.82099  0.016633577  0.014644666         2598 
 4985000   0.45267766   -7.2599612    995.66546  0.016644357  0.014639888         2656 
 4986000   0.44941793   -7.2277178    994.89726   0.01662818  0.014635115         2702 
 4987000   0.45908822   -7.2282737    995.97295  0.016642821  0.014630341         2717 
 4988000   0.44163329   -7.2460842     996.4182  0.016646923  0.014625573         2602 
 4989000   0.46599719   -7.2474538    996.25362  0.016640837  0.014620801         2641 
 4990000   0.45483111   -7.2572023    997.20071  0.016653318  0.014616041         2658 
 4991000   0.45335354   -7.2524752    995.74486  0.016625674  0.014611275         2757 
 4992000   0.45333611   -7.2513909    995.31161  0.016615111  0.014606514         2680 
 4993000   0.45817027   -7.2431481    995.77291  0.016619482  0.014601753         2589 
 4994000   0.45773963   -7.2363142    996.42444  0.016627027  0.014596993         2693 
 4995000   0.45740916   -7.2565379    996.61536  0.016626883  0.014592234         2653 
 4996000   0.45596576   -7.2565114    995.95122  0.016612477  0.014587475         2688 
 4997000   0.45742219   -7.2379413    996.65444   0.01662088  0.014582714         2581 
 4998000   0.45351806   -7.2579214     996.0277  0.016607104  0.014577966         2672 
 4999000   0.45032749   -7.2430851    997.44946  0.016627483  0.014573217         2626 
 5000000   0.44594748   -7.2566471    993.91802    0.0165653  0.014568469         2722 
 5001000   0.45258026   -7.2543253    995.90243  0.016595055  0.014563721         2726 
 5002000   0.46290396   -7.2560967    993.83889  0.016557358  0.014558973         2699 
 5003000   0.45027395   -7.2728885     994.8123  0.016570263  0.014554229         2708 
 5004000   0.44280778   -7.2234836    996.33218  0.016592263  0.014549487         2682 
 5005000   0.44567065    -7.239551    994.77015   0.01656294  0.014544749         2688 
 5006000   0.44223158   -7.2422118     993.4703  0.016537993  0.014540008         2648 
 5007000   0.44493593   -7.2632152    993.54229  0.016535888   0.01453527         2647 
 5008000   0.45590311   -7.2412583     995.4764   0.01656477  0.014530538         2628 
 5009000   0.44997497   -7.2525637    994.10108  0.016538582  0.014525807         2664 
 5010000   0.43885397   -7.2559728    994.54109    0.0165426  0.014521075         2666 
 5011000   0.45064455   -7.2487635    995.07155   0.01654812  0.014516346         2730 
 5012000   0.44585781   -7.2443351    997.52444  0.016585602  0.014511618         2709 
Loop time of 13067.2 on 48 procs for 5000000 steps with 4000 atoms

Performance: 66119.835 tau/day, 382.638 timesteps/s
99.4% CPU use with 48 MPI tasks x no OpenMP threads

MPI task timing breakdown:
Section |  min time  |  avg time  |  max time  |%varavg| %total
---------------------------------------------------------------
Pair    | 978.87     | 1040.8     | 1117.8     | 117.1 |  7.97
Neigh   | 90.157     | 93.471     | 97.098     |  18.4 |  0.72
Comm    | 871.35     | 941.35     | 1010.8     | 121.8 |  7.20
Output  | 16.402     | 16.407     | 16.5       |   0.3 |  0.13
Modify  | 10807      | 10843      | 10871      |  14.0 | 82.98
Other   |            | 132        |            |       |  1.01

Nlocal:        83.3333 ave          89 max          75 min
Histogram: 1 0 3 3 10 10 4 6 3 8
Nghost:        2413.38 ave        2433 max        2400 min
Histogram: 2 7 9 9 5 4 7 2 0 3
Neighs:        16716.6 ave       19879 max       14757 min
Histogram: 5 6 8 10 5 5 3 3 2 1
FullNghs:      33433.6 ave       35832 max       29947 min
Histogram: 1 1 2 5 11 6 8 3 4 7

Total # of neighbors = 1604812
Ave neighs/atom = 401.20300
Neighbor list builds = 267695
Dangerous builds = 0

#clear
#
#next RN
#
#jump SELF
Total wall time: 3:37:50
