
units lj                  # Use reduced LJ style units
atom_style atomic         # Uncharged point particles
atom_modify map hash      # Needed for indexing of clusters etc
                          # Used to be able to find where atoms are in relation to each other.

lattice fcc 1.0 spacing 1 1 1
Lattice spacing in x,y,z = 1.5874011 1.5874011 1.5874011
region box block 0 10 0 10 0 10 units lattice
create_box 2 box
Created orthogonal box = (0.0000000 0.0000000 0.0000000) to (15.874011 15.874011 15.874011)
  3 by 4 by 4 MPI processor grid
create_atoms 1 box
Created 4000 atoms
  using lattice units in orthogonal box = (0.0000000 0.0000000 0.0000000) to (15.874011 15.874011 15.874011)
  create_atoms CPU = 0.039 seconds
set type 1 type/fraction 2 0.99 78393
Setting atom values ...
  3965 settings made for type/fraction
mass 1 1.0
mass 2 1.0
pair_style lj/cut  3.5
pair_modify tail  yes
pair_coeff 1  1  1.0  1.0   # Intearaction between 1 and 1 set with epsilon = 1 and sigma = 1
pair_coeff 1  2  1.5  0.8
pair_coeff 2  2  0.5  0.88

write_data data.0
System init for write_data ...
Neighbor list info ...
  update every 1 steps, delay 10 steps, check yes
  max neighbors/atom: 2000, page size: 100000
  master list distance cutoff = 3.8
  ghost atom cutoff = 3.8
  binsize = 1.9, bins = 9 9 9
  1 neighbor lists, perpetual/occasional/extra = 1 0 0
  (1) pair lj/cut, perpetual
      attributes: half, newton on
      pair build: half/bin/atomonly/newton
      stencil: half/bin/3d
      bin: standard
WARNING: Not all mixed pair coeffs generated from mixing. Use write_data with 'pair ij' option to store all pair coeffs. (../write_data.cpp:312)


#############################
#   M E L T   S Y S T E M   #
#############################

velocity all create 2.4 1741580 mom yes dist gaussian # Assign velocities
                                                    # Temperature 2.4, random number seed, zero linear momentum
                                                                                # Gaussian distribution

timestep 0.002   # simulation timestep
thermo 1000       # output thermodynamic data every 1000 steps bf 100

# Define a fix  in this case with index 1 applied to all
# particles in the simulation. This fix is for simulations
# in the anisotropic NPT ensemble. Note that we use the MTK
# correction.
fix 1 all npt temp 2.4 2.4 0.1 iso 5.68 5.68 0.5 mtk yes tchain 5 pchain 5 # Use NPT ensemble
                                                                         # Set temperature and pressure and damping
                                                                         # Numbers of thermostats in chain and in barostat
run 10000          # run for 10000 steps
Per MPI rank memory allocation (min/avg/max) = 3.642 | 3.644 | 3.648 Mbytes
Step Temp E_pair E_mol TotEng Press Volume 
       0          2.4   -2.7429598            0   0.85614022   -1.7792645         4000 
    1000    2.4236771   -1.4978048            0     2.136802    5.6166509    4275.0726 
    2000    2.4161524   -1.5051801            0    2.1181425    5.7307112    4222.0793 
    3000    2.3726158   -1.5095161            0    2.0485179    5.5878169    4238.9053 
    4000    2.3561897   -1.5030133            0    2.0303877    5.7458498    4219.7539 
    5000    2.4444241   -1.5007974            0    2.1649221     5.695984    4245.2607 
    6000    2.4247697   -1.4780505            0    2.1581948    5.7102326    4253.5638 
    7000    2.4140704   -1.4948119            0    2.1253884    5.9141015    4194.9518 
    8000    2.3540844   -1.4727525            0    2.0574913    5.7685875    4242.8142 
    9000    2.4406388   -1.4965236            0    2.1635193    5.8200271    4232.1826 
   10000    2.4369584   -1.5279527            0     2.126571    5.4851918    4260.9385 
Loop time of 2.3941 on 48 procs for 10000 steps with 4000 atoms

Performance: 721773.558 tau/day, 4176.930 timesteps/s
99.6% CPU use with 48 MPI tasks x no OpenMP threads

MPI task timing breakdown:
Section |  min time  |  avg time  |  max time  |%varavg| %total
---------------------------------------------------------------
Pair    | 1.0377     | 1.0996     | 1.2233     |   3.3 | 45.93
Neigh   | 0.2017     | 0.21005    | 0.23638    |   1.4 |  8.77
Comm    | 0.6524     | 0.82878    | 0.88772    |   5.0 | 34.62
Output  | 0.00024856 | 0.00026135 | 0.00063283 |   0.0 |  0.01
Modify  | 0.19966    | 0.24056    | 0.2826     |   5.6 | 10.05
Other   |            | 0.01481    |            |       |  0.62

Nlocal:        83.3333 ave          91 max          72 min
Histogram: 1 0 1 6 4 13 12 5 3 3
Nghost:        1572.88 ave        1591 max        1547 min
Histogram: 1 1 3 6 5 8 4 11 7 2
Neighs:        8959.60 ave       10270 max        7274 min
Histogram: 1 1 0 5 7 16 10 5 1 2

Total # of neighbors = 430061
Ave neighs/atom = 107.51525
Neighbor list builds = 906
Dangerous builds = 201

# Equilibrate just above the melting temperature to avoid step fn in T

fix 1 all npt temp 1.25 1.25 0.1 iso 5.68 5.68 0.5 mtk yes tchain 5 pchain 5
run 2000
Per MPI rank memory allocation (min/avg/max) = 3.643 | 3.645 | 3.649 Mbytes
Step Temp E_pair E_mol TotEng Press Volume 
   10000    2.4369584   -1.5279527            0     2.126571    5.4851918    4260.9385 
   11000    1.2314713   -2.3022588            0  -0.45551366    5.5445058    3340.1183 
   12000    1.2594295   -2.3191548            0  -0.43048282    5.6508769    3319.7688 
Loop time of 0.569916 on 48 procs for 2000 steps with 4000 atoms

Performance: 606405.684 tau/day, 3509.292 timesteps/s
99.6% CPU use with 48 MPI tasks x no OpenMP threads

MPI task timing breakdown:
Section |  min time  |  avg time  |  max time  |%varavg| %total
---------------------------------------------------------------
Pair    | 0.25391    | 0.27462    | 0.29281    |   1.7 | 48.19
Neigh   | 0.038279   | 0.039834   | 0.041318   |   0.3 |  6.99
Comm    | 0.18473    | 0.20607    | 0.22991    |   2.2 | 36.16
Output  | 5.2528e-05 | 5.3738e-05 | 6.8223e-05 |   0.0 |  0.01
Modify  | 0.04125    | 0.044633   | 0.048297   |   0.8 |  7.83
Other   |            | 0.004706   |            |       |  0.83

Nlocal:        83.3333 ave          92 max          77 min
Histogram: 5 1 8 5 14 3 6 3 1 2
Nghost:        1867.10 ave        1879 max        1845 min
Histogram: 1 1 1 3 2 9 7 14 6 4
Neighs:        11497.7 ave       13369 max       10142 min
Histogram: 4 3 7 9 7 10 4 1 1 2

Total # of neighbors = 551890
Ave neighs/atom = 137.97250
Neighbor list builds = 143
Dangerous builds = 16

#############################
# L I N E A R  Q U E N C H  #
#############################

# Define solid atoms. This closely follows ten Wolde  Ruiz-Montero and Frenkel  Faraday Discuss  1996  104  93-110
# Compute components of the per-atom q6 vector
compute q6 all orientorder/atom degrees 1 6 components 6 nnn NULL cutoff 1.3 # compute the Q6 parameter.
                                                                             # Use all neighbours within 1.3 unit cell.

# get number of connections
compute coord_number all coord/atom orientorder q6 0.5

# An atom is solid if it has 8 or more connections (of a possible 14)
variable is_solid atom c_coord_number>=8
group solid dynamic all var is_solid    # Must be dynamic to update
dynamic group solid defined

# do clustering
compute cluster solid cluster/atom 1.3 # Create a cluster where all atoms within are solid and max 1.3 units from another member

# define chunks one chunk per cluster
compute clus_chunks solid chunk/atom c_cluster nchunk every compress yes  # Says which atoms are in which chunk

# count the size of each chunk
compute size_chunks solid property/chunk clus_chunks count


# Find the maximum entry in the vector of chunk sizes
variable max_n equal max(c_size_chunks)


# Thermo style which includes this variable
# thermo_style custom step temp pe vol v_max_n

thermo ${N}  # Print the thermo information every 100 steps
thermo 1000  

# Reset the npt fix at a lower temperature (below freezing)
fix 1  all npt temp  ${temp} ${temp}  0.1  iso  5.68  5.68  0.5  mtk yes tchain  5  pchain  5
fix 1  all npt temp  0.45 ${temp}  0.1  iso  5.68  5.68  0.5  mtk yes tchain  5  pchain  5
fix 1  all npt temp  0.45 0.45  0.1  iso  5.68  5.68  0.5  mtk yes tchain  5  pchain  5

dump dmp2 all dcd ${N} traj.dcd
dump dmp2 all dcd 1000 traj.dcd


compute msd all msd com yes
variable twopoint equal c_msd[4]/6/(step*dt+1.0e-6)
fix 9 all vector 10 c_msd[4]
variable fit equal slope(f_9)/6/(10*dt)
thermo_style custom step temp pe c_msd[4] v_twopoint v_fit v_max_n

fix 1 all npt temp 1.25 ${temp} 0.1 iso 5.68 5.68 0.5 mtk yes tchain 5 pchain 5
fix 1 all npt temp 1.25 0.45 0.1 iso 5.68 5.68 0.5 mtk yes tchain 5 pchain 5
run 5000000 # 5000000  # Run for this many steps
Neighbor list info ...
  update every 1 steps, delay 10 steps, check yes
  max neighbors/atom: 2000, page size: 100000
  master list distance cutoff = 3.8
  ghost atom cutoff = 3.8
  binsize = 1.9, bins = 8 8 8
  4 neighbor lists, perpetual/occasional/extra = 1 3 0
  (1) pair lj/cut, perpetual
      attributes: half, newton on
      pair build: half/bin/atomonly/newton
      stencil: half/bin/3d
      bin: standard
  (2) compute orientorder/atom, occasional
      attributes: full, newton on
      pair build: full/bin/atomonly
      stencil: full/bin/3d
      bin: standard
  (3) compute coord/atom, occasional
      attributes: full, newton on
      pair build: full/bin/atomonly
      stencil: full/bin/3d
      bin: standard
  (4) compute cluster/atom, occasional
      attributes: full, newton on
      pair build: full/bin/atomonly
      stencil: full/bin/3d
      bin: standard
Per MPI rank memory allocation (min/avg/max) = 9.812 | 9.816 | 9.821 Mbytes
Step Temp PotEng c_msd[4] v_twopoint v_fit v_max_n 
   12000    1.2594295   -2.3191548 1.6861902e-30 1.1709654e-32 8.3333333e+20            1 
   13000    1.2521656   -2.3331617    1.1736369 0.0075233134   0.10051111            1 
   14000    1.2575653    -2.347116    2.5452627  0.015150372   0.10867805            1 
   15000    1.2505674   -2.3407482     3.840596  0.021336644   0.10944477            1 
   16000    1.2518776   -2.3269497    5.2434006  0.027309377   0.11034654            2 
   17000     1.226779   -2.3252258    6.6179914  0.032441133   0.11174529            1 
   18000    1.2598649   -2.3617698    7.8014562  0.036117852   0.11140267            2 
   19000    1.2678734   -2.3318283    8.9476764  0.039244194   0.10987825            1 
   20000    1.2511002   -2.3200761    10.087021  0.042029255   0.10789949            2 
   21000    1.2619998   -2.3034307    11.434481  0.045374923   0.10691334            1 
   22000    1.2448592   -2.3214021    12.743183  0.048269631   0.10650799            2 
   23000    1.2410217   -2.3183685    14.118055   0.05115237   0.10659572            1 
   24000    1.2602603   -2.3126059    15.290887  0.053093356   0.10670035            2 
   25000    1.2429812   -2.3382811    16.741989   0.05580663   0.10693962            2 
   26000    1.2285638   -2.3125889     18.08455  0.057963299   0.10714704            2 
   27000    1.2610377   -2.3357016    19.228024  0.059345753    0.1072323            4 
   28000    1.2495002   -2.3245055    20.748519  0.061751542   0.10739807            1 
   29000    1.2445794   -2.3469917    21.984631  0.063174225   0.10752807            2 
   30000    1.2798801   -2.3049909    23.359966  0.064888794   0.10761656            1 
   31000     1.235392   -2.3276628     24.62434  0.066194461   0.10775635            1 
   32000    1.2206344   -2.3149227    25.807379  0.067206715   0.10783787            4 
   33000    1.2356111   -2.3141941    27.061798  0.068337872   0.10784018            1 
   34000    1.2480931    -2.331407    28.844817   0.07069808   0.10798274            2 
   35000    1.2428215    -2.306508    30.201793  0.071909031   0.10832983            1 
   36000    1.2494626   -2.2910367    31.732756  0.073455454   0.10873329            1 
   37000    1.2374745   -2.2961011    33.153366  0.074669742   0.10916535            2 
   38000    1.2155002   -2.3604198    34.522876  0.075708061   0.10966644            2 
   39000    1.2323475    -2.306819    36.165633  0.077276992   0.11015645            2 
   40000    1.2491054   -2.3204277    37.466776  0.078055782   0.11061749            1 
   41000    1.2352546   -2.3220322    38.898574  0.079062141   0.11100042            2 
   42000    1.2286032   -2.3446618    40.067759  0.079499521   0.11132178            1 
   43000    1.2351355   -2.3179763    41.305388  0.080049202   0.11156099            1 
   44000    1.2364259   -2.3211431    42.479361  0.080453335   0.11168902            1 
   45000    1.2390742   -2.3213145    43.745828  0.081010792   0.11176117       -1e+20 
   46000    1.2590699   -2.3438518    45.464058  0.082362422   0.11183378            1 
   47000    1.2280218   -2.3566867     46.78876  0.082958793   0.11194754            2 
   48000    1.2637499   -2.3393805    48.413592  0.084051374   0.11207992            2 
   49000    1.2384105   -2.3174928    49.622244  0.084391571   0.11223347            1 
   50000    1.2700684   -2.3574339    51.196628  0.085327713    0.1123802            1 
   51000    1.2557272   -2.3356568    52.246304  0.085369776   0.11245522            2 
   52000    1.2455505   -2.3157909    53.054791  0.085023703   0.11247314            1 
   53000     1.241206   -2.3347607    54.328136  0.085421597   0.11243542            3 
   54000    1.2553301   -2.3465359      55.8093  0.086125463    0.1123391            1 
   55000    1.2485865   -2.3223083    56.599182  0.085756336   0.11221116            1 
   56000    1.2846985   -2.3259933      57.8853  0.086138838   0.11199942            2 
   57000    1.2625956   -2.3377988    58.957016  0.086194467   0.11178333            7 
   58000    1.2324043   -2.2969907    60.465022  0.086875031   0.11157024       -1e+20 
   59000    1.2592015   -2.3036123    61.899871  0.087429195   0.11138099            1 
   60000    1.2394686   -2.3411701    62.845084  0.087284838   0.11122483            1 
   61000    1.2305278   -2.3435896    64.593728  0.088242797   0.11112286            2 
   62000    1.2376004   -2.3329088    65.816856  0.088463515    0.1110156            2 
   63000    1.2126295   -2.3069139    67.276735   0.08899039   0.11092831            2 
   64000    1.2326625   -2.3753949    68.638165   0.08937261   0.11087566            1 
   65000    1.2335923   -2.3152567    69.861569  0.089566113   0.11084571            1 
   66000    1.2582555   -2.3274266    71.575491  0.090373093   0.11079817            2 
   67000    1.2639076   -2.3353644     72.92306  0.090700323   0.11077508            1 
   68000    1.2393823   -2.2968992    74.044148  0.090740377   0.11074389            1 
   69000    1.2260874   -2.3205855    75.158865  0.090771575   0.11066735            1 
   70000    1.2215322   -2.2946101    76.059255  0.090546731   0.11055016            1 
   71000    1.2627515   -2.2847175    77.589488  0.091067473   0.11044711            1 
   72000     1.240349   -2.3498821    78.302181  0.090627524   0.11034192            1 
   73000    1.2552099   -2.3139601    80.245214  0.091604124   0.11028102            1 
   74000    1.2347442   -2.3095725    81.280524  0.091532121    0.1102214            1 
   75000     1.225183   -2.3095596    82.127432  0.091252702   0.11014356            1 
   76000    1.2159118   -2.3328061    83.668692  0.091741987   0.11000692            3 
   77000    1.2037741   -2.3399921    85.200396   0.09220822   0.10989112            1 
   78000    1.2497541   -2.3263721    86.508166  0.092423254   0.10984492            1 
   79000    1.2398034   -2.2905717    88.075245  0.092906376   0.10981369            3 
   80000    1.2234631   -2.3670641    89.456652  0.093184012   0.10978333            2 
   81000    1.2478485   -2.3342434     90.88437  0.093502437    0.1098009            2 
   82000    1.2213401   -2.3516056     92.21807  0.093717551   0.10981498            2 
   83000     1.239282    -2.328866    93.673549  0.094049747    0.1098378            1 
   84000    1.2258021   -2.3115411    94.851543  0.094098753   0.10982732            2 
   85000    1.2498459   -2.3208039    94.622544  0.092767199   0.10981804            1 
   86000    1.2074465   -2.3146691    97.206794   0.09419263   0.10977872            4 
   87000    1.2470622   -2.3081832    98.245937  0.094105304   0.10975239            2 
   88000    1.2503492   -2.3183182    99.155061  0.093896838   0.10972385            2 
   89000    1.2452721   -2.3114114    101.49246  0.095030395   0.10973743            2 
   90000    1.2588551   -2.3378943    102.54441  0.094948525   0.10975536            1 
   91000    1.2274274   -2.3162039     103.4366  0.094722163   0.10973792            3 
   92000    1.2341465    -2.320018    105.24054  0.095326575   0.10971808            3 
   93000    1.2227594   -2.3213137    106.17371  0.095137732   0.10972171            2 
   94000    1.2264013   -2.3100631    107.83075  0.095594634   0.10971883            1 
   95000    1.2389934   -2.3580096    108.95187  0.095571817   0.10970433            2 
   96000      1.23812   -2.3407757     109.6705  0.095200086   0.10967667            2 
   97000    1.2635818   -2.3281285    111.76574  0.096018678   0.10965259            1 
   98000    1.2335669    -2.339957    113.43821  0.096461066   0.10966113            2 
   99000    1.2451993   -2.3273197    114.73388  0.096577341   0.10966503            2 
  100000    1.2540797    -2.326836     115.4821   0.09623508   0.10965036            5 
  101000    1.2439493    -2.339519     116.8018  0.096371119   0.10961518            2 
  102000    1.2599469   -2.3387857    117.62824  0.096101505   0.10957448            2 
  103000    1.2227815   -2.3187669     118.7736  0.096095149   0.10954079            3 
  104000    1.2325035   -2.3341351    120.62921   0.09665802   0.10951446            1 
  105000    1.2531168   -2.3190344    121.13498  0.096138874   0.10948075            1 
  106000     1.228134   -2.3585751     122.7694  0.096516827   0.10943185            1 
  107000    1.2263666   -2.3498226    123.61653  0.096274552    0.1093771            2 
  108000    1.2196245   -2.3640434    125.49337  0.096831304   0.10934433            2 
  109000    1.2208941   -2.3193756    127.06236  0.097142475   0.10932038            1 
  110000    1.2508307   -2.3300737    128.69487   0.09749611   0.10931145            2 
  111000    1.2434636   -2.3330498    130.19248    0.0977421   0.10930025            5 
  112000     1.232463   -2.3418545    130.81429  0.097332062   0.10927969            1 
  113000    1.2136115   -2.3045783     131.3823  0.096889604   0.10923113            1 
  114000    1.2563946   -2.3412154    132.02894  0.096512384   0.10916636            2 
  115000    1.2233861   -2.3480962    132.96731  0.096353123   0.10909512            1 
  116000     1.216816   -2.3128036    135.00536  0.096986606   0.10903901            1 
  117000    1.2398448    -2.342718    136.12746  0.096956877   0.10897901            1 
  118000    1.2273173   -2.3163681    137.70461  0.097249017   0.10892066            1 
  119000    1.2431368   -2.3543511    138.60376  0.097061454   0.10884244            1 
  120000    1.2521396   -2.2996777    140.30625  0.097434896   0.10878447            2 
  121000    1.2343501   -2.3233268    140.94018  0.097066241   0.10872085            1 
  122000    1.2395281   -2.3686446    141.76532  0.096834237    0.1086506            1 
  123000    1.2316287   -2.2985164    143.84318  0.097454727   0.10856925            1 
  124000    1.2311093   -2.3416547    144.78059  0.097298786   0.10850915            2 
  125000    1.2526554   -2.3596043    145.88002  0.097253344   0.10844502            2 
  126000     1.256425   -2.3392238    147.18517  0.097344691   0.10839281            1 
  127000    1.2419103    -2.332329    149.05501  0.097805123   0.10835068            5 
  128000    1.2590554   -2.3726129    150.23266  0.097807722   0.10831936            3 
  129000    1.1993001   -2.3479919    151.10766  0.097614765   0.10828305            2 
  130000    1.2041653   -2.3397368     152.4038  0.097694742   0.10823074            1 
  131000    1.2325905   -2.3422463    153.42152  0.097596385   0.10817684            3 
  132000    1.2423989   -2.3297968    154.79158  0.097721955   0.10811848            1 
  133000    1.2182707   -2.3247441    156.02867  0.097762326   0.10806991            1 
  134000    1.2208776   -2.3440942    156.85985  0.097549658    0.1080165            1 
  135000    1.2243657   -2.3432064     158.5301  0.097858084    0.1079514            1 
  136000    1.2500491   -2.3586444    160.06671  0.098080093   0.10790821            1 
  137000    1.2130932   -2.2888172    161.56342  0.098274584   0.10787443            1 
  138000    1.2689126   -2.3094895    162.14031  0.097910814   0.10783398            2 
  139000    1.2309213   -2.3372029    164.19385  0.098437557   0.10780299            1 
  140000    1.2543757   -2.3132761    166.62969  0.099184339   0.10777916            2 
  141000     1.241286   -2.3264813    167.05837  0.098734261   0.10775163            2 
  142000    1.2393451   -2.3505773    169.03727  0.099200273   0.10774694            1 
  143000     1.238667   -2.3211818    169.56882  0.098816329   0.10773625            1 
  144000    1.2202107   -2.3207739    169.74281  0.098230794   0.10771817            2 
  145000    1.2453317    -2.369086    171.67043  0.098661166   0.10768784            2 
  146000    1.2367505   -2.3258314    172.88181   0.09867683   0.10765431            2 
  147000    1.2268849   -2.3422938    174.21496  0.098761312   0.10762021            1 
  148000    1.2357806    -2.342903    176.03811  0.099120556   0.10758206            1 
  149000    1.2411482   -2.3587863    175.45275  0.098127939   0.10754155            1 
  150000    1.2191146   -2.3576609    176.93174  0.098295413   0.10749126            1 
  151000    1.2349509   -2.3177368    178.27218  0.098384207   0.10743346            1 
  152000    1.2335082   -2.3412588    178.28395  0.097743391   0.10736419            1 
  153000    1.2179566   -2.2994937    180.42797  0.098272315   0.10728757            1 
  154000    1.1957602   -2.3538245     180.8034  0.097837337    0.1072072            1 
  155000    1.2636775   -2.3091758     180.9556  0.097287955   0.10713023            1 
  156000    1.1941884   -2.3030353    183.38381  0.097961438   0.10706144            1 
  157000    1.2159005   -2.3446466     184.4071  0.097880624    0.1069896            2 
  158000    1.2209923   -2.3650842     185.7757  0.097982966   0.10691427            2 
  159000    1.2623866   -2.3472956    186.63746  0.097818375   0.10684925            1 
  160000    1.2123808   -2.3358385    188.66286  0.098261909   0.10678267            1 
  161000    1.2327145   -2.3247327    189.08404  0.097869587   0.10672205       -1e+20 
  162000    1.2056122   -2.3496046    190.57859  0.098034252   0.10665186            1 
  163000    1.2296028   -2.3324002     190.8191  0.097555776   0.10658315            1 
  164000      1.20782   -2.3343423    191.93835  0.097529649   0.10651748            2 
  165000    1.2362873   -2.3480953    194.72008  0.098343473   0.10645314            1 
  166000    1.2167727   -2.3310754    194.96305  0.097873017   0.10639073            1 
  167000    1.2518255   -2.3412008    197.09917  0.098352877   0.10633089            2 
  168000    1.2444855    -2.348276    197.99852  0.098213552   0.10627403            1 
  169000    1.2014255   -2.3317095    199.19935  0.098224531   0.10621765            1 
  170000    1.2374625   -2.3381704    200.49335  0.098281054   0.10615711            1 
  171000    1.2024407   -2.3433913    201.49451  0.098194207   0.10610293            2 
  172000    1.2378196   -2.3386282     203.0111  0.098358089    0.1060493            2 
  173000    1.2019449   -2.3528558    204.43942  0.098477561   0.10599648            2 
  174000     1.225415   -2.3234704    204.89307  0.098128865   0.10595156            2 
  175000    1.2109968   -2.3798948    206.68569  0.098421756   0.10590891            1 
  176000    1.2374031   -2.3213343    208.58536  0.098762006   0.10587191            3 
  177000    1.2182684    -2.374392    208.76016  0.098286328   0.10583691            1 
  178000    1.2138234   -2.3837169    210.85029  0.098712681   0.10579737            1 
  179000    1.2156263   -2.3471443    211.51248  0.098469496   0.10575528            2 
  180000    1.2094105   -2.3524201    211.61438  0.097969621   0.10570409            1 
  181000    1.2337426   -2.3453272    214.24517  0.098639582   0.10565205            1 
  182000    1.2236416   -2.3257824    214.05689  0.098011396   0.10560373            1 
  183000    1.2298712   -2.3587028    215.78774  0.098263996   0.10554945            2 
  184000    1.2447005   -2.3559616    215.70901    0.0976943   0.10549533            3 
  185000    1.2042359   -2.3343658    217.64412  0.098037892   0.10543949            2 
  186000     1.221167   -2.3644003    219.91286  0.098527265   0.10538243            1 
  187000     1.241726   -2.3210275    219.55714  0.097841863   0.10532613            1 
  188000    1.2168634   -2.3636248    221.74764  0.098292392   0.10527081            2 
  189000    1.2257912   -2.3583958    222.95624   0.09830522   0.10521248            2 
  190000    1.2132499   -2.3302942    223.88104  0.098193437   0.10515344            2 
  191000    1.2538472   -2.3535376    223.99178  0.097727654   0.10509109            1 
  192000    1.2407403   -2.3572823    226.86061  0.098463807   0.10504243            2 
  193000    1.2114205   -2.3455637    228.91771  0.098841843   0.10499892            1 
  194000    1.1816738   -2.3325388    229.42116  0.098548609    0.1049545            1 
  195000    1.2147533   -2.3535093    229.73006  0.098175241   0.10491431            1 
  196000    1.2114619   -2.3224758    232.27938   0.09875824   0.10487189            1 
  197000    1.2624002   -2.3632431    232.88572  0.098513416     0.104841            4 
  198000    1.2204048   -2.3660873    234.53312  0.098709227   0.10480273            1 
  199000    1.2343221   -2.3540333    235.16532  0.098477939   0.10477201            2 
  200000    1.2315047    -2.354168    237.27165  0.098863186   0.10474718            2 
  201000    1.1897921   -2.3461603    237.63335  0.098521287    0.1047254            2 
  202000    1.2126317   -2.3535386    239.72248  0.098895414    0.1047049            2 
  203000    1.2380408   -2.3548672    241.49695  0.099136681   0.10468466            1 
  204000    1.2293497   -2.3470119    242.17306  0.098926903   0.10466382       -1e+20 
  205000    1.2157093   -2.3558806    244.05504  0.099209368   0.10464057            3 
  206000    1.2093684   -2.3220362    243.81428   0.09863037   0.10461369            4 
  207000    1.2208067   -2.3609932    245.76823  0.098940512   0.10457675            2 
  208000    1.2104948   -2.3423376    245.52723   0.09836828   0.10454663            1 
  209000    1.2334558    -2.353828    246.98024  0.098476968   0.10451195            1 
  210000    1.2083817   -2.3622212    246.76388  0.097922175   0.10446899            1 
  211000    1.2347381   -2.3512538    249.06805  0.098368107   0.10443004            2 
  212000    1.2270945   -2.3371784    252.10006  0.099095937   0.10439321            2 
  213000    1.2021226    -2.356417    252.52706  0.098797755   0.10435884            1 
  214000    1.1839928   -2.3541757    252.40799  0.098289717   0.10432092            1 
  215000    1.1929992   -2.3774057    254.77493  0.098749973   0.10428504            2 
  216000    1.2170879   -2.3656479    255.38355  0.098527603   0.10424975            1 
  217000    1.2195067   -2.3681703    256.57741   0.09853203   0.10420999            2 
  218000    1.2374782   -2.3807933    258.15565  0.098683353   0.10417651            2 
  219000    1.2039763   -2.3779406    260.25446  0.099031377   0.10414884            1 
  220000    1.2134664   -2.3488983    260.52814    0.0986849   0.10411436            1 
  221000    1.2327949   -2.3508807    263.62718  0.099406931    0.1040839            1 
  222000    1.2284468   -2.3448741    263.18996  0.098795028   0.10405761            2 
  223000     1.246224    -2.361963    264.55985  0.098863921   0.10403124            2 
  224000    1.2317844   -2.3671127      265.122  0.098631698   0.10400048            1 
  225000    1.2011706    -2.307914    267.42166   0.09904506   0.10397789            2 
  226000     1.220011    -2.354226    269.22607  0.099272148   0.10395468            2 
  227000    1.2145983   -2.3363716    269.71769  0.099015305   0.10392855            3 
  228000    1.2077084     -2.35205    269.89872  0.098647191   0.10389841            1 
  229000    1.2244628   -2.3231045    272.19149  0.099050761   0.10387639            1 
  230000    1.2193953    -2.355567     272.0915  0.098583877   0.10385308            1 
  231000    1.2242129   -2.3307216    274.52887  0.099036389   0.10382893            1 
  232000    1.2121334   -2.3892182    275.66955  0.099019236    0.1038082            1 
  233000    1.2069677   -2.3511224    277.22986  0.099152312   0.10378787            1 
  234000    1.2346163    -2.356096    278.98428  0.099353376   0.10377253            1 
  235000    1.2286397   -2.3649357    280.79877  0.099574031   0.10375735            3 
  236000    1.1880596    -2.363218    281.22108  0.099301227   0.10374907            1 
  237000    1.2309584    -2.340043    281.91675  0.099126845   0.10373371            3 
  238000     1.231348   -2.3418415    283.51013  0.099268254   0.10372254            1 
  239000     1.196244   -2.3553445    283.78171  0.098947598   0.10370879            1 
  240000     1.220818   -2.3465256    283.97685  0.098603074   0.10369265            2 
  241000    1.2195342   -2.3414814    287.60913  0.099449906   0.10367416            1 
  242000    1.2222952   -2.3502877    287.27075  0.098922433   0.10365834            1 
  243000    1.1974326   -2.3609125     289.4688  0.099269134   0.10363935            2 
  244000    1.1899332    -2.337489    290.22947  0.099122087   0.10362523            2 
  245000     1.233803   -2.3457453    292.75207  0.099575535   0.10361748       -1e+20 
  246000    1.1911295   -2.3719744    293.20074  0.099322745   0.10360698            3 
  247000    1.2145857   -2.3967582    293.73034  0.099099305    0.1035944            1 
  248000    1.1985246   -2.3555171    296.86469   0.09975292   0.10358665            2 
  249000    1.2152088   -2.3741049    297.85937  0.099685197   0.10358917            4 
  250000    1.1994979   -2.3358466    299.70692  0.099902308   0.10358711            1 
  251000    1.2227948   -2.3766514    301.26593   0.10002189   0.10359122            1 
  252000    1.2149575    -2.377842    302.38815  0.099996082   0.10359168            1 
  253000    1.1867472   -2.3529211    303.97438   0.10012331     0.103596            1 
  254000    1.2154558   -2.3397733    303.08706  0.099438012   0.10359396            2 
  255000    1.2039906   -2.3291208    306.44736    0.1001462   0.10359009            1 
  256000    1.2376326   -2.3507792    306.29234  0.099704538   0.10359335            1 
  257000    1.1792461   -2.3538746    309.01326   0.10019885   0.10358985            1 
  258000    1.2303585    -2.367445    309.05987  0.099825539   0.10358849            1 
  259000    1.2297328   -2.3641833    312.66127   0.10059886   0.10359296            1 
  260000    1.2233585   -2.3660747    313.02221   0.10032763    0.1036041            1 
  261000    1.1997111   -2.3284757    316.17227     0.100949   0.10361199            1 
  262000    1.1892904   -2.3786852     315.9971   0.10050798   0.10361997            2 
  263000    1.2048549   -2.3779541    315.88511   0.10009034   0.10362535            1 
  264000    1.2221808   -2.3533675    316.81186   0.10000374   0.10363202            1 
  265000    1.1859847   -2.3827915    320.37212   0.10074595   0.10363654            2 
  266000    1.2237942   -2.3672278    320.77522   0.10049349   0.10364118            1 
  267000     1.202493   -2.3704049    321.55495   0.10036047   0.10364604            1 
  268000     1.230175   -2.3804963    322.23098    0.1001962   0.10364897            3 
  269000    1.2187379   -2.3650057    324.40989   0.10049873   0.10365387            2 
  270000    1.2018631   -2.3470681    325.29269   0.10039898   0.10365884            2 
  271000    1.1911582   -2.3667186    325.59546    0.1001216    0.1036602            2 
  272000    1.2134046   -2.3265772    326.62228    0.1000681    0.1036605            3 
  273000    1.2348959     -2.36746    329.69069   0.10063818   0.10366144            1 
  274000    1.2024793   -2.3705916    328.97592    0.1000535   0.10366155            1 
  275000    1.1932363   -2.3564436    331.62034   0.10049101   0.10366664            1 
  276000    1.2138627   -2.3429193    332.50333   0.10039352   0.10366974            3 
  277000    1.2064931   -2.3844378     334.1393   0.10052325   0.10367225            1 
  278000    1.2168598   -2.3777792    335.40295   0.10054045   0.10367387            2 
  279000    1.2252407   -2.3594228    336.42388   0.10048503   0.10367719            1 
  280000    1.2023515   -2.3511034    339.04028   0.10090485   0.10368233            2 
  281000    1.1945918   -2.3304926    339.50318   0.10068303    0.1036945            2 
  282000    1.1984879   -2.3539384    341.11619   0.10080266   0.10370625            1 
  283000    1.2010446   -2.3468804    341.81357   0.10065182   0.10371746            1 
  284000    1.2061536   -2.3557218    343.69105   0.10084831   0.10372349            2 
  285000    1.1986306   -2.3453174    343.66489   0.10048681   0.10372816            2 
  286000    1.2200056   -2.3778746    345.57208   0.10069116   0.10373164            1 
  287000    1.1985792   -2.3564766    346.85595   0.10071311   0.10373155            2 
  288000    1.1851812   -2.3647242    346.84339   0.10035978   0.10372834            2 
  289000     1.196308   -2.3575464    347.99467   0.10034448   0.10372499            1 
  290000     1.195194    -2.372621    349.37285    0.1003945   0.10372318            1 
  291000    1.2195431   -2.3473044    351.66586   0.10070615   0.10372264            1 
  292000    1.1847387   -2.3742339    351.79251   0.10039741   0.10372262            1 
  293000    1.2266061   -2.3556261    352.35323   0.10021423   0.10372182            1 
  294000    1.2327446   -2.3442925    356.50953   0.10105145   0.10372632            1 
  295000    1.2048989   -2.3902772    355.55848   0.10044025   0.10373126            1 
  296000    1.1804344   -2.3569219    358.41672   0.10090561   0.10373526            2 
  297000     1.210904   -2.3571035     360.0773   0.10103179   0.10374194            2 
  298000    1.2279232   -2.3697101    361.32788   0.10104247   0.10374431            1 
  299000    1.2026793   -2.3899807    362.03879   0.10090267   0.10375017            1 
  300000    1.2233888   -2.3700091    364.47409    0.1012428    0.1037554            1 
  301000    1.2057654   -2.4090354    363.82921   0.10072791   0.10376349            2 
  302000    1.1785508   -2.3832075    365.94507   0.10097822   0.10377581            1 
  303000     1.237257   -2.3791678    367.71467   0.10113165   0.10378875            1 
  304000    1.2128883   -2.3420314     370.4797   0.10155694   0.10380674            2 
  305000      1.19439   -2.3672412    372.48478    0.1017718   0.10382423            1 
  306000    1.1977864   -2.3560367    372.69685   0.10149696   0.10384291            1 
  307000    1.2338547   -2.3613255     373.2412   0.10131411   0.10385824            1 
  308000    1.1814211   -2.3746891    374.57284   0.10134547   0.10387403            3 
  309000    1.1859327    -2.355972     376.8197   0.10162344   0.10389239            1 
  310000    1.2054185   -2.3689046    377.01276   0.10134752   0.10391039            1 
  311000    1.2078511   -2.3563798    379.33632   0.10164425   0.10392614            3 
  312000    1.2039041   -2.3565955    381.06716   0.10178076   0.10393978            1 
  313000    1.2005504   -2.3810637     380.2959   0.10125024    0.1039536            3 
  314000    1.2165413   -2.3650153    381.87994   0.10134818   0.10396589            3 
  315000    1.1869341    -2.356141    383.70649   0.10150965   0.10397476            1 
  316000    1.2213537   -2.3484392    385.05467   0.10154395   0.10398223            1 
  317000    1.2008513   -2.3277293    383.70019   0.10086756   0.10399097            1 
  318000    1.2028625   -2.3706779    386.00241   0.10115367   0.10399873            3 
  319000    1.1934812     -2.36894    387.24537   0.10116128   0.10400612            1 
  320000    1.1956031   -2.3874142    388.74311   0.10123519   0.10401333            2 
  321000    1.2084861   -2.3727818    392.34363   0.10185452   0.10402609            2 
  322000    1.2024441    -2.385349    392.69586   0.10162936   0.10403802            1 
  323000    1.1573318   -2.3539534    392.88716   0.10136408   0.10404649            1 
  324000    1.2056919   -2.3763806    394.96538   0.10158574   0.10405057            2 
  325000    1.1787172   -2.3774532    394.72583   0.10121175   0.10405339            3 
  326000    1.1965743   -2.3569317    397.61102   0.10163881   0.10405579            1 
  327000    1.2152262   -2.3761019    400.46215   0.10205458   0.10406366            3 
  328000    1.2157134   -2.3711892    398.54341   0.10125595   0.10406855            1 
  329000    1.2072522    -2.343315    399.45097   0.10117806   0.10407138            2 
  330000    1.1933004   -2.3873497     400.4285   0.10111831   0.10406978            1 
  331000    1.1782227   -2.3684016    401.85666   0.10117237   0.10406769            1 
  332000    1.1906724   -2.3458937    403.29031   0.10122749   0.10406163            2 
  333000    1.1885382   -2.3616166    402.09928   0.10062545   0.10405533            1 
  334000    1.1916679   -2.3835991    402.42342   0.10040505   0.10405075            2 
  335000     1.203519   -2.3812572    403.75836    0.1004374   0.10404265            2 
  336000     1.221742   -2.3873488    404.35785   0.10028717   0.10403434            2 
  337000     1.181869   -2.3469902    406.98868   0.10064013   0.10402917            2 
  338000    1.2007274   -2.3815957    407.58077   0.10048836   0.10402431            1 
  339000    1.1968319   -2.3714859    411.00578   0.10103387   0.10401565            1 
  340000    1.1870011   -2.3625212    413.27042   0.10129177   0.10401102            1 
  341000     1.168565   -2.4090945    411.03436   0.10044828   0.10400316            1 
  342000    1.2042226   -2.4038936    413.57505   0.10077365   0.10399604            1 
  343000    1.1822645    -2.370918    414.72431   0.10075906   0.10399067            1 
  344000    1.2278255   -2.3867258    415.10049   0.10055729   0.10398557            1 
  345000    1.1900601   -2.3584328      417.805   0.10091908   0.10398282            3 
  346000    1.2200444    -2.394924    419.61719   0.10106387   0.10398161            1 
  347000     1.209996   -2.3854232    421.18495   0.10114912   0.10398196            1 
  348000    1.2064869   -2.3749543    422.98334   0.10128911   0.10398144            2 
  349000    1.1953161   -2.3514156    423.38635   0.10109512   0.10398219            2 
  350000     1.206115   -2.3377095    424.39321     0.101046   0.10398419            2 
  351000    1.1748777   -2.3802578    427.73444   0.10155139   0.10399117            1 
  352000     1.204325   -2.3719378    430.46209   0.10190864   0.10399584            2 
  353000    1.2022604   -2.3914091    429.25611   0.10133525   0.10400301            2 
  354000    1.2029209   -2.3869079     432.1119   0.10172126   0.10400627            1 
  355000    1.2043587   -2.3536156    432.38838   0.10149962   0.10400963            2 
  356000    1.1905804   -2.4134289    434.42144   0.10169041   0.10401543            2 
  357000    1.1879068   -2.3810164    434.44611   0.10141132   0.10402172            3 
  358000    1.2144975   -2.3475728    438.41608   0.10205216   0.10402588            2 
  359000    1.2184819   -2.3796938     436.1713   0.10124682   0.10403302            2 
  360000    1.1920646   -2.3694319    439.08483   0.10164001    0.1040407            2 
  361000    1.2131557   -2.3679705    439.97583   0.10156413   0.10404445            2 
  362000    1.1721486   -2.3850291    439.61471   0.10120044   0.10404956            1 
  363000    1.2152942   -2.3866827    442.32927   0.10154483   0.10405272            2 
  364000    1.1887979   -2.3812495    444.61775   0.10178978   0.10406159            3 
  365000    1.2016352   -2.3787249    445.27952   0.10166199   0.10407091            1 
  366000    1.1894115   -2.3931743    447.09694   0.10179803   0.10407705            1 
  367000     1.188054   -2.3970335    447.44796   0.10160035   0.10408175            1 
  368000    1.1871167    -2.368155    448.55626   0.10157524   0.10408447            2 
  369000    1.2091824   -2.4070577    447.85097   0.10114069   0.10408642            2 
  370000    1.1830874   -2.3653029    452.43406   0.10189956   0.10408805            2 
  371000    1.1972581   -2.3787817    452.68947   0.10168227   0.10408948            1 
  372000    1.1930958   -2.3857277    449.38272   0.10066817   0.10408471            2 
  373000    1.2141269   -2.3533296    453.62105   0.10134518   0.10407792            1 
  374000    1.2218343   -2.3414283      453.686   0.10108868   0.10407436            2 
  375000    1.1823492   -2.3762823    453.96541    0.1008812   0.10406765            1 
  376000    1.1767758   -2.3672933    457.25143   0.10134119   0.10406065            1 
  377000    1.2092323   -2.3575014    454.91438   0.10055579   0.10405517            1 
  378000    1.2040081   -2.3760667    459.89427   0.10138763   0.10404834            1 
  379000    1.1919421    -2.349915    461.33439   0.10143676   0.10404732            1 
  380000    1.1867701    -2.342369     462.4614   0.10141697    0.1040442            1 
  381000    1.2180131   -2.3455281    466.11092   0.10194902   0.10404609            1 
  382000    1.1662347   -2.3505614    463.96344   0.10121366   0.10404676            2 
  383000    1.1816694   -2.3675148      467.721   0.10176697   0.10404654            1 
  384000    1.2021293   -2.3836524    468.18249    0.1016021   0.10404531            1 
  385000    1.1961914   -2.3974398    470.28725   0.10179378   0.10404656            1 
  386000    1.1871282   -2.3853457     469.0609   0.10126531   0.10404898            3 
  387000    1.2042967   -2.4040616    471.57062   0.10154406   0.10405008            2 
  388000    1.1926175    -2.390412    470.82515   0.10112224   0.10405141            3 
  389000    1.2391193   -2.3762609    473.54703   0.10144538   0.10404963            2 
  390000     1.167462   -2.3428284    476.49901   0.10181603   0.10404963            3 
  391000     1.195177   -2.3584004    474.41777   0.10111206   0.10404848            1 
  392000    1.1837503     -2.36844     478.6134   0.10174605   0.10404879            2 
  393000    1.1885737   -2.3800213    477.96353   0.10134935   0.10404532            1 
  394000    1.1734821   -2.3700465    479.81939   0.10148464    0.1040446            1 
  395000     1.216944   -2.3669319    480.98394   0.10147341   0.10404216            2 
  396000    1.1904158   -2.3858907    483.43939   0.10173388   0.10404255            3 
  397000    1.1802803   -2.3802468    483.24886   0.10143763   0.10404281            3 
  398000    1.1870312   -2.3661509    483.49439   0.10123417   0.10404259            2 
  399000    1.1675558   -2.3784488    486.32966   0.10157261   0.10404279            1 
  400000     1.191581   -2.3731544     487.6476   0.10159325    0.1040386            1 
  401000    1.1616678   -2.3989028    487.34276   0.10127655   0.10403778            2 
  402000    1.1809827   -2.3668772      489.311   0.10143263   0.10403426            1 
  403000    1.1899239    -2.364866    491.62142   0.10165869    0.1040306            1 
  404000    1.1917276   -2.3847758    489.52266   0.10097415    0.1040239            3 
  405000    1.2131361   -2.3829525    494.03473   0.10165324   0.10401707            2 
  406000     1.187125   -2.3524758    492.42394   0.10107224   0.10401341            2 
  407000    1.1940695   -2.3792395    493.01059   0.10094402   0.10400787            2 
  408000    1.1831755   -2.3831662     495.6198   0.10122953   0.10399852            2 
  409000    1.1851446   -2.3929571    496.54738   0.10117102   0.10399007            1 
  410000    1.1852143   -2.3760292    499.64322    0.1015535   0.10398376            1 
  411000    1.1762204   -2.3633054     501.7521     0.101734   0.10397649            1 
  412000    1.1703545   -2.3706315    499.74853   0.10108182   0.10396931            2 
  413000    1.1736932   -2.3879129    500.45373   0.10097936   0.10396073            2 
  414000    1.1859381   -2.3692979    502.07908   0.10106262   0.10395038            1 
  415000    1.1836022   -2.3856585     499.8656   0.10037462   0.10393705            3 
  416000    1.2139802   -2.3591109    499.50887   0.10006187   0.10392173            2 
  417000     1.178343   -2.3797674     503.5891   0.10063731   0.10390251            2 
  418000    1.1954844   -2.3805311    499.36426  0.099554278    0.1038799            3 
  419000    1.1573765   -2.3736029    506.61202   0.10075816   0.10385746            2 
  420000    1.1979353   -2.3856326    505.96962    0.1003908   0.10383718            2 
  421000    1.1655794   -2.3702704    507.42783   0.10044098   0.10381936            1 
  422000    1.1568599   -2.3824299    507.21877   0.10016168    0.1038021            1 
  423000    1.1796971   -2.3740298    509.35009   0.10034478   0.10378086            2 
  424000    1.1772901   -2.3974403      511.906   0.10061046   0.10376376            2 
  425000    1.2117396   -2.3805536    508.86024  0.099776518   0.10374286            2 
  426000    1.1820997   -2.3807852    511.90952    0.1001388   0.10372111            1 
  427000     1.194644   -2.3906053    513.62466   0.10023901   0.10370089            1 
  428000    1.1593671    -2.381479    513.80312   0.10003955   0.10367958            3 
  429000    1.1773505   -2.3887703    514.62868  0.099966722   0.10365777            3 
  430000    1.1835853   -2.4113388    517.87443   0.10036326   0.10363682            2 
  431000    1.1888416   -2.3784223    517.15738  0.099991759   0.10361528            4 
  432000    1.2004855   -2.3779343    517.68157  0.099861413   0.10359463            1 
  433000    1.1813588   -2.3669773    521.29132    0.1003255   0.10357605            2 
  434000    1.1620627   -2.3990494     523.0417   0.10043043   0.10355656            1 
  435000    1.1781818   -2.3616324    523.37088   0.10026262   0.10353743            1 
  436000    1.2017815   -2.3813922    522.45392    0.0998574   0.10351873            2 
  437000    1.2073275   -2.3923564     522.8835  0.099710813   0.10349917            1 
  438000    1.1924735   -2.3989177    525.59991  0.099999984   0.10347706            3 
  439000    1.1858208   -2.3891425    524.84179  0.099628282   0.10345491            2 
  440000    1.2002778   -2.3818971    527.95126  0.099990769   0.10343354       -1e+20 
  441000    1.1779807   -2.3777754    526.00579  0.099396407   0.10340965            1 
  442000    1.2121188   -2.3674443    529.28432  0.099789652   0.10338556            1 
  443000    1.1983013   -2.3848969    530.26908  0.099749639   0.10335954            2 
  444000    1.1814263   -2.3821674    532.63601  0.099969221   0.10333375            1 
  445000     1.160472   -2.3950665    531.27457   0.09948962   0.10330734            1 
  446000     1.172746   -2.3933385    533.27029  0.099639441   0.10328123            2 
  447000    1.1797447   -2.3484729    535.13919   0.09976495   0.10325754            3 
  448000    1.1915488   -2.3818844    537.66667    0.1000124   0.10323238            3 
  449000    1.1927564   -2.3850485    537.27491  0.099716946   0.10320488            1 
  450000    1.1682371   -2.3756132    538.36824  0.099697822   0.10317906            1 
  451000     1.168819   -2.3985194    539.91456  0.099762483   0.10315297            2 
  452000    1.1620777   -2.3829456    539.73723  0.099509075   0.10312935            2 
  453000    1.1852358   -2.3926812    539.30257  0.099209449   0.10310574            1 
  454000     1.181083   -2.3873137    540.15525  0.099147439    0.1030809            2 
  455000    1.1694846   -2.3818516    545.25781  0.099864067   0.10305847            1 
  456000    1.1837173   -2.3605617    549.37453   0.10039739   0.10303742            1 
  457000    1.1778046   -2.3952992    547.28493  0.099796668   0.10301545            2 
  458000    1.1999636   -2.4093058    544.75905  0.099119186   0.10299364            1 
  459000    1.1861262   -2.3978046    548.17222  0.099522916   0.10297059            1 
  460000    1.1620243   -2.4229094    547.64436  0.099210935   0.10294902            2 
  461000    1.1798307   -2.3949959    551.37221  0.099669597   0.10292754            2 
  462000    1.1404597   -2.4088777    551.00411  0.099387466   0.10290613            2 
  463000    1.1663224   -2.4073643    552.10436  0.099370835   0.10288298            2 
  464000    1.1523521   -2.3679835    557.27867   0.10008597   0.10286466            1 
  465000    1.1666067   -2.4235237    556.42522  0.099717782   0.10284623            2 
  466000    1.1883989   -2.4016362    559.23412    0.1000061   0.10282827            2 
  467000    1.2024017   -2.3947937    557.45501  0.099474484   0.10281114            1 
  468000    1.1930577   -2.3662701    561.65406   0.10000963   0.10279375            2 
  469000    1.1568999   -2.4019996     561.5346   0.09977516   0.10277674            5 
  470000    1.1812262   -2.3791771    564.15121   0.10002681   0.10276041            4 
  471000    1.1684675   -2.3697679    563.74827  0.099743148   0.10274227            2 
  472000    1.1691684   -2.3756385    565.14942  0.099779206    0.1027259            1 
  473000    1.1837374   -2.3910928    562.60085  0.099119247   0.10270867            1 
  474000    1.1674913   -2.4196423    568.20666  0.099895686   0.10269219            1 
  475000    1.1702205   -2.4131741    569.06995  0.099836833   0.10267511            1 
  476000    1.1725523   -2.3980755    569.76695  0.099749116   0.10265957            2 
  477000    1.1756043   -2.3887735    572.02116  0.099933816   0.10264328            3 
  478000    1.1799312   -2.3776955    573.01347  0.099897747   0.10262836            2 
  479000    1.1810275   -2.4002937    575.26395   0.10008071   0.10261159            2 
  480000    1.1581696   -2.3748674    575.69025  0.099946225   0.10259494            2 
  481000    1.1722711   -2.3911203    575.71101  0.099742032   0.10257815            1 
  482000    1.1863238   -2.3756385    576.97566  0.099753745   0.10256156            2 
  483000    1.1642563    -2.396948    576.74866   0.09950805   0.10254352            1 
  484000    1.1870655   -2.3879565    579.51151  0.099778152   0.10252712            2 
  485000    1.1947039    -2.384872    579.81006  0.099623721   0.10250922            1 
  486000    1.1858347   -2.3990147    582.45848  0.099872853   0.10249293            1 
  487000    1.1757718   -2.3735296    582.57909  0.099688414   0.10247874       -1e+20 
  488000    1.1538137   -2.3854015    584.44397  0.099802591   0.10246179            3 
  489000     1.159842   -2.4111099    583.70859  0.099473175   0.10244575            2 
  490000    1.1769484   -2.4052394    584.73312  0.099444408   0.10242861            1 
  491000    1.1704055   -2.4054035    588.06468  0.099807312   0.10241275            2 
  492000    1.1729094   -2.3818076    587.99734  0.099593045   0.10239505            2 
  493000    1.2292818   -2.4062058    590.82716  0.099869364    0.1023817            3 
  494000    1.1654155   -2.4067885    588.28845  0.099238942   0.10236758            3 
  495000    1.1779009   -2.3802614    593.33707  0.099888395   0.10235366            2 
  496000    1.1587579   -2.3864146     593.3506   0.09968928   0.10233953            1 
  497000    1.1665565    -2.397895    593.21418  0.099465825   0.10232494            2 
  498000    1.1548707   -2.3758766    597.19575  0.099932355   0.10231063            1 
  499000    1.1715807   -2.3762209    594.91346  0.099350944   0.10229511            1 
  500000    1.1892832   -2.4015376     600.0223   0.10000372   0.10228105            1 
  501000    1.1606664    -2.374162    598.74042  0.099590888   0.10226531            3 
  502000     1.138563   -2.4087497    596.62803  0.099041838   0.10224707            1 
  503000    1.1899666   -2.3804452    598.87845  0.099217769   0.10222687            1 
  504000     1.157834   -2.3930711    600.89094  0.099353661    0.1022102            2 
  505000    1.1685869   -2.4032923    600.13042  0.099031423   0.10219143            3 
  506000    1.1464662   -2.3838434    603.41574  0.099376769   0.10217397            1 
  507000    1.2023925   -2.4101706    603.16344   0.09913929    0.1021568            2 
  508000    1.1631597   -2.4091655    604.76885  0.099207488   0.10213778            2 
  509000    1.1803196   -2.4038247    605.88493  0.099195306   0.10212203            1 
  510000    1.1607551   -2.3951498    608.17537   0.09937506   0.10210323            3 
  511000    1.1843889   -2.3578346    610.56631  0.099570501   0.10208693            3 
  512000    1.1636046   -2.3834617    608.91566  0.099107367   0.10206933            1 
  513000    1.1704891   -2.3921229    610.41656  0.099157985   0.10205109            2 
  514000    1.1769212   -2.4083397    610.70972  0.099012601   0.10203368            2 
  515000    1.1731707   -2.4100126    610.86782  0.098845925   0.10201388            1 
  516000    1.1585444   -2.4115475    614.07859  0.099172899   0.10199308            1 
  517000    1.1729303   -2.3978509    617.19702  0.099483723   0.10197463            1 
  518000    1.1629406   -2.3845201    618.23256  0.099458262   0.10195608            2 
  519000    1.1804671   -2.4230178    615.90595  0.098893055   0.10193366            2 
  520000    1.1727696   -2.3952831    618.73021  0.099155482   0.10191334            1 
  521000    1.1502163   -2.4019029    617.46599  0.098762954   0.10189341            1 
  522000    1.1819128   -2.3951587     619.9185  0.098965278   0.10187316            2 
  523000    1.1510713   -2.4089217    623.74353  0.099385521   0.10185309            4 
  524000    1.1654842   -2.4030498    624.09639  0.099251971   0.10183623            2 
  525000    1.1693955   -2.3975185    625.27631  0.099250208    0.1018198            4 
  526000    1.1773757   -2.4033465    627.15659  0.099359409   0.10180467            1 
  527000    1.1850323   -2.3987115    628.71692  0.099417603   0.10179102            2 
  528000    1.1617893   -2.3892262    628.69718  0.099226197   0.10177701            1 
  529000    1.1600814   -2.3917616    632.05742  0.099567961   0.10176264            2 
  530000    1.1802801   -2.4089622    632.26705  0.099413058   0.10174878            1 
  531000    1.1763618   -2.3976773     633.7712  0.099461895   0.10173501            2 
  532000    1.1896716   -2.4030047    633.92443   0.09929894   0.10172016            1 
  533000    1.1762222   -2.3935039    632.87012  0.098947798   0.10170396            1 
  534000    1.1712566   -2.4087914    635.67933  0.099200893   0.10168779            4 
  535000    1.1453954   -2.3883983    636.67738  0.099170931   0.10166956            1 
  536000    1.1761335   -2.4212653    637.75133   0.09915288   0.10165052            5 
  537000    1.2035252   -2.4526987    637.56918  0.098939971   0.10163187            1 
  538000    1.1763917   -2.3729396    640.24411  0.099170402   0.10161245            2 
  539000    1.1788472    -2.398954    640.19866  0.098979384   0.10159454            1 
  540000    1.1671073   -2.3883863     643.1089    0.0992452   0.10157518            1 
  541000    1.1764652     -2.38191    644.54403  0.099282815   0.10155755            2 
  542000    1.1463633   -2.3736632    643.70326  0.098970365   0.10154216            2 
  543000    1.1828108   -2.3891162    646.92774  0.099282955   0.10152559            1 
  544000    1.1552572   -2.3934681    644.08056  0.098664301   0.10151027            2 
  545000     1.159983   -2.4447593    645.19971  0.098654389   0.10149415            2 
  546000    1.1848192   -2.4247106    647.69604  0.098854707   0.10147628            1 
  547000    1.1658914   -2.3959502    647.68862  0.098672854   0.10146111            1 
  548000    1.1468696   -2.4197737    654.26193  0.099492385   0.10144652            2 
  549000    1.1445645   -2.3989305    654.36972  0.099327523   0.10143117            1 
  550000    1.1940422     -2.39468    653.58508  0.099028043   0.10141661            1 
  551000    1.1717629    -2.408991    660.70501  0.099925137   0.10140505       -1e+20 
  552000    1.1584725   -2.4095663    658.92687  0.099475675   0.10139344            2 
  553000    1.1593783   -2.3949027    659.64336  0.099403761   0.10138149            1 
  554000    1.1577819   -2.3936471    657.72872  0.098936329    0.1013706            2 
  555000    1.1750052   -2.4167981    664.65616  0.099798222   0.10136085            2 
  556000    1.1758916   -2.4095965    664.37482  0.099576562   0.10135055            2 
  557000      1.18391   -2.3911632    664.44157  0.099407775   0.10133911            2 
  558000    1.1624627   -2.3987466    667.61259  0.099703195   0.10133073            3 
  559000    1.1845703   -2.3952402    669.63853  0.099826853   0.10132247            2 
  560000    1.1620561    -2.393057    670.25789  0.099740757    0.1013143            1 
  561000    1.1928656   -2.4042956    668.78381     0.099344   0.10130495            1 
  562000    1.1429536   -2.3949661    670.51116  0.099423363   0.10129547            4 
  563000    1.1628366   -2.4130582    671.57086  0.099403621   0.10128507            1 
  564000    1.1472176   -2.3769116    674.20569   0.09961668   0.10127564            1 
  565000    1.1634778   -2.4033667    671.75962   0.09907959   0.10126718            2 
  566000    1.1428416   -2.4176007    675.76291  0.099493951   0.10125749            2 
  567000    1.1397788   -2.4156715    677.50511  0.099574532   0.10124786            1 
  568000    1.1423218   -2.4145923    678.29428  0.099515007   0.10123911            2 
  569000    1.1637444   -2.4055602    678.92887  0.099433051    0.1012277            2 
  570000    1.1669802   -2.3822895    681.02533  0.099565107   0.10121602            2 
  571000     1.157312   -2.4082614    677.39388  0.098860753   0.10120479            1 
  572000    1.1616325   -2.4096456    681.43744  0.099277016   0.10119353            2 
  573000     1.131658   -2.4293226    682.17676  0.099211279   0.10118226            3 
  574000    1.1589048   -2.4052398    688.71984  0.099988363   0.10117264            1 
  575000    1.1694359   -2.4377497    686.88174  0.099548078   0.10116365            1 
  576000    1.1767778   -2.3945454    689.79087  0.099796132   0.10115477            3 
  577000    1.1616457   -2.3888403    687.74585  0.099327824   0.10114763            2 
  578000     1.153722   -2.4090785     690.8222  0.099599509   0.10113912            1 
  579000    1.1597215   -2.4294611    692.88572  0.099724485   0.10113017            1 
  580000    1.1702592   -2.3824538    693.83822    0.0996894   0.10112052            2 
  581000    1.1619264   -2.4184807    693.53087  0.099473733   0.10111071            1 
  582000    1.1520634   -2.4251343    693.44263  0.099290182   0.10110111            3 
  583000    1.1412955   -2.4068311    695.74639  0.099449169   0.10109124            3 
  584000    1.1587978   -2.4270352    694.54672  0.099107694   0.10108087            4 
  585000    1.1502516   -2.3841905    696.64792  0.099237596   0.10107313            2 
  586000    1.1690454   -2.4108798    696.00517  0.098976845   0.10106532            2 
  587000    1.1444868   -2.3824782    699.24693  0.099268446   0.10105601            1 
  588000    1.1931069   -2.4138415    703.33058  0.099678371    0.1010478            3 
  589000    1.1548136   -2.4423515    702.85059  0.099441227   0.10103843            1 
  590000    1.1730908   -2.4290347    705.92589  0.099707047   0.10103102            3 
  591000    1.1905983   -2.3937011    704.99827  0.099407539    0.1010226            2 
  592000    1.1724648   -2.4004577    706.57614  0.099461731   0.10101469            1 
  593000    1.1646137   -2.3896691    708.99303  0.099633646   0.10100614            1 
  594000    1.1749343   -2.4062766    705.34879  0.098954656   0.10099583            2 
  595000    1.1363452   -2.4108811     711.4984  0.099649635   0.10098683            2 
  596000    1.1435302   -2.4205984    708.89626  0.099118604   0.10097702            1 
  597000      1.12775   -2.4193253    713.84403   0.09964322   0.10096694            1 
  598000    1.1426994   -2.4408775    712.13231  0.099238058   0.10095598            1 
  599000    1.1354758   -2.4191458    712.80669  0.099166206   0.10094598            3 
  600000    1.1411147   -2.4101667    711.63854  0.098838686   0.10093569            2 
  601000    1.1636982    -2.389095    714.77001  0.099108432    0.1009241            3 
  602000    1.1450285   -2.3944938    716.98096  0.099249856   0.10091299            1 
  603000     1.139275   -2.4320382    716.74714  0.099052948   0.10090101            2 
  604000     1.150455   -2.4332265    718.67114  0.099154407   0.10088969            2 
  605000    1.1507492     -2.39213    718.53534   0.09897181   0.10087897            1 
  606000    1.1466686   -2.4576668    718.61466  0.098819398   0.10086525            1 
  607000    1.1414451   -2.4149353    721.03783  0.098989269   0.10085262            2 
  608000    1.1527808   -2.4377252    723.18622  0.099120919   0.10084042            2 
  609000      1.16319   -2.4229077    722.16864  0.098818916   0.10082703            2 
  610000    1.1429177   -2.4041893    722.04262  0.098639702   0.10081472            1 
  611000    1.1583677   -2.4247699    723.40382  0.098663914   0.10080216            3 
  612000    1.1437299   -2.3827531    725.68516  0.098813339   0.10078806            1 
  613000    1.1520617   -2.4329633    724.93463  0.098550112   0.10077443            2 
  614000     1.139804   -2.3919692    728.37483  0.098856519   0.10076113            1 
  615000    1.1448476   -2.4154282    727.64133  0.098596386   0.10074801            2 
  616000    1.1555757    -2.409569    727.83047  0.098461914   0.10073269            1 
  617000     1.154038   -2.4310811    731.95509  0.098859412   0.10071847            1 
  618000    1.1590397   -2.3928912    730.32411  0.098479518   0.10070477            2 
  619000    1.1332733    -2.433473    731.46027   0.09847338   0.10069136            1 
  620000    1.1622787   -2.4041038    734.00586  0.098656702    0.1006777            1 
  621000     1.138216   -2.4305818    731.46312  0.098156619    0.1006647       -1e+20 
  622000    1.1452891   -2.4028541    735.92577  0.098596699   0.10065143            2 
  623000    1.1568944    -2.442062    739.53014  0.098920564   0.10063657            2 
  624000    1.1429973   -2.4232782    737.68526   0.09851566   0.10062265            1 
  625000    1.1662951   -2.4561061      737.227  0.098296933   0.10061047            2 
  626000    1.1652756   -2.3980494    740.67756  0.098599249   0.10059827            1 
  627000    1.1770448   -2.4078349    744.36403  0.098931955   0.10058514            1 
  628000    1.1582953   -2.4054768    746.10931  0.099006012   0.10057263            3 
  629000    1.1602145   -2.4293856    742.40973  0.098358469   0.10056101            1 
  630000    1.1572936    -2.415259     747.9458   0.09893463   0.10054901            1 
  631000    1.1421364   -2.4083927    750.47051  0.099111266   0.10053801            1 
  632000    1.1330402   -2.4349318    746.23353  0.098395772   0.10052705            2 
  633000    1.1684077   -2.3993891    754.82487  0.099371362   0.10051703            1 
  634000    1.1527166   -2.4173333    752.86336  0.098956803   0.10050715            2 
  635000    1.1427477   -2.4049493    754.64929   0.09903534   0.10049669            3 
  636000    1.1470863   -2.3947632    753.19751  0.098689401   0.10048609            2 
  637000    1.1405371    -2.396811    756.98745  0.099030279   0.10047538            4 
  638000    1.1335284    -2.420001    753.87812  0.098468929   0.10046345            1 
  639000    1.1130164   -2.4219277    754.31484  0.098371784   0.10045237            2 
  640000    1.1525051   -2.4067464    757.98703  0.098696227   0.10043949            2 
  641000    1.1422659   -2.4418053     760.0757  0.098813793   0.10042698            4 
  642000    1.1565662   -2.3966791    761.17758  0.098802905   0.10041562            3 
  643000     1.143669   -2.4134037    763.12085  0.098901094    0.1004032            1 
  644000    1.1275913   -2.4137184    763.57349  0.098806093   0.10039196            1 
  645000    1.1511707   -2.4175042    766.78631  0.099067998   0.10038118            1 
  646000    1.1443882   -2.4323652    762.49532   0.09836111   0.10037005            5 
  647000    1.1416644   -2.4152635    763.88856  0.098388532    0.1003588            1 
  648000    1.1435949   -2.4037351    766.53761  0.098577367   0.10034659            2 
  649000    1.1372997   -2.3989457    768.96577  0.098737258   0.10033466            1 
  650000    1.1491966   -2.4041148    771.30627  0.098885419   0.10032386            2 
  651000    1.1528495   -2.4463045    769.57231  0.098511561    0.1003141            1 
  652000    1.1664296   -2.3937277    775.84497  0.099162189   0.10030401            2 
  653000    1.1408479   -2.4408025    773.32879  0.098689228   0.10029446            2 
  654000    1.1769236   -2.3872669    777.22109  0.099034288   0.10028401            2 
  655000    1.1172021   -2.4171531    777.86191  0.098964619   0.10027413            1 
  656000    1.1585409   -2.4234784     778.7539   0.09892707   0.10026495            3 
  657000    1.1455992   -2.4228611     778.0655   0.09868918    0.1002547            1 
  658000    1.1288606   -2.4090733    779.79545  0.098758289   0.10024524            1 
  659000    1.1692441   -2.4554464    782.01452  0.098889038   0.10023818            1 
  660000    1.1748315   -2.4134088    781.59589   0.09868635      0.10023            1 
  661000    1.1524226   -2.4448636    783.25489  0.098746204   0.10022235            1 
  662000    1.1383587   -2.4392256    788.42396  0.099247729     0.100217            1 
  663000    1.1431835   -2.4319903    788.81081  0.099146658   0.10020999            2 
  664000    1.1632017   -2.4329082    790.39468  0.099196119   0.10020263            1 
  665000    1.1353321   -2.4066277    788.51562  0.098811481   0.10019341            4 
  666000    1.1437843   -2.4267327    790.48289   0.09890927   0.10018677            2 
  667000    1.1300809   -2.4305449    793.37312  0.099122079    0.1001789            1 
  668000    1.1380901   -2.4237789    794.98632  0.099174941   0.10017101            1 
  669000    1.1137735   -2.4100302    797.34948  0.099321062   0.10016331            1 
  670000     1.123264   -2.4312195     792.5798  0.098579577   0.10015484            1 
  671000    1.1569181   -2.4472457    797.02191   0.09898434   0.10014656            3 
  672000    1.1335314   -2.4126818    796.08596  0.098720977   0.10013892            2 
  673000     1.164639   -2.4180696    798.53125  0.098877074   0.10013089            2 
  674000    1.1465011   -2.4109988    800.90752  0.099024174    0.1001235            1 
  675000     1.148628   -2.4383728    798.58406  0.098590625   0.10011596            2 
  676000    1.1464485   -2.4348004      806.475  0.099417529   0.10010739            1 
  677000    1.1381742   -2.4125597    801.86239  0.098702904   0.10009943            3 
  678000    1.1294308   -2.3931999    808.05641  0.099318635   0.10009183            1 
  679000    1.1226971   -2.4199089    805.70829  0.098884179   0.10008417            2 
  680000    1.1314066   -2.4176303     805.2425  0.098681678   0.10007546            4 
  681000     1.130172   -2.4200943    805.28065  0.098541441   0.10006702            2 
  682000    1.1294571   -2.4318747    808.10604  0.098742185   0.10005731            2 
  683000    1.1697312   -2.4358347    807.91836  0.098574715   0.10004877            1 
  684000     1.145196   -2.4459659    807.74374  0.098409325   0.10003987            4 
  685000    1.1451161   -2.4692698    805.74389  0.098022371   0.10003027            1 
  686000    1.1321755   -2.4667661    808.41992  0.098204558   0.10001916            2 
  687000    1.1112409   -2.4185574    811.88244  0.098481616   0.10000767            2 
  688000    1.1625875    -2.410959     816.4774  0.098895033  0.099996277            3 
  689000    1.1290525    -2.441378    813.60089  0.098403591  0.099985854            2 
  690000    1.1447204   -2.3939847    813.47849  0.098246194  0.099975657            2 
  691000    1.1440834   -2.4128297    816.16448   0.09842794  0.099965625            1 
  692000    1.1251207   -2.4107496    820.51275  0.098809338  0.099954692            2 
  693000    1.1358291   -2.4173513    817.12228  0.098259053  0.099944495            1 
  694000    1.1614046   -2.4357341    818.72579  0.098310013  0.099933201            1 
  695000    1.1211575   -2.4373716     824.1071  0.098813801  0.099922374            2 
  696000     1.147488   -2.4392914    822.64653   0.09849695  0.099910713            2 
  697000    1.1248017   -2.4464572    821.22168  0.098185279  0.099899941            3 
  698000    1.1206244   -2.4318204    825.61258  0.098568837  0.099890083            1 
  699000    1.1299843    -2.423773    825.74529  0.098443645  0.099879871            2 
  700000    1.1106227   -2.4024965    828.87123  0.098675146  0.099872467            2 
  701000    1.1584754   -2.4242741    828.91992  0.098540171  0.099863649            2 
  702000    1.1443386   -2.4192241    829.36597   0.09845275  0.099854698            2 
  703000    1.1390931   -2.4285131    829.53805  0.098333102  0.099845718            2 
  704000    1.1590566   -2.4233766    831.48144  0.098423466  0.099836028            1 
  705000    1.1477157   -2.4682194    828.95578  0.097985317  0.099826444            2 
  706000     1.148909   -2.4207054    838.31505  0.098951257  0.099818517            1 
  707000    1.1464069   -2.4313594    837.89432  0.098761706  0.099809682            3 
  708000    1.1581044    -2.440696     836.5046  0.098458639  0.099800353            2 
  709000    1.1235212   -2.4121441     839.1147  0.098626552  0.099790349            5 
  710000    1.1474141   -2.4240864    840.84219  0.098690398   0.09978026            2 
  711000    1.1365045   -2.4103746    838.68982  0.098299323   0.09976981            1 
  712000    1.1438423   -2.4311046    837.65554  0.098040208  0.099759398            1 
  713000    1.1550571   -2.4259996    841.13589  0.098309478  0.099748757            1 
  714000    1.1352549   -2.4609679    838.77263  0.097895965  0.099737429            2 
  715000    1.1304154   -2.4172942    843.69298  0.098332515   0.09972584            1 
  716000     1.143711    -2.419983    841.05666  0.097888345  0.099713766            3 
  717000    1.1563154   -2.4392128    842.88607  0.097964443  0.099701685            1 
  718000    1.1089238   -2.4514337    837.14953  0.097162202  0.099688916            3 
  719000    1.1657732   -2.4638101    844.84104  0.097918525   0.09967562            2 
  720000     1.144293    -2.441193    849.52218  0.098324326  0.099662659            2 
  721000    1.1246783   -2.4168562    849.06381  0.098134976   0.09965182            2 
  722000    1.1329634   -2.4491064    848.35627   0.09791739  0.099640036            2 
  723000    1.1580571   -2.4380055    853.71738  0.098399882  0.099629119            2 
  724000     1.126844   -2.4372687    852.32728  0.098103968  0.099618817            1 
  725000    1.1259367   -2.4234709    854.67612  0.098238634   0.09960776            3 
  726000    1.0938752   -2.4328356    852.76262   0.09788368   0.09959744            1 
  727000    1.1308635    -2.441225    856.32309  0.098157163  0.099588153            2 
  728000    1.1256912    -2.448161    856.78831  0.098075584  0.099580163            4 
  729000    1.1285894   -2.4332981    863.86671  0.098750196   0.09957128            1 
  730000    1.1484387   -2.4353147    860.27358  0.098204746  0.099563136            1 
  731000     1.151012   -2.4587036    860.34715  0.098078791  0.099553516            1 
  732000    1.1237382   -2.4254815    863.68059  0.098324293   0.09954443            1 
  733000    1.1256824   -2.4221302    864.02013  0.098228755  0.099534667            1 
  734000    1.1133825   -2.4347134    865.91563  0.098310131  0.099525332            1 
  735000    1.1303429   -2.4266807    863.17798  0.097865984  0.099516466            1 
  736000    1.1445097    -2.442105    866.13353  0.098067655  0.099505921            4 
  737000    1.1211279   -2.4567941    868.49361  0.098201449  0.099495574            2 
  738000     1.111801   -2.4199095    871.13701  0.098366871  0.099488328            1 
  739000    1.1435157   -2.4229287    871.67377   0.09829429  0.099480978            2 
  740000    1.1192314   -2.4440039    871.03862  0.098089934  0.099472138            1 
  741000    1.1807162   -2.4393423     871.9496  0.098060009  0.099462049            2 
  742000    1.1062978   -2.4534125    872.70401   0.09801258  0.099453447            2 
  743000    1.1365369   -2.4564726    876.24736   0.09827808  0.099444446            2 
  744000    1.1182991   -2.4460091    877.44004  0.098279575  0.099434466            1 
  745000    1.1221627   -2.4260739    879.02695  0.098325162  0.099424787            2 
  746000    1.1363957   -2.4541928    879.17923   0.09821037  0.099415672            1 
  747000    1.1343461   -2.4379071     875.3019  0.097646352  0.099406663            3 
  748000    1.1275865   -2.4013914    883.21045  0.098396886  0.099396098            1 
  749000    1.1338797   -2.4433486    881.26651  0.098049233  0.099385549            1 
  750000    1.1078559   -2.4363587    884.43354  0.098270393  0.099376709            1 
  751000    1.1351569    -2.438542    881.60331   0.09782549  0.099367162            3 
  752000    1.1485645   -2.4339034    887.43781  0.098341956  0.099357392            1 
  753000    1.1274818   -2.4269556    884.83368  0.097923161  0.099347993            3 
  754000    1.1399359   -2.4478218    888.45906  0.098193972  0.099338302            1 
  755000    1.1401187   -2.4458208    886.28974  0.097824474   0.09932742            3 
  756000    1.1084853   -2.4563676    891.28067  0.098245224  0.099315887            1 
  757000    1.1410415    -2.418659    892.38192  0.098236671  0.099305416            2 
  758000    1.1182264    -2.445288    890.70601  0.097922824  0.099293753            2 
  759000    1.1243358    -2.445922    889.38765  0.097649061  0.099283464            1 
  760000     1.121426   -2.4298322    896.59494  0.098310848  0.099272017            2 
  761000    1.1262661   -2.4304489    894.94797  0.098001311   0.09926007            2 
  762000    1.1341238   -2.4356704    895.74248  0.097959589  0.099248497            1 
  763000    1.1353181   -2.4214081    893.02398  0.097534292  0.099236272            1 
  764000     1.112192   -2.4529402    892.70402   0.09737173  0.099223561            2 
  765000    1.1199865   -2.4354738    892.31691  0.097202278  0.099210418            1 
  766000    1.1439059   -2.4462136    895.55654  0.097427822  0.099197643            1 
  767000    1.1209474   -2.4460185    897.44526  0.097506003  0.099185204            3 
  768000    1.1067256   -2.4507376    894.44354  0.097053336   0.09917137            4 
  769000     1.131022   -2.4532625     900.3751  0.097569907  0.099157777            1 
  770000    1.1360174   -2.4410183    901.06626  0.097517993  0.099143536            2 
  771000    1.1223718   -2.4436514    899.17615  0.097187219  0.099129843            1 
  772000    1.1385624   -2.4515422     904.5241  0.097638612  0.099115667            3 
  773000    1.1338276   -2.4365501    898.95955  0.096912414  0.099102277            2 
  774000    1.1178151   -2.4465012    902.97167  0.097219172  0.099088705            2 
  775000    1.1366826   -2.4331899     903.9151  0.097195172  0.099074658            1 
  776000    1.1307848   -2.4655488    907.89968  0.097497818  0.099060519            1 
  777000    1.1405596   -2.4534874    908.75672  0.097464256  0.099047734            1 
  778000    1.1090378   -2.4584117    903.48854  0.096774693  0.099033764            2 
  779000    1.1082884   -2.4824577    909.07352  0.097247916  0.099020334            2 
  780000    1.1552739   -2.4320409    911.31337  0.097362539  0.099007689            1 
  781000    1.1663826   -2.4027131    911.44603   0.09725203  0.098995629            1 
  782000    1.1248282   -2.4722662    917.08802  0.097728903  0.098983991            3 
  783000    1.1299701   -2.4787305    910.98457  0.096954509  0.098971107            1 
  784000    1.1535933   -2.4509182    915.32076  0.097291747  0.098960336            8 
  785000    1.1232671   -2.4478064    919.67514  0.097630057  0.098948827            2 
  786000    1.1445262   -2.4524974    917.49723   0.09727494  0.098937499            1 
  787000     1.123705   -2.4256575    922.24453  0.097654016  0.098926054            1 
  788000    1.1468757   -2.4615141    916.18023  0.096888772  0.098913754            5 
  789000    1.1152417   -2.4550482     928.0789  0.098022698  0.098901563            1 
  790000     1.119681   -2.4665729    920.31728  0.097079881  0.098888595            1 
  791000    1.1177706   -2.4436161    924.05343  0.097350761  0.098875673            4 
  792000    1.1169434   -2.4492309    924.87919  0.097314729  0.098863238            3 
  793000    1.1060296   -2.4315925    927.37775  0.097454577  0.098851208            1 
  794000    1.1238249   -2.4353177    926.46868  0.097236427  0.098839868            2 
  795000    1.1156853    -2.436238    930.57002  0.097544027  0.098828898            3 
  796000    1.1409876   -2.4739419    928.92032  0.097248777  0.098816347            1 
  797000    1.1353654   -2.4338557     934.4716  0.097707193  0.098805093            1 
  798000    1.1310893   -2.4944261     928.9767  0.097010934  0.098794032            1 
  799000     1.150306   -2.4398991     930.6968   0.09706892  0.098782353            1 
  800000    1.1014497   -2.4417473    935.68018  0.097466685  0.098770386            2 
  801000    1.1282721   -2.4728304    933.76254    0.0971455  0.098758333            3 
  802000    1.1417816   -2.4469048    937.44026  0.097406511  0.098745415            1 
  803000    1.1617724   -2.4108777    941.77497  0.097735053   0.09873367            4 
  804000      1.12313   -2.4683756    940.92636  0.097525535  0.098721537            2 
  805000    1.1338398   -2.4689633    938.66722  0.097170519  0.098707717       -1e+20 
  806000    1.1136972   -2.4618993    938.55593  0.097038454  0.098694608            2 
  807000    1.1007842   -2.4358836     941.8491  0.097258271  0.098682428            2 
  808000    1.1059317    -2.480532    940.84063  0.097033893  0.098669146            2 
  809000    1.1295848   -2.4510261    943.79841  0.097218625  0.098656159            3 
  810000    1.1221248   -2.4543131    938.85105  0.096589614  0.098643872            1 
  811000    1.1147309   -2.4216613    944.29372  0.097029769  0.098630981            2 
  812000    1.1237182   -2.4426787    942.17491  0.096692827  0.098618776            1 
  813000     1.159091   -2.4263542    949.80576  0.097356064  0.098606125            3 
  814000    1.1334413    -2.464887    947.38684  0.096988825  0.098592732            1 
  815000    1.1197816   -2.4397714    947.97867  0.096930335  0.098579235            2 
  816000     1.124475     -2.44908    950.23544  0.097042018  0.098565348            1 
  817000    1.1280878   -2.4396663    950.42903  0.096942986  0.098551903            2 
  818000    1.1215998   -2.4705147    950.54825  0.096836619  0.098537747            1 
  819000    1.1314639   -2.4596275    949.52945  0.096614718  0.098524786            1 
  820000    1.1111575    -2.436087    957.07751  0.097263974  0.098510971            2 
  821000    1.1483119   -2.4522911     953.3597  0.096768138  0.098496941            1 
  822000    1.1509421   -2.4489913    954.37889   0.09675374  0.098483212            1 
  823000    1.1096413   -2.4471015    956.42869  0.096843732  0.098468413            4 
  824000    1.1126927   -2.4554764     959.4171  0.097028428  0.098454173            1 
  825000    1.1264653   -2.4634422     955.5227  0.096517444  0.098439312            3 
  826000     1.113514   -2.4420396    957.88675  0.096639099  0.098424454            1 
  827000    1.1195568   -2.4560872    959.64189  0.096699102  0.098410583            1 
  828000    1.1186017   -2.4802475    958.76223  0.096493783  0.098396273            2 
  829000    1.1228012   -2.4658064     960.8293  0.096585173  0.098381305            1 
  830000    1.1089558   -2.4388968    963.21339  0.096708172  0.098368537            1 
  831000    1.1098053   -2.4444853    965.73566  0.096844731  0.098354494            1 
  832000    1.1494296   -2.4395092      968.733  0.097028545  0.098342009            2 
  833000    1.1118315    -2.458422    966.77875  0.096716561  0.098328637            1 
  834000    1.0967423   -2.4548041     966.7884  0.096601558  0.098314502            4 
  835000    1.1257932   -2.4608787    964.31565  0.096239087  0.098300516            3 
  836000    1.1320002   -2.4580246    969.58568   0.09664929   0.09828613            1 
  837000    1.1024013   -2.4610527    973.89306   0.09696267  0.098272125            1 
  838000    1.1161157   -2.4615521    971.85268  0.096644061  0.098257724            1 
  839000    1.1145705    -2.441035    974.90985  0.096832524  0.098243067            4 
  840000    1.1254496   -2.4253676    975.08616  0.096734738  0.098228028            2 
  841000    1.1341851    -2.469692    972.52093   0.09636553  0.098212103            1 
  842000     1.142015    -2.453978    975.19216  0.096515455  0.098195102            1 
  843000    1.1326253   -2.4437251    971.82653  0.096068261  0.098179343            2 
  844000    1.1023687   -2.4582745    971.47943  0.095920165  0.098162913            2 
  845000    1.1159868   -2.4606103    972.75196  0.095932146  0.098147044            2 
  846000    1.1002926   -2.4451596    975.66934  0.096106121  0.098130655            2 
  847000    1.0850438   -2.4753304    983.08442  0.096722198  0.098114976            2 
  848000    1.1199496   -2.4604139    979.96786  0.096301873  0.098098016            1 
  849000    1.1588701   -2.4627547    979.06865  0.096100182  0.098080675            1 
  850000    1.1102559   -2.4380797    978.50487   0.09593185  0.098063469            2 
  851000    1.0964116   -2.4562732    977.57733  0.095728293  0.098045045            2 
  852000    1.1025419   -2.4645063    980.55796  0.095907469  0.098027544            4 
  853000    1.1046204    -2.450681    984.60352  0.096190262  0.098010903            2 
  854000    1.0976459   -2.4840333    982.54708  0.095876959  0.097994601            1 
  855000    1.1088502    -2.450289     987.0077  0.096199581  0.097978121            1 
  856000    1.1279436   -2.4582876     984.6509  0.095857759    0.0979614            1 
  857000    1.0965703   -2.4262772    988.62889   0.09613272  0.097944895            1 
  858000    1.1316595   -2.4355237    993.28318  0.096472725  0.097929692            1 
  859000    1.0959781   -2.4474767    987.88315  0.095836549  0.097913251            2 
  860000    1.1144676   -2.4397113    987.50857  0.095688815  0.097897071            2 
  861000    1.1254077   -2.4555431     984.9613  0.095331136  0.097880831            1 
  862000    1.1007006   -2.4606708     992.1836  0.095918755  0.097864637            2 
  863000    1.1160252   -2.4445315    997.59337  0.096329989  0.097849074            4 
  864000    1.1285802   -2.4674759    995.52584  0.096019081    0.0978333            1 
  865000    1.1026364   -2.4869539    1000.4012  0.096377762  0.097818837            2 
  866000    1.1389921   -2.4371982    999.81485  0.096210051  0.097804719            1 
  867000    1.1221256   -2.4842773    997.86599  0.095911764    0.0977893            5 
  868000    1.1040536   -2.4555823    999.32081  0.095940938  0.097774231            1 
  869000    1.1069051   -2.4556391    1002.5894  0.096143975   0.09775925            1 
  870000     1.126819   -2.4594667    1002.8285   0.09605637  0.097744223            2 
  871000    1.1444889   -2.4609746    1000.7847  0.095750545  0.097728803            1 
  872000    1.1108635   -2.4561281    1007.7768  0.096308949  0.097714783            2 
  873000    1.1291657     -2.45251    1009.0061  0.096315966  0.097700409            2 
  874000    1.0984829    -2.441731    1013.0991   0.09659602  0.097686674            2 
  875000    1.1147375   -2.4671004    1004.4172  0.095658779  0.097672457            2 
  876000      1.12593   -2.4424107    1007.9633  0.095886917  0.097657698            1 
  877000    1.0931947   -2.4453337    1010.3059  0.096000179  0.097644319            1 
  878000    1.1125994   -2.4711712    1009.8453  0.095847125  0.097629696            5 
  879000    1.1260759   -2.4670531    1008.1031  0.095572919  0.097615098            3 
  880000    1.1051949    -2.440196    1015.6798  0.096181795  0.097599375            2 
  881000    1.0867381   -2.4848226    1008.4741  0.095391043  0.097584118            4 
  882000    1.1006985   -2.4593759    1014.4963  0.095851878  0.097568307            3 
  883000    1.1120012   -2.4476253    1012.5997  0.095564335  0.097551754            1 
  884000    1.1120642   -2.4585209    1021.0103  0.096249085  0.097536413            2 
  885000    1.1111351   -2.4465052    1018.0017  0.095857036  0.097520325            5 
  886000    1.1092603   -2.4595753    1016.4811  0.095605821  0.097505018            2 
  887000    1.0853865   -2.4568561    1016.8114  0.095529073  0.097489873            1 
  888000    1.1105245   -2.4234207    1021.9847  0.095906968  0.097475498            3 
  889000    1.1260837   -2.4520774    1022.3963  0.095837674  0.097460385            4 
  890000    1.0943744   -2.4581994    1024.8587  0.095960556  0.097445461            2 
  891000    1.1265076   -2.4436076     1023.938  0.095766745  0.097429921            2 
  892000    1.0921194   -2.4797324    1022.9136  0.095563679  0.097414017            1 
  893000    1.1069141    -2.484555    1025.9513  0.095740138  0.097398196            2 
  894000    1.1110047   -2.4736315    1023.0613  0.095363657  0.097381201            4 
  895000    1.1068264   -2.4642331    1030.9648  0.095993001  0.097365538            3 
  896000    1.0975835   -2.4472323    1029.7806  0.095775724  0.097349656            2 
  897000    1.0894037   -2.4538792    1027.9858   0.09550221  0.097333299            2 
  898000    1.1030947   -2.4639387    1027.7253  0.095371684  0.097316975            1 
  899000    1.0960699   -2.4658015    1031.1015  0.095578563  0.097300985            3 
  900000    1.1090232   -2.4636575    1031.3757   0.09549775  0.097285135            2 
  901000    1.1147572   -2.4919834     1029.651   0.09523224  0.097268783            3 
  902000    1.1230561   -2.4691912    1031.7218  0.095317975  0.097251452            2 
  903000    1.0960121   -2.4680155    1030.7967  0.095127048  0.097233543            1 
  904000    1.1405603   -2.4667692    1035.7016  0.095473971  0.097216025            2 
  905000    1.1039235   -2.4620969    1035.2444   0.09532637  0.097200311            2 
  906000    1.1035275   -2.4487036    1039.0813  0.095574073  0.097183455            2 
  907000    1.1204712   -2.4567704    1037.4551  0.095319283  0.097166582            1 
  908000    1.0966776   -2.4619195    1033.9214      0.09489  0.097149515            1 
  909000    1.0994796   -2.4649756     1038.991  0.095250362  0.097131027            2 
  910000    1.1016854   -2.4712392    1036.2897  0.094898322  0.097113333            3 
  911000    1.1042256   -2.4519133    1035.8638  0.094755199  0.097096179            2 
  912000    1.0969524   -2.4791515    1042.4201  0.095250373  0.097078413            1 
  913000    1.0879717   -2.4621928    1034.2306  0.094398555  0.097060228            2 
  914000    1.1243456   -2.4699421    1040.3243  0.094850867  0.097042238            1 
  915000    1.0936515   -2.4383741     1042.153  0.094913752  0.097023627            2 
  916000    1.1076608   -2.4672052    1046.0168  0.095161644  0.097005319            1 
  917000    1.1194321   -2.4415206    1045.5818  0.095018339  0.096986733            1 
  918000    1.1039305   -2.4868484      1040.42  0.094446257  0.096967638            3 
  919000     1.108741   -2.4919331    1044.1307   0.09467997  0.096948146            1 
  920000    1.0924547    -2.460284    1047.8166  0.094910926  0.096928305            3 
  921000    1.1322722   -2.4674305     1047.156  0.094748104  0.096908995            2 
  922000     1.104828   -2.4825063    1048.5044  0.094767206  0.096889346            1 
  923000    1.1130007   -2.4714315     1044.187  0.094274734  0.096869617            1 
  924000    1.1145699   -2.4993205    1046.9884   0.09442536  0.096849541            2 
  925000    1.0897096   -2.4379329     1049.495  0.094549103  0.096829844            1 
  926000    1.1224472   -2.4326421     1048.847  0.094388677  0.096810075            1 
  927000    1.1118363   -2.4702754    1048.3457   0.09424179  0.096789202            1 
  928000    1.1099876   -2.4772585    1049.9004  0.094279851  0.096768227            6 
  929000    1.1222217     -2.50022    1048.5019  0.094052915   0.09674715            2 
  930000    1.1023581   -2.4883903    1050.9887  0.094174619  0.096726022            1 
  931000    1.1218092   -2.4636506    1050.9432  0.094069389  0.096705493            2 
  932000    1.0950317   -2.4775965    1054.3223  0.094270588  0.096684927            2 
  933000    1.0943152   -2.4896826    1059.1348  0.094599389  0.096664678            2 
  934000    1.0951511     -2.46208    1057.9862  0.094395627  0.096644074            2 
  935000    1.1118206   -2.4889069    1060.5425  0.094522504  0.096624074            2 
  936000    1.1090597   -2.4655701    1060.7348  0.094438639  0.096604523            1 
  937000    1.0992302   -2.4775314    1058.1472  0.094107717  0.096584685            3 
  938000    1.0712148   -2.4647844    1063.8575  0.094514707  0.096565181            1 
  939000    1.1236434   -2.4677288    1065.9102  0.094596218  0.096546348            2 
  940000    1.1144395   -2.4624272    1067.0492  0.094596562  0.096526583            1 
  941000    1.1015846   -2.4540059    1064.0548  0.094230857  0.096507394            2 
  942000    1.1077887    -2.476072    1064.7746  0.094194493  0.096488232            2 
  943000    1.1149361   -2.5021517     1063.474  0.093979674  0.096468548            1 
  944000    1.1296768   -2.4713612    1072.5047  0.094677324  0.096448974            1 
  945000    1.0885424   -2.4536501    1068.2201  0.094199303  0.096428871            1 
  946000     1.075519   -2.4977387    1066.4168  0.093940875  0.096407267            1 
  947000    1.1128113   -2.5117538    1070.1938  0.094174041  0.096386268            1 
  948000    1.1074121   -2.4706234    1067.1147  0.093804033  0.096365456            2 
  949000    1.0934588   -2.4683927    1067.5485  0.093743282  0.096343373            2 
  950000    1.1184748   -2.4663687    1073.6471  0.094179567   0.09632192            1 
  951000    1.0981184   -2.4845492    1070.9189  0.093841475  0.096300497            1 
  952000    1.1073154   -2.4594663    1072.0477  0.093841709  0.096279266            1 
  953000    1.1067899   -2.4762273    1072.6291  0.093794083  0.096257717            1 
  954000    1.0774378   -2.4670559    1074.9789  0.093901026  0.096237648            3 
  955000    1.1045445   -2.4903898    1073.1968  0.093647187  0.096216227            4 
  956000    1.1064249   -2.4628016    1083.2095   0.09442203    0.0961951            1 
  957000    1.1020333   -2.4828299    1076.6252  0.093750016  0.096174425            2 
  958000    1.1001797    -2.445092    1079.2878  0.093883767  0.096153601            1 
  959000    1.0949363   -2.4701102    1071.7894  0.093134286  0.096132122            1 
  960000    1.0842854   -2.4407707    1081.7083  0.093898292  0.096111195            2 
  961000    1.0976541   -2.4922795    1080.0277  0.093654845  0.096089273            2 
  962000    1.1102281   -2.4748076    1082.3373  0.093757559  0.096067334            2 
  963000    1.0791199    -2.488383    1079.2998   0.09339735  0.096046524            1 
  964000    1.1042326   -2.4812463    1083.1899  0.093636747  0.096024733            1 
  965000    1.0674381   -2.4740854    1085.9216  0.093775609  0.096003308            4 
  966000    1.0884346   -2.4779012    1080.0907  0.093175524  0.095981664            2 
  967000    1.0927323   -2.4651881    1087.9026   0.09375238  0.095961055            2 
  968000    1.1019792   -2.4874888    1088.5863  0.093714389  0.095941891            2 
  969000    1.0966182      -2.4497    1095.9972  0.094255009  0.095920984            1 
  970000    1.0712896   -2.4727682    1095.0006  0.094072213  0.095900449            2 
  971000    1.1087731    -2.457456    1094.9884  0.093974288  0.095880547            3 
  972000    1.1060119   -2.4527291    1093.5645  0.093755532  0.095861551            2 
  973000    1.0945795   -2.4712499    1094.0209  0.093698261  0.095842023            2 
  974000    1.0943487   -2.4451362    1096.5467  0.093818168  0.095822866            1 
  975000    1.1393169   -2.4588522       1095.8  0.093658123  0.095804944            2 
  976000    1.1129158   -2.5016018     1100.187  0.093936728  0.095786525            1 
  977000    1.0861601   -2.4676974     1102.889  0.094071048  0.095768332            2 
  978000    1.0708043   -2.4462513    1101.8437  0.093885799  0.095750298            2 
  979000    1.0834082   -2.5045502    1099.8005  0.093615974  0.095731665            2 
  980000    1.0925771   -2.4635245    1101.1431  0.093634614   0.09571252            1 
  981000    1.1095787    -2.497684    1100.7696  0.093507443  0.095694028            2 
  982000    1.1052464   -2.4748929     1101.137  0.093443396  0.095676063            1 
  983000     1.107809   -2.4927135    1101.4355  0.093373646  0.095657862            2 
  984000    1.0905694   -2.4587145    1111.0988   0.09409712  0.095639069            1 
  985000    1.1166223    -2.468993    1107.5258  0.093699307  0.095621025            2 
  986000    1.0962178    -2.500856    1111.1195  0.093908004  0.095603667            2 
  987000    1.1034697   -2.4743303    1112.3269  0.093914798  0.095586695            3 
  988000    1.0942071   -2.4630831    1111.8588   0.09378026   0.09556944            3 
  989000    1.1003552   -2.4841809    1114.0573  0.093870688   0.09555281            3 
  990000    1.1004672   -2.4885128    1115.3577  0.093885329  0.095535251            3 
  991000    1.0562549   -2.4722241    1115.9252  0.093838308  0.095517265            2 
  992000    1.0684898   -2.4727849      1114.69  0.093639954  0.095500177            1 
  993000    1.0506622   -2.4881373     1115.931    0.0936498  0.095481399            1 
  994000     1.080578   -2.4891589    1119.5379  0.093857976  0.095462694            4 
  995000    1.0985075   -2.4758576    1119.2223  0.093737209  0.095445121            1 
  996000    1.0604242    -2.454695    1121.4039  0.093825624  0.095428094            1 
  997000     1.088542   -2.4603486     1119.433  0.093566783  0.095411099            4 
  998000    1.0912131   -2.4554567    1120.7068  0.093579395  0.095393831            2 
  999000    1.0961794   -2.4794207     1125.215   0.09386178  0.095377013            2 
 1000000    1.1009786   -2.4650418    1125.5806  0.093798382  0.095360308            5 
 1001000    1.0937147   -2.4829421    1125.4677   0.09369528  0.095344226            3 
 1002000    1.1011885   -2.4862706    1127.9546  0.093808602  0.095328279            2 
 1003000    1.0851145   -2.4994536    1130.8826  0.093958338  0.095312324            4 
 1004000    1.1038456   -2.4956415    1129.9396  0.093786485  0.095296298            1 
 1005000    1.1223243   -2.4750686    1135.0434  0.094116366  0.095281456            1 
 1006000    1.0981435   -2.4735813    1133.0201  0.093855209  0.095265793            1 
 1007000    1.0970397   -2.4673634    1132.2816  0.093700894  0.095250279            1 
 1008000     1.097013   -2.4857885    1137.7999  0.094064145  0.095235669            2 
 1009000     1.087025   -2.4859078    1137.0011  0.093904949  0.095219836            2 
 1010000    1.0923764   -2.5104837    1135.4122  0.093680876  0.095204703            1 
 1011000    1.1120168      -2.4664    1144.9887  0.094377569  0.095189861            1 
 1012000    1.0823996   -2.4737431    1143.0012  0.094120653  0.095175247            1 
 1013000    1.0870224   -2.5171054     1136.435  0.093487577  0.095160497            3 
 1014000    1.1022849   -2.5061824    1143.4871  0.093974944  0.095145181            2 
 1015000     1.096367    -2.472721    1140.9723  0.093675886  0.095130101            1 
 1016000    1.1130315   -2.4725586    1144.1447  0.093843888  0.095114505            3 
 1017000    1.0986134    -2.471799    1137.5351   0.09321002  0.095099743            1 
 1018000    1.0614527   -2.4914465    1147.6475  0.093946257  0.095084786            3 
 1019000    1.0824141   -2.5076111    1145.0693  0.093643221  0.095069035            2 
 1020000      1.08478   -2.4618856    1150.8632  0.094024773  0.095054197            2 
 1021000    1.0729162   -2.4947478    1150.9719  0.093941556  0.095039389            2 
 1022000    1.0864117   -2.4596079    1155.3422  0.094205989  0.095025246            2 
 1023000    1.0763846   -2.4990298    1154.5382  0.094048401  0.095011196            2 
 1024000    1.0807036   -2.4707415    1153.1373  0.093842554   0.09499766            2 
 1025000    1.1049892   -2.4794405    1150.7623  0.093557914  0.094984356            2 
 1026000    1.0814626   -2.4648993    1161.1809  0.094312936  0.094970726            2 
 1027000    1.0843548   -2.5220849    1155.3617   0.09374892  0.094957494            2 
 1028000    1.0982693   -2.5007585    1157.2772  0.093813004  0.094944206            3 
 1029000    1.0844804   -2.4784049    1158.4354   0.09381563  0.094931452            2 
 1030000    1.0819092   -2.4596779    1164.5395  0.094218404  0.094918525            2 
 1031000     1.087585   -2.4785083    1163.1162   0.09401198    0.0949045            3 
 1032000    1.0738038   -2.4894899    1165.7769  0.094135733  0.094891025            2 
 1033000    1.0986162   -2.5023038    1160.6403  0.093630224   0.09487774            3 
 1034000    1.1059412   -2.5121595    1164.8282   0.09387719  0.094863939            1 
 1035000    1.0879662   -2.4702035     1168.747  0.094102011  0.094850336            2 
 1036000    1.0915389    -2.484766    1169.8627  0.094100929  0.094836032            2 
 1037000    1.0494757   -2.4586653    1168.9774  0.093939042  0.094821248            2 
 1038000    1.0950451   -2.4869028    1169.2649  0.093871622  0.094807489            2 
 1039000    1.1031726   -2.4975954    1165.8566  0.093507907  0.094792694            2 
 1040000    1.0925653   -2.4731098    1172.9857   0.09398924  0.094779519            2 
 1041000    1.1186438   -2.4890469    1166.2517  0.093359888  0.094765069            1 
 1042000    1.0566775   -2.4809773    1165.8729  0.093239999  0.094750371            3 
 1043000    1.0753444   -2.4901838    1176.4071  0.093992257  0.094735688            2 
 1044000    1.0804349   -2.4768432    1166.8941  0.093142891  0.094721038            1 
 1045000    1.0845895   -2.4872694     1173.338  0.093567626   0.09470557            1 
 1046000    1.0938735   -2.5090662    1171.8956  0.093363256  0.094690522            1 
 1047000    1.1027525   -2.5127083     1174.493  0.093480819  0.094675739            2 
 1048000    1.0734118   -2.5071053    1178.7811  0.093732597  0.094660687            3 
 1049000    1.0664544   -2.5015694     1174.155  0.093275737  0.094645325            1 
 1050000    1.0752673    -2.487579    1175.6928  0.093308949  0.094629789            2 
 1051000    1.0797221   -2.4984523    1175.7704  0.093226324  0.094614349            3 
 1052000    1.0808223   -2.4874105    1177.6758  0.093288637  0.094600363            3 
 1053000    1.1057916   -2.4497999    1185.3993  0.093811274  0.094586161            1 
 1054000    1.0706521   -2.4809846    1182.3505  0.093481219  0.094571792            1 
 1055000    1.0842664   -2.4769094    1188.1371  0.093849696  0.094558041            3 
 1056000    1.0766804   -2.4823235    1183.9895  0.093433513   0.09454441            4 
 1057000    1.0897177    -2.501948    1185.3079  0.093449063  0.094530758            4 
 1058000    1.0878527    -2.495491    1189.3046  0.093675534  0.094517352            3 
 1059000    1.0644475   -2.4740417    1191.6294  0.093770021  0.094504434            1 
 1060000    1.0950665   -2.4878028    1194.9195  0.093940209   0.09449178            2 
 1061000    1.0707439   -2.5080644    1195.3833  0.093888101  0.094479836            3 
 1062000    1.0793395   -2.4704797     1194.574  0.093736188  0.094467582            3 
 1063000    1.0926175   -2.5185375    1193.7893   0.09358649  0.094454753            2 
 1064000    1.0801062   -2.4776295    1195.2874  0.093615864  0.094441999            2 
 1065000    1.0509949   -2.5017614    1197.0928  0.093669233  0.094429742            1 
 1066000    1.1029415   -2.4614945    1198.4593  0.093688191  0.094417591            3 
 1067000    1.0988664    -2.476962    1201.5086  0.093838535  0.094405351            1 
 1068000    1.0808774   -2.5218594    1197.0482  0.093402636  0.094392379            1 
 1069000    1.1007832   -2.5025655    1199.7005  0.093522025  0.094379353            4 
 1070000    1.0785774   -2.5180764    1198.9594  0.093376898  0.094365906            2 
 1071000     1.077742   -2.4871019    1198.1774  0.093228863  0.094353064            2 
 1072000    1.0663424   -2.4697595    1208.5137  0.093945408  0.094341113            3 
 1073000    1.0783773   -2.4669617    1204.9655  0.093582284  0.094328425            2 
 1074000     1.095887   -2.5221775    1201.3781    0.0932168  0.094315718            1 
 1075000    1.0917714   -2.4982151    1204.3888   0.09336347  0.094302525            3 
 1076000    1.0716235   -2.4649628    1203.7781  0.093229409  0.094290052            3 
 1077000    1.0858169   -2.4983201    1204.9333  0.093232227  0.094276732            2 
 1078000    1.0638138   -2.5012008     1205.587  0.093196277  0.094263896            4 
 1079000    1.0781607   -2.4924663    1209.0221  0.093375204  0.094250087            1 
 1080000    1.0853809   -2.4915717    1212.9447  0.093591413  0.094237044            1 
 1081000    1.0665319   -2.4589975    1216.8309  0.093804417  0.094224107            1 
 1082000    1.1014667   -2.4969737     1208.652  0.093087802  0.094210894            2 
 1083000    1.0891046   -2.4908943    1210.1491  0.093117043  0.094197485            3 
 1084000    1.0818741    -2.489478    1217.9337  0.093629591  0.094183903            2 
 1085000    1.0551373   -2.4700104     1216.901  0.093463978  0.094170332            2 
 1086000    1.0645996   -2.4928197    1211.1679  0.092937993  0.094157149            2 
 1087000    1.0615968   -2.5072135    1215.7743  0.093205638  0.094142786            2 
 1088000    1.0586302   -2.4935787    1213.8232  0.092970528  0.094128766            5 
 1089000    1.0972221   -2.5032204    1216.4355  0.093085058  0.094114772            1 
 1090000    1.1026607   -2.4815476    1222.5146  0.093464421  0.094100454            4 
 1091000    1.0964995   -2.4903099    1216.2786  0.092902425  0.094086718            4 
 1092000    1.1050584   -2.4739873    1227.0943  0.093642724   0.09407332            3 
 1093000    1.0932677   -2.5242906    1221.5803   0.09313665  0.094059147            3 
 1094000    1.0903698   -2.5025519    1220.8742  0.092997727  0.094044473            2 
 1095000    1.0740137   -2.4984801    1222.3393  0.093024302  0.094030491            2 
 1096000    1.0696352   -2.4906773    1218.6138   0.09265616  0.094015521            4 
 1097000    1.0612272   -2.5000667    1219.5704  0.092644364  0.094000602            1 
 1098000    1.0807004   -2.5024545    1221.4904  0.092705711   0.09398573            3 
 1099000    1.0553113   -2.4824733     1227.175  0.093052399  0.093971589            3 
 1100000    1.0766243   -2.4944247    1227.4417   0.09298801  0.093958029            3 
 1101000     1.071292   -2.4847034    1227.8042  0.092930986  0.093943956            2 
 1102000    1.0821132   -2.4786207    1227.2344  0.092803569  0.093930054            1 
 1103000    1.0778862   -2.5050014    1228.9534  0.092849304  0.093916577            2 
 1104000    1.0976758   -2.5147275    1225.2817  0.092488055  0.093902173            4 
 1105000    1.0686763   -2.5501363    1233.1039  0.092994259  0.093887656            2 
 1106000    1.0898345   -2.4965919    1240.0073  0.093430324  0.093873439            1 
 1107000    1.0935009   -2.5070632    1229.8734   0.09258306  0.093859817            2 
 1108000    1.0775491    -2.491073    1235.1547  0.092896712  0.093846122            2 
 1109000    1.0725789   -2.4872483    1237.4208  0.092983229  0.093832104            3 
 1110000    1.0672249   -2.4978917    1231.6285  0.092464599  0.093818242            3 
 1111000    1.0783777    -2.500643    1235.8069  0.092694786  0.093803721            3 
 1112000     1.078874   -2.5065044     1233.393  0.092430528  0.093789324            2 
 1113000    1.0737062   -2.5100093    1238.1768  0.092705658  0.093775583            3 
 1114000    1.0838052   -2.5011159    1235.5671   0.09242722  0.093761112            3 
 1115000    1.0720833   -2.4900886    1239.8297  0.092662908  0.093746724            1 
 1116000    1.0892142   -2.5010939    1243.2268  0.092833545  0.093731833            3 
 1117000    1.0544774    -2.483682    1239.3885  0.092464075  0.093717563            2 
 1118000     1.077261   -2.5013259    1239.0135  0.092353419  0.093703051            1 
 1119000     1.097647   -2.5166098    1238.0559  0.092199578   0.09368781            1 
 1120000    1.0815179   -2.4842251    1240.3899  0.092290914  0.093672789            1 
 1121000    1.0889891   -2.4793739    1249.7418  0.092903793  0.093658276            3 
 1122000    1.0628998   -2.4937278    1249.9624  0.092837377  0.093643496            2 
 1123000    1.0908316   -2.5199191    1245.1775  0.092399638  0.093629241            3 
 1124000    1.0599707   -2.4859624    1247.0668  0.092457507  0.093614455            6 
 1125000    1.0797159    -2.475437    1253.1358  0.092824873  0.093600511       -1e+20 
 1126000    1.0635337   -2.4789473    1248.3996  0.092391919  0.093585749            1 
 1127000    1.0779189   -2.4953898    1253.8166  0.092710485  0.093570866            3 
 1128000    1.0714144   -2.5028578    1248.9029  0.092265284  0.093556146            3 
 1129000     1.088424   -2.5100741    1251.0231   0.09234006  0.093541749            2 
 1130000    1.0434914    -2.508082     1255.353  0.092577653  0.093527308            2 
 1131000    1.0584782   -2.5012998    1251.1835  0.092188583  0.093512873            1 
 1132000    1.0629146   -2.5129413    1256.1105  0.092469857  0.093498224            6 
 1133000    1.0826339   -2.5242697    1257.5642  0.092495163  0.093483547            5 
 1134000    1.0640124   -2.5186154    1259.0244  0.092520902  0.093469454            1 
 1135000    1.0553723   -2.5184399     1261.271  0.092604331   0.09345486            2 
 1136000    1.0787241   -2.5184171    1258.9442  0.092352129  0.093440982            3 
 1137000    1.0528388   -2.5132091     1261.366    0.0924484  0.093426708            2 
 1138000    1.0453971   -2.5291266     1263.584  0.092529582  0.093412197            3 
 1139000    1.1011349   -2.5152377    1260.9834  0.092258074  0.093398255            2 
 1140000    1.0822109   -2.4940222    1269.2684  0.092782779  0.093384157            3 
 1141000    1.0729639   -2.5109425    1267.3421  0.092560775  0.093370234            2 
 1142000    1.0908136   -2.5068817    1267.7162  0.092507023  0.093356443            2 
 1143000    1.0501305    -2.507381    1263.4969   0.09211847  0.093343525            2 
 1144000    1.0682562    -2.500936    1269.4026  0.092468137  0.093329402            2 
 1145000    1.0587944    -2.487025    1270.6488  0.092478076  0.093315921            1 
 1146000    1.0742222   -2.5132262    1267.2564  0.092150695  0.093302369            2 
 1147000    1.0518041   -2.4916114    1267.4637   0.09208542  0.093288448            3 
 1148000    1.0521695   -2.5124264    1271.3935   0.09229047  0.093274065            2 
 1149000    1.0606021   -2.5133313    1274.8743  0.092462597  0.093259635            1 
 1150000    1.0617895    -2.523772    1273.6105  0.092290615  0.093245567            1 
 1151000    1.0538397   -2.4987555     1278.715  0.092580003  0.093232227            4 
 1152000    1.0901501   -2.5334188    1278.0069  0.092448416  0.093218949            1 
 1153000    1.1088814    -2.505026    1281.1861  0.092598011  0.093206255            3 
 1154000    1.0641483   -2.4854197    1281.3549  0.092529959   0.09319347            2 
 1155000     1.061006   -2.5016122    1284.0428  0.092643778  0.093180536            2 
 1156000    1.0892909   -2.4989364    1284.1207  0.092569256  0.093167913            1 
 1157000    1.0671389   -2.5022827    1284.8996  0.092545347   0.09315514            1 
 1158000    1.0700434   -2.4945473    1287.6843  0.092665828  0.093142035            2 
 1159000    1.0657574   -2.4969437    1287.7034  0.092587243  0.093129399            3 
 1160000    1.0657004   -2.5028984    1281.3624  0.092051894  0.093115674            2 
 1161000    1.0710798   -2.5021643    1283.6524  0.092136983  0.093102209            1 
 1162000    1.0601352   -2.4768065    1290.3247  0.092536194  0.093088619            2 
 1163000    1.0606742   -2.4890786    1291.1573  0.092516288  0.093075401            2 
 1164000    1.0767622   -2.4984718    1291.8307  0.092485019  0.093062152            2 
 1165000    1.0647765    -2.519719    1288.8488  0.092192329  0.093049251            2 
 1166000    1.0697482   -2.4911539    1289.6406  0.092169854   0.09303506            5 
 1167000    1.0625912   -2.5159113    1294.0327  0.092404508  0.093021732            3 
 1168000    1.0765013   -2.5020747    1284.8629  0.091671157  0.093007896            1 
 1169000    1.0600467   -2.5355042    1292.7215  0.092152946  0.092994379            4 
 1170000    1.0420135   -2.5310272    1294.6739   0.09221324  0.092980243            2 
 1171000     1.037747   -2.4891366    1296.7331  0.092281032  0.092966846            3 
 1172000    1.0573032   -2.4983902    1296.3171   0.09217272  0.092953837            2 
 1173000    1.0431848   -2.4972373    1293.9749  0.091927743  0.092940588            4 
 1174000    1.0586278    -2.538283    1297.6016  0.092106868  0.092926632            2 
 1175000    1.0511538   -2.5051066    1298.3193  0.092079384   0.09291292            3 
 1176000    1.0576026   -2.5192679    1297.1801  0.091920361   0.09289908            3 
 1177000    1.0678771   -2.4988733    1303.3006  0.092275602  0.092885471            4 
 1178000     1.067217    -2.548611    1301.1944  0.092048272  0.092871693            3 
 1179000    1.0690028   -2.5201251    1300.7565  0.091939247  0.092857914            2 
 1180000    1.0837389   -2.5327186    1304.1707  0.092102454  0.092844288            2 
 1181000    1.0674778    -2.515178    1297.7866  0.091573991  0.092829968            2 
 1182000    1.0715246    -2.512263    1301.9846  0.091792484  0.092815605            1 
 1183000    1.0725012   -2.5018621    1305.1344   0.09193677  0.092801696            1 
 1184000    1.0818549   -2.4931806    1307.1047  0.091997799  0.092788095            2 
 1185000    1.0698449   -2.5253433    1308.4877  0.092017416  0.092773981            5 
 1186000    1.0536612   -2.4807384    1309.0465  0.091979097  0.092760174            2 
 1187000    1.0725416    -2.529318    1312.0476    0.0921123  0.092746166            2 
 1188000    1.0516629   -2.5009137    1312.5837   0.09207237  0.092732252            3 
 1189000    1.0391221   -2.4804789    1310.7013  0.091863002  0.092718753            6 
 1190000    1.0629031    -2.502024    1308.7439  0.091648734   0.09270536            1 
 1191000    1.0525853    -2.506721    1313.3887  0.091896777  0.092691857            3 
 1192000    1.0433904   -2.5273834     1311.069  0.091657511  0.092677591            3 
 1193000    1.0279031   -2.5142595    1316.2748  0.091944317  0.092663339            2 
 1194000    1.0807364   -2.5343328    1314.2062  0.091722931  0.092649196            1 
 1195000    1.0619511   -2.5145133    1317.7671  0.091894501  0.092635007            3 
 1196000    1.0787383   -2.5113484    1314.7819  0.091609665  0.092620201            3 
 1197000    1.0713393    -2.491593    1317.5884  0.091728515  0.092606198            1 
 1198000    1.0631174   -2.4813118    1320.7416  0.091871282  0.092592281            2 
 1199000    1.0670155   -2.5164666    1319.3212  0.091695943  0.092578556            4 
 1200000    1.0400551   -2.5119613    1314.8158  0.091306656  0.092563975            1 
 1201000    1.0751988   -2.5132656    1317.8011  0.091437766   0.09255001            3 
 1202000    1.0392324    -2.513467    1322.5157  0.091688552  0.092536009            2 
 1203000    1.0996133   -2.5333218    1319.2252  0.091384401  0.092522084            1 
 1204000    1.0655708   -2.5283375    1321.7594  0.091483903  0.092508225            1 
 1205000    1.0700783   -2.5167501    1320.9724  0.091353557  0.092494665            2 
 1206000    1.0353542    -2.482112      1326.99  0.091693614   0.09248136            2 
 1207000     1.050247   -2.4991374    1328.7545   0.09173947  0.092467979            5 
 1208000    1.0655213     -2.53045    1323.6844  0.091313767  0.092454304            3 
 1209000      1.04051   -2.5178862    1322.0492  0.091125529  0.092440043            4 
 1210000    1.0794119   -2.5234374    1327.0487  0.091394537  0.092425904            2 
 1211000     1.052266   -2.5054989    1331.1413  0.091600696   0.09241182            3 
 1212000    1.0715733   -2.5032898    1333.1652  0.091664274  0.092397757            2 
 1213000    1.0608102    -2.556704    1326.2352  0.091112611  0.092382969            2 
 1214000    1.0613544    -2.518112    1333.7683   0.09155466  0.092368672            2 
 1215000    1.0552311   -2.5434697    1333.2336  0.091442631  0.092354223            4 
 1216000    1.0565003   -2.5112676    1329.6041  0.091118701  0.092339777            3 
 1217000    1.0543363   -2.5042923    1335.1354   0.09142258   0.09232567            2 
 1218000    1.0573182   -2.5069736    1336.5041  0.091441164  0.092311273            1 
 1219000    1.0719408   -2.5273142    1335.9157  0.091325928  0.092297412            1 
 1220000    1.0425881   -2.5177352    1335.2712  0.091207047  0.092283104            3 
 1221000     1.083158   -2.5429133    1329.3017   0.09072493  0.092268695            6 
 1222000    1.0652206   -2.5415834    1334.5847  0.091010959  0.092253612            2 
 1223000    1.0006069   -2.4920854    1344.6289   0.09162094   0.09223931            1 
 1224000    1.0807086   -2.5067679    1342.9469  0.091431567  0.092224333            1 
 1225000    1.0329414   -2.5221327    1345.4345  0.091526159  0.092208751            3 
 1226000    1.0238726   -2.5419047    1337.9619  0.090943574  0.092193913            2 
 1227000     1.039398   -2.5461237    1340.6767  0.091053839   0.09217854            2 
 1228000    1.0397025   -2.5348905    1342.7348  0.091119355  0.092162806            1 
 1229000    1.0405288   -2.5035181    1340.1153  0.090867598  0.092147419            1 
 1230000    1.0479963   -2.5062164    1344.4592  0.091088022   0.09213205            2 
 1231000    1.0502108   -2.5177027    1346.6057  0.091159334  0.092116867            2 
 1232000    1.0387399   -2.5193477    1340.8894   0.09069869  0.092101593            1 
 1233000     1.037965   -2.5007685    1342.5052  0.090734331  0.092085744            3 
 1234000    1.0340552   -2.5351745    1342.3963  0.090653448  0.092070463            3 
 1235000     1.044121   -2.5549481    1343.1382   0.09063011   0.09205422            1 
 1236000    1.0242703   -2.5527702    1345.5501  0.090719397  0.092038572            4 
 1237000    1.0575189   -2.5094704    1349.4965  0.090911916  0.092022307            2 
 1238000    1.0545446   -2.5245922    1346.0923  0.090609338  0.092006924            1 
 1239000    1.0601763   -2.5193562    1349.5603  0.090769459  0.091991347            1 
 1240000    1.0507669   -2.5242771    1344.9437  0.090386003  0.091975138            1 
 1241000    1.0543125    -2.525754    1354.2366  0.090937188  0.091959847            2 
 1242000    1.0647716   -2.5092956     1354.962  0.090912638  0.091944411            2 
 1243000    1.0403026   -2.5195856    1351.1853  0.090586303   0.09192921            3 
 1244000    1.0490127   -2.5305913    1354.7515  0.090752378  0.091913935            5 
 1245000    1.0366246   -2.5128705    1351.0543  0.090432015  0.091899063            2 
 1246000    1.0676387   -2.5321263    1360.6033  0.090998083  0.091884414            2 
 1247000     1.055723   -2.5419453    1356.8174  0.090672105  0.091870163            4 
 1248000    1.0433492   -2.5218197    1364.6496  0.091122437  0.091855801            2 
 1249000    1.0312637   -2.5171558    1364.7213  0.091054264  0.091841302            3 
 1250000    1.0623707   -2.5455858    1365.9738  0.091064918  0.091826281            6 
 1251000    1.0262764   -2.5289555    1366.1285   0.09100243  0.091812038            1 
 1252000    1.0473502   -2.5220383    1363.3777   0.09074665   0.09179788            1 
 1253000    1.0661611   -2.4973564    1369.3066  0.091068543  0.091783953            2 
 1254000    1.0621494   -2.5030356    1364.4331  0.090672054  0.091769967            1 
 1255000    1.0563621   -2.5485277    1366.5536  0.090740612   0.09175579            5 
 1256000    1.0478545   -2.5161061    1371.5111  0.090997288  0.091741203            1 
 1257000     1.058489   -2.5216412    1370.3077  0.090845112  0.091727192            7 
 1258000    1.0754086   -2.5137148    1373.7249  0.090999264  0.091713098            1 
 1259000     1.037505   -2.5338759    1372.4284  0.090841168  0.091699215            2 
 1260000    1.0480286   -2.5257479    1373.1056  0.090813864  0.091685021            3 
 1261000    1.0574475   -2.5351582    1368.7481  0.090453882  0.091670689            3 
 1262000    1.0461197   -2.5198581     1376.876  0.090918913   0.09165606            2 
 1263000    1.0663474   -2.5158382    1375.7498  0.090772617  0.091641502            1 
 1264000     1.088342    -2.505211    1378.9019  0.090908614  0.091627522            2 
 1265000    1.0308346   -2.5258377    1375.2347  0.090595172  0.091613971            1 
 1266000    1.0556639   -2.5198619      1378.99  0.090770803  0.091599842            1 
 1267000    1.0659319   -2.5173576     1382.681   0.09094192  0.091586439            1 
 1268000    1.0552576   -2.5437364     1386.236  0.091103839  0.091572596            5 
 1269000    1.0704915   -2.5303706    1381.1571  0.090698524  0.091558468            1 
 1270000    1.0539942    -2.520167    1389.4452  0.091170945  0.091544676            1 
 1271000    1.0499511   -2.5213128    1382.6118   0.09065118  0.091530766            3 
 1272000    1.0476926   -2.5413174    1384.3479  0.090693652  0.091517584            2 
 1273000    1.0297382   -2.5134852     1387.302  0.090815789  0.091503931            1 
 1274000    1.0599969   -2.5493987    1380.4669  0.090297415  0.091490208            1 
 1275000    1.0411785     -2.53459    1385.8911  0.090581118  0.091476483            3 
 1276000    1.0216213   -2.5133762    1387.6349  0.090624011  0.091461866            3 
 1277000    1.0440888   -2.5412247    1387.2738  0.090529484  0.091447546            1 
 1278000    1.0425031   -2.5332962    1387.8727  0.090497696  0.091433405            2 
 1279000    1.0302817   -2.5223875    1386.4811  0.090336273  0.091419037            3 
 1280000    1.0684504   -2.5260097     1390.553  0.090530797  0.091404784            2 
 1281000    1.0319962   -2.5309493    1394.2131  0.090698224  0.091390624            3 
 1282000    1.0632554   -2.5230478    1393.8805  0.090605857  0.091375991            2 
 1283000    1.0426933   -2.5207483    1392.7318  0.090460623  0.091361951            2 
 1284000    1.0468547   -2.5388107    1389.6472   0.09018998  0.091347508            2 
 1285000    1.0506814   -2.5487109    1391.2646  0.090224684  0.091333337            5 
 1286000    1.0508845   -2.5489116    1396.8324  0.090515316  0.091319221            3 
 1287000    1.0573174   -2.5345265    1395.6735  0.090369952  0.091305243            2 
 1288000    1.0281755   -2.5247845    1396.3402  0.090342923  0.091291476            1 
 1289000    1.0164491   -2.5588752    1394.1852  0.090133511  0.091277571            3 
 1290000    1.0224249   -2.5317116    1395.3896  0.090141447  0.091262831            1 
 1291000    1.0566125   -2.5403463    1398.1484    0.0902497   0.09124844            2 
 1292000    1.0152198   -2.5318907    1401.0021   0.09036391   0.09123407            2 
 1293000    1.0512611   -2.5152303    1402.3547  0.090381199  0.091219644            3 
 1294000    1.0533143   -2.5418292    1395.7116  0.089883538  0.091205351            6 
 1295000    1.0826372   -2.5455301     1400.478  0.090120848  0.091190691            2 
 1296000    1.0284883   -2.5190926    1410.8304  0.090716977  0.091176278            1 
 1297000    1.0477399   -2.5296645    1400.5309  0.089985279   0.09116205            2 
 1298000    1.0550795   -2.5142868    1405.8314  0.090256256   0.09114707            1 
 1299000    1.0350089   -2.5341829     1408.795  0.090376893  0.091132099            1 
 1300000    1.0673822   -2.5447987    1409.8811  0.090376992  0.091117226            1 
 1301000    1.0341438   -2.5476147    1408.5837  0.090224422   0.09110234            1 
 1302000    1.0469681   -2.5428529    1407.7245  0.090100136  0.091086975            3 
 1303000    1.0383138    -2.544138    1407.3483  0.090006924  0.091072405            1 
 1304000    1.0391975   -2.5183652    1406.3055   0.08987126  0.091057669            2 
 1305000    1.0356549   -2.5444727    1406.1568  0.089792898  0.091043237            2 
 1306000    1.0522324   -2.5309862    1411.8698  0.090088681  0.091028525            4 
 1307000    1.0554321   -2.5337997     1411.673  0.090007207  0.091014135            2 
 1308000    1.0372157   -2.5285787    1420.1072  0.090475737  0.091000222            1 
 1309000    1.0611318   -2.5540384    1421.3847  0.090487947  0.090986013            3 
 1310000    1.0443018   -2.5518486    1417.9511  0.090200451  0.090971825            3 
 1311000    1.0554717   -2.5394493    1416.9378  0.090067241  0.090958056            2 
 1312000    1.0565896   -2.5403147    1415.6939  0.089919582  0.090943213            4 
 1313000      1.05308   -2.5351426    1420.0574  0.090128039  0.090928414            1 
 1314000    1.0525906   -2.5229955    1422.2176  0.090196446  0.090914211            1 
 1315000    1.0420129   -2.5242804    1426.9908  0.090430344  0.090900045            2 
 1316000    1.0451813   -2.5569565    1420.5911   0.08995638    0.0908864            5 
 1317000    1.0576581   -2.5368105    1417.6164  0.089699851  0.090872212            1 
 1318000    1.0595353   -2.5347507    1421.1096  0.089852656  0.090858284            2 
 1319000    1.0299444   -2.5547172    1427.5529  0.090191617  0.090843934            2 
 1320000    1.0477041   -2.5247813    1423.2181  0.089849629  0.090830093            2 
 1321000    1.0353769   -2.5796985    1427.4183  0.090046578  0.090816188            3 
 1322000    1.0622582   -2.5337239    1428.9367  0.090074176  0.090803126            2 
 1323000    1.0500345   -2.5511403    1429.4977  0.090041429  0.090789843            2 
 1324000    1.0511016   -2.5343477    1432.8831    0.0901865  0.090776456            3 
 1325000    1.0312652   -2.5306394    1431.9451  0.090059442  0.090763233            2 
 1326000    1.0303435   -2.5135955    1437.6204  0.090348188   0.09075009            3 
 1327000    1.0507633    -2.510108     1438.528  0.090337101  0.090737459            1 
 1328000    1.0231931   -2.5523281    1438.6276  0.090275324  0.090724773            3 
 1329000    1.0270668    -2.502644    1446.7568  0.090717129   0.09071233            2 
 1330000    1.0326469    -2.558579    1435.7727  0.089960695  0.090699887            6 
 1331000    1.0481769   -2.5371336    1437.2776  0.089987329  0.090687384            2 
 1332000    1.0410278   -2.5188572    1440.6467  0.090130548   0.09067504            2 
 1333000    1.0612015   -2.5481506    1439.3483  0.089981767  0.090662292            1 
 1334000     1.034602   -2.5436083    1441.3888  0.090041776   0.09064952            1 
 1335000     1.034184   -2.5300779    1440.3019  0.089906485  0.090636926            4 
 1336000    1.0425389   -2.5176141     1452.232   0.09058333   0.09062395            2 
 1337000     1.039355   -2.5582473    1443.1125  0.089947176  0.090611774            1 
 1338000    1.0443892   -2.5531834    1449.0119  0.090247377  0.090599223            3 
 1339000    1.0513129   -2.5460291    1445.8882  0.089985572  0.090586726            5 
 1340000    1.0095927   -2.5522837    1447.7632  0.090035024  0.090574144            2 
 1341000    1.0588714   -2.5357409    1451.5481  0.090203086  0.090561613            2 
 1342000    1.0318726   -2.5170163    1445.3928  0.089753654  0.090548644            2 
 1343000    1.0322133   -2.5400538    1447.4082  0.089811879  0.090535455            1 
 1344000    1.0291857   -2.5513223    1448.7003  0.089825168  0.090522331            3 
 1345000    1.0282897   -2.5394887     1450.492  0.089869391   0.09050868            2 
 1346000    1.0272031   -2.4752866    1459.4746  0.090358757  0.090495628            2 
 1347000    1.0267528   -2.5503116    1454.6022  0.089990235  0.090483337            1 
 1348000    1.0293403   -2.5492744    1454.3712  0.089909199  0.090469664            3 
 1349000    1.0558522   -2.5395869    1454.7685  0.089867095  0.090456333            1 
 1350000     1.045105   -2.5413064    1451.7484  0.089614096  0.090442585            3 
 1351000    1.0206057   -2.5599515    1457.3441  0.089892924   0.09042829            1 
 1352000    1.0413652   -2.5654353    1456.4849   0.08977348  0.090414381            3 
 1353000    1.0379688   -2.5301019    1457.9869  0.089799637  0.090400136            1 
 1354000    1.0220943   -2.5505619    1452.5871  0.089400981  0.090386235            2 
 1355000    1.0476796   -2.5375192     1459.956  0.089788192  0.090372425            2 
 1356000    1.0331129   -2.5397669    1451.2224  0.089185252  0.090357822            1 
 1357000    1.0499337    -2.522004    1455.8987    0.0894067  0.090343662            2 
 1358000    1.0376671   -2.5276868    1459.8967  0.089586199  0.090329949            2 
 1359000    1.0125104   -2.5389562    1462.8573  0.089701822  0.090316067            2 
 1360000    1.0564448   -2.5265099     1463.081   0.08964957  0.090301674            2 
 1361000    1.0430059   -2.5428914    1458.1049  0.089279018  0.090287381            6 
 1362000     1.048175   -2.5399785    1458.8439  0.089258681  0.090272545            2 
 1363000    1.0393403   -2.5466988    1459.5169  0.089234341  0.090257833            2 
 1364000    1.0298982   -2.5245723     1462.145  0.089329486  0.090243469            2 
 1365000    1.0232162   -2.5541365    1466.8663  0.089552277  0.090228948            4 
 1366000    1.0342386   -2.5232411    1463.1121  0.089257692  0.090214063            2 
 1367000    1.0350699   -2.5488153    1462.3893  0.089148333  0.090198803            2 
 1368000    1.0327823    -2.560655    1460.3356  0.088958067  0.090183559            2 
 1369000    1.0444947   -2.5678237    1458.3484   0.08877212   0.09016844            2 
 1370000    1.0458362   -2.5724623    1466.4621   0.08920086  0.090153318            3 
 1371000    1.0409629   -2.5524708      1472.25  0.089487603   0.09013837            3 
 1372000     1.029704   -2.5571256     1468.295  0.089182157  0.090123713            1 
 1373000    1.0406826   -2.5488511    1469.4388  0.089186626    0.0901086            2 
 1374000     1.053647   -2.5529696    1463.7293  0.088775431  0.090093694            6 
 1375000    1.0306174   -2.5365398    1467.7449  0.088954237  0.090078743            7 
 1376000    1.0324485   -2.5828776    1469.8284   0.08901577  0.090064028            2 
 1377000    1.0551896   -2.5644693    1469.1642   0.08891093  0.090049339            2 
 1378000    1.0056034   -2.5831214    1468.2537  0.088791347  0.090034408            1 
 1379000    1.0637292   -2.5355119    1475.2898  0.089152153  0.090019635            2 
 1380000   0.99592947    -2.580826    1474.6555  0.089049248  0.090005067            2 
 1381000    1.0290292   -2.5228679    1482.5434  0.089460744  0.089990162            2 
 1382000    1.0135671   -2.5321573    1484.5302  0.089515809  0.089975666            4 
 1383000    1.0265277   -2.5578406    1482.5857   0.08933392  0.089961396            2 
 1384000    1.0349356   -2.5400678    1481.0062  0.089174265  0.089946791            3 
 1385000     1.023758   -2.5424762     1483.497  0.089259745  0.089932568            3 
 1386000    1.0345915    -2.545748    1480.2398  0.088999506  0.089919079            4 
 1387000    1.0477518   -2.5314911     1481.016  0.088981973  0.089904436            3 
 1388000    1.0136184   -2.5441469    1483.2567  0.089052397  0.089890698            2 
 1389000    1.0183972   -2.5328476    1489.2005  0.089344881  0.089876915            2 
 1390000     1.043175   -2.5543931    1488.9254  0.089264114  0.089863013            3 
 1391000    1.0033115   -2.5513928    1483.9216  0.088900166   0.08984894            1 
 1392000    1.0212329   -2.5271624    1492.8049  0.089368111   0.08983491            3 
 1393000    1.0468429   -2.5663711    1488.3941   0.08904009  0.089821285            2 
 1394000    1.0386301    -2.549422    1494.2732  0.089327664  0.089807604            2 
 1395000    1.0205945   -2.5677547    1488.7726  0.088935044  0.089793585            3 
 1396000    1.0227948   -2.5527877    1491.8476  0.089054893  0.089779618            2 
 1397000    1.0315854   -2.5844889     1488.067  0.088765627  0.089765947            1 
 1398000    1.0305522   -2.5503579    1495.5334  0.089147196  0.089752183            3 
 1399000    1.0418271   -2.5690932    1496.9938   0.08917047  0.089738706            3 
 1400000     1.017609   -2.5498013    1502.9794  0.089463062   0.08972495            2 
 1401000    1.0467671   -2.5482443    1494.9749  0.088923085  0.089711651            4 
 1402000    1.0220002   -2.5543114    1501.5279  0.089249161  0.089698498            2 
 1403000    1.0337584   -2.5480152    1498.5105  0.089006325  0.089684898            4 
 1404000     1.029441   -2.5529803    1504.2753  0.089285098   0.08967136            2 
 1405000    1.0221625   -2.5186112    1496.4884  0.088759691  0.089658077            2 
 1406000    1.0022463   -2.5382236    1507.9145  0.089373786  0.089644879            4 
 1407000    1.0068587   -2.5644513    1501.9526  0.088957156  0.089631204            1 
 1408000    1.0275126   -2.5472641    1502.9428  0.088952578  0.089617727            1 
 1409000    1.0551727   -2.5598445    1501.7646  0.088819764  0.089604657            2 
 1410000    1.0163074   -2.5934823    1503.0523  0.088832877  0.089591023            1 
 1411000    1.0077722   -2.5619485    1510.4481  0.089206715  0.089577781            4 
 1412000    1.0216701   -2.5474806    1504.4641  0.088790374   0.08956453            1 
 1413000    1.0120869   -2.5493737    1504.5204  0.088730856  0.089551292            5 
 1414000    1.0120296   -2.5512426    1508.9622  0.088929882  0.089537829            3 
 1415000     1.035821   -2.5418683    1506.4372  0.088718326  0.089524311            2 
 1416000    1.0289248   -2.5366279     1509.184  0.088817323  0.089510266            2 
 1417000    1.0006708   -2.5672353    1510.1917  0.088813907  0.089496432            2 
 1418000    1.0084867   -2.5537335     1513.396  0.088939588  0.089483263            2 
 1419000    1.0317127   -2.5517515    1512.4755  0.088822853  0.089470364            1 
 1420000    1.0233212   -2.5466307    1521.3373   0.08928036  0.089457207            2 
 1421000    1.0306154   -2.5588296    1515.2044  0.088857871  0.089444923            2 
 1422000    1.0256409   -2.5370355    1518.7082  0.089000714  0.089432404            3 
 1423000    1.0269773   -2.5489785     1523.073  0.089193782  0.089420481            2 
 1424000     1.031405   -2.5322476     1521.479  0.089037862  0.089407669            2 
 1425000    1.0385117    -2.568307    1518.1314  0.088779614  0.089395244            3 
 1426000    1.0187083   -2.5868319    1522.9583   0.08899943  0.089382533            2 
 1427000    1.0173334   -2.5752215    1521.1552  0.088831765  0.089369456            1 
 1428000    1.0281833   -2.5567769    1523.1617  0.088886656  0.089356486            2 
 1429000    1.0210459   -2.5526226    1522.3437  0.088776747  0.089343451            2 
 1430000    1.0557971   -2.5607805    1526.1539  0.088936706  0.089330844            2 
 1431000    1.0166397   -2.5481576    1525.6925  0.088847689  0.089318234            2 
 1432000    1.0310285   -2.5571244    1518.4439  0.088363822  0.089305097            3 
 1433000    1.0079908   -2.5332172     1530.398  0.088997322  0.089293062            4 
 1434000    1.0170389   -2.5323765    1537.0084  0.089319407  0.089280471            2 
 1435000    1.0521643   -2.5458062    1536.4749  0.089226184  0.089267757            3 
 1436000    1.0110629   -2.5487389    1529.1003   0.08873609  0.089254716            1 
 1437000    1.0137303   -2.5513799    1531.9859  0.088841679   0.08924157            4 
 1438000    1.0019504   -2.5759062    1535.5448  0.088986138  0.089228517            2 
 1439000    1.0337437   -2.5510639    1530.0721   0.08860737  0.089215455            1 
 1440000   0.99779268   -2.5459632    1534.5256  0.088803563   0.08920201            2 
 1441000    1.0315766   -2.5727613    1525.5926  0.088225339  0.089188365            2 
 1442000    1.0012353    -2.546679    1526.1423  0.088195925  0.089174599            3 
 1443000    1.0126382   -2.5555329    1530.3233  0.088376258  0.089160726            1 
 1444000    1.0038063   -2.5897217    1528.2312  0.088194319   0.08914674            3 
 1445000    1.0218653   -2.5669636     1530.842  0.088283852  0.089132722            2 
 1446000    1.0050885   -2.5709785    1533.6063  0.088382105  0.089118416            1 
 1447000     1.022372   -2.5638988    1536.7616  0.088502739   0.08910506            6 
 1448000    1.0273495   -2.5538337    1539.3565  0.088590961  0.089091451            1 
 1449000    1.0241566   -2.5574329    1527.7219  0.087860704  0.089077984            2 
 1450000     1.011332   -2.5765378    1534.4012  0.088183978  0.089063935            3 
 1451000    1.0201133   -2.5615158    1535.8497  0.088206391  0.089050114            2 
 1452000    1.0231604    -2.561464    1543.5887  0.088589804  0.089036458            2 
 1453000   0.98955753   -2.5579342    1547.3197  0.088742811  0.089023386            5 
 1454000    1.0031577   -2.5531943    1544.7922  0.088536924  0.089010143            3 
 1455000    1.0267801   -2.5777059    1543.9345   0.08842695  0.088996762            1 
 1456000    1.0227718   -2.5669446    1543.5578  0.088344654  0.088983087            2 
 1457000    1.0217422    -2.561544     1540.502  0.088109243  0.088969842            1 
 1458000    1.0020335   -2.5454712    1548.6345  0.088513634  0.088957224            2 
 1459000    1.0320819   -2.5582892     1546.851  0.088351094  0.088943973            2 
 1460000    1.0126877   -2.5605174    1552.0524  0.088587467   0.08893152            1 
 1461000     1.020001   -2.5800245    1548.0102   0.08829627  0.088918713            1 
 1462000    1.0374104   -2.5670282    1550.3871  0.088371356  0.088906054            1 
 1463000    1.0241722   -2.5714355    1553.3845  0.088481688  0.088893604            3 
 1464000    1.0373824   -2.5904419    1550.6137   0.08826353  0.088880932            2 
 1465000    1.0096427    -2.564391    1554.9799  0.088451644  0.088868665            2 
 1466000     1.004579    -2.564333    1555.0063  0.088392812  0.088856312            2 
 1467000    1.0069579   -2.5663785    1552.4118  0.088185172  0.088843683            1 
 1468000    1.0065202   -2.5634058    1559.0736  0.088503271  0.088831251            3 
 1469000    1.0086141   -2.5768444    1557.9364  0.088378514  0.088818648            6 
 1470000    1.0026666   -2.5493954    1560.6362  0.088471441  0.088805987            2 
 1471000    1.0178559   -2.5760478    1558.0417  0.088264314  0.088793242            2 
 1472000    1.0017147   -2.5266884    1560.9547  0.088369266  0.088780013            3 
 1473000    1.0114186   -2.5799285    1560.6334  0.088291097  0.088767452            5 
 1474000    1.0021212   -2.5721956    1558.8089  0.088128045  0.088754623            3 
 1475000    1.0088757   -2.5599666     1556.569  0.087941749  0.088741191            3 
 1476000    1.0364479   -2.5739726     1561.097  0.088137817  0.088728057            3 
 1477000    1.0236733   -2.5695461    1568.9613  0.088521852  0.088714911            2 
 1478000    1.0317181   -2.5555854    1557.7915  0.087832179  0.088701447            3 
 1479000   0.99106085    -2.578779    1565.5428  0.088209533  0.088687542            1 
 1480000    1.0220101   -2.5497902    1567.5067  0.088260511  0.088674357            7 
 1481000    1.0108577   -2.5514395    1566.4716  0.088142675  0.088661058            3 
 1482000    1.0141733   -2.5539653    1571.1582   0.08834673  0.088647794            1 
 1483000    1.0322427   -2.5817655    1567.0574  0.088056719  0.088635013            1 
 1484000    1.0006241   -2.5735179    1564.9043  0.087876475  0.088621854            3 
 1485000    1.0017628    -2.562598     1573.129  0.088278847  0.088607963            2 
 1486000    1.0169218   -2.5655419    1567.2228  0.087888226  0.088594032            2 
 1487000    1.0123206    -2.567358    1564.9558  0.087702072  0.088580323            3 
 1488000   0.99502448   -2.5681937    1571.4995  0.088009605  0.088566353            3 
 1489000    1.0127033   -2.5415436     1567.977  0.087753357   0.08855235            8 
 1490000    1.0247492   -2.5787002    1569.4395  0.087776259  0.088538231            3 
 1491000    1.0197078   -2.5704981    1576.2392  0.088097427  0.088524009            1 
 1492000    1.0239054   -2.5897358    1568.0291  0.087579822  0.088509949            1 
 1493000    1.0043365   -2.5787292    1573.2526  0.087812717  0.088495538            2 
 1494000     1.023016   -2.6148878     1562.251  0.087140282  0.088480677            1 
 1495000     1.014003   -2.5510543    1571.8585  0.087617528  0.088465785            3 
 1496000   0.99929412   -2.5783027    1573.2554  0.087636778  0.088451761            3 
 1497000    1.0053513   -2.6018371    1570.2243  0.087409503  0.088437741            3 
 1498000    1.0280014   -2.5551111    1578.5813  0.087816049  0.088423852            2 
 1499000    1.0283968   -2.5594928    1571.3244  0.087354037  0.088409937            2 
 1500000    1.0080114    -2.537642    1578.7353  0.087707515  0.088395724            2 
 1501000    1.0069549    -2.568947    1571.0233  0.087220923  0.088381646            2 
 1502000   0.99375855   -2.5920367     1576.711  0.087478417  0.088367249            6 
 1503000   0.99672052   -2.5589472    1580.2482  0.087616334  0.088352877            2 
 1504000    1.0003343   -2.5504209    1577.8988  0.087427902  0.088339018            1 
 1505000     1.008744   -2.5719706    1581.3988  0.087563608  0.088325115            1 
 1506000    1.0275877   -2.5646627    1578.6921  0.087355695  0.088311126            2 
 1507000     1.006072   -2.5458887    1585.1475  0.087654693  0.088296994            3 
 1508000    1.0406212   -2.5540539      1589.51  0.087837642  0.088282802            3 
 1509000    1.0047744   -2.5809347    1584.9444  0.087527301  0.088268937            2 
 1510000   0.99071015   -2.5588288     1577.596  0.087063796  0.088254896            2 
 1511000    1.0107386   -2.5730044     1590.649  0.087726062  0.088240682            4 
 1512000    1.0069924   -2.5767705    1590.6722  0.087669325  0.088226497            1 
 1513000    1.0125041   -2.5881788    1588.4667  0.087489902  0.088212591            1 
 1514000    1.0316951   -2.5825983     1585.631  0.087276034  0.088199122            3 
 1515000    1.0241543   -2.5711327    1596.3024  0.087805414  0.088185282            2 
 1516000     1.008011   -2.5726741     1592.103  0.087516653  0.088171696            3 
 1517000    1.0080075   -2.5944226    1592.7544   0.08749475   0.08815868            2 
 1518000    1.0250058   -2.5920839    1596.0002  0.087615296   0.08814547            3 
 1519000    0.9947482   -2.5596067    1601.2997  0.087848349  0.088132013            2 
 1520000   0.99891184   -2.5806763    1597.7913  0.087598207  0.088118987            2 
 1521000   0.99948894   -2.6014857    1590.7083  0.087152549  0.088105434            2 
 1522000    1.0244395   -2.5716326    1600.4592  0.087629173  0.088091875            2 
 1523000    1.0139408   -2.5864393    1599.6185  0.087525636  0.088078415            2 
 1524000    1.0008187   -2.5551952    1604.7237  0.087747357   0.08806499            3 
 1525000    1.0278273   -2.5794102    1598.7172  0.087361595  0.088051513            1 
 1526000   0.98493185   -2.5564133    1599.8486  0.087366133   0.08803813            3 
 1527000    1.0052729   -2.5802414    1599.3706   0.08728283  0.088025001            1 
 1528000   0.98481662    -2.510818    1606.0293  0.087588861  0.088011802            2 
 1529000    1.0040533   -2.5716176    1600.0383   0.08720505  0.087998707            3 
 1530000    1.0040986   -2.5950866    1605.2675  0.087432868  0.087985911            4 
 1531000    1.0220825   -2.5743857    1607.1526  0.087478368  0.087973064            3 
 1532000    1.0100916   -2.5828492     1609.024  0.087523064  0.087960047            3 
 1533000    1.0179166   -2.5816725    1604.9172  0.087242727  0.087947183            2 
 1534000   0.99261931   -2.5807304    1614.4031  0.087701167  0.087934759            1 
 1535000     1.019716   -2.5814579    1609.0785  0.087354966   0.08792183            2 
 1536000    1.0134683   -2.5922297    1614.2872  0.087580686  0.087909098            3 
 1537000    1.0235207   -2.5678676    1613.2698  0.087468543  0.087896306            1 
 1538000   0.99007756    -2.593854    1615.2199  0.087517335  0.087883858            2 
 1539000   0.99938836   -2.6005258    1609.9202    0.0871735  0.087870784            2 
 1540000    1.0093647    -2.567421    1619.2327  0.087620816  0.087857745            2 
 1541000    1.0126426   -2.5913881    1609.8143  0.087054633  0.087845025            1 
 1542000   0.99750002   -2.5805588     1618.974   0.08749319  0.087832031            2 
 1543000      1.00489   -2.5913537     1611.558  0.087035971   0.08781875            1 
 1544000   0.98370767   -2.5825931    1613.6614  0.087093122  0.087806026            3 
 1545000     1.000368   -2.5715266    1614.9307  0.087105216  0.087792351            1 
 1546000    1.0117511   -2.5846854     1620.795  0.087364977  0.087778989            4 
 1547000   0.99752866   -2.5665749    1622.4115  0.087395575  0.087765576            1 
 1548000    1.0090503   -2.5775107    1613.5985  0.086864691  0.087752809            4 
 1549000   0.98690034   -2.5859968    1624.6193  0.087401513  0.087739588            1 
 1550000    1.0097352   -2.5938396    1632.7063  0.087779907  0.087727202            2 
 1551000    1.0022165   -2.5945979    1627.9368  0.087467056  0.087714656            1 
 1552000   0.98308359   -2.5732322    1622.2655  0.087106178   0.08770232            4 
 1553000    1.0118156    -2.593955    1628.7879  0.087400079  0.087689512            1 
 1554000    1.0132342   -2.5619382    1628.3653  0.087321176  0.087676734            2 
 1555000   0.97313292   -2.5978635    1619.0853  0.086767702  0.087663894            2 
 1556000    0.9977527   -2.5706023     1629.483  0.087268799   0.08765074            5 
 1557000    1.0001226   -2.5546331    1635.7956  0.087550608  0.087637822            3 
 1558000    1.0105477   -2.5842114    1630.9046   0.08723281  0.087624984            2 
 1559000    1.0139092   -2.5881324     1628.216  0.087033142  0.087611843            2 
 1560000   0.99211007   -2.5937181    1629.9323  0.087069033  0.087598497            2 
 1561000   0.98796439   -2.5629766    1629.4985  0.086990095  0.087585792            3 
 1562000    1.0095116   -2.5687776    1639.7648  0.087482117  0.087573192            3 
 1563000   0.98270699   -2.5868824    1631.0935  0.086963824  0.087560894            1 
 1564000   0.99399157   -2.5971502    1642.8634  0.087535345  0.087548292            1 
 1565000    1.0117463   -2.6008859    1640.4312  0.087349906   0.08753612            1 
 1566000    1.0285933   -2.5959044    1634.5164  0.086979372  0.087523282            3 
 1567000   0.99060226   -2.5681875    1638.5162  0.087136576  0.087510788            1 
 1568000   0.99777353   -2.5883538    1648.2336  0.087597452   0.08749893            3 
 1569000    1.0208169   -2.5686728    1639.0353  0.087053076  0.087486752            2 
 1570000   0.99621636   -2.5848789    1645.5536  0.087343607  0.087475116            2 
 1571000    1.0100717   -2.5759365    1645.1591  0.087267083  0.087463205            2 
 1572000   0.98212295   -2.5966422    1642.4673  0.087068878  0.087450986            1 
 1573000    1.0035099   -2.5586657    1643.5805  0.087072497  0.087438838            1 
 1574000    1.0235477   -2.5777088    1648.1815  0.087260775  0.087426816            3 
 1575000   0.98352403   -2.6017938    1651.8643   0.08740023  0.087415099            6 
 1576000   0.99971527   -2.5701318    1647.1588  0.087095963  0.087403205            2 
 1577000   0.99876375   -2.5953332    1643.1771  0.086830328  0.087390818            2 
 1578000    1.0034265     -2.55671    1646.8628  0.086969943  0.087378173            3 
 1579000   0.98592119   -2.5809057    1653.1219  0.087245191  0.087365746            2 
 1580000   0.99571599   -2.5806833    1651.3375  0.087095859  0.087353023            1 
 1581000    1.0122212   -2.5828776    1650.4932  0.086996267  0.087340197            2 
 1582000   0.97895347   -2.5698284    1648.2079  0.086820897  0.087327284            1 
 1583000    1.0106956   -2.5780041    1653.8772  0.087064499  0.087314272            3 
 1584000   0.98683194   -2.5849073     1650.915  0.086853691  0.087301453            1 
 1585000   0.98842374   -2.5864832    1646.6456  0.086574427  0.087288109            2 
 1586000    1.0024565   -2.6068501    1650.5255  0.086723704  0.087274623            4 
 1587000   0.98992969   -2.5859244    1645.8562  0.086423873  0.087261136            3 
 1588000   0.99980267   -2.5824177    1646.4695  0.086401633  0.087247526            2 
 1589000    1.0060279   -2.5877213    1655.1706  0.086803579  0.087234186            2 
 1590000   0.98301087    -2.572367    1655.1422  0.086747493  0.087221055            3 
 1591000   0.99083917   -2.5874211    1658.6099  0.086874603   0.08720813            2 
 1592000    1.0127729   -2.5855405    1658.6267  0.086820909   0.08719492            3 
 1593000    1.0061464   -2.5887195    1657.7791  0.086722069   0.08718124            1 
 1594000   0.96611233   -2.5510826    1665.8504  0.087089628  0.087167811            1 
 1595000   0.99943578   -2.5715897    1669.0707  0.087203277  0.087154416            2 
 1596000   0.99388358   -2.6198738    1657.1339  0.086525372   0.08714075            3 
 1597000   0.99725927   -2.5595325    1661.6234  0.086705456  0.087127023            2 
 1598000   0.99065889   -2.5599257    1658.5632  0.086491617  0.087113343            2 
 1599000   0.99302207   -2.5669093    1659.2987  0.086475856  0.087099453            3 
 1600000   0.98683759   -2.5965148      1659.83  0.086449481  0.087085558            2 
 1601000   0.99298244    -2.600508    1662.7607  0.086548028  0.087071464            1 
 1602000   0.97902495   -2.5579431    1658.5287   0.08627386  0.087057018            3 
 1603000    1.0055565   -2.5446595    1662.9055  0.086447574  0.087042744            1 
 1604000   0.98705088   -2.5876515    1663.2693  0.086412576  0.087028318            2 
 1605000    0.9923344    -2.579272    1656.2006  0.085991724  0.087013771            3 
 1606000   0.98969743   -2.5859106    1664.6144   0.08637476  0.086999376            2 
 1607000    1.0056459   -2.5916578    1661.8852  0.086179484  0.086985371            1 
 1608000   0.97430097   -2.5637887    1664.7175  0.086272675  0.086971265            4 
 1609000   0.99647385   -2.5716749    1661.0435  0.086028769  0.086956627            2 
 1610000    1.0064354   -2.5956559    1655.2618  0.085676075  0.086941781            2 
 1611000   0.98497401   -2.5963126    1659.9208  0.085863892  0.086926823            6 
 1612000   0.98527262   -2.5985907    1663.2512  0.085982797  0.086911962            2 
 1613000    1.0188939   -2.6076481    1665.4524  0.086043214  0.086896876            1 
 1614000   0.96376802   -2.5895774    1663.4373  0.085885858  0.086882108            2 
 1615000   0.98239663   -2.5957857    1668.0871  0.086072605  0.086867611            3 
 1616000    1.0287384    -2.613896    1674.1051  0.086329676  0.086853249            2 
 1617000   0.96276551   -2.5641201    1668.8425  0.086005074  0.086838255            6 
 1618000    1.0013158   -2.5882217    1671.5911  0.086093483   0.08682349            3 
 1619000   0.98665999   -2.6003297    1668.9084  0.085902221  0.086808854            2 
 1620000    1.0008381   -2.5835499    1673.1702  0.086068425  0.086794023            2 
 1621000    1.0083737   -2.5799726    1670.1739  0.085861293  0.086779551            1 
 1622000   0.98593339   -2.5740716    1669.1718  0.085756874  0.086764957            4 
 1623000    1.0221919   -2.5637576      1668.47     0.085668  0.086750584            3 
 1624000   0.99867091   -2.5856301    1673.1933  0.085857618  0.086736086            3 
 1625000   0.98466774   -2.5796852    1676.7558  0.085987478  0.086721508            3 
 1626000   0.98680019   -2.6166268    1681.0576  0.086155066  0.086707143            3 
 1627000   0.99079593    -2.579805    1676.7854  0.085883293  0.086692541            3 
 1628000   0.99617668    -2.579233    1678.9675  0.085942233  0.086678633            2 
 1629000    1.0003572   -2.5826858    1683.3262  0.086112451  0.086664382            3 
 1630000   0.99333875   -2.5911585    1681.9516  0.085989344  0.086650342            2 
 1631000    0.9988101   -2.6223713    1682.8467  0.085982358  0.086636045            3 
 1632000   0.98535944   -2.5872558    1677.9067  0.085677423    0.0866219            3 
 1633000      0.96335   -2.5574202    1691.1794  0.086302278  0.086607884            2 
 1634000   0.98433984   -2.5971188    1686.4643  0.086008991  0.086593392            4 
 1635000   0.99478299   -2.5559581     1687.226  0.085995209  0.086578864            1 
 1636000   0.96117388    -2.600559    1683.1713   0.08573611  0.086564214            2 
 1637000    1.0172293   -2.5794627    1689.4297  0.086002328  0.086549538            2 
 1638000    0.9878429   -2.6041449    1686.6936  0.085810621  0.086535353            2 
 1639000   0.96234311   -2.6154055    1688.3777  0.085843894  0.086520709            1 
 1640000    1.0024006   -2.6298369    1679.9449  0.085363055  0.086506078            2 
 1641000   0.99968345   -2.6501886    1680.1169  0.085319767  0.086491347            4 
 1642000   0.97150041   -2.6119477    1682.9819  0.085413208  0.086476566            3 
 1643000    0.9975651   -2.5878566    1691.4702  0.085791751  0.086462001            2 
 1644000   0.97351938   -2.5773357    1691.3692  0.085734449  0.086447353            1 
 1645000   0.97953589   -2.5959404    1689.5051  0.085587896  0.086432859            3 
 1646000    1.0071957   -2.6058977    1686.1516  0.085366122  0.086418528            4 
 1647000   0.99779324   -2.6013756    1691.6199  0.085590966  0.086404138            2 
 1648000   0.98995403     -2.61823    1699.8314  0.085954258   0.08638993            3 
 1649000    0.9974939   -2.6168503    1689.6354  0.085386872  0.086375268            1 
 1650000   0.97553928   -2.6030608    1699.2041  0.085818387   0.08636121            2 
 1651000   0.98349081   -2.5550951    1705.6052  0.086089501  0.086347263            3 
 1652000   0.98915608   -2.5878404    1700.0135  0.085755321  0.086333338            1 
 1653000   0.99339297   -2.5939014    1693.7563  0.085387997  0.086319039            1 
 1654000   0.99026355   -2.5615248    1703.4814  0.085826349  0.086304855            4 
 1655000   0.99162538   -2.6254774    1699.2706  0.085562468   0.08629046            1 
 1656000   0.99720573   -2.5886277    1696.3652  0.085364593  0.086276293            2 
 1657000   0.96875973    -2.582783    1699.4461  0.085468021   0.08626232            3 
 1658000   0.99885851   -2.6110342    1700.9711  0.085493117   0.08624776            3 
 1659000   0.98809712    -2.582001    1693.5205  0.085067334  0.086233562            3 
 1660000   0.98577204   -2.6004807    1706.3771  0.085661499  0.086219013            3 
 1661000    0.9768701   -2.6175038    1708.2514  0.085703965  0.086204871            1 
 1662000   0.98203533   -2.6022731    1701.7323  0.085325526   0.08619049            2 
 1663000    0.9985693   -2.5866999    1699.0547  0.085140043  0.086175981            1 
 1664000   0.98520245   -2.5973612    1700.3231  0.085152397  0.086161733            3 
 1665000   0.99889845   -2.5904834    1704.9082  0.085330739  0.086147414            2 
 1666000   0.99953605   -2.6159718    1709.9302  0.085530724  0.086132865            5 
 1667000    1.0041974    -2.592081     1699.761  0.084971055  0.086118414            1 
 1668000   0.97281736   -2.5888012    1705.4936  0.085206516  0.086103666            4 
 1669000   0.99505089   -2.5864486    1706.8268  0.085222029  0.086088928            1 
 1670000   0.99439992   -2.5715133    1715.3421  0.085595915  0.086074418            2 
 1671000   0.99615404   -2.6064142    1700.5973  0.084809359  0.086059678            6 
 1672000   0.97822598   -2.5841011    1702.7155  0.084864207  0.086044931            5 
 1673000   0.96303062   -2.6075519    1707.5015  0.085051878  0.086030026            2 
 1674000   0.97696251   -2.5828045    1708.4225   0.08504692  0.086015032            2 
 1675000   0.99314747   -2.6377121    1705.0186  0.084826796  0.085999703            2 
 1676000   0.98208054   -2.5721715     1713.403  0.085193067  0.085984931            3 
 1677000   0.96018087   -2.5940634    1712.2788  0.085086404  0.085969905            3 
 1678000   0.97627747    -2.615538    1707.7989  0.084813215  0.085954937            4 
 1679000   0.96296718    -2.597191    1713.2807  0.085034777  0.085940457            1 
 1680000    1.0089489   -2.6227467    1719.8113  0.085308101  0.085925232            3 
 1681000    1.0043144   -2.6019975    1716.5598  0.085096163  0.085910085            2 
 1682000    1.0218691   -2.6018879    1710.1147  0.084726252  0.085895022            2 
 1683000   0.98319959   -2.5911737    1720.3982  0.085185098  0.085880372            3 
 1684000   0.98484647   -2.5797545     1716.637  0.084948386  0.085865423            4 
 1685000   0.99157708   -2.6031508    1714.2266  0.084778765   0.08585037            3 
 1686000    0.9930912   -2.6186635    1714.1305  0.084723732  0.085835116            4 
 1687000   0.99784677   -2.6108371    1720.1091  0.084968836  0.085820002            2 
 1688000   0.97465916   -2.5932737    1721.3106  0.084977816  0.085804998            2 
 1689000   0.98175983   -2.6017656    1721.5587  0.084939743  0.085790263            1 
 1690000    0.9580727   -2.6132618    1720.9161  0.084857796    0.0857752            2 
 1691000    0.9914403   -2.6053501    1717.1595  0.084622485   0.08576032            2 
 1692000   0.96983586   -2.5928943    1725.0766  0.084962402    0.0857459            2 
 1693000    0.9838839   -2.6042924    1726.9635  0.085005093  0.085731055            4 
 1694000   0.96210247   -2.6348179    1719.5467  0.084590059  0.085716228            1 
 1695000    0.9701239   -2.6241717    1725.6378  0.084839616  0.085701298            2 
 1696000   0.98966939   -2.6153339     1729.133  0.084961332  0.085686288            2 
 1697000   0.99005982    -2.611129    1722.7769  0.084599142  0.085671639            2 
 1698000    1.0099745   -2.5963223    1727.7602  0.084793887  0.085656863            1 
 1699000    0.9901034    -2.618489    1731.0603  0.084905844  0.085642195            2 
 1700000   0.99452943   -2.6185899    1724.6902  0.084543636   0.08562733            2 
 1701000   0.98371864   -2.5847747     1730.948  0.084800512  0.085612796            1 
 1702000   0.99103936   -2.5924582    1730.7911  0.084743005  0.085597874            3 
 1703000   0.98054993   -2.6256264    1733.3291  0.084817433   0.08558354            3 
 1704000   0.96333729   -2.6011032    1731.5581   0.08468105  0.085568644            3 
 1705000   0.96959753   -2.6071555    1727.6659  0.084441147  0.085554115            1 
 1706000   0.97675029   -2.6022891    1743.1306   0.08514706  0.085539803            3 
 1707000   0.95469324   -2.6173735    1739.3466  0.084912449  0.085525406            4 
 1708000    0.9990421    -2.623807    1732.4483  0.084526167  0.085510344            2 
 1709000     0.967479   -2.5814061    1745.1307  0.085095117  0.085495479            1 
 1710000   0.96155458   -2.6029593    1736.3858  0.084619193  0.085480565            5 
 1711000   0.97100497    -2.614397    1738.8084  0.084687725  0.085465643            2 
 1712000   0.98033384   -2.6099217    1738.5242  0.084624423  0.085450397            2 
 1713000   0.97643106   -2.6153655    1737.3846  0.084519584  0.085435216            3 
 1714000   0.97280959   -2.6101641    1743.0344  0.084744963  0.085420176            1 
 1715000   0.96405141   -2.6042324    1734.2868  0.084270497   0.08540446            6 
 1716000   0.97271451    -2.594671    1739.7058  0.084484549  0.085389101            7 
 1717000   0.98759766   -2.6203786    1748.6361   0.08486877  0.085373649            2 
 1718000    1.0086524   -2.5862833    1743.8221  0.084585861  0.085358443            3 
 1719000   0.98100699   -2.6070059     1739.082  0.084306863     0.085343            4 
 1720000   0.97279216   -2.6144169    1739.2175  0.084264415  0.085327504            3 
 1721000   0.96145599   -2.6139583    1733.6576  0.083946235  0.085311691            2 
 1722000   0.98675775   -2.6124959    1735.1264  0.083968565  0.085295892            3 
 1723000   0.96022789   -2.5924261    1740.0509  0.084158006  0.085279811            1 
 1724000   0.96429615   -2.6181084    1743.6393  0.084282642  0.085263752            2 
 1725000   0.98172892   -2.5809153    1743.9436  0.084248483  0.085247746            1 
 1726000   0.96773105    -2.610474    1742.7103  0.084140127  0.085231791            3 
 1727000   0.97488538   -2.6095071    1735.2152  0.083729742   0.08521582            4 
 1728000   0.98940334    -2.613605    1745.8422   0.08419378  0.085199755            2 
 1729000   0.97372576   -2.5919826    1742.1092  0.083965162  0.085184008            1 
 1730000    0.9652364   -2.5970448     1746.041   0.08410602   0.08516786            6 
 1731000   0.98138833   -2.6063036    1741.2363  0.083826124  0.085151957            1 
 1732000    0.9915018   -2.6351871    1747.2912  0.084069053  0.085136093            2 
 1733000   0.96301557   -2.5977986    1748.4147  0.084074569  0.085120137            2 
 1734000   0.97442135   -2.6371573    1746.7504  0.083946099   0.08510396            1 
 1735000   0.97084114   -2.6189648    1750.0283  0.084055153  0.085087777            4 
 1736000   0.96462908   -2.6353052    1746.8732  0.083855282  0.085071688            2 
 1737000   0.96712632   -2.5975309    1749.3746  0.083927011   0.08505529            3 
 1738000    0.9886561   -2.6089301    1743.1502  0.083580277  0.085038763            2 
 1739000   0.99141166   -2.6217411    1749.2325  0.083823676  0.085022466            3 
 1740000   0.96748194    -2.597191    1750.5651  0.083839324  0.085005914            5 
 1741000   0.97889286   -2.6031033    1752.1403  0.083866567  0.084989867            1 
 1742000   0.96562476   -2.6354451    1748.3722  0.083638164  0.084973566            2 
 1743000   0.97608447   -2.6207867    1750.5289  0.083693294  0.084957197            1 
 1744000   0.96759666    -2.636103    1751.7836  0.083705257  0.084940965            2 
 1745000   0.96561124    -2.626845    1758.5834  0.083982015  0.084924807            2 
 1746000   0.98236848   -2.6069214    1757.6388  0.083888832  0.084908847            3 
 1747000   0.96755709   -2.6055574    1752.6812  0.083604333  0.084893186            1 
 1748000    0.9721547   -2.6133861    1756.6639  0.083746372   0.08487744            5 
 1749000   0.96520329   -2.6103851    1759.7027  0.083843279  0.084861735            2 
 1750000   0.95332659    -2.612072    1762.5824  0.083932496  0.084846004            2 
 1751000   0.96975433   -2.6101809    1755.0625  0.083526676  0.084830665            5 
 1752000   0.95564698   -2.6088275    1763.9237  0.083900482  0.084814905            2 
 1753000    0.9531078   -2.5935258    1763.7773  0.083845662  0.084799047            1 
 1754000   0.98632678   -2.6367975    1759.6985  0.083604072  0.084783642            2 
 1755000   0.94175203   -2.6250238     1762.116  0.083671223  0.084768042            2 
 1756000   0.96787684   -2.6017395     1764.484  0.083735951    0.0847523            2 
 1757000   0.95793189   -2.6273403    1766.3945  0.083778907  0.084736743            1 
 1758000   0.99477788   -2.5969489    1764.8631  0.083658659  0.084721294            2 
 1759000   0.97265293   -2.6082307    1766.4383  0.083685728  0.084705461            2 
 1760000   0.96332347   -2.6297118    1764.2099  0.083532668  0.084689774            2 
 1761000   0.96869886   -2.6346707    1765.5611  0.083549173  0.084674278            3 
 1762000   0.96169688   -2.6004083    1768.9194  0.083660586  0.084658575            4 
 1763000   0.99757355   -2.6230723    1768.0535    0.0835722  0.084643235            3 
 1764000    0.9508763   -2.6141211    1773.4654  0.083780487  0.084628015            4 
 1765000     0.960031   -2.6277687    1772.0117  0.083664385  0.084612997            2 
 1766000   0.98054372   -2.6233135    1772.3025  0.083630735   0.08459777            2 
 1767000   0.96626299   -2.6469186    1772.5441  0.083594796   0.08458241            2 
 1768000   0.97919852   -2.6309227    1776.4551  0.083731858  0.084567497            2 
 1769000   0.95175936   -2.6177135    1774.1705  0.083576902  0.084552369            4 
 1770000   0.97162849   -2.6210245    1776.2835  0.083629165  0.084537029            1 
 1771000   0.97496259   -2.6107517    1777.3681  0.083632983  0.084521251            3 
 1772000   0.97537415   -2.6564473    1772.8483  0.083373227  0.084505311            2 
 1773000   0.96042933   -2.6192287     1771.782  0.083276084  0.084489477            5 
 1774000   0.96171504   -2.6334938    1780.9662  0.083660571  0.084473648            1 
 1775000   0.97984356   -2.6098423    1777.7342  0.083461698  0.084458081            3 
 1776000   0.98140919   -2.6088701    1773.8813  0.083233918  0.084442372            2 
 1777000   0.97597609   -2.6159738     1782.542  0.083593229  0.084426599            4 
 1778000    0.9545167   -2.6236169    1777.0656   0.08328954  0.084410731            3 
 1779000   0.98301033    -2.614502    1783.7977   0.08355807  0.084394861            2 
 1780000   0.98238533   -2.6012519    1780.2973   0.08334725  0.084379967            2 
 1781000   0.96285161   -2.6319916    1783.1678  0.083434764   0.08436438            3 
 1782000     0.969319   -2.6193469    1783.1133  0.083385397  0.084349186            2 
 1783000   0.99114034     -2.60945    1783.2986   0.08334729  0.084333689            1 
 1784000   0.95633587   -2.6223481    1783.2955  0.083300425  0.084318433            1 
 1785000   0.97669886   -2.6120158    1787.2224  0.083437089  0.084303054            2 
 1786000   0.96549197   -2.6088509    1794.6657  0.083737666  0.084287902            1 
 1787000   0.99174921   -2.6202999    1788.9625   0.08342485  0.084272835            2 
 1788000   0.95416403    -2.643784    1777.5481  0.082846202  0.084257507            2 
 1789000   0.96514714   -2.6280805    1786.9431  0.083237519  0.084242277            5 
 1790000   0.97351427   -2.6229016    1788.7042   0.08327301  0.084226889            2 
 1791000    0.9601371   -2.6028786    1783.0933  0.082965442  0.084211763            5 
 1792000   0.94737085   -2.6054274    1790.1797  0.083248683  0.084196522            3 
 1793000    0.9579576   -2.5906458    1792.2528  0.083298607  0.084181159            2 
 1794000   0.97017476   -2.6335155    1785.7151  0.082948493  0.084165761            2 
 1795000   0.95178772   -2.6390093    1793.8631  0.083280552  0.084150351            2 
 1796000   0.96251206   -2.6183431    1796.3635  0.083350201  0.084135271            3 
 1797000   0.95180985   -2.6079448    1797.1154  0.083338687  0.084120065            2 
 1798000   0.94744933   -2.6324759    1797.4377  0.083307274  0.084104608            1 
 1799000   0.97816973   -2.6268202    1793.4937  0.083078271  0.084089647            4 
 1800000   0.96069333   -2.6349996    1790.7062  0.082903066  0.084074045            2 
 1801000    0.9883683    -2.608304    1796.2842  0.083115129  0.084058958            4 
 1802000   0.93987193   -2.6338905     1793.588  0.082944322  0.084043456            2 
 1803000   0.96455513   -2.6308228    1805.1149  0.083431082  0.084028492            2 
 1804000   0.97015105   -2.6325695      1802.58  0.083267737  0.084013563            4 
 1805000   0.95981806   -2.6118424    1792.9621  0.082777567  0.083998233            3 
 1806000   0.97328292   -2.6514878    1795.2556  0.082837558  0.083982836            2 
 1807000   0.93798092   -2.6557495     1803.273  0.083161458  0.083967301            2 
 1808000   0.94875494   -2.6316175    1798.3317  0.082887709  0.083951793            2 
 1809000   0.96492625   -2.6268369    1799.6736  0.082903703  0.083936192            2 
 1810000   0.96488638   -2.6385412    1793.6511  0.082580622  0.083920444            3 
 1811000   0.96550869   -2.6125542    1801.4227  0.082892635  0.083905054            3 
 1812000   0.95611135   -2.6053275     1799.131   0.08274149  0.083889725            1 
 1813000   0.97156377   -2.6277549    1810.1306  0.083201445  0.083874497            1 
 1814000   0.96594788   -2.6115948    1805.4821  0.082942028  0.083859349            3 
 1815000   0.98061971   -2.6199953    1804.2538  0.082839936  0.083843986            2 
 1816000   0.97594252   -2.6334405    1805.6874  0.082860106   0.08382873            3 
 1817000   0.95764102   -2.6302095    1803.1666  0.082698889  0.083813254            6 
 1818000   0.96080506   -2.6325576    1800.5554  0.082533709  0.083797541            2 
 1819000   0.97235743   -2.6109847     1807.469  0.082805066  0.083781798            4 
 1820000   0.94831305   -2.6572976    1806.7355  0.082725984  0.083766762            1 
 1821000   0.96334824   -2.6157547    1810.8209  0.082867513  0.083751303            3 
 1822000   0.94925627   -2.6475257    1803.8605  0.082503683  0.083736057            4 
 1823000   0.95830957    -2.614256     1810.802  0.082775737  0.083720786            2 
 1824000   0.98760772   -2.6329384    1810.8706  0.082733487  0.083705715            3 
 1825000   0.96483111   -2.6133563    1811.4957  0.082716699  0.083690701            4 
 1826000   0.96184424    -2.656608    1817.9459  0.082965767  0.083675698            5 
 1827000   0.96190083    -2.641575    1812.4976  0.082671846  0.083660116            1 
 1828000   0.94811623   -2.6112066    1813.3599  0.082665935  0.083644476            2 
 1829000   0.98867263   -2.5974691    1815.0628  0.082698324  0.083629224            2 
 1830000   0.97131962   -2.6478772    1818.2615  0.082798792  0.083613922            3 
 1831000   0.96197237   -2.6288461    1818.2415  0.082752664  0.083598413            3 
 1832000   0.95226952   -2.6473275    1821.0595  0.082835678  0.083582778            1 
 1833000   0.96089789   -2.6383625    1811.6788  0.082364013  0.083567086            4 
 1834000   0.95389657   -2.6325851    1819.4372   0.08267163  0.083551529            4 
 1835000   0.97072655   -2.6294377    1811.0435  0.082245392  0.083535913            5 
 1836000   0.95058694   -2.6471831    1816.5028  0.082448386      0.08352            2 
 1837000   0.95213658   -2.6300032    1819.0577  0.082519402  0.083504422            3 
 1838000   0.95483721     -2.64672     1821.617  0.082590541  0.083488692            3 
 1839000   0.93738384   -2.6238566    1814.9098  0.082241696   0.08347307            6 
 1840000   0.97087403   -2.6381433    1826.5908  0.082726031  0.083457556            2 
 1841000    0.9816436   -2.6401231    1814.7088  0.082143255  0.083442232            7 
 1842000   0.97717858    -2.617693    1825.2162  0.082574023  0.083426879            3 
 1843000   0.98145411   -2.6432121    1827.5478  0.082634644  0.083411793            2 
 1844000    0.9725535   -2.6486411    1827.9794  0.082609336   0.08339672            3 
 1845000   0.96615268    -2.631378    1827.7687  0.082555043  0.083381468            3 
 1846000   0.95654606   -2.6256387    1826.0182  0.082431302  0.083366434            1 
 1847000   0.96844333   -2.6311192    1829.7232  0.082553836   0.08335102            4 
 1848000   0.94467832   -2.6167234    1836.0953  0.082796506  0.083335717            3 
 1849000   0.95115506   -2.6284758    1830.3394  0.082492313   0.08332054            7 
 1850000   0.99193094   -2.6251872    1834.7613  0.082646904  0.083305264            1 
 1851000   0.98032791   -2.6086921    1826.6573  0.082237409  0.083290037            2 
 1852000   0.95880047    -2.637796    1827.0905  0.082212497  0.083274623            2 
 1853000   0.96184983   -2.6286893    1832.3704  0.082405577  0.083259392            3 
 1854000   0.94345653   -2.6396489    1831.9506  0.082342258  0.083244201            3 
 1855000   0.93743374   -2.6499434    1831.1866  0.082263549  0.083228992            2 
 1856000    0.9631296   -2.6427155    1828.0849  0.082079961  0.083213781            1 
 1857000   0.96408394    -2.640395     1838.749  0.082514317  0.083198381            2 
 1858000   0.94250898   -2.6219464    1839.7247  0.082513666  0.083183037            5 
 1859000   0.95237535   -2.6555847    1828.1701  0.081951324  0.083167712            3 
 1860000   0.95998186   -2.6685981    1834.6678  0.082198378  0.083152407            3 
 1861000   0.95700238    -2.644237    1837.1517  0.082265433  0.083137184            1 
 1862000   0.94861139   -2.6375894    1837.1816  0.082222594  0.083121864            3 
 1863000   0.96935124   -2.5929977    1839.4775  0.082281154  0.083106605            2 
 1864000   0.96152964    -2.637594    1841.1743   0.08231287  0.083091211            2 
 1865000   0.97726097   -2.6543171    1844.0522  0.082397329  0.083076174            2 
 1866000    0.9410513   -2.6545306    1841.5525  0.082241539  0.083061056            4 
 1867000   0.96431928   -2.6321238    1838.1364  0.082045011  0.083045699            5 
 1868000   0.95513973   -2.6431006     1838.354  0.082010798  0.083030515            1 
 1869000   0.95035602   -2.6506164     1839.176  0.082003566  0.083015048            2 
 1870000   0.94201694   -2.6257947    1848.4353   0.08237234  0.082999805            5 
 1871000   0.93787302   -2.6300998    1845.3143  0.082189305  0.082984736            1 
 1872000   0.93763027   -2.6324685    1844.3123  0.082100798  0.082969454            1 
 1873000   0.96385566   -2.6482308    1846.4737  0.082153129  0.082954246            2 
 1874000   0.94604194   -2.6365447    1847.8813  0.082171883  0.082938698            5 
 1875000   0.95906331   -2.6518333    1843.2606  0.081922695  0.082922785            4 
 1876000   0.94794368   -2.6677535    1841.6766  0.081808662  0.082907259            4 
 1877000   0.95091752   -2.6412072    1843.3403   0.08183894  0.082891888            2 
 1878000   0.96324094   -2.6621036    1841.1518  0.081698254  0.082876371            2 
 1879000   0.95843547   -2.6459519    1848.8142  0.081994597  0.082860565            1 
 1880000   0.96618414   -2.6270846    1849.2525  0.081970413  0.082844838            4 
 1881000   0.93578685   -2.6534211    1841.0263  0.081562391  0.082829074            4 
 1882000    0.9432078   -2.6160733    1857.7605   0.08226003  0.082813547            2 
 1883000   0.94543303    -2.650067    1846.8632  0.081734077  0.082797722            6 
 1884000   0.96488509   -2.6519905    1847.8724  0.081735333  0.082781983            2 
 1885000   0.94363536   -2.6648989    1850.1009  0.081790493  0.082766249            4 
 1886000   0.95695165   -2.6493275    1853.6628  0.081904509   0.08275055            2 
 1887000   0.95517401   -2.6417997    1850.5839  0.081725133  0.082734992            2 
 1888000   0.94695735   -2.6457747    1849.7167  0.081643569  0.082719309            4 
 1889000   0.96150684   -2.6480601    1855.7863   0.08186811  0.082703735            1 
 1890000   0.95233589   -2.6204678    1852.8125  0.081693672  0.082687919            6 
 1891000   0.95666637   -2.6536934    1852.6795  0.081644612  0.082672515            4 
 1892000   0.93630299   -2.6302234    1853.4371  0.081634827  0.082657193            2 
 1893000   0.95629525   -2.6396904    1849.8202  0.081432479  0.082641372            2 
 1894000   0.94301962    -2.674961    1854.4879  0.081594857  0.082625383            2 
 1895000   0.94754613   -2.6235405    1859.4466  0.081769858  0.082609777            2 
 1896000   0.94744885   -2.6446509    1861.0525  0.081797316  0.082594051            3 
 1897000   0.94776339   -2.6321259    1857.2618  0.081587673  0.082578716            2 
 1898000   0.94827637   -2.6249515    1860.5954  0.081691053  0.082563057            3 
 1899000   0.93941705   -2.6366927    1857.5437  0.081514117  0.082547585            4 
 1900000   0.94648296   -2.6616568    1859.9192  0.081575404  0.082531904            3 
 1901000   0.96834859   -2.6656466    1859.9305  0.081532985  0.082516068            4 
 1902000   0.94634868   -2.6308804    1868.1418  0.081849886   0.08250059            3 
 1903000   0.92660791   -2.6657878    1857.7981   0.08135392  0.082485196            4 
 1904000   0.94602462   -2.6653742    1859.9734  0.081406399  0.082469526            3 
 1905000    0.9328765   -2.6542526    1861.0268  0.081409746  0.082453986            3 
 1906000   0.92804162   -2.6543683    1867.5541  0.081652417  0.082438505            3 
 1907000   0.96609114   -2.6403389    1874.5088  0.081913513  0.082423596            2 
 1908000   0.94736281   -2.6502368    1865.2242   0.08146507  0.082408743            2 
 1909000   0.92282327   -2.6570589    1871.9299  0.081715119  0.082393743            4 
 1910000   0.94976742   -2.6381429    1872.5725  0.081700373  0.082379147            2 
 1911000   0.95945435   -2.6347233    1874.2525  0.081730876   0.08236452            1 
 1912000   0.93208106   -2.6450063    1872.8698  0.081627869  0.082349698            3 
 1913000    0.9255181   -2.6313666    1871.8406  0.081540363  0.082334646            2 
 1914000   0.94675407   -2.6685669    1870.5655  0.081442244  0.082319701            3 
 1915000   0.92954113   -2.6675573     1866.571  0.081225892  0.082304659            2 
 1916000   0.97405954   -2.6304974    1875.2346  0.081560308  0.082289571            3 
 1917000   0.95787274   -2.6524561    1875.2885  0.081520104  0.082274711            4 
 1918000   0.93184092   -2.6499751    1877.3177  0.081565769  0.082259807            3 
 1919000   0.92753133   -2.6366899     1874.131  0.081384878   0.08224484            3 
 1920000   0.93837055   -2.6446623    1878.8515  0.081547372  0.082229851            2 
 1921000   0.95950978   -2.6384429    1876.5711  0.081406001  0.082214935            3 
 1922000   0.95345083   -2.6269838    1884.5033  0.081707567  0.082200327            2 
 1923000   0.93469096   -2.6488902    1878.2098  0.081392348   0.08218533            4 
 1924000   0.93759662   -2.6370985    1878.9547  0.081382308  0.082170327            1 
 1925000   0.93341293   -2.6435232    1883.9989  0.081558395  0.082155206            2 
 1926000   0.93747843    -2.640284    1880.7939  0.081377374  0.082140419            3 
 1927000   0.96528729   -2.6529673    1885.0448  0.081518975  0.082125676            2 
 1928000   0.95428042   -2.6375726    1886.2431  0.081528487   0.08211068            2 
 1929000   0.94982436   -2.6491805    1882.3325  0.081317284  0.082095755            2 
 1930000   0.95456936    -2.655301    1888.8579  0.081556903  0.082080762            1 
 1931000   0.94395056   -2.6330122    1886.4921  0.081412569   0.08206558            2 
 1932000   0.92143715   -2.6377073    1880.6971  0.081120473  0.082050367            3 
 1933000   0.92255853   -2.6451649    1883.7747  0.081211187  0.082034936            2 
 1934000   0.94380043   -2.6535665    1881.7532  0.081082093  0.082019765            1 
 1935000    0.9401264   -2.6179627    1881.9017  0.081046584  0.082004605            5 
 1936000   0.93405933   -2.6501303    1880.0099  0.080923293  0.081989588            2 
 1937000    0.9673411   -2.6478602    1887.9105   0.08122141   0.08197437            1 
 1938000   0.91954401   -2.6203548    1894.6421  0.081468957  0.081959213            2 
 1939000   0.93488175   -2.6517009    1886.4468  0.081074729  0.081943928            2 
 1940000   0.93221229   -2.6425363     1887.787  0.081090507  0.081928752            2 
 1941000   0.92822805   -2.6496287    1887.5788   0.08103979  0.081913335            2 
 1942000   0.94264998   -2.6334863    1893.2441  0.081241164  0.081897948            2 
 1943000   0.94658067    -2.650432    1887.0304  0.080932851  0.081883139            3 
 1944000   0.92719829   -2.6516365     1894.552  0.081213649  0.081867922            2 
 1945000    0.9397357   -2.6579363    1883.9965  0.080719645  0.081852635            3 
 1946000   0.95815014   -2.6461412    1894.8114   0.08114129  0.081837427            4 
 1947000    0.9490313   -2.6568791     1887.623  0.080791943  0.081822104            2 
 1948000   0.93181488   -2.6378809     1898.344  0.081209104  0.081806241            2 
 1949000   0.95842041   -2.6530154    1894.8572  0.081018353  0.081790718            3 
 1950000   0.92138191   -2.6340279    1888.3222   0.08069753  0.081775209            2 
 1951000    0.9180368    -2.658109    1882.4566  0.080405629  0.081759525            1 
 1952000   0.94209351   -2.6635378    1898.5661  0.081052171  0.081743819            3 
 1953000   0.94793665   -2.6541972    1897.1879  0.080951866  0.081727952            3 
 1954000   0.95521087   -2.6284613     1894.651  0.080802241  0.081712467            2 
 1955000   0.91932222   -2.6637616    1894.6122   0.08075926   0.08169654            1 
 1956000    0.9403533   -2.6509084    1891.1957  0.080572414  0.081680703            3 
 1957000   0.94618383   -2.6542634    1898.3216   0.08083468  0.081664883            4 
 1958000   0.96749507   -2.6438339    1894.7716  0.080642305  0.081648902            2 
 1959000   0.93071198   -2.6886094    1891.9324  0.080480364  0.081632883            2 
 1960000   0.94553696   -2.6668314    1893.6614  0.080512816  0.081616789            2 
 1961000   0.92786963   -2.6432082    1902.0608  0.080828693  0.081601103            2 
 1962000   0.92925973   -2.6416965    1899.0528  0.080659737  0.081585321            2 
 1963000   0.93258773   -2.6584669    1895.2711  0.080458102  0.081569751            4 
 1964000   0.96593987   -2.6436139    1904.9794  0.080829066  0.081553778            3 
 1965000   0.95071665   -2.6363999    1904.5385  0.080769232  0.081538039            3 
 1966000   0.92895931   -2.6767221    1907.6891  0.080861694  0.081522418            3 
 1967000   0.92688173   -2.6366049    1901.4548  0.080556465  0.081506653            2 
 1968000   0.93386276   -2.6320103    1905.8252  0.080700593  0.081490806            2 
 1969000   0.93515567   -2.6398043    1901.2209  0.080464739  0.081475095            2 
 1970000   0.93349031   -2.6576393    1903.6501  0.080526655   0.08145936            2 
 1971000   0.94498119   -2.6426879    1911.5495  0.080819784  0.081443778            2 
 1972000   0.91964837   -2.6399619    1906.9438  0.080584171  0.081428006            4 
 1973000    0.9380723   -2.6468739    1904.4194  0.080436704  0.081412756            2 
 1974000    0.9309227   -2.6840742     1905.042   0.08042224  0.081397143            2 
 1975000   0.90528033   -2.6818697    1906.5189  0.080443836  0.081381524            3 
 1976000   0.92616354   -2.6523277    1909.1162   0.08051266  0.081366246            1 
 1977000   0.96636396   -2.6555518    1911.0072  0.080551645  0.081350883            3 
 1978000   0.93713797   -2.6682048    1909.6941  0.080455597  0.081335899            2 
 1979000    0.9319899   -2.6530778    1908.1922  0.080351701  0.081320186            2 
 1980000   0.94741933   -2.6586187    1909.8726  0.080381845   0.08130483            2 
 1981000   0.90995662   -2.6526638    1918.5873  0.080707864  0.081289828            1 
 1982000   0.93242379   -2.6680189    1912.3726  0.080405845  0.081274374            2 
 1983000   0.92716947   -2.6542827    1914.2426   0.08044388  0.081259297            2 
 1984000   0.94801498   -2.6415624     1921.592  0.080712031  0.081244209            2 
 1985000   0.93426189    -2.664516    1915.5248  0.080416659  0.081229168            2 
 1986000   0.94104383   -2.6802327    1915.6176  0.080380061  0.081214325            3 
 1987000   0.92368451   -2.6567014    1911.0012  0.080145999  0.081198913            2 
 1988000   0.91887424   -2.6558146    1915.3302  0.080287147  0.081183916            3 
 1989000   0.93915196   -2.6407561     1919.782  0.080433299  0.081168678            1 
 1990000   0.92284854   -2.6781038    1926.4193  0.080670824  0.081153595            4 
 1991000   0.91549026   -2.6757394    1920.3873  0.080377837  0.081138427            6 
 1992000   0.93939362   -2.6575578    1914.7952  0.080103547  0.081123429            5 
 1993000   0.94706273   -2.6493181    1924.7951   0.08048148   0.08110836            4 
 1994000   0.93160782   -2.6548228    1930.3189  0.080671972  0.081093034            3 
 1995000   0.94300295    -2.674597    1928.0131  0.080535217  0.081078132            4 
 1996000   0.93556577   -2.6634085     1928.791  0.080527348  0.081063323            3 
 1997000   0.93056502   -2.6844967    1924.4278  0.080304947  0.081048107            2 
 1998000   0.95658329    -2.666849    1923.9534  0.080244968  0.081032874            2 
 1999000   0.92726664   -2.6766284    1922.9769  0.080164119  0.081017535            3 
 2000000   0.94088748   -2.6515322    1922.9317  0.080122156  0.081002274            3 
 2001000   0.94166462   -2.6534484    1930.8928  0.080413661   0.08098714            3 
 2002000   0.93022288    -2.665116    1928.1811  0.080260617   0.08097204            2 
 2003000   0.95072269   -2.6745415    1934.6228  0.080488551  0.080957061            2 
 2004000   0.94795654   -2.6781385    1931.8075  0.080331317  0.080941964            4 
 2005000   0.92995925   -2.6637489    1930.1586   0.08022272  0.080926975            2 
 2006000   0.93110583   -2.6582821    1934.0262  0.080343393  0.080912282            2 
 2007000   0.95012597    -2.652829    1936.9733  0.080425731  0.080897836            2 
 2008000   0.93663375   -2.6455358    1934.4955  0.080282847  0.080883096            3 
 2009000   0.92344525   -2.6739069     1935.085  0.080267339  0.080868528            6 
 2010000   0.94302911   -2.6847683    1941.2475  0.080482897  0.080854415            2 
 2011000   0.93773711   -2.6734078    1944.1783  0.080564327  0.080839839            2 
 2012000   0.92190294   -2.6794605    1940.3684  0.080366485  0.080825288            3 
 2013000    0.9472487   -2.6537047    1935.5669  0.080127792  0.080810691            2 
 2014000   0.92815481   -2.6361079    1945.7949  0.080511211  0.080796029            2 
 2015000   0.94069932   -2.6744519    1940.9781  0.080272045  0.080781578            5 
 2016000   0.93912021   -2.6614383     1936.285  0.080038234  0.080766908            4 
 2017000   0.91300275   -2.6816757    1938.6593  0.080096651  0.080752132            2 
 2018000   0.92071307   -2.6425149    1945.2566  0.080329394  0.080737601            3 
 2019000   0.91920614   -2.6631066    1940.2267  0.080081998  0.080723235            3 
 2020000   0.94484666   -2.6466307    1937.3334  0.079922996  0.080708947            2 
 2021000   0.91602576   -2.6811481    1937.5166  0.079891002  0.080694131            2 
 2022000   0.92261489   -2.6778392    1934.6636  0.079733911  0.080679024            4 
 2023000   0.93610988   -2.6629359    1948.4684  0.080263156  0.080664406            2 
 2024000   0.92084763   -2.6756676    1943.1511  0.080004575  0.080649395            2 
 2025000   0.92924689   -2.6659303    1939.0743  0.079797296  0.080634549            4 
 2026000   0.91426806   -2.6699915    1934.6003  0.079573885  0.080619338            2 
 2027000   0.92153659   -2.6676124    1947.1206  0.080049359  0.080604263            2 
 2028000    0.9115544    -2.668682    1946.5928    0.0799882  0.080589073            3 
 2029000   0.93795453   -2.6800032    1938.0474  0.079597809  0.080574062            2 
 2030000   0.92880161    -2.666124    1940.8886  0.079675232  0.080558749            2 
 2031000   0.92342004    -2.657943    1947.0987  0.079890805  0.080543421            2 
 2032000   0.91643019   -2.6582499    1946.3955  0.079822652  0.080528314            8 
 2033000    0.9223689   -2.6471354    1944.6476  0.079711738  0.080513232            3 
 2034000   0.92174983   -2.6719027    1945.4368  0.079704884  0.080498302            2 
 2035000   0.92162579   -2.6602709    1947.6209  0.079755157  0.080482915            3 
 2036000   0.93923234   -2.6771012    1945.9341  0.079646944    0.0804676            5 
 2037000   0.92187058   -2.6626205    1942.7956  0.079479448  0.080452085            1 
 2038000   0.93697208   -2.6449567    1950.1516  0.079741235  0.080436859            3 
 2039000   0.92030382   -2.6543989    1952.9317  0.079815749  0.080421493            2 
 2040000     0.913196   -2.6680755    1955.7763  0.079892821  0.080406479            4 
 2041000   0.91945301   -2.6824286    1942.3982  0.079307455  0.080391279            3 
 2042000   0.92483168   -2.6583171    1950.4607  0.079597645  0.080375968            3 
 2043000   0.91896323   -2.6778867     1959.383  0.079922623  0.080360598            4 
 2044000   0.92319232   -2.6692959    1948.7289  0.079449157  0.080345793            5 
 2045000   0.93389117   -2.7083348    1950.5709  0.079485366  0.080330703            3 
 2046000   0.92125628   -2.6817396    1951.7897  0.079496159  0.080315369            3 
 2047000   0.93104022   -2.6677133    1951.4012  0.079441507  0.080300159            4 
 2048000   0.92637792    -2.684185    1954.4138  0.079525303   0.08028465            2 
 2049000   0.93638296   -2.6397459    1959.4304  0.079690516  0.080269198            2 
 2050000   0.92683101   -2.6599954    1951.2573  0.079319402  0.080253682            2 
 2051000   0.90965218   -2.6705099    1949.3906  0.079204883  0.080238367            3 
 2052000   0.91513671   -2.6753176    1945.8011  0.079020513    0.0802229            4 
 2053000   0.92911989   -2.6475771    1962.2766   0.07965078  0.080207484            5 
 2054000   0.93357674   -2.6808156    1956.4739  0.079376579  0.080192198            1 
 2055000   0.90990239   -2.6657071    1958.1615  0.079406385  0.080176556            2 
 2056000   0.93979532     -2.69102    1956.4761  0.079299454  0.080161002            3 
 2057000   0.91985443   -2.6924631    1956.8362  0.079275489  0.080145232            3 
 2058000   0.91813758   -2.6492692    1956.7632  0.079234013  0.080129758            1 
 2059000   0.91988707   -2.6729602    1954.0427  0.079085428  0.080114191            3 
 2060000   0.93166368   -2.6909682    1959.1227  0.079252536  0.080098361            1 
 2061000   0.92096228   -2.6615854    1954.7683  0.079038018  0.080082697            2 
 2062000   0.91844413   -2.6823064    1951.8363  0.078881196  0.080066814            5 
 2063000   0.91557779   -2.6899364    1956.6242  0.079036364   0.08005106            3 
 2064000   0.90925331   -2.6713802     1961.849  0.079209019  0.080035252            5 
 2065000   0.92699779   -2.6668292    1964.9006   0.07929381  0.080019785            3 
 2066000    0.9383066   -2.6813552    1964.0779  0.079222246  0.080003846            7 
 2067000    0.9402638   -2.6884393    1964.1303  0.079186031  0.079988185            2 
 2068000   0.90640747   -2.6764932    1959.0387  0.078942566  0.079972625            2 
 2069000   0.92567313   -2.6800157    1962.3093  0.079036139  0.079957031            1 
 2070000   0.88976977   -2.6562551    1966.9527   0.07918489  0.079941485            2 
 2071000   0.92421979   -2.6879153    1961.0569  0.078909421  0.079926079            2 
 2072000   0.91005879   -2.6749169     1970.368  0.079245817  0.079910258            4 
 2073000   0.93766328   -2.6700054    1965.2547   0.07900204  0.079894853            4 
 2074000   0.92388538   -2.6767655    1971.8801  0.079230153  0.079879449            3 
 2075000   0.94638414   -2.6790869    1972.5244  0.079217846  0.079863994            4 
 2076000     0.886015   -2.6697812    1969.8626   0.07907284  0.079848448            2 
 2077000   0.92801343   -2.6732124    1969.1302  0.079005382  0.079832969            4 
 2078000   0.90735918   -2.6673727     1972.384  0.079097849  0.079817467            2 
 2079000   0.90928233   -2.6602289    1977.8034   0.07927703   0.07980217            2 
 2080000   0.91717454   -2.6659807    1972.2981  0.079018355  0.079787056            5 
 2081000   0.92988354   -2.7034772    1979.4919  0.079268458  0.079771966            2 
 2082000   0.89667339    -2.690393    1981.1011  0.079294795  0.079757074            3 
 2083000    0.9188507   -2.6885013    1972.3291  0.078905789  0.079742191            3 
 2084000   0.89537858   -2.6730608    1981.3541  0.079228811  0.079727352            4 
 2085000    0.9227289    -2.679497    1980.8311  0.079169907  0.079712634            3 
 2086000   0.90927689   -2.6676658    1981.9937  0.079178401  0.079697594            2 
 2087000   0.92553116   -2.6891879     1981.447  0.079118631  0.079682718            2 
 2088000   0.93092055   -2.6859289     1981.355  0.079077068  0.079667997            2 
 2089000   0.92969823   -2.6932626    1978.6995  0.078933282  0.079653271            3 
 2090000   0.90298117   -2.6965342    1980.8869   0.07898273  0.079638288            3 
 2091000   0.91617573   -2.6594955    1986.0383  0.079150261  0.079623161            5 
 2092000   0.92323287   -2.7094957    1984.5443  0.079052912  0.079608184            5 
 2093000   0.91219135   -2.6886436      1983.87  0.078988295  0.079593616            2 
 2094000   0.92923722   -2.6869568    1980.1492  0.078802498  0.079578712            2 
 2095000   0.92446986   -2.7058164    1982.3741  0.078853386  0.079564001            7 
 2096000   0.94156048   -2.6562201    1989.1454  0.079084981   0.07954913            3 
 2097000   0.93079658   -2.6888535    1986.7467  0.078951942  0.079534182            2 
 2098000   0.94389737   -2.6707501    1989.8697  0.079038358  0.079519548            2 
 2099000   0.91059887   -2.6962332    1976.6305  0.078475086  0.079504434            3 
 2100000   0.90830146   -2.6976146    1990.3819  0.078983408  0.079489324            4 
 2101000   0.91001264   -2.6694135    1983.5711  0.078675675  0.079474501            2 
 2102000   0.90557384   -2.6657708    1994.8153  0.079084019  0.079459594            2 
 2103000   0.90764157   -2.6509835    1994.2829  0.079025315   0.07944482            3 
 2104000   0.91981319   -2.7074213    1990.5797  0.078841086  0.079430172            4 
 2105000   0.91375217   -2.6576998    1998.6223  0.079122023  0.079415668            2 
 2106000   0.90340184   -2.6705046    1995.8386  0.078974305   0.07940146            2 
 2107000   0.93619814    -2.682429    1996.1559  0.078949372  0.079386909            3 
 2108000   0.92095257   -2.6856614    1993.8301  0.078819974  0.079372306            3 
 2109000   0.90357225    -2.687618    1996.7068  0.078896269  0.079357803            2 
 2110000   0.90805968   -2.6659561    2000.6748  0.079015591  0.079343375            2 
 2111000    0.9251912    -2.664997     1994.258  0.078724854   0.07932881            1 
 2112000   0.89442946   -2.6937827    1999.7843  0.078905632  0.079314287            1 
 2113000   0.89870429   -2.6760942    1997.0633  0.078760976  0.079299666            3 
 2114000   0.90468885   -2.6716347    2004.6475  0.079022688  0.079285468            2 
 2115000   0.89394046   -2.6997571    2005.8416  0.079032371  0.079270735            3 
 2116000   0.92789109   -2.6828831    1996.1958  0.078615147  0.079256027            4 
 2117000   0.90961151   -2.6756254    1999.6854  0.078715374  0.079241435            5 
 2118000   0.90437481   -2.6834246    1995.0951  0.078497605  0.079226802            6 
 2119000    0.9150804   -2.7048379    1994.6032  0.078441214  0.079211828            2 
 2120000   0.91286669   -2.6886278    1996.5241  0.078479719  0.079196795            3 
 2121000   0.91960831    -2.685496    2001.5824  0.078641457  0.079181851            4 
 2122000   0.90499625   -2.7213463     1999.783  0.078533736  0.079167031            3 
 2123000   0.92457603   -2.6883504    2003.7615   0.07865291  0.079152071            3 
 2124000   0.89504897   -2.6954529    1995.5753  0.078294698  0.079137181            3 
 2125000   0.89631877   -2.6861008     2003.037  0.078550471  0.079122118            3 
 2126000   0.92360698   -2.7157361    2003.7068  0.078539779  0.079107331            4 
 2127000   0.92229651   -2.6975693    2005.1043  0.078557606  0.079092478            2 
 2128000   0.91588789    -2.693168    2008.7662  0.078664092  0.079077579            3 
 2129000     0.910015   -2.6728456    2000.5664  0.078306184  0.079062818            2 
 2130000   0.90246844   -2.6937481     2004.032  0.078405006  0.079047856            1 
 2131000   0.90766961   -2.6578379    2006.1122  0.078449564  0.079033106            3 
 2132000   0.92445239   -2.6980322    2005.6182  0.078393457  0.079017987            3 
 2133000   0.89517891   -2.6779764    2001.7203  0.078204419  0.079002793            2 
 2134000   0.90799946   -2.6883483    2009.8328  0.078484566  0.078987749            1 
 2135000   0.92743766   -2.6781409    2015.3613  0.078663593  0.078972794            3 
 2136000    0.9018191   -2.6891387    2003.6736  0.078170787  0.078957722            3 
 2137000   0.91732682   -2.6684166    2014.3736  0.078551457   0.07894248            2 
 2138000   0.90985254   -2.6880027    2007.7433  0.078256287  0.078927283            3 
 2139000    0.9052514    -2.659267    2012.4166  0.078401767  0.078911975            6 
 2140000    0.9109996   -2.6997765    2010.4542  0.078288716  0.078896788            3 
 2141000   0.89052379   -2.6898546    2007.0466  0.078119517  0.078881678            7 
 2142000   0.88099682   -2.7172888    2006.7952  0.078073264   0.07886637            2 
 2143000   0.92458635   -2.6714446    2013.6932  0.078305072  0.078851357            2 
 2144000   0.89109311   -2.6839759    2019.8973  0.078509688  0.078836434            1 
 2145000   0.91301224   -2.6917461    2014.4717  0.078262305  0.078821715            3 
 2146000   0.91305494    -2.686427    2010.5492  0.078073518  0.078806799            2 
 2147000   0.93810857   -2.7025129    2016.9653  0.078286186   0.07879198            3 
 2148000   0.89409896   -2.6927908    2020.4825  0.078386192  0.078777196            3 
 2149000   0.90748265    -2.693028    2009.1914  0.077911874  0.078762269            2 
 2150000   0.90850279   -2.7012903     2014.275  0.078072674  0.078747342            4 
 2151000   0.90201132   -2.6919232    2018.7687  0.078210471  0.078732629            1 
 2152000   0.92157843   -2.7010227    2018.7077  0.078171768  0.078718316            2 
 2153000   0.93118811   -2.7038355    2026.7199  0.078445575  0.078703464            2 
 2154000   0.91408583   -2.7003253    2024.8414  0.078336482  0.078688954            3 
 2155000    0.9110187    -2.679248    2024.0264  0.078268617  0.078674251            2 
 2156000   0.90486236   -2.6931718    2016.3879  0.077937071  0.078659776            2 
 2157000   0.91489521   -2.6930339    2023.7525  0.078185461  0.078645043            2 
 2158000   0.89720688    -2.699769    2019.2919  0.077976982  0.078630268            1 
 2159000   0.90331542   -2.6949579    2023.9854  0.078122023  0.078615638            2 
 2160000   0.90234406   -2.6954815    2020.3948  0.077947329  0.078600953            2 
 2161000   0.90672613   -2.6842513    2019.4436  0.077874578   0.07858633            5 
 2162000   0.89410872   -2.7057069    2023.3698  0.077989895  0.078571367            2 
 2163000     0.887861   -2.6841942    2027.9772  0.078131344  0.078556799            3 
 2164000   0.91785396   -2.7054487    2023.7497  0.077932444  0.078542282            3 
 2165000   0.89702103   -2.6941988    2024.7698  0.077935712  0.078527764            2 
 2166000   0.90067047   -2.6883115     2024.405  0.077885697  0.078512945            2 
 2167000   0.90697699   -2.6923624    2018.7793  0.077633413  0.078498047            1 
 2168000    0.9315057   -2.7219892    2028.2754  0.077962617  0.078483523            3 
 2169000   0.91485419   -2.6962721    2030.7036  0.078019962  0.078469369            3 
 2170000    0.8966381   -2.7103224       2027.9  0.077876344  0.078454484            2 
 2171000   0.90846885    -2.700858    2033.8398  0.078068473  0.078440015            4 
 2172000   0.91096241   -2.6924771    2024.1434  0.077660504  0.078425246            2 
 2173000   0.89991652   -2.7243219    2028.4163   0.07778863  0.078410632            5 
 2174000   0.91915396   -2.6867255    2035.1295  0.078010178  0.078395851            3 
 2175000   0.88866718   -2.6828154    2040.3402  0.078173953  0.078381249            4 
 2176000   0.91149426   -2.6851336    2035.2246  0.077942119  0.078366465            2 
 2177000   0.89716975   -2.7085149    2037.2561  0.077984081  0.078351614            1 
 2178000   0.90502138   -2.7233781    2029.5359  0.077652889  0.078336782            2 
 2179000   0.90765394   -2.7171083    2024.6599  0.077430774  0.078321803            5 
 2180000   0.88555103   -2.7195141    2028.9704  0.077560031  0.078306825            2 
 2181000   0.93514817   -2.6789602    2024.8963  0.077368801  0.078291645            4 
 2182000   0.88909848   -2.6976357    2030.4976  0.077547267  0.078276781            2 
 2183000   0.89897386   -2.7090505    2028.2004  0.077424051  0.078261647            3 
 2184000    0.8958132   -2.7020033    2029.5197  0.077438937  0.078246386            4 
 2185000   0.90494126   -2.7061339    2036.6329  0.077674788  0.078231492            2 
 2186000   0.90069864   -2.6865127    2038.8368   0.07772327  0.078216633            2 
 2187000   0.89550376   -2.7070536    2029.0461  0.077314667  0.078201819            5 
 2188000   0.89644059   -2.7098285    2033.3055  0.077441558  0.078186915            4 
 2189000   0.88678271   -2.7028848    2040.5986  0.077683819  0.078172084            2 
 2190000   0.87704659   -2.7160847    2036.4204  0.077489362  0.078157296            1 
 2191000    0.9149686   -2.6780832    2042.6563  0.077691172  0.078142426            3 
 2192000   0.87810831   -2.7189455    2038.0172  0.077479366  0.078127495            4 
 2193000   0.89183723   -2.7126109    2040.3948  0.077534381  0.078112675            3 
 2194000   0.88655177   -2.6807868    2049.4442  0.077842759  0.078097972            2 
 2195000   0.88337284   -2.7044524    2046.5358  0.077696879  0.078083448            1 
 2196000   0.91576296   -2.6972729    2044.0637  0.077567686   0.07806865            2 
 2197000   0.90252499   -2.7019231    2048.8536  0.077714065  0.078053913            1 
 2198000   0.88430991   -2.6874244    2043.8396  0.077488609  0.078038959            5 
 2199000   0.90001487   -2.7102089    2040.3163  0.077319852  0.078023934            5 
 2200000    0.8893415   -2.7048396     2050.175  0.077658143  0.078009093            3 
 2201000   0.91080627   -2.7242192    2049.4666   0.07759604  0.077994127            2 
 2202000   0.92605958   -2.7250141    2043.7412  0.077344126  0.077979288            4 
 2203000   0.90376023   -2.7025585    2053.4999  0.077678162  0.077964267           11 
 2204000   0.88844115   -2.6918797    2042.7207  0.077235355  0.077949372            3 
 2205000   0.91090154   -2.6956834    2044.1874   0.07725576   0.07793437            2 
 2206000   0.88930442   -2.6958346    2050.2159  0.077448468  0.077919351            1 
 2207000   0.90010191   -2.7016438    2056.1234  0.077636438  0.077904464            1 
 2208000   0.89338603   -2.6968629    2053.6162  0.077506652  0.077889528            2 
 2209000   0.91127053   -2.7024858    2048.4734  0.077277553  0.077874732            3 
 2210000   0.90816974   -2.7207934    2050.1087  0.077304249  0.077859506            4 
 2211000    0.8979553    -2.699171    2047.7182  0.077179187  0.077844495            2 
 2212000   0.91843453   -2.6910741    2052.4629  0.077323045  0.077829645            3 
 2213000   0.90120771   -2.7136089    2051.3014  0.077244368  0.077814504            3 
 2214000   0.90711624   -2.7197658    2048.8434  0.077116959  0.077799437            2 
 2215000   0.88689664   -2.6923957    2059.3011  0.077475587  0.077784389            1 
 2216000   0.89387089   -2.6920881    2048.5671  0.077036971  0.077769453            3 
 2217000   0.89556604   -2.7340975    2049.7777  0.077047724  0.077754395            6 
 2218000   0.89920514   -2.7080228    2057.2973  0.077295511  0.077739652            2 
 2219000   0.87535182   -2.7470157    2056.0466  0.077213706  0.077724796            3 
 2220000    0.8886518    -2.718064    2058.3917  0.077266956  0.077710016            3 
 2221000   0.88958467   -2.7059642    2069.1663  0.077636436  0.077695315            2 
 2222000   0.89888616   -2.6966397    2054.0144  0.077033244  0.077680642            4 
 2223000   0.89334191   -2.6934751    2052.6703  0.076948203  0.077665599            2 
 2224000   0.88212402   -2.7063078     2052.669  0.076913558  0.077650676            2 
 2225000   0.88552512   -2.7119504    2052.8513  0.076885815  0.077635536            4 
 2226000   0.89127862   -2.7133983    2061.4247  0.077172235  0.077620513            2 
 2227000   0.91950315   -2.7020474    2067.7548  0.077374452  0.077605674            3 
 2228000    0.8961591   -2.6981093    2053.5493  0.076808398  0.077590872            2 
 2229000   0.89780226   -2.7169529    2061.5152  0.077071749  0.077576193            2 
 2230000   0.88914456   -2.7118955    2065.2283  0.077175947  0.077561431            3 
 2231000   0.90472043   -2.7159615    2056.3666  0.076810348  0.077546593            2 
 2232000    0.9034852   -2.6931554    2063.7282  0.077050783  0.077531956            3 
 2233000   0.90135647   -2.6939233    2065.1777  0.077070373   0.07751725            4 
 2234000   0.88670061   -2.7137104     2066.524  0.077086095  0.077502525            3 
 2235000    0.8886032   -2.7407475    2065.6195  0.077017879  0.077487886            4 
 2236000   0.90505882    -2.688039    2066.3765  0.077011646  0.077473175            3 
 2237000   0.89841002   -2.7231971    2069.0564  0.077077052  0.077458769            5 
 2238000   0.87831595    -2.677672    2072.7106  0.077178678  0.077444336            1 
 2239000   0.92575659   -2.7091663    2067.3729  0.076945545  0.077429538            4 
 2240000   0.89708705   -2.7289809    2068.7664  0.076963034  0.077414773            3 
 2241000   0.90884492   -2.7145664    2064.6707   0.07677639  0.077400011            3 
 2242000   0.89619487   -2.7237808    2063.8783  0.076712694  0.077385188            4 
 2243000   0.89254959   -2.7123574    2072.1737  0.076986689  0.077370374            3 
 2244000   0.88783661    -2.683634    2072.7133  0.076972419  0.077355705            2 
 2245000   0.89723128   -2.7308615    2075.2866  0.077033654  0.077340921            5 
 2246000   0.88693642   -2.7102788    2068.5471    0.0767493  0.077326276            5 
 2247000    0.9036809   -2.7058998    2065.3386  0.076596152  0.077311601            8 
 2248000   0.88478152   -2.7154331    2069.0641  0.076700183  0.077296729            7 
 2249000   0.89882408   -2.7211158    2072.3042  0.076786136  0.077281825            2 
 2250000   0.87853061   -2.7311207    2063.4273  0.076423234  0.077266835            2 
 2251000   0.88770071   -2.7100189    2066.1784   0.07649113   0.07725195            2 
 2252000   0.86840718   -2.7105733    2068.7681  0.076552993  0.077237416            2 
 2253000   0.87418382   -2.7030837    2071.2581  0.076611113  0.077222567            2 
 2254000    0.8899719   -2.7429428    2073.2799  0.076651876  0.077207712            2 
 2255000   0.88823458   -2.7029695    2070.3864  0.076510952  0.077192804            2 
 2256000   0.88088751   -2.7101061    2073.9597  0.076609032  0.077178229            5 
 2257000   0.87483787   -2.7095696    2070.3364   0.07644131  0.077163559            3 
 2258000   0.90207843   -2.7201978    2080.4167  0.076779477  0.077148745            2 
 2259000   0.88150027   -2.7140548    2078.3704  0.076670002  0.077134049            2 
 2260000   0.89662374   -2.7163175    2080.4521  0.076712835  0.077119118            3 
 2261000   0.88622867   -2.6838527    2074.7057  0.076467112   0.07710436            5 
 2262000   0.89199171   -2.7291851    2083.9094  0.076772377  0.077089439            2 
 2263000   0.88983998   -2.7380598    2076.8984  0.076480277  0.077074552            3 
 2264000   0.89615172   -2.7204096    2078.5227  0.076506284  0.077060135            3 
 2265000   0.90330089   -2.7139583    2085.8419  0.076741793  0.077045548            2 
 2266000   0.87575592   -2.6806083    2081.7745  0.076558343  0.077030856            8 
 2267000   0.88539196   -2.7145799    2087.2062  0.076724241  0.077015992            3 
 2268000   0.88238856   -2.7249363    2086.3696  0.076659669  0.077001406            3 
 2269000   0.90217978   -2.7393565      2074.18  0.076178198  0.076986851            3 
 2270000   0.87207365   -2.7060665     2088.344  0.076664611   0.07697241            2 
 2271000   0.88267531   -2.7178172    2081.9219  0.076395195  0.076958021            5 
 2272000    0.8797891   -2.7180339    2094.5532  0.076824867  0.076943635            3 
 2273000   0.87510542    -2.723431    2086.2367  0.076486167  0.076929459            2 
 2274000   0.90599587   -2.7316502    2087.5438  0.076500432  0.076915104            4 
 2275000   0.87957827   -2.7259132    2093.8294  0.076697049  0.076900714            2 
 2276000   0.90007828   -2.7289566    2095.2583  0.076715667  0.076886641            3 
 2277000   0.91952668   -2.7291685    2095.1667  0.076678623  0.076872255            7 
 2278000   0.89320914   -2.7466301    2088.0025  0.076382884  0.076858059            2 
 2279000   0.87486359   -2.7125246    2093.5554  0.076552415  0.076844017            3 
 2280000   0.88491541    -2.715182    2106.7128  0.076999737   0.07683011            1 
 2281000   0.90267649   -2.7173474    2102.6794  0.076818623  0.076816296            1 
 2282000   0.88722181   -2.7162379    2101.7808  0.076752148  0.076802561            3 
 2283000   0.89627988   -2.7194107    2096.5323   0.07652695  0.076788641            7 
 2284000   0.88708675   -2.7425902    2091.4072   0.07630645  0.076774716            2 
 2285000   0.89409671   -2.7098709    2094.7397  0.076394592  0.076761133            2 
 2286000   0.88372849    -2.696963    2107.0325  0.076809293  0.076747325            4 
 2287000   0.88159393   -2.7077189    2104.6725  0.076689714  0.076733592            7 
 2288000   0.87233845   -2.6988294    2097.2604  0.076386231  0.076719971            1 
 2289000   0.89249902    -2.712193    2107.5836  0.076728687  0.076706215            4 
 2290000   0.87769104   -2.7057903    2109.5282  0.076765944  0.076692683            2 
 2291000   0.86712197    -2.730983     2098.752  0.076340464  0.076679025            2 
 2292000    0.8843205   -2.7295057    2110.3147  0.076727556  0.076665319            3 
 2293000   0.89420245   -2.7248978    2098.8176  0.076276262  0.076651378            4 
 2294000   0.89145297   -2.7001922    2110.2966  0.076660005  0.076637748            6 
 2295000    0.8747906   -2.7429356    2111.3822  0.076666019  0.076624167            2 
 2296000   0.87590542   -2.7405124    2113.1023  0.076695059  0.076610707            2 
 2297000   0.90240254   -2.7379205    2102.7079   0.07628457  0.076597035            4 
 2298000   0.88790795   -2.7287877    2102.6023  0.076247546  0.076583187            2 
 2299000   0.87315934   -2.7410369    2102.7535  0.076219858  0.076569336            4 
 2300000   0.88920204    -2.716351    2102.3025  0.076170379  0.076555445            2 
 2301000   0.88358715   -2.7397591    2101.8851  0.076122161  0.076541566            3 
 2302000   0.88824613   -2.7067293    2110.6928  0.076407935  0.076527566            7 
 2303000   0.88668771   -2.7282944    2110.4312  0.076365291  0.076513679            2 
 2304000   0.88309325   -2.7049012    2112.6485  0.076412343  0.076499986            1 
 2305000   0.88434356   -2.7332038    2115.9727  0.076499373  0.076486176            2 
 2306000   0.84901972   -2.7178618    2103.3972   0.07601175  0.076472067            2 
 2307000   0.87063775   -2.7228255    2116.2814  0.076444207  0.076458111            2 
 2308000   0.89821469    -2.732262    2116.1902  0.076407792  0.076444176            4 
 2309000   0.89719824   -2.7216415    2108.4054  0.076093741  0.076430403            3 
 2310000   0.88941203   -2.7406643    2116.6505  0.076358243  0.076416727            2 
 2311000   0.88630148   -2.7399265    2112.9027  0.076190058  0.076402797            6 
 2312000   0.88869046   -2.7268838    2119.2797  0.076386957  0.076388854            4 
 2313000   0.88713409   -2.7469943    2113.5861    0.0761488  0.076375049            3 
 2314000   0.87685023   -2.7240141    2117.1382  0.076243814   0.07636116            3 
 2315000   0.89555076    -2.716292    2119.1817  0.076284439  0.076347355            3 
 2316000   0.89184979   -2.7261515    2119.1288  0.076249597  0.076333755            3 
 2317000   0.85848239   -2.7179271    2115.1594  0.076073924  0.076320091            3 
 2318000   0.89368661   -2.6979682    2121.7892  0.076279451  0.076306364            5 
 2319000   0.88370886    -2.723762    2122.9946  0.076289873  0.076292619            6 
 2320000   0.88108571   -2.7452245    2126.4159   0.07637988  0.076278797            6 
 2321000   0.87141779   -2.7097598    2118.4568  0.076061208  0.076265175            2 
 2322000   0.88205516   -2.6964809    2123.7553  0.076218607  0.076251353            2 
 2323000   0.90292381    -2.731865    2123.6502  0.076182029  0.076237648            2 
 2324000   0.88903395   -2.7345831    2123.9286   0.07615923  0.076224219            3 
 2325000   0.87923627   -2.7159081    2126.1415  0.076205788  0.076210625            8 
 2326000   0.89351423   -2.7429845      2127.36  0.076216683  0.076197053            2 
 2327000   0.86165004   -2.7296822    2123.4021  0.076042189  0.076183374            3 
 2328000   0.86852574   -2.7256053    2120.3494  0.075900249  0.076169696            3 
 2329000   0.87221483   -2.7326641    2127.8994  0.076137805  0.076155992            5 
 2330000   0.87463067   -2.7284115    2130.7805  0.076208172  0.076142308            3 
 2331000    0.8951084   -2.7577603    2127.3837  0.076054044  0.076128691            1 
 2332000   0.88633761   -2.7173272    2128.7546  0.076070418  0.076115333            4 
 2333000   0.89118075   -2.7530894    2131.0282  0.076119024  0.076101838            4 
 2334000   0.87696208    -2.746277    2124.9114  0.075868017   0.07608839            2 
 2335000   0.88225879   -2.7366215    2125.6116  0.075860515  0.076074812            3 
 2336000   0.87371438   -2.7393411    2125.0448  0.075807819  0.076061173            4 
 2337000   0.86822159   -2.7308359    2131.7737  0.076015322  0.076047919            2 
 2338000   0.86668923   -2.7076216    2127.4913   0.07583017  0.076034403            3 
 2339000   0.86402229   -2.7234435    2133.8822  0.076025446  0.076021017            4 
 2340000   0.87761671   -2.7277733    2137.2122  0.076111545  0.076007656            2 
 2341000   0.87776517   -2.7293654    2137.4388  0.076087101  0.075994294            2 
 2342000   0.86618326   -2.7381607    2137.5479  0.076058492  0.075980888            7 
 2343000   0.88815685   -2.7259591    2141.6081   0.07617044  0.075967581            2 
 2344000   0.86213152   -2.7276523    2141.9015  0.076148376  0.075954107            4 
 2345000   0.88021621   -2.7398229    2139.0687  0.076015236  0.075940474            5 
 2346000   0.87437504   -2.7457948    2137.3434  0.075921548  0.075926835            2 
 2347000   0.85611053   -2.7460783    2131.1374  0.075668846  0.075913439            2 
 2348000   0.90615927   -2.7490153    2134.2856  0.075748354  0.075900121            4 
 2349000   0.88182884   -2.7416909    2140.8628   0.07594944  0.075886811            1 
 2350000   0.88052178   -2.7318919     2133.527  0.075656986  0.075873429            3 
 2351000    0.8825878    -2.705345    2142.6251  0.075947295  0.075860056            3 
 2352000   0.86763116   -2.7466307    2142.8049  0.075921376   0.07584674            3 
 2353000   0.88795721   -2.7351509    2146.2527  0.076011215  0.075833266            2 
 2354000    0.8824224   -2.7219759    2145.7225  0.075960156  0.075820104            4 
 2355000   0.86445691   -2.7422485    2149.3795  0.076057306  0.075806925            2 
 2356000   0.86003934    -2.774249    2140.5176  0.075711572  0.075793869           15 
 2357000   0.86474093   -2.7287482    2141.4747  0.075713291  0.075780453            9 
 2358000   0.88128992   -2.7400919    2147.8952  0.075908087  0.075767294           10 
 2359000   0.88720053   -2.7524186    2138.2684  0.075535834  0.075754002            2 
 2360000   0.87679099   -2.7250754    2146.8133  0.075805554  0.075740655            2 
 2361000   0.87816967   -2.7166634    2152.6871  0.075980767  0.075727173            2 
 2362000   0.87816664   -2.7277362    2144.8921  0.075673584  0.075713806            2 
 2363000   0.85659575   -2.7336152    2150.8735  0.075852499  0.075700604            5 
 2364000    0.8924554   -2.7238519     2151.174  0.075831007  0.075687193            5 
 2365000   0.86096494   -2.7284128      2145.44    0.0755969   0.07567406            3 
 2366000   0.86693684   -2.7625311    2144.9931  0.075549209  0.075660543            5 
 2367000   0.85941459   -2.7186519    2146.6133  0.075574332  0.075647274            2 
 2368000    0.8598589   -2.7335006    2152.3316  0.075743653  0.075633981            3 
 2369000   0.89857068   -2.7426621    2154.4551  0.075786374  0.075620729            3 
 2370000   0.87591756   -2.7520126     2146.711  0.075482102   0.07560752            2 
 2371000   0.88377479   -2.7441614    2148.0495  0.075497311  0.075594291            3 
 2372000   0.88452303   -2.7264503    2152.5555  0.075623788  0.075580981            3 
 2373000   0.89363019   -2.7272141     2156.903  0.075744592  0.075567759            3 
 2374000   0.87156699   -2.7308857    2157.1542  0.075721502  0.075554617            3 
 2375000   0.85394169   -2.7145073    2157.9606  0.075717915  0.075541604            2 
 2376000   0.86244681   -2.7327825    2157.6139  0.075673887  0.075528554            4 
 2377000   0.87720204   -2.7170398    2158.8831  0.075686549   0.07551537            3 
 2378000   0.86490459   -2.7314466    2160.4172  0.075708482  0.075502401            3 
 2379000    0.8775111   -2.7348453    2154.8044  0.075480047  0.075489104            3 
 2380000   0.87592687   -2.7342809     2162.408  0.075714567  0.075475783            4 
 2381000   0.88081279   -2.7431396    2166.7965   0.07583636  0.075462772            3 
 2382000   0.85128792   -2.7400695     2170.128  0.075921073  0.075449679            4 
 2383000   0.89405237   -2.7481783     2154.284  0.075335153  0.075436631            6 
 2384000   0.88068577   -2.7375288    2156.9163  0.075395564  0.075423687            4 
 2385000   0.86007347   -2.7402238    2162.8113  0.075569927  0.075410808            5 
 2386000   0.87376531   -2.7401969    2166.6691  0.075672993  0.075397978            2 
 2387000   0.85527107   -2.7287405    2170.4144  0.075772043  0.075385024            3 
 2388000   0.86256219   -2.7491244    2161.0384  0.075413119  0.075372207            3 
 2389000   0.85037327   -2.7582769    2159.7305  0.075335933  0.075359408            9 
 2390000   0.86321912   -2.7370953    2166.8154  0.075551442    0.0753465            4 
 2391000   0.88144125   -2.7521157    2165.5313   0.07547509   0.07533362            3 
 2392000   0.86092357    -2.749957    2167.7054  0.075519279  0.075320702            2 
 2393000    0.8895861    -2.742915    2166.6173  0.075449828  0.075307622            4 
 2394000   0.88451078   -2.7289243    2161.5753  0.075242804  0.075294552            2 
 2395000   0.85638964   -2.7211629    2177.0314  0.075749178  0.075281689            9 
 2396000   0.86301484   -2.7282956    2165.1112  0.075302977  0.075268771            3 
 2397000   0.86486905   -2.7387513    2159.3896  0.075072648  0.075255569            2 
 2398000   0.88960601   -2.7423632    2171.1206  0.075449007  0.075242298            6 
 2399000   0.87883027   -2.7353497    2167.5629  0.075293972  0.075229437            4 
 2400000   0.86263743    -2.746585    2178.1222  0.075629242   0.07521652            3 
 2401000   0.86523905   -2.7427754    2175.2311  0.075497399  0.075203287            3 
 2402000    0.8689542   -2.7417457    2167.8139  0.075208643  0.075190427            3 
 2403000   0.86896544   -2.7449959    2171.5717  0.075307661  0.075177471            4 
 2404000   0.87191553   -2.7622092    2170.9189  0.075253704  0.075164353            2 
 2405000   0.87200755   -2.7359388    2176.7871  0.075425749  0.075151103            3 
 2406000   0.88843684   -2.7631497    2165.6849  0.075009866  0.075138087            4 
 2407000   0.84395341   -2.7321875    2177.0128  0.075370892   0.07512489            3 
 2408000   0.87754241   -2.7594766    2171.7885  0.075158792  0.075111823            2 
 2409000   0.86130744    -2.730963    2175.9333  0.075270972  0.075098537            2 
 2410000   0.88050108   -2.7351831     2175.792  0.075234854  0.075085544            3 
 2411000   0.88364109   -2.7423742    2172.9534  0.075105537  0.075072377            6 
 2412000   0.86834673   -2.7574973    2180.3564   0.07533017  0.075059568            3 
 2413000   0.87667539   -2.7332722    2171.7565  0.075001952  0.075046632            2 
 2414000   0.84992425   -2.7460615     2173.435  0.075028825  0.075033708            2 
 2415000   0.85784612   -2.7377692    2184.5389  0.075380916   0.07502082            2 
 2416000   0.88039097   -2.7466544    2172.1014  0.074920717  0.075007994            2 
 2417000   0.86520338    -2.753421    2186.8413  0.075397922  0.074995206            5 
 2418000   0.87012761   -2.7474908    2184.8863  0.075299363  0.074982324            3 
 2419000   0.86645154    -2.756968    2177.1592  0.075002038  0.074969291            2 
 2420000   0.85799557   -2.7397218    2182.5173  0.075155555  0.074956177            1 
 2421000   0.85291992   -2.7510973     2179.202  0.075010393  0.074943292            4 
 2422000    0.8614346   -2.7214976    2177.1255   0.07490798    0.0749305            3 
 2423000   0.85342399   -2.7508752    2191.9334  0.075386347  0.074917476            4 
 2424000   0.87045661   -2.7686984    2181.0829  0.074982224  0.074904633            3 
 2425000   0.85269271   -2.7561535    2183.9556  0.075050022   0.07489172            2 
 2426000   0.87039637   -2.7584201    2185.0742   0.07505751  0.074878778            2 
 2427000   0.84719625   -2.7428765    2188.1741  0.075133021  0.074865697            2 
 2428000   0.86970939   -2.7576448    2183.6384  0.074946402  0.074852777            3 
 2429000   0.85674592   -2.7614308    2184.3138  0.074938719   0.07483983            5 
 2430000    0.8700854   -2.7544742     2183.485  0.074879459  0.074826666           12 
 2431000   0.85647039   -2.7493692    2191.0361  0.075107503  0.074813703            5 
 2432000   0.86037147   -2.7566273    2181.8407  0.074761537  0.074800742            1 
 2433000   0.87709526   -2.7455757    2182.8358  0.074764892  0.074787756            4 
 2434000   0.85703347   -2.7547157    2186.6911  0.074866172  0.074774681            4 
 2435000   0.86620646   -2.7612959    2192.0414  0.075018529   0.07476174            2 
 2436000    0.8564937   -2.7222518    2193.4208  0.075034922  0.074748841            3 
 2437000   0.87035493   -2.7180439    2193.4255   0.07500429  0.074736011            6 
 2438000   0.86263375   -2.7564699    2196.0096  0.075061853  0.074723111            3 
 2439000   0.86513366   -2.7192711    2191.3296  0.074871177  0.074710462            4 
 2440000   0.85550437   -2.7517111    2192.4531  0.074878863  0.074697559            3 
 2441000   0.85508549   -2.7356788    2194.6626  0.074923616  0.074684509            3 
 2442000   0.84881872   -2.7471558    2190.9772  0.074767173  0.074671273            2 
 2443000   0.87229363   -2.7407338    2196.3319  0.074919222  0.074658239            4 
 2444000   0.84894839   -2.7778662    2189.6027  0.074659121  0.074645002            1 
 2445000   0.84020314   -2.7583234     2193.619  0.074765472  0.074631985            2 
 2446000   0.84593577   -2.7472584    2191.0348  0.074646865  0.074619071            2 
 2447000    0.8738759   -2.7518574    2197.7265  0.074844247  0.074605989            2 
 2448000   0.84827851   -2.7453126    2199.2952  0.074867074  0.074593101            2 
 2449000   0.86541566   -2.7511502    2199.0256  0.074827333  0.074580061            2 
 2450000   0.85813537   -2.7470914    2196.4344  0.074708653  0.074567118            1 
 2451000   0.86021989   -2.7614274    2198.0802   0.07473413  0.074553874            3 
 2452000    0.8676078   -2.7720346    2204.4169  0.074919007  0.074541159            3 
 2453000   0.85679147   -2.7531454    2204.9786  0.074907547  0.074528366            3 
 2454000   0.86308482   -2.7356822     2205.551  0.074896463  0.074515498            5 
 2455000   0.85266513   -2.7683798    2194.2377  0.074481933  0.074502607            2 
 2456000   0.85750057   -2.7847923    2192.8071  0.074403062  0.074489585            2 
 2457000    0.8522073   -2.7571782    2204.0884  0.074755406  0.074476796            2 
 2458000    0.8712318   -2.7373634    2200.6853  0.074609619  0.074463865            2 
 2459000   0.86217298   -2.7680914    2203.7378  0.074682723  0.074450954            2 
 2460000    0.8693034   -2.7360104    2205.1852  0.074701397  0.074438147            2 
 2461000   0.87488262   -2.7498097    2204.4632  0.074646593  0.074425416            6 
 2462000   0.86211192   -2.7772353    2202.0311  0.074533952  0.074412467            4 
 2463000   0.89109667   -2.7540199    2214.0243   0.07490947  0.074399741            3 
 2464000   0.86333685   -2.7537316    2204.7043  0.074563862   0.07438676            3 
 2465000   0.84918233   -2.7381815    2206.3792  0.074590238  0.074373859            2 
 2466000   0.86930871   -2.7548885    2209.3076  0.074658948  0.074360834            4 
 2467000   0.86365892   -2.7464148    2211.2509  0.074694329   0.07434807            3 
 2468000   0.86119296   -2.7667563    2203.4482  0.074400602  0.074334728            1 
 2469000   0.83795897   -2.7429403    2204.7873  0.074415666  0.074321543            2 
 2470000   0.86593842   -2.7743276    2211.1782  0.074601152  0.074308166            5 
 2471000   0.85529793    -2.762362    2199.8636  0.074189382  0.074294803            2 
 2472000   0.85736966   -2.7603972     2207.744  0.074425026  0.074281586            2 
 2473000   0.85602199   -2.7395729    2211.3099  0.074515093  0.074268418            3 
 2474000   0.85391797   -2.7507981    2202.7121  0.074195368  0.074255309            5 
 2475000   0.86866792   -2.7473932    2207.9745  0.074342577  0.074242164            4 
 2476000   0.83788114   -2.7432897     2198.827  0.074004679  0.074228927            1 
 2477000   0.86091032   -2.7597428    2209.4735  0.074332979  0.074215665            2 
 2478000   0.85627637   -2.7514125    2209.9293  0.074318313   0.07420256            3 
 2479000   0.85559561   -2.7370481    2214.4087   0.07443891  0.074189444            6 
 2480000   0.84341692    -2.773491     2205.282  0.074102219  0.074176357            4 
 2481000   0.86015552    -2.737892    2213.4059   0.07434522  0.074163076            5 
 2482000    0.8554138   -2.7799341     2212.751  0.074293278  0.074150088            3 
 2483000   0.86068051   -2.7551374    2212.8135  0.074265457  0.074136894            2 
 2484000   0.85084869   -2.7833895    2217.9671   0.07440845  0.074123853            3 
 2485000   0.88507746   -2.7595247    2218.0871  0.074382533  0.074110991            4 
 2486000   0.85706591   -2.7579111    2217.4488  0.074331216   0.07409815            5 
 2487000   0.83080199   -2.7598924    2212.1722  0.074124521    0.0740851            5 
 2488000   0.86470181   -2.7406687    2219.1253  0.074327617  0.074071923            3 
 2489000   0.86825578   -2.7463853    2212.2142  0.074066365  0.074058793            7 
 2490000   0.85453398   -2.7465757    2214.5696  0.074115448   0.07404575            3 
 2491000   0.83065188   -2.7490904    2221.3457  0.074312381  0.074032728            2 
 2492000   0.84714721   -2.7598058    2220.6366  0.074258847  0.074019842            5 
 2493000   0.84885468   -2.7381491    2228.6426  0.074496678  0.074006792            4 
 2494000   0.84844607   -2.7475664    2218.8099  0.074138261  0.073993611            3 
 2495000   0.82779736   -2.7771375    2220.1963  0.074154854  0.073980388            2 
 2496000   0.85437804   -2.7663502    2213.5209  0.073902274  0.073967144            3 
 2497000   0.83801403   -2.7578437    2218.6026  0.074042271  0.073953786            5 
 2498000   0.83552269   -2.7725058    2219.1062  0.074029429  0.073940619            3 
 2499000   0.85177067   -2.7517214    2220.5277   0.07404721  0.073927497            2 
 2500000    0.8523423   -2.7470148    2213.9471  0.073798236  0.073914416            3 
 2501000   0.86411694   -2.7911049    2220.4158  0.073984266  0.073901155            3 
 2502000   0.85366158   -2.7700457    2221.9973  0.074007372  0.073888145            3 
 2503000   0.84051533   -2.7590251    2217.5431  0.073829509  0.073875055            5 
 2504000   0.84548174   -2.7684487    2225.1676  0.074053766  0.073861901            2 
 2505000   0.84964831   -2.7563813     2224.318  0.073995941  0.073848867            3 
 2506000   0.87726037   -2.7516724    2222.0786  0.073891947  0.073835944            5 
 2507000   0.86069767   -2.7561276     2234.147  0.074263628  0.073822962            3 
 2508000   0.84752312   -2.7845866    2217.2124  0.073671333  0.073810134            2 
 2509000   0.84692527   -2.7782581    2220.5363  0.073752369  0.073797058            3 
 2510000   0.83967044   -2.7658217    2222.4391  0.073786159  0.073784112            4 
 2511000   0.83523643   -2.7528081    2236.9808  0.074239374  0.073771468            3 
 2512000   0.86962888   -2.7571457    2224.9666  0.073811258  0.073758674            5 
 2513000   0.85240738   -2.7740818    2235.1325  0.074118998  0.073745776            4 
 2514000   0.82584142    -2.760331    2226.3762  0.073799264  0.073732654            4 
 2515000   0.83898291   -2.7731141    2237.4897   0.07413816  0.073719816            6 
 2516000   0.84546375   -2.7578349    2231.1511   0.07389875  0.073706741            6 
 2517000   0.86167833   -2.8000935    2223.5268  0.073616965  0.073693637            2 
 2518000   0.84442417   -2.7594612     2233.182  0.073907266  0.073680603            4 
 2519000   0.85192957   -2.7483658    2234.2688   0.07391388  0.073667476            2 
 2520000   0.83820125   -2.7594283    2224.3983  0.073558146  0.073654284            5 
 2521000   0.84390491   -2.7707938    2239.6016  0.074031522  0.073641058            4 
 2522000   0.84806655    -2.774801    2222.2464  0.073428708   0.07362777            4 
 2523000   0.83359705    -2.751298    2232.1857  0.073727892  0.073614456            2 
 2524000   0.84514641   -2.7446907    2233.4465  0.073740309  0.073601243            3 
 2525000   0.84125748   -2.7698536    2225.9861  0.073464887  0.073587968            2 
 2526000   0.86165128   -2.7646506    2221.9957  0.073304161  0.073574618            6 
 2527000   0.83653393   -2.7886446    2229.1115  0.073509809  0.073561186            4 
 2528000   0.83311012   -2.7651257    2230.9536  0.073541456  0.073548011            3 
 2529000   0.85015255   -2.7747607    2235.9368  0.073676578  0.073534919            2 
 2530000    0.8614224   -2.7818585    2237.9808  0.073714783  0.073521729            1 
 2531000   0.85921098   -2.7695181    2229.6598  0.073411689  0.073508436            4 
 2532000   0.83693004    -2.790087    2229.8093  0.073387617  0.073495137            3 
 2533000   0.84712493   -2.7883662    2227.6511  0.073287639  0.073481936            4 
 2534000   0.82641955   -2.7541457    2237.4289   0.07358027  0.073468639            2 
 2535000   0.84434335   -2.7722416    2234.8175  0.073465401  0.073455595            5 
 2536000   0.84445115   -2.7868003    2233.8604  0.073404982  0.073442348            2 
 2537000   0.83859274   -2.7611543    2246.9637  0.073806454  0.073429095            3 
 2538000   0.85843626   -2.7840512    2237.6262  0.073470786  0.073415855            3 
 2539000   0.84403727   -2.7612256    2235.2733  0.073364621  0.073402659            4 
 2540000   0.83245097   -2.7620979    2241.4503  0.073538396  0.073389311            3 
 2541000   0.85624292   -2.7757649    2236.8938  0.073360022   0.07337609            4 
 2542000   0.85638887   -2.7683708     2226.552  0.072992133  0.073362663            2 
 2543000   0.84213176   -2.7404434    2239.2833   0.07338063  0.073349376            1 
 2544000   0.83424067   -2.7775792    2241.1576  0.073413182  0.073336008            2 
 2545000   0.82818021   -2.7616581     2244.749  0.073501932  0.073322522            3 
 2546000   0.84195554   -2.7588157    2236.4501  0.073201431  0.073309235            3 
 2547000   0.86006834   -2.7718936    2232.6712  0.073049051  0.073295764            3 
 2548000   0.83328388   -2.7775779    2241.0441   0.07329422  0.073282256            3 
 2549000   0.85376255   -2.7666567    2245.9458  0.073425716   0.07326896            3 
 2550000   0.83749533   -2.7783597    2255.0582  0.073694712  0.073255759            2 
 2551000   0.84367613   -2.7828247    2238.1975  0.073115038  0.073242283           13 
 2552000   0.84114595   -2.7704017    2244.5674  0.073294391  0.073228769            3 
 2553000    0.8404745   -2.7640475    2233.7095  0.072911263  0.073215096            6 
 2554000    0.8408941   -2.7503201    2241.0536  0.073122345  0.073201703            3 
 2555000    0.8313547   -2.7585704    2243.4066   0.07317047  0.073188131            2 
 2556000   0.85402557   -2.7498711     2239.601  0.073017768   0.07317444            3 
 2557000   0.84985263   -2.7774088    2242.2855  0.073076702  0.073161004            8 
 2558000   0.86056584   -2.7668953    2237.7709  0.072901059  0.073147421            2 
 2559000   0.84744578   -2.7668583    2238.4733  0.072895444  0.073133777            3 
 2560000   0.83438178   -2.7836583    2248.6452  0.073198085  0.073120024            2 
 2561000   0.85946208   -2.7931396    2244.3771  0.073030623  0.073105996            4 
 2562000   0.82251633   -2.7674539    2243.2718  0.072966165   0.07309213            4 
 2563000    0.8466901   -2.7819883    2253.0847  0.073256754  0.073078356            3 
 2564000   0.85406581   -2.7753086    2247.5198  0.073047316  0.073064559            5 
 2565000   0.85026476   -2.7911946    2238.0185  0.072710152   0.07305089            4 
 2566000    0.8414839   -2.7915085    2244.2533  0.072884298  0.073036952            3 
 2567000   0.83165184   -2.7737374    2237.1609  0.072625662  0.073023243            3 
 2568000   0.82807279   -2.7661127    2242.4408  0.072768719  0.073009299            7 
 2569000   0.82703459   -2.7831377    2244.7539  0.072815424   0.07299552            3 
 2570000   0.84551861   -2.7955584    2256.7507  0.073176094  0.072981915            2 
 2571000   0.86508919   -2.7904431    2252.3889  0.073006251  0.072968114            2 
 2572000   0.82598681   -2.7755503    2243.6712  0.072695412  0.072954337            4 
 2573000   0.84820682   -2.7913579    2249.8256  0.072866484  0.072940621            6 
 2574000   0.86031304   -2.7878512     2250.762  0.072868493  0.072926911            2 
 2575000   0.85381134   -2.7944066    2244.0037  0.072621478   0.07291312            3 
 2576000   0.85852458    -2.776417    2259.6506  0.073099462  0.072899537            4 
 2577000   0.83977122    -2.773132    2255.6408  0.072941431  0.072885989            4 
 2578000   0.84691938   -2.7672243    2245.7587  0.072593698  0.072872414            6 
 2579000   0.84297387   -2.7797374    2247.0103  0.072605994  0.072858748            3 
 2580000   0.83591002   -2.7738832    2250.2629  0.072682909   0.07284496            3 
 2581000   0.81901192   -2.7765598    2249.2015  0.072620479  0.072831046            4 
 2582000   0.83418927   -2.7810241    2251.4382  0.072664542   0.07281749            5 
 2583000   0.82706914    -2.761939    2256.4067  0.072796707  0.072803707            7 
 2584000   0.82878338     -2.75842    2254.3177  0.072701164  0.072789899            3 
 2585000   0.85167443   -2.7695877    2247.2285  0.072444504  0.072776356            4 
 2586000   0.83947133   -2.7845619    2257.4205  0.072744924  0.072762579            3 
 2587000   0.85841666   -2.7436053    2259.3134   0.07277778  0.072748766            3 
 2588000   0.82736586   -2.7791978    2257.8569  0.072702759  0.072735068            3 
 2589000   0.83745236   -2.7548537    2259.5108  0.072727912  0.072721129            2 
 2590000   0.84546412    -2.778247    2257.9557  0.072649796  0.072707526            3 
 2591000   0.83231983   -2.7590303    2250.4347  0.072379865  0.072693809            5 
 2592000   0.81469092   -2.7806878    2255.2751  0.072507557  0.072680151            3 
 2593000    0.8332882   -2.7675989    2258.0644  0.072569239  0.072666489            2 
 2594000   0.85165967   -2.7909628    2260.5587  0.072621391  0.072652633            5 
 2595000   0.83251994   -2.7647482    2259.3291   0.07255392  0.072639023            3 
 2596000    0.8382025   -2.7709362    2246.9106   0.07212733  0.072625249            2 
 2597000   0.82080397   -2.7800401    2252.2726  0.072271614  0.072611403            5 
 2598000   0.82590386   -2.7614862    2258.0727  0.072429841  0.072597688            2 
 2599000   0.84143728   -2.7713746    2251.3821  0.072187447  0.072583527            5 
 2600000   0.84334201   -2.7793694    2257.5604  0.072357705  0.072569439            4 
 2601000   0.84816545   -2.7934943    2260.7701  0.072432721  0.072555592            5 
 2602000   0.82286043   -2.7823693    2262.5928   0.07246326   0.07254144            6 
 2603000    0.8340054    -2.758456    2255.7891  0.072217606  0.072527498            3 
 2604000   0.82752045   -2.8041846    2251.9878  0.072068223  0.072513539            2 
 2605000   0.82249311   -2.7854117    2256.6502  0.072189706  0.072499611            7 
 2606000     0.815788   -2.7750126    2258.4156  0.072218457  0.072485739            3 
 2607000   0.83316318   -2.7947913    2264.9987  0.072401186  0.072471767            3 
 2608000   0.83473893    -2.788276     2255.895  0.072082534  0.072457754            2 
 2609000   0.81806736   -2.7963992    2262.8893  0.072278308  0.072443678            4 
 2610000   0.83894615   -2.7677442    2261.7034  0.072212751    0.0724297            3 
 2611000   0.82689762   -2.7938155    2261.8313  0.072189177  0.072415831            2 
 2612000    0.8335768   -2.7865024    2272.4075  0.072498964  0.072401976            5 
 2613000   0.83963255   -2.7911361    2260.9149  0.072104699  0.072388273            6 
 2614000   0.84068666   -2.7735376    2268.9003  0.072331685   0.07237466            3 
 2615000    0.8663915   -2.8047467    2258.5987  0.071975741  0.072360799            4 
 2616000   0.81964077    -2.801453    2267.7522  0.072239812  0.072347003            3 
 2617000   0.83289978   -2.7999354    2264.7917  0.072117938  0.072333057            1 
 2618000   0.82644677   -2.7710742    2271.8459  0.072314931  0.072319204            2 
 2619000   0.82861211   -2.7925624    2263.8428  0.072032671  0.072305521            2 
 2620000   0.85114776   -2.7752601    2263.8569  0.072005628  0.072291697            3 
 2621000   0.81192645   -2.8038198    2264.2717  0.071991341  0.072277794            6 
 2622000   0.84163693   -2.7829296    2263.8143  0.071949348  0.072263703            3 
 2623000   0.84380972   -2.7886888    2263.9272  0.071925504  0.072249788            6 
 2624000   0.81232068   -2.7903884    2261.7637  0.071829385  0.072235716            6 
 2625000   0.82432394   -2.7701495    2278.0843  0.072320137   0.07222175            4 
 2626000   0.83079564   -2.7805657    2265.3656   0.07188898  0.072207783            4 
 2627000   0.82379067   -2.7696114    2272.8217  0.072098137  0.072193915            6 
 2628000    0.8344409   -2.8009717    2268.9287  0.071947257  0.072179939            6 
 2629000   0.85001824   -2.7772421    2277.5791  0.072194087  0.072166083            3 
 2630000   0.83894167   -2.7710272    2270.9234  0.071955748   0.07215222            3 
 2631000   0.84690872   -2.8043067    2273.6156   0.07201367  0.072138211            4 
 2632000   0.83282833   -2.7667667    2268.6489  0.071829054  0.072124264            3 
 2633000   0.83421365   -2.7853015    2272.8368   0.07193432  0.072110492            6 
 2634000   0.82168851   -2.7816518    2265.5771  0.071677332  0.072096472            3 
 2635000   0.82821673   -2.8108604    2268.0558  0.071728519  0.072082687            3 
 2636000   0.83559227   -2.8097293    2270.8301  0.071789014  0.072068827            3 
 2637000   0.83731564   -2.7916071    2276.9432  0.071954974  0.072055004            4 
 2638000   0.83182727   -2.8007245     2268.147  0.071649829  0.072041116            6 
 2639000   0.82565925   -2.8071105    2274.7658  0.071831686  0.072027216            5 
 2640000   0.83615914   -2.7723133    2272.6455  0.071737546  0.072013448            3 
 2641000   0.83600575   -2.7765846    2274.8968  0.071781422  0.071999641            3 
 2642000   0.83210463   -2.7961087    2272.5189  0.071679249  0.071985502            2 
 2643000   0.81838935   -2.7849705     2280.229  0.071895227  0.071971593            5 
 2644000   0.81433534   -2.7934956    2275.8467  0.071729914  0.071957749            3 
 2645000   0.82947274   -2.8030798    2277.6591  0.071759897  0.071943893            5 
 2646000   0.81958415   -2.7812315    2273.8653  0.071613292  0.071929986            2 
 2647000   0.81476768   -2.8092708    2271.2991  0.071505448  0.071916021            3 
 2648000   0.84501294   -2.7883009    2281.7581  0.071807593  0.071901832            4 
 2649000   0.81780445   -2.7683301    2283.4762  0.071834535  0.071887941            3 
 2650000   0.83141857   -2.7747115    2274.4346    0.0715231  0.071873861            3 
 2651000   0.83451386   -2.8145153    2277.9955  0.071608057  0.071859887            4 
 2652000   0.83209577   -2.8352451    2277.6163   0.07156914  0.071845846            8 
 2653000    0.8361775   -2.7995564    2280.7505  0.071640611  0.071831849            3 
 2654000   0.81712505   -2.7879351    2283.5972  0.071703001  0.071817943            3 
 2655000   0.81437339   -2.7805681    2281.7772   0.07161887  0.071804013            3 
 2656000   0.82411581   -2.7867738    2278.2742  0.071481998  0.071790213            2 
 2657000   0.81584353   -2.7927083    2284.5831  0.071652964  0.071776476            3 
 2658000   0.81995963   -2.7933195    2278.7133  0.071441976   0.07176268            2 
 2659000   0.80795649   -2.8112557    2288.7894  0.071730896  0.071748875           11 
 2660000   0.81409651   -2.8031171    2277.9385  0.071363987  0.071734977            3 
 2661000   0.82114263   -2.7980324    2286.7442  0.071612935  0.071720969            3 
 2662000   0.80951085   -2.8225902    2280.8531  0.071401613  0.071707077            6 
 2663000   0.80344683   -2.8057091    2283.2661  0.071450311  0.071693207            4 
 2664000   0.81916676   -2.8083282    2285.8597  0.071504621  0.071679322            2 
 2665000   0.83422376   -2.7958185    2284.3709  0.071431234  0.071665358            4 
 2666000   0.83540979   -2.7939907    2282.7657  0.071354267  0.071651706            7 
 2667000   0.83542442   -2.7803466    2296.1463  0.071745604  0.071638168            2 
 2668000   0.82449355   -2.8091564    2285.9179  0.071399235  0.071624438            4 
 2669000   0.83151356   -2.7999444    2292.8017  0.071587414  0.071610721            2 
 2670000   0.82293638   -2.7665045    2289.9446  0.071471429  0.071596959            3 
 2671000   0.83214861   -2.7733182    2299.4673  0.071741774  0.071583283            4 
 2672000   0.82759667   -2.7882743    2292.4241  0.071495262  0.071569738            2 
 2673000   0.81373339   -2.8142777    2297.2127  0.071617806  0.071556173            5 
 2674000   0.83054175   -2.7799982    2292.0007  0.071428595  0.071542597            4 
 2675000   0.83924825   -2.7986597    2284.9089  0.071180964  0.071528872            2 
 2676000   0.81712901   -2.8075818    2292.9341  0.071404277   0.07151495            5 
 2677000   0.81301583   -2.8269562    2287.8386  0.071218983  0.071500957            5 
 2678000   0.80945799   -2.8229926    2278.2355  0.070893563  0.071486973            3 
 2679000   0.80826093    -2.785885    2290.4731  0.071247763  0.071473105            2 
 2680000   0.82952724   -2.7717329    2301.0852  0.071551158   0.07145947            1 
 2681000   0.81477382   -2.8159626    2297.2808  0.071406216  0.071446065            3 
 2682000   0.83535558   -2.7796475    2301.7135  0.071517323  0.071432632            3 
 2683000   0.85050395   -2.7950052    2298.5086  0.071391122  0.071419143            4 
 2684000   0.79789443   -2.7983517    2300.7368  0.071433706  0.071405629            2 
 2685000   0.84769188   -2.7982105    2296.5091  0.071275888  0.071392333            3 
 2686000   0.81765686   -2.8115879    2307.1201   0.07157856  0.071378765            4 
 2687000   0.82724799   -2.8172779    2306.0157  0.071517667  0.071365333            3 
 2688000    0.8117772     -2.79365    2305.1895  0.071465448  0.071352058            2 
 2689000   0.82262914   -2.8151293    2309.3984  0.071569308  0.071338678            4 
 2690000   0.81752717   -2.7883554    2303.7693  0.071368319  0.071325194            3 
 2691000   0.82108237   -2.8261055    2291.8407  0.070972399  0.071311643            3 
 2692000   0.82162632   -2.7972406    2305.4352  0.071366864  0.071298207            4 
 2693000   0.81516589    -2.793584    2303.4524  0.071279008  0.071284826            5 
 2694000   0.82956953   -2.7790279    2311.4331  0.071499414   0.07127152            2 
 2695000   0.83142897    -2.799825    2305.0789  0.071276404  0.071258136            4 
 2696000   0.81861567   -2.7920971    2307.7467  0.071332428  0.071244837            3 
 2697000   0.81313727    -2.810969    2312.6328  0.071456952  0.071231307            3 
 2698000    0.8177186   -2.8035879    2304.0673  0.071165903  0.071217948            5 
 2699000   0.81440339   -2.8041346    2305.7529   0.07119158   0.07120453            2 
 2700000   0.82023068   -2.8050793    2304.7281  0.071133582  0.071191109            4 
 2701000   0.79176211   -2.8021314    2310.5183  0.071285891  0.071177774            2 
 2702000     0.837349   -2.7992164    2308.6814  0.071202857   0.07116436            5 
 2703000   0.80901442   -2.8303479    2315.8771  0.071398358   0.07115093            3 
 2704000   0.79462305   -2.7918805    2314.6973  0.071335592  0.071137677            7 
 2705000   0.82448602   -2.8043122    2303.6387  0.070968537    0.0711243            3 
 2706000   0.81099212   -2.8143301    2305.8497  0.071010399  0.071111069            4 
 2707000   0.80975278    -2.827599    2306.8132  0.071013828  0.071097626            8 
 2708000   0.81323155   -2.7918883    2309.0758  0.071057232  0.071084096            6 
 2709000   0.82493397   -2.8136691    2308.1993  0.071004038  0.071070592            5 
 2710000   0.80620157    -2.811949    2313.3664  0.071136728  0.071057223            3 
 2711000   0.81768443   -2.7842723    2310.8412  0.071032865  0.071043758            4 
 2712000   0.80962289   -2.8058376    2314.8763  0.071130662  0.071030422            4 
 2713000   0.80520599   -2.8038025    2314.2831  0.071086224  0.071017089            3 
 2714000   0.83660415   -2.7992166     2313.414  0.071033346  0.071003773            2 
 2715000   0.80458386   -2.8011902    2315.5165  0.071071716   0.07099035            3 
 2716000   0.80481665   -2.7982869    2316.0861  0.071063026  0.070976847            5 
 2717000   0.81259318   -2.8068474    2311.4026  0.070893222  0.070963403            3 
 2718000   0.80077695   -2.7950521    2318.1711  0.071074659  0.070949947            4 
 2719000   0.81168915   -2.8268881    2312.6533  0.070879408   0.07093654            5 
 2720000   0.81034902   -2.7678384    2311.3841  0.070814465   0.07092312            5 
 2721000   0.79469244   -2.8019912    2321.0798  0.071085378  0.070909728            5 
 2722000   0.82511233   -2.8110932     2322.654  0.071107457  0.070896436            5 
 2723000   0.81608775   -2.7976569    2326.0962  0.071186687  0.070883224            6 
 2724000   0.81144144   -2.8141067    2318.3928  0.070924889  0.070869918            4 
 2725000   0.82045852   -2.7951954    2328.5938  0.071210818  0.070856704            4 
 2726000   0.80543218   -2.8343122    2316.7123  0.070821482   0.07084343            4 
 2727000   0.81638268   -2.8087886    2319.3021  0.070874653  0.070830095            2 
 2728000   0.80028417   -2.8109808    2316.1136  0.070751269  0.070816813            4 
 2729000   0.81449134   -2.8054965     2318.281   0.07079153  0.070803543            5 
 2730000   0.82623798   -2.8138856    2325.5848  0.070988548  0.070790238            4 
 2731000   0.81183728   -2.8146098    2318.4248  0.070744073  0.070776844            5 
 2732000   0.81589475   -2.8317108    2321.7204  0.070818704  0.070763594            3 
 2733000   0.81899407   -2.8030223    2324.5061  0.070877733  0.070750239            7 
 2734000   0.82744826    -2.845989    2321.1547  0.070749657  0.070736835            2 
 2735000   0.82167722   -2.8124819    2325.7105  0.070862598  0.070723259            5 
 2736000   0.81236432   -2.8273713    2328.3117  0.070915927   0.07070989            6 
 2737000   0.80769906   -2.8154408    2327.1981  0.070856111  0.070696646            3 
 2738000   0.82467801   -2.7918444    2332.8881  0.071003413  0.070683506            7 
 2739000   0.81996079   -2.7971658     2334.239  0.071018591  0.070670383            5 
 2740000   0.83957731   -2.8022469     2325.577  0.070729228  0.070657239            2 
 2741000   0.81825643   -2.7877241    2328.8083  0.070801664   0.07064402            3 
 2742000    0.8206579   -2.8011265    2328.5109  0.070766803  0.070630861            3 
 2743000    0.8105605   -2.7913304    2331.5934  0.070834653  0.070617588            4 
 2744000   0.81321003   -2.8304324    2332.0339  0.070822215  0.070604422            5 
 2745000   0.84695414   -2.8190601     2333.538  0.070842077  0.070591328            9 
 2746000   0.79421798   -2.7852043    2330.3289  0.070718891  0.070578365            3 
 2747000   0.80689757   -2.8190804    2342.1016  0.071050285    0.0705653            4 
 2748000   0.81510921   -2.8150082    2330.9053    0.0706849  0.070552162            4 
 2749000   0.82140182   -2.7954892    2339.9558  0.070933547  0.070539118            3 
 2750000   0.80715516   -2.8341269    2335.5207  0.070773356   0.07052629            3 
 2751000   0.81416804   -2.8178868     2334.346  0.070712044  0.070513377            2 
 2752000   0.79175466   -2.8217383    2328.3154  0.070503736  0.070500435            5 
 2753000   0.81868066   -2.8230482    2333.3553  0.070630684  0.070487469            3 
 2754000   0.83743382   -2.8256377    2336.5664  0.070702201  0.070474461            4 
 2755000   0.80941189   -2.8349474    2332.7383  0.070560746  0.070461496            4 
 2756000   0.81053143   -2.8101683    2341.1518  0.070789545  0.070448583            4 
 2757000   0.80797743   -2.8273932    2337.7559  0.070661224  0.070435901            2 
 2758000   0.82055087   -2.8043761    2340.1622   0.07070831  0.070423096            3 
 2759000   0.80917801   -2.8073302    2341.1713   0.07071316  0.070410248            2 
 2760000   0.80345483   -2.8166124     2341.574  0.070699697  0.070397432            3 
 2761000   0.80872485    -2.834123    2346.4912  0.070822505  0.070384484            3 
 2762000   0.81370602     -2.81703    2341.3138  0.070640653  0.070371687            4 
 2763000   0.82731039   -2.8329709    2339.6206  0.070564018  0.070358838            4 
 2764000   0.80348334   -2.8143576    2355.8718  0.071028455  0.070346015            3 
 2765000    0.8040579   -2.8335787    2337.9045  0.070461257  0.070333329            2 
 2766000    0.8193452   -2.8120514    2343.5785  0.070606726  0.070320558            7 
 2767000   0.81526797   -2.8235933    2342.0033   0.07053377  0.070307652            7 
 2768000   0.79662942   -2.8345087    2337.8313  0.070382686  0.070294704            3 
 2769000   0.79405972   -2.8166333    2352.0256  0.070784446  0.070281769            4 
 2770000   0.80686933   -2.8331763    2340.9214  0.070424832  0.070269014            8 
 2771000   0.80581172   -2.8328105     2345.802  0.070546194  0.070255972            3 
 2772000   0.81676636   -2.8404926    2349.9611  0.070645776  0.070243093            3 
 2773000   0.81733726   -2.8126198    2346.0788  0.070503631  0.070230075            4 
 2774000    0.8246087   -2.7944951    2344.1285  0.070419625   0.07021713            3 
 2775000   0.81798077   -2.8153359    2348.6978  0.070531467  0.070204241            6 
 2776000   0.82296284   -2.8142679    2344.3308  0.070374964  0.070191285            2 
 2777000   0.80979881   -2.8087904    2351.5908  0.070567482  0.070178346            3 
 2778000   0.78418497   -2.8092144    2344.9851  0.070343925  0.070165507            3 
 2779000   0.79868356   -2.7972459    2350.6648  0.070488929  0.070152588            1 
 2780000   0.82007349   -2.8377579    2338.3189  0.070093491  0.070139598            2 
 2781000   0.79928853   -2.8359516    2347.3796  0.070339793  0.070126481            4 
 2782000    0.8119415   -2.7972346    2340.7479   0.07011586  0.070113417            3 
 2783000   0.81862419    -2.828995    2339.2273  0.070045134   0.07010025            5 
 2784000    0.7960215   -2.8211183    2347.1686  0.070257682  0.070087271            2 
 2785000   0.79519554   -2.8254974    2351.0177  0.070347627  0.070074204            2 
 2786000   0.82647176   -2.8307559    2348.4204  0.070244688  0.070061241            3 
 2787000   0.80701729   -2.8252994    2344.6495  0.070106732  0.070048212            5 
 2788000   0.82522541   -2.8307291    2345.9952  0.070121807  0.070035177            3 
 2789000   0.81250759   -2.8413215    2343.1422  0.070011419  0.070022092            1 
 2790000   0.80754164   -2.8501344    2346.5685  0.070088665  0.070008958            7 
 2791000    0.8178774   -2.8242357    2347.5728  0.070093539   0.06999594            2 
 2792000    0.8165169   -2.8148945    2352.7247  0.070222204  0.069982989            5 
 2793000   0.80611701   -2.8203709    2355.4963  0.070279755  0.069969954            4 
 2794000   0.79888985   -2.8062632    2345.8258  0.069966171  0.069956846            3 
 2795000   0.80991642   -2.8385841    2354.7886  0.070208366  0.069943782            4 
 2796000   0.80178974   -2.8219832    2345.0599  0.069893296  0.069930599            6 
 2797000   0.80636293   -2.8247453    2346.2783   0.06990461  0.069917494            2 
 2798000   0.79743327   -2.8140885    2353.9399  0.070107813  0.069904283            4 
 2799000   0.79430288   -2.8441849    2349.8977  0.069962417  0.069891192            6 
 2800000   0.81134865   -2.8161703    2350.2561  0.069948099  0.069877947            3 
 2801000    0.8110599   -2.8254406    2350.2898  0.069924128  0.069864743            3 
 2802000   0.79905258   -2.8347146    2353.5198  0.069995234  0.069851504           12 
 2803000   0.81905596   -2.8608256    2347.0542  0.069778043  0.069838265            3 
 2804000   0.79892937   -2.8247786    2347.2392  0.069758654   0.06982482            6 
 2805000    0.7963532   -2.8383248     2349.615  0.069804368  0.069811572            3 
 2806000   0.80538015   -2.8549221    2354.1822  0.069915127  0.069798357            3 
 2807000    0.7857249   -2.8201199    2360.9303  0.070090556  0.069785346            6 
 2808000   0.81904982   -2.8450006    2356.1337  0.069923247  0.069772149            4 
 2809000   0.79388379   -2.8393411    2361.9156  0.070069884  0.069758972            2 
 2810000    0.8020029   -2.8268789    2349.4954  0.069676614  0.069745916            3 
 2811000   0.80650783   -2.8167395    2364.0492  0.070083279  0.069732876            4 
 2812000    0.7883101   -2.8215596     2362.063  0.069999497  0.069719839            4 
 2813000     0.802529   -2.8391961     2363.345  0.070012589  0.069706856            3 
 2814000   0.81423481   -2.8210303    2362.4569  0.069961412  0.069693989            2 
 2815000   0.79211511   -2.8099544    2355.1446  0.069720089  0.069681145            3 
 2816000   0.79446768   -2.8127376    2359.9094  0.069836335  0.069668106            3 
 2817000   0.79362889   -2.8156674    2354.6619  0.069656311  0.069654916            4 
 2818000   0.81504186   -2.8044717    2364.0346  0.069908758  0.069641835           11 
 2819000   0.81179562   -2.8241592    2365.1903  0.069918125  0.069628686            3 
 2820000   0.81170683   -2.8009894    2370.3492   0.07004578  0.069615581            2 
 2821000    0.8112754   -2.8391502     2358.967  0.069684715  0.069602491            2 
 2822000   0.80805463   -2.8362968    2358.5532  0.069647803  0.069589434            3 
 2823000   0.78392107   -2.8268813    2362.7201  0.069746137  0.069576344            4 
 2824000   0.79071943   -2.8323603    2366.6055  0.069836093   0.06956317            5 
 2825000   0.79030776   -2.8344235    2366.5907  0.069810934   0.06955004            3 
 2826000   0.80669159   -2.8311951    2363.5164  0.069695576  0.069536853            4 
 2827000   0.80622085   -2.8331437    2366.9278  0.069771484  0.069523749            6 
 2828000   0.79227264   -2.8047782    2370.8943  0.069863695  0.069510655            4 
 2829000   0.79765948   -2.8086257    2366.2258  0.069701479   0.06949769            8 
 2830000   0.79189958   -2.8169148    2361.0944  0.069525748  0.069484695            3 
 2831000   0.79638667   -2.8228898    2363.6641   0.06957683  0.069471496            6 
 2832000    0.7992995   -2.8130129    2370.5317  0.069754345  0.069458441            3 
 2833000   0.79705302   -2.8637944    2363.1629  0.069512969  0.069445379            7 
 2834000   0.80569505   -2.8419781    2370.1189   0.06969298  0.069432299            2 
 2835000   0.80484315    -2.829076    2369.0296   0.06963638   0.06941932            5 
 2836000   0.78658009   -2.8342838    2376.3734  0.069827615  0.069406491            3 
 2837000   0.79446532   -2.8468818    2370.3752  0.069626813  0.069393625            4 
 2838000   0.81578209   -2.8208248    2367.2314  0.069509965   0.06938057            2 
 2839000   0.79952723   -2.8424377    2370.4497  0.069579949  0.069367846            5 
 2840000   0.79950775   -2.8586018    2371.5583  0.069587978  0.069354613            4 
 2841000   0.78759803   -2.8240294    2376.5456  0.069709773   0.06934161            4 
 2842000   0.79959919   -2.8339591    2362.4477  0.069271864  0.069328604            3 
 2843000   0.79697784     -2.84494    2367.0633  0.069382791  0.069315654            2 
 2844000   0.79774578   -2.8298663    2382.3654   0.06980677  0.069302586            6 
 2845000   0.81101685   -2.8333972    2374.8409  0.069561831  0.069289601            2 
 2846000   0.79390216   -2.8293099    2370.4723  0.069409471  0.069276676            4 
 2847000   0.79267555   -2.8321079    2372.9471  0.069457532  0.069263884            4 
 2848000   0.81243337   -2.8417912    2374.1529  0.069468426  0.069250949            3 
 2849000   0.78057337   -2.8288932    2376.7434  0.069519815  0.069237865            4 
 2850000   0.81056385   -2.8316787    2374.5436  0.069431101  0.069224754            3 
 2851000   0.80317566   -2.8561767     2363.005  0.069069477  0.069211618           10 
 2852000   0.81075385   -2.8448342    2377.7827  0.069477054  0.069198545            5 
 2853000    0.7971294   -2.8317634    2369.9991  0.069225352  0.069185519            4 
 2854000     0.803605   -2.8594072    2381.1022  0.069525292  0.069172425            3 
 2855000   0.80643957    -2.841148    2373.8217  0.069288433  0.069159299            3 
 2856000   0.79292124   -2.8546467    2371.3074  0.069190808  0.069146234            5 
 2857000   0.79906069   -2.8363208    2385.4881  0.069580215  0.069133411            5 
 2858000   0.81255446   -2.8196058    2371.5803  0.069150348  0.069120495            4 
 2859000   0.78843736   -2.8498306     2377.001   0.06928416  0.069107413            5 
 2860000    0.7842337   -2.8306388    2378.9863  0.069317784  0.069094417            3 
 2861000   0.79459157   -2.8298339    2383.7692  0.069432869  0.069081247            3 
 2862000   0.80839405    -2.867314    2386.4139  0.069485613  0.069068165            4 
 2863000   0.79964493   -2.8532553    2376.9358  0.069185464  0.069055107            4 
 2864000   0.79153867   -2.8310766     2380.858  0.069275432  0.069042081            5 
 2865000   0.79506833   -2.8254929    2382.7892  0.069307422  0.069028977            5 
 2866000   0.78870258   -2.8409343    2376.4608  0.069099233  0.069016072            4 
 2867000   0.77983639   -2.8407627    2381.8976  0.069233159  0.069003123            1 
 2868000   0.78843787   -2.8477069      2386.07  0.069330254  0.068990016            3 
 2869000   0.78578641   -2.8486077    2385.3643  0.069285589  0.068977005            7 
 2870000   0.80130006   -2.8620663    2376.6561  0.069008598  0.068964106            3 
 2871000   0.78964047    -2.838376    2382.0971  0.069142492  0.068951209            4 
 2872000    0.7907973   -2.8462198    2376.0665  0.068943434   0.06893826            3 
 2873000   0.78790677   -2.8445504    2381.5004   0.06907705  0.068925358            5 
 2874000   0.78291965   -2.8413577    2372.3782  0.068788513  0.068912405            4 
 2875000   0.79691789   -2.8380349    2385.7474  0.069152098  0.068899376            3 
 2876000   0.78936708   -2.8375623    2386.6442   0.06915404  0.068886395            5 
 2877000   0.77069189   -2.8522041    2382.6393  0.069013998  0.068873302            3 
 2878000   0.79530154    -2.858584    2387.2951  0.069124831  0.068860342            3 
 2879000   0.78797889   -2.8417494    2387.2303  0.069098943  0.068847417            3 
 2880000   0.78960148   -2.8325936    2386.9827  0.069067785  0.068834427            2 
 2881000   0.77187103    -2.833879    2385.8865  0.069012106  0.068821608            2 
 2882000   0.77830087    -2.846486    2393.7942  0.069216812  0.068808583            3 
 2883000   0.78374208   -2.8545563    2381.9743  0.068851147   0.06879552            4 
 2884000   0.77790325   -2.8385257    2381.6146  0.068816879   0.06878249            5 
 2885000    0.7841374   -2.8740769     2384.499  0.068876344  0.068769362            4 
 2886000   0.78935991   -2.8067627    2390.5174  0.069026258  0.068756355            6 
 2887000   0.79353931   -2.8216875    2393.4977  0.069088375  0.068743438            2 
 2888000   0.77896176   -2.8395263    2391.8868  0.069017972  0.068730589            4 
 2889000   0.79153841   -2.8418175    2393.5722  0.069042697  0.068717644            2 
 2890000   0.79180742   -2.8701561    2393.3415  0.069012153   0.06870485            7 
 2891000    0.7868385   -2.8360773    2387.0519  0.068806985  0.068691898            6 
 2892000   0.76751217   -2.8762711    2385.9258  0.068750744  0.068679043            7 
 2893000   0.77920434   -2.8280114    2388.8783  0.068812026  0.068666232            2 
 2894000   0.78099385   -2.8355602    2395.7578  0.068986345  0.068653463            6 
 2895000   0.79734441   -2.8375382    2392.9303  0.068881126  0.068640752            7 
 2896000   0.77199788   -2.8303375    2395.4327  0.068929347  0.068627931            6 
 2897000   0.78243833   -2.8411492    2392.8373  0.068830896  0.068615083            5 
 2898000   0.77601538     -2.86699    2398.1372  0.068959548  0.068602304            6 
 2899000   0.77822399   -2.8667606    2390.6174    0.0687196  0.068589422            5 
 2900000   0.79873452    -2.852901    2399.1603  0.068941388  0.068576365            2 
 2901000   0.77960954   -2.8665192    2395.0856  0.068800575  0.068563375            3 
 2902000   0.78122707   -2.8712576    2397.2445  0.068838861  0.068550333            4 
 2903000   0.79367789   -2.8648052    2392.7819  0.068687044  0.068537381            3 
 2904000   0.78775307   -2.8690741    2392.7776   0.06866327  0.068524338            5 
 2905000   0.78840082    -2.840527     2398.259  0.068796872   0.06851133            4 
 2906000    0.7944052   -2.8480036    2395.8133  0.068703066  0.068498255            2 
 2907000   0.79293116   -2.8385982    2399.0959  0.068773531  0.068485278            3 
 2908000   0.79679504   -2.8387315    2389.2398  0.068467441  0.068472327            6 
 2909000    0.7961917   -2.8464736     2400.323  0.068761402  0.068459391            3 
 2910000   0.79269584   -2.8390685    2407.0929  0.068931642  0.068446433            3 
 2911000   0.78073584    -2.839061    2392.5543  0.068491764  0.068433489            2 
 2912000    0.7616275   -2.8483635    2394.9544  0.068536928  0.068420579            6 
 2913000   0.79064353    -2.843681     2400.651  0.068676365  0.068407832            4 
 2914000   0.80665345   -2.8554134    2401.0655  0.068664652  0.068394908            3 
 2915000   0.79341977   -2.8504742    2406.1319  0.068785931   0.06838199            3 
 2916000   0.78896616   -2.8366177    2406.7137  0.068778969  0.068369006            2 
 2917000   0.77853916   -2.8461114    2401.3394  0.068601858  0.068355983            7 
 2918000   0.77278607   -2.8603248    2398.6604   0.06850184  0.068343182            3 
 2919000   0.78706242   -2.8412888    2407.4676  0.068729804  0.068330253            5 
 2920000   0.78740352     -2.86267    2400.0545  0.068494705  0.068317379            3 
 2921000   0.79182826    -2.867303    2398.7814  0.068434938  0.068304506            4 
 2922000   0.79013075   -2.8572772    2409.2837  0.068711034  0.068291785            5 
 2923000   0.77176771   -2.8630574    2402.9878  0.068508033  0.068278941            3 
 2924000   0.80530463   -2.8537994    2411.7156  0.068733345  0.068266168            4 
 2925000   0.77301231   -2.8493158    2407.7947  0.068598141  0.068253378            5 
 2926000   0.80099215   -2.8401841    2409.5682  0.068625205  0.068240755            4 
 2927000   0.79171867   -2.8695788    2401.5935  0.068374717  0.068227882            5 
 2928000   0.77439273   -2.8484966     2402.921  0.068389144  0.068214986            4 
 2929000   0.79305669   -2.8564409    2400.4638  0.068295887  0.068202001            4 
 2930000   0.78303057    -2.861523    2406.0491  0.068431432  0.068189223            5 
 2931000   0.76470051   -2.8660431    2401.2977  0.068272994  0.068176333            3 
 2932000   0.76964901    -2.866008    2403.8215  0.068321439  0.068163481            5 
 2933000   0.77315574   -2.8632444    2408.4244  0.068428925  0.068150574            6 
 2934000   0.78844612   -2.8758767    2403.4677  0.068264816  0.068137622            7 
 2935000    0.8024737   -2.8468488    2415.6605   0.06858775  0.068124716            3 
 2936000   0.79050849   -2.8516888    2409.7367  0.068396251  0.068111855            4 
 2937000   0.77273745   -2.8640416    2414.6823  0.068513286  0.068099058            4 
 2938000   0.78735454   -2.8325393    2404.4081  0.068198552  0.068086237            5 
 2939000   0.79967842   -2.8714869    2410.1997  0.068339563  0.068073209            6 
 2940000   0.78290579   -2.8698003    2406.4968  0.068211359  0.068060146            5 
 2941000   0.77713018    -2.853597    2403.1763  0.068094081   0.06804711            2 
 2942000   0.79332627   -2.8582431     2415.648    0.0684242  0.068034121            3 
 2943000   0.78773661   -2.8561379    2416.1675  0.068415662  0.068021291            3 
 2944000    0.7678241   -2.8779561    2404.5575  0.068063789  0.068008332            7 
 2945000    0.7966852   -2.8505734    2409.9879  0.068194338  0.067995332            4 
 2946000   0.75212973    -2.850444     2411.312  0.068208646  0.067982349            3 
 2947000   0.77451435   -2.8740278    2411.2387  0.068183427  0.067969426            8 
 2948000   0.78960286   -2.8370127     2415.916  0.068292515  0.067956435            3 
 2949000   0.78718136   -2.8652574    2419.2035  0.068362255  0.067943431            5 
 2950000   0.76606729   -2.8653436      2412.57  0.068151695  0.067930426            2 
 2951000   0.78167197   -2.8613469     2406.581  0.067959476  0.067917503            5 
 2952000   0.78169227   -2.8561583    2409.6573  0.068023297  0.067904463            4 
 2953000   0.76656675   -2.8671085    2404.3798  0.067851331   0.06789125            2 
 2954000   0.78311332   -2.8580561    2415.1162  0.068131239  0.067878171            3 
 2955000   0.78353334   -2.8829487    2421.6882   0.06829352   0.06786525            5 
 2956000   0.79269045   -2.8535162    2412.3234   0.06800641  0.067852219            4 
 2957000   0.78540359   -2.8637045     2416.929  0.068113207  0.067839183            7 
 2958000   0.80308781   -2.8523632    2407.1434  0.067814497  0.067826167            9 
 2959000   0.77919303   -2.8620492    2417.4813  0.068082722  0.067813159            3 
 2960000   0.76421218   -2.8864064    2415.3579   0.06799994  0.067800296            3 
 2961000   0.77010029    -2.874116    2418.0884  0.068053821  0.067787254            6 
 2962000   0.78038993   -2.8698694    2415.5792  0.067960252  0.067774297            8 
 2963000   0.78897027   -2.8694463    2423.8565  0.068170112  0.067761361            7 
 2964000   0.78755685   -2.8654921    2410.8341  0.067780985  0.067748377            3 
 2965000   0.77501796   -2.8511329    2408.2488  0.067685465   0.06773544            9 
 2966000   0.76926371   -2.8389633     2420.471  0.068006039  0.067722464            3 
 2967000   0.76576335   -2.8581382    2422.6624   0.06804467  0.067709635            6 
 2968000   0.78852568   -2.8865519    2414.7975  0.067800918  0.067696676            6 
 2969000   0.76167994    -2.857359    2419.7081  0.067915911  0.067683644            3 
 2970000   0.78154499   -2.8647398     2419.675  0.067892115  0.067670699            4 
 2971000   0.77199602   -2.8386658    2424.7984   0.06801297  0.067657777            2 
 2972000   0.78821195   -2.8291502     2423.159  0.067944116   0.06764484            3 
 2973000   0.76898123   -2.8474067    2409.8868  0.067549244  0.067631868            5 
 2974000   0.75894469   -2.8717256    2422.8746  0.067890455  0.067618776            2 
 2975000   0.78499614   -2.8780829    2412.4697  0.067576183  0.067605709            3 
 2976000   0.76195625   -2.8399419     2424.116  0.067879591  0.067592685            3 
 2977000   0.78171524   -2.8512748    2417.4359  0.067669798  0.067579475            5 
 2978000   0.77883642   -2.8483885    2425.9862  0.067886339  0.067566344            3 
 2979000    0.7607884   -2.8541545    2424.9333  0.067834098   0.06755331            2 
 2980000   0.77655131   -2.8738778    2417.8346  0.067612823  0.067540142            2 
 2981000   0.76368363   -2.8817455    2420.7728  0.067672281  0.067527034            5 
 2982000   0.77664802   -2.8663911    2414.4194  0.067472039  0.067513989            3 
 2983000   0.77207128   -2.8584049    2418.2781  0.067557216  0.067500884            2 
 2984000   0.75976775   -2.8458233    2419.5805  0.067570948  0.067487908            4 
 2985000   0.77399516   -2.8784158    2429.7327  0.067831734  0.067474938            3 
 2986000    0.7680716   -2.8565297    2426.2919  0.067712991  0.067461883            4 
 2987000   0.78351644   -2.8540042    2426.2024  0.067687826  0.067448877            3 
 2988000   0.77175873   -2.8471688    2428.9808   0.06774266  0.067436054            5 
 2989000   0.75700146   -2.8834342    2414.9284  0.067328213  0.067423156            4 
 2990000   0.77500553   -2.8725198    2426.6287  0.067631792  0.067410245            4 
 2991000   0.76386447   -2.8805969     2428.799  0.067669648  0.067397322            4 
 2992000   0.76713054   -2.8536558     2427.858  0.067620821   0.06738438            4 
 2993000   0.79572035   -2.8681428    2431.2551  0.067692814    0.0673715            4 
 2994000   0.77119831   -2.8873863    2428.0143  0.067580001  0.067358497            4 
 2995000   0.78822845   -2.8625285    2426.3232  0.067510384  0.067345552            4 
 2996000   0.75861928   -2.8779485    2427.3991  0.067517776  0.067332469            5 
 2997000   0.77618277   -2.8651566    2431.9764  0.067622523  0.067319477            4 
 2998000   0.78613887    -2.866829    2430.0841  0.067547368  0.067306529            2 
 2999000   0.77734413   -2.8983186    2422.2563  0.067307334  0.067293364            3 
 3000000   0.78592453   -2.8588236    2432.0529  0.067557024  0.067280191            6 
 3001000   0.78819617   -2.8756309    2428.2127  0.067427877  0.067267164            6 
 3002000   0.76324636    -2.891665    2433.8486  0.067561864  0.067254082            6 
 3003000   0.78116924   -2.8813255    2426.9798  0.067348756  0.067240866            5 
 3004000   0.77482177   -2.8791675    2419.5741  0.067120897  0.067227704            5 
 3005000   0.76618968   -2.8769257    2421.3225  0.067147048  0.067214572            3 
 3006000   0.76055424   -2.8593972    2432.0531  0.067422186  0.067201313            6 
 3007000   0.76606982   -2.8591135    2431.5308   0.06738529  0.067188207            2 
 3008000   0.77508647   -2.8705603    2433.5678  0.067419322   0.06717521            3 
 3009000   0.75469573    -2.856477    2432.1958  0.067358917  0.067162105            5 
 3010000    0.7658819   -2.8993378    2422.3468  0.067063864  0.067148769            3 
 3011000   0.79576201   -2.8660957    2431.3229  0.067290017  0.067135512            2 
 3012000   0.76374384   -2.8874819     2429.999  0.067231049   0.06712236            4 
 3013000   0.77741136   -2.8556286    2425.7691  0.067091745  0.067109197            3 
 3014000   0.75150629   -2.8727214    2437.0374  0.067381039  0.067096173            3 
 3015000   0.77344421   -2.8862103    2429.7782  0.067158049  0.067083202            3 
 3016000    0.7567427   -2.8913927    2434.1925   0.06725775  0.067069899            4 
 3017000   0.78737212   -2.8907067    2430.3298  0.067128766  0.067056758            3 
 3018000   0.75776163   -2.8438865    2437.4524  0.067303191  0.067043577            7 
 3019000   0.76205573   -2.8693712    2432.8245  0.067153154  0.067030394            7 
 3020000   0.78163996   -2.8918177    2434.6271  0.067180659  0.067017251            4 
 3021000   0.78430943   -2.8772763    2439.2851  0.067286912   0.06700408            7 
 3022000   0.77163417   -2.8776401    2435.5134  0.067160638  0.066990916            4 
 3023000   0.77588916   -2.8604012    2431.3358  0.067023261    0.0669779            4 
 3024000   0.78113564   -2.8601888    2434.8755  0.067098643  0.066964872            1 
 3025000   0.77088123   -2.8789823     2431.865  0.066993526   0.06695184            4 
 3026000   0.76885886   -2.8523852    2433.8017  0.067024722  0.066938828            3 
 3027000   0.77988157   -2.8807835    2438.3065  0.067126596  0.066925768            4 
 3028000   0.76439546   -2.8805601    2435.6692  0.067031848  0.066912599            4 
 3029000   0.75644907    -2.880697    2439.7354  0.067121586  0.066899568            3 
 3030000   0.76230079   -2.8813862     2430.971  0.066858388   0.06688638            3 
 3031000   0.79277331   -2.8941458    2433.4781  0.066905259   0.06687341            2 
 3032000   0.77723647   -2.8989471    2442.9454  0.067143399  0.066860232            3 
 3033000   0.76986919   -2.8529022    2437.8093  0.066980144   0.06684707            5 
 3034000   0.76488964   -2.8963279    2447.9125  0.067235566    0.0668341            4 
 3035000   0.77774565   -2.8669318    2435.3806  0.066869318  0.066821104           11 
 3036000    0.7637511   -2.8782196    2450.8855  0.067272877  0.066808278            4 
 3037000   0.76897378    -2.875077    2439.0321  0.066925477  0.066795333            4 
 3038000   0.75802406   -2.8699969    2447.1809  0.067126972  0.066782312            3 
 3039000   0.77154934   -2.8805221    2437.6777  0.066844294  0.066769388            2 
 3040000   0.76673536   -2.8608506    2448.3233  0.067114125  0.066756563            7 
 3041000   0.75557432   -2.8661325    2445.0696  0.067002894  0.066743727            7 
 3042000   0.76843778   -2.8766358    2446.1097  0.067009362  0.066730875            3 
 3043000   0.76248595   -2.8744223    2446.0664  0.066986155  0.066718164            3 
 3044000    0.7637787    -2.863535    2454.1365  0.067185078  0.066705396           12 
 3045000   0.76355549   -2.8750366    2450.6541   0.06706771   0.06669253            5 
 3046000   0.75084293   -2.8877522    2452.1244  0.067085916  0.066679838            4 
 3047000    0.7771661   -2.8798029    2450.2784  0.067013413  0.066667127            4 
 3048000   0.76417915   -2.8691308    2451.3341  0.067020289  0.066654601            2 
 3049000    0.7486309   -2.9009795    2442.3671  0.066753229  0.066641855            3 
 3050000   0.76981021    -2.860453    2454.5362  0.067063831  0.066629033            3 
 3051000   0.75833294   -2.8856106      2455.18  0.067059434  0.066616375            6 
 3052000   0.76333116   -2.8891184    2445.9556  0.066785594  0.066603792            2 
 3053000    0.7593354   -2.9057447    2450.5481  0.066889073  0.066591165            7 
 3054000   0.76369069   -2.8862117    2451.8246  0.066902002  0.066578485            3 
 3055000   0.77384292   -2.8670119    2463.2864  0.067192755  0.066566034            3 
 3056000   0.77064534   -2.8502566    2463.9872  0.067189877  0.066553652            3 
 3057000   0.77566221     -2.88951    2462.7711  0.067134748  0.066541236            4 
 3058000   0.78112741   -2.8517607    2461.6052  0.067081022  0.066528717            4 
 3059000   0.77257498   -2.8860409    2463.3016  0.067105305  0.066516214            2 
 3060000   0.75786177   -2.8874149     2454.722  0.066849726  0.066503819            6 
 3061000   0.76351856   -2.8960282    2463.9851   0.06708007  0.066491265            3 
 3062000   0.75067665   -2.8843747     2452.457  0.066744421  0.066478705            5 
 3063000   0.76132607    -2.894223    2456.4481  0.066831213  0.066466057            4 
 3064000   0.76585822   -2.8886104    2466.1034  0.067072002  0.066453539            3 
 3065000   0.75903049   -2.8818579    2464.8772  0.067016782  0.066440997            5 
 3066000   0.77121082   -2.8876785    2466.0581   0.06702702  0.066428561            4 
 3067000   0.75698816    -2.899762    2458.6101  0.066802797  0.066416033            2 
 3068000   0.76750199   -2.8653358    2461.7372   0.06686596  0.066403391            5 
 3069000   0.77173251   -2.8972011    2461.0159  0.066824588  0.066390831            4 
 3070000   0.76974098   -2.8926402    2452.6163  0.066574818  0.066378314            9 
 3071000   0.77914355   -2.8781787    2455.3968   0.06662859  0.066365724            4 
 3072000   0.74858423   -2.8680118    2465.5775  0.066883071  0.066353237            7 
 3073000   0.76198749   -2.8945017    2456.9008  0.066626012   0.06634071            7 
 3074000   0.77134312   -2.8920008    2462.8062  0.066764428  0.066328239            5 
 3075000   0.75421595   -2.8838776    2471.7146  0.066984135  0.066315813            3 
 3076000   0.77030834   -2.8661112    2466.1836  0.066812515  0.066303366            5 
 3077000   0.74450507    -2.889545    2462.9103  0.066702154  0.066290841            3 
 3078000   0.75014216    -2.898519    2464.0807  0.066712169  0.066278395            9 
 3079000   0.76308279   -2.8767833    2462.9154  0.066658964    0.0662659            8 
 3080000   0.74169576   -2.8871546    2462.1895  0.066617681  0.066253227            6 
 3081000   0.75350546   -2.8903723    2469.2042  0.066785789  0.066240719            5 
 3082000    0.7549851   -2.8689005    2469.9168  0.066783387  0.066228223           11 
 3083000   0.76217011   -2.8892604    2469.8662  0.066760359  0.066215751            3 
 3084000   0.74900094   -2.8756462    2467.7887  0.066682575  0.066203339            6 
 3085000   0.76153507   -2.8896881    2462.5809  0.066520284  0.066190883            2 
 3086000   0.75187581   -2.8941287    2476.1828  0.066866028  0.066178435            7 
 3087000   0.77614934   -2.8996388    2468.5723  0.066638925  0.066165848            3 
 3088000   0.75529993   -2.8984462    2460.8428  0.066408755  0.066153296           10 
 3089000   0.75734798   -2.8994611     2462.214  0.066424247  0.066140792            5 
 3090000   0.74437023   -2.8807399    2469.2932  0.066593666  0.066128286            5 
 3091000   0.77726187   -2.8798953    2463.0355  0.066403415  0.066115735            5 
 3092000   0.75381781    -2.885525    2466.5532  0.066476746  0.066103308            4 
 3093000   0.74406187   -2.8701734    2479.3191    0.0667992  0.066090921            5 
 3094000    0.7613574   -2.8977784    2471.1868  0.066558577  0.066078659            6 
 3095000   0.74370859   -2.8805775    2465.1741  0.066375178  0.066066284            4 
 3096000   0.76659318   -2.8999429    2469.6024  0.066472932  0.066053847            2 
 3097000    0.7478999   -2.8819605    2471.3296  0.066497944  0.066041196            4 
 3098000   0.76553023   -2.8806721     2466.579  0.066348691  0.066028738            3 
 3099000   0.77253764   -2.8877924    2467.6154  0.066355153  0.066016207            4 
 3100000   0.74979794   -2.8820244    2476.1858  0.066564136  0.066003857            6 
 3101000   0.74467791   -2.9065822    2465.8086  0.066263801  0.065991275            5 
 3102000   0.75212373   -2.8710483    2479.0609  0.066598455  0.065978821            2 
 3103000   0.73607931   -2.8929289    2474.7666  0.066461667  0.065966484            7 
 3104000   0.75212294   -2.8939528    2465.4896  0.066191194  0.065954024            3 
 3105000   0.73882612    -2.877944    2478.5699  0.066520931  0.065941528            7 
 3106000   0.75715724   -2.8842233    2474.0762   0.06637895  0.065929157            4 
 3107000   0.76044123   -2.8785463    2484.7161  0.066642959  0.065916902            4 
 3108000   0.77485014   -2.8877935    2476.4662  0.066400317   0.06590463            4 
 3109000   0.75879364     -2.90574    2476.6955  0.066385104  0.065892365            3 
 3110000   0.75903611   -2.8854908     2480.127  0.066455707  0.065880156            4 
 3111000   0.75372301   -2.8729417    2478.1718  0.066381973  0.065867789            8 
 3112000   0.76652534    -2.901369    2484.5584  0.066531663  0.065855366            7 
 3113000    0.7325582   -2.8892725     2487.571  0.066590935  0.065843063            2 
 3114000   0.76921191    -2.883525    2472.4558  0.066165055  0.065830876            3 
 3115000    0.7472169    -2.908178    2490.9936  0.066639744  0.065818643            3 
 3116000   0.75018679   -2.8758907    2484.3424  0.066440479  0.065806359            2 
 3117000   0.76248697   -2.9099478    2485.6584  0.066454348   0.06579412            6 
 3118000   0.75412802   -2.8664943    2482.5884  0.066350982  0.065781944            2 
 3119000   0.75728563   -2.9169008    2480.6858  0.066278876  0.065769625            3 
 3120000   0.76589275   -2.8940516    2476.2099  0.066138085  0.065757362            3 
 3121000    0.7577154   -2.9232549    2481.9248  0.066269487  0.065745029            6 
 3122000   0.74822087   -2.8869656    2486.9685  0.066382886  0.065732719            3 
 3123000   0.76506038   -2.8964341    2486.2604  0.066342736   0.06572054            4 
 3124000   0.73777875   -2.8765869    2487.8448  0.066363763  0.065708444            4 
 3125000   0.73989083   -2.8969655    2485.6091   0.06628291  0.065696415            3 
 3126000   0.73971364   -2.8983281    2487.9442  0.066323955  0.065684364            3 
 3127000   0.75581914   -2.8916488    2495.4574  0.066502969  0.065672247            5 
 3128000   0.75661342   -2.8977876    2482.8894  0.066146882  0.065660118            4 
 3129000   0.75853955   -2.9272818    2488.2386  0.066268206  0.065647956            9 
 3130000   0.75295946   -2.8961611    2499.9331  0.066558389  0.065635869            7 
 3131000   0.75389424   -2.8740528    2495.9429  0.066430931   0.06562395            3 
 3132000   0.74595406   -2.8761285     2499.577  0.066506411  0.065612056            5 
 3133000   0.74961958   -2.8972471    2494.1543  0.066340949  0.065600163            3 
 3134000   0.76021564   -2.8884021    2504.3317  0.066590398  0.065588344            4 
 3135000   0.76352092    -2.875349    2498.1935  0.066405993  0.065576418            4 
 3136000   0.75048334   -2.8869556    2497.8088  0.066374596  0.065564529            5 
 3137000   0.74544452   -2.8960004    2490.0729  0.066147935  0.065552592            8 
 3138000   0.74698796   -2.8865682    2498.4536  0.066349416  0.065540775            6 
 3139000    0.7552288   -2.9161133    2501.8258  0.066417802  0.065528884            5 
 3140000   0.76056345    -2.884589    2488.4151  0.066040739  0.065516908            7 
 3141000    0.7446048   -2.9153537    2493.5359  0.066155573   0.06550487            4 
 3142000   0.73641659   -2.9038488    2493.7741  0.066140835  0.065492948            4 
 3143000    0.7465552   -2.8939884    2499.5965  0.066274167  0.065480967            2 
 3144000   0.72918566   -2.8803878    2495.9868   0.06615741   0.06546895            6 
 3145000   0.75216349   -2.9226822     2500.899  0.066266533  0.065456945            5 
 3146000    0.7434743   -2.9136218    2489.7796  0.065950932  0.065444949            5 
 3147000   0.74518518   -2.8863504    2493.2845  0.066022787  0.065432911            2 
 3148000   0.74168989   -2.9081923    2497.5235  0.066114027  0.065420986            4 
 3149000   0.76937508   -2.8960264    2496.9982   0.06607913  0.065408945            3 
 3150000   0.73974749   -2.8939414    2491.5857  0.065914966  0.065396919            7 
 3151000   0.73791904   -2.8896968    2492.6682  0.065922676  0.065384907           10 
 3152000   0.74335763   -2.9183059    2497.1867  0.066021222  0.065372914            3 
 3153000   0.73971952   -2.8982506    2502.6274   0.06614408  0.065360934            3 
 3154000   0.76054882   -2.9083575    2496.7346  0.065967411  0.065348926            5 
 3155000   0.72632269    -2.902839    2507.2322  0.066223778  0.065336935            5 
 3156000   0.73779041    -2.915463    2494.0551  0.065854855  0.065325142           15 
 3157000   0.73625077   -2.8946246    2500.3138  0.065999204  0.065313086            6 
 3158000   0.72900281   -2.9119131    2503.3741   0.06605906  0.065301128            6 
 3159000   0.72789638   -2.8985987    2508.0111  0.066160471  0.065289193            3 
 3160000   0.73576469   -2.9068691    2503.9131  0.066031464  0.065277355            5 
 3161000   0.75220145   -2.8955071    2501.6442   0.06595076  0.065265554            4 
 3162000   0.74084774   -2.9035411    2506.7192  0.066063652  0.065253739            4 
 3163000   0.74853408     -2.90852    2507.7621  0.066070241  0.065241863            4 
 3164000   0.76848938   -2.9314182    2495.9595  0.065738504  0.065229811            5 
 3165000    0.7389498   -2.9028425    2499.8498  0.065820165  0.065217932            3 
 3166000   0.75304279   -2.9124928    2503.4626  0.065894468  0.065205997            5 
 3167000   0.74810237   -2.9061547    2508.9051   0.06601687  0.065194076            9 
 3168000   0.75557054   -2.9332035     2490.718  0.065517623  0.065181974            4 
 3169000   0.75719126   -2.8872265    2505.4486  0.065884312  0.065170028            3 
 3170000   0.75523579   -2.8947222    2513.0665  0.066063787  0.065158265            6 
 3171000   0.76103911   -2.8940313    2505.3703  0.065840699  0.065146238            3 
 3172000   0.75295258   -2.9389378    2497.3414  0.065609012  0.065134339            5 
 3173000   0.74063876   -2.9124811    2502.6958  0.065728958  0.065122215            3 
 3174000   0.73726863    -2.898791    2512.7732  0.065972832  0.065110223            3 
 3175000   0.73516391   -2.8978573    2508.1606  0.065830986  0.065098385            4 
 3176000   0.74257885   -2.9067041    2509.8459   0.06585448  0.065086589            6 
 3177000   0.75250706    -2.920852    2503.2594  0.065660985  0.065074653            5 
 3178000   0.75068834   -2.9129173    2509.4318  0.065802176  0.065062648            3 
 3179000   0.74545932   -2.8976453    2504.8209  0.065660609  0.065050691            4 
 3180000   0.74926661   -2.9122328    2509.7577  0.065769332  0.065038735            5 
 3181000   0.74812707   -2.9107172    2512.2306  0.065813439  0.065026742            3 
 3182000   0.74127422   -2.9093641    2508.7544  0.065701717  0.065014917            4 
 3183000   0.73251754   -2.9106564    2513.0592  0.065793778   0.06500303            3 
 3184000   0.74072437   -2.9338946    2505.9451  0.065586922  0.064991104            3 
 3185000   0.74539139   -2.8796348    2510.1835  0.065677223  0.064979137            6 
 3186000   0.74396864   -2.9096167    2516.6007  0.065824458  0.064967144            5 
 3187000   0.75428222   -2.9191369    2511.3525  0.065666574   0.06495522            7 
 3188000   0.73462817   -2.9042087    2505.9762  0.065505443  0.064943196            3 
 3189000   0.74624477   -2.9166837    2514.1353  0.065698111  0.064931315            4 
 3190000   0.75896149   -2.9017762    2525.2926   0.06596898  0.064919446            2 
 3191000   0.73450416   -2.8990082    2508.0209  0.065497256  0.064907576            3 
 3192000   0.73285782   -2.9107789    2515.7851  0.065679436  0.064895619            3 
 3193000   0.75499583   -2.9341594    2512.6202  0.065576265  0.064883722            3 
 3194000   0.74135567    -2.923417    2513.0206  0.065566181  0.064871731            9 
 3195000   0.75121939     -2.91319    2514.9149  0.065595068  0.064859671           13 
 3196000   0.76137555   -2.9281034    2513.7756  0.065544836  0.064847618            6 
 3197000   0.73489579   -2.8968037    2507.7196   0.06536648  0.064835714            6 
 3198000    0.7470799   -2.9322194    2513.0779  0.065485665  0.064823819            6 
 3199000   0.73274543    -2.914734    2517.3975  0.065577721  0.064811834            5 
 3200000   0.73268328   -2.9155334    2519.1669  0.065603306  0.064799894            3 
 3201000   0.73144967   -2.9049428      2511.17  0.065374621  0.064788053            4 
 3202000    0.7243803   -2.9077718    2514.4083  0.065438483  0.064776149            3 
 3203000   0.73512808    -2.918241    2521.1673  0.065593904  0.064764232            9 
 3204000   0.74276208   -2.9314069    2512.1888  0.065339908  0.064752355            4 
 3205000   0.74943384   -2.9180964    2523.2577  0.065607324   0.06474045           11 
 3206000   0.74060926   -2.9083012     2524.267  0.065613096  0.064728542            4 
 3207000    0.7369344   -2.9272575    2522.9473  0.065558343  0.064716584            3 
 3208000   0.74644222   -2.9045995    2520.7399  0.065480567  0.064704676            5 
 3209000   0.74449921   -2.9194938    2528.9184  0.065672547  0.064692765            7 
 3210000   0.73798522   -2.9221826    2519.1589  0.065398725  0.064680792            5 
 3211000   0.72199359   -2.9155565    2519.4356  0.065385538  0.064668934            6 
 3212000    0.7626482   -2.9279231    2511.6345  0.065162789   0.06465698            5 
 3213000   0.74050211    -2.927907    2528.1484  0.065570816  0.064645133            6 
 3214000   0.73639349   -2.9233395    2528.4285  0.065557678  0.064633305            3 
 3215000   0.71673259    -2.925441    2517.8793   0.06526385  0.064621323            8 
 3216000   0.74381502   -2.9106754    2520.2066  0.065303862  0.064609459            5 
 3217000   0.75170792   -2.9240684    2522.5469  0.065344185  0.064597702            5 
 3218000   0.73707494    -2.916276    2523.9852  0.065361125  0.064585968            9 
 3219000   0.74338668   -2.9325202    2527.2133  0.065424389  0.064574209            2 
 3220000   0.73156873   -2.9238775    2531.8252  0.065523427  0.064562328            3 
 3221000     0.743286   -2.9232376    2527.3862  0.065388239   0.06455048            3 
 3222000   0.75340493   -2.9012055    2526.2543  0.065338668  0.064538687            3 
 3223000   0.72487277   -2.9269344    2526.5272  0.065325452  0.064526802            5 
 3224000   0.72505154   -2.9300028    2521.9748  0.065187519  0.064515057            6 
 3225000   0.71908173   -2.9420943    2527.0409  0.065298215  0.064503065            5 
 3226000   0.72371902   -2.8949214    2519.5705  0.065085001  0.064491288            9 
 3227000   0.72121636    -2.911222    2529.0433  0.065309454  0.064479489            4 
 3228000   0.74324341   -2.9057691    2526.0055    0.0652108  0.064467781            4 
 3229000   0.73577734   -2.9143754    2525.2599  0.065171362   0.06445591            4 
 3230000   0.74102051   -2.9228913    2521.5827  0.065056313  0.064444065            4 
 3231000   0.73067188   -2.9003529    2529.6737  0.065244861  0.064432257            3 
 3232000   0.74092595    -2.912808    2531.3858  0.065268817  0.064420435            2 
 3233000   0.74394601   -2.9029037    2535.5473  0.065355896  0.064408808            4 
 3234000   0.72168597   -2.9235035    2524.9429  0.065062432  0.064397116            7 
 3235000   0.73286646   -2.9141062     2537.293  0.065360458  0.064385262            3 
 3236000   0.75237558   -2.9397607    2532.4273   0.06521496  0.064373473            3 
 3237000   0.73102523    -2.924169    2519.8226  0.064870316  0.064361647            3 
 3238000    0.7380279   -2.9205786    2532.0745  0.065165598  0.064349877            5 
 3239000   0.73147102   -2.9080031    2534.8142  0.065215967  0.064338192            6 
 3240000   0.74246182   -2.9321564    2530.3135  0.065080079  0.064326427            5 
 3241000   0.72219385   -2.9371365    2528.7747  0.065020432  0.064314754            5 
 3242000   0.73459166   -2.9306366    2521.7421  0.064819611  0.064302893            4 
 3243000   0.74127475   -2.9188688    2531.9941  0.065063061  0.064291052            7 
 3244000   0.73729264   -2.9314945    2528.8434   0.06496207  0.064279272            8 
 3245000   0.71368356   -2.9250349     2531.995  0.065022983  0.064267476            3 
 3246000   0.74122643   -2.9610734    2528.9851   0.06492568  0.064255701            4 
 3247000   0.72102712   -2.9121234    2533.4867  0.065021217  0.064243859            4 
 3248000   0.74345569   -2.9230512    2537.6852  0.065108918  0.064232071            5 
 3249000   0.74163729   -2.9111787    2538.9974  0.065122535  0.064220241            3 
 3250000   0.73037726   -2.9444366     2527.537  0.064808641  0.064208342            6 
 3251000   0.72876492   -2.9164546    2531.9199  0.064901054  0.064196612            6 
 3252000   0.71585679   -2.9084737     2537.722  0.065029777  0.064184904            5 
 3253000   0.72690998   -2.9233872    2541.9447  0.065117961  0.064173152            3 
 3254000   0.73087121   -2.9239239     2545.664  0.065193198  0.064161333            3 
 3255000   0.71116749   -2.9268118    2533.1914  0.064853851  0.064149556            2 
 3256000   0.70577812   -2.9372962    2541.8791  0.065056283  0.064137681            3 
 3257000   0.73870228   -2.9280244    2542.0536  0.065040773  0.064125828            4 
 3258000     0.754934   -2.9005174    2531.0729  0.064739944  0.064114031            5 
 3259000   0.71374757   -2.9357709    2543.1836  0.065029753  0.064102345            3 
 3260000   0.71760142   -2.9169106    2537.3938  0.064861805   0.06409049            5 
 3261000   0.73789683   -2.9164226    2537.5261  0.064845296  0.064078539            7 
 3262000    0.7319571   -2.9262178    2535.1009   0.06476346  0.064066565            3 
 3263000   0.73222475   -2.9494832    2528.6645  0.064579236   0.06405458            4 
 3264000   0.70441942   -2.9408057    2543.4732  0.064937531   0.06404262            5 
 3265000   0.73883971   -2.9345267    2539.9242   0.06482706  0.064030647            7 
 3266000   0.74313442   -2.9327173    2532.3877  0.064614914  0.064018636            5 
 3267000   0.72751464   -2.9234604    2537.0001  0.064712788  0.064006564            6 
 3268000   0.72629018   -2.9392693    2538.2862  0.064725782  0.063994761            4 
 3269000   0.74420294   -2.9353534    2532.9464  0.064569858  0.063982979            6 
 3270000    0.7298711   -2.9326163    2531.9025  0.064523509   0.06397084            3 
 3271000   0.71502417   -2.9414334    2531.0882  0.064483037  0.063958858            4 
 3272000   0.73114453   -2.9306615    2539.1689  0.064669134  0.063946785           11 
 3273000   0.73320585   -2.9214508    2535.2728  0.064550179  0.063934863            5 
 3274000   0.74498612   -2.9140513     2536.912  0.064572185  0.063922872            6 
 3275000   0.72157341   -2.9159154    2541.8742  0.064678733  0.063910931            5 
 3276000   0.71310193   -2.9191707    2535.7639  0.064503558  0.063899007            2 
 3277000   0.73897953   -2.9216819    2538.3141  0.064548726  0.063886994            9 
 3278000   0.72445706   -2.9502417    2531.7139  0.064361245  0.063874896            6 
 3279000   0.73036611    -2.922033    2537.9162  0.064499242  0.063862853            4 
 3280000   0.73172134   -2.9197989    2538.3239  0.064489937  0.063850804            5 
 3281000   0.70859468   -2.9208887    2546.1915  0.064670108  0.063838765            2 
 3282000   0.74228847   -2.9248246    2539.5184  0.064480966  0.063826645            5 
 3283000   0.74194594     -2.94275    2540.5954  0.064488663  0.063814499            8 
 3284000    0.7078299   -2.9368845    2541.5811  0.064494039  0.063802435            4 
 3285000   0.73381229   -2.9337969    2537.5049  0.064371001  0.063790385            3 
 3286000   0.71493679   -2.9465463    2542.4213  0.064476093  0.063778315            3 
 3287000   0.73719804    -2.937641    2544.5392  0.064510171  0.063766138            5 
 3288000   0.72400565   -2.9234732    2541.6972  0.064418523  0.063754048            9 
 3289000   0.72766078   -2.9558388    2544.4803  0.064469452  0.063741841            3 
 3290000   0.71655058   -2.9496665    2544.2101  0.064443013  0.063729718            4 
 3291000   0.72547898    -2.910349    2540.8605  0.064338613  0.063717598            4 
 3292000   0.74047559   -2.9365896    2546.0036  0.064449261  0.063705566            3 
 3293000   0.71798604   -2.9239418    2549.4733  0.064517495  0.063693572            6 
 3294000   0.73885884   -2.9237188    2541.5295  0.064296941  0.063681368            7 
 3295000   0.72815242   -2.9368301      2546.23  0.064396307   0.06366944            5 
 3296000   0.70885177   -2.9342482    2543.8502  0.064316601  0.063657477            4 
 3297000    0.7195581   -2.9364342    2541.0648  0.064226691  0.063645525            3 
 3298000   0.71995632   -2.9389182     2541.101  0.064208132  0.063633487            5 
 3299000   0.72600396   -2.9088081    2546.3842  0.064322123   0.06362162            4 
 3300000    0.7400381   -2.9372222    2545.9085  0.064290619  0.063609641            6 
 3301000   0.72475139   -2.9102993     2546.196  0.064278399  0.063597581            1 
 3302000   0.70764176   -2.9389657    2539.3092   0.06408513  0.063585521            5 
 3303000   0.71918965   -2.9396186    2548.1192  0.064288001  0.063573558            4 
 3304000   0.70838462   -2.9451053    2551.5567  0.064355244  0.063561585            3 
 3305000   0.72308392   -2.9446694    2543.4639  0.064131718  0.063549523            3 
 3306000   0.72324425   -2.9304713    2541.0957  0.064052624  0.063537509           11 
 3307000   0.71135848   -2.9392954     2550.063  0.064259223  0.063525573            4 
 3308000    0.7344595   -2.9120024    2552.6938  0.064306071  0.063513606            5 
 3309000   0.72005648   -2.9456678    2538.5784  0.063931157   0.06350149            6 
 3310000   0.71823809   -2.9399577     2552.006    0.0642499  0.063489453            4 
 3311000   0.72807453    -2.955433    2542.0989  0.063981147  0.063477454            3 
 3312000   0.72858387    -2.958052    2550.0246  0.064161246  0.063465321            7 
 3313000   0.72630199   -2.9509068    2550.7183  0.064159331   0.06345321            7 
 3314000   0.71727289   -2.9170055    2556.3713  0.064282118  0.063441223            7 
 3315000   0.72577259   -2.9339592    2549.6165  0.064092923  0.063429191            6 
 3316000   0.71642045   -2.9470913    2548.1145  0.064035849  0.063417049            3 
 3317000   0.71432259   -2.9337916    2548.0473  0.064014855  0.063404975            5 
 3318000   0.72396469   -2.9539004    2542.6328  0.063859575  0.063392706            4 
 3319000   0.71455524    -2.958276    2554.0589  0.064127218  0.063380725            3 
 3320000   0.73250666    -2.949562    2555.7761  0.064151006  0.063368812            6 
 3321000   0.71101247   -2.9604729     2552.682   0.06405405  0.063356602            7 
 3322000   0.72262129   -2.9350913    2549.1103   0.06394517  0.063344504            3 
 3323000   0.71476191   -2.9395425    2549.5523  0.063937013  0.063332519            3 
 3324000   0.69668214   -2.9433407    2546.2328  0.063834556   0.06332046            4 
 3325000   0.71129248   -2.9390047    2548.2235  0.063865252  0.063308501            7 
 3326000   0.72899033   -2.9314058    2553.5368  0.063979173  0.063296555            6 
 3327000   0.71247649   -2.9333638    2550.6254   0.06388702  0.063284485            2 
 3328000   0.71132305    -2.939129    2549.4972  0.063839573  0.063272535            5 
 3329000   0.71877992   -2.9546093    2547.1151  0.063760766   0.06326059            3 
 3330000   0.72694295   -2.9498042    2560.0133  0.064064396  0.063248605            2 
 3331000    0.7149369   -2.9491878    2552.9364  0.063868118  0.063236573            4 
 3332000   0.71139694    -2.944243    2560.0519  0.064026908  0.063224657            8 
 3333000   0.72458726   -2.9502944    2558.5341  0.063969749  0.063212739            4 
 3334000   0.72867627   -2.9301442    2556.4935  0.063899556  0.063200725            5 
 3335000   0.71950048   -2.9254465     2562.413  0.064028311  0.063188845            5 
 3336000   0.72818788   -2.9644056    2556.1126  0.063851732  0.063176877            6 
 3337000   0.71843715   -2.9276324      2555.32  0.063812805  0.063164923            4 
 3338000   0.72836241   -2.9360599    2558.9109  0.063883337  0.063153091            3 
 3339000    0.7147329   -2.9387373    2561.5043  0.063928927  0.063141293            4 
 3340000   0.70729073    -2.940587    2558.7556  0.063841207  0.063129378            5 
 3341000   0.72529208   -2.9529756    2553.9972  0.063703412  0.063117454            5 
 3342000   0.70025479   -2.9502371     2560.101   0.06383655  0.063105533            4 
 3343000   0.72524578   -2.9192006    2560.1246  0.063818042  0.063093621            6 
 3344000   0.70561748   -2.9426711    2566.8039  0.063965409  0.063081693            5 
 3345000    0.7134844   -2.9621352    2552.5778  0.063591873  0.063069715           11 
 3346000   0.70772441   -2.9561035     2558.202  0.063712941  0.063057651            4 
 3347000    0.7109344   -2.9380604    2563.3911  0.063823102  0.063045643            5 
 3348000   0.71582183    -2.954013    2566.7931  0.063888717  0.063033692            7 
 3349000   0.72873805   -2.9256203    2560.5694  0.063714775  0.063021706            3 
 3350000   0.72596664   -2.9361109    2565.5712   0.06382018  0.063009711            3 
 3351000    0.7067383    -2.965875    2559.2479  0.063643885  0.062997706            7 
 3352000    0.7254165   -2.9479599    2559.8524  0.063639925   0.06298571           10 
 3353000   0.70200716   -2.9326105    2568.7926   0.06384314  0.062973696            5 
 3354000   0.71808672   -2.9453782    2560.6104  0.063620812  0.062961656            6 
 3355000   0.71094386   -2.9320908    2567.2905  0.063767773  0.062949631            2 
 3356000   0.70916966   -2.9321317    2560.3562  0.063576584  0.062937592            9 
 3357000   0.71074099   -2.9393065    2557.1097  0.063477056  0.062925565            3 
 3358000   0.72368635    -2.950191    2566.3759  0.063688106  0.062913551            5 
 3359000    0.7113334   -2.9551476    2565.1157   0.06363788   0.06290155            7 
 3360000   0.71676868   -2.9411761    2562.9644  0.063565586  0.062889497            5 
 3361000     0.724705   -2.9744314    2567.0236  0.063647316  0.062877476            6 
 3362000   0.71701814   -2.9557072    2564.4909  0.063565608  0.062865383            8 
 3363000   0.70590508   -2.9542314    2561.5229  0.063473161  0.062853324            4 
 3364000   0.71646417   -2.9385451    2562.8631  0.063487493  0.062841261            5 
 3365000   0.71009112   -2.9455451    2558.2285   0.06335385  0.062829207            6 
 3366000   0.71132128   -2.9628629    2571.4877  0.063663292  0.062817113            5 
 3367000   0.72122383   -2.9562062    2562.0758  0.063411439  0.062805091            5 
 3368000   0.69694457   -2.9640396    2563.5165  0.063428257  0.062792875            7 
 3369000   0.71238442   -2.9613327    2549.1759  0.063054712   0.06278074            3 
 3370000   0.72244505   -2.9525722    2564.3734  0.063411804  0.062768457            4 
 3371000   0.71687483   -2.9686757    2560.7162  0.063302585  0.062756193           14 
 3372000   0.72736194   -2.9437613    2571.7203  0.063555762  0.062743996            4 
 3373000   0.69002881   -2.9676349    2552.2222  0.063055199  0.062731837            3 
 3374000   0.70279123   -2.9481354    2570.3463  0.063484151  0.062719653            2 
 3375000   0.69355824    -2.960089    2560.2646   0.06321641  0.062707525           10 
 3376000   0.71211873   -2.9506441    2559.5873  0.063180966  0.062695348            4 
 3377000   0.70027436   -2.9460446     2564.417  0.063281438  0.062683332            7 
 3378000   0.71004309   -2.9581788    2560.4608  0.063165108  0.062671142            7 
 3379000   0.70896052   -2.9478318     2570.493  0.063393829  0.062659052            3 
 3380000   0.71449663   -2.9662417    2562.8138  0.063185744  0.062646989            9 
 3381000   0.71721216   -2.9443888    2564.1549  0.063200111  0.062634678            3 
 3382000   0.70548783   -2.9698216    2563.8488  0.063173883  0.062622542            5 
 3383000   0.71996257   -2.9541436    2566.1422  0.063211701  0.062610412            4 
 3384000   0.71971736    -2.963089    2567.5122  0.063226759  0.062598262            4 
 3385000   0.70370174   -2.9600245     2566.799  0.063190522    0.0625863            3 
 3386000   0.71175289   -2.9514829    2562.6722  0.063070294  0.062574085            8 
 3387000   0.71103716   -2.9606718    2566.6122  0.063148612  0.062561945           15 
 3388000   0.71113286   -2.9561341    2555.5281  0.062857343  0.062549719            7 
 3389000   0.72042425   -2.9703331    2567.8095  0.063140786  0.062537562            5 
 3390000    0.7364692    -2.948118    2569.4821  0.063163277  0.062525533            5 
 3391000   0.70559668   -2.9602838    2571.5111  0.063194512  0.062513416            7 
 3392000   0.70473278   -2.9661947    2565.2799  0.063022796  0.062501299            9 
 3393000    0.7190717   -2.9501964    2566.0878  0.063024064   0.06248921            5 
 3394000   0.71804158   -2.9587588    2560.5474  0.062869461  0.062477084           11 
 3395000   0.69696587   -2.9594126    2566.4628  0.062996141  0.062464961            3 
 3396000    0.7234109    -2.951926    2571.8017  0.063108601   0.06245279            7 
 3397000   0.69769006   -2.9545172     2567.069  0.062973922  0.062440633            4 
 3398000   0.70731391   -2.9722701    2568.5047    0.0629906  0.062428468           12 
 3399000    0.6905181   -2.9661499    2573.6838  0.063099044  0.062416262           13 
 3400000   0.72025289   -2.9479117    2575.4767   0.06312443  0.062404266            3 
 3401000   0.70724119   -2.9602688     2565.345  0.062857616  0.062392188            5 
 3402000   0.70722809    -2.951122     2573.601  0.063041373  0.062380179            6 
 3403000   0.71058329   -2.9494768    2575.6712  0.063073543  0.062367964           19 
 3404000   0.70280765   -2.9694884    2569.1134  0.062894473  0.062355896            4 
 3405000   0.70656525    -2.974818    2570.3142   0.06290539  0.062343657            8 
 3406000   0.72929683   -2.9595514    2576.1706  0.063030208  0.062331568            5 
 3407000   0.70534441   -2.9828465    2567.6405  0.062803064  0.062319455            2 
 3408000   0.70467048   -2.9397691    2576.7837  0.063008209  0.062307313            6 
 3409000   0.69014519   -2.9483953    2570.4519  0.062834944  0.062295141            6 
 3410000   0.69708177   -2.9793205    2571.9842  0.062853964  0.062282828            5 
 3411000    0.7129091   -2.9703599     2567.884  0.062735367  0.062270652            3 
 3412000   0.68482878   -2.9722312    2562.0261  0.062573908   0.06225833            7 
 3413000   0.70387007   -2.9651039    2556.2927  0.062415585  0.062246093            7 
 3414000   0.71005219   -2.9576922    2573.4806  0.062816846  0.062233906            4 
 3415000   0.70296406   -2.9801547    2569.9524  0.062712358  0.062221754            4 
 3416000   0.69399794   -2.9449305    2578.3053  0.062897768   0.06220949            4 
 3417000   0.69339669   -2.9541918    2574.5463  0.062787687  0.062197199            5 
 3418000   0.71200375   -2.9611689    2572.9941  0.062731474  0.062185032           12 
 3419000   0.69515906    -2.965134    2579.4044  0.062869368  0.062172863            8 
 3420000   0.70317509   -2.9601406    2563.4897  0.062463198  0.062160637            4 
 3421000   0.71214809   -2.9675365     2572.651  0.062668104   0.06214835            6 
 3422000   0.70912055   -2.9613742    2565.1267  0.062466557  0.062136111            6 
 3423000   0.70356081   -2.9674822    2572.6553  0.062631592  0.062123831            3 
 3424000    0.6985611   -2.9794729    2569.2292  0.062529916  0.062111584            6 
 3425000   0.71278604   -2.9638997    2572.9626  0.062602496   0.06209939            6 
 3426000   0.69957479   -2.9648903    2570.6927  0.062529011  0.062087255            7 
 3427000   0.71244045   -2.9762986    2576.4314  0.062650312  0.062075039            6 
 3428000    0.6926447   -2.9865325    2570.8299  0.062495865  0.062062777            4 
 3429000   0.70098204   -2.9653976    2571.3393  0.062490018  0.062050501            4 
 3430000   0.70204771   -2.9595769    2572.5082  0.062500198  0.062038287            4 
 3431000   0.69134996   -2.9814456    2574.9449  0.062541167  0.062026175            5 
 3432000   0.70362532   -2.9634059    2579.1216  0.062624359     0.062014            7 
 3433000   0.70092197   -2.9740395    2578.0479  0.062580055  0.062001834            6 
 3434000   0.71515591   -2.9623752    2582.9761  0.062681423  0.061989567            7 
 3435000   0.71176398   -2.9647966    2572.9407  0.062419717  0.061977375            4 
 3436000   0.68721342   -2.9862198    2577.3989  0.062509674  0.061965242            6 
 3437000    0.7068944   -2.9865031    2571.7621  0.062354818  0.061953069            6 
 3438000   0.70899253   -2.9676494    2583.8599  0.062629917  0.061940869            5 
 3439000   0.71153553   -2.9845516    2571.0298  0.062300809  0.061928706            4 
 3440000    0.7037218   -2.9690648     2582.653  0.062564269  0.061916438            6 
 3441000    0.7045236   -2.9808858    2579.9896  0.062481584  0.061904223            5 
 3442000   0.69551705   -2.9635528    2573.3093  0.062301698  0.061891945            5 
 3443000   0.69937383   -2.9692014    2574.6951  0.062317143  0.061879677            3 
 3444000   0.68032486   -2.9726942    2583.0163  0.062500394  0.061867383            7 
 3445000   0.69826434   -2.9702802    2577.9493  0.062359682  0.061855172            4 
 3446000   0.71632685   -2.9549833    2583.5071  0.062475988  0.061842965            5 
 3447000   0.69392605   -2.9739766    2586.9248  0.062540488  0.061830826            5 
 3448000   0.70505978   -2.9630003    2574.8311  0.062230063  0.061818704            7 
 3449000    0.6964733   -2.9547607    2582.3731  0.062394248   0.06180671            6 
 3450000   0.69474073   -2.9688122    2586.6193  0.062478727  0.061794683            6 
 3451000   0.69875609   -2.9578736    2590.4494   0.06255311  0.061782555            3 
 3452000   0.68706348    -2.949892    2588.4637  0.062487052  0.061770522            8 
 3453000   0.68807858   -2.9652422    2580.0538  0.062265997   0.06175849            6 
 3454000   0.70499032   -2.9627468    2583.8327  0.062339142  0.061746406            4 
 3455000   0.68559073   -2.9688433    2578.9522  0.062203381  0.061734392            2 
 3456000   0.68778154    -2.964687    2582.2255  0.062264311  0.061722222            7 
 3457000   0.68863628   -2.9788432    2581.0506  0.062217979  0.061710065            4 
 3458000   0.70665855   -2.9707528    2586.0043  0.062319364  0.061697798            6 
 3459000   0.69781187   -2.9939226    2573.2664   0.06199447  0.061685585            6 
 3460000   0.71904782   -2.9793926    2588.0016  0.062331445  0.061673516            5 
 3461000   0.69996108   -2.9684275    2576.9374  0.062047033  0.061661273            4 
 3462000   0.69212585   -2.9834402    2590.3967  0.062353089  0.061649069            6 
 3463000   0.69553913   -2.9651199    2573.6939  0.061933148   0.06163682            7 
 3464000   0.69098533   -2.9537455    2584.3636  0.062171949  0.061624704            3 
 3465000   0.69230817   -2.9592638     2586.723   0.06221075  0.061612528            7 
 3466000   0.70260819   -2.9682246    2581.7761  0.062073863  0.061600371            5 
 3467000   0.69976983   -2.9771646    2585.0475  0.062134591  0.061588249           11 
 3468000   0.68442383   -2.9863081    2583.3533  0.062075964  0.061576197            5 
 3469000   0.68791231   -2.9679082    2581.7496  0.062019545  0.061564097            3 
 3470000   0.69149047   -2.9627889    2593.7195  0.062289134  0.061551953            4 
 3471000   0.70117137    -2.973877    2584.6181  0.062052677  0.061539917            6 
 3472000   0.70329858    -2.967555    2579.3498  0.061908356  0.061527803            8 
 3473000   0.67812387   -2.9800751    2584.5759  0.062015929  0.061515557            6 
 3474000   0.69649754   -2.9763462    2582.9375  0.061958777  0.061503448            3 
 3475000   0.70563978   -2.9841679    2585.6218  0.062005318  0.061491424            3 
 3476000    0.6953992   -2.9623173    2591.2681  0.062122844  0.061479378            3 
 3477000   0.68540455   -2.9864736    2585.7338  0.061972338  0.061467335            3 
 3478000   0.68083949   -2.9763528    2582.4249  0.061875238  0.061455206            6 
 3479000   0.69112526    -2.973116     2590.863  0.062059572  0.061443085            5 
 3480000   0.70858203   -2.9978681    2588.6381   0.06198846  0.061431029           11 
 3481000   0.69959243   -3.0014202    2589.6834  0.061995677  0.061418906            5 
 3482000   0.70650201   -2.9842223    2594.4216  0.062091269  0.061406799            2 
 3483000    0.6880227   -2.9741929    2592.5431  0.062028498  0.061394782            8 
 3484000   0.68621686   -2.9849525    2593.3754  0.062030602  0.061382807            5 
 3485000   0.69310467   -2.9736394    2600.5751  0.062184961  0.061370869            6 
 3486000     0.701467   -2.9503426    2592.1703  0.061966205  0.061359037            5 
 3487000   0.68611551   -2.9799671    2604.0728  0.062232884  0.061347109            5 
 3488000   0.70939293   -2.9853764    2593.6138   0.06196516  0.061335108            4 
 3489000   0.69209518   -2.9854096    2589.1947  0.061841854  0.061323238            6 
 3490000   0.68491881   -2.9787692    2605.1157  0.062204292  0.061311265            7 
 3491000    0.6991416   -2.9685167     2596.211   0.06197391  0.061299416            5 
 3492000   0.69598843   -2.9851306    2594.4289  0.061913633  0.061287426            7 
 3493000   0.69293062   -2.9932769    2592.2253  0.061843338  0.061275446            3 
 3494000   0.71717358   -2.9812991    2591.9782  0.061819744  0.061263448            7 
 3495000   0.68780265   -2.9899724    2600.3453  0.062001557  0.061251449            2 
 3496000   0.69035797   -2.9944874      2594.24  0.061838292  0.061239516            5 
 3497000   0.70081903   -2.9856763    2590.2206  0.061724827   0.06122755            4 
 3498000   0.68425603     -2.97954    2597.2255  0.061874058  0.061215417            5 
 3499000   0.69587316   -2.9991679    2597.9903   0.06187459   0.06120334            4 
 3500000   0.68204053   -2.9977379    2596.8112  0.061828837  0.061191334            7 
 3501000    0.6895383   -2.9758392    2594.8771  0.061765142  0.061179307            6 
 3502000   0.69386553   -2.9839621    2593.7028  0.061719559  0.061167296            9 
 3503000   0.68629717   -2.9786014    2587.6424  0.061557769  0.061155206            5 
 3504000   0.71065731   -2.9972058    2593.7632  0.061685768  0.061143175            5 
 3505000   0.68025084    -2.987627    2595.4868  0.061709149  0.061131093            4 
 3506000   0.70094881   -2.9761415    2598.2767   0.06175786  0.061118983            5 
 3507000   0.68063256   -2.9821635    2599.8365  0.061777314  0.061106958           14 
 3508000    0.6972813   -2.9813775    2597.0914  0.061694493  0.061094927            6 
 3509000   0.68955028   -2.9850357    2608.9966  0.061959642  0.061082994            4 
 3510000   0.68558682   -2.9889846    2600.8597  0.061748805   0.06107105            5 
 3511000   0.69987318   -2.9971355    2602.7216   0.06177541  0.061059019            7 
 3512000   0.68276031    -2.987234     2595.052  0.061575836  0.061047054            3 
 3513000   0.69865688   -2.9637722    2599.1002  0.061654337  0.061035092            4 
 3514000   0.69295656   -2.9849249    2605.9813  0.061799975  0.061023116            3 
 3515000   0.69261809   -2.9717027    2605.8539  0.061779371  0.061011231            4 
 3516000   0.67415636   -2.9688978    2605.1793  0.061745811  0.060999311           15 
 3517000   0.68685659   -2.9964152    2598.4252  0.061568221  0.060987332            4 
 3518000   0.67450232   -3.0011407    2601.3622  0.061620291  0.060975341            7 
 3519000    0.6850024   -2.9758742    2602.0294  0.061618581  0.060963361            4 
 3520000   0.67601242   -2.9653553    2607.0652  0.061720294   0.06095139            9 
 3521000    0.6885747   -2.9958305    2602.0174  0.061583295  0.060939429            8 
 3522000   0.67928881   -2.9820505    2603.8742  0.061609743  0.060927525            8 
 3523000   0.68323287   -2.9924772    2603.1869  0.061575998  0.060915594            4 
 3524000   0.67703134    -2.981554    2611.3178  0.061750798  0.060903644            7 
 3525000   0.70253493   -2.9965044    2593.5827  0.061314013  0.060891729            6 
 3526000   0.68519357   -2.9959143    2599.6462  0.061439927  0.060879701            4 
 3527000   0.67417391   -2.9759617    2604.7053   0.06154204  0.060867699            5 
 3528000   0.68497006   -2.9931904    2605.4854  0.061543022  0.060855753            3 
 3529000   0.68435876   -2.9914474    2610.1214  0.061635058  0.060843864            2 
 3530000   0.67963662   -2.9918157    2612.3679  0.061670631  0.060831985           11 
 3531000    0.6921795   -3.0159826    2601.4555  0.061395627  0.060820079            6 
 3532000    0.6909798   -2.9874603    2606.9302  0.061507413  0.060808141            3 
 3533000   0.68739505   -2.9950944    2612.3964  0.061618935    0.0607962            3 
 3534000   0.68541245   -2.9932383    2610.8781  0.061565698   0.06078438           14 
 3535000   0.69201948   -2.9881582      2603.12  0.061365393  0.060772473            7 
 3536000   0.67259531   -2.9696313    2608.3074  0.061470292  0.060760593            4 
 3537000   0.68487055   -2.9726744    2600.2716  0.061263585  0.060748725            5 
 3538000   0.67274857   -2.9656398    2609.2912  0.061458714   0.06073689           10 
 3539000   0.67050003   -2.9851515    2607.7603    0.0614053  0.060724948            4 
 3540000   0.68279249   -2.9995799    2606.8164  0.061365735  0.060713085            5 
 3541000   0.70329691   -2.9997563    2614.2071  0.061522335  0.060701172            6 
 3542000   0.67720183   -2.9862556    2602.7853  0.061236245  0.060689138            6 
 3543000   0.67837462   -3.0005717    2607.3708  0.061326814  0.060677205            6 
 3544000   0.69603687   -3.0156949    2612.1593  0.061422106  0.060665322            5 
 3545000   0.68475907   -3.0181098    2600.9483   0.06114124  0.060653503            4 
 3546000   0.70058618    -2.984581    2617.0872  0.061503272  0.060641543            4 
 3547000   0.69507463   -2.9857312    2609.5352  0.061308505  0.060629677            6 
 3548000   0.69480679   -2.9883466    2606.2906  0.061215017  0.060617816            4 
 3549000   0.67808576   -2.9998946    2610.9471  0.061307108  0.060605822            3 
 3550000   0.67870981   -3.0278111    2611.9849  0.061314199   0.06059381            7 
 3551000   0.68440827   -2.9835826    2608.4358  0.061213644   0.06058178            6 
 3552000   0.67907368   -2.9823798    2612.3236  0.061287622   0.06056988            5 
 3553000   0.68641073   -2.9948214    2600.8842   0.06100207  0.060557895            4 
 3554000   0.68020978   -2.9911924    2606.7425  0.061122269  0.060545913            5 
 3555000   0.68162821   -3.0001763    2617.7162  0.061362312  0.060533905           18 
 3556000   0.67626776   -3.0052789    2610.0427   0.06116523  0.060521928            7 
 3557000   0.68170539   -2.9781521    2615.5072  0.061276057  0.060510095            7 
 3558000   0.66125306   -2.9885306    2612.8608  0.061196851  0.060498261            8 
 3559000    0.6843643    -3.005344    2609.3774  0.061098095  0.060486322            5 
 3560000   0.66877018   -2.9874978    2620.0584  0.061330955  0.060474372           10 
 3561000    0.6791628   -3.0049089    2610.5576  0.061091397  0.060462467            9 
 3562000   0.68827658   -3.0080018    2611.8902  0.061105423  0.060450397            6 
 3563000   0.67711906   -3.0026796    2611.8839  0.061088126  0.060438466            6 
 3564000    0.6832766   -2.9878202    2616.4775  0.061178392  0.060426608            7 
 3565000   0.67647722   -3.0123087    2611.6513  0.061048417  0.060414726            5 
 3566000   0.67458487   -2.9878423    2619.2284  0.061208366  0.060402891            4 
 3567000   0.67713629   -3.0086678    2612.5132  0.061034325  0.060391003            9 
 3568000   0.68240035   -2.9962827    2617.4743  0.061133088  0.060379034            5 
 3569000   0.68532858   -3.0108958    2617.1518  0.061108428  0.060366984            4 
 3570000   0.67867448   -3.0062057     2610.092  0.060926516  0.060354951            5 
 3571000   0.69369606   -2.9965708    2617.2636  0.061076814  0.060342984            7 
 3572000   0.69239314   -3.0057509    2610.9028  0.060911319  0.060331047            5 
 3573000   0.68387712   -2.9967625    2622.0644  0.061154595  0.060319277            5 
 3574000   0.69511747   -2.9963242    2619.1073  0.061068533  0.060307443            5 
 3575000    0.6739885   -2.9862116    2612.8783  0.060906253  0.060295583            3 
 3576000   0.67213356    -3.025104    2608.5212  0.060787685  0.060283605           13 
 3577000   0.68898682   -3.0132052    2609.1071  0.060784342  0.060271525            5 
 3578000   0.67610551   -3.0152785     2617.243  0.060956842  0.060259545            5 
 3579000   0.67980493   -2.9993363    2615.4019  0.060896943  0.060247602            3 
 3580000   0.67873152   -2.9772296    2611.0695  0.060779086  0.060235759            7 
 3581000   0.66639178    -2.980264     2616.752   0.06089435  0.060223854            4 
 3582000   0.67789448    -3.003141     2623.736   0.06103983  0.060211995           15 
 3583000   0.68143626   -3.0103404    2615.5238  0.060831793  0.060199998            5 
 3584000   0.67921419   -2.9914646    2615.8638  0.060822726   0.06018805            4 
 3585000   0.67219807   -3.0225907    2613.7057  0.060755595  0.060176076            5 
 3586000   0.68835479   -3.0151587    2613.1468  0.060725664  0.060164099            4 
 3587000   0.68495246   -3.0038719    2620.9113   0.06088912  0.060152209            6 
 3588000   0.67001641   -3.0033844    2622.8424  0.060917001  0.060140268            9 
 3589000   0.66915199   -3.0146147    2615.5716  0.060731206  0.060128278            7 
 3590000   0.67587921   -3.0119445    2623.6415  0.060901614  0.060116356            3 
 3591000     0.682577   -3.0206464    2615.5307  0.060696434  0.060104448            5 
 3592000   0.68434026   -3.0126575    2613.7615   0.06063849  0.060092555            6 
 3593000   0.66982049   -3.0036785    2622.3313  0.060820376  0.060080524            5 
 3594000   0.68778562   -3.0081015    2622.2416  0.060801373  0.060068517            5 
 3595000   0.66731754   -3.0008877    2609.9727  0.060500062  0.060056649            8 
 3596000   0.67029308   -3.0091153    2630.3861  0.060956296  0.060044742           10 
 3597000   0.66937174   -3.0110074    2616.2487  0.060611821   0.06003271            8 
 3598000    0.6490135   -3.0084861    2624.9413  0.060796307  0.060020646            4 
 3599000    0.6751225   -3.0030744    2619.1823  0.060646065  0.060008745            8 
 3600000   0.68361842   -2.9895861    2623.7288  0.060734463  0.059996808            8 
 3601000   0.67583219    -3.016122    2622.9089  0.060698624  0.059984935            5 
 3602000   0.67623628   -2.9845561    2628.4405  0.060809746  0.059973013            5 
 3603000   0.68940782    -3.014573    2617.4845   0.06053947   0.05996102            3 
 3604000   0.66840938   -3.0132143    2619.2683  0.060563918  0.059949041            4 
 3605000   0.68123745   -2.9889395    2626.5247  0.060714857  0.059937122            6 
 3606000    0.6893739   -3.0243818    2626.4245  0.060695704  0.059925205            3 
 3607000   0.67778536   -3.0418837    2613.4807  0.060379832  0.059913298            4 
 3608000   0.67418667   -2.9814278     2620.288  0.060520325   0.05990136            4 
 3609000   0.68005517   -3.0232737    2613.2703  0.060341515  0.059889378            7 
 3610000   0.68008177   -2.9996077    2619.7879  0.060475251  0.059877521            7 
 3611000   0.66809916   -3.0045941    2626.3859  0.060610769  0.059865649            5 
 3612000   0.68076608   -3.0051674     2623.151  0.060519357  0.059853773            4 
 3613000   0.67663987   -2.9966255    2630.8745  0.060680748  0.059841914            4 
 3614000   0.66592863   -3.0194893     2632.471   0.06070077  0.059830094            5 
 3615000   0.66811786   -3.0091553    2627.3869  0.060566779  0.059818264            5 
 3616000   0.67741289    -3.015082    2627.8288  0.060560213  0.059806389           12 
 3617000   0.68109132   -2.9943742    2638.1406  0.060781049   0.05979469            4 
 3618000   0.65524492   -3.0179513    2627.6873  0.060523478  0.059782869            6 
 3619000   0.68008372   -2.9885878    2629.8514  0.060556586  0.059771118            4 
 3620000   0.66995141   -3.0051164    2631.8988  0.060586989  0.059759416            5 
 3621000   0.67748144   -2.9972462    2632.2834  0.060579107  0.059747639            7 
 3622000   0.68163637   -3.0162073    2630.2299  0.060515137  0.059735813            7 
 3623000   0.67778361   -2.9863068    2634.5159  0.060597017  0.059724163            3 
 3624000    0.6901527   -3.0071852    2637.9139  0.060658432  0.059712425            3 
 3625000   0.68961007   -3.0226093    2627.4628  0.060401444  0.059700687            3 
 3626000   0.67314326   -3.0242593    2625.7944  0.060346443  0.059688897            4 
 3627000    0.6737929   -3.0087913    2636.1185  0.060567008  0.059677102            5 
 3628000   0.64786001   -2.9982997    2628.4666  0.060374554  0.059665269            4 
 3629000   0.66872519   -3.0171688    2627.0606  0.060325631  0.059653483            6 
 3630000    0.6690945   -2.9883903    2636.6407  0.060528941  0.059641627            5 
 3631000    0.6646829   -3.0220145    2636.6081  0.060511524  0.059629737            7 
 3632000   0.67283713   -2.9905266    2634.6417  0.060449746  0.059618009            4 
 3633000   0.66913163   -3.0084828     2626.328  0.060242407  0.059606193            5 
 3634000   0.66745722   -3.0084678    2637.4784  0.060481527  0.059594355            4 
 3635000   0.66877644   -3.0229634    2622.8401    0.0601293  0.059582588            4 
 3636000   0.65894359   -3.0077677    2637.2462  0.060442937   0.05957084           15 
 3637000   0.66128709   -3.0103818    2639.6133  0.060480554  0.059559013            4 
 3638000   0.66512991   -3.0251058    2626.1155  0.060154744  0.059547226            4 
 3639000   0.68849253   -3.0108868      2633.31  0.060302967  0.059535348            8 
 3640000   0.66627538   -3.0245516    2632.9664  0.060278535   0.05952353            9 
 3641000   0.67561735   -3.0167976    2632.0541    0.0602411  0.059511736            9 
 3642000   0.67265647   -3.0162271    2638.0827  0.060362501  0.059499908            6 
 3643000   0.66971717   -3.0388178    2628.6262  0.060129614  0.059488043           20 
 3644000   0.67846517   -3.0278844    2625.8981  0.060050724  0.059476244            4 
 3645000   0.67346632   -3.0296887    2634.1452  0.060222797  0.059464401            3 
 3646000     0.658625   -3.0221976    2629.0373  0.060089535  0.059452466            4 
 3647000   0.67407074   -3.0224772    2633.9936  0.060186309  0.059440649           11 
 3648000   0.66770168   -3.0089577    2636.6226  0.060229866  0.059428757            7 
 3649000   0.67300912   -3.0012631    2641.3951  0.060322352   0.05941693            5 
 3650000   0.68068908   -3.0280627    2634.2403  0.060142473  0.059405155            9 
 3651000   0.65559371   -3.0278659    2636.3094  0.060173226  0.059393439            8 
 3652000   0.66833569   -3.0012935    2633.9899  0.060103823  0.059381683           11 
 3653000   0.66584021   -3.0163225    2643.8834  0.060313063  0.059369942            6 
 3654000   0.65659658   -3.0072014    2634.5298  0.060083239  0.059358239            5 
 3655000   0.66032753   -3.0355213      2638.45  0.060156179  0.059346554            7 
 3656000   0.67325986   -3.0344794    2641.3783   0.06020647  0.059334727            4 
 3657000   0.68377768   -3.0321802    2641.3786  0.060190014  0.059323051            5 
 3658000   0.66558118   -2.9939957    2638.6555  0.060111525  0.059311448            3 
 3659000   0.66122437   -3.0049246    2640.2042  0.060130369  0.059299843            9 
 3660000   0.66754537   -3.0310682    2637.6256  0.060055227  0.059288206            9 
 3661000   0.65338134   -3.0175592    2643.9692  0.060183221  0.059276569            6 
 3662000   0.66225368   -3.0017207    2638.5093  0.060042538  0.059264938            6 
 3663000   0.67818853   -3.0123292     2639.044  0.060038312  0.059253236            3 
 3664000   0.68049809   -3.0221384    2648.1413  0.060228833  0.059241507            7 
 3665000   0.65898458   -3.0208919    2634.8639  0.059910502  0.059229787            7 
 3666000   0.66399238   -3.0229835    2645.4826  0.060135538  0.059218016            3 
 3667000   0.65530381   -3.0213347    2635.0034  0.059880998  0.059206317            8 
 3668000   0.66489758   -3.0126264    2645.0889  0.060093804  0.059194608            7 
 3669000   0.66732763   -3.0249116    2638.8162  0.059934956   0.05918285            7 
 3670000   0.64977599   -3.0367762    2637.2047  0.059882032  0.059171071            5 
 3671000   0.66584566   -3.0113013    2643.0781   0.05999905  0.059159236            9 
 3672000   0.68057614   -3.0257357    2642.4823  0.059969189  0.059147569            2 
 3673000   0.66613059   -3.0188427    2640.4304  0.059906307  0.059135822            3 
 3674000   0.65126124   -3.0327064    2643.5399  0.059960531  0.059124126            5 
 3675000   0.65517411   -3.0204284     2643.091  0.059934037   0.05911233            6 
 3676000   0.66249001   -3.0278263    2651.0979  0.060099245  0.059100608            7 
 3677000   0.66392047   -3.0204922     2649.169  0.060039186  0.059088965            4 
 3678000   0.65850048   -3.0307313    2641.0021  0.059837821  0.059077354            4 
 3679000   0.65923528   -3.0590742    2633.9648  0.059662155  0.059065701            5 
 3680000   0.67150804   -3.0248233    2639.4725  0.059770664  0.059053959            4 
 3681000   0.66446202   -3.0135255    2640.2983   0.05977312  0.059042361            4 
 3682000   0.65711839   -3.0362696    2639.6009  0.059741103  0.059030662            4 
 3683000   0.65813554   -3.0111766    2640.1561  0.059737444  0.059018973            8 
 3684000   0.66690219   -3.0314546    2644.7246  0.059824571  0.059007305            6 
 3685000   0.66882642   -3.0207404    2647.1251  0.059862622   0.05899564            6 
 3686000    0.6675294   -3.0361544    2642.4305  0.059740246  0.058983985            9 
 3687000   0.64987531   -3.0408896    2636.8432  0.059597759  0.058972288            7 
 3688000   0.66739049   -3.0380515    2640.8746  0.059672691  0.058960583            6 
 3689000   0.65894636    -3.033948    2640.3592  0.059644872  0.058948943            4 
 3690000   0.66160492   -3.0227643    2649.9084  0.059844363  0.058937299            4 
 3691000    0.6588053   -3.0418084    2647.2511  0.059768153  0.058925682            6 
 3692000   0.68244823   -3.0324861    2645.9388  0.059722345  0.058913958            4 
 3693000   0.65041901   -3.0329885    2644.5521  0.059674882  0.058902274            6 
 3694000   0.65150821   -3.0532121    2655.0403  0.059895334  0.058890576            3 
 3695000   0.66548446   -3.0293386    2651.1475  0.059791327  0.058878942            8 
 3696000   0.66042346   -3.0464635    2651.7492  0.059788718  0.058867262            4 
 3697000   0.65228545   -3.0427743    2643.8878  0.059595342  0.058855576            4 
 3698000    0.6605756    -3.038019    2645.2071  0.059608957  0.058843906           11 
 3699000   0.66803633   -3.0306466    2658.2262  0.059886146  0.058832303            7 
 3700000   0.66752995   -3.0239772    2650.8207  0.059703168  0.058820727            5 
 3701000   0.65743095   -3.0179947    2652.3736  0.059722004  0.058809187            8 
 3702000   0.67701299   -3.0282032    2647.2603  0.059590769  0.058797626            5 
 3703000   0.66425742   -3.0195903    2650.6023  0.059649884  0.058786014            4 
 3704000   0.64766898   -3.0337403     2655.507  0.059744129  0.058774439            5 
 3705000   0.65101618   -3.0308335     2654.417  0.059703486  0.058762966           10 
 3706000   0.66094786   -3.0413999    2655.5151  0.059712067  0.058751385           10 
 3707000   0.66238896   -3.0228847    2654.3013  0.059668675   0.05873989            8 
 3708000   0.67576083   -3.0194257    2653.5914  0.059636628  0.058728416            8 
 3709000   0.65178934   -3.0334358    2645.9047  0.059447846  0.058716826            5 
 3710000   0.65422749   -3.0383981    2653.4447  0.059601184  0.058705234            4 
 3711000   0.66199751    -3.027387    2658.8385  0.059706244  0.058693608            8 
 3712000   0.66233202   -3.0311307    2655.7924  0.059621776  0.058682046            3 
 3713000   0.65843879   -3.0405638    2647.2102  0.059413102  0.058670433            8 
 3714000   0.66201336   -3.0249298    2655.4006  0.059580878  0.058658914            4 
 3715000   0.66163133   -3.0231019    2652.2214  0.059493526   0.05864721            5 
 3716000   0.64792656   -3.0315123    2652.8245  0.059491042  0.058635562            4 
 3717000   0.65034261   -3.0279227    2650.1557  0.059415202  0.058623858            6 
 3718000   0.66879842   -3.0258326    2655.8163  0.059526096  0.058612238            7 
 3719000   0.65348114   -3.0399338    2640.1589  0.059159247  0.058600685            7 
 3720000   0.65533695   -3.0414554    2659.3963  0.059574291  0.058589172            8 
 3721000   0.66239542   -3.0377503    2654.8352  0.059456131  0.058577595            7 
 3722000   0.65069969   -3.0416181    2652.3325  0.059384124  0.058566049            2 
 3723000   0.65296885   -3.0441997    2653.6013  0.059396573  0.058554549           13 
 3724000   0.64185347   -3.0181386    2658.0239  0.059479589  0.058543073            6 
 3725000   0.64768203   -3.0416727    2654.3987  0.059382522  0.058531508            3 
 3726000   0.65242115   -3.0168648    2655.4647  0.059390425  0.058519919            7 
 3727000   0.66021755   -3.0287923    2653.2724  0.059325472  0.058508349            4 
 3728000   0.64325704   -3.0176358    2655.6758  0.059363283  0.058496781            4 
 3729000    0.6614225    -3.038613    2652.5268  0.059276991   0.05848509            9 
 3730000   0.67111056   -3.0320972    2661.9279  0.059471133  0.058473449            9 
 3731000   0.65545037   -3.0326159    2651.4198   0.05922049  0.058461855            4 
 3732000   0.64819785   -3.0491797    2654.9972  0.059284503  0.058450167            6 
 3733000   0.65494044   -3.0042072     2654.013  0.059246651  0.058438566            8 
 3734000   0.65200744   -3.0129098     2652.637  0.059200076  0.058427031            7 
 3735000   0.64826528   -3.0388017    2654.5401  0.059226688  0.058415375            5 
 3736000   0.65349328   -3.0357161    2658.5195  0.059299597  0.058403621            2 
 3737000   0.64720195   -3.0254518    2655.4621   0.05921555  0.058391953            4 
 3738000   0.65529171   -3.0430803    2655.3213  0.059196569  0.058380424            3 
 3739000   0.65394496   -3.0616305    2662.4287  0.059339143  0.058368701            6 
 3740000    0.6606075    -3.060349    2651.9557  0.059089921  0.058357072            5 
 3741000   0.66585433    -3.049434    2648.9315   0.05900676  0.058345442           12 
 3742000   0.64752699   -3.0323217    2656.8428  0.059167174  0.058333821            4 
 3743000   0.64541318   -3.0461237    2652.3154   0.05905057  0.058322201            6 
 3744000   0.63925408   -3.0507241    2659.6816  0.059198754  0.058310546            6 
 3745000   0.64536654   -3.0268539    2669.0884  0.059392266  0.058298938            5 
 3746000   0.65819801   -3.0580661    2657.8157  0.059125638  0.058287318            9 
 3747000   0.63723518   -3.0585931    2645.0013  0.058824866  0.058275551            5 
 3748000   0.64478456   -3.0631515    2663.9952  0.059231483  0.058263919            4 
 3749000   0.67387085   -3.0452979    2663.0004  0.059193573  0.058252286            4 
 3750000   0.65022762   -3.0578668    2660.1126  0.059113613  0.058240563            3 
 3751000   0.64105975   -3.0392479    2654.6404  0.058976283   0.05822889            6 
 3752000   0.65045241   -3.0355216    2658.5098  0.059046504  0.058217299            4 
 3753000   0.66504896     -3.04162    2660.1902  0.059068082   0.05820575            6 
 3754000   0.64324392   -3.0386321    2665.4982  0.059170178  0.058194178            3 
 3755000   0.65785406   -3.0509691    2656.1033  0.058945923   0.05818249            5 
 3756000   0.67165228   -3.0437902    2654.2008   0.05888802  0.058170836            5 
 3757000   0.64235586   -3.0360872    2659.2101  0.058983455  0.058159159            4 
 3758000   0.65498238   -3.0488934    2653.5748  0.058842798  0.058147589            6 
 3759000   0.65990934   -3.0837674    2657.9061  0.058923165  0.058135887            3 
 3760000   0.65931828   -3.0370357    2659.5344  0.058943582  0.058124255            2 
 3761000   0.63191793   -3.0543576    2659.9389  0.058936871  0.058112662            4 
 3762000   0.65235303    -3.045955     2665.657  0.059047868    0.0581011           10 
 3763000   0.65214544   -3.0284605    2661.4907  0.058939912  0.058089622            5 
 3764000   0.64391592   -3.0424494    2660.6003   0.05890454  0.058078087            4 
 3765000   0.63682637   -3.0532965     2664.112  0.058966623  0.058066531            6 
 3766000   0.65209711   -3.0317775    2659.8125  0.058855826  0.058054946            3 
 3767000   0.64900203   -3.0212105    2667.9866  0.059021028  0.058043507            7 
 3768000   0.65872395    -3.048105    2664.0313  0.058917889  0.058031995            4 
 3769000   0.64282824   -3.0419706    2661.6666  0.058849973  0.058020392           15 
 3770000   0.65558543   -3.0187445    2661.7587    0.0588364  0.058008875            5 
 3771000   0.63643032    -3.033332    2665.3029  0.058899118  0.057997309            5 
 3772000   0.64816371   -3.0448782    2663.2278  0.058837659  0.057985744            5 
 3773000   0.64033223   -3.0396782    2662.9282  0.058815447  0.057974215            7 
 3774000   0.64595717   -3.0537304    2670.6072  0.058969423  0.057962763            6 
 3775000   0.65087498   -3.0707576    2665.8373  0.058848506  0.057951348            6 
 3776000   0.64739897    -3.022105    2665.5194  0.058825905  0.057939846            4 
 3777000   0.64761745   -3.0625773    2665.3843  0.058807348   0.05792836            7 
 3778000   0.65479607    -3.051324    2661.6805  0.058710087  0.057916824           10 
 3779000   0.65330547   -3.0707462    2669.7249  0.058871943  0.057905221            4 
 3780000   0.66595699   -3.0525897    2661.5228  0.058675547  0.057893727           14 
 3781000    0.6487271   -3.0484694    2663.2574   0.05869826  0.057882168            9 
 3782000   0.64161764   -3.0447604     2660.298   0.05861753  0.057870608            5 
 3783000   0.64714877   -3.0330747    2661.4419  0.058627234  0.057859005            5 
 3784000   0.65343319   -3.0527298    2666.7244  0.058728074  0.057847383            6 
 3785000    0.6586831   -3.0367719    2668.4266  0.058750035  0.057835673           11 
 3786000    0.6427128   -3.0556319    2668.5788  0.058737867  0.057824072            8 
 3787000   0.64521965   -3.0481428    2663.2041  0.058604085  0.057812418            6 
 3788000    0.6628895   -3.0550063    2657.2036  0.058456609  0.057800787            7 
 3789000   0.64724002   -3.0581754    2665.2854  0.058618928  0.057789096            4 
 3790000   0.63403494   -3.0520847    2667.9785  0.058662676  0.057777533            9 
 3791000    0.6390183    -3.052895    2654.3347  0.058347285  0.057765979            6 
 3792000   0.64269149   -3.0336022    2666.9182  0.058608435  0.057754348            4 
 3793000   0.65495003   -3.0532055    2664.9728  0.058550241  0.057742762            8 
 3794000   0.63528948   -3.0677001    2664.2262  0.058518411  0.057731118            7 
 3795000    0.6387637   -3.0667995    2661.4729  0.058442532  0.057719551            5 
 3796000   0.64728369   -3.0591909    2669.4619  0.058602518  0.057707963            5 
 3797000   0.66418741   -3.0555989    2669.2532  0.058582504  0.057696319            4 
 3798000   0.63277547   -3.0379687    2670.1347  0.058586419  0.057684673            4 
 3799000    0.6396066   -3.0555426    2661.9768   0.05839205  0.057673129            6 
 3800000    0.6545555   -3.0294035    2667.9993  0.058508757  0.057661697            5 
 3801000   0.62964538   -3.0372165    2678.6921  0.058727794   0.05765019            4 
 3802000   0.65304591   -3.0564469    2669.1461  0.058503114  0.057638689            9 
 3803000   0.64330326   -3.0681541    2665.5891  0.058409787  0.057627098            6 
 3804000   0.64664289   -3.0586069    2669.1568   0.05847259  0.057615491            7 
 3805000   0.62808096   -3.0573219    2672.1554  0.058522896   0.05760384            8 
 3806000   0.63294747   -3.0442857    2668.2668  0.058422377  0.057592235            5 
 3807000   0.63495973   -3.0406326    2672.3416  0.058496226  0.057580614            6 
 3808000   0.65294156   -3.0622396    2663.8578  0.058295208  0.057568994            6 
 3809000    0.6473423   -3.0540072    2666.7439  0.058343046  0.057557284            7 
 3810000   0.64581909   -3.0511468    2665.8319  0.058307785  0.057545752            9 
 3811000   0.65187799   -3.0492471    2669.9946  0.058383509  0.057534082            6 
 3812000   0.64839402   -3.0641605    2664.1148  0.058239655  0.057522408           10 
 3813000   0.63489327   -3.0773534    2662.9946  0.058199899   0.05751064            6 
 3814000   0.64056165   -3.0593474    2669.6833  0.058330783  0.057498919            9 
 3815000   0.65092404   -3.0495061    2669.9343  0.058320975  0.057487314            4 
 3816000   0.64039943   -3.0512038    2676.1538  0.058441514  0.057475695            6 
 3817000   0.62952382   -3.0388504    2665.9817  0.058204123  0.057464054            5 
 3818000   0.65059086   -3.0705834    2658.8762  0.058033791  0.057452352           11 
 3819000   0.62559235    -3.041877    2675.0932  0.058372461   0.05744058            6 
 3820000   0.63730039   -3.0598381    2661.7458  0.058066008  0.057428919            8 
 3821000   0.62911799   -3.0508834    2667.7619  0.058182019  0.057417211            7 
 3822000   0.63946944   -3.0444058    2664.8551  0.058103416  0.057405501           12 
 3823000   0.64496764   -3.0696082    2672.2924  0.058250336  0.057393727            4 
 3824000   0.62665819   -3.0575955    2664.6946   0.05806953  0.057382085           12 
 3825000   0.63464999    -3.060232    2670.3061  0.058176604   0.05737038            6 
 3826000   0.63196516     -3.09083    2658.4264  0.057902649  0.057358573            9 
 3827000   0.63151439   -3.0503542    2660.0258  0.057922346  0.057346754           14 
 3828000   0.64852731   -3.0443891    2672.1121  0.058170325  0.057335066            4 
 3829000   0.63914053    -3.075574    2663.4844  0.057967364  0.057323336            5 
 3830000   0.64395059   -3.0355006    2674.8141  0.058198739  0.057311678            9 
 3831000   0.63463152   -3.0714503    2664.3737  0.057956445  0.057300012           11 
 3832000   0.65092004   -3.0572378    2672.1849  0.058111188  0.057288384            8 
 3833000   0.64144696   -3.0496593    2668.5626  0.058017275  0.057276664            4 
 3834000   0.63620293   -3.0685197    2667.6833  0.057983031  0.057265055            5 
 3835000   0.62962905   -3.0583378     2675.298  0.058133377  0.057253415            7 
 3836000   0.63842242   -3.0681787    2670.3633   0.05801102  0.057241737            5 
 3837000   0.63420096    -3.067276    2666.9952  0.057922753  0.057230092            4 
 3838000   0.62078803   -3.0474223    2667.3443  0.057915241  0.057218305            6 
 3839000   0.64121771   -3.0673947    2672.5181  0.058012462  0.057206589            7 
 3840000    0.6233494   -3.0758776     2672.266  0.057991883  0.057194893            6 
 3841000   0.62425389   -3.0757209    2684.5264  0.058242784  0.057183209           11 
 3842000   0.64597087   -3.0676858    2668.7064  0.057884488   0.05717147            4 
 3843000   0.62756209   -3.0726406    2673.3103  0.057969257  0.057159647           18 
 3844000   0.65192639    -3.076904    2674.1938  0.057973331  0.057147944            9 
 3845000    0.6449232   -3.0632794    2668.4107  0.057832914  0.057136245            7 
 3846000   0.64134582   -3.0678819    2679.1649  0.058050895  0.057124527            8 
 3847000   0.65308277    -3.043833     2677.009  0.057989103  0.057112957            5 
 3848000   0.62761135   -3.0567391    2675.3149  0.057937346  0.057101227            8 
 3849000   0.64580819   -3.0837802    2668.2799  0.057769982  0.057089542            9 
 3850000   0.62619869   -3.0707098     2679.375   0.05799513    0.0570779            4 
 3851000   0.62974303   -3.0652121    2673.1236  0.057844793  0.057066184            5 
 3852000   0.65120194   -3.0966522    2676.9866  0.057913347  0.057054383           10 
 3853000   0.61728232   -3.0657616    2671.9263  0.057788873  0.057042688            5 
 3854000   0.63745795   -3.0652483    2676.1609  0.057865442  0.057031092            4 
 3855000   0.64292452   -3.0777394    2677.5766  0.057881033  0.057019436            6 
 3856000   0.63685401   -3.0690591    2676.1692  0.057835607  0.057007791            6 
 3857000   0.64601747   -3.0838067    2662.7335  0.057530324   0.05699609            3 
 3858000   0.65154775    -3.086917    2674.7127  0.057774165    0.0569844            5 
 3859000   0.62880184    -3.083469    2677.7807  0.057825445  0.056972732            6 
 3860000   0.65306533   -3.0519077    2673.8729  0.057726099  0.056961067            5 
 3861000   0.63442799   -3.0776826     2677.276  0.057784599  0.056949431            8 
 3862000   0.63575845   -3.0651582     2673.964   0.05769817  0.056937747            6 
 3863000   0.62669492   -3.0592969    2680.1139  0.057815901  0.056926205            4 
 3864000   0.61595061   -3.0741618    2684.5682  0.057897002  0.056914567            4 
 3865000   0.64284155   -3.0842182    2674.7942  0.057671284   0.05690299            8 
 3866000   0.62804332   -3.0808241    2677.9908  0.057725271  0.056891365            4 
 3867000   0.63138261   -3.0794636     2674.464  0.057634341  0.056879759            5 
 3868000   0.65108767   -3.0701219      2682.87  0.057800544  0.056868186           10 
 3869000   0.62957528    -3.066941     2677.349  0.057666689   0.05685657           10 
 3870000   0.63672225   -3.0816376    2682.9804   0.05777305  0.056844974           10 
 3871000   0.62858192   -3.0643497    2685.7825  0.057818447    0.0568334            6 
 3872000    0.6265007   -3.0712214    2672.7081  0.057522127  0.056821842            6 
 3873000    0.6166345   -3.0721431    2676.6287  0.057591632  0.056810213            7 
 3874000   0.63433651   -3.0718738    2684.7063  0.057750523  0.056798574           11 
 3875000   0.63224222   -3.0768176     2676.742  0.057564343  0.056786927            8 
 3876000    0.6392017   -3.0490769    2681.2682  0.057646805  0.056775411            6 
 3877000   0.60923116   -3.0733097    2676.7414  0.057534637  0.056763812           10 
 3878000   0.62916572   -3.0652301    2679.6057  0.057581349  0.056752205            5 
 3879000   0.63191746   -3.0730076    2676.8373  0.057507031  0.056740577            8 
 3880000   0.61059682   -3.1023905    2683.6312  0.057638127  0.056728896            3 
 3881000   0.63595859   -3.0973577    2679.9265  0.057543728  0.056717243           12 
 3882000    0.6335102   -3.0840627    2690.0058  0.057745273  0.056705628            3 
 3883000   0.63579833   -3.0758251    2681.7886  0.057554051  0.056693954           14 
 3884000   0.63498083   -3.0777129    2677.2134  0.057441071  0.056682246            9 
 3885000   0.63341803   -3.0864925     2683.817  0.057567932  0.056670561            3 
 3886000   0.64565365   -3.0620035    2685.1085  0.057580814  0.056658903            5 
 3887000    0.6370548   -3.0764353     2682.958  0.057519896  0.056647259            4 
 3888000   0.62931525   -3.0855959     2670.569  0.057239562  0.056635629           21 
 3889000   0.63220287   -3.0846272    2680.7808  0.057443661  0.056624042            5 
 3890000   0.65464237   -3.0782576    2674.0036  0.057283711  0.056612395            8 
 3891000   0.62488733   -3.0615874    2681.7314  0.057434494  0.056600815            9 
 3892000   0.63641885   -3.0764352    2682.4138  0.057434349  0.056589164            6 
 3893000   0.62082651   -3.0809631    2685.5315  0.057486332  0.056577504            9 
 3894000   0.64289172   -3.0983209    2681.4861  0.057384996  0.056565896            8 
 3895000   0.63481671   -3.0717004      2679.87  0.057335687  0.056554283            8 
 3896000   0.64027355   -3.0871898    2684.2334    0.0574143  0.056542683            7 
 3897000   0.62792138   -3.0723439    2688.4407  0.057489536  0.056531206            5 
 3898000   0.61494894   -3.0820803    2680.9405  0.057314445  0.056519643           21 
 3899000   0.63038295    -3.060153    2679.0513  0.057259367  0.056508101            5 
 3900000   0.62331286   -3.0791651    2680.9508  0.057285273  0.056496546            5 
 3901000   0.61593009   -3.0789359     2686.693  0.057393253  0.056484974            8 
 3902000   0.62801991   -3.0853003    2687.8409   0.05740306  0.056473376            7 
 3903000   0.63905307   -3.0637345    2684.2068  0.057310761  0.056461769            9 
 3904000   0.63416878   -3.0623495     2686.165   0.05733788  0.056450276            4 
 3905000   0.62202586   -3.0840454    2683.6294  0.057269086  0.056438736            7 
 3906000   0.61917579   -3.0704979    2678.3064   0.05714086  0.056427181            3 
 3907000   0.61493481   -3.0993852    2686.5297  0.057301632  0.056415633            7 
 3908000   0.64248896    -3.060643    2684.0076  0.057233189  0.056404093            6 
 3909000   0.63280085   -3.0810934    2687.5516    0.0572941  0.056392577            6 
 3910000   0.61048553   -3.1009915    2687.4862  0.057278053  0.056381035            5 
 3911000   0.63167925   -3.0869581    2685.6691  0.057224689  0.056369484            8 
 3912000   0.62472889   -3.0801518    2685.5487  0.057207496  0.056357916            5 
 3913000    0.6251275   -3.0751289    2685.8309  0.057198886  0.056346434            5 
 3914000   0.62275498   -3.0900595    2683.8895  0.057142937  0.056334918           10 
 3915000    0.6250091   -3.0587149    2682.0528  0.057089246  0.056323439            8 
 3916000   0.62289018   -3.0919019    2685.3466   0.05714476  0.056311957            6 
 3917000   0.61591091   -3.0747225    2687.7061   0.05718037  0.056300526            7 
 3918000   0.62329207   -3.0695982    2678.3653  0.056967102  0.056289016            6 
 3919000   0.61404899   -3.0692747     2691.574  0.057233436  0.056277455           13 
 3920000   0.61644365   -3.0724233    2694.8338  0.057288134  0.056265936            5 
 3921000   0.62708793     -3.08564    2678.7746  0.056932215  0.056254361            9 
 3922000   0.61051129   -3.1063276    2682.1587  0.056989603  0.056242822            8 
 3923000   0.60331323   -3.0707008    2677.3395  0.056872706  0.056231282            5 
 3924000   0.62612379    -3.096191    2688.0841  0.057086394  0.056219743            6 
 3925000   0.62500429   -3.0752123    2685.1977  0.057010567  0.056208277            9 
 3926000   0.63087613   -3.0608947    2691.6102  0.057132157   0.05619684            8 
 3927000   0.62428806   -3.0851138    2684.4176  0.056964977  0.056185363            5 
 3928000   0.62364719    -3.062759    2683.4477  0.056929898  0.056173899           11 
 3929000    0.6067809   -3.1037451    2682.0285  0.056885308  0.056162378           15 
 3930000    0.6244355   -3.0817395    2692.1996  0.057086505   0.05615081            8 
 3931000    0.6355896    -3.090453    2691.1545  0.057049829  0.056139277            6 
 3932000   0.61329617   -3.0824251    2692.3376  0.057060392  0.056127792            5 
 3933000   0.62136569   -3.0891073    2690.4222  0.057005302  0.056116263            7 
 3934000   0.62951197   -3.0964043    2690.2186  0.056986498  0.056104683            5 
 3935000   0.62518065   -3.0993404    2685.3084   0.05686803   0.05609318            8 
 3936000   0.61216823   -3.0912661    2686.9554  0.056888453  0.056081653            5 
 3937000   0.62450175    -3.090497    2689.4137  0.056926037  0.056070117            3 
 3938000   0.61173397    -3.083235    2690.5551  0.056935736   0.05605857            9 
 3939000    0.6133054   -3.0632753    2695.2228  0.057020031  0.056047138           18 
 3940000   0.62288547   -3.1133142    2688.5316  0.056864036  0.056035741            8 
 3941000   0.62120177   -3.0836469    2686.4089  0.056804722   0.05602424            8 
 3942000   0.62946503   -3.1108638    2688.8602  0.056842131  0.056012712            6 
 3943000   0.62013624   -3.1122016     2699.918  0.057061416  0.056001162            8 
 3944000   0.60694305   -3.0978634    2693.2035  0.056905077  0.055989693            2 
 3945000   0.61662993   -3.0900751     2688.185  0.056784642  0.055978219            5 
 3946000   0.61703574   -3.0904466    2691.9334  0.056849413  0.055966724           15 
 3947000   0.62673985   -3.0852146    2699.8555  0.057002269  0.055955306            6 
 3948000   0.62405872   -3.0771279    2693.7801  0.056859594  0.055943858            3 
 3949000   0.61350455   -3.0833624    2695.8698  0.056889292  0.055932434           15 
 3950000   0.63692591   -3.1030001    2695.3947  0.056864868   0.05592103           13 
 3951000   0.61068444   -3.0919097    2693.0338  0.056800679  0.055909548            5 
 3952000   0.62331365   -3.0623373    2694.3389  0.056813827   0.05589811           13 
 3953000   0.62626363   -3.0946483    2699.5129  0.056908528  0.055886725            6 
 3954000   0.60475135   -3.0912752    2683.8456  0.056563936  0.055875188            7 
 3955000     0.614448   -3.0956678    2686.3904  0.056603254  0.055863671            5 
 3956000   0.61555553   -3.0977549    2690.3276  0.056671881  0.055852201           12 
 3957000   0.61352863   -3.1110067    2697.4404  0.056807354  0.055840744            5 
 3958000   0.63063177   -3.0911771    2689.9798  0.056635924  0.055829219            7 
 3959000   0.61726508   -3.0874764    2693.6743  0.056699384  0.055817727           26 
 3960000   0.62887571   -3.0922482    2697.6961  0.056769699   0.05580628            6 
 3961000   0.61532268   -3.1104397    2703.6388  0.056880392  0.055794849           12 
 3962000   0.62659378   -3.1184566    2691.7086  0.056615106  0.055783364            5 
 3963000   0.61601958   -3.0793921    2701.3221  0.056802971  0.055771931           15 
 3964000   0.60638726   -3.0836851    2695.4717  0.056665652  0.055760495           12 
 3965000   0.62492102   -3.1059313    2696.8574  0.056680483    0.0557491            7 
 3966000   0.61315698   -3.0931124    2694.2181  0.056610735  0.055737662            5 
 3967000   0.61891177   -3.0977658    2699.6184  0.056709907  0.055726256            5 
 3968000   0.61164579   -3.0945636     2693.754  0.056572455  0.055714759            8 
 3969000   0.62741398   -3.0918074    2699.9997  0.056689335    0.0557033            5 
 3970000   0.61322058   -3.1099559    2696.6664  0.056605088  0.055691919            5 
 3971000   0.60947521   -3.0876592     2708.162  0.056832074  0.055680529            6 
 3972000   0.61855609   -3.0853947    2699.7242   0.05664074  0.055669166            6 
 3973000   0.62914594   -3.1099709    2692.6364  0.056477818  0.055657732            9 
 3974000   0.61717048   -3.0977268    2701.4086  0.056647554  0.055646316            6 
 3975000   0.61234033   -3.0986897    2702.4144  0.056654391  0.055634936            9 
 3976000   0.60836555   -3.1069556     2705.538  0.056705608  0.055623522           12 
 3977000   0.62235376   -3.0958314    2695.4418  0.056479796  0.055612121            4 
 3978000   0.62019274    -3.093415    2704.8383  0.056662441  0.055600678           12 
 3979000   0.61483742   -3.0960907    2698.9799  0.056525506  0.055589265            7 
 3980000   0.62946693   -3.1043451    2701.3616  0.056561172  0.055577879            5 
 3981000   0.62478343   -3.1014074    2698.0502  0.056477648  0.055566471            4 
 3982000   0.62034656   -3.0976586    2700.8616    0.0565223  0.055555087           14 
 3983000   0.61745838   -3.1209509    2701.7901  0.056527536  0.055543697            5 
 3984000   0.61828779   -3.0988811    2707.0567  0.056623508  0.055532307            8 
 3985000   0.61344738   -3.1014185    2694.7185  0.056351286  0.055520929            9 
 3986000   0.60797938   -3.1187865    2703.1767   0.05651398  0.055509536           14 
 3987000   0.61368556   -3.0858136    2701.9495  0.056474156  0.055498192           12 
 3988000   0.61695702   -3.1006127    2695.4049  0.056323238  0.055486846            4 
 3989000   0.60772933   -3.0917216    2707.7036  0.056566048  0.055475549           16 
 3990000   0.60721683    -3.101817    2705.6533   0.05650905   0.05546424            9 
 3991000   0.60645457   -3.1008452    2705.0764  0.056482844  0.055452981            7 
 3992000   0.62900058   -3.0993693    2705.3438  0.056474279  0.055441702            6 
 3993000   0.61656202   -3.1263443    2705.9454  0.056472691  0.055430381            4 
 3994000    0.6145029   -3.1089357    2704.9205  0.056437166  0.055418948            8 
 3995000   0.60728249   -3.1282362     2699.481  0.056309574  0.055407534           10 
 3996000   0.60374255   -3.0961108    2694.4842  0.056191279   0.05539617            9 
 3997000   0.61879423   -3.0956023     2697.289  0.056235697  0.055384811           10 
 3998000   0.61488528   -3.1175571    2705.1391  0.056385257  0.055373461            6 
 3999000   0.61006899   -3.0818611    2702.5224  0.056316629  0.055362177            9 
 4000000   0.61867745   -3.1001501    2712.8231  0.056517149  0.055350808           11 
 4001000   0.61138707   -3.1112225    2698.5593  0.056205935  0.055339447            5 
 4002000   0.61982327   -3.1095256    2706.4817  0.056356856  0.055328052            4 
 4003000   0.60378126   -3.1270021    2698.5354  0.056177355  0.055316629           15 
 4004000   0.61466429    -3.079864    2705.0273  0.056298436  0.055305207            6 
 4005000   0.62320882   -3.1156696    2701.3524  0.056207915  0.055293839           12 
 4006000   0.59627992   -3.1215887    2703.6153  0.056240958  0.055282357           11 
 4007000   0.60976278   -3.1035732    2705.9243  0.056274941  0.055270938            9 
 4008000   0.61207045   -3.1198616    2695.2459  0.056038879   0.05525943            8 
 4009000   0.61094002   -3.1123895     2704.784  0.056223165  0.055248003            8 
 4010000   0.61788558   -3.1096564    2710.7436  0.056332993  0.055236584            4 
 4011000   0.62379323   -3.1081924    2702.2362  0.056142197  0.055225176            7 
 4012000   0.61865097    -3.117153    2700.4877  0.056091885  0.055213818           10 
 4013000   0.59808473   -3.0947455    2710.2939  0.056281542  0.055202443            6 
 4014000    0.6026141   -3.1087529    2709.7441  0.056256106  0.055191073            3 
 4015000   0.60689036   -3.1151389    2705.7499  0.056159193  0.055179735           12 
 4016000   0.60659779   -3.0913987    2701.2689  0.056052226  0.055168457            5 
 4017000   0.61704098    -3.101544    2708.5542  0.056189407  0.055157145            5 
 4018000   0.58901881   -3.0885314    2710.5564  0.056216948  0.055145799            6 
 4019000    0.6050946   -3.1128005    2707.0912  0.056131111  0.055134526            5 
 4020000   0.60330696   -3.1140815     2706.532  0.056105555  0.055123174            9 
 4021000   0.61005409   -3.1191611    2709.7931  0.056159188  0.055111797            7 
 4022000   0.61097738   -3.1280194    2704.0807  0.056026868  0.055100471            4 
 4023000   0.60432254   -3.1047977    2702.0697  0.055971283  0.055089125            9 
 4024000    0.6071217   -3.1112076    2702.0033     0.055956  0.055077747            5 
 4025000   0.61451772   -3.1170907    2697.6443  0.055851848  0.055066334            6 
 4026000   0.61096697   -3.1138319    2710.5066  0.056104211  0.055055014            9 
 4027000   0.60321206   -3.1170403    2708.7651   0.05605424  0.055043651            6 
 4028000   0.61463521    -3.129895    2709.3233  0.056051873  0.055032354            7 
 4029000   0.60320306   -3.1101495    2707.3335  0.055996805  0.055021094            5 
 4030000   0.60288337       -3.087    2705.2977  0.055940813  0.055009889            9 
 4031000   0.60112345   -3.0902224    2713.1718  0.056089716  0.054998604            7 
 4032000   0.61063311   -3.1002468    2708.3382  0.055975905  0.054987341            6 
 4033000   0.60548447   -3.0980144    2708.7014  0.055969531  0.054975976            9 
 4034000   0.59274384   -3.1154439    2709.1808   0.05596556  0.054964708            8 
 4035000   0.61100064   -3.1096124    2707.4686  0.055916329  0.054953432           14 
 4036000   0.60238413    -3.120708    2708.6624  0.055927123  0.054942121            4 
 4037000   0.60744857    -3.118198    2707.1683  0.055882428  0.054930826            8 
 4038000   0.60077412   -3.1210121    2713.3098  0.055995331  0.054919481            7 
 4039000   0.59844511   -3.1153489    2701.4775  0.055737342  0.054908212           17 
 4040000   0.61765608   -3.1027051    2709.5304  0.055889654  0.054896868            4 
 4041000   0.59891858   -3.1183151    2706.5989  0.055815369  0.054885538           20 
 4042000   0.61549549   -3.1451653    2700.7381  0.055680729  0.054874164            9 
 4043000   0.60677128   -3.0967637    2704.7006  0.055748632  0.054862775            5 
 4044000   0.59618088   -3.1002897    2713.7518  0.055921361  0.054851466            6 
 4045000   0.59969975   -3.0978238     2707.717  0.055783209  0.054840182            7 
 4046000    0.6096163   -3.1086541    2712.5165  0.055868276  0.054828971            9 
 4047000   0.61674009   -3.1184954    2709.5887  0.055794183  0.054817613           10 
 4048000   0.60338642   -3.1034528    2708.4068   0.05575607  0.054806206            9 
 4049000   0.59884936   -3.1260945    2709.0051  0.055754612   0.05479485            9 
 4050000   0.60871866   -3.1218161    2705.0473  0.055659409  0.054783483            7 
 4051000   0.59841028   -3.1133315    2709.6209  0.055739754   0.05477209            8 
 4052000   0.59456159   -3.1020866    2703.8136  0.055606565  0.054760742            9 
 4053000   0.59077745   -3.1314318    2715.1823  0.055826596  0.054749361            6 
 4054000   0.58766388   -3.1285687    2713.7071  0.055782502  0.054737956            7 
 4055000   0.60999035   -3.1099829    2711.2865  0.055718999  0.054726532            5 
 4056000   0.59696123   -3.1188518    2716.1204  0.055804578  0.054715059           10 
 4057000   0.60021559   -3.1122756    2704.4412  0.055550924  0.054703593            6 
 4058000    0.5973103   -3.1306673    2698.1101  0.055407222  0.054692044            5 
 4059000   0.61138302   -3.1094155    2706.2173  0.055560017  0.054680593           11 
 4060000   0.60287085   -3.1294477    2710.1978  0.055628033  0.054669133            8 
 4061000   0.60984588   -3.1069639    2696.2511  0.055328144  0.054657667            6 
 4062000   0.60676994   -3.1158414     2713.937  0.055677354  0.054646259            6 
 4063000   0.59653458   -3.1237959    2706.7047  0.055515315  0.054634824            9 
 4064000    0.5983037   -3.1482703    2705.1757  0.055470302  0.054623357           11 
 4065000   0.60592339   -3.1160944    2709.1955  0.055539063  0.054611943            6 
 4066000   0.60640006    -3.115551    2710.7855  0.055557991  0.054600438            7 
 4067000   0.60190118   -3.0976459    2708.8563  0.055504802  0.054589025            9 
 4068000   0.59049908    -3.141778    2711.1571  0.055538288  0.054577652            9 
 4069000   0.59706118   -3.1442996    2704.0772  0.055379643  0.054566108           15 
 4070000   0.59191202   -3.1367094    2704.2724  0.055370033  0.054554595            4 
 4071000   0.60974886   -3.1156524    2711.7351  0.055509193  0.054543026            5 
 4072000   0.59115949   -3.1204281    2700.1034  0.055257519  0.054531521           13 
 4073000   0.60432594    -3.129891      2708.63  0.055418406  0.054520037            7 
 4074000   0.60327272   -3.1347335    2706.7567  0.055366485  0.054508575           10 
 4075000   0.60588514   -3.1083036    2703.4073  0.055284402  0.054497154            9 
 4076000   0.59795576   -3.1134256    2707.0977  0.055346288   0.05448578            8 
 4077000   0.59791281   -3.1182625    2714.7881  0.055489906  0.054474318            7 
 4078000    0.5881322   -3.1302333    2708.0154  0.055337898   0.05446291            5 
 4079000   0.59879254   -3.1303658    2700.6774  0.055174418  0.054451424            7 
 4080000   0.60912339   -3.1160234    2717.2855  0.055500112  0.054439967           12 
 4081000   0.60106121   -3.1291741    2709.4277  0.055326058  0.054428502           10 
 4082000   0.60319245   -3.1212765    2704.2588  0.055206982  0.054416976           11 
 4083000   0.58694474   -3.1394665    2710.2216   0.05531516   0.05440547           11 
 4084000   0.61376034    -3.142102     2702.218  0.055138304  0.054393981           10 
 4085000   0.59835124   -3.1327977     2704.628   0.05517397  0.054382512           14 
 4086000   0.60330226   -3.1329761     2711.818  0.055307106  0.054371069            6 
 4087000   0.60674852   -3.1257683    2709.0385    0.0552369  0.054359615            6 
 4088000   0.60192411   -3.1244603    2711.0048  0.055263471  0.054348177            5 
 4089000   0.60210244   -3.1245414    2712.7852  0.055286239  0.054336721           10 
 4090000   0.59212425   -3.1296832     2707.192  0.055158762  0.054325311           10 
 4091000   0.59381378   -3.1223127    2717.4463  0.055354158  0.054313856            6 
 4092000   0.58539363   -3.1279354     2716.557   0.05532252   0.05430248            8 
 4093000   0.59772279   -3.1289386    2714.1705  0.055260414  0.054290981            6 
 4094000   0.60309223    -3.126127    2712.4096  0.055211074  0.054279569            7 
 4095000   0.58899385   -3.1080674    2716.2488  0.055275718  0.054268109            6 
 4096000   0.59525233   -3.1349384    2708.4651  0.055103863  0.054256658            6 
 4097000   0.60892909   -3.1203549    2710.8191  0.055138294  0.054245216            4 
 4098000    0.5895109   -3.1337292    2706.3295  0.055033542   0.05423378           14 
 4099000   0.59193823   -3.1073693    2714.5696   0.05518764  0.054222327            6 
 4100000   0.58670273   -3.1482602    2716.1473  0.055206247  0.054210914           12 
 4101000    0.5906048    -3.113138    2716.2753  0.055195385  0.054199431           10 
 4102000    0.5987839   -3.1393172    2712.2121  0.055099384   0.05418799            6 
 4103000   0.60030562   -3.1301311    2715.3885  0.055150469  0.054176493            5 
 4104000   0.58432894   -3.1396126    2709.1466  0.055010286  0.054164932           17 
 4105000   0.59289715   -3.1119836    2709.7371  0.055008874  0.054153395            6 
 4106000   0.59912428   -3.1090591    2703.2636  0.054864093  0.054141963            6 
 4107000    0.5980589   -3.1139696    2705.5391  0.054896907  0.054130467            6 
 4108000   0.59878387    -3.132092    2708.3445  0.054940451   0.05411895            7 
 4109000   0.59489973   -3.1171364     2708.796  0.054936238  0.054107421            8 
 4110000   0.59744258   -3.1330663    2712.0762  0.054989379  0.054095992           11 
 4111000   0.59701404   -3.1203134    2704.7018  0.054826519  0.054084463            5 
 4112000   0.59734673   -3.1271878    2713.9915  0.055001449  0.054072908           15 
 4113000   0.58347449   -3.1403708    2708.7642  0.054882166   0.05406135            7 
 4114000   0.59072536   -3.1579647    2708.1523  0.054856432  0.054049771            7 
 4115000   0.58487686   -3.1454929    2709.5085  0.054870565  0.054038181            5 
 4116000   0.61170483   -3.1298086    2713.5203  0.054938458   0.05402662            6 
 4117000   0.59074527   -3.1291049    2711.6293  0.054886837  0.054015045            5 
 4118000   0.58406487   -3.1374472    2709.8594  0.054837693  0.054003521            5 
 4119000   0.61079092   -3.1453653    2706.8952  0.054764409  0.053991961            8 
 4120000   0.59091261   -3.1418729    2707.3283  0.054759877  0.053980347           15 
 4121000   0.58962124   -3.1243552     2704.571  0.054690831  0.053968757            7 
 4122000   0.59989435   -3.1367976    2705.0384  0.054687013  0.053957191            8 
 4123000   0.59719162   -3.1524805    2715.9852  0.054895004  0.053945622           10 
 4124000   0.58846349   -3.1276876    2710.9476  0.054779899   0.05393408            9 
 4125000   0.59330555   -3.1360857    2717.2781  0.054894506  0.053922507            5 
 4126000   0.60147422   -3.1311575    2709.0085   0.05471418  0.053910985            8 
 4127000   0.60568648   -3.1374655    2714.6843   0.05481553  0.053899488            6 
 4128000   0.58132804   -3.1409692    2712.1084   0.05475025  0.053887946            7 
 4129000   0.59490376    -3.157533    2702.3573  0.054540189  0.053876397           15 
 4130000   0.58093777   -3.1449696    2710.7938  0.054697211  0.053864853            9 
 4131000   0.59620738   -3.1281843    2714.9976  0.054768773  0.053853392           12 
 4132000   0.57692642   -3.1316715    2709.1507  0.054637599  0.053841869            5 
 4133000   0.57768683   -3.1231685    2708.2196  0.054605606  0.053830353           14 
 4134000   0.58925123   -3.1359455    2713.8614  0.054706124  0.053818912           10 
 4135000   0.58412892   -3.1359397    2708.9722   0.05459436  0.053807372            9 
 4136000   0.59220911   -3.1337306    2714.8057  0.054698697  0.053795812           10 
 4137000   0.59827654   -3.1518045    2713.3171  0.054655489  0.053784304           10 
 4138000   0.58763164   -3.1264122    2714.6185  0.054668489  0.053772859            8 
 4139000   0.59569184   -3.1547393    2709.3148  0.054548498   0.05376136            4 
 4140000   0.58677059   -3.1421195    2711.3652  0.054576594  0.053749927           10 
 4141000   0.58638562   -3.1294947    2708.9306  0.054514421  0.053738436            4 
 4142000   0.58842886   -3.1237383     2715.484  0.054633107  0.053726974           10 
 4143000   0.58993659   -3.1483016    2706.9865     0.054449  0.053715518           10 
 4144000   0.59156124   -3.1417333    2709.8129  0.054492698   0.05370393            6 
 4145000   0.59320382   -3.1461228    2711.9653  0.054522825   0.05369239            5 
 4146000   0.58844545   -3.1485795    2719.9854  0.054670875  0.053680838            7 
 4147000   0.59043255   -3.1490994    2705.2099  0.054360781  0.053669379            9 
 4148000   0.58639201   -3.1465339    2713.6052  0.054516337  0.053657882           10 
 4149000   0.58813613   -3.1548018    2711.4403  0.054459715  0.053646351            5 
 4150000    0.5949743   -3.1481258    2711.0423  0.054438601  0.053634817           14 
 4151000   0.58844094   -3.1505865     2710.569  0.054415984  0.053623385           11 
 4152000   0.58209761   -3.1407747     2716.305  0.054518004  0.053611828           13 
 4153000   0.58487146   -3.1549352    2718.3259  0.054545427  0.053600404            7 
 4154000   0.59237682   -3.1370831    2708.6956  0.054339103  0.053588948            4 
 4155000   0.59108889   -3.1399231    2706.5645  0.054283283   0.05357752            6 
 4156000    0.5769731   -3.1483866    2710.9303  0.054357762  0.053566029            5 
 4157000   0.59565831   -3.1373068    2714.1111  0.054408449  0.053554593           12 
 4158000   0.58542138   -3.1435212    2709.1151  0.054295235  0.053543095            5 
 4159000   0.58034657   -3.1577813    2712.2611  0.054345218  0.053531614            4 
 4160000   0.57374549   -3.1409831    2716.5093  0.054417253  0.053520079            9 
 4161000   0.59354113   -3.1584946    2715.5531  0.054385026  0.053508571           14 
 4162000   0.60319238   -3.1531553    2706.2616   0.05418592  0.053497017            6 
 4163000   0.58948926   -3.1424103    2711.2973  0.054273707  0.053485541            7 
 4164000   0.58879761   -3.1468131    2713.6389  0.054307535  0.053474075           14 
 4165000   0.58992139   -3.1496461     2719.839  0.054418548  0.053462626            8 
 4166000   0.57631293   -3.1474649    2714.5983  0.054300655  0.053451187            7 
 4167000   0.58329653   -3.1293588    2722.9752  0.054455148   0.05343969            9 
 4168000   0.59625175   -3.1416774    2723.1916  0.054446409  0.053428315            8 
 4169000   0.56631677   -3.1537587    2711.0203  0.054190059  0.053416863            5 
 4170000   0.58831466   -3.1539803    2711.2817  0.054182288  0.053405288           18 
 4171000    0.5988277   -3.1298063    2723.5979  0.054415366  0.053393777            9 
 4172000   0.56417358   -3.1578463    2710.8739  0.054148169  0.053382245            7 
 4173000   0.58777215   -3.1506471    2709.5775  0.054109304  0.053370703           11 
 4174000   0.58151795   -3.1331481    2713.5006  0.054174665  0.053359175            7 
 4175000   0.59419567   -3.1281804    2718.0636  0.054252766   0.05334764            5 
 4176000    0.5657935   -3.1657137    2703.9361  0.053957857  0.053336079            6 
 4177000   0.57835317   -3.1502809     2712.549   0.05411677  0.053324522           12 
 4178000    0.5873724   -3.1365985    2713.9244  0.054131251  0.053312957            5 
 4179000   0.57605527   -3.1562453    2715.9533  0.054158756  0.053301502            7 
 4180000   0.59742011   -3.1538516    2712.1222  0.054069422  0.053289931            5 
 4181000   0.58659422   -3.1427152    2710.3708  0.054021581  0.053278434           17 
 4182000   0.58117963   -3.1670891    2702.4935  0.053851697  0.053266853           11 
 4183000   0.58792477   -3.1699642    2711.2583  0.054013433  0.053255267            6 
 4184000   0.58690996   -3.1492901    2713.6055  0.054047273  0.053243756           14 
 4185000   0.59591896   -3.1668177    2710.0483  0.053963526   0.05323224           14 
 4186000   0.58630468    -3.147546    2713.3433  0.054016231  0.053220687            9 
 4187000   0.58239803   -3.1564593    2717.8591  0.054093208  0.053209169            4 
 4188000   0.57277862   -3.1391709    2708.7236  0.053898511  0.053197598            7 
 4189000   0.58907572   -3.1741885    2715.3352  0.054017173  0.053185987            4 
 4190000   0.57264524   -3.1745088     2719.499  0.054087093  0.053174492            8 
 4191000   0.58404571   -3.1660773    2712.2215  0.053929483  0.053162954            5 
 4192000   0.58824428   -3.1494629    2712.9475  0.053931049  0.053151399            8 
 4193000   0.59762572   -3.1668473    2712.6107  0.053911493  0.053139801            9 
 4194000   0.58365519   -3.1399025    2720.4213  0.054053833  0.053128268            5 
 4195000    0.5800884   -3.1459316    2714.9735  0.053932728  0.053116791           13 
 4196000   0.56918486   -3.1629976    2715.8073  0.053936434  0.053105308            9 
 4197000   0.57791316   -3.1488609    2709.9315  0.053806915  0.053093893           13 
 4198000   0.57361485   -3.1529963    2715.3155  0.053900976  0.053082414            6 
 4199000   0.57156562   -3.1574079    2717.2483  0.053926497  0.053070934           11 
 4200000   0.58521717    -3.159687    2713.3549  0.053836407  0.053059413           11 
 4201000   0.57147927   -3.1675634    2715.7338   0.05387078  0.053047896            7 
 4202000   0.57151225   -3.1446038    2717.9629  0.053902168  0.053036463            5 
 4203000   0.58912212   -3.1706936    2723.0905  0.053991009  0.053024989            7 
 4204000   0.59082422   -3.1556765    2723.9558  0.053995318  0.053013506            9 
 4205000    0.5678855   -3.1572807    2707.9772  0.053665818  0.053002023            8 
 4206000   0.57785796   -3.1686896    2711.4408  0.053721683  0.052990577           12 
 4207000   0.56607211   -3.1656953     2707.073  0.053622394  0.052979019            8 
 4208000   0.58115632   -3.1458119    2717.4336  0.053814829  0.052967519            9 
 4209000   0.57975514   -3.1725098    2713.7329  0.053728774  0.052956035            8 
 4210000   0.58815174   -3.1573934    2722.7165  0.053893834  0.052944582            4 
 4211000   0.55878045   -3.1514656    2728.8036  0.054001495  0.052933173            7 
 4212000   0.57710728   -3.1549786    2710.6262  0.053629041  0.052921706            9 
 4213000   0.58054695   -3.1792033    2715.6076  0.053714842  0.052910216            7 
 4214000   0.57965627   -3.1290277    2719.9603  0.053788172  0.052898822            4 
 4215000   0.57756232   -3.1630801    2721.9237  0.053814229  0.052887389            8 
 4216000   0.57651937   -3.1771318     2713.031  0.053625693  0.052875924            9 
 4217000   0.58745276   -3.1553226    2719.4098  0.053739028  0.052864476            7 
 4218000    0.5763128   -3.1502058    2720.7442  0.053752651  0.052853013            7 
 4219000   0.58380848   -3.1634823    2713.3456  0.053593774  0.052841591            8 
 4220000   0.58024153   -3.1601611    2717.8924  0.053670861  0.052830195           12 
 4221000   0.57812591   -3.1367481    2715.4907   0.05361073  0.052818794            8 
 4222000   0.57532759   -3.1728432    2713.5564  0.053559854  0.052807383           12 
 4223000   0.57986577   -3.1668211    2726.2133  0.053796931  0.052795978           12 
 4224000   0.58746563     -3.13935     2721.465  0.053690519  0.052784629            7 
 4225000   0.57566671    -3.154231    2726.0645   0.05376853  0.052773298            9 
 4226000   0.56917803   -3.1753121    2718.9148  0.053614822  0.052761906           17 
 4227000   0.56606336   -3.1651863    2723.7986  0.053698418  0.052750486            7 
 4228000   0.57378521   -3.1783545    2722.2324  0.053654849  0.052739108           13 
 4229000   0.55772394   -3.1706597    2720.8684  0.053615284  0.052727714           10 
 4230000   0.57396688   -3.1559801    2724.6305  0.053676724  0.052716327            8 
 4231000   0.58428206   -3.1664588    2712.6104  0.053427291  0.052704955            6 
 4232000    0.5804736   -3.1783087     2717.774  0.053516343  0.052693482            4 
 4233000      0.58089   -3.1654926    2717.0661  0.053489764  0.052682072           11 
 4234000   0.57188205   -3.1565196    2724.4193  0.053621857  0.052670732            4 
 4235000   0.57112956   -3.1718678    2722.7699   0.05357674  0.052659393            8 
 4236000   0.57978305   -3.1629032    2723.6399  0.053581208  0.052648067            9 
 4237000   0.57007379    -3.164625    2724.1967  0.053579512  0.052636742           10 
 4238000    0.5806113   -3.1761367    2725.4752   0.05359201  0.052625371            6 
 4239000   0.57819179   -3.1707761    2722.7619  0.053526027  0.052613964           12 
 4240000   0.58390195   -3.1546988    2727.6879  0.053610218  0.052602585            5 
 4241000   0.57455067   -3.1638065    2725.4882  0.053554354  0.052591188            7 
 4242000   0.57270932   -3.1632146    2725.3914  0.053539828  0.052579846            5 
 4243000   0.56386701   -3.1797309    2717.5917  0.053374022  0.052568475           18 
 4244000   0.56805971   -3.1626051    2728.0035  0.053565887  0.052557102           17 
 4245000   0.56522895   -3.1576856    2725.6218  0.053506513  0.052545696           13 
 4246000   0.54931243   -3.1656343    2723.6075  0.053454378  0.052534328           13 
 4247000   0.57809951    -3.161197    2718.9091  0.053349602  0.052522947            8 
 4248000   0.56532112   -3.1635107    2723.6892  0.053430815  0.052511575           10 
 4249000    0.5824457   -3.1471823    2724.0521  0.053425357  0.052500223            5 
 4250000   0.56482823   -3.1662301    2719.1502   0.05331667  0.052488879            9 
 4251000   0.57367225   -3.1671028    2729.2816  0.053502737  0.052477551           24 
 4252000   0.56086824   -3.1766516    2726.1997  0.053429753   0.05246626           11 
 4253000   0.56086496   -3.1692745    2727.2024  0.053436837   0.05245492           13 
 4254000   0.57383411   -3.1626387    2724.9896  0.053380928   0.05244363           11 
 4255000   0.58293731   -3.1436093    2723.6885  0.053342901  0.052432363            8 
 4256000   0.57065726   -3.1685705    2726.3677  0.053382827  0.052421052            7 
 4257000   0.57201028   -3.1441154     2724.059  0.053325093  0.052409689            6 
 4258000   0.57006891   -3.1713386     2725.498  0.053340731  0.052398401           15 
 4259000    0.5676226   -3.1671917      2728.66  0.053390076  0.052387153            6 
 4260000   0.57181952   -3.1622335    2725.5271  0.053316257  0.052375856            5 
 4261000   0.56609416   -3.1582906    2724.1109  0.053276048  0.052364641            6 
 4262000   0.56998294   -3.1714562    2726.3215  0.053306772  0.052353365            7 
 4263000   0.56858127   -3.1468707     2731.222  0.053390062  0.052342105            9 
 4264000   0.54788705   -3.1844268    2727.2854  0.053300607   0.05233081            7 
 4265000   0.57379224   -3.1807323    2723.4124  0.053212434   0.05231944           16 
 4266000    0.5695361   -3.1739415    2727.3184  0.053276262    0.0523081            7 
 4267000   0.57472849   -3.1678623    2727.8025   0.05327323  0.052296826            7 
 4268000   0.57956024   -3.1771852    2726.5927  0.053237127  0.052285492            6 
 4269000   0.56919176   -3.1774403    2729.8658  0.053288549  0.052274178           12 
 4270000   0.56268468   -3.1753938    2739.9819  0.053473495  0.052262905            9 
 4271000   0.56420022   -3.1714412     2721.207   0.05309465  0.052251589           15 
 4272000   0.56315971   -3.1708538    2729.1026  0.053236239  0.052240212           19 
 4273000    0.5685197   -3.1860427     2728.949  0.053220785  0.052228836           10 
 4274000   0.56412521   -3.1768636    2721.7726  0.053068411  0.052217516            5 
 4275000   0.55945773   -3.1670479    2728.9434  0.053195778  0.052206205            4 
 4276000   0.56601741   -3.1715242    2724.6176  0.053099033  0.052194879           14 
 4277000   0.57287701   -3.1901814    2725.6738  0.053107197  0.052183485           11 
 4278000   0.56881663   -3.1777896    2732.8787  0.053235131  0.052172109           13 
 4279000   0.57737823   -3.1782219     2723.582  0.053041637  0.052160791            6 
 4280000   0.56532174   -3.1807134    2720.8061  0.052975196  0.052149445            7 
 4281000   0.56975009   -3.1843204    2725.4678  0.053053566  0.052138107            8 
 4282000   0.57038723   -3.1700501    2725.2133  0.053036224  0.052126775            7 
 4283000   0.56486288   -3.1898422    2730.3214  0.053123228  0.052115473           23 
 4284000   0.56942671   -3.1895729    2724.5556   0.05299867  0.052104168           11 
 4285000   0.56650254   -3.1729987    2725.8313   0.05301111    0.0520928            8 
 4286000   0.56327641   -3.1884875    2719.6717  0.052878981  0.052081474           11 
 4287000   0.56494522   -3.1687966    2733.3268  0.053132082  0.052070233            9 
 4288000   0.56517192   -3.1820675    2735.9473  0.053170617  0.052059006            5 
 4289000    0.5672704   -3.1619491    2732.2408  0.053086205  0.052047737            6 
 4290000   0.55102367   -3.1823023    2728.7098   0.05300524  0.052036441            8 
 4291000   0.56368069   -3.1874717    2722.4255  0.052870843  0.052025163           12 
 4292000   0.55454106   -3.1823719    2724.9589  0.052907714  0.052013759           13 
 4293000   0.56962524   -3.1723604    2722.4172  0.052846052  0.052002367            7 
 4294000   0.56833907    -3.177324    2722.8164  0.052841492  0.051991036           13 
 4295000   0.56350085   -3.1774934    2724.4905  0.052861671  0.051979685            8 
 4296000   0.55195628   -3.1848939      2731.45  0.052984366  0.051968338            9 
 4297000   0.57199079   -3.1896226     2728.617  0.052917094  0.051957029           11 
 4298000   0.56440482   -3.1751503     2724.757  0.052829941  0.051945757           12 
 4299000   0.55984976   -3.1692835    2721.7548  0.052759456  0.051934455            6 
 4300000   0.56372215   -3.1960761     2722.513   0.05276188  0.051923048            9 
 4301000    0.5545471   -3.1908652     2718.978  0.052681121  0.051911742            6 
 4302000   0.55750361   -3.1866619    2730.1656  0.052885589  0.051900412           11 
 4303000   0.57198315   -3.1824439    2721.6351  0.052708093  0.051889045           10 
 4304000   0.56598111    -3.166765    2727.5822  0.052810993  0.051877627           15 
 4305000   0.55218437   -3.1771254    2725.4858  0.052758145  0.051866241            8 
 4306000   0.55866105   -3.1812596    2721.6614   0.05267188  0.051854822           14 
 4307000   0.56425204   -3.1780804    2727.8232  0.052778871  0.051843399           11 
 4308000   0.56120545   -3.1837826    2718.5005  0.052586283  0.051832005           17 
 4309000    0.5629107   -3.2111494    2724.0121   0.05268067  0.051820577            8 
 4310000   0.56134235   -3.1628096    2723.9272  0.052666807  0.051809212            8 
 4311000   0.57895174   -3.2029654    2724.1928  0.052659724  0.051797784            7 
 4312000   0.56087093   -3.1866967    2722.8974  0.052622475  0.051786328           10 
 4313000   0.55713214   -3.1952667    2722.0069  0.052593069  0.051774915            8 
 4314000    0.5648363   -3.1923921    2725.5891  0.052650076  0.051763474            8 
 4315000   0.56724902   -3.1859206    2721.3267  0.052555556   0.05175202           15 
 4316000   0.54560208   -3.1780415    2719.6412  0.052510835  0.051740631           13 
 4317000   0.55835942   -3.1762641      2727.07  0.052642073   0.05172926            5 
 4318000   0.56603299   -3.1784043    2722.6088  0.052543786  0.051717899            8 
 4319000   0.56113322   -3.1862894    2726.5992  0.052608613  0.051706494            7 
 4320000    0.5631038   -3.2006521    2725.2821  0.052571029  0.051695103            4 
 4321000   0.55880243   -3.1901089    2733.2759  0.052713027  0.051683667            5 
 4322000   0.57492971    -3.195534     2726.305  0.052566424  0.051672315           11 
 4323000   0.55316027   -3.1922034     2725.282  0.052534544  0.051660913            6 
 4324000   0.56597983   -3.1876819    2722.1793  0.052462597  0.051649468           14 
 4325000   0.54990168   -3.1957144    2733.0762  0.052660428  0.051638064           23 
 4326000   0.55573831   -3.1807631    2725.1736  0.052496024  0.051626658           12 
 4327000   0.56156442   -3.2077381    2728.2354  0.052542859  0.051615293           12 
 4328000   0.55646165   -3.1732586    2732.8115   0.05261883  0.051603929            7 
 4329000   0.55732255   -3.1859347    2728.4852  0.052523393  0.051592601           10 
 4330000   0.55943453   -3.1959968    2725.6986  0.052457633  0.051581138            5 
 4331000   0.57565467   -3.1879549    2726.5129  0.052461189  0.051569731            6 
 4332000   0.56735344   -3.1831365     2723.376  0.052388736   0.05155837            5 
 4333000   0.56179216   -3.1848043    2722.1307  0.052352695  0.051547017           26 
 4334000   0.56333962    -3.196114    2732.8349  0.052546432  0.051535589            9 
 4335000   0.56169516   -3.2018792    2725.2382  0.052388277  0.051524175            5 
 4336000   0.56097149   -3.1839857    2731.5842   0.05249816  0.051512835            9 
 4337000   0.55389359   -3.2130237    2722.1311  0.052304417  0.051501506           10 
 4338000   0.56218149   -3.1886918    2720.9998  0.052270628  0.051490084            8 
 4339000   0.55240859    -3.185035    2723.4272  0.052305202  0.051478697            8 
 4340000   0.54696607   -3.1865106    2729.6558  0.052412746  0.051467356            8 
 4341000   0.56506608    -3.202749    2730.7974  0.052422587  0.051456012            4 
 4342000   0.55248001   -3.2034638    2736.0256  0.052510854  0.051444689            7 
 4343000   0.55768395   -3.1962499    2726.2125   0.05231047  0.051433399           12 
 4344000   0.54794828   -3.2002905    2723.9403   0.05225484   0.05142203            7 
 4345000   0.55823712   -3.1879148    2731.7441  0.052392484  0.051410699            4 
 4346000   0.56261358   -3.1888844    2726.1514   0.05227319  0.051399321           13 
 4347000     0.558414   -3.2044272    2727.9281  0.052295225  0.051388038           15 
 4348000   0.56507232   -3.2030141    2721.0049  0.052150508  0.051376615           10 
 4349000   0.55316695   -3.2022255    2722.2335  0.052162059  0.051365229            7 
 4350000   0.55031443   -3.2068905    2726.6855  0.052235355  0.051353833            7 
 4351000   0.55939222   -3.2028696    2728.0215  0.052248936  0.051342415           15 
 4352000   0.56156922   -3.1805793    2729.5752  0.052266681   0.05133105            9 
 4353000   0.54477688   -3.1991631     2730.389  0.052270255  0.051319718            7 
 4354000   0.55840097   -3.2121632    2721.6745  0.052091457  0.051308356            4 
 4355000   0.57010719   -3.2210582    2721.4516  0.052075232  0.051296983            7 
 4356000    0.5574988   -3.1962704    2730.9701  0.052245371  0.051285629           15 
 4357000   0.55357616   -3.2013429    2721.1763  0.052046061  0.051274266           11 
 4358000   0.54813917   -3.1964034     2724.484  0.052097369  0.051262863           11 
 4359000   0.55894576   -3.1903138    2732.7222   0.05224291  0.051251535           13 
 4360000   0.55375651   -3.2097187    2727.3591  0.052128423  0.051240203           11 
 4361000   0.55168583    -3.196694    2727.4119  0.052117478  0.051228883            5 
 4362000    0.5582308    -3.226338    2720.1921    0.0519676  0.051217458           20 
 4363000   0.54710455   -3.2054044     2721.963  0.051989514  0.051205992            8 
 4364000   0.56060601   -3.1997193    2736.4336  0.052253926  0.051194608           28 
 4365000   0.54847274    -3.185438    2727.1565  0.052064844  0.051183289            9 
 4366000   0.54827143   -3.1899947    2730.6546  0.052119686  0.051171964            7 
 4367000   0.56019431   -3.1797612    2729.7601  0.052090682  0.051160667            6 
 4368000   0.56804547   -3.1974471    2727.8712   0.05204272  0.051149344            9 
 4369000    0.5488526   -3.2036969    2736.3302  0.052192153  0.051138082            6 
 4370000   0.54055088   -3.2054875    2726.1075  0.051985269  0.051126796           15 
 4371000   0.55623954   -3.1914156    2736.1592  0.052165012  0.051115475            5 
 4372000   0.54791679    -3.188755    2730.4833  0.052044893  0.051104198            5 
 4373000   0.55560796   -3.1908788    2731.3913  0.052050296  0.051092886           13 
 4374000    0.5671324   -3.2008972    2727.4857  0.051963986  0.051081558           11 
 4375000    0.5465109   -3.1956846     2727.678  0.051955771  0.051070222           10 
 4376000   0.56074855   -3.2035837    2731.2111   0.05201118  0.051058924            8 
 4377000   0.55789155   -3.2057009    2726.3056  0.051905903  0.051047622           15 
 4378000   0.54348007   -3.2045629    2727.7885  0.051922273  0.051036285            7 
 4379000   0.55752753    -3.211171    2724.9155  0.051855742  0.051024896            6 
 4380000   0.54832647   -3.1970513    2737.3426  0.052080339  0.051013532            6 
 4381000   0.54823826   -3.1968693    2727.9454  0.051889702  0.051002181           11 
 4382000   0.54936922   -3.2050284    2733.6898  0.051987103  0.050990824            9 
 4383000   0.55698076   -3.1942295    2737.0806  0.052039709  0.050979487            8 
 4384000   0.54245437   -3.1880649    2721.9404  0.051740048  0.050968144            4 
 4385000   0.54053591   -3.2023304    2732.5159  0.051929226  0.050956871           11 
 4386000   0.56085965   -3.2007685    2729.1323  0.051853099  0.050945531            7 
 4387000   0.54612925   -3.2233378    2732.5128  0.051905494   0.05093418            7 
 4388000   0.54225275   -3.2201203    2725.7543  0.051765313  0.050922827           10 
 4389000   0.55740762   -3.2046356    2729.5869  0.051826288  0.050911485           15 
 4390000   0.54963872   -3.2151309    2733.6631  0.051891859  0.050900173            8 
 4391000   0.54600791   -3.2008815    2727.4772  0.051762643   0.05088891           13 
 4392000   0.55547493   -3.2043463    2726.9153  0.051740196  0.050877606           19 
 4393000   0.54713274   -3.2095171     2736.432  0.051908946  0.050866324            6 
 4394000   0.54972272   -3.2042939    2733.6531   0.05184443  0.050855011           10 
 4395000   0.56137795   -3.2112494    2728.2011   0.05172926  0.050843758            7 
 4396000   0.54477735   -3.2293899    2723.3219  0.051624998  0.050832439           12 
 4397000   0.54650205   -3.2033133    2726.9249  0.051681542  0.050821102           11 
 4398000   0.56097604   -3.2135806    2731.1698  0.051750224  0.050809801            9 
 4399000   0.55413596   -3.2007604    2727.6727  0.051672211  0.050798492           13 
 4400000   0.55864495   -3.2173004    2737.2157  0.051841206  0.050787178           13 
 4401000   0.54772975   -3.1754143    2732.9962   0.05174953  0.050775915           11 
 4402000   0.54768802   -3.2241429    2724.4636  0.051576246  0.050764631           12 
 4403000   0.55034025   -3.2063081    2729.4129  0.051658205  0.050753346           12 
 4404000   0.54347074   -3.2367444    2731.2756   0.05168172  0.050741991           11 
 4405000   0.53562423   -3.2007045     2727.495  0.051598467  0.050730722           14 
 4406000   0.55003674   -3.2171579    2725.6516  0.051551891  0.050719419            9 
 4407000   0.55425549   -3.1856215    2726.9674  0.051565074   0.05070808           13 
 4408000   0.54606806   -3.2112802    2725.4552  0.051524788  0.050696782           10 
 4409000   0.53778708    -3.210077    2729.8462  0.051596096  0.050685439            9 
 4410000    0.5459666   -3.2092259    2727.7989  0.051545708  0.050674102           13 
 4411000   0.53775974   -3.2033733    2732.2785  0.051618652  0.050662787            6 
 4412000   0.54070234   -3.2146879    2721.1646  0.051397034  0.050651428            6 
 4413000   0.54502158   -3.2118373    2726.7147  0.051490194  0.050640072            7 
 4414000   0.55458168   -3.2112004    2732.3351  0.051584638  0.050628723           11 
 4415000   0.54877736   -3.2041903    2732.0875   0.05156828  0.050617411           17 
 4416000   0.54358871   -3.2235362    2733.6071  0.051585279  0.050606144           10 
 4417000   0.53828728   -3.2021642     2727.201   0.05145274  0.050594854            9 
 4418000   0.54458835   -3.1917156    2731.0068  0.051512879  0.050583572           12 
 4419000   0.52246914   -3.1990529     2734.351  0.051564287  0.050572289           12 
 4420000   0.54810722   -3.2085148    2724.2617  0.051362401  0.050560963           20 
 4421000   0.54331413   -3.2155113    2736.0212  0.051572442  0.050549682           15 
 4422000   0.55116611   -3.2017956    2731.5523  0.051476563  0.050538407            5 
 4423000   0.53837762   -3.2072427    2735.0128  0.051530123  0.050527178            9 
 4424000   0.54992323    -3.219983    2733.0774  0.051482018  0.050515949           10 
 4425000   0.55438379   -3.2028171    2734.7839  0.051502522  0.050504699           11 
 4426000   0.54067204   -3.2189415    2724.4536  0.051296385  0.050493452            9 
 4427000   0.55199853   -3.2131987     2736.514  0.051511821  0.050482206            9 
 4428000   0.53736585   -3.1956166    2728.3934  0.051347361  0.050470973           15 
 4429000   0.54680329   -3.2004715    2725.3183  0.051277909  0.050459765           17 
 4430000   0.54615229   -3.2311432    2727.3813  0.051305141  0.050448556            4 
 4431000   0.53848171   -3.1981615    2734.4552    0.0514266   0.05043731            7 
 4432000   0.53737043   -3.2334979    2730.3316  0.051337462   0.05042601           10 
 4433000   0.53383061   -3.2178233    2735.7169  0.051427116  0.050414838            7 
 4434000   0.54661364   -3.2209953     2731.345  0.051333351   0.05040361           19 
 4435000   0.54477167   -3.1987071    2734.5276  0.051381577  0.050392417           12 
 4436000   0.53552485   -3.2289786    2736.8158  0.051412981  0.050381177           18 
 4437000   0.54432483   -3.2127522     2740.513  0.051470833  0.050369925            6 
 4438000   0.54605288   -3.2302817    2726.0134  0.051186972  0.050358673           16 
 4439000    0.5393945   -3.2292935    2741.3623  0.051463586  0.050347373           11 
 4440000   0.54393196   -3.2088286    2736.2293  0.051355656  0.050336174           14 
 4441000   0.55378284   -3.2111622    2740.1058  0.051416832   0.05032501            9 
 4442000   0.54264441     -3.20152    2737.1221  0.051349281  0.050313835           29 
 4443000   0.54893425   -3.2066257    2743.7915  0.051462815  0.050302665           13 
 4444000   0.54011739   -3.2203992    2733.1839  0.051252323  0.050291462           14 
 4445000   0.53486282   -3.2351008     2735.103  0.051276772  0.050280269           12 
 4446000   0.53683977   -3.2122246    2730.2693  0.051174638  0.050269092           16 
 4447000   0.53720514   -3.2193815    2728.5852  0.051131571  0.050257881           10 
 4448000   0.54064386   -3.2276008    2734.8038  0.051236583  0.050246642            5 
 4449000   0.53255476   -3.2129439    2733.8225  0.051206686  0.050235424           18 
 4450000   0.53748814   -3.2203051    2736.2514  0.051240663  0.050224194           14 
 4451000   0.53241778   -3.2112699    2736.7609   0.05123869  0.050212985            9 
 4452000   0.54437063    -3.222539    2735.2723  0.051199318  0.050201755           10 
 4453000   0.54235048   -3.2479794     2736.275  0.051206584  0.050190479            5 
 4454000   0.54484552   -3.2298675    2731.8206  0.051111747  0.050179185            8 
 4455000     0.533304   -3.2175554    2739.1599  0.051237559  0.050167986           10 
 4456000   0.54573505   -3.2319245    2732.5435  0.051102324  0.050156825            7 
 4457000   0.54429055    -3.237016    2731.4596  0.051070594  0.050145602            6 
 4458000   0.52853928   -3.2325217     2738.904  0.051198294  0.050134399           12 
 4459000   0.54502576   -3.2160853    2736.7035  0.051145689  0.050123185            6 
 4460000   0.54123457   -3.2259067    2744.9614  0.051288517  0.050112032            8 
 4461000   0.54296784   -3.2254999    2743.0156  0.051240672   0.05010087           22 
 4462000   0.54182995   -3.2158342    2734.9229  0.051078047  0.050089721            9 
 4463000    0.5599699    -3.238441    2732.3238  0.051018071  0.050078497           19 
 4464000   0.54662742   -3.2080479    2732.9707  0.051018718  0.050067271           11 
 4465000     0.533444    -3.224967    2735.1456  0.051047883  0.050056068            7 
 4466000   0.54103037    -3.223106    2736.0322  0.051052996  0.050044896           15 
 4467000    0.5367351    -3.205553    2739.2185  0.051101009  0.050033746            8 
 4468000   0.54582986   -3.2364248    2735.8867  0.051027431  0.050022578           16 
 4469000   0.53162207   -3.2137824    2740.3218  0.051098713  0.050011353           15 
 4470000   0.52628238   -3.2202357    2736.9685  0.051024766  0.050000128            8 
 4471000    0.5223289   -3.2228603    2727.3303  0.050833711  0.049988884           14 
 4472000   0.53191896   -3.1995018    2740.2172  0.051062485  0.049977712            8 
 4473000   0.53663355   -3.2299624    2734.5396  0.050945293  0.049966473            7 
 4474000   0.53377152   -3.2381612    2728.0793  0.050813576  0.049955211           10 
 4475000   0.52408609   -3.2439038    2734.0192  0.050912834  0.049943924            5 
 4476000   0.53217222   -3.2126045    2738.3614  0.050982302  0.049932695           11 
 4477000   0.52221214   -3.2377578    2730.3858  0.050822458  0.049921457           19 
 4478000   0.52644672   -3.2368736    2731.9928  0.050841015  0.049910211            7 
 4479000   0.53514382   -3.2364086    2731.5803   0.05082199  0.049899006           20 
 4480000    0.5369539   -3.2195041    2739.0726   0.05095001  0.049887813            7 
 4481000   0.54059747   -3.2383241     2732.483  0.050816094  0.049876604           28 
 4482000   0.53249217   -3.2284971    2738.6742  0.050919868  0.049865467            7 
 4483000   0.53905534   -3.2382688    2730.1433  0.050749931  0.049854245           15 
 4484000   0.53708399   -3.2245255    2736.6648  0.050859812  0.049842999           25 
 4485000   0.53571065   -3.2303695    2736.1711  0.050839299  0.049831819            7 
 4486000   0.52761055   -3.2411285     2733.344   0.05077545   0.04982063           11 
 4487000   0.52687943   -3.2206268    2739.3605  0.050875872  0.049809461            9 
 4488000   0.52168584   -3.2278989     2734.768  0.050779263  0.049798248           28 
 4489000   0.52924655   -3.2509282    2735.8332  0.050787726  0.049787049           12 
 4490000   0.53588071   -3.2183645     2744.269  0.050932981  0.049775909           11 
 4491000   0.53704263   -3.2195747    2745.2134  0.050939164   0.04976478           13 
 4492000   0.53376439   -3.2404694    2732.2297  0.050686957  0.049753652            7 
 4493000   0.53861364    -3.237231    2739.7187  0.050814576  0.049742514           11 
 4494000   0.52924632   -3.2530106    2737.5475  0.050763008  0.049731308            7 
 4495000    0.5196411   -3.2552005    2735.8714  0.050720642  0.049720132           12 
 4496000   0.53619754   -3.2387433    2742.4612  0.050831503  0.049708967           11 
 4497000    0.5292996   -3.2468212    2742.9317  0.050828917  0.049697831           12 
 4498000   0.53107984    -3.247735    2734.2076  0.050655987  0.049686715           11 
 4499000   0.52788459   -3.2402348    2739.5273  0.050743264  0.049675618           15 
 4500000    0.5317185   -3.2346601    2741.2223  0.050763375    0.0496645            6 
 4501000   0.53085429    -3.215218    2737.0946  0.050675676   0.04965339           12 
 4502000   0.51937614   -3.2482332    2729.7726  0.050528888  0.049642284           24 
 4503000   0.52851734   -3.2474483    2736.9893  0.050651219  0.049631179           11 
 4504000    0.5379144   -3.2330125    2740.9431  0.050713127   0.04962008            4 
 4505000   0.53567061   -3.2176505    2732.7394  0.050550118  0.049608966           15 
 4506000   0.52229364   -3.2469112    2741.6993  0.050704604  0.049597875           15 
 4507000   0.52714276   -3.2409272    2740.0475  0.050662811  0.049586764            5 
 4508000   0.52990907   -3.2548938    2735.9317   0.05057549  0.049575582            7 
 4509000   0.53122798   -3.2247384    2739.3271  0.050627026  0.049564494            6 
 4510000   0.53178695   -3.2488623    2741.2486  0.050651305  0.049553419           10 
 4511000     0.524759   -3.2536394    2735.8163  0.050539723  0.049542321           16 
 4512000   0.53101551   -3.2333208    2740.0152  0.050606073  0.049531223           12 
 4513000   0.52647026    -3.230357    2737.5009  0.050548433   0.04952006           12 
 4514000   0.54237741   -3.2308372    2746.5182  0.050703703  0.049508983            5 
 4515000   0.53279849   -3.2380103    2745.2292  0.050668682  0.049497961           14 
 4516000   0.53789441   -3.2526028    2742.8383  0.050613342  0.049486881           18 
 4517000   0.51797081   -3.2266333    2737.7253  0.050507809  0.049475796            9 
 4518000   0.53432374   -3.2543759    2740.5075  0.050547947  0.049464726           11 
 4519000   0.51908679   -3.2365316    2748.9378  0.050692222  0.049453709           13 
 4520000    0.5314687   -3.2313577    2740.3387  0.050522469   0.04944266           12 
 4521000   0.52860498   -3.2498492    2745.5242  0.050606875  0.049431591           11 
 4522000   0.52682063   -3.2261747    2740.8235  0.050509057  0.049420614           10 
 4523000   0.52911894   -3.2461305    2746.5533  0.050603459  0.049409603           12 
 4524000   0.52082313   -3.2300106    2745.1229  0.050565924  0.049398642            8 
 4525000   0.53839246   -3.2519588    2743.4158  0.050523312  0.049387623           11 
 4526000   0.51602713   -3.2317013    2740.7737  0.050463502    0.0493766            7 
 4527000   0.52688685    -3.235511    2742.1224  0.050477181  0.049365651           28 
 4528000   0.52464076   -3.2541923    2741.3537  0.050451887   0.04935462            9 
 4529000   0.52802066   -3.2477864    2746.5786  0.050536885  0.049343576            9 
 4530000   0.52807568   -3.2132087    2743.3208  0.050465798  0.049332648            3 
 4531000   0.52779745   -3.2427602    2748.0144  0.050540984  0.049321703           15 
 4532000   0.53585338   -3.2364006    2745.3804  0.050481399  0.049310692           10 
 4533000   0.51478447   -3.2492047    2734.8753  0.050277139  0.049299703            9 
 4534000   0.51459208   -3.2576375    2748.5887  0.050518099  0.049288628           14 
 4535000   0.53069787    -3.237086    2746.0944  0.050461125  0.049277626           12 
 4536000   0.52349708   -3.2661969     2742.439  0.050382844  0.049266643           12 
 4537000   0.52343256   -3.2446422    2749.8513  0.050507886  0.049255629           14 
 4538000   0.51904178   -3.2549801    2742.5792  0.050363214  0.049244624           17 
 4539000    0.5292046   -3.2449132    2747.6007   0.05044431  0.049233647           11 
 4540000   0.52064129   -3.2649731    2742.7642  0.050344424  0.049222667           11 
 4541000   0.52297073   -3.2465045    2744.9798  0.050373996  0.049211691           25 
 4542000   0.52039756   -3.2416915    2739.8972  0.050269654  0.049200736            9 
 4543000   0.51188208   -3.2502258    2744.8453  0.050349352  0.049189759           20 
 4544000   0.52597256   -3.2525001    2748.2309  0.050400361  0.049178762           11 
 4545000   0.53102827   -3.2393064    2739.7849  0.050234413  0.049167693           16 
 4546000   0.52006661   -3.2563097    2736.7611  0.050167934  0.049156689           23 
 4547000   0.51666092   -3.2627895    2738.0963  0.050181371  0.049145655           12 
 4548000   0.51996732   -3.2572984    2743.0672  0.050261419  0.049134591           13 
 4549000   0.52979533   -3.2415471    2739.6472   0.05018772  0.049123585           15 
 4550000   0.53076532   -3.2439309    2736.3141  0.050115643  0.049112594           11 
 4551000   0.51131878     -3.24255    2736.0609  0.050099995  0.049101552            9 
 4552000    0.5319286   -3.2436626    2740.0411  0.050161853  0.049090531           10 
 4553000   0.52258868   -3.2476836    2739.8748  0.050147793  0.049079509           15 
 4554000   0.51597467   -3.2406335    2734.7364  0.050042754  0.049068415           13 
 4555000   0.52036383   -3.2468107    2745.0065  0.050219659    0.0490574           10 
 4556000   0.53793192   -3.2455533    2751.8723  0.050334217  0.049046389            4 
 4557000   0.51553648   -3.2531293    2741.8904  0.050140633  0.049035407           16 
 4558000   0.51767696   -3.2598609    2744.7046  0.050181085  0.049024422           11 
 4559000   0.53088917   -3.2425711    2737.4513  0.050037495  0.049013355           19 
 4560000   0.51545708   -3.2569719    2743.4523  0.050136189  0.049002244            7 
 4561000   0.52304727    -3.234947    2745.7349  0.050166902   0.04899123            7 
 4562000   0.51403154   -3.2286826    2745.0664  0.050143694  0.048980222           13 
 4563000   0.51821127   -3.2441413    2741.4311  0.050066314  0.048969277           10 
 4564000   0.51519364   -3.2614717      2745.17  0.050123612  0.048958271            7 
 4565000   0.51971162   -3.2394595    2749.2394  0.050186918  0.048947279            8 
 4566000   0.52838344   -3.2371036    2743.5867   0.05007276  0.048936305           11 
 4567000   0.51351272   -3.2466532    2741.0434   0.05001539  0.048925304            8 
 4568000    0.5340254   -3.2553118    2738.6768  0.049961267  0.048914318           12 
 4569000   0.52615597   -3.2482156    2738.7398  0.049951481  0.048903351           11 
 4570000    0.5151267   -3.2504568     2741.591  0.049992543  0.048892413           12 
 4571000    0.5027261   -3.2551674    2744.0158  0.050025811  0.048881436           17 
 4572000   0.50892724   -3.2532478    2744.0887  0.050016198  0.048870412           15 
 4573000   0.52347097   -3.2793125     2742.275  0.049972209  0.048859366           13 
 4574000   0.52404091   -3.2653219     2746.632  0.050040665  0.048848308           46 
 4575000   0.50933477   -3.2721493    2746.6489  0.050030034  0.048837298           10 
 4576000   0.52563217   -3.2604309    2736.9991   0.04984337  0.048826282           20 
 4577000   0.52886713   -3.2673808    2746.7297  0.050009644  0.048815224           23 
 4578000   0.53547011   -3.2570365     2741.265  0.049899247  0.048804253           11 
 4579000   0.51525746   -3.2639639    2745.9849  0.049974246  0.048793288           16 
 4580000   0.52215194   -3.2642006    2741.8789  0.049888626  0.048782351           15 
 4581000   0.50472541   -3.2551234     2741.112  0.049863785  0.048771346            5 
 4582000   0.51780283   -3.2415956    2750.8106  0.050029293   0.04876037           23 
 4583000   0.52577934   -3.2644341    2747.1271  0.049951399  0.048749432            9 
 4584000   0.52811983   -3.2536596    2735.8394    0.0497353  0.048738444           23 
 4585000   0.51320785   -3.2558117    2736.6258  0.049738745  0.048727448           22 
 4586000   0.51725234   -3.2559308    2739.3289  0.049777019  0.048716473           16 
 4587000   0.52023661   -3.2483161    2749.4355  0.049949776   0.04870554            9 
 4588000   0.51968716   -3.2519809    2747.9711  0.049912291  0.048694641            8 
 4589000   0.52007109    -3.246206    2741.4912  0.049783743  0.048683758            7 
 4590000   0.51155291   -3.2642337    2741.7196  0.049777044  0.048672832           15 
 4591000   0.51830601   -3.2480507    2733.5157  0.049617289   0.04866184            8 
 4592000    0.5154749   -3.2435518    2743.5548  0.049788668  0.048650866           10 
 4593000   0.52517872   -3.2618408    2738.0292  0.049677574   0.04863987            8 
 4594000   0.51878292   -3.2603515    2737.5809  0.049658628  0.048628938           18 
 4595000   0.52336585   -3.2450677    2743.8606  0.049761709  0.048617975           20 
 4596000   0.50678918   -3.2639656    2745.2154  0.049775446  0.048607044            9 
 4597000    0.5071715   -3.2529286    2745.0414  0.049761465  0.048596129            9 
 4598000   0.51520317   -3.2638905     2746.575  0.049778437  0.048585183           13 
 4599000   0.51531982   -3.2727876    2742.8055  0.049699309  0.048574206           17 
 4600000   0.51150876   -3.2722674    2740.6827   0.04965005  0.048563237           35 
 4601000   0.51444058    -3.262772    2741.0945  0.049646716   0.04855224            6 
 4602000   0.51588262   -3.2618515    2740.0226  0.049616518  0.048541277           23 
 4603000   0.51652839   -3.2777663    2745.4205  0.049703462  0.048530318           18 
 4604000   0.51198137   -3.2560953    2749.2176  0.049761396  0.048519332           13 
 4605000   0.51869077   -3.2835519    2738.4524  0.049555779  0.048508309           34 
 4606000   0.51480874    -3.258916    2738.3969  0.049544017  0.048497291           21 
 4607000   0.50660812   -3.2501657    2739.9268  0.049560936  0.048486293           16 
 4608000    0.5045089   -3.2703006    2749.2465  0.049718723  0.048475291            7 
 4609000   0.51229988   -3.2753731    2741.6769  0.049571072  0.048464345            6 
 4610000   0.51284423   -3.2595778     2742.144  0.049568764  0.048453364            9 
 4611000   0.52088777    -3.261193    2738.7469  0.049496619  0.048442362            8 
 4612000   0.52011983   -3.2569841     2738.701  0.049485056  0.048431357            9 
 4613000   0.51883956   -3.2638814    2742.7377  0.049547252  0.048420402           10 
 4614000   0.51213225   -3.2742631    2743.5991  0.049552071  0.048409434           15 
 4615000    0.5137819   -3.2585295    2743.2755  0.049535491  0.048398475            5 
 4616000   0.50656181   -3.2620595     2741.393  0.049490775  0.048387539           29 
 4617000   0.51012978   -3.2651249    2741.3773  0.049479773  0.048376599           10 
 4618000   0.50832999   -3.2640535    2735.1195  0.049356134  0.048365628           21 
 4619000   0.51578807   -3.2606694     2747.868  0.049575449  0.048354702           17 
 4620000    0.5124045   -3.2695794    2742.9453  0.049475926   0.04834373           22 
 4621000   0.51841556    -3.257929     2744.215  0.049488115  0.048332789           17 
 4622000   0.52033141   -3.2775246    2745.9127  0.049508018  0.048321875           19 
 4623000   0.51606059    -3.270893    2742.7355  0.049440037  0.048310944            6 
 4624000   0.50839902   -3.2649268    2743.1526  0.049436863  0.048299941            5 
 4625000   0.50332404   -3.2761003    2746.2376  0.049481758  0.048288915           15 
 4626000   0.50243199   -3.2833152    2734.7219  0.049263617  0.048277857           11 
 4627000   0.51676086   -3.2707812    2748.7378  0.049505399  0.048266807           17 
 4628000   0.50373088   -3.2900556    2738.8164  0.049316054  0.048255775           17 
 4629000   0.50807795   -3.2729875    2736.3435  0.049260883  0.048244727           23 
 4630000   0.51474208   -3.2862731    2744.1347  0.049390473  0.048233673            6 
 4631000   0.50248169   -3.2619638    2734.8623  0.049212955  0.048222602           16 
 4632000   0.50924772   -3.2700933    2737.1639  0.049243737  0.048211554           16 
 4633000   0.51441352    -3.291042    2754.8597  0.049551401  0.048200512           10 
 4634000   0.51892182   -3.2874948    2740.9639  0.049290819  0.048189458            6 
 4635000    0.5165588   -3.2712197    2747.5045  0.049397779  0.048178464           25 
 4636000   0.51455333   -3.2758459    2738.9275  0.049232951  0.048167515           29 
 4637000   0.52336137   -3.2858092    2744.8433  0.049328649  0.048156555           13 
 4638000   0.50585919    -3.269623    2740.1303  0.049233332  0.048145556           14 
 4639000   0.51329782   -3.2720826    2738.8734   0.04920014  0.048134538           12 
 4640000    0.5070543   -3.2667737    2742.7527  0.049259208  0.048123585           10 
 4641000   0.52238345   -3.2582886    2736.9863  0.049145052  0.048112634           21 
 4642000   0.50452935   -3.2523141    2740.0811  0.049190023  0.048101623            8 
 4643000   0.51035503    -3.254431    2739.0677  0.049161241  0.048090688            8 
 4644000   0.51342088   -3.2706779    2743.6701  0.049233241   0.04807972           17 
 4645000   0.50723338   -3.2559685    2743.6348  0.049222009  0.048068698           11 
 4646000   0.50961478   -3.2779415    2744.8314  0.049232877  0.048057713            9 
 4647000   0.50947277   -3.2767173    2741.2692  0.049158402  0.048046697           14 
 4648000   0.50045381   -3.2795902    2744.8942  0.049212819  0.048035721           20 
 4649000   0.51746161   -3.2719362    2738.5189  0.049087957  0.048024748           16 
 4650000   0.50841898   -3.2621564    2746.1186  0.049213595   0.04801387           13 
 4651000    0.4994643   -3.2767633    2747.6906   0.04923118  0.048002905           19 
 4652000   0.50533636   -3.2749176    2738.4026  0.049054218  0.047991954           12 
 4653000   0.51631223   -3.2786505    2742.2506  0.049112591  0.047981028           16 
 4654000   0.50059757   -3.2720355    2740.0246   0.04906218  0.047970068           26 
 4655000   0.50918846   -3.2730398    2738.2685  0.049020201   0.04795914           11 
 4656000     0.506254   -3.2973648    2737.7414   0.04900024   0.04794815           12 
 4657000   0.50658966   -3.2799537     2730.734  0.048864326  0.047937169           15 
 4658000   0.50900829   -3.2776426     2735.925  0.048946704  0.047926188           24 
 4659000   0.50884364   -3.2804501    2737.2344   0.04895962  0.047915117           24 
 4660000   0.51912157   -3.2822056    2751.4865  0.049203979  0.047904128           15 
 4661000   0.50336238   -3.2698098    2750.0255  0.049167301  0.047893197           22 
 4662000   0.51008956   -3.2817668    2743.3787  0.049037944  0.047882303           10 
 4663000   0.50065052   -3.2660694    2744.6472  0.049050096  0.047871357           13 
 4664000   0.49632115    -3.272592    2745.8331  0.049060769  0.047860417           17 
 4665000   0.50497106   -3.2737439    2742.3249  0.048987584  0.047849464            8 
 4666000    0.5052031   -3.2744647    2740.8901  0.048951459  0.047838463           27 
 4667000   0.51026444   -3.2729381    2740.1203  0.048927225   0.04782749            6 
 4668000   0.51426019   -3.2922752    2734.0354  0.048808116  0.047816494           12 
 4669000   0.51341768   -3.2883185    2735.0574  0.048815902  0.047805545           20 
 4670000   0.49643262   -3.2820336    2744.7853  0.048979038  0.047794612           17 
 4671000   0.49422926   -3.2905034    2745.0547  0.048973358  0.047783654           23 
 4672000   0.50150982   -3.2721168    2744.3248  0.048949858  0.047772674           12 
 4673000   0.50706168   -3.2988429    2737.5233  0.048818092  0.047761707           22 
 4674000   0.50657243   -3.2809556    2741.0388  0.048870326  0.047750771           15 
 4675000   0.50426344   -3.2700944    2738.1162  0.048807776   0.04773983           16 
 4676000   0.50927158   -3.2790808    2741.2466  0.048853126  0.047728879           14 
 4677000    0.5127314   -3.2741017    2738.0681  0.048786046  0.047717923           11 
 4678000   0.49517105   -3.2786634    2737.7936  0.048770728  0.047706957            9 
 4679000   0.50008878   -3.2768171    2737.3505  0.048752414  0.047696049           10 
 4680000   0.50380656   -3.2882872    2744.2109  0.048864155   0.04768515            9 
 4681000   0.50363305   -3.2785506    2748.3676  0.048927715  0.047674224            6 
 4682000   0.51324813   -3.2835386    2743.4965  0.048830565  0.047663314           11 
 4683000   0.49213328   -3.2855456    2751.8268  0.048968375  0.047652412           11 
 4684000   0.51046306   -3.2840369    2742.2069  0.048786773  0.047641502           29 
 4685000    0.5132618    -3.286683    2742.2393  0.048776936  0.047630559           21 
 4686000   0.49729475   -3.2930383    2741.2986  0.048749796   0.04761964           15 
 4687000   0.49131574   -3.2916067    2739.0659    0.0486997  0.047608721           19 
 4688000    0.5027727   -3.2919491    2745.6051  0.048805551  0.047597814           12 
 4689000   0.50049688   -3.3001329    2741.4448  0.048721206   0.04758692           11 
 4690000   0.50408809   -3.2781376     2744.881  0.048771872  0.047575993           19 
 4691000   0.50646388   -3.2929379    2748.0652  0.048818042  0.047565078           28 
 4692000   0.50763909   -3.2824568    2742.8228  0.048714529  0.047554235           10 
 4693000   0.50100432   -3.2940962    2741.5518  0.048681579  0.047543353           22 
 4694000   0.49103585   -3.2887314    2745.0222  0.048732819  0.047532476           17 
 4695000   0.50443873   -3.2782081    2743.9596  0.048703578  0.047521626           18 
 4696000   0.50608412   -3.2689731    2748.4896  0.048773594    0.0475108            8 
 4697000   0.50353595   -3.2717048    2749.7692  0.048785914  0.047500011           11 
 4698000   0.49793913   -3.2855644    2746.6128  0.048719539  0.047489204           11 
 4699000   0.50253533   -3.2785322     2747.542   0.04872565  0.047478415           10 
 4700000   0.49328938    -3.280689    2748.9398  0.048740067  0.047467603            7 
 4701000   0.49850912   -3.2746965     2748.922  0.048729384   0.04745677           12 
 4702000   0.49453821   -3.2747763    2755.5659   0.04883677  0.047445947           17 
 4703000   0.49543282   -3.2797879    2745.5411  0.048648754   0.04743514           17 
 4704000   0.49881118   -3.2878373    2746.1353   0.04864894  0.047424325           30 
 4705000   0.50642445   -3.2799303    2743.4809  0.048591586  0.047413457           26 
 4706000   0.50221849   -3.2891493    2742.5122  0.048564105  0.047402655           32 
 4707000   0.49452852   -3.2841444    2747.4999  0.048642091  0.047391852           10 
 4708000   0.49190689   -3.2878911    2741.1892  0.048520059  0.047381074           18 
 4709000   0.49303646   -3.2937719    2743.6944  0.048554089  0.047370229           21 
 4710000    0.5121213   -3.3015401    2747.6507  0.048613777  0.047359451            8 
 4711000   0.50412534   -3.2988789    2745.7304   0.04856949  0.047348637            6 
 4712000    0.4950803   -3.3011172     2746.023  0.048564357   0.04733784           21 
 4713000   0.50621665   -3.3052085     2744.397  0.048525303  0.047326996           16 
 4714000   0.50170391   -3.2944745     2745.858  0.048540835    0.0473162            9 
 4715000   0.50215234   -3.2987702    2745.9036  0.048531347  0.047305411           19 
 4716000   0.49487244   -3.3002445    2743.6497  0.048481228  0.047294625           13 
 4717000   0.49425003   -3.3193158    2744.8954  0.048492958  0.047283792           35 
 4718000   0.49144228   -3.3063872    2738.9023  0.048376825  0.047272942           12 
 4719000   0.49776143   -3.3050299    2742.4817  0.048429782  0.047262059           15 
 4720000   0.49207672   -3.3070803    2751.8455  0.048584842  0.047251244           14 
 4721000   0.49872725   -3.2849773    2741.2969  0.048388352  0.047240432            7 
 4722000   0.49898403   -3.2850386    2751.7938  0.048563353  0.047229624           19 
 4723000   0.48887927   -3.2816543    2746.4465  0.048458722  0.047218816           16 
 4724000    0.5091694   -3.3058927    2746.8087  0.048454853   0.04720802           35 
 4725000   0.48547576   -3.2939051     2745.369  0.048419206  0.047197244            7 
 4726000   0.48668993   -3.2940003    2753.1148  0.048545543  0.047186495           22 
 4727000   0.49393766    -3.303239    2749.7867    0.0484766  0.047175669           31 
 4728000    0.4957941   -3.2826816    2744.7944  0.048378357  0.047164899           24 
 4729000   0.50394836   -3.2983634    2747.0223  0.048407385  0.047154115           53 
 4730000   0.49778709   -3.3008743    2749.6579  0.048443586  0.047143315           20 
 4731000   0.49783777   -3.3069274    2741.4658  0.048289047  0.047132457           21 
 4732000    0.4921557   -3.2903995    2739.9637   0.04825239  0.047121617           22 
 4733000   0.48572337   -3.3004621    2745.4544   0.04833887  0.047110844           11 
 4734000   0.48649691   -3.2896972    2745.6758  0.048332555   0.04710007           23 
 4735000   0.49091274   -3.2932036    2744.7844  0.048306659  0.047089289           21 
 4736000   0.48954387   -3.3157605     2748.087  0.048354571  0.047078482           14 
 4737000   0.49189994   -3.3052791    2744.2875  0.048277522  0.047067719           11 
 4738000   0.49220283   -3.2921709    2750.4377  0.048375505   0.04705695           15 
 4739000   0.49859312   -3.2912834    2737.3495  0.048135147  0.047046185           14 
 4740000   0.49396732    -3.284236    2744.9437  0.048258504  0.047035409           10 
 4741000   0.49624746   -3.2797841    2749.9591  0.048336481  0.047024639           27 
 4742000   0.49227105   -3.2915789    2745.9548  0.048255918  0.047013857           14 
 4743000   0.48619592   -3.2986522    2747.0766  0.048265455  0.047003114           13 
 4744000   0.48586343   -3.2851079    2743.0317  0.048184228  0.046992366           17 
 4745000    0.4805716   -3.3115316    2744.2495   0.04819546    0.0469816           16 
 4746000   0.49845223   -3.2940741     2740.701  0.048122998  0.046970857           10 
 4747000   0.50406906   -3.2989795    2747.2588  0.048227983  0.046960065            9 
 4748000   0.50717764   -3.2982613    2749.1243  0.048250567  0.046949288           12 
 4749000   0.48804641     -3.30144    2750.4735  0.048264082  0.046938527           12 
 4750000    0.4978983   -3.3003204     2750.155  0.048248334  0.046927779           17 
 4751000   0.49539294   -3.3004549    2747.7561  0.048196102  0.046917017           17 
 4752000   0.49476098   -3.3088185    2749.8924  0.048223422   0.04690625           19 
 4753000   0.49944881   -3.3111311     2743.378  0.048099061  0.046895481            9 
 4754000   0.48931084   -3.2931896    2747.9877  0.048169746  0.046884729           26 
 4755000   0.49411818    -3.313347    2746.9904  0.048142137  0.046874004           25 
 4756000   0.49170583   -3.3031953    2746.9288  0.048130937  0.046863256           58 
 4757000   0.48588529   -3.2961382    2745.3846  0.048093767  0.046852481           15 
 4758000   0.49005303   -3.3092907    2740.0434  0.047990111  0.046841691            7 
 4759000   0.49578357   -3.3014283    2752.3255  0.048195095  0.046830912            6 
 4760000   0.48595224   -3.2995765    2744.5816  0.048049398  0.046820155           13 
 4761000   0.50188613   -3.2898877    2751.7491   0.04816476  0.046809436           18 
 4762000   0.50030328   -3.3102233    2750.0429  0.048124788  0.046798695           14 
 4763000    0.4800004   -3.3052447    2751.8247  0.048145859  0.046787951           23 
 4764000    0.4928053   -3.2882721    2750.4877  0.048112365  0.046777213           18 
 4765000   0.48952211   -3.3121337    2753.7264  0.048158909    0.0467665           21 
 4766000   0.47711148   -3.2987164    2752.8086  0.048132756  0.046755809           15 
 4767000    0.4861105    -3.312882    2750.2855  0.048078552  0.046745137           12 
 4768000   0.48774054   -3.3049104    2749.9509   0.04806262  0.046734459           27 
 4769000    0.4871449   -3.3021302     2742.886  0.047929091  0.046723759           21 
 4770000   0.48940228   -3.2850904    2746.5614  0.047983253   0.04671306           14 
 4771000    0.4883151    -3.303946    2752.9042  0.048083982  0.046702363           24 
 4772000   0.48545721   -3.3195773    2744.6079  0.047929029  0.046691669           14 
 4773000   0.48346226   -3.3108126    2747.1369  0.047963142   0.04668094           18 
 4774000   0.48053472   -3.3128458    2753.3015  0.048060703   0.04667021           23 
 4775000   0.48836051   -3.3220235    2746.9364  0.047939554  0.046659502            9 
 4776000   0.48959451   -3.3215738    2751.2823  0.048005345  0.046648805            9 
 4777000   0.47892055   -3.2798855    2746.5349  0.047912478  0.046638136           15 
 4778000   0.48365217   -3.2922052    2749.5324   0.04795473  0.046627474           11 
 4779000   0.49677669   -3.3035862    2743.1625  0.047833621  0.046616805           14 
 4780000   0.48538451   -3.2992561    2751.6622  0.047971796  0.046606108           23 
 4781000   0.48041475   -3.2991344    2743.3359  0.047816633  0.046595419           16 
 4782000   0.48455722   -3.2969544    2748.3791   0.04789452  0.046584739            9 
 4783000   0.48853061   -3.3269148     2748.998   0.04789529  0.046574024           10 
 4784000   0.48412539   -3.3057267    2745.2756  0.047820437  0.046563268           10 
 4785000   0.48526666   -3.3098014     2750.424  0.047900104  0.046552578           17 
 4786000   0.48363888   -3.3038893    2746.3821   0.04781972  0.046541896           22 
 4787000   0.48134535   -3.3144311    2744.1955  0.047771664  0.046531232           20 
 4788000   0.48651081   -3.3189959    2750.7473  0.047875719  0.046520557           13 
 4789000   0.49058886   -3.3074773    2738.6779  0.047655703   0.04650986           18 
 4790000   0.47847009    -3.314132    2745.2886  0.047760761  0.046499172           16 
 4791000    0.4823436   -3.3225163    2754.5294  0.047911525  0.046488505           14 
 4792000    0.4775595   -3.3224151    2748.2198  0.047791802  0.046477817            9 
 4793000   0.47885055     -3.31702    2741.2303  0.047660309  0.046467108           20 
 4794000   0.48400777   -3.3130305    2744.2093   0.04770215  0.046456368           51 
 4795000   0.47466685   -3.3140411    2748.7893  0.047771799  0.046445668           19 
 4796000   0.47464738    -3.307407    2752.0265  0.047818086  0.046434924            9 
 4797000   0.48605527   -3.3153316    2743.7376  0.047664123  0.046424187           20 
 4798000   0.49418569   -3.3125309    2750.0368  0.047763596  0.046413447           46 
 4799000   0.48910551   -3.3236144     2746.621  0.047694329  0.046402788           30 
 4800000    0.4955696    -3.301272    2747.4529  0.047698835  0.046392084           11 
 4801000   0.49681462   -3.3133035    2744.8914  0.047644439  0.046381356           32 
 4802000    0.4767089   -3.3339667    2746.3136  0.047659198  0.046370585           31 
 4803000   0.48469605   -3.3264799    2741.3216  0.047562663  0.046359811           14 
 4804000   0.49113877   -3.3260393    2744.7397  0.047612054  0.046349102            7 
 4805000   0.47579247   -3.3156723    2751.1614  0.047713517  0.046338415           13 
 4806000    0.4708337   -3.3151694    2750.0667  0.047684608  0.046327744           14 
 4807000   0.48345835   -3.3241528    2750.3297  0.047679248  0.046317014           10 
 4808000   0.48632854   -3.3115664    2749.7676  0.047659587  0.046306271           30 
 4809000   0.48481404   -3.3209225     2745.463  0.047575085  0.046295548           21 
 4810000   0.48468145   -3.3268115    2746.0654  0.047575631  0.046284861           20 
 4811000   0.47162568   -3.2948084     2752.542  0.047677925   0.04627424           16 
 4812000   0.48084802   -3.3243666    2748.9728  0.047606207   0.04626363            9 
 4813000   0.48675487   -3.3165907    2747.2691  0.047566818  0.046252927           15 
 4814000   0.48826984   -3.3147765    2745.5348  0.047526915  0.046242258           16 
 4815000   0.48127251   -3.3077206    2746.0845  0.047526557  0.046231594           16 
 4816000   0.48121341   -3.3305164     2742.873  0.047461119  0.046220896           29 
 4817000   0.48123302   -3.3206671    2749.2835  0.047562167  0.046210153            9 
 4818000   0.48327182   -3.3249432    2749.7718   0.04756074  0.046199486           12 
 4819000   0.46808935   -3.3170498    2751.6538  0.047583417  0.046188842            7 
 4820000   0.48141224    -3.306038    2746.9986   0.04749306  0.046178209           13 
 4821000    0.4837968   -3.3227355    2745.8941  0.047464117  0.046167494           12 
 4822000    0.4778921   -3.3253254    2742.0293  0.047387483  0.046156798           11 
 4823000   0.47165383   -3.3284024     2748.878  0.047495992  0.046146083           14 
 4824000   0.48937741   -3.3356844    2748.7701  0.047484281  0.046135381           30 
 4825000   0.47505275   -3.3214649    2744.8948   0.04740751  0.046124662           65 
 4826000   0.48958577   -3.3323899    2743.9183  0.047380824  0.046113934           65 
 4827000   0.48785577   -3.3258086    2745.5763  0.047399633  0.046103283           41 
 4828000   0.48627594   -3.3320331    2747.4506  0.047422165  0.046092606           34 
 4829000   0.48686633   -3.3406495    2745.9903  0.047387146  0.046081876           11 
 4830000   0.47849937   -3.3078167     2745.266  0.047364838  0.046071205           25 
 4831000   0.48225507   -3.3259101    2748.2042  0.047405716  0.046060549           12 
 4832000   0.49309867   -3.3245332    2746.5333  0.047367089  0.046049899           14 
 4833000   0.47666477   -3.3306675     2744.345  0.047319556  0.046039221           16 
 4834000   0.47372483   -3.3300562    2739.9356  0.047233754  0.046028519           16 
 4835000   0.48159189   -3.3268933    2742.5565  0.047269158  0.046017815           28 
 4836000   0.48422217   -3.3235997    2743.7014  0.047279111  0.046007133           16 
 4837000   0.48933398   -3.3161293     2738.688  0.047182965  0.045996431           13 
 4838000   0.47735168   -3.3142162    2748.2968  0.047338721  0.045985707           64 
 4839000    0.4829337   -3.3206938    2752.2638  0.047397255  0.045975068           21 
 4840000   0.48147659   -3.3342492    2745.9898  0.047279439  0.045964393           12 
 4841000   0.49060113   -3.3381022    2748.5957   0.04731453  0.045953699           17 
 4842000   0.46979687   -3.3165652    2745.4599   0.04725079  0.045943049           34 
 4843000   0.47802027   -3.3112004    2751.2392  0.047340478  0.045932406           11 
 4844000   0.47252559   -3.3189941    2741.4853  0.047162904   0.04592176           14 
 4845000   0.47621337   -3.3271675    2739.9977  0.047127583  0.045911138           16 
 4846000   0.47077774    -3.321391    2744.9343   0.04720275  0.045900474           28 
 4847000   0.46936653   -3.3402494    2747.3222  0.047234066  0.045889806           26 
 4848000   0.48072975   -3.3483443    2747.3195  0.047224276  0.045879096           35 
 4849000   0.47874072   -3.3267316    2747.3025  0.047214246  0.045868456           22 
 4850000   0.48041493   -3.3392373    2747.1369  0.047201666  0.045857785           19 
 4851000    0.4772353   -3.3336497    2739.6346  0.047063055  0.045847114           20 
 4852000   0.46860477   -3.3344601    2749.3265  0.047219815  0.045836471           11 
 4853000   0.48165279   -3.3376325    2745.1168  0.047137798  0.045825827           19 
 4854000   0.47349087   -3.3275433    2745.7998  0.047139813  0.045815222           14 
 4855000   0.48798099   -3.3332227    2744.7439  0.047111978  0.045804566           11 
 4856000   0.47774405   -3.3369275    2747.3097  0.047146308  0.045793908           20 
 4857000   0.47179445    -3.326613    2743.9141  0.047078342  0.045783307           21 
 4858000   0.48577101   -3.3251942    2754.2333  0.047245666  0.045772698           12 
 4859000   0.47104032   -3.3436212    2744.8171  0.047074451  0.045762062           21 
 4860000   0.47878235   -3.3458473    2750.6188  0.047164246  0.045751397           42 
 4861000    0.4687066   -3.3290916    2744.3005  0.047046227  0.045740767           21 
 4862000   0.47325531   -3.3271992    2754.4726  0.047210898  0.045730149           23 
 4863000   0.47988684   -3.3291251    2749.9754  0.047124124  0.045719517           48 
 4864000   0.47399694   -3.3583368    2742.8682   0.04699267   0.04570885           19 
 4865000   0.47460199   -3.3386569    2741.8539  0.046965637  0.045698192           24 
 4866000   0.47499065   -3.3423172    2748.8448  0.047075708  0.045687545           13 
 4867000   0.46410642   -3.3448295    2745.7036  0.047012253  0.045676894           28 
 4868000   0.47240617   -3.3382581    2745.4654  0.046998518   0.04566622           30 
 4869000   0.46964342   -3.3395489    2745.0958  0.046982539  0.045655528           13 
 4870000   0.47525293   -3.3447818    2746.8293  0.047002554  0.045644851           22 
 4871000   0.48062561   -3.3339178    2742.8051  0.046924059  0.045634192           17 
 4872000   0.46103935    -3.331587    2753.1303  0.047091035  0.045623561           28 
 4873000   0.47987482   -3.3380736    2745.8206  0.046956368  0.045612898           31 
 4874000   0.47483947   -3.3443967    2737.0103    0.0467961  0.045602241           27 
 4875000   0.47703284   -3.3359819    2743.9892  0.046905799   0.04559159           16 
 4876000   0.46527073   -3.3317112    2748.5096  0.046973435  0.045580964           30 
 4877000   0.47141133   -3.3363358    2749.9173  0.046987857  0.045570334           24 
 4878000     0.481307   -3.3433988    2746.1663  0.046914143  0.045559701           20 
 4879000   0.46444137   -3.3243293     2742.885  0.046848483  0.045549061           22 
 4880000   0.46865274   -3.3221945     2743.743  0.046853535  0.045538434           21 
 4881000   0.47183418   -3.3303155     2745.818  0.046879363  0.045527824           36 
 4882000   0.46928392   -3.3264214    2746.7486  0.046885644  0.045517228           19 
 4883000   0.46598948   -3.3382697     2747.646  0.046891358  0.045506638           30 
 4884000     0.469764   -3.3454135     2754.702   0.04700215  0.045496039           26 
 4885000   0.47286101    -3.345709    2745.7314  0.046839499  0.045485449           23 
 4886000    0.4714384   -3.3321542    2747.4204  0.046858719   0.04547481            9 
 4887000   0.47327815   -3.3524201    2745.7865  0.046821269  0.045464152           36 
 4888000   0.46926922   -3.3649327    2743.0318  0.046764727  0.045453497           12 
 4889000   0.47510897   -3.3348479    2744.1563  0.046774329  0.045442852           31 
 4890000   0.47745406    -3.342935    2747.0732  0.046814471  0.045432205           14 
 4891000   0.47163652   -3.3371627    2746.2417  0.046790732  0.045421589           13 
 4892000   0.46429934   -3.3388628    2747.8175  0.046808011  0.045411029           20 
 4893000   0.46737999   -3.3461993    2747.2387  0.046788587  0.045400413           14 
 4894000   0.47405824   -3.3553456    2744.8306  0.046738023   0.04538979           20 
 4895000   0.47453487     -3.35084    2745.7984   0.04674495  0.045379163           16 
 4896000   0.46622477   -3.3465269    2745.2867  0.046726693  0.045368572           17 
 4897000   0.47369973   -3.3544651    2743.7487   0.04669098  0.045357954           31 
 4898000   0.46658547   -3.3599913     2746.436  0.046727167  0.045347314           31 
 4899000   0.45818446   -3.3445349    2741.7702  0.046638263  0.045336666           18 
 4900000   0.46482565   -3.3581694    2746.3201  0.046706124  0.045326014           11 
 4901000   0.46803363    -3.342794    2745.0757  0.046675435  0.045315374           22 
 4902000   0.47064024   -3.3416325    2750.6719  0.046761048  0.045304776           15 
 4903000    0.4660391   -3.3395442    2746.3855  0.046678657  0.045294171           25 
 4904000   0.46976998   -3.3583144    2743.3706  0.046617906  0.045283529           12 
 4905000   0.46481102   -3.3421829    2739.1722  0.046537075  0.045272921           33 
 4906000   0.47534769   -3.3390649    2743.4524  0.046600293  0.045262324           27 
 4907000   0.46560319   -3.3520318    2749.2412  0.046689104  0.045251732           18 
 4908000   0.45958285   -3.3571668     2744.868  0.046605338  0.045241097           12 
 4909000    0.4697282   -3.3448381    2752.2883  0.046721809   0.04523049           22 
 4910000   0.46499066   -3.3393776     2747.328  0.046628106  0.045219922           13 
 4911000   0.48038379   -3.3535245    2748.7546   0.04664282  0.045209379           24 
 4912000   0.47129937   -3.3456352     2737.434  0.046441267  0.045198828           10 
 4913000   0.46553745   -3.3463605    2748.3169  0.046616407  0.045188264           16 
 4914000   0.46844034   -3.3454852    2748.5564  0.046610983  0.045177724           15 
 4915000   0.46482465   -3.3547444     2745.055  0.046542134  0.045167119           24 
 4916000   0.47454399   -3.3521495    2740.9243  0.046462644  0.045156554           17 
 4917000   0.46380055   -3.3543701    2745.8467   0.04653662  0.045145969           33 
 4918000   0.46781604   -3.3568366    2745.0149  0.046513062   0.04513538           46 
 4919000   0.44571549    -3.342919    2744.9709  0.046502861  0.045124815           19 
 4920000   0.47531371   -3.3506547    2748.6616  0.046555922  0.045114249           22 
 4921000   0.46127965   -3.3465459    2743.9216  0.046466193  0.045103658           62 
 4922000    0.4703966   -3.3525325    2748.2903  0.046530717  0.045093066           50 
 4923000   0.45752075   -3.3586636    2745.4052  0.046472428  0.045082467           42 
 4924000   0.45273925   -3.3579326    2745.5666  0.046465723   0.04507189           25 
 4925000   0.46783514   -3.3474581     2740.328  0.046367648  0.045061328           50 
 4926000   0.47152851   -3.3372659    2745.6081  0.046447558   0.04505078           48 
 4927000   0.46467512   -3.3352868    2741.7682  0.046373186  0.045040267           21 
 4928000   0.46406898    -3.353034    2739.5774  0.046326728  0.045029711           38 
 4929000   0.47026149   -3.3549193    2748.6473  0.046470672  0.045019143           14 
 4930000   0.45991828   -3.3487477    2743.2351  0.046369761  0.045008605           18 
 4931000   0.45841827    -3.341237    2751.3355  0.046497254  0.044998074           22 
 4932000   0.45861192   -3.3565585    2747.1518  0.046417136  0.044987547           29 
 4933000   0.46305864   -3.3738715    2743.8475  0.046351907  0.044977004           15 
 4934000   0.45689286   -3.3496521    2740.2269  0.046281362  0.044966434           20 
 4935000   0.45886803   -3.3452632    2745.2015  0.046355986  0.044955913           29 
 4936000   0.46180234   -3.3467283    2745.4247  0.046350363  0.044945354           24 
 4937000    0.4589973    -3.347313    2742.0043  0.046283241  0.044934808           12 
 4938000   0.45938354   -3.3462486     2743.317  0.046296021   0.04492425           22 
 4939000   0.45875498    -3.356436    2742.2152  0.046268058  0.044913652           24 
 4940000   0.46626053   -3.3549007    2745.4585  0.046313403  0.044903072           28 
 4941000    0.4582631   -3.3561805    2748.8774  0.046361691  0.044892547           26 
 4942000   0.46122483   -3.3498513    2745.3694  0.046293158  0.044882008           63 
 4943000    0.4587742   -3.3684695    2746.4661  0.046302281  0.044871464           53 
 4944000   0.45474009   -3.3610587    2744.7524   0.04626403  0.044860882           26 
 4945000   0.45756158   -3.3616969    2735.4571  0.046098029  0.044850289           19 
 4946000   0.45719401   -3.3674563    2734.9699  0.046080502   0.04483969           29 
 4947000   0.45643327   -3.3581941    2739.8066  0.046152662  0.044829087           26 
 4948000   0.46061327   -3.3661117    2731.6775  0.046006425  0.044818488           23 
 4949000   0.46540359    -3.357032    2742.7364  0.046183344  0.044807897           45 
 4950000   0.45438815   -3.3625199    2750.6476  0.046307199  0.044797357           20 
 4951000   0.46178242   -3.3537623    2739.7441  0.046114322  0.044786783           34 
 4952000   0.46242339   -3.3524265    2744.9868  0.046193235    0.0447762           34 
 4953000   0.45980203   -3.3578675     2739.868  0.046097786   0.04476565           36 
 4954000   0.45719159   -3.3679977     2738.895  0.046072113  0.044755068           13 
 4955000    0.4598286   -3.3518437    2739.9293   0.04608021  0.044744467           24 
 4956000   0.45906448   -3.3631958    2742.3867  0.046112232  0.044733919           14 
 4957000   0.46112609   -3.3482023      2740.25   0.04606701  0.044723405           26 
 4958000   0.47074244   -3.3542912    2741.7634  0.046083155  0.044712856           43 
 4959000   0.44091141   -3.3594978    2740.3095  0.046049431  0.044702325           21 
 4960000   0.44790153   -3.3626407    2743.6592  0.046096425  0.044691796           26 
 4961000    0.4646098   -3.3745757    2742.1531  0.046061834  0.044681264           21 
 4962000   0.46633203   -3.3670222    2745.1341  0.046102614  0.044670698           29 
 4963000   0.45339454   -3.3655496     2739.365  0.045996457  0.044660163           37 
 4964000   0.45714071   -3.3554836    2740.3941  0.046004467  0.044649649           51 
 4965000   0.44901251   -3.3617607    2743.9266  0.046054491  0.044639114           24 
 4966000   0.45047391   -3.3680118    2738.7787  0.045958831  0.044628554           60 
 4967000   0.45128741   -3.3654889    2743.7931  0.046033708  0.044617983           21 
 4968000   0.44797907   -3.3898947    2736.6743   0.04590503  0.044607406           76 
 4969000    0.4568785   -3.3836722    2739.2889   0.04593964  0.044596812           25 
 4970000   0.46399209    -3.380639    2740.6119  0.045952581  0.044586232           70 
 4971000   0.44786271   -3.3589149    2741.3098  0.045955036  0.044575653           57 
 4972000   0.45714113   -3.3699028    2743.3489  0.045979969  0.044565107           48 
 4973000    0.4492494   -3.3805423    2735.4811  0.045838882  0.044554565           16 
 4974000   0.45035413   -3.3525631    2745.7265  0.046001315  0.044544047           14 
 4975000   0.45617183   -3.3542889    2748.3649  0.046036264  0.044533552           10 
 4976000   0.45134255   -3.3712214    2743.2811  0.045941872  0.044523072           13 
 4977000   0.45590691   -3.3712608    2743.2176  0.045931578  0.044512586           14 
 4978000   0.45700215   -3.3699103    2743.7338  0.045930993  0.044502069           14 
 4979000   0.45710137   -3.3614113    2747.9816  0.045992863  0.044491595           19 
 4980000   0.44618122   -3.3736229     2743.368  0.045906426  0.044481091           35 
 4981000   0.45603073   -3.3818466    2744.0138  0.045908013  0.044470572           29 
 4982000   0.45569513     -3.38747    2738.9407  0.045813941  0.044460047           54 
 4983000   0.44542837   -3.3710435    2739.1351  0.045807999  0.044449524           22 
 4984000    0.4511386   -3.3728957    2737.0599   0.04576411  0.044438997           13 
 4985000   0.45330263   -3.3594479    2743.5917   0.04586412  0.044428479           36 
 4986000   0.45104122   -3.3636512    2744.2598  0.045866088  0.044417994           11 
 4987000   0.45642865   -3.3664424    2737.5559  0.045744868  0.044407531           18 
 4988000   0.45299082   -3.3682263    2736.3107  0.045714894  0.044397056           24 
 4989000   0.45605348   -3.3669372    2747.7597  0.045896969  0.044386573           17 
 4990000   0.45390214   -3.3811971    2737.8168  0.045721724  0.044376047           21 
 4991000   0.46314943   -3.3841238    2740.4839  0.045757094  0.044365542           22 
 4992000   0.45546776   -3.3685939    2743.8867  0.045804732  0.044355044           15 
 4993000   0.45390073   -3.3615247    2739.4954  0.045722268  0.044344548           24 
 4994000   0.44761138   -3.3660523    2741.4202  0.045745232  0.044334067           18 
 4995000   0.45631286    -3.386352    2738.1519  0.045681546  0.044323535           40 
 4996000   0.45300577   -3.3579345    2740.7796  0.045716232  0.044313047           31 
 4997000   0.44495041   -3.3712169    2738.0559  0.045661661  0.044302566           30 
 4998000   0.46056798   -3.3649042    2738.6905  0.045663107  0.044292088           31 
 4999000   0.44044709   -3.3754537    2739.0664  0.045660239  0.044281617           39 
 5000000   0.45059858   -3.3685391    2745.9615  0.045766025  0.044271151           22 
 5001000   0.44970655   -3.3655519    2741.0904  0.045675705  0.044260661           23 
 5002000   0.44664799   -3.3707769    2738.6624  0.045626123  0.044250185           33 
 5003000   0.45630495   -3.3639393     2737.693  0.045600856  0.044239731           27 
 5004000   0.44263054   -3.3612855    2738.4021  0.045603552   0.04422926           28 
 5005000   0.44492843   -3.3661365    2734.2119  0.045524673   0.04421879           16 
 5006000   0.45528387   -3.3699603    2737.7854  0.045575066  0.044208274           15 
 5007000   0.45898201   -3.3746418    2742.3382  0.045641739  0.044197836           42 
 5008000   0.45651243   -3.3572035    2744.6447  0.045671004  0.044187393           37 
 5009000   0.44378902    -3.388024    2735.3349  0.045507003  0.044176897          119 
 5010000   0.46061027   -3.3570039    2744.0452  0.045642802  0.044166391           18 
 5011000   0.45861131    -3.372325    2745.5272  0.045658339   0.04415593           17 
 5012000   0.44969174   -3.3662108    2739.5407  0.045549692  0.044145461           24 
Loop time of 12023.5 on 48 procs for 5000000 steps with 4000 atoms

Performance: 71859.265 tau/day, 415.852 timesteps/s
99.4% CPU use with 48 MPI tasks x no OpenMP threads

MPI task timing breakdown:
Section |  min time  |  avg time  |  max time  |%varavg| %total
---------------------------------------------------------------
Pair    | 789.06     | 844.03     | 911.29     | 104.8 |  7.02
Neigh   | 80.509     | 83.892     | 87.025     |  20.0 |  0.70
Comm    | 748.01     | 824.59     | 881.22     | 112.7 |  6.86
Output  | 13.91      | 13.914     | 13.996     |   0.3 |  0.12
Modify  | 10138      | 10152      | 10171      |   8.2 | 84.43
Other   |            | 105.2      |            |       |  0.88

Nlocal:        83.3333 ave          91 max          76 min
Histogram: 1 3 3 8 14 4 4 5 4 2
Nghost:        2168.35 ave        2187 max        2144 min
Histogram: 2 1 2 10 5 5 5 8 7 3
Neighs:        14313.0 ave       16067 max       12620 min
Histogram: 4 1 4 5 9 9 10 1 3 2
FullNghs:      28545.7 ave       30539 max       25819 min
Histogram: 1 1 4 7 7 7 4 6 4 7

Total # of neighbors = 1370192
Ave neighs/atom = 342.54800
Neighbor list builds = 271620
Dangerous builds = 1

#clear
#
#next RN
#
#jump SELF
Total wall time: 3:20:26
