
units lj                  # Use reduced LJ style units
atom_style atomic         # Uncharged point particles
atom_modify map hash      # Needed for indexing of clusters etc
                          # Used to be able to find where atoms are in relation to each other.

lattice fcc 1.0 spacing 1 1 1
Lattice spacing in x,y,z = 1.5874011 1.5874011 1.5874011
region box block 0 10 0 10 0 10 units lattice
create_box 2 box
Created orthogonal box = (0.0000000 0.0000000 0.0000000) to (15.874011 15.874011 15.874011)
  3 by 4 by 4 MPI processor grid
create_atoms 1 box
Created 4000 atoms
  using lattice units in orthogonal box = (0.0000000 0.0000000 0.0000000) to (15.874011 15.874011 15.874011)
  create_atoms CPU = 0.012 seconds
set type 1 type/fraction 2 0.99 78393
Setting atom values ...
  3965 settings made for type/fraction
mass 1 1.0
mass 2 1.0
pair_style lj/cut  3.5
pair_modify tail  yes
pair_coeff 1  1  1.0  1.0   # Intearaction between 1 and 1 set with epsilon = 1 and sigma = 1
pair_coeff 1  2  1.5  0.8
pair_coeff 2  2  0.5  0.88

write_data data.0
System init for write_data ...
Neighbor list info ...
  update every 1 steps, delay 10 steps, check yes
  max neighbors/atom: 2000, page size: 100000
  master list distance cutoff = 3.8
  ghost atom cutoff = 3.8
  binsize = 1.9, bins = 9 9 9
  1 neighbor lists, perpetual/occasional/extra = 1 0 0
  (1) pair lj/cut, perpetual
      attributes: half, newton on
      pair build: half/bin/atomonly/newton
      stencil: half/bin/3d
      bin: standard
WARNING: Not all mixed pair coeffs generated from mixing. Use write_data with 'pair ij' option to store all pair coeffs. (../write_data.cpp:312)


#############################
#   M E L T   S Y S T E M   #
#############################

velocity all create 2.4 5300450 mom yes dist gaussian # Assign velocities
                                                    # Temperature 2.4, random number seed, zero linear momentum
                                                                                # Gaussian distribution

timestep 0.002   # simulation timestep
thermo 1000       # output thermodynamic data every 1000 steps bf 100

# Define a fix  in this case with index 1 applied to all
# particles in the simulation. This fix is for simulations
# in the anisotropic NPT ensemble. Note that we use the MTK
# correction.
fix 1 all npt temp 2.4 2.4 0.1 iso 5.68 5.68 0.5 mtk yes tchain 5 pchain 5 # Use NPT ensemble
                                                                         # Set temperature and pressure and damping
                                                                         # Numbers of thermostats in chain and in barostat
run 10000          # run for 10000 steps
Per MPI rank memory allocation (min/avg/max) = 3.642 | 3.644 | 3.648 Mbytes
Step Temp E_pair E_mol TotEng Press Volume 
       0          2.4   -2.7429598            0   0.85614022   -1.7792645         4000 
    1000    2.4010517   -1.5490925            0    2.0515846    5.5109583    4226.7727 
    2000    2.4177942   -1.4613393            0    2.1644453    5.8793323    4241.4918 
    3000    2.3618593   -1.5424264            0    1.9994769    5.6396781    4198.1592 
    4000    2.3962314   -1.4503774            0     2.143071    5.8371804    4270.4672 
    5000    2.4002803   -1.5063569            0    2.0931634    5.7843651    4208.2911 
    6000    2.3438925   -1.5192171            0    1.9957427    5.4443329    4270.9857 
    7000    2.4317461   -1.5350167            0    2.1116905     5.735805    4198.7011 
    8000    2.3795306   -1.4886547            0    2.0797488     5.679059    4254.1922 
    9000    2.3432745   -1.5513689            0    1.9626641    5.2392941    4279.9279 
   10000     2.368632   -1.4633818            0     2.088678    5.7812525     4244.209 
Loop time of 2.37397 on 48 procs for 10000 steps with 4000 atoms

Performance: 727895.952 tau/day, 4212.361 timesteps/s
99.6% CPU use with 48 MPI tasks x no OpenMP threads

MPI task timing breakdown:
Section |  min time  |  avg time  |  max time  |%varavg| %total
---------------------------------------------------------------
Pair    | 1.03       | 1.0883     | 1.1469     |   2.8 | 45.84
Neigh   | 0.20439    | 0.21071    | 0.22904    |   1.0 |  8.88
Comm    | 0.75446    | 0.82209    | 0.90746    |   3.2 | 34.63
Output  | 0.00024315 | 0.00024728 | 0.00031729 |   0.0 |  0.01
Modify  | 0.20227    | 0.23735    | 0.26424    |   3.9 | 10.00
Other   |            | 0.01523    |            |       |  0.64

Nlocal:        83.3333 ave          96 max          72 min
Histogram: 3 1 5 6 7 13 6 6 0 1
Nghost:        1570.10 ave        1606 max        1538 min
Histogram: 3 1 6 7 11 6 6 5 1 2
Neighs:        8989.17 ave       10778 max        7482 min
Histogram: 3 2 4 7 16 3 8 4 0 1

Total # of neighbors = 431480
Ave neighs/atom = 107.87000
Neighbor list builds = 904
Dangerous builds = 212

# Equilibrate just above the melting temperature to avoid step fn in T

fix 1 all npt temp 1.25 1.25 0.1 iso 5.68 5.68 0.5 mtk yes tchain 5 pchain 5
run 2000
Per MPI rank memory allocation (min/avg/max) = 3.643 | 3.645 | 3.649 Mbytes
Step Temp E_pair E_mol TotEng Press Volume 
   10000     2.368632   -1.4633818            0     2.088678    5.7812525     4244.209 
   11000     1.252259   -2.3379656            0  -0.46004674    5.7878489    3293.7985 
   12000    1.2535764    -2.316601            0  -0.43670646    5.6157466    3325.1705 
Loop time of 0.580152 on 48 procs for 2000 steps with 4000 atoms

Performance: 595706.269 tau/day, 3447.374 timesteps/s
99.6% CPU use with 48 MPI tasks x no OpenMP threads

MPI task timing breakdown:
Section |  min time  |  avg time  |  max time  |%varavg| %total
---------------------------------------------------------------
Pair    | 0.2578     | 0.27664    | 0.30545    |   2.2 | 47.68
Neigh   | 0.038364   | 0.040374   | 0.044163   |   0.6 |  6.96
Comm    | 0.18124    | 0.21329    | 0.23311    |   2.8 | 36.76
Output  | 5.3036e-05 | 5.5002e-05 | 7.1877e-05 |   0.0 |  0.01
Modify  | 0.040617   | 0.044972   | 0.048973   |   1.2 |  7.75
Other   |            | 0.004823   |            |       |  0.83

Nlocal:        83.3333 ave          91 max          74 min
Histogram: 1 2 2 2 13 8 7 9 3 1
Nghost:        1862.12 ave        1884 max        1842 min
Histogram: 3 2 5 7 8 10 6 3 2 2
Neighs:        11505.3 ave       12851 max       10222 min
Histogram: 2 4 5 9 5 6 6 5 4 2

Total # of neighbors = 552253
Ave neighs/atom = 138.06325
Neighbor list builds = 142
Dangerous builds = 13

#############################
# L I N E A R  Q U E N C H  #
#############################

# Define solid atoms. This closely follows ten Wolde  Ruiz-Montero and Frenkel  Faraday Discuss  1996  104  93-110
# Compute components of the per-atom q6 vector
compute q6 all orientorder/atom degrees 1 6 components 6 nnn NULL cutoff 1.3 # compute the Q6 parameter.
                                                                             # Use all neighbours within 1.3 unit cell.

# get number of connections
compute coord_number all coord/atom orientorder q6 0.5

# An atom is solid if it has 8 or more connections (of a possible 14)
variable is_solid atom c_coord_number>=8
group solid dynamic all var is_solid    # Must be dynamic to update
dynamic group solid defined

# do clustering
compute cluster solid cluster/atom 1.3 # Create a cluster where all atoms within are solid and max 1.3 units from another member

# define chunks one chunk per cluster
compute clus_chunks solid chunk/atom c_cluster nchunk every compress yes  # Says which atoms are in which chunk

# count the size of each chunk
compute size_chunks solid property/chunk clus_chunks count


# Find the maximum entry in the vector of chunk sizes
variable max_n equal max(c_size_chunks)


# Thermo style which includes this variable
# thermo_style custom step temp pe vol v_max_n

thermo ${N}  # Print the thermo information every 100 steps
thermo 1000  

# Reset the npt fix at a lower temperature (below freezing)
fix 1  all npt temp  ${temp} ${temp}  0.1  iso  5.68  5.68  0.5  mtk yes tchain  5  pchain  5
fix 1  all npt temp  0.45 ${temp}  0.1  iso  5.68  5.68  0.5  mtk yes tchain  5  pchain  5
fix 1  all npt temp  0.45 0.45  0.1  iso  5.68  5.68  0.5  mtk yes tchain  5  pchain  5

dump dmp2 all dcd ${N} traj.dcd
dump dmp2 all dcd 1000 traj.dcd


compute msd all msd com yes
variable twopoint equal c_msd[4]/6/(step*dt+1.0e-6)
fix 9 all vector 10 c_msd[4]
variable fit equal slope(f_9)/6/(10*dt)
thermo_style custom step temp pe c_msd[4] v_twopoint v_fit v_max_n

fix 1 all npt temp 1.25 ${temp} 0.1 iso 5.68 5.68 0.5 mtk yes tchain 5 pchain 5
fix 1 all npt temp 1.25 0.45 0.1 iso 5.68 5.68 0.5 mtk yes tchain 5 pchain 5
run 500000 # 5000000  # Run for this many steps
Neighbor list info ...
  update every 1 steps, delay 10 steps, check yes
  max neighbors/atom: 2000, page size: 100000
  master list distance cutoff = 3.8
  ghost atom cutoff = 3.8
  binsize = 1.9, bins = 8 8 8
  4 neighbor lists, perpetual/occasional/extra = 1 3 0
  (1) pair lj/cut, perpetual
      attributes: half, newton on
      pair build: half/bin/atomonly/newton
      stencil: half/bin/3d
      bin: standard
  (2) compute orientorder/atom, occasional
      attributes: full, newton on
      pair build: full/bin/atomonly
      stencil: full/bin/3d
      bin: standard
  (3) compute coord/atom, occasional
      attributes: full, newton on
      pair build: full/bin/atomonly
      stencil: full/bin/3d
      bin: standard
  (4) compute cluster/atom, occasional
      attributes: full, newton on
      pair build: full/bin/atomonly
      stencil: full/bin/3d
      bin: standard
Per MPI rank memory allocation (min/avg/max) = 9.811 | 9.816 | 9.819 Mbytes
Step Temp PotEng c_msd[4] v_twopoint v_fit v_max_n 
   12000    1.2535764    -2.316601 3.1266502e-30 2.1712848e-32 8.3333333e+20            1 
   13000    1.2261737   -2.3073977    1.1898424 0.0076271944   0.10044422            2 
   14000    1.2219163   -2.3571944    2.4635806   0.01466417   0.10559345            1 
   15000    1.2347968   -2.3425438    3.7133265  0.020629591   0.10498389            1 
   16000    1.2414406   -2.3074402    5.0383092  0.026241193   0.10577712            1 
   17000    1.2506368   -2.3404515    6.2642005  0.030706864   0.10569201            2 
   18000    1.2395189   -2.3311915    7.5482812  0.034945745   0.10584408            1 
   19000    1.2501725   -2.3086383    8.7931905  0.038566624   0.10559762            1 
   20000     1.219692   -2.3379368     10.10788  0.042116167   0.10547292            1 
   21000    1.2579141   -2.3314405    11.429466  0.045355024   0.10589077            1 
   22000    1.2371063   -2.3453492    12.569966  0.047613507   0.10600613            1 
   23000     1.207374   -2.3297596    13.774486  0.049907556   0.10541648            1 
   24000    1.2329812   -2.3540312    15.051156  0.052260959   0.10505368            3 
   25000    1.2483577   -2.3429717    16.465986  0.054886618   0.10518784            2 
   26000    1.2481717   -2.3451956    17.754649  0.056905926   0.10553042            2 
   27000     1.230531   -2.3359697    18.928389  0.058420954     0.105711            1 
   28000    1.2136991   -2.3498052    20.217931  0.060172412   0.10567289            1 
   29000    1.2318872   -2.3090718    21.589477  0.062038725   0.10571896            1 
   30000    1.2638479   -2.3420614    22.842054  0.063450149   0.10586099            3 
   31000    1.2563219    -2.365728    23.994473  0.064501271   0.10595647            1 
   32000    1.2050808   -2.3457539    25.336233  0.065979773   0.10593793            3 
   33000    1.1936687   -2.3357893    26.649496  0.067296706   0.10599157            1 
   34000    1.2281741   -2.3788383    28.062333  0.068780226   0.10610421            3 
   35000    1.2077242   -2.3688547    29.290167  0.069738491    0.1063101            1 
   36000     1.213993   -2.3583458    30.754927   0.07119196   0.10633738            1 
   37000    1.1883056   -2.3633316    31.685796  0.071364404   0.10636294            1 
   38000    1.2068029   -2.3723206    32.948328  0.072255104   0.10639756            4 
   39000    1.1878926   -2.3488207    34.264944  0.073215692   0.10641384            2 
   40000    1.2026062   -2.3770181    35.413305  0.073777717   0.10634222            3 
   41000    1.2007156   -2.3542948    36.644688  0.074481072   0.10624655            2 
   42000    1.2073994   -2.3631382    38.017231  0.075431013   0.10620005            2 
   43000    1.1983007   -2.3739404    39.589587  0.076724004   0.10627728            2 
   44000    1.2180096   -2.3561078    40.767818  0.077211776   0.10631712            1 
   45000    1.1750105   -2.3572695    42.174747  0.078101383   0.10636167            2 
   46000     1.234398   -2.3551873    43.104077  0.078087094   0.10633233            1 
   47000    1.2196817   -2.3745989    44.354952  0.078643531   0.10628537            1 
   48000    1.1861217   -2.3808434    45.620287  0.079201887   0.10625937            1 
   49000    1.1697828   -2.3826615    47.057547  0.080029842   0.10622351            3 
   50000    1.2000402   -2.3414999     48.26931   0.08044885    0.1061647            1 
   51000    1.1749485   -2.4329222    49.034571  0.080121847   0.10607441            2 
   52000    1.1834048   -2.3975728    50.822423   0.08144619   0.10599451            1 
   53000    1.1912453   -2.3811472    51.940662  0.081667706   0.10600331            1 
   54000    1.1869767   -2.3489255    53.380893  0.082377921   0.10601774            1 
   55000    1.1707143    -2.365327      55.1773   0.08360197   0.10606026            2 
   56000    1.1613266    -2.381337    56.057891  0.083419479   0.10613432            3 
   57000    1.1691411   -2.3763026    57.101454  0.083481658    0.1061343            2 
   58000    1.1752193   -2.4051264    57.468391  0.082569527   0.10599009            3 
   59000    1.1969517   -2.3778078    58.586661  0.082749521   0.10574779            7 
   60000    1.1413992   -2.4000445    59.591924  0.082766561   0.10551891            2 
   61000    1.1613007   -2.4209273     60.88031  0.083169821    0.1052819            1 
   62000    1.1759686   -2.4047544    62.047792  0.083397569   0.10507305            1 
   63000    1.1540956   -2.4090881    63.109757  0.083478514   0.10486873            1 
   64000    1.1614736   -2.3892358    64.714853   0.08426413   0.10468842            1 
   65000    1.1502274   -2.3971277    65.675909  0.084199883   0.10450812            2 
   66000    1.1805786   -2.3925169    66.453306  0.083905689    0.1042992            1 
   67000    1.1932666   -2.4411517    67.505087  0.083961551   0.10404819            1 
   68000    1.1628582   -2.4127691    68.142701  0.083508211   0.10381082            3 
   69000    1.1713795   -2.4055148    69.755265  0.084245489   0.10358243            2 
   70000    1.1693204   -2.4088494    70.716667  0.084186508   0.10334967            2 
   71000    1.1475555   -2.4443346    71.502257  0.083922836   0.10311282            1 
   72000    1.1322607   -2.4459662    72.551456  0.083971592   0.10285122            2 
   73000    1.1778319   -2.3978731    73.681775  0.084111614   0.10253555            3 
   74000    1.1893787   -2.4363575    74.533345  0.083933947    0.1022351            3 
   75000    1.1560459    -2.456924    75.251284  0.083612537   0.10190764            1 
   76000    1.1581014   -2.3960969    75.874017  0.083195194   0.10156058            1 
   77000    1.1326862   -2.4334117    76.949784  0.083278987   0.10121469            1 
   78000    1.1549395   -2.4414384     77.92473  0.083252917   0.10086635            3 
   79000    1.1040345    -2.415954    78.991511  0.083324378    0.1005396            2 
   80000     1.140225    -2.419477    80.350296  0.083698225   0.10023213            2 
   81000     1.170767   -2.4240771    81.404353  0.083749334  0.099933082            1 
   82000    1.1255488   -2.4498885    82.394635  0.083734384  0.099642478            3 
   83000    1.1146919   -2.4171642    83.064732  0.083398324  0.099357942            1 
   84000    1.1679027   -2.4128747    84.394501  0.083724703  0.099070946            2 
   85000    1.1235967   -2.4510312    84.654129  0.082994244  0.098772918            2 
   86000    1.1338528   -2.4188914    85.974121  0.083308256  0.098484189            1 
   87000     1.153408   -2.4222383    87.440892  0.083755643  0.098217815            3 
   88000    1.1106846   -2.4375176    88.591307  0.083893282  0.097971057            2 
   89000    1.1122366   -2.4528597    89.652779  0.083944549  0.097736007            2 
   90000    1.1297854   -2.4578915    90.410875  0.083713773   0.09751486            2 
   91000    1.1212669   -2.4570262    91.710814  0.083984262  0.097292919            5 
   92000    1.1108247   -2.4458214    92.394729  0.083690877  0.097071217            1 
   93000    1.1324108   -2.4623155    94.056344  0.084279878  0.096856216            1 
   94000    1.1163132   -2.4474117    94.842068  0.084079847  0.096652455            2 
   95000    1.1164485   -2.4498772    95.767943  0.084006967  0.096450282            2 
   96000    1.1358608   -2.4353375    96.783225  0.084013215  0.096240675            1 
   97000    1.1235307   -2.4561437    97.483196   0.08374845  0.096022428            2 
   98000    1.1272943   -2.4557617    97.912845  0.083259222  0.095817834            1 
   99000     1.139621   -2.4483759    98.893691  0.083243847  0.095603599            1 
  100000    1.1020679    -2.467858     100.6297  0.083858086  0.095395639            1 
  101000    1.0977247    -2.438473    101.86272  0.084045148  0.095206936            1 
  102000    1.1184207   -2.4603094    102.57275  0.083801263  0.095029121            4 
  103000    1.0845876   -2.4705958    102.85056  0.083212423  0.094844936            1 
  104000    1.1399475   -2.4686397    104.56735  0.083787937   0.09466346            2 
  105000    1.0884582   -2.5046658    105.22181  0.083509369  0.094479793            1 
  106000    1.1043539    -2.480234    106.15236  0.083453109  0.094286199            1 
  107000    1.0785452   -2.4748206    107.00785  0.083339448  0.094089182            1 
  108000    1.0900239   -2.4730903    108.44488  0.083676606  0.093910218            2 
  109000    1.1176027   -2.4956633    108.80552  0.083184648  0.093731298            2 
  110000    1.0986557   -2.4610988    109.98912  0.083325088  0.093549634            1 
  111000     1.095065   -2.4751534    111.11569  0.083420188  0.093369172            1 
  112000    1.0991783   -2.4857581    111.82335  0.083201894  0.093201597            2 
  113000    1.0576239   -2.4865104    113.13653  0.083434021  0.093029396            3 
  114000    1.1021696   -2.5051147     113.7256  0.083132747  0.092857769            1 
  115000    1.0526633   -2.4837894    114.57975  0.083028802  0.092688186            1 
  116000     1.072621   -2.4789184    115.38737  0.082893223  0.092501418            1 
  117000    1.0790569   -2.5136102    116.54082  0.083006281  0.092320961            4 
  118000    1.0776259    -2.505832    116.89471  0.082552763  0.092137049            4 
  119000    1.0935379   -2.5090699    117.67019  0.082402096  0.091952168            3 
  120000    1.0739934   -2.4921265    118.49274  0.082286626   0.09175423            1 
  121000    1.0903283    -2.490144    119.92699  0.082594343  0.091568505            4 
  122000    1.0769718   -2.4694926    120.92572  0.082599535  0.091384067            1 
  123000    1.0738991   -2.5140499    121.58702  0.082376026  0.091217986            2 
  124000    1.0713737   -2.5190464    122.49578  0.082322433  0.091048428            2 
  125000    1.0656085   -2.5183027    123.14128  0.082094186   0.09087168            2 
  126000    1.0607211   -2.5126953     123.9373  0.081969115  0.090688561            4 
  127000    1.0896578   -2.4846936    124.34496  0.081591179  0.090508348            2 
  128000    1.0722786   -2.5131808    126.03605  0.082054717  0.090335696            2 
  129000    1.0685781   -2.5099962    126.87538  0.081960836  0.090162444            1 
  130000    1.0518671   -2.5353364    128.27776  0.082229334   0.09000719            2 
  131000    1.0629445   -2.5380123    128.93566  0.082020139  0.089859822            3 
  132000     1.023977   -2.5263016    130.46572  0.082364719  0.089719186            1 
  133000     1.090558   -2.5165726    131.69027  0.082512698  0.089593344            2 
  134000    1.0446841   -2.5336383    132.85861  0.082623514  0.089488472            1 
  135000    1.0611355   -2.5407472    134.35305  0.082933982  0.089385771            2 
  136000    1.0619334    -2.531209    134.66238  0.082513715   0.08928317            2 
  137000    1.0725333   -2.5293667    135.42977  0.082378205  0.089176299            3 
  138000    1.0352866   -2.5294063    136.44531  0.082394509  0.089061314            2 
  139000    1.0319425    -2.545726        137.5  0.082434052  0.088943585            2 
  140000    1.0517212   -2.5485884    138.46457  0.082419389  0.088839899            1 
  141000    1.0622807   -2.5522162    139.77742  0.082610765  0.088731118            1 
  142000    1.0334128   -2.5171306    140.23263  0.082296142  0.088625879            3 
  143000    1.0511434   -2.5553167    140.25275   0.08173237  0.088521525            4 
  144000    1.0276958   -2.5203418    142.41418  0.082415616  0.088414077            3 
  145000    1.0202378   -2.5203375     142.5793  0.081942128  0.088301737            2 
  146000    1.0486714   -2.5341205    142.49327  0.081331775  0.088178461            4 
  147000    1.0389402   -2.5582403    143.24973  0.081207327  0.088048358            2 
  148000    1.0258345   -2.5476159    144.01562  0.081089875  0.087916118            2 
  149000   0.99399341   -2.5464129    145.14574  0.081177709  0.087771423            2 
  150000    1.0473607   -2.5544837     145.6534  0.080918556  0.087628519            3 
  151000    1.0486442   -2.5621983    146.06768  0.080611302  0.087489485            2 
  152000    1.0427304   -2.5474533    147.54093  0.080888669  0.087344543            2 
  153000   0.99407573   -2.5579042    147.58279   0.08038278  0.087197389            3 
  154000     1.046131   -2.5534133    148.62186  0.080423087  0.087036566            2 
  155000    1.0272125   -2.5711092    150.01578  0.080653643  0.086882769            4 
  156000    1.0162554   -2.5700982    150.26029  0.080267246  0.086726877            5 
  157000    1.0237543   -2.5438299    151.01384  0.080155967  0.086578527            2 
  158000    1.0156012   -2.5529099    152.50295  0.080434043  0.086431348            3 
  159000    1.0182396    -2.565717    152.65569  0.080008224  0.086288976            2 
  160000    1.0261534   -2.5707624    153.45923  0.079926681   0.08613486            1 
  161000    1.0223665   -2.5947058    153.87083  0.079643285  0.085980657            2 
  162000    1.0244161   -2.5804648    155.12859  0.079798659  0.085828493            2 
  163000    1.0143315   -2.5682997    156.01221  0.079760845  0.085680603            1 
  164000   0.99613601   -2.5648228    156.95034   0.07975119  0.085535231            2 
  165000    1.0066122   -2.5869065    157.32573  0.079457439  0.085384582            2 
  166000   0.98676903   -2.5667392    158.22465  0.079430043  0.085239524            1 
  167000    1.0238129   -2.5941877    159.26114  0.079471628  0.085094336            1 
  168000   0.99518301    -2.566085    160.22266  0.079475524  0.084954782            1 
  169000    1.0063052     -2.58613    160.40862  0.079096954  0.084817095            3 
  170000   0.98288009   -2.5773899      161.447  0.079140688  0.084679903            2 
  171000   0.97004758   -2.5949441    162.48864  0.079185497  0.084540446            3 
  172000    1.0011307    -2.578927    163.06387  0.079003811  0.084403258            2 
  173000    0.9975726   -2.5642181    163.84971  0.078925678  0.084262321            3 
  174000     1.017357   -2.5932512    164.16491  0.078623041  0.084122556            2 
  175000   0.98204694   -2.5942644    165.41169   0.07876747   0.08398756            4 
  176000    1.0036158   -2.5628118    166.91307  0.079030809  0.083854692            1 
  177000   0.96906925   -2.6075529    167.46252  0.078842994  0.083723861            4 
  178000   0.97392004   -2.6157414    167.65883  0.078491962  0.083595375            1 
  179000   0.96392389   -2.5973576    169.20967  0.078775449  0.083466846            2 
  180000   0.96804821   -2.5871559    169.18714   0.07832738  0.083337278            3 
  181000   0.98192691   -2.6045147    168.78963  0.077711615  0.083199818            3 
  182000   0.99756388   -2.5810546    170.73558  0.078175631  0.083063588            3 
  183000    0.9735549   -2.6138984    171.97318  0.078312012  0.082931143            4 
  184000   0.99040269   -2.6328349    172.12236  0.077953967  0.082795239            2 
  185000   0.97671251   -2.6134185     172.9971   0.07792662  0.082660198            2 
  186000   0.95591715    -2.622274    172.92434  0.077475063  0.082523048            2 
  187000   0.96242213   -2.6327376    174.05873  0.077566279  0.082380249            2 
  188000   0.96519932    -2.604134    174.32356  0.077271081  0.082242124            2 
  189000   0.97341828   -2.6215601    175.42376  0.077347338  0.082101998            3 
  190000   0.96170532   -2.6203304     176.6754  0.077489211  0.081973229            2 
  191000   0.96532498   -2.6385427    176.93556  0.077197017  0.081839752            3 
  192000   0.97889381   -2.6060525    176.88503  0.076773018  0.081696186            2 
  193000   0.94345461   -2.6232094    176.95358  0.076404827  0.081548479            3 
  194000   0.95118099   -2.6341879    179.34239  0.077037109   0.08140751            2 
  195000   0.96952051   -2.6161516    179.04292   0.07651407  0.081262457            6 
  196000   0.94723295   -2.6088422    180.02619  0.076541745  0.081123852            2 
  197000   0.95694619    -2.591613    180.59004  0.076391724  0.080983171            2 
  198000   0.94319244   -2.6396578    181.09014   0.07621639   0.08084115            2 
  199000   0.97315628   -2.6328181    181.84889  0.076151127   0.08069721            2 
  200000   0.95357813   -2.6538123    182.01302  0.075838759  0.080553505            4 
  201000   0.94622616   -2.6524177    182.82061  0.075796271  0.080409606            6 
  202000   0.94377668   -2.6704376    182.12584  0.075134422  0.080261136            2 
  203000   0.92400963    -2.649623    184.20207  0.075616614  0.080107117            3 
  204000   0.93875793   -2.6420968    185.04116  0.075588709  0.079960657            3 
  205000   0.95234819   -2.6505061    185.60716  0.075450066  0.079814496            3 
  206000   0.93523884   -2.6431183    186.69626  0.075524377  0.079669371            3 
  207000   0.94524218   -2.6461368    186.86591  0.075227824  0.079523522            2 
  208000   0.93411304   -2.6352374    187.10312  0.074961185  0.079377834            2 
  209000   0.94612268    -2.669107    186.68166  0.074434475  0.079228687            3 
  210000   0.94118952   -2.6790156    188.14449  0.074660511  0.079078015            4 
  211000   0.92817605   -2.6833781    188.56708  0.074473571   0.07892996            3 
  212000   0.93714935   -2.6557286    188.95926   0.07427644   0.07877777            6 
  213000   0.92770036   -2.6578609    189.17764  0.074013161  0.078623232            2 
  214000   0.90264159   -2.6671232    189.81322  0.073914804  0.078466842            1 
  215000   0.94435267   -2.6980455    190.56293  0.073861599  0.078310838            2 
  216000   0.90479197   -2.6724415      191.111  0.073731096  0.078157484            2 
  217000   0.91064757   -2.6857381    191.51613  0.073546903   0.07800613            2 
  218000   0.89800834   -2.6906867    193.35249    0.0739115   0.07785237            2 
  219000   0.91485767   -2.6807303    192.93867  0.073416541  0.077704829            6 
  220000   0.91882466   -2.6752678    193.83517  0.073422412   0.07755612            1 
  221000   0.91770538   -2.6917498    194.30951  0.073269046  0.077414373            2 
  222000   0.89503955   -2.6841208    195.26939  0.073299321  0.077264004            5 
  223000   0.90507324   -2.6749737    195.91832  0.073213125  0.077114248            3 
  224000   0.90123242   -2.6836619     195.8543  0.072862463    0.0769646            4 
  225000   0.91022754   -2.6920665    196.95734  0.072947164  0.076817233            2 
  226000   0.90519032   -2.6817189     197.5712  0.072850736  0.076674934            2 
  227000   0.90872513    -2.703321    198.32104  0.072805081  0.076531317            2 
  228000   0.93653112   -2.7181093    199.10074  0.072770739  0.076387887            3 
  229000   0.91049956   -2.7055488    198.96834   0.07240478   0.07624415            3 
  230000   0.90349679   -2.6816594    199.94837  0.072445061  0.076101804            2 
  231000   0.89616183   -2.6864763     200.7647  0.072425936  0.075958812            2 
  232000   0.89343422   -2.7033433    201.87264  0.072511723  0.075818944            3 
  233000   0.90016068    -2.730347    201.55529  0.072087013  0.075679974            2 
  234000   0.89200769   -2.6871091    203.07534  0.072320278  0.075537639            1 
  235000    0.8947926   -2.7357807    202.89598   0.07194893  0.075395697            2 
  236000   0.89495624   -2.7153786    202.83166  0.071621348  0.075255858            3 
  237000   0.89159021    -2.699518    203.18972   0.07144505  0.075113429            6 
  238000   0.90688322    -2.722449    204.08482   0.07145827  0.074971103            2 
  239000   0.88512616   -2.7212457    205.45027   0.07163538  0.074829409            7 
  240000   0.90121842   -2.7192104    204.90284  0.071146821  0.074691422            3 
  241000   0.87540051   -2.7141145    206.47336   0.07139466  0.074552558            8 
  242000   0.89233372   -2.7142494    207.20494  0.071351563  0.074417361            3 
  243000   0.87024464   -2.7378667    207.93126  0.071307017   0.07428047            2 
  244000   0.88420768   -2.7195463    207.64312  0.070916366  0.074144258            2 
  245000   0.88041644   -2.7020209    208.79438  0.071018495    0.0740052            3 
  246000   0.85299691   -2.7310502    209.00316   0.07080053  0.073868555            2 
  247000   0.88259135   -2.7239849    210.16359  0.070905394  0.073733017            4 
  248000    0.8655043   -2.7416628    211.28174  0.070995209  0.073600034            7 
  249000   0.86298347    -2.744649    209.91299  0.070252004   0.07346499            1 
  250000   0.86206195   -2.7404399    211.10609  0.070368697  0.073330156            3 
  251000   0.88771179   -2.7299746    211.61203  0.070256317  0.073195225            2 
  252000   0.86787513   -2.7448208    212.62244  0.070311653  0.073060508            5 
  253000   0.86191094    -2.740904    212.51177  0.069997291  0.072925875            3 
  254000   0.85455914   -2.7564168    214.00977   0.07021318  0.072794553            3 
  255000   0.87446369   -2.7500354     215.0647  0.070282582  0.072663592            4 
  256000   0.88182771   -2.7533508    214.67893  0.069882465  0.072533904            3 
  257000   0.83941186   -2.7533676    214.83563  0.069661359  0.072401411            2 
  258000   0.86609359   -2.7823133     214.8501  0.069396026  0.072271622            6 
  259000   0.84546902   -2.7293801    215.19319  0.069238478  0.072139999            4 
  260000   0.85803379   -2.7675332    216.62215  0.069430176   0.07200647            2 
  261000   0.85303502   -2.7579658    216.84631  0.069235731  0.071877011            3 
  262000   0.83881315   -2.7625976    217.58904  0.069207711  0.071748098            3 
  263000   0.84783749   -2.8018982     216.8522  0.068711088  0.071616734            4 
  264000   0.84862266   -2.7608559    219.47908  0.069280014  0.071486984            3 
  265000    0.8234698   -2.7877203    219.13104  0.068909131  0.071358374            1 
  266000   0.84107529   -2.7669644    219.00057  0.068609201  0.071229968            2 
  267000   0.83007183    -2.790775     219.7197  0.068576685  0.071101912            4 
  268000   0.83961761   -2.7952436     221.2961  0.068810976  0.070975335            2 
  269000   0.83809066   -2.7818521    220.86747  0.068422387  0.070849401            3 
  270000   0.81893232   -2.7812136    221.77193  0.068448128  0.070724893            2 
  271000   0.84299134   -2.7845121    222.71736  0.068486274  0.070601329            2 
  272000   0.83769357   -2.7894368    223.87944  0.068590515   0.07047861            3 
  273000   0.81300963   -2.7854323    224.28911  0.068464319  0.070358844            2 
  274000   0.85181247   -2.7880959    224.01801  0.068131999  0.070238992            3 
  275000   0.84118802   -2.8065316    224.37879  0.067993574  0.070117631            3 
  276000   0.83472527   -2.7547954    226.05758    0.0682541  0.069996398            4 
  277000   0.82800796   -2.8052423    225.67417  0.067892349  0.069879549            1 
  278000   0.83528777   -2.8155538    226.34253  0.067848481  0.069760835            4 
  279000   0.82656492   -2.8204141    226.58738  0.067678428  0.069641054            2 
  280000   0.82052648   -2.7938302    228.05298  0.067872911  0.069522653            2 
  281000   0.81247032    -2.824019    227.41028  0.067440772  0.069402568            4 
  282000   0.80054904   -2.8029849    227.28965  0.067165971  0.069281957            4 
  283000   0.81484142    -2.795294     228.7732  0.067365489  0.069158537            3 
  284000   0.82981485   -2.8264383    228.78934  0.067133023   0.06903477            3 
  285000   0.82059825   -2.8218994    228.35342  0.066770006  0.068912649            4 
  286000   0.79612731   -2.8158389    229.19514  0.066781801  0.068790129            2 
  287000   0.79697955   -2.8206343    229.44454  0.066621528  0.068665334            5 
  288000   0.80650903   -2.7876639    229.86616  0.066512199  0.068541073            4 
  289000    0.8059722   -2.8333155    230.01042  0.066323649  0.068416372            8 
  290000   0.79722855   -2.8030068    230.57588  0.066257437  0.068289035            3 
  291000   0.80171974   -2.8423117     230.4501  0.065993729  0.068161616            3 
  292000    0.7996046   -2.8197247    230.90411  0.065897291   0.06803439            3 
  293000    0.8149085   -2.8346064    231.57627  0.065863557  0.067908795            2 
  294000   0.77870616    -2.853843    231.24503  0.065545643  0.067781856            6 
  295000   0.80881386   -2.8554412    232.67293  0.065726817  0.067654891           10 
  296000   0.79766749   -2.8237968     232.8967  0.065567764  0.067529882            2 
  297000   0.79253951   -2.8414472     233.1802  0.065426543   0.06740287            5 
  298000   0.78466905   -2.8640008    233.17491  0.065205512  0.067276192            5 
  299000   0.78163395   -2.8346856    234.60005   0.06538463  0.067149163            3 
  300000   0.77592373   -2.8488832    234.18318  0.065050885  0.067021841            4 
  301000   0.78749942   -2.8472698    234.56276  0.064939857   0.06689531            3 
  302000    0.7857914   -2.8313181    234.32191  0.064658364  0.066766342            2 
  303000   0.79954859   -2.8754717    234.79577  0.064575293  0.066638467            2 
  304000    0.7953296   -2.8530444    235.96536  0.064683486  0.066510599            4 
  305000   0.77579622   -2.8491168    235.28688  0.064286034  0.066379965            6 
  306000   0.76323997   -2.8479747    236.11257  0.064300807  0.066251912            3 
  307000   0.78424795   -2.8501599    236.63969  0.064234443  0.066124159            3 
  308000    0.7816721   -2.8659196    237.21388  0.064181245  0.065997909            3 
  309000   0.77515065   -2.8750778    237.59933   0.06407749  0.065873271            4 
  310000   0.78378648   -2.8641754    238.29794  0.064058587  0.065748106            2 
  311000   0.75751329   -2.8872839    238.52917  0.063914568  0.065624759            6 
  312000   0.76585727   -2.8703604     238.9525  0.063822784   0.06550178            3 
  313000   0.77896868   -2.8543321    239.44529  0.063750077  0.065380189            3 
  314000    0.7794647     -2.87003    239.15845  0.063470925  0.065257276            8 
  315000   0.77007728   -2.8717449    239.58097   0.06338121  0.065133771            6 
  316000   0.76346879   -2.8824728    240.84001  0.063512661  0.065012212            6 
  317000   0.77166009   -2.8760746    241.03996  0.063364867  0.064892872            6 
  318000   0.76347737   -2.8687852    241.58324  0.063307978  0.064773721            8 
  319000   0.73095427   -2.8841011     241.7107  0.063142816  0.064655661            3 
  320000   0.75271848   -2.8973109     242.5797  0.063171798  0.064538119            3 
  321000   0.74359478   -2.8826568    243.39393  0.063186378  0.064422035            3 
  322000   0.73245461   -2.8952118    243.75191  0.063082793  0.064304587            4 
  323000    0.7576447   -2.9415618    244.31198  0.063031987  0.064186599            4 
  324000   0.74605532   -2.8990934     244.0039  0.062758206  0.064068318            4 
  325000   0.75622917   -2.8978149    244.26123  0.062631084  0.063951367            2 
  326000   0.76191529   -2.9003425    245.53304  0.062764069  0.063835512            7 
  327000   0.74131781   -2.9000981     245.6547  0.062603135  0.063720602            8 
  328000   0.74525065   -2.8709073    246.41833  0.062606282   0.06360548            6 
  329000   0.75021938   -2.8867748    246.32696  0.062392847  0.063490506            4 
  330000   0.73377271   -2.9204004    246.80865  0.062325418  0.063373368            7 
  331000   0.75375527   -2.9178925    246.20158  0.061984286  0.063256199            5 
  332000   0.74132667   -2.9424139    246.66643  0.061914265  0.063140191            7 
  333000    0.7319007   -2.9100396     247.3345   0.06189552  0.063023221            5 
  334000   0.72723793   -2.9269756    246.11185  0.061405152  0.062904383            3 
  335000    0.7395966   -2.9378889    247.10096  0.061467899  0.062785584            6 
  336000   0.71112833   -2.9228598     247.3958  0.061358086  0.062666853            3 
  337000   0.73339817   -2.9113283    247.83833  0.061285442  0.062547632            9 
  338000   0.71768058   -2.9305343    247.81824  0.061099171  0.062427991            9 
  339000   0.73558521   -2.9453115    248.61758  0.061115433  0.062307933            4 
  340000   0.73687319   -2.9152368    249.26561  0.061094512  0.062189655            2 
  341000   0.72739864   -2.9317798    248.66517  0.060768615  0.062070637            7 
  342000   0.72651969   -2.9414518    249.04552  0.060683606  0.061951257            3 
  343000   0.71770625   -2.9663855    248.75914  0.060437108  0.061830572            3 
  344000   0.72858955   -2.9311549    249.27706  0.060386885  0.061709718            5 
  345000     0.703771   -2.9159761    249.60327  0.060290646  0.061590295            5 
  346000   0.69640117   -2.9468322    249.44879  0.060079187  0.061469621            7 
  347000   0.70856226     -2.94307    250.74662  0.060217729  0.061349398            3 
  348000   0.71701906   -2.9487567    251.24985  0.060165194  0.061230001            5 
  349000   0.70755078   -2.9721883    251.20484  0.059982052   0.06110982            4 
  350000   0.68991348   -2.9349368    251.36609  0.059849069  0.060990522            3 
  351000   0.69904037   -2.9700016    252.48433  0.059944049  0.060871786            2 
  352000    0.7108063   -2.9716264    252.67678  0.059819312  0.060753542            4 
  353000    0.7043715   -2.9844418    251.46786  0.059364462  0.060634662            8 
  354000   0.69793589   -2.9558296    253.09238  0.059579186  0.060516687            6 
  355000      0.69774   -2.9698747    252.61109  0.059298378  0.060399298            7 
  356000   0.70270189   -2.9704718    253.07633  0.059240714  0.060282436            4 
  357000   0.69922435   -2.9922743     253.3392  0.059136134  0.060163184            4 
  358000   0.70291878   -2.9699043    254.09378  0.059146598   0.06004486            6 
  359000   0.68909107   -2.9964745    254.02591  0.058966088  0.059926895            4 
  360000   0.68709416   -2.9597048    254.70327   0.05895909  0.059811188            5 
  361000   0.69740665   -2.9901094    254.41154  0.058728426  0.059696307            4 
  362000   0.68432495   -2.9934684    255.56458  0.058831625  0.059582154            3 
  363000   0.69564303   -2.9764748    255.51309  0.058657735  0.059468622            8 
  364000   0.67582952   -2.9676774    255.30173  0.058448197  0.059355864            5 
  365000   0.68731863   -3.0116753    255.54395  0.058343367  0.059241073            6 
  366000   0.69824612   -2.9813483     256.1111  0.058313091  0.059126266            4 
  367000   0.67262584   -2.9956063    256.38199  0.058215711   0.05901307            6 
  368000    0.6840889   -3.0034062    257.28826   0.05826274  0.058898415           13 
  369000   0.67576192   -2.9938706    256.35606  0.057894323  0.058784205            4 
  370000   0.68424124   -3.0181855     256.8047  0.057838897  0.058670402            6 
  371000   0.66484632   -2.9993698     257.2531  0.057783716  0.058556687            4 
  372000   0.66443575   -3.0257373    257.01214  0.057574404  0.058442583            3 
  373000   0.67039585   -3.0006907     257.5974  0.057550805  0.058328018            4 
  374000   0.67268031   -3.0229503    258.62669  0.057626268  0.058215402            6 
  375000   0.66982955   -3.0226097    258.48016  0.057440036  0.058102086            9 
  376000   0.67287749   -3.0056918    258.62468  0.057319299  0.057990421            7 
  377000   0.66826963   -3.0157192    259.04776  0.057260778  0.057877988            5 
  378000   0.66896272    -3.021759    258.47129  0.056982207  0.057764742            6 
  379000   0.64822786   -3.0292273    259.68166   0.05709799   0.05765122            4 
  380000   0.65461301   -3.0246584    259.31888  0.056868176  0.057538369            3 
  381000   0.65175906   -3.0457931    260.61218  0.057001789  0.057426115            9 
  382000   0.65434587   -3.0323702    260.12195  0.056745627   0.05731332            6 
  383000   0.64978822   -3.0356003    260.13737   0.05660082  0.057200902           11 
  384000   0.63987067   -3.0316961    260.87582  0.056613676  0.057087583            2 
  385000   0.64676118   -3.0352102     260.7986  0.056449914  0.056975423           12 
  386000   0.64104415   -3.0699118    260.59073  0.056258793  0.056864059            6 
  387000    0.6662541   -3.0352734    260.76674  0.056151322  0.056752729            7 
  388000   0.64956398   -3.0279671    261.42556  0.056148101  0.056640819            5 
  389000   0.65387885   -3.0474826    261.23979  0.055963966  0.056528518            7 
  390000   0.65969775   -3.0482575    261.35128   0.05584429  0.056414987            4 
  391000   0.63762188    -3.059617    261.37722  0.055706995  0.056301379            3 
  392000   0.64570056   -3.0631243    261.40564  0.055570927  0.056188241            5 
  393000   0.63638944   -3.0657531    261.73006  0.055498317  0.056074529            5 
  394000   0.63635785   -3.0541641    261.27261  0.055260704  0.055960217            6 
  395000   0.61803958   -3.0787868    261.27139  0.055120546  0.055846024            8 
  396000   0.64319603    -3.066978     261.7519  0.055082471  0.055731367            7 
  397000   0.62087772   -3.0785553    262.19784   0.05503733   0.05561719            4 
  398000   0.63222512   -3.0760572    262.17442  0.054894141  0.055503048            7 
  399000   0.64062899    -3.065113    261.95201   0.05471011  0.055389206            6 
  400000   0.62527711   -3.0974444    262.73854  0.054737195  0.055275338            7 
  401000   0.63905694   -3.0791119    262.17671  0.054483938   0.05516084            8 
  402000   0.62881351   -3.0810568    262.14994  0.054342857  0.055046255           11 
  403000   0.61520158   -3.0905196    262.67961  0.054317538  0.054930748           12 
  404000   0.62836535   -3.0732288    262.62495  0.054171814  0.054814418            5 
  405000   0.62123928   -3.0765469    262.64874   0.05404295  0.054698855            8 
  406000   0.61361685   -3.0984109    262.06784  0.053790607  0.054582922            7 
  407000   0.60091804   -3.1030362    263.09209  0.053868159  0.054467175            7 
  408000   0.60304392   -3.0884745    263.09941  0.053737625  0.054352277           10 
  409000   0.60887523   -3.0883025    263.37011  0.053661391  0.054237908            9 
  410000   0.62775778   -3.1020698    263.72827  0.053603308  0.054124051           11 
  411000   0.61040084   -3.1002467    262.88938  0.053302794    0.0540097            8 
  412000   0.60372115   -3.1063662    263.72994  0.053343435  0.053895028           17 
  413000   0.60562584   -3.0968135    264.06216  0.053281307  0.053781791           22 
  414000   0.62215368   -3.1162387    264.09091  0.053158396  0.053668891            5 
  415000   0.60060562   -3.1317531     264.9557  0.053203957  0.053556086           13 
  416000   0.61022157   -3.1038297     264.6836  0.053021555  0.053443009            7 
  417000   0.62019119   -3.1170324    264.42661  0.052843047   0.05332969            6 
  418000   0.59844187   -3.1287568    264.36599  0.052704544  0.053217526           14 
  419000   0.59105753   -3.1381965    264.48969  0.052603359  0.053104043           11 
  420000   0.59674079    -3.131673    265.18056  0.052615191  0.052992238            8 
  421000   0.59143534   -3.1289819    265.46273  0.052546066  0.052880176            9 
  422000   0.59016278   -3.1436143    265.30312  0.052390031  0.052769259           12 
  423000   0.59863641    -3.146584     266.1032  0.052423798  0.052657818           14 
  424000   0.57844935   -3.1433825    264.89954  0.052063589  0.052546223           11 
  425000   0.58212613   -3.1335835    265.49409  0.052057664   0.05243612            9 
  426000   0.60164642    -3.125734     266.0103  0.052036443  0.052325739            9 
  427000   0.58174247   -3.1434196    266.58573  0.052026879  0.052216849            7 
  428000   0.59867615   -3.1401939    266.39617  0.051868413   0.05210799            8 
  429000   0.58739452   -3.1650865    267.07651  0.051879663  0.051998521            9 
  430000   0.58341323   -3.1557683    266.69411  0.051684905  0.051888944            5 
  431000   0.58077268   -3.1583601     267.0258  0.051629118  0.051780071            7 
  432000   0.58543461   -3.1568811    267.09428  0.051522817  0.051671106           27 
  433000   0.57740718   -3.1653628    266.82297  0.051351611  0.051561782           26 
  434000   0.56353184   -3.1681318    267.34235  0.051333017  0.051452736           10 
  435000   0.57527146   -3.1798423     267.1132  0.051171111  0.051343273           14 
  436000   0.57573337   -3.1650721    267.54207  0.051135717    0.0512336           18 
  437000   0.58245196   -3.1716657    267.46991  0.051004941  0.051125084            6 
  438000   0.57047542   -3.1745512    267.94326  0.050978549  0.051017055            9 
  439000   0.56581545   -3.1705952    267.96424  0.050866409  0.050909377           11 
  440000   0.56351068    -3.189889     267.9496   0.05074803  0.050801633            7 
  441000   0.56885252   -3.1740196    267.90806  0.050625105  0.050693205            9 
  442000   0.55427422   -3.1748115    268.13568  0.050553485  0.050585945           13 
  443000   0.55594844   -3.1851708    267.97544  0.050409226  0.050478682            6 
  444000   0.55191122   -3.2019016    268.66698  0.050425484  0.050371386            7 
  445000   0.55084712   -3.1901816    268.33894  0.050250738  0.050263916            6 
  446000   0.56630385   -3.1869165    268.20795  0.050113593  0.050156024            7 
  447000   0.54703531   -3.2039436    268.37312  0.050032274  0.050047478           14 
  448000   0.55269334   -3.1991146    268.38088  0.049922039   0.04993954           13 
  449000   0.55833642   -3.1971543    267.78302  0.049699891  0.049831618           10 
  450000   0.55845993   -3.2251737    268.65739  0.049751369  0.049723093           16 
  451000   0.55898061   -3.1948808    268.38009  0.049589818  0.049616089            6 
  452000   0.53669725   -3.2133582    268.55089  0.049511594  0.049509046           15 
  453000   0.54315709   -3.2168104    269.09004  0.049501479  0.049402225            9 
  454000   0.54502036   -3.2205182    268.56248  0.049295609  0.049294594            9 
  455000   0.52704861    -3.222219    268.60253  0.049194602  0.049187443           12 
  456000   0.53955313   -3.2143804    269.92266  0.049327972  0.049081282            6 
  457000    0.5420518   -3.2208063    268.45062  0.048951609  0.048975015           12 
  458000   0.54348369   -3.2222618     269.3285  0.049004458  0.048867882            4 
  459000   0.52836309   -3.2220897    268.84053  0.048809101  0.048761113           13 
  460000   0.53492013   -3.2317382    269.77245  0.048871821  0.048654996           10 
  461000   0.54660195   -3.2528196    269.43124  0.048704129  0.048549032            6 
  462000   0.53034153   -3.2400609    270.18835  0.048735272   0.04844324           11 
  463000    0.5191089   -3.2353782    268.86554  0.048391925  0.048336999           10 
  464000   0.53273259    -3.237523    269.66614  0.048431419  0.048230485            7 
  465000   0.51731344   -3.2496999    268.94927  0.048198795  0.048124597           21 
  466000   0.53518233   -3.2627538    269.87555  0.048261007  0.048018714           19 
  467000   0.52458905   -3.2435144    270.03139  0.048185472  0.047912929           10 
  468000   0.53619422   -3.2599767    269.90668  0.048060305  0.047807621            8 
  469000   0.52017038   -3.2533327    270.58097  0.048077642  0.047702951           13 
  470000    0.5112307   -3.2584413    270.50892  0.047962574  0.047599203            8 
  471000   0.51917462   -3.2655514    270.11363  0.047790805   0.04749528           22 
  472000   0.52388992   -3.2691293     270.5181  0.047760963  0.047391094           21 
  473000   0.51088594   -3.2621482    269.92962   0.04755631   0.04728668           27 
  474000   0.50437386   -3.2779156    270.17304  0.047498777  0.047182506            9 
  475000   0.51002028   -3.2798048    270.18681  0.047401194  0.047078128           21 
  476000   0.50783581   -3.2773918    269.43102  0.047169295  0.046973723           17 
  477000   0.50004163   -3.2907894    270.07531  0.047182968  0.046869506           14 
  478000   0.50473195   -3.2703837     270.2906  0.047121792  0.046765725           10 
  479000   0.50625861   -3.2656659      270.491  0.047058282  0.046661961            7 
  480000   0.48981882    -3.287083    270.42848  0.046949389  0.046558232           16 
  481000   0.48994514   -3.2747873    270.80332  0.046916723  0.046454748           14 
  482000   0.49965945   -3.2788964    270.71127   0.04680347  0.046350918           21 
  483000   0.50095467   -3.3029854    270.73902  0.046711355  0.046246986           11 
  484000   0.49598141   -3.2766896    270.31335  0.046541554  0.046143462           12 
  485000   0.50360596   -3.3144012    269.87674  0.046370574  0.046039437           19 
  486000   0.48332142   -3.2939303    269.87543  0.046274937  0.045935422           28 
  487000    0.4967588    -3.279912     270.6933  0.046319866  0.045832123           18 
  488000   0.50468248   -3.3035354     270.8932  0.046259084  0.045729019           41 
  489000   0.48517753   -3.3009713    270.11541  0.046031937  0.045625479           14 
  490000   0.48253489   -3.3166033    269.71094  0.045869207  0.045521852           22 
  491000   0.48523746   -3.3178132    269.40767  0.045724317  0.045418399           23 
  492000   0.47318736   -3.3160305    269.82175  0.045701516  0.045314482           26 
  493000   0.48250984    -3.322066    269.69347  0.045587132  0.045210882            9 
  494000   0.47148598   -3.3318739    270.01696   0.04554942  0.045106982           28 
  495000   0.48138242   -3.3201188    270.25685  0.045497786   0.04500409           22 
  496000   0.47239998   -3.3215857    270.12969  0.045384692  0.044901751           14 
  497000   0.47964835   -3.3377788    269.85825  0.045247862  0.044799442           16 
  498000   0.47464972    -3.323746    270.15731  0.045207047  0.044697289           19 
  499000   0.47338625   -3.3389508    270.21124  0.045125457  0.044595137           20 
  500000    0.4785458   -3.3491351    270.50259  0.045083765  0.044492921           66 
  501000   0.46324401   -3.3452824     270.3376  0.044966333  0.044390235           13 
  502000   0.46111267    -3.339453    270.34863  0.044878591  0.044287963           13 
  503000   0.46299605   -3.3408612    269.97159  0.044726903  0.044185809           10 
  504000   0.46264343    -3.353321    269.56495  0.044570924  0.044083847           14 
  505000   0.46433761   -3.3603451    270.25873  0.044597151  0.043981848           35 
  506000   0.45341544   -3.3522961    269.31161  0.044353032  0.043879794           38 
  507000   0.44244615    -3.364077    269.96628  0.044373156  0.043778094           54 
  508000   0.45518162   -3.3567609    269.59411  0.044224756  0.043676311           19 
  509000   0.44340385   -3.3694794    269.60764  0.044140086  0.043574653           40 
  510000   0.45615793   -3.3697713    269.30521  0.044004119  0.043472947           65 
  511000   0.44772275   -3.3803885    269.95591  0.044024122  0.043371501           82 
  512000   0.44976677   -3.3861331    269.46896  0.043858881  0.043269919           69 
Loop time of 1215.31 on 48 procs for 500000 steps with 4000 atoms

Performance: 71093.165 tau/day, 411.419 timesteps/s
99.4% CPU use with 48 MPI tasks x no OpenMP threads

MPI task timing breakdown:
Section |  min time  |  avg time  |  max time  |%varavg| %total
---------------------------------------------------------------
Pair    | 74.998     | 81.067     | 86.184     |  30.9 |  6.67
Neigh   | 8.1223     | 8.4211     | 8.7494     |   5.4 |  0.69
Comm    | 76.158     | 81.558     | 86.934     |  33.6 |  6.71
Output  | 0.87702    | 0.87746    | 0.88744    |   0.2 |  0.07
Modify  | 1029.3     | 1032.3     | 1036.1     |   5.1 | 84.94
Other   |            | 11.07      |            |       |  0.91

Nlocal:        83.3333 ave          93 max          77 min
Histogram: 3 4 12 3 6 13 6 0 0 1
Nghost:        2167.44 ave        2182 max        2147 min
Histogram: 1 0 4 2 10 6 12 6 4 3
Neighs:        14297.7 ave       15497 max       13098 min
Histogram: 4 4 3 5 9 6 5 5 3 4
FullNghs:      28594.2 ave       32281 max       26529 min
Histogram: 3 5 12 6 14 4 3 0 0 1

Total # of neighbors = 1372523
Ave neighs/atom = 343.13075
Neighbor list builds = 27175
Dangerous builds = 0

#clear
#
#next RN
#
#jump SELF
Total wall time: 0:20:18
