
units lj                  # Use reduced LJ style units
atom_style atomic         # Uncharged point particles
atom_modify map hash      # Needed for indexing of clusters etc
                          # Used to be able to find where atoms are in relation to each other.

lattice fcc 1.0 spacing 1 1 1
Lattice spacing in x,y,z = 1.5874011 1.5874011 1.5874011
region box block 0 10 0 10 0 10 units lattice
create_box 2 box
Created orthogonal box = (0.0000000 0.0000000 0.0000000) to (15.874011 15.874011 15.874011)
  3 by 4 by 4 MPI processor grid
create_atoms 1 box
Created 4000 atoms
  using lattice units in orthogonal box = (0.0000000 0.0000000 0.0000000) to (15.874011 15.874011 15.874011)
  create_atoms CPU = 0.002 seconds
set type 1 type/fraction 2 0.67 78393
Setting atom values ...
  2693 settings made for type/fraction
mass 1 1.0
mass 2 1.0
pair_style lj/cut  3.5
pair_modify tail  yes
pair_coeff 1  1  1.0  1.0   # Intearaction between 1 and 1 set with epsilon = 1 and sigma = 1
pair_coeff 1  2  1.5  0.8
pair_coeff 2  2  0.5  0.88

write_data data.0
System init for write_data ...
Neighbor list info ...
  update every 1 steps, delay 10 steps, check yes
  max neighbors/atom: 2000, page size: 100000
  master list distance cutoff = 3.8
  ghost atom cutoff = 3.8
  binsize = 1.9, bins = 9 9 9
  1 neighbor lists, perpetual/occasional/extra = 1 0 0
  (1) pair lj/cut, perpetual
      attributes: half, newton on
      pair build: half/bin/atomonly/newton
      stencil: half/bin/3d
      bin: standard
WARNING: Not all mixed pair coeffs generated from mixing. Use write_data with 'pair ij' option to store all pair coeffs. (../write_data.cpp:312)


#############################
#   M E L T   S Y S T E M   #
#############################

velocity all create 2.4 9580093 mom yes dist gaussian # Assign velocities
                                                    # Temperature 2.4, random number seed, zero linear momentum
                                                                                # Gaussian distribution

timestep 0.002   # simulation timestep
thermo 1000       # output thermodynamic data every 1000 steps bf 100

# Define a fix  in this case with index 1 applied to all
# particles in the simulation. This fix is for simulations
# in the anisotropic NPT ensemble. Note that we use the MTK
# correction.
fix 1 all npt temp 2.4 2.4 0.1 iso 5.68 5.68 0.5 mtk yes tchain 5 pchain 5 # Use NPT ensemble
                                                                         # Set temperature and pressure and damping
                                                                         # Numbers of thermostats in chain and in barostat
run 10000          # run for 10000 steps
Per MPI rank memory allocation (min/avg/max) = 3.642 | 3.644 | 3.648 Mbytes
Step Temp E_pair E_mol TotEng Press Volume 
       0          2.4   -4.3445498            0  -0.74544977   -3.8717164         4000 
    1000    2.3973138   -4.0311486            0  -0.43607683     5.828948    3613.7041 
    2000    2.4205123   -4.0465729            0  -0.41671224    5.9465787    3597.6183 
    3000    2.4082443    -4.093654            0  -0.48219062    5.6894213    3601.7933 
    4000    2.4335955   -4.0559838            0  -0.40650308    5.4898609     3629.914 
    5000    2.3393664   -4.0425186            0  -0.53434624    5.5477246    3619.2249 
    6000    2.3702689   -4.0784036            0  -0.52388908     5.625715    3603.0168 
    7000    2.4050909   -4.0573223            0  -0.45058785    5.7138364    3613.3284 
    8000    2.4079447   -4.0038822            0  -0.39286822    5.7338549    3637.2614 
    9000    2.3944873    -4.020821            0  -0.42998794    5.7249412    3633.0645 
   10000    2.3589575   -4.0285745            0  -0.49102292    5.4848411    3636.3557 
Loop time of 2.62495 on 48 procs for 10000 steps with 4000 atoms

Performance: 658297.745 tau/day, 3809.593 timesteps/s
99.7% CPU use with 48 MPI tasks x no OpenMP threads

MPI task timing breakdown:
Section |  min time  |  avg time  |  max time  |%varavg| %total
---------------------------------------------------------------
Pair    | 1.1916     | 1.2629     | 1.3327     |   2.8 | 48.11
Neigh   | 0.2171     | 0.22308    | 0.23382    |   0.7 |  8.50
Comm    | 0.80006    | 0.88049    | 0.94135    |   3.7 | 33.54
Output  | 0.0002491  | 0.00025478 | 0.00032393 |   0.0 |  0.01
Modify  | 0.21427    | 0.24252    | 0.26555    |   2.8 |  9.24
Other   |            | 0.01569    |            |       |  0.60

Nlocal:        83.3333 ave          91 max          71 min
Histogram: 1 1 1 2 3 13 9 7 5 6
Nghost:        1747.08 ave        1776 max        1721 min
Histogram: 2 3 3 9 10 10 3 5 1 2
Neighs:        10489.1 ave       11689 max        8758 min
Histogram: 1 0 4 4 6 9 9 8 4 3

Total # of neighbors = 503478
Ave neighs/atom = 125.86950
Neighbor list builds = 906
Dangerous builds = 224

# Equilibrate just above the melting temperature to avoid step fn in T

fix 1 all npt temp 1.25 1.25 0.1 iso 5.68 5.68 0.5 mtk yes tchain 5 pchain 5
run 2000
Per MPI rank memory allocation (min/avg/max) = 3.644 | 3.646 | 3.650 Mbytes
Step Temp E_pair E_mol TotEng Press Volume 
   10000    2.3589575   -4.0285745            0  -0.49102292    5.4848411    3636.3557 
   11000    1.2616993     -5.94301            0   -4.0509342    5.4991976    2774.0776 
   12000    1.2691608   -5.9337295            0   -4.0304642    5.5246291    2776.7497 
Loop time of 0.658323 on 48 procs for 2000 steps with 4000 atoms

Performance: 524970.274 tau/day, 3038.022 timesteps/s
99.7% CPU use with 48 MPI tasks x no OpenMP threads

MPI task timing breakdown:
Section |  min time  |  avg time  |  max time  |%varavg| %total
---------------------------------------------------------------
Pair    | 0.29725    | 0.32244    | 0.35024    |   2.4 | 48.98
Neigh   | 0.041302   | 0.043795   | 0.046758   |   0.6 |  6.65
Comm    | 0.21347    | 0.24242    | 0.27221    |   3.1 | 36.82
Output  | 5.3335e-05 | 5.5138e-05 | 7.2044e-05 |   0.0 |  0.01
Modify  | 0.041002   | 0.044668   | 0.048446   |   1.1 |  6.79
Other   |            | 0.004943   |            |       |  0.75

Nlocal:        83.3333 ave          90 max          76 min
Histogram: 2 2 6 7 4 8 6 7 2 4
Nghost:        2107.31 ave        2126 max        2083 min
Histogram: 1 2 1 6 7 12 7 6 1 5
Neighs:        13743.7 ave       15251 max       12003 min
Histogram: 1 3 3 8 6 9 4 7 5 2

Total # of neighbors = 659696
Ave neighs/atom = 164.92400
Neighbor list builds = 144
Dangerous builds = 17

#############################
# L I N E A R  Q U E N C H  #
#############################

# Define solid atoms. This closely follows ten Wolde  Ruiz-Montero and Frenkel  Faraday Discuss  1996  104  93-110
# Compute components of the per-atom q6 vector
compute q6 all orientorder/atom degrees 1 6 components 6 nnn NULL cutoff 1.3 # compute the Q6 parameter.
                                                                             # Use all neighbours within 1.3 unit cell.

# get number of connections
compute coord_number all coord/atom orientorder q6 0.5

# An atom is solid if it has 8 or more connections (of a possible 14)
variable is_solid atom c_coord_number>=8
group solid dynamic all var is_solid    # Must be dynamic to update
dynamic group solid defined

# do clustering
compute cluster solid cluster/atom 1.3 # Create a cluster where all atoms within are solid and max 1.3 units from another member

# define chunks one chunk per cluster
compute clus_chunks solid chunk/atom c_cluster nchunk every compress yes  # Says which atoms are in which chunk

# count the size of each chunk
compute size_chunks solid property/chunk clus_chunks count


# Find the maximum entry in the vector of chunk sizes
variable max_n equal max(c_size_chunks)


# Thermo style which includes this variable
# thermo_style custom step temp pe vol v_max_n

thermo ${N}  # Print the thermo information every 100 steps
thermo 1000  

# Reset the npt fix at a lower temperature (below freezing)
fix 1  all npt temp  ${temp} ${temp}  0.1  iso  5.68  5.68  0.5  mtk yes tchain  5  pchain  5
fix 1  all npt temp  0.45 ${temp}  0.1  iso  5.68  5.68  0.5  mtk yes tchain  5  pchain  5
fix 1  all npt temp  0.45 0.45  0.1  iso  5.68  5.68  0.5  mtk yes tchain  5  pchain  5

dump dmp2 all dcd ${N} traj.dcd
dump dmp2 all dcd 1000 traj.dcd


compute msd all msd com yes
variable twopoint equal c_msd[4]/6/(step*dt+1.0e-6)
fix 9 all vector 10 c_msd[4]
variable fit equal slope(f_9)/6/(10*dt)
thermo_style custom step temp pe c_msd[4] v_twopoint v_fit v_max_n

fix 1 all npt temp 1.25 ${temp} 0.1 iso 5.68 5.68 0.5 mtk yes tchain 5 pchain 5
fix 1 all npt temp 1.25 0.45 0.1 iso 5.68 5.68 0.5 mtk yes tchain 5 pchain 5
run 2000000 # 5000000  # Run for this many steps
Neighbor list info ...
  update every 1 steps, delay 10 steps, check yes
  max neighbors/atom: 2000, page size: 100000
  master list distance cutoff = 3.8
  ghost atom cutoff = 3.8
  binsize = 1.9, bins = 8 8 8
  4 neighbor lists, perpetual/occasional/extra = 1 3 0
  (1) pair lj/cut, perpetual
      attributes: half, newton on
      pair build: half/bin/atomonly/newton
      stencil: half/bin/3d
      bin: standard
  (2) compute orientorder/atom, occasional
      attributes: full, newton on
      pair build: full/bin/atomonly
      stencil: full/bin/3d
      bin: standard
  (3) compute coord/atom, occasional
      attributes: full, newton on
      pair build: full/bin/atomonly
      stencil: full/bin/3d
      bin: standard
  (4) compute cluster/atom, occasional
      attributes: full, newton on
      pair build: full/bin/atomonly
      stencil: full/bin/3d
      bin: standard
Per MPI rank memory allocation (min/avg/max) = 9.846 | 9.851 | 9.854 Mbytes
Step Temp PotEng c_msd[4] v_twopoint v_fit v_max_n 
   12000    1.2691608   -5.9337295 8.3599534e-31 5.805523e-33 8.3333333e+20            2 
   13000    1.2685006   -5.9963097   0.57257253 0.0036703366  0.046882832            1 
   14000    1.2362807   -5.9903591    1.1200937  0.006667224  0.045805306            1 
   15000    1.2503411   -5.9247782    1.6654743 0.0092526345  0.045729525            3 
   16000    1.2583465   -6.0029433    2.2080059  0.011500031  0.045472635            2 
   17000     1.287768   -5.9869287    2.7751316  0.013603586  0.045813087            2 
   18000    1.2467233   -6.0043096    3.2875485  0.015220132  0.045639852            4 
   19000    1.2720756   -5.9834763    3.8085014  0.016703953  0.045184664            4 
   20000    1.2674482   -6.0073322    4.3220311  0.018008462  0.044963205            3 
   21000    1.2835517   -6.0101819    4.8136461   0.01910177  0.044595784            2 
   22000    1.2456222   -6.0073492    5.4157158  0.020514074  0.044487057            3 
   23000     1.238573   -5.9951716    6.0144906  0.021791632  0.044686959            4 
   24000    1.2425082   -5.9400801    6.6065425  0.022939383  0.045015438            3 
   25000    1.2546835   -5.9996575     7.093078  0.023643593  0.045242742            2 
   26000    1.2737736   -5.9883187    7.5839303  0.024307468  0.045173567            2 
   27000    1.2078325   -5.9948009     8.049191  0.024843182  0.045029568            2 
   28000    1.2554018   -5.9588286    8.5495588  0.025445115  0.044794316            2 
   29000    1.2416019   -5.9961763    8.9677578  0.025769418  0.044549107            2 
   30000     1.261308   -6.0343939    9.4830285  0.026341745  0.044283666            4 
   31000    1.2391904   -5.9704861    9.9776437  0.026821622  0.044063466            1 
   32000    1.2425152   -6.0024747    10.442869   0.02719497  0.043815092            3 
   33000    1.2355043    -6.039165    10.990378  0.027753479  0.043654435            2 
   34000    1.2674728   -5.9563869     11.59838  0.028427402  0.043597124            1 
   35000    1.2665097   -5.9932199    12.048653  0.028687269  0.043511457            1 
   36000    1.2765075   -6.0674405    12.450848  0.028821407  0.043365571            1 
   37000    1.2318751   -6.0242709      12.9592  0.029187386  0.043260379            2 
   38000    1.2518357   -5.9956656     13.55471   0.02972524  0.043169344            3 
   39000    1.2245065   -6.0716362    13.988051  0.029888998  0.043113459            2 
   40000    1.2409982   -6.0390566    14.703054  0.030631363  0.043074399            2 
   41000    1.2371931   -5.9947349    15.191397  0.030876823  0.043112563            3 
   42000    1.2374825   -6.0144855    15.841649  0.031431843  0.043153225            2 
   43000    1.2443412   -6.0002149    16.555875  0.032085029  0.043258198            3 
   44000    1.2476054   -6.0341902    17.123915  0.032431656  0.043389433            3 
   45000     1.239016   -6.0056784    17.380619  0.032186331  0.043470596            4 
   46000     1.252459   -6.0213589    17.957872  0.032532376  0.043506005            3 
   47000    1.2260449   -6.0227004    18.437492  0.032690588  0.043517335            2 
   48000    1.2341415   -6.0009775    18.906892  0.032824464  0.043522017            2 
   49000    1.2152192   -6.0153393    19.544681  0.033239254  0.043534625            2 
   50000    1.2303142    -6.009575    20.165803  0.033609671  0.043583927            2 
   51000    1.2227478   -6.0262105    20.725479  0.033865162  0.043650989            2 
   52000    1.2171059   -6.0017144    21.190455  0.033959063  0.043718186            1 
   53000    1.2331657   -6.0537006    21.627889  0.034006115  0.043744998            2 
   54000    1.2368563   -6.0135083    22.265026  0.034359607  0.043767461            5 
   55000    1.1891407   -6.0291543    22.900538  0.034697784   0.04380597            2 
   56000    1.2349005   -6.0459317    23.303517  0.034677852  0.043839754            3 
   57000    1.2096083   -6.0490759    23.748071  0.034719402   0.04386163            4 
   58000    1.2380433   -6.0302985    24.370755  0.035015452  0.043868051            2 
   59000    1.2160209   -5.9970652    24.993648  0.035301762  0.043900707            1 
   60000    1.2250971   -6.0465305      25.5295  0.035457639  0.043923453            3 
   61000    1.2450481    -6.040697    26.032775    0.0355639  0.043949193            3 
   62000    1.2393269   -6.0809166    26.430454  0.035524803  0.043962081            5 
   63000    1.2069299   -6.0243872    27.238903  0.036030294  0.043983128            3 
   64000    1.2437208   -6.0043331    27.742294  0.036122778  0.044025163            3 
   65000    1.2220887   -6.0640184    28.259227  0.036229778  0.044065585            2 
   66000    1.2108544   -6.0097225    28.792426  0.036354073  0.044102595            2 
   67000    1.2565452   -6.0378619    29.369257  0.036528926  0.044137287            2 
   68000    1.2280863   -6.0432022    29.994943  0.036758508  0.044177986            3 
   69000    1.2389632    -6.034375    30.385833  0.036697866  0.044223882            2 
   70000    1.2169281   -6.0264241    30.995401  0.036899287  0.044237677            2 
   71000     1.238972   -6.0393485    31.563241  0.037046058  0.044263256            4 
   72000    1.2176805   -6.0413397     32.07235  0.037120775  0.044287187            2 
   73000    1.2494173   -6.0035023    32.829289  0.037476357  0.044319932            2 
   74000    1.2219485    -6.009581    33.285691  0.037483886  0.044369636            2 
   75000    1.2090495   -6.0518227    33.558645  0.037287383   0.04440126            2 
   76000    1.2187278   -6.0264035    34.086747  0.037375818  0.044406728            2 
   77000    1.2527062   -6.0916279    34.529473  0.037369559  0.044396471            3 
   78000    1.2421554   -6.0571783    35.055631  0.037452597  0.044378842            9 
   79000    1.2212636   -6.0604289    35.354838  0.037294133  0.044345654            2 
   80000     1.237667   -6.0125862    35.936756  0.037434121   0.04430525            3 
   81000    1.1934711   -6.0606664    36.161274  0.037202957  0.044272572            2 
   82000    1.2188513   -6.0919136     36.58975  0.037184705  0.044225832            5 
   83000    1.2282534   -6.0523326    37.087086   0.03723603  0.044175963            4 
   84000    1.2461343   -6.0529987    37.704281   0.03740504  0.044131878            2 
   85000    1.2220197   -6.0533687    38.378734   0.03762621  0.044100024            2 
   86000    1.2119432   -6.0669684    38.729491  0.037528576  0.044067648            3 
   87000    1.2167312   -6.1175312    39.200317  0.037548196  0.044031195            3 
   88000    1.2283306   -6.0875519    39.644358  0.037542006  0.043998489            2 
   89000    1.2295988   -6.1203139    40.213961  0.037653521  0.043965851            2 
   90000    1.1966454   -6.0470323    40.901205  0.037871486  0.043933744            2 
   91000    1.2085384    -6.076049    41.150812  0.037683894  0.043904826            5 
   92000    1.2297071   -6.0834617    41.926659  0.037977046  0.043872198            2 
   93000    1.2288749   -6.0748372    42.339684  0.037938785  0.043852019            4 
   94000    1.2197765   -6.0127487    43.225811  0.038320755  0.043833305            3 
   95000    1.2237726   -6.1200076    43.465333  0.038127485  0.043814167            3 
   96000    1.2311738   -6.0858434    44.099257  0.038280605  0.043803459            3 
   97000    1.2192433   -6.0809227    44.615844  0.038329763  0.043787792            2 
   98000    1.2184394   -6.0939237     45.14636  0.038389761  0.043776201            3 
   99000    1.2185702   -6.0810531    45.475649  0.038279166  0.043765278            2 
  100000    1.2400952   -6.0921944    46.053387  0.038377823  0.043749343            2 
  101000    1.2191708   -6.0771518    46.591618  0.038441929  0.043723925            3 
  102000    1.2112291   -6.0815292    46.962752  0.038368261   0.04370888            3 
  103000    1.2104847   -6.0727729    47.505867  0.038435167  0.043683079            3 
  104000    1.2259693   -6.0828631    47.780882  0.038285963  0.043649997            2 
  105000    1.2086064    -6.065411     48.33146  0.038358302  0.043621007            2 
  106000    1.2099829    -6.044897    48.932916  0.038469274  0.043584644            3 
  107000     1.185036   -6.1028296    49.152723  0.038280936  0.043550909            2 
  108000     1.232543   -6.1025407    49.648063  0.038308691  0.043501268            3 
  109000    1.2040321   -6.0597585     49.93397  0.038175818  0.043454059            2 
  110000    1.2038629   -6.1059838    50.209635  0.038037602  0.043407459            1 
  111000    1.2021417   -6.0439444    51.143434  0.038395971   0.04335917            3 
  112000    1.2049195   -6.0925181    51.235006  0.038121284  0.043308221            3 
  113000    1.2098363   -6.0716582    51.424404  0.037923601  0.043253641            2 
  114000    1.1863307   -6.0672873    52.061699  0.038056797  0.043192905            3 
  115000    1.2003803   -6.1043978    52.479356  0.038028519  0.043136153            2 
  116000    1.2046468   -6.0713154    53.096744  0.038144212  0.043078145            2 
  117000    1.2232071   -6.1225405    53.376083  0.038017153  0.043022496            4 
  118000    1.2237194    -6.096021     53.75901  0.037965402  0.042967975            2 
  119000    1.1875583   -6.0712724    54.433827  0.038118926  0.042913179            2 
  120000    1.2070955   -6.0665303    55.030586  0.038215685  0.042864193            1 
  121000    1.2123543   -6.1438122    55.341085  0.038113695  0.042815776            4 
  122000     1.204866   -6.0777003    55.872721  0.038164426  0.042772661            3 
  123000    1.2212492   -6.0274366    56.694149   0.03841067  0.042730457            5 
  124000    1.1963542   -6.0629745    56.906767  0.038243795  0.042688374            2 
  125000    1.2172863   -6.0893009    57.360905  0.038240603  0.042646042            2 
  126000    1.2302099   -6.0652767    58.109278  0.038432062  0.042610229            3 
  127000    1.1875202   -6.0635953    58.279795  0.038241335  0.042570701            4 
  128000    1.2047803   -6.0984159    58.794479  0.038277655  0.042528771            2 
  129000    1.2055726   -6.0943163    59.187307  0.038234695  0.042489022            5 
  130000    1.1815697   -6.0941574    59.545983  0.038170502  0.042448087            2 
  131000    1.2022305   -6.0733907    60.151787  0.038264496  0.042404372            4 
  132000    1.1676879   -6.1080123    60.670925  0.038302352  0.042363983            4 
  133000    1.1989661   -6.0574181    61.322121  0.038422381  0.042331182            5 
  134000    1.1792374    -6.073396    61.733178   0.03839128  0.042300196            3 
  135000    1.2016668   -6.1187659    62.136476  0.038355849  0.042269391            2 
  136000    1.2109321   -6.0575291     62.88609  0.038533143  0.042243969            3 
  137000    1.1929888   -6.1005784    63.136743  0.038404345  0.042217034            2 
  138000    1.2103213   -6.0923014    63.909584  0.038592744  0.042188888            2 
  139000    1.2052323   -6.1284733    64.151771  0.038460294  0.042159548            2 
  140000    1.1695823   -6.0818172    64.754873  0.038544567   0.04213342            4 
  141000    1.2036502   -6.1032693    65.160467  0.038510914  0.042106208            4 
  142000    1.1886798    -6.081567    65.660209  0.038532986  0.042080127            2 
  143000    1.2170811   -6.1389876    65.928068   0.03841962  0.042053148            2 
  144000    1.1904356   -6.1006149     66.65488  0.038573426  0.042027485            3 
  145000    1.2148703   -6.1179839    67.097942  0.038562036  0.042003419            1 
  146000    1.1898961   -6.1262478     67.72856  0.038657854  0.041983381            2 
  147000     1.195274   -6.1309752    68.477545   0.03881947  0.041965653            4 
  148000    1.1929601   -6.1313969    69.132091  0.038925727  0.041956518            4 
  149000    1.1622605   -6.1115743    69.500446  0.038870495  0.041946933            2 
  150000    1.2325657   -6.1201013    69.942102  0.038856723  0.041939688            4 
  151000    1.1960422   -6.1244327    70.392277  0.038847835  0.041932916            1 
  152000    1.1996876   -6.0717687    70.810939  0.038821786  0.041920017            1 
  153000      1.18538   -6.1067452     71.13271  0.038743306  0.041906041            4 
  154000     1.190101   -6.1357813    71.663972  0.038779206  0.041889933            3 
  155000    1.1894904   -6.0963357    72.722589  0.039098166  0.041881025            3 
  156000    1.1973453    -6.083616    72.824051  0.038901737  0.041869364            2 
  157000    1.2021754   -6.0832126    73.402138  0.038960795  0.041853257            5 
  158000     1.191755   -6.1200239    73.622341  0.038830349  0.041834259            6 
  159000    1.2173903   -6.1293168    73.900242  0.038731783  0.041813847            2 
  160000    1.1803403    -6.081189    74.646657  0.038878467  0.041794185            2 
  161000    1.1348184   -6.1343103    74.896692  0.038766404  0.041778603            2 
  162000    1.1762494   -6.1500368    75.544815  0.038860502  0.041759829            2 
  163000    1.1916961    -6.134769    75.907712  0.038807624  0.041741426            1 
  164000    1.2096482   -6.1371217    76.310485  0.038775653  0.041718843            4 
  165000    1.1969099   -6.1233224    76.446135  0.038609159  0.041695497            4 
  166000      1.19201    -6.146357    76.713752   0.03851092  0.041671425            2 
  167000    1.2143229   -6.1618604    77.053406  0.038449803  0.041641534            2 
  168000    1.1825389   -6.1302524    77.352746  0.038369418  0.041612008            2 
  169000    1.1947188   -6.1594114    77.578112  0.038253507  0.041580155            2 
  170000    1.1919229   -6.1590215    77.995296  0.038232988  0.041544098            3 
  171000    1.1991797   -6.1317242    78.796911  0.038400054  0.041507946            2 
  172000    1.1687241   -6.1412876    79.051797  0.038300289  0.041472693            3 
  173000    1.1941898   -6.1199664    79.792966  0.038435918  0.041440499            3 
  174000    1.1633501   -6.1278152    80.092896  0.038358667  0.041409957            4 
  175000    1.1895973    -6.141161    80.325418  0.038250199  0.041375199            2 
  176000    1.1679561   -6.1517228     80.82666  0.038270199  0.041338818            4 
  177000    1.1790311   -6.1058287    81.762543  0.038494606  0.041308211            3 
  178000     1.195796   -6.0972318    81.747828  0.038271455  0.041275533            3 
  179000    1.2088978   -6.1048528    82.215787  0.038275506  0.041243154            3 
  180000    1.1667191   -6.1470424    82.317279  0.038109851  0.041209849            2 
  181000    1.1826914   -6.1834846    82.919303  0.038176475  0.041176127            4 
  182000    1.1831123   -6.1710779    83.223635   0.03810606   0.04113998            1 
  183000    1.1785102   -6.1252796    83.973046  0.038239092  0.041103848            4 
  184000    1.1768847   -6.1539354    84.589402  0.038310417  0.041070181            2 
  185000    1.1956875   -6.1575233    84.467391  0.038048374  0.041038034            3 
  186000    1.1835497   -6.1299032    85.259777  0.038198825  0.041001608            3 
  187000    1.1707269   -6.2323352    85.011379  0.037883859  0.040964402            3 
  188000     1.152625   -6.1609128    85.478948  0.037889604  0.040927946            3 
  189000    1.1744364   -6.1308902    86.075707  0.037952252   0.04089182            5 
  190000    1.1721439   -6.1584733     86.78158  0.038062096  0.040856734            2 
  191000    1.1958125   -6.1561394    87.160347  0.038028075  0.040820694            2 
  192000    1.1855209   -6.1887509    87.710126  0.038068631  0.040783529            5 
  193000    1.1974868   -6.0780428    88.061161  0.038022954  0.040750769            2 
  194000    1.1839812   -6.1899331    88.300921  0.037929949   0.04071494            1 
  195000    1.1820315   -6.1441793    88.519286  0.037828754  0.040677743            2 
  196000    1.1978705   -6.1246472    88.861899   0.03778142  0.040639437            4 
  197000    1.1617311   -6.1797894    89.133581   0.03770456   0.04059834            2 
  198000    1.1972214   -6.1776759    89.659064  0.037735296  0.040556488            3 
  199000     1.170915   -6.1301025    90.239909  0.037788907  0.040517417            2 
  200000    1.1757271   -6.1668597    90.127408  0.037553086   0.04047728            3 
  201000    1.1945774   -6.1868271    90.628717  0.037574095  0.040436099            4 
  202000    1.1654048   -6.1897737    90.807507  0.037461843  0.040395268            3 
  203000    1.1796242   -6.1597249     91.09493  0.037395291  0.040354196            2 
  204000    1.1513913   -6.1528081    91.784669  0.037493737  0.040308994            2 
  205000    1.1529755   -6.1472023    92.254226  0.037501718  0.040264144            6 
  206000    1.1782225   -6.1648871    92.383211  0.037371849  0.040216678            3 
  207000    1.1686561   -6.1667099     92.97393  0.037429118  0.040169769            4 
  208000    1.1565893   -6.1873312    92.948621  0.037239031  0.040124388            2 
  209000    1.1733162   -6.1971132    93.914112  0.037445818  0.040080732            3 
  210000    1.1642953   -6.1922218    93.964679  0.037287571  0.040037505            2 
  211000    1.1623897   -6.1706746    94.201192  0.037204262  0.039994226            3 
  212000    1.1612218   -6.1694678    94.990418  0.037339001  0.039951172            2 
  213000    1.1819707   -6.1288278     95.66773  0.037428689   0.03990956            3 
  214000    1.1759751   -6.2555515    95.223002  0.037080608  0.039867636            2 
  215000     1.146957   -6.2034222    95.712176  0.037097743  0.039824019            3 
  216000    1.1459821   -6.1831109    96.736678  0.037321249  0.039782113            6 
  217000    1.1798487   -6.1983042    96.730821  0.037147013  0.039741118            5 
  218000     1.181825   -6.1829695    97.114251  0.037123185  0.039699072            1 
  219000    1.1522352   -6.2154667    97.556932   0.03712212  0.039659017            2 
  220000    1.1908501   -6.1990084    98.100108  0.037159132  0.039619488            3 
  221000    1.1720926   -6.1347108     98.95405   0.03731299  0.039584524            6 
  222000    1.1583931   -6.1375916    99.467551  0.037337669   0.03955064            2 
  223000     1.151453   -6.1711525    99.292182  0.037104702  0.039517234            7 
  224000    1.1808195   -6.2265234    100.17404   0.03726713   0.03948343            2 
  225000    1.1364563   -6.1540434    100.32433  0.037157158  0.039449114            2 
  226000     1.167793   -6.1988994    101.09458  0.037276761   0.03941697            3 
  227000    1.1556333   -6.2418073     101.1574  0.037135611  0.039381972            3 
  228000    1.1605406   -6.2304249    101.47174  0.037087623  0.039346562            3 
  229000    1.1744227    -6.184032    101.94255  0.037096996  0.039312324            4 
  230000    1.1613686   -6.2095142    102.58114  0.037167078  0.039278802            6 
  231000    1.1597431   -6.1797131    102.61412  0.037018079  0.039244843            3 
  232000    1.1711652   -6.1598353    103.50732  0.037179355  0.039211356            1 
  233000    1.1638206   -6.2014345    103.27286  0.036935932  0.039177599            2 
  234000    1.1658423    -6.222825    103.63756  0.036907963  0.039139911            1 
  235000     1.159297    -6.187082    103.43569  0.036679324  0.039102318            2 
  236000    1.1469465    -6.145052    104.50465  0.036901358  0.039065524            2 
  237000    1.1324531    -6.176143    105.24727  0.037006775  0.039031639            2 
  238000    1.1662317   -6.1654629    105.30392  0.036871121   0.03899528            2 
  239000    1.1570736   -6.1961313    105.80155   0.03689036  0.038961502            2 
  240000    1.1538686   -6.1829633    106.50686  0.036981548  0.038930722            2 
  241000    1.1587078   -6.1785879    106.80059  0.036929664  0.038899102            3 
  242000    1.1379368   -6.2009574    107.15482  0.036899041  0.038865439            2 
  243000    1.1384433   -6.2171496    107.48718  0.036861173  0.038832213            2 
  244000    1.1891647   -6.2123514    107.60787   0.03675132  0.038798873            2 
  245000    1.1629051   -6.1812822    108.64364  0.036953619  0.038768175            3 
  246000    1.1544395   -6.2277172    109.01326   0.03692861  0.038740839            3 
  247000    1.1515221   -6.2135088    108.99557  0.036773136  0.038709696            5 
  248000     1.169557   -6.2080042    109.51134  0.036798166  0.038679168            3 
  249000    1.1498137   -6.1898792    110.18009  0.036874192  0.038649755            5 
  250000    1.1844055   -6.2167644    110.35708  0.036785692  0.038619967            2 
  251000    1.1609173   -6.1848593    110.43771  0.036665906  0.038588852            4 
  252000    1.1506821   -6.1825223    111.20194  0.036773127  0.038557975            2 
  253000    1.1465768   -6.2214996    111.64932   0.03677514  0.038525691            5 
  254000    1.1223054   -6.2447133     111.5065  0.036583497  0.038492354            3 
  255000    1.1522686   -6.1908684    112.87451  0.036887094  0.038463462            2 
  256000    1.1781023   -6.2272251    112.59021  0.036650459  0.038433404            5 
  257000    1.1257579   -6.1935922    112.94277  0.036622168  0.038402752            4 
  258000    1.1253353   -6.2455944     113.2588  0.036582299  0.038373287            7 
  259000    1.1283596     -6.26114    113.39646  0.036485348  0.038343799            2 
  260000    1.1459928   -6.2375474    113.96643  0.036527702  0.038313037            2 
  261000    1.1463826   -6.2262271    114.64342  0.036603902  0.038282874            3 
  262000    1.1383358   -6.2095725    115.04573  0.036592152  0.038253538            4 
  263000    1.1645668   -6.2062488    115.76267  0.036680188  0.038224607            1 
  264000    1.1878238   -6.1916708    116.14206  0.036661002  0.038195586            3 
  265000    1.1653627   -6.2114336    115.86507  0.036435556  0.038166201            2 
  266000    1.1312476    -6.193311    116.52646  0.036505783  0.038135995            3 
  267000    1.1521555   -6.2531174    116.62832  0.036400849  0.038107109            1 
  268000    1.1471259   -6.2164056    117.77664  0.036622088  0.038079001            3 
  269000    1.1753839   -6.2380336    117.82874  0.036502088  0.038050729            3 
  270000     1.156273   -6.2158157    118.02593  0.036427756  0.038022646            2 
  271000     1.121973    -6.165878    118.88913  0.036558772  0.037994839            3 
  272000    1.1481083   -6.1785954    118.54365   0.03631852  0.037966847            2 
  273000    1.1512099   -6.1990563    119.25367   0.03640222  0.037938073            2 
  274000    1.1419318   -6.2335461    119.36648  0.036303675   0.03790943            2 
  275000    1.1601353   -6.2152412    119.69905   0.03627244  0.037880812            2 
  276000    1.1361183   -6.1919872    120.52566  0.036390599  0.037852275            2 
  277000     1.148689   -6.2725681    120.29773  0.036190654  0.037823782            6 
  278000    1.1543331   -6.1933098    121.14451  0.036314301  0.037794945            2 
  279000    1.1527371   -6.2459228    121.32484  0.036238003  0.037765867            3 
  280000      1.14302   -6.2894005    121.73416  0.036230406  0.037736793            1 
  281000    1.1464608   -6.2635565    121.82628  0.036128789  0.037708321            2 
  282000    1.1645034   -6.2043197    122.57582  0.036222169  0.037680219            2 
  283000    1.1409112   -6.2251884    122.92654  0.036197451  0.037649976            3 
  284000    1.1613582   -6.2012748    123.58398  0.036262904  0.037620746            2 
  285000    1.1515375   -6.2462151    123.55543   0.03612732  0.037591453            9 
  286000    1.1263208    -6.230052    123.92062  0.036107406  0.037560921            2 
  287000    1.1166419   -6.2473271    124.21685  0.036067612  0.037530794            3 
  288000    1.1685249   -6.2939457     124.7144  0.036086343  0.037503222            2 
  289000    1.1168443   -6.2215453    125.08294  0.036067746  0.037475657            2 
  290000    1.1294244   -6.3000805    125.27327  0.035998067  0.037449086            4 
  291000    1.1259637   -6.2640013    125.76502  0.036015183  0.037422035            1 
  292000    1.1435334   -6.2707858    126.51013   0.03610449  0.037395755            2 
  293000     1.141164   -6.2214755     127.2098  0.036180261  0.037371393            2 
  294000     1.137742   -6.2549327    127.73346  0.036205628  0.037348288            2 
  295000    1.1224729   -6.2208032    128.09857  0.036186036  0.037325503            2 
  296000    1.1417207   -6.2499414    128.30631  0.036122272  0.037303566            5 
  297000    1.1253382   -6.2375701    128.53916  0.036065982  0.037280676            3 
  298000     1.141422   -6.2464661     129.3248  0.036164654  0.037257629            4 
  299000    1.1442131   -6.2080662    130.02258  0.036238178  0.037236247            8 
  300000     1.164208   -6.2690245    130.22536  0.036173711  0.037214367            1 
  301000    1.1195371   -6.2174608    130.53267  0.036138613  0.037192305            2 
  302000    1.1113312   -6.2677925    130.16876  0.035918532  0.037169681            2 
  303000    1.1322855   -6.2598145    130.48506   0.03588698  0.037144388            3 
  304000      1.16983   -6.2414859    131.52055  0.036052782  0.037120505            2 
  305000    1.1325591   -6.2806632    131.79001  0.036008201  0.037096599            2 
  306000     1.136964   -6.2990939    132.21918  0.036007402  0.037073289            5 
  307000    1.1169215   -6.2471525    132.02063   0.03583622  0.037049644            3 
  308000    1.1366447   -6.2424131    132.17438  0.035761466   0.03702508            4 
  309000    1.1498536   -6.2938784    132.72529  0.035794306  0.037000809            3 
  310000    1.1287158   -6.2775669    133.19602  0.035805382  0.036976391            4 
  311000    1.1411033   -6.2457342    133.20597  0.035692918  0.036952001            1 
  312000    1.1450416   -6.2369459    133.49979  0.035656995  0.036927639            3 
  313000     1.139148   -6.2430564    134.33792   0.03576622  0.036902635            3 
  314000    1.1294191   -6.2586992    134.39286  0.035666895   0.03687776            3 
  315000    1.1142882   -6.2778999    134.70911  0.035637331  0.036852182            2 
  316000     1.108581   -6.2835588    135.06871  0.035619385  0.036825587            4 
  317000     1.143937   -6.2628842    135.05253  0.035502769  0.036799721            2 
  318000      1.13199   -6.3497509    134.84566  0.035336913  0.036770979            4 
  319000    1.1255332   -6.2987627    134.98461  0.035262437  0.036740863            6 
  320000    1.1519639   -6.2719011    135.87522  0.035384171  0.036712488            3 
  321000    1.1050984   -6.2831256    135.91366  0.035283919  0.036684526            5 
  322000    1.1082403   -6.2527052    136.52606  0.035332831  0.036657806            4 
  323000     1.107924   -6.2719703    137.01972  0.035350804  0.036630122            4 
  324000    1.1294935   -6.2227959    137.55278  0.035378802  0.036603051            2 
  325000    1.1222345   -6.2706207    137.49346  0.035254732  0.036575178            3 
  326000    1.1144425   -6.2825928    137.92356  0.035256535  0.036546293            3 
  327000    1.1140664   -6.2775918    138.47148  0.035288349  0.036518584            5 
  328000    1.1178597      -6.2919    138.89466  0.035288277   0.03649132            1 
  329000    1.1140001    -6.272887    139.34343  0.035294688  0.036464143            5 
  330000     1.134409   -6.2808251    139.31125  0.035179608   0.03643715            4 
  331000    1.1194026   -6.2926128      139.988  0.035243705  0.036411289            3 
  332000    1.1275397   -6.2623304    140.36821  0.035232984  0.036385605            3 
  333000    1.1403928   -6.2835272    140.96662  0.035276933  0.036360782            3 
  334000    1.0969685    -6.273361     142.0474  0.035440967  0.036335951            3 
  335000    1.1293231   -6.3247946    141.92002  0.035303487  0.036312359            6 
  336000     1.100371   -6.3059502    142.30213  0.035293187  0.036289335            7 
  337000    1.1177742   -6.3525733    142.54366  0.035248185  0.036265723            5 
  338000    1.0962632   -6.3150102    143.05601  0.035270219  0.036242563            3 
  339000    1.1332118   -6.2765389    143.94652  0.035385083  0.036221238            3 
  340000    1.1182179   -6.3302226     144.2247   0.03534919  0.036198196            4 
  341000    1.1152028   -6.2732945    144.31566  0.035267757  0.036174867            2 
  342000    1.1107866    -6.304327    144.89421  0.035305607   0.03615281            4 
  343000    1.1002477   -6.3363809    144.50506   0.03510813  0.036130472            2 
  344000     1.104304   -6.2978188    144.78352  0.035073528  0.036108118            3 
  345000     1.102665   -6.2534736    146.04208  0.035275864  0.036085245            5 
  346000    1.1253348   -6.3090534    146.13197   0.03519556  0.036064093            4 
  347000    1.1256943   -6.3045877    146.36676  0.035150519  0.036042562            6 
  348000    1.1388125   -6.3158673    147.06212  0.035216025  0.036021065            3 
  349000    1.1364757    -6.305697    147.56527  0.035235261  0.036000844            3 
  350000    1.1282155   -6.2985087    147.30845   0.03507344   0.03597968            4 
  351000    1.0995371   -6.3342899    147.72945  0.035073469  0.035958533            4 
  352000    1.1183831   -6.3289873    148.72428  0.035209348  0.035937403            2 
  353000    1.1057509   -6.3072632    148.70286  0.035104547  0.035917694            5 
  354000    1.1108214   -6.2888825    149.11886  0.035103309  0.035896792            5 
  355000    1.1264044   -6.3204157    149.91761  0.035191927  0.035876725            6 
  356000    1.1170734   -6.3059278    149.86722  0.035081278  0.035857366            2 
  357000     1.108836   -6.2805483    151.04695  0.035258391   0.03583839            2 
  358000    1.1194344   -6.2867946    151.71979  0.035316525  0.035820084            2 
  359000    1.1055013   -6.3129267    151.62326  0.035195743   0.03580315            3 
  360000    1.1050368   -6.2891799    152.01699  0.035189119  0.035785632            3 
  361000    1.1043118   -6.3227959    152.91167   0.03529817  0.035769762            3 
  362000    1.0821972   -6.3243569    152.85255  0.035187051  0.035752783            5 
  363000    1.1105075   -6.3039469    153.38351  0.035212009  0.035736307            4 
  364000    1.1014317   -6.2660313    154.05815  0.035269723  0.035719468            8 
  365000    1.1140942   -6.3352175    153.91766  0.035141019  0.035703573            3 
  366000    1.1078707   -6.3542802    153.94497  0.035051222  0.035686053            6 
  367000    1.1050154   -6.3609687     153.7069  0.034901657  0.035668456            4 
  368000    1.0936739   -6.3396563    155.29014   0.03516534  0.035650103           10 
  369000    1.0927396   -6.3310454    155.41509   0.03509826    0.0356337            3 
  370000    1.0966246   -6.3259913     155.5282  0.035028873  0.035616416            6 
  371000    1.1115883   -6.2794753     156.3748  0.035124618  0.035599812            3 
  372000    1.1100986   -6.3325515     156.2866  0.035010439  0.035583663            2 
  373000    1.1131168   -6.3170196    156.59131  0.034984653  0.035566025            7 
  374000    1.1114357   -6.3127585    156.88541  0.034956642  0.035547749            1 
  375000    1.1277728   -6.3609793    157.27642  0.034950316   0.03553008            5 
  376000     1.084267   -6.2900883    157.49552  0.034905922  0.035511828            4 
  377000    1.1029147   -6.3324441    157.42697  0.034798181  0.035493563            3 
  378000    1.1126079    -6.346168    157.40176  0.034700564  0.035474002            3 
  379000    1.0827463   -6.3161119    158.52559   0.03485611  0.035454662            4 
  380000    1.0848542   -6.3342709    159.15033  0.034901387  0.035436437            3 
  381000    1.0927792     -6.32892    159.19446  0.034819436  0.035419081            5 
  382000    1.1083954   -6.2986578    159.39091   0.03477114  0.035400859            4 
  383000    1.1092245   -6.3394868    159.87026  0.034784651  0.035381865            2 
  384000     1.106648   -6.3367484    160.24306   0.03477497  0.035363619            5 
  385000    1.0889307   -6.3571527    160.29677  0.034696271  0.035345245            3 
  386000    1.0904688   -6.3830362    160.59702  0.034671204  0.035326181            6 
  387000    1.1098612   -6.3341538    160.87744  0.034641998  0.035306321            1 
  388000    1.1145887   -6.3159718    162.02213  0.034798567  0.035287939            5 
  389000    1.0796836    -6.386457    161.17476  0.034527583  0.035268394            4 
  390000    1.1084411   -6.3869453    161.62254  0.034534732     0.035249            5 
  391000    1.0834406    -6.338092    163.11768  0.034765064  0.035231004            4 
  392000    1.0893723   -6.3258147    163.88033  0.034838505  0.035214142            4 
  393000    1.0870523   -6.3022944    163.42278  0.034652838  0.035196788            3 
  394000    1.0862015   -6.3184316    164.21748  0.034732969  0.035179399           10 
  395000    1.1159347   -6.3003965    164.46315  0.034696866   0.03516302            3 
  396000    1.1062639   -6.3194419    164.59753  0.034637528  0.035145403            4 
  397000    1.1079951   -6.3201561     164.8847  0.034610558  0.035128042            2 
  398000    1.1044009   -6.3309012    165.31034  0.034612718  0.035110025            5 
  399000    1.0787982   -6.3644359    165.08995   0.03447994  0.035091473            3 
  400000    1.0699882   -6.3119384    165.81628  0.034545059  0.035072716            2 
  401000    1.1008394    -6.386068    165.73698  0.034442432  0.035054929            3 
  402000     1.080306   -6.3483143    166.28101  0.034469529  0.035036537            3 
  403000    1.0894171   -6.3617094    166.57304  0.034444384  0.035018094            4 
  404000    1.0890333   -6.3389777    166.74246  0.034394071  0.034998224            2 
  405000    1.0857205   -6.3827708    166.49146  0.034257501  0.034978502            3 
  406000    1.0836456   -6.3856236    166.65605  0.034206906  0.034957551            2 
  407000    1.0837946   -6.3769269    166.76759  0.034145698  0.034936688            3 
  408000    1.1270592   -6.3241794    167.87034  0.034287243  0.034916243            3 
  409000    1.0899852   -6.3592143    168.03547  0.034237055  0.034896028            3 
  410000    1.0932619   -6.3722895    168.26844  0.034200902  0.034876042            6 
  411000    1.0814604   -6.3826594    168.70345  0.034205889  0.034856116            3 
  412000    1.0715361   -6.3773636    169.17055  0.034217344  0.034836275            2 
  413000    1.0780496   -6.3959705     169.0361  0.034107365  0.034816179            2 
  414000    1.1041916   -6.3896703    169.31621  0.034081362  0.034795812            5 
  415000    1.1075859   -6.3320918    169.88764  0.034113983  0.034775321            5 
  416000    1.0899571   -6.3392376    170.76171  0.034207073  0.034755856            3 
  417000    1.1011425   -6.3824671    170.96804  0.034166274  0.034736813            4 
  418000    1.0765841   -6.3437631    171.65981  0.034222449  0.034717802            5 
  419000    1.1024458   -6.3116428    171.94918  0.034198326  0.034700069            3 
  420000    1.0757756   -6.3773321    172.14069  0.034154899  0.034682043            2 
  421000     1.074968    -6.398731    172.00295  0.034046506  0.034662616            3 
  422000    1.0821952   -6.3591912     172.8427  0.034131656  0.034642578            6 
  423000    1.0959083   -6.3969651     172.8357  0.034049587  0.034622761            3 
  424000    1.0738002   -6.4110442    172.86679  0.033975391  0.034603448            2 
  425000    1.0821497   -6.3722525     173.6669  0.034052334  0.034583656            3 
  426000    1.0924535   -6.4510457    173.63277  0.033965722  0.034564377            7 
  427000     1.110579   -6.3832729     174.1415   0.03398546  0.034544464            3 
  428000    1.0719703   -6.3732173    173.87873  0.033854893  0.034525083            3 
  429000    1.0809219   -6.3755094    174.94285  0.033982682  0.034505818            7 
  430000     1.066776   -6.3967934    174.85107  0.033885867  0.034486146            3 
  431000    1.0769948   -6.3901062    174.87374  0.033811627  0.034465829            8 
  432000    1.0643915   -6.3525058    175.22226   0.03380059  0.034445758            3 
  433000    1.0796247   -6.3993301    175.97565  0.033867522  0.034426049            3 
  434000    1.1082271   -6.3883678    176.97532  0.033981437  0.034406836            3 
  435000    1.0835558   -6.4473618    176.07088  0.033730054  0.034387858            4 
  436000    1.1008463   -6.3869042    177.24112  0.033876361  0.034368498            2 
  437000    1.0801788   -6.3636637    177.41152  0.033831336  0.034349393            3 
  438000    1.0667216   -6.4190782    177.49426  0.033769837  0.034330066            5 
  439000    1.0849541   -6.3511165     177.8027  0.033751462  0.034310947            2 
  440000     1.102627   -6.4313297    178.06488  0.033724409  0.034291896            4 
  441000    1.1016044   -6.3850931    179.24401  0.033870751    0.0342731            4 
  442000      1.07831   -6.4127333    179.20942  0.033787598  0.034254656            5 
  443000    1.0861938   -6.4268853    178.61535  0.033599577  0.034236015            7 
  444000    1.0654702   -6.3765321    180.13698  0.033809494   0.03421763            3 
  445000     1.090867   -6.3890983    180.63223  0.033826261  0.034200467            2 
  446000    1.0751517   -6.3742129    181.04277  0.033827124  0.034183023            4 
  447000    1.0666271   -6.3841994     181.3433  0.033807475  0.034164654            6 
  448000    1.0808648   -6.4593902    180.89473  0.033648574  0.034146755            4 
  449000    1.0779627   -6.4076827    182.00061   0.03377888  0.034128761            2 
  450000    1.0918661   -6.4214681      181.701  0.033648334   0.03411128            2 
  451000    1.0909069   -6.4219859    182.62522  0.033744497  0.034094212            5 
  452000    1.0659182   -6.4211271    182.30129  0.033610121  0.034077333            4 
  453000    1.0672622   -6.4089922    183.42756  0.033743113  0.034060407            4 
  454000    1.0956135   -6.4236853    183.87358  0.033750656  0.034043861            2 
  455000    1.0572881   -6.3949651    184.13245  0.033723892  0.034026973            6 
  456000    1.0589039   -6.4163695    184.20897  0.033663919   0.03400965            3 
  457000    1.0733628   -6.4256489    184.41878  0.033628515  0.033992315            8 
  458000    1.0666134   -6.3835879    184.43506  0.033558054  0.033975624            9 
  459000    1.0754624   -6.4428567    184.63038  0.033520402   0.03395718            2 
  460000    1.0526042   -6.4188295    184.14242  0.033359133   0.03393828            4 
  461000    1.0586535   -6.3864361    186.07185  0.033635548  0.033919334            3 
  462000    1.0826195   -6.4099201    185.34646  0.033431901  0.033901147            3 
  463000    1.0604632   -6.4190734    185.51105  0.033389317  0.033883376            4 
  464000    1.0697797    -6.388193    186.29807  0.033458706  0.033864912           11 
  465000    1.0634699   -6.4269672    185.75462  0.033289358   0.03384628            4 
  466000    1.0637854   -6.3842875    186.70448  0.033387782  0.033828272            3 
  467000     1.040306   -6.4021141    186.77091  0.033328142  0.033809964            3 
  468000     1.071961   -6.4550659    186.89385  0.033278819  0.033791267            3 
  469000    1.0771573   -6.4560797    187.16103  0.033255335  0.033772971            6 
  470000    1.0718453   -6.3911867    187.90948  0.033317284  0.033754893            3 
  471000    1.0882447   -6.4247467    188.15217  0.033289486  0.033736741            2 
  472000    1.0411063   -6.4054354    189.06782  0.033380618  0.033718792            5 
  473000    1.0423679   -6.4517126    189.07559  0.033311414  0.033700746            2 
  474000    1.0545413   -6.3876175    189.84551  0.033376496  0.033682895            3 
  475000    1.0539146   -6.4413056     189.2914  0.033209018  0.033664633            3 
  476000    1.0636118   -6.4276483    190.06321  0.033274372  0.033646616            3 
  477000     1.081322    -6.458217    189.55788  0.033116331  0.033628648            4 
  478000    1.0378257   -6.4273157    190.88615  0.033278617  0.033611112            2 
  479000    1.0791385   -6.4651874    190.61213   0.03316147  0.033593853            3 
  480000    1.0629552   -6.4268951      191.168  0.033188888  0.033575549            4 
  481000    1.0415843   -6.4640433    190.96809  0.033085255  0.033557313            2 
  482000    1.0732464   -6.4153376    191.81006  0.033162182  0.033539372            1 
  483000    1.0819854    -6.447847    191.97914  0.033122694  0.033521346            5 
  484000    1.0939642   -6.4336947    191.98864  0.033055895  0.033502878            3 
  485000    1.0688045   -6.4518211    193.09786  0.033178326  0.033484392            7 
  486000    1.0694141   -6.4357874    193.11717   0.03311337  0.033465645            8 
  487000    1.0416948   -6.4328852    193.09483  0.033041551   0.03344691            3 
  488000    1.0686624   -6.4745714    192.99137  0.032956177  0.033428246            3 
  489000    1.0726421   -6.4927286    192.75674  0.032848797  0.033408649            7 
  490000    1.0461571    -6.465661    194.20039  0.033027278  0.033390076            3 
  491000    1.0622577   -6.4441271    194.29057  0.032975317  0.033371596            2 
  492000    1.0523245   -6.4413998    194.80075  0.032994706  0.033353665            6 
  493000    1.0526657   -6.4696914    195.05809   0.03297128  0.033335504            4 
  494000    1.0313783   -6.4545894    195.33687  0.032951564  0.033316908            7 
  495000    1.0390105   -6.4202485    195.30785   0.03288011  0.033298642            3 
  496000    1.0506008   -6.4319892    195.99078  0.032928559   0.03328071            3 
  497000    1.0628976   -6.4676627    196.05989  0.032873892   0.03326288            3 
  498000    1.0396881   -6.5081101    195.92546  0.032785385  0.033244526            8 
  499000    1.0520467   -6.4714407    196.52202  0.032819309  0.033226741            5 
  500000    1.0657185   -6.4900041    196.79222  0.032798704  0.033208623            4 
  501000    1.0540546   -6.4530675    198.06383  0.032944749  0.033190348            5 
  502000    1.0682079   -6.4471114    198.58111  0.032964992  0.033173016            2 
  503000    1.0608655   -6.4384268    198.41559  0.032872033  0.033155553            3 
  504000    1.0664219   -6.4826656    197.33942  0.032628873  0.033137485            4 
  505000    1.0699168   -6.4735001    198.11896  0.032692897  0.033118701            3 
  506000    1.0296637   -6.4431332     198.8745  0.032752717  0.033100403            9 
  507000    1.0497954   -6.4215819    199.54884  0.032798955  0.033082481            4 
  508000    1.0500253   -6.4295064    200.23901  0.032847606  0.033065391            6 
  509000    1.0772536   -6.4623718    198.92146  0.032567364  0.033046785            7 
  510000    1.0620447   -6.4768988    199.24733  0.032556754  0.033027425            6 
  511000    1.0510264   -6.4500771    199.54513  0.032541606  0.033008263            2 
  512000    1.0552815    -6.422765    199.77982  0.032516247  0.032988714            3 
  513000    1.0633076    -6.479992    199.56365  0.032417747  0.032968881            2 
  514000    1.0496063   -6.4965825    199.37027  0.032323325  0.032948801            2 
  515000    1.0612265   -6.4977395    199.46398  0.032275725  0.032928264            4 
  516000    1.0478826   -6.4652476    199.92544    0.0322877  0.032907096            3 
  517000    1.0422019    -6.467741    200.40695  0.032302861  0.032885521            3 
  518000    1.0442173   -6.4724155    200.00664    0.0321761  0.032864192            3 
  519000    1.0462414   -6.4853679    200.39762  0.032176882  0.032841998            6 
  520000     1.040557   -6.4807133    200.89224   0.03219427  0.032819912            4 
  521000    1.0525891   -6.4577031    201.45138  0.032221909  0.032798831            3 
  522000    1.0376496   -6.4704125    201.83739  0.032221805  0.032778319            3 
  523000    1.0442327   -6.4763401    201.71228  0.032140261  0.032757412            5 
  524000    1.0565609   -6.4788667    202.78459  0.032249458  0.032736898            2 
  525000    1.0603903   -6.4886351    202.62379  0.032162506  0.032716465            3 
  526000    1.0413012   -6.5036757    202.91543  0.032147565  0.032695874            4 
  527000    1.0470996   -6.4921264       203.43  0.032167931  0.032675455            8 
  528000    1.0291001   -6.5115506    203.38483  0.032099878  0.032655324            2 
  529000    1.0040368   -6.4981835    203.64255  0.032079797  0.032635388            3 
  530000    1.0318209   -6.4798975    204.66791  0.032180489  0.032614989            3 
  531000    1.0401936   -6.4496883    205.37031  0.032230118  0.032595567            3 
  532000    1.0599865   -6.4949705    204.23166  0.031991174  0.032575478            3 
  533000    1.0130668   -6.4568241    206.10621  0.032224235  0.032555737            6 
  534000     1.014007   -6.4831451    206.01508   0.03214967    0.0325365            2 
  535000    1.0563518   -6.4799415    206.30666  0.032134994  0.032517802            3 
  536000    1.0285486   -6.5032803    205.43284  0.031939186   0.03249857            4 
  537000    1.0402038   -6.4940899    206.06276  0.031977461  0.032478787            2 
  538000    1.0434405   -6.5081186    206.50609  0.031986693  0.032458629            2 
  539000    1.0062378   -6.5208839    206.52734  0.031930634  0.032438467            2 
  540000    1.0531878   -6.5163499    206.73101  0.031902934  0.032418764            3 
  541000    1.0425097   -6.5264646    206.65155  0.031831724  0.032398545            6 
  542000     1.027914   -6.5004381    207.67988    0.0319311  0.032378928            3 
  543000    1.0494552   -6.4926785    207.92693   0.03191021  0.032359417            4 
  544000    1.0433913   -6.4636479    209.22018   0.03204966  0.032340104            3 
  545000     1.045927   -6.4565306    208.82305   0.03193013  0.032321178            6 
  546000    1.0662878   -6.4856453    208.86906  0.031878672  0.032301954            5 
  547000    1.0460314   -6.5058016    209.30045  0.031886114  0.032283304            4 
  548000    1.0323668   -6.4668283    209.89714  0.031918665  0.032264581            3 
  549000    1.0555058   -6.4738178    210.52571  0.031955937  0.032245912            2 
  550000     1.044833   -6.4777844     210.2418  0.031854818  0.032227018            3 
  551000     1.043852   -6.4942494    210.82204   0.03188476  0.032207889            3 
  552000    1.0506835   -6.5203055    210.02346   0.03170644  0.032188342            4 
  553000    1.0320999    -6.518602    210.31548  0.031693111  0.032168408            7 
  554000    1.0496697    -6.513864    210.35251  0.031641473  0.032148187            2 
  555000    1.0422712   -6.5171304     210.4502   0.03159913  0.032128349            7 
  556000    1.0333214   -6.5551691      210.746  0.031586631  0.032108611            4 
  557000     1.016723   -6.5241434    211.12729  0.031586967  0.032089253            5 
  558000    1.0386571   -6.4685877    212.66765  0.031760401  0.032069886            4 
  559000     1.045363   -6.4861018     212.8669  0.031733288  0.032050913            3 
  560000     1.004111   -6.5200646    212.32282  0.031595657  0.032030803            3 
  561000    1.0182077   -6.4887593    213.03918  0.031645749  0.032010811            3 
  562000    1.0059332   -6.5392206    212.79368  0.031553037  0.031991516            4 
  563000    1.0427458   -6.4866366     213.4503  0.031594183  0.031972199            2 
  564000    1.0204414   -6.5239081    213.54023  0.031551452  0.031952977            2 
  565000    1.0147378   -6.5217342    213.47883  0.031486553  0.031933386            4 
  566000    1.0102968   -6.4994318    214.00561  0.031508482  0.031913587            2 
  567000    1.0144178   -6.5226027    214.32685  0.031500126  0.031893676            2 
  568000    1.0099531    -6.550377     214.0173  0.031399252  0.031874172            5 
  569000    1.0374672   -6.5688303    214.61983  0.031432312  0.031854687            4 
  570000    1.0159059   -6.5458401    214.90851  0.031419372  0.031834475            4 
  571000    1.0439222   -6.5292521    214.28301  0.031273061  0.031814402            3 
  572000    1.0365994   -6.5445967    214.48329  0.031247565  0.031794497            3 
  573000    1.0286194   -6.5409747    215.12865   0.03128689   0.03177529            4 
  574000    1.0384038   -6.5189355    216.56688  0.031441185  0.031756207            6 
  575000    1.0240514   -6.5681053    216.10477  0.031319532  0.031737199            7 
  576000    1.0021752   -6.5156507    217.21864  0.031426308  0.031718111            4 
  577000     1.003988   -6.5450636    217.25073  0.031376478  0.031699241            4 
  578000    1.0361674   -6.5348716     217.3767  0.031340355   0.03168049            3 
  579000    1.0033851   -6.5339036     218.1552  0.031398272  0.031661675            2 
  580000    1.0273805   -6.4962166    218.18305  0.031348139  0.031642897            4 
  581000    1.0262761   -6.5120562    218.01466  0.031270032  0.031624055            6 
  582000    1.0573644   -6.5640366    217.95512  0.031207778  0.031605337            2 
  583000    1.0053866   -6.5391018    218.73845  0.031266216     0.031586            1 
  584000    1.0226282    -6.537412    218.61026  0.031194387  0.031566689            4 
  585000     1.043445   -6.5443643    219.37266  0.031249666  0.031547354            3 
  586000     1.029429   -6.5363537    219.68099  0.031240187  0.031529088            3 
  587000    1.0022041   -6.5501424     219.2334  0.031123424  0.031510158            6 
  588000    1.0093707   -6.5067673    221.21799  0.031351756   0.03149166            9 
  589000    1.0235275   -6.5115008    221.12371  0.031285188  0.031473643            3 
  590000    1.0404089    -6.574896    220.66279   0.03116706  0.031455751            5 
  591000   0.99237097    -6.550263    221.54656   0.03123894  0.031437956            3 
  592000   0.99080996   -6.5483204     222.0485  0.031256827  0.031419986            3 
  593000    1.0219708   -6.5682168      221.071  0.031066752  0.031402184            3 
  594000    1.0238969   -6.5674238    221.36528  0.031055735   0.03138353            2 
  595000     1.043711   -6.5474752    222.20471  0.031121108  0.031364659            2 
  596000    1.0347792   -6.5495791    223.08631  0.031192158  0.031346543            5 
  597000    1.0219848   -6.5164607      223.368  0.031179229  0.031328572            1 
  598000    1.0256443   -6.5522714    223.65974  0.031167745  0.031309996            5 
  599000    1.0236801   -6.5478633    222.89522  0.031009352  0.031291387            4 
  600000    1.0273357   -6.5417931    223.40136  0.031027967  0.031273124            5 
  601000    1.0256366   -6.5592834    223.51185   0.03099166  0.031254495            4 
  602000   0.99686343   -6.5736785    223.31458  0.030912871  0.031236238            5 
  603000    1.0008617   -6.6132004    223.19312   0.03084482   0.03121738            3 
  604000   0.99342954   -6.5666341    223.97509  0.030901641  0.031198368            3 
  605000      1.01783   -6.5575107    223.69138  0.030811485  0.031179403            6 
  606000    1.0151338   -6.5796362    224.10274  0.030817209  0.031160174            2 
  607000    1.0335111   -6.5631234    224.39663  0.030806786  0.031141031            3 
  608000    1.0098233   -6.5566097    224.45971  0.030764763  0.031122173            6 
  609000    1.0170099   -6.5796648    225.57908  0.030867416  0.031103364            5 
  610000   0.99871958   -6.5436268    224.94074  0.030729609  0.031084924            4 
  611000    1.0227612   -6.5583939    225.64971  0.030776011  0.031066146            3 
  612000    1.0050064   -6.5703427    225.80478  0.030746839   0.03104742            7 
  613000    1.0165477   -6.5774443    225.88939  0.030708182  0.031028405            2 
  614000    1.0345237    -6.588819    225.79545   0.03064542  0.031009217            4 
  615000     1.027128   -6.5710545    225.92926  0.030613721  0.030989787            3 
  616000    1.0271108   -6.5605284    226.63268  0.030659183  0.030970597            3 
  617000    1.0241278   -6.5607688    227.47771  0.030723623  0.030951249            4 
  618000   0.98072846   -6.6142278    227.01651  0.030611719  0.030932029            6 
  619000    1.0322969   -6.6100207    226.18956  0.030450937  0.030912535            4 
  620000    1.0107143   -6.5525162    227.68475  0.030602789  0.030893341            2 
  621000    1.0120258   -6.5773583    227.56791  0.030537831  0.030874189            4 
  622000     1.017151    -6.607763      227.446    0.0304724  0.030854693            5 
  623000    1.0117476   -6.5713784    227.90707  0.030485162   0.03083476            7 
  624000    1.0046011   -6.6302153    227.52054  0.030384687  0.030815131            5 
  625000   0.98431788   -6.5858164      228.176  0.030423467  0.030795477            4 
  626000    0.9901575   -6.5815943    228.62848  0.030435102  0.030776383            3 
  627000    1.0020479   -6.5898487    228.29193  0.030341831  0.030757219            6 
  628000   0.97944034   -6.5595918    229.45337  0.030447634  0.030738422            4 
  629000   0.98384968   -6.5894549    229.42938  0.030396049  0.030719697            4 
  630000    1.0117421   -6.5859948    229.82719  0.030400422  0.030700917            4 
  631000    1.0243205   -6.5926171    229.74971  0.030342011  0.030682153            4 
  632000    1.0244665   -6.5650206    230.77228  0.030428834  0.030663181            4 
  633000   0.99186259   -6.6023643    230.26935  0.030314554  0.030643995            3 
  634000    1.0170349   -6.5718502    230.76612  0.030332035  0.030625101            6 
  635000    1.0013817   -6.5923977    230.43068  0.030240247  0.030606107            6 
  636000    1.0195245   -6.5814509    231.15246  0.030287272  0.030587261            2 
  637000    0.9884218    -6.548304    231.16255  0.030241046  0.030568326            4 
  638000   0.98259127   -6.6176132     231.4345  0.030229167  0.030548899            3 
  639000   0.99529744   -6.5855498    231.32656  0.030167782  0.030529516            3 
  640000    1.0075213   -6.5868574    231.69608   0.03016876  0.030510441            5 
  641000     1.005994   -6.5918648    231.95114  0.030154855  0.030491279            4 
  642000   0.99543974   -6.6060502    232.53227  0.030183317  0.030471817            4 
  643000   0.98395795   -6.6032824    232.52332  0.030135215  0.030453049            2 
  644000    1.0159452   -6.5768723    232.98966  0.030148765  0.030434295            3 
  645000   0.98197877    -6.635487    232.79565  0.030076958   0.03041514            2 
  646000    1.0248907   -6.5851213    233.96429  0.030181152   0.03039592            4 
  647000   0.99266271   -6.5921953    233.85854  0.030120883   0.03037691            2 
  648000    1.0093637   -6.6164142    233.77286  0.030063382  0.030358247            6 
  649000    1.0080177   -6.6187621     233.7361  0.030012339  0.030339572            2 
  650000   0.99452707   -6.6249635    234.02478  0.030003177  0.030320448            6 
  651000   0.97993087   -6.6285016    233.76233  0.029923494  0.030301685            5 
  652000   0.98027728   -6.5859069    235.16932  0.030057428  0.030282853            3 
  653000    1.0111643   -6.6230685    234.72828  0.029955115  0.030263977            8 
  654000   0.98167881   -6.6032799    235.34231  0.029987553    0.0302457            7 
  655000     1.007611    -6.658769    234.84798  0.029878878  0.030227065            7 
  656000    0.9926958   -6.5949559    236.26091  0.030012819  0.030208452            6 
  657000   0.98482936   -6.6363218    236.55715  0.030004712  0.030190203           18 
  658000   0.96493913    -6.639054    236.94674  0.030008452  0.030171759            6 
  659000    1.0052698   -6.5898703    237.19565  0.029994392  0.030153604            4 
  660000   0.99817832   -6.6284401    236.84342  0.029904473  0.030135343            4 
  661000   0.99313113   -6.6077338    237.11315  0.029893236  0.030117076            4 
  662000    0.9841828    -6.626091    237.03938  0.029838794  0.030099194            4 
  663000    1.0003912   -6.6408198     237.7515  0.029883296  0.030081224            2 
  664000   0.99225699   -6.6339918    237.67293  0.029828429  0.030063136            5 
  665000   0.98936247   -6.6779825     238.1254  0.029840275   0.03004524            4 
  666000   0.98315072   -6.6704395    238.52407  0.029845354  0.030027299            2 
  667000   0.98004306   -6.6226743     239.2692  0.029893703  0.030009552            4 
  668000   0.98869384   -6.6971429    238.28817  0.029726567  0.029991937            7 
  669000   0.97994807   -6.6162384    239.44953  0.029826798  0.029974155            4 
  670000    1.0136636   -6.6598043    239.54986  0.029794758  0.029956245            4 
  671000   0.98702464   -6.6382683    239.59403  0.029755841  0.029938371            7 
  672000   0.98712549   -6.6495095    239.97824  0.029759206  0.029920576            3 
  673000   0.98059985   -6.6489682    240.14715  0.029735903  0.029902774            5 
  674000   0.99498942   -6.6480958    240.37783  0.029720306  0.029884854            7 
  675000    1.0000773   -6.6221305    240.69883  0.029715905  0.029867083            4 
  676000   0.98075305   -6.6677642    240.44284   0.02964039  0.029848918            3 
  677000   0.96607636   -6.6752439    240.47327  0.029600354  0.029830865            4 
  678000   0.97149909   -6.6498296    240.57091  0.029568696  0.029812762            4 
  679000   0.97833059   -6.7010638    241.62144   0.02965408  0.029794928            8 
  680000   0.97879729   -6.6788899    241.46648   0.02959148  0.029776235            7 
  681000   0.97234041   -6.6496216    241.52011   0.02955459  0.029757956            3 
  682000   0.95806224   -6.6373523    242.60262  0.029643527  0.029739571            5 
  683000   0.97983197    -6.668911    241.90608   0.02951514  0.029721602            3 
  684000   0.99270262   -6.6473687    243.46111  0.029661441  0.029703778            3 
  685000   0.99212671   -6.6202313    243.32137   0.02960114  0.029686167            6 
  686000   0.99510932   -6.6573602    242.99736   0.02951863  0.029668568            3 
  687000   0.98703562   -6.6449024    243.93459  0.029589349  0.029651502            4 
  688000   0.98145685   -6.5750965    244.65902  0.029634086  0.029634683            7 
  689000   0.95798559   -6.6516304    244.42544  0.029562825  0.029617743            3 
  690000   0.97142148   -6.6284108    244.69822  0.029552925  0.029600611            3 
  691000   0.96711234   -6.6536613    244.32698  0.029465386  0.029582769            3 
  692000   0.97729868   -6.6441949    244.21339  0.029409126  0.029565246            4 
  693000   0.97452509   -6.6871775    244.24436  0.029370413  0.029547431            5 
  694000   0.96791463   -6.6833357    244.52992  0.029362382  0.029529261            5 
  695000   0.99285017   -6.6152699    245.61941  0.029450769  0.029511505            4 
  696000   0.96603827   -6.6630399    244.69837  0.029298177  0.029493693            2 
  697000   0.99420992   -6.6488823    245.09734  0.029303843  0.029476169            6 
  698000   0.99360615   -6.6288583    245.96183   0.02936507  0.029458441            3 
  699000   0.96057228    -6.664371    245.10644  0.029221083  0.029440511            6 
  700000   0.96139836   -6.6655201    245.66686  0.029246055  0.029422601            4 
  701000   0.95903072   -6.6292197    246.34785  0.029285288  0.029404486            5 
  702000   0.98356332   -6.6433423    246.22325  0.029228781  0.029386748            5 
  703000   0.96910578   -6.6619091     246.3849  0.029206366  0.029368755            6 
  704000   0.96616383   -6.6315693    246.79699  0.029213659  0.029350617            3 
  705000   0.97052387   -6.7110478    246.99701  0.029195864  0.029332442            3 
  706000   0.96359852   -6.6933294    246.29396  0.029071525  0.029314397            6 
  707000   0.95672285   -6.6600411     246.8715   0.02909848   0.02929641            3 
  708000   0.94263579   -6.6809502    247.83839  0.029171185  0.029278194            3 
  709000   0.97199387   -6.7299465     247.0675  0.029039433  0.029259959            5 
  710000   0.95902665   -6.6524871    248.36493  0.029150814  0.029241464            4 
  711000   0.97201924   -6.6643336    248.01862  0.029069224  0.029223218            6 
  712000   0.96487103   -6.7020466    247.60367  0.028979831  0.029204801            6 
  713000    0.9611534   -6.7299198    246.87289  0.028853775  0.029186224            3 
  714000   0.97880931   -6.7118914    247.19088  0.028850476  0.029167423            3 
  715000   0.97456274    -6.656854    248.68059  0.028983752  0.029148898            7 
  716000    0.9731494   -6.6906227    247.90869  0.028853433  0.029130431            9 
  717000   0.96845107   -6.7093594    248.54857   0.02888756  0.029111948            4 
  718000   0.97085522   -6.6682587    249.24363  0.028927998  0.029093296            6 
  719000   0.95664848   -6.6639319    248.83244  0.028840107  0.029074699            4 
  720000   0.96057178   -6.6578953      249.659  0.028895718  0.029056058            7 
  721000   0.93865947   -6.6612733    250.02131  0.028897517  0.029037793            3 
  722000   0.95977508    -6.691931    250.25762  0.028884766  0.029019419            4 
  723000   0.97011261   -6.6890328    249.13704  0.028715657  0.029000914            5 
  724000   0.96489626   -6.7213264    249.39698  0.028705914  0.028982428            4 
  725000   0.96298692   -6.6653826    250.52034  0.028795442  0.028963456            3 
  726000    0.9547121   -6.6744557    250.59087  0.028763874  0.028944853            3 
  727000   0.97091989   -6.7215464    249.29366  0.028575614  0.028926077            5 
  728000   0.95807768   -6.6824928    250.18118  0.028637955  0.028907128           13 
  729000   0.96683683   -6.6946062    250.67918  0.028655599  0.028888345            4 
  730000    0.9628395   -6.6565586    251.24417  0.028680842  0.028869584            4 
  731000   0.97410543   -6.6832462    251.00369  0.028614192  0.028850876            6 
  732000   0.94234348   -6.6957431    251.10194  0.028586286  0.028832183            3 
  733000   0.95276569   -6.7298269    251.12618  0.028550043  0.028813305            7 
  734000   0.98252925   -6.6751339    252.15713  0.028628193  0.028794623            6 
  735000   0.95056825   -6.7083539    251.35562   0.02849837  0.028776269            3 
  736000   0.96996379   -6.7207732    251.59808  0.028487101  0.028757345            5 
  737000   0.95813697   -6.6879377    253.19216  0.028628693   0.02873872            3 
  738000    0.9631057   -6.7148657    252.23458  0.028481772  0.028720054            4 
  739000   0.95461315   -6.7139289    252.87347  0.028515277  0.028701607            5 
  740000   0.96650001   -6.7112465    252.52519  0.028437522  0.028682963            6 
  741000   0.96553301   -6.6720059     253.4802  0.028506545  0.028664254            4 
  742000     0.958033   -6.6880331    252.99121  0.028413209  0.028645727            4 
  743000   0.96370177   -6.6789301    253.06311  0.028383032  0.028627078            4 
  744000   0.95610954   -6.7131439    252.73872  0.028308548   0.02860829           10 
  745000   0.95780404   -6.6871095    252.85168  0.028283186  0.028589435            3 
  746000    0.9614026   -6.7589805    252.76819  0.028235946  0.028570234            8 
  747000    0.9644135    -6.715372     253.7772  0.028310709  0.028550873            4 
  748000   0.96343483   -6.6834918    254.18281  0.028318049  0.028531614            6 
  749000   0.93363758   -6.6912691    254.05388  0.028265896  0.028512359            3 
  750000   0.94040658   -6.7369164    254.06523   0.02822947  0.028493339            4 
  751000   0.95777701   -6.7098841    254.57731  0.028248703  0.028474294            8 
  752000   0.97610108   -6.7026339     254.5952   0.02821312   0.02845502            6 
  753000    0.9650245   -6.7237102    254.77991  0.028196095  0.028435835            2 
  754000   0.95348771   -6.6969976     255.4861  0.028236748  0.028416478            3 
  755000   0.95238742   -6.7350679    255.54849  0.028206235  0.028397571            6 
  756000   0.93624423    -6.720973    255.36352  0.028148536  0.028378799            5 
  757000   0.96122572   -6.7581453    255.22837  0.028096474  0.028359507            3 
  758000   0.95400361   -6.7609375    254.59476   0.02798975  0.028340234            5 
  759000   0.94481909   -6.7206949    255.90468  0.028096693  0.028320823            5 
  760000   0.96756978   -6.7259835    255.71768  0.028039219  0.028301803            3 
  761000   0.94251356    -6.752093    255.44055  0.027972027  0.028282642            5 
  762000   0.96897613   -6.7680264    255.29292  0.027919173  0.028263423            7 
  763000   0.95181691   -6.7223854    256.52032  0.028016636  0.028244266            4 
  764000   0.94166026   -6.7396838    256.22998  0.027948296  0.028225313            3 
  765000   0.94458263   -6.7308023    256.49375  0.027940495  0.028206447            6 
  766000   0.92919225    -6.746065    257.21862  0.027982878  0.028187267            5 
  767000   0.95058426   -6.7580627    257.50483  0.027977491  0.028168414            6 
  768000   0.95369952   -6.7471569    257.25382  0.027913826  0.028149653            7 
  769000   0.94488437   -6.7690003    257.42988  0.027896606  0.028130777            6 
  770000   0.94057857   -6.7633055    256.93517  0.027806836   0.02811163            6 
  771000    0.9564212   -6.7241658    258.14471  0.027901503  0.028092708            6 
  772000   0.91256374   -6.7284179    258.22984  0.027874551  0.028073924            4 
  773000     0.947471   -6.6860264    259.39868  0.027964497  0.028055216            4 
  774000   0.97218935   -6.7869498    257.95692   0.02777314  0.028036561            3 
  775000   0.95653908    -6.739879    259.37336  0.027889608  0.028018032            6 
  776000   0.93759525   -6.7275749    259.94147  0.027914677  0.027999588            3 
  777000   0.95099731   -6.7491657    258.87087  0.027763928  0.027981221            8 
  778000   0.95131414   -6.7189023    259.53303  0.027799168   0.02796254            7 
  779000   0.93953089   -6.7723582    259.40231  0.027749499  0.027943709            4 
  780000   0.93599262     -6.74713     259.8804     0.027765  0.027924836           11 
  781000   0.92906517    -6.774184    259.71729  0.027712045  0.027905964            5 
  782000   0.94136815   -6.7347934    260.37219  0.027746397  0.027887266            4 
  783000   0.93829913   -6.7250443    260.35874   0.02770953  0.027868159            5 
  784000   0.94871769   -6.7844813    259.67271  0.027601266  0.027849042            5 
  785000   0.92793799    -6.759917    259.68371  0.027567273  0.027830162            5 
  786000   0.94598229   -6.7402133    261.23949  0.027697147  0.027811352            4 
  787000    0.9400679   -6.7477947    260.97419  0.027633862  0.027792776           14 
  788000   0.95561057   -6.7644208    260.79051  0.027579369  0.027774216            4 
  789000   0.94186098   -6.7574951    261.31721  0.027600043  0.027755497            5 
  790000   0.91800019   -6.7367168    262.08868  0.027646485  0.027737225            5 
  791000      0.91999   -6.7498167    262.40164  0.027644505  0.027719125           17 
  792000    0.9258655   -6.7368182    261.88473  0.027555212  0.027701218            4 
  793000   0.94404135   -6.7325473     263.1125  0.027649486  0.027683428            6 
  794000   0.94293655   -6.7443112    264.61084  0.027771918  0.027665579            4 
  795000   0.92972468   -6.7814008    262.70284  0.027536985  0.027647568            6 
  796000   0.93066486   -6.7207703     264.0794  0.027646503  0.027629468            4 
  797000   0.91462856   -6.7873861    263.14866  0.027514498  0.027611307            7 
  798000   0.92792584   -6.7451159    264.21436  0.027591308    0.0275932            7 
  799000   0.93872871   -6.7562322    263.25217  0.027456422  0.027575408            3 
  800000   0.93957002   -6.7568727    264.34222  0.027535648  0.027557975            4 
  801000   0.93284408   -6.7625504    264.21718  0.027488263  0.027540473            4 
  802000   0.94891666   -6.7429652     264.0175   0.02743324  0.027522532            5 
  803000   0.93688413   -6.7842928    264.69338  0.027469218  0.027504756            7 
  804000   0.94076493   -6.7659485    265.21028  0.027488627  0.027486887            4 
  805000   0.94692742   -6.7998805    265.11711  0.027444836  0.027469102            4 
  806000   0.92609571   -6.8058978    264.85276  0.027383453  0.027451515            9 
  807000   0.92872915   -6.7637729    264.78831  0.027342866  0.027433661            3 
  808000   0.93401885   -6.7959196    264.64539  0.027294285   0.02741539            4 
  809000    0.9153383   -6.7489493    265.01349  0.027298465  0.027397372            7 
  810000   0.91838025   -6.7803518    265.90053  0.027356022  0.027379802            4 
  811000   0.93087415   -6.7424063    266.58166  0.027392279  0.027362322            7 
  812000   0.94333124    -6.765073    265.94307  0.027293008  0.027344724            5 
  813000   0.92780288   -6.7741989    266.61586  0.027328399  0.027326967            6 
  814000   0.92141527    -6.760095    266.35348  0.027267964  0.027309349            3 
  815000   0.91676003   -6.7759091    266.92505   0.02729295  0.027291787           10 
  816000   0.92152182   -6.7827715    267.07469  0.027274785  0.027274084            8 
  817000   0.93578221    -6.798696    266.57199  0.027190126  0.027256265            3 
  818000   0.94647372   -6.8070001    266.73073  0.027173058  0.027238397           11 
  819000   0.92424119   -6.8288108    266.67191  0.027133894  0.027220654            6 
  820000    0.9244315   -6.7650982    268.09116  0.027245037  0.027202743            5 
  821000   0.93523283   -6.7744845    268.09774  0.027212519  0.027185074            5 
  822000   0.90499164   -6.7738102    267.92823   0.02716223  0.027167374            4 
  823000   0.92169994   -6.8110233    268.49566  0.027186681   0.02714973            9 
  824000    0.9181109   -6.7935401    268.16958   0.02712071  0.027132018            6 
  825000    0.9198323   -6.7903586     268.4206  0.027113192  0.027114638            5 
  826000   0.90810117   -6.8097117    268.17902  0.027055994  0.027097118           10 
  827000   0.90407818   -6.7906452    268.97071  0.027103055  0.027079733            4 
  828000   0.92836566   -6.7934901    268.19712  0.026992464  0.027062149            4 
  829000   0.90798496   -6.8141229    268.34782  0.026975052  0.027044704            3 
  830000   0.93322444   -6.8179757    268.59535  0.026967404  0.027026918            6 
  831000   0.93221984   -6.8057648    269.29249  0.027004863  0.027009155            3 
  832000     0.930119   -6.8311083      269.083  0.026951422  0.026991214           11 
  833000   0.91414625   -6.8324791    268.82988  0.026893746  0.026973279            5 
  834000   0.92537318   -6.8004487    269.34916  0.026913386  0.026955644            6 
  835000   0.93020388   -6.8221372     269.0301  0.026849311  0.026937775            9 
  836000   0.92431582   -6.7980148    269.64533  0.026878522  0.026920143            9 
  837000   0.93200066   -6.8179295    270.40343  0.026921887  0.026902557            3 
  838000   0.90567052   -6.8125844    269.59184  0.026809053  0.026884896            6 
  839000   0.90343937   -6.8205751    269.71081  0.026788916  0.026867284            2 
  840000   0.91737778   -6.8366548    269.72799  0.026758729  0.026849656           10 
  841000   0.92391711   -6.7899893     271.3443  0.026887069   0.02683224           14 
  842000   0.91499271   -6.8008602    271.22542  0.026843371  0.026814933            8 
  843000   0.89568313   -6.8254585    271.32068  0.026820945  0.026797608           14 
  844000   0.91429497   -6.8119298    271.55156  0.026811963  0.026780222            4 
  845000   0.93960016   -6.7843708    271.67892  0.026792793  0.026762854            8 
  846000   0.94573995   -6.8624603    270.41728  0.026636848  0.026745549            5 
  847000   0.93308529   -6.8191758    271.49588  0.026711519   0.02672796            4 
  848000   0.94490636   -6.8187364    271.18715   0.02664968   0.02671032            4 
  849000    0.9317123    -6.847196    271.55861  0.026654752  0.026692785            4 
  850000   0.91728755   -6.8226578    272.41297  0.026707154  0.026675363            8 
  851000   0.91082193   -6.8177023    272.20516  0.026655421  0.026657575           10 
  852000   0.91549508   -6.8375394     271.4179  0.026547134  0.026639835            5 
  853000   0.90877175   -6.8621918    270.72188  0.026448015  0.026621878            5 
  854000    0.9070685   -6.8311692    272.42476  0.026583213  0.026604106            4 
  855000   0.90568963   -6.8620686    271.51683  0.026463629  0.026586433            3 
  856000   0.91156458   -6.8380503    273.02502  0.026579539  0.026568752            5 
  857000   0.93245706   -6.8432201    272.82605  0.026529176  0.026551015            4 
  858000   0.89721035    -6.824639    273.02337  0.026517421   0.02653325            7 
  859000   0.90871671   -6.8121363    273.23376  0.026506962   0.02651575            6 
  860000   0.92125773   -6.8369402    273.09436  0.026462631  0.026497931            3 
  861000   0.92507514   -6.7958842    273.90169  0.026510036  0.026480308            7 
  862000   0.90460516    -6.807779    273.56512  0.026446744  0.026462567            6 
  863000   0.90178788   -6.8081718    272.58358  0.026321319  0.026444506            7 
  864000   0.89835883    -6.850553    272.69717  0.026301811  0.026426678            3 
  865000    0.9171757   -6.8559357     272.7434  0.026275858  0.026408656           10 
  866000   0.91141895    -6.864949    273.25583  0.026294826  0.026390587            9 
  867000   0.91740406   -6.8531043    273.28287  0.026267097  0.026372482            5 
  868000   0.92200647   -6.8831711     272.5183  0.026163431  0.026354148           13 
  869000   0.90530093   -6.9010186    272.88468  0.026168458  0.026335721            4 
  870000    0.9241569    -6.859723    273.77519  0.026223678  0.026317512            6 
  871000    0.9056442   -6.8723104    274.52579  0.026265384   0.02629966            4 
  872000   0.90349416    -6.840023    274.56099  0.026238627  0.026281771            3 
  873000   0.90060783   -6.8618329    274.66702  0.026218692  0.026264061            7 
  874000    0.8787743   -6.8558911    274.13661   0.02613812  0.026246256           10 
  875000   0.92196318   -6.8244558    275.90364  0.026276537  0.026228601           10 
  876000   0.92103349   -6.8352505    276.08668  0.026263953  0.026210867            6 
  877000   0.90447642    -6.875952    275.42704  0.026171326   0.02619317            4 
  878000   0.90331174    -6.839096    275.90172  0.026186572  0.026175478            6 
  879000   0.91477678   -6.8133893    275.83339  0.026150303  0.026157953            4 
  880000   0.90552056   -6.8875674    275.28744  0.026068887   0.02614022           17 
  881000   0.91023411   -6.8589183    276.71899  0.026174706  0.026122267           17 
  882000   0.90751164   -6.9110223    275.53748  0.026033397  0.026104451            8 
  883000   0.88978787   -6.9071544    276.53657  0.026098204  0.026086501            9 
  884000   0.90043221   -6.8641715    275.66349  0.025986377  0.026068629            8 
  885000   0.89629853   -6.8752742    276.38485  0.026024939  0.026051051            9 
  886000   0.91499303   -6.8839163    276.23625  0.025981588  0.026033483            5 
  887000   0.92478736   -6.8873714    275.90733  0.025921395  0.026015617            5 
  888000   0.91262341   -6.8730371    276.34567   0.02593334  0.025997891            5 
  889000   0.88082573   -6.8658549    276.69625  0.025937032  0.025980074           12 
  890000   0.89867618   -6.8878665    276.45441  0.025885244  0.025962279           13 
  891000   0.90681836   -6.8555841    276.77077  0.025885781  0.025944467            7 
  892000   0.89753334   -6.8749546    277.02563  0.025880571  0.025926661            6 
  893000   0.88833625   -6.8685461    277.16373  0.025864477  0.025908792            7 
  894000   0.89538633   -6.8641558     276.9985  0.025820143  0.025890696            6 
  895000   0.90537032   -6.9085307    275.96159  0.025694747    0.0258724           10 
  896000   0.85958971   -6.8938229    277.35754  0.025795902  0.025854267            5 
  897000   0.89979352   -6.8262597    277.76434  0.025804937  0.025836125            4 
  898000   0.90769632   -6.8813098    277.63735  0.025764416  0.025818043            7 
  899000    0.9035039   -6.8879803    276.88735  0.025666235  0.025799926            6 
  900000   0.91160975   -6.9136698     277.2582  0.025672056  0.025781692            7 
  901000   0.89209734   -6.8678078    278.19009  0.025729753  0.025763489            9 
  902000   0.88753302   -6.8888187    277.98166  0.025681972  0.025745527            9 
  903000     0.887586   -6.8528081     278.5923  0.025709883  0.025727558            8 
  904000   0.90575889   -6.8623883    277.88102  0.025615876  0.025709631           11 
  905000   0.89165836   -6.8806708    278.12241  0.025609798  0.025691351            7 
  906000   0.88112202   -6.8789865    278.37167  0.025604459  0.025672959            6 
  907000   0.88307583   -6.8891592    278.67322  0.025603934  0.025654669           12 
  908000   0.91012001   -6.8910212    277.82687  0.025498061  0.025636503            8 
  909000     0.877095   -6.9062998    278.61324  0.025542102  0.025618151            7 
  910000   0.87302258   -6.8929741    278.29034  0.025484463  0.025599623            4 
  911000   0.88024125    -6.898859    278.41772  0.025468141  0.025580911            9 
  912000   0.89159372   -6.9090593    277.62781  0.025368039   0.02556237            4 
  913000   0.89663242   -6.9241772    278.17279  0.025389995  0.025543804            9 
  914000   0.88159034   -6.8895753    278.33705  0.025377192  0.025525459           11 
  915000   0.87210971   -6.8938081    279.23144  0.025430915  0.025507019            6 
  916000   0.90888884   -6.9128154    278.50274  0.025336858  0.025488565           13 
  917000   0.87628441   -6.9028632    279.16999  0.025369865  0.025470128            9 
  918000   0.88835194   -6.9011466    278.78533   0.02530731   0.02545186            9 
  919000   0.88131354   -6.9255114    278.19889  0.025226595  0.025433174           15 
  920000   0.88198356   -6.9027889     279.3014   0.02529904  0.025414557            5 
  921000   0.90171518   -6.8750935    279.82028  0.025318519  0.025396091            6 
  922000   0.88592838   -6.9044259    278.95249  0.025212626  0.025377821            8 
  923000   0.88990846   -6.9329509     279.1902  0.025206772  0.025359566            4 
  924000   0.87657473   -6.9158077     279.8256  0.025236796  0.025341169            4 
  925000   0.89470959   -6.9369807    278.92516  0.025128393  0.025322478            5 
  926000   0.90056737   -6.9467048    279.52176  0.025154946  0.025303876            4 
  927000    0.8969341   -6.9350017    279.43797  0.025120278  0.025285332            5 
  928000   0.86355723   -6.9331486    280.12732  0.025155111  0.025266886           16 
  929000   0.87278881   -6.9259143    279.76545  0.025095573  0.025248499            8 
  930000   0.88321682   -6.9024669    281.04646  0.025183375  0.025229993            4 
  931000   0.86009025   -6.9057501    280.60884  0.025117153  0.025211587            4 
  932000    0.8924513   -6.8913587    279.74678  0.025013124   0.02519313            4 
  933000   0.87957728   -6.9629915    279.73618  0.024985368  0.025174476            9 
  934000   0.86753912   -6.9367205    279.96987  0.024979468  0.025155983            3 
  935000   0.88285463   -6.8973092    281.31343  0.025072498  0.025137435            6 
  936000   0.89888808   -6.9433463    280.27928   0.02495364  0.025118896            6 
  937000   0.87321516   -6.9127587    280.90523  0.024982678  0.025100197           11 
  938000   0.87825501    -6.947118    280.76129  0.024943256  0.025081654            7 
  939000   0.87172238   -6.9003697    281.45171  0.024977965  0.025063295           12 
  940000   0.87968315   -6.9396064     280.8711   0.02489992  0.025045093            7 
  941000   0.87210848   -6.9438335    280.89867    0.0248759   0.02502671           22 
  942000   0.87549537   -6.9350921    282.02422  0.024949064  0.025008348           15 
  943000   0.87580496   -6.9388959     281.8904  0.024910781  0.024990329            7 
  944000   0.90924787   -6.9438954    281.40001  0.024841102  0.024972065            5 
  945000    0.8767744   -6.9695805    281.35844   0.02481115  0.024953713            6 
  946000   0.88161444   -6.9356262    282.49098  0.024884688  0.024935406            4 
  947000   0.85910223   -6.9529094    282.05455  0.024820007  0.024916975           11 
  948000   0.86935002    -6.941117    282.28391  0.024813986  0.024898616            6 
  949000   0.85750164   -6.8989698    282.56773  0.024812761  0.024880341           10 
  950000    0.8471744   -6.9657468    282.51578  0.024782086  0.024861879           12 
  951000   0.86105665   -6.9448955    282.31903  0.024738786  0.024843578            3 
  952000    0.8709364   -6.9345685    282.54449  0.024732536  0.024825362            3 
  953000   0.88199386   -6.9241447    282.68441  0.024718818  0.024806961           11 
  954000   0.87656271   -6.9249621     282.9436  0.024715548   0.02478864            6 
  955000   0.87699051    -6.934878    282.35347  0.024638174  0.024770353            4 
  956000    0.8828784   -6.9360588    282.90983  0.024660899  0.024752267            6 
  957000   0.87901106   -6.9286366    282.91873  0.024635904  0.024734053           10 
  958000   0.88048294   -6.9522978    283.96452  0.024701159  0.024715806            6 
  959000   0.87511876   -6.9514685    283.06913  0.024597595  0.024697611            3 
  960000    0.8702626    -6.938229    283.12276  0.024576629  0.024679379           10 
  961000     0.875047   -6.9565266    283.44511  0.024579007  0.024661094            7 
  962000   0.88152407   -6.9497218     283.8277  0.024586599   0.02464284           23 
  963000   0.85662476   -6.9754841    283.29842  0.024515266  0.024624727           14 
  964000   0.88251871   -6.9323469    284.20509  0.024568213  0.024606613            7 
  965000   0.85747104   -6.9614878    284.42692   0.02456191  0.024588488            7 
  966000   0.87728719   -6.9519164    283.95369   0.02449566  0.024570501            9 
  967000   0.86642464   -6.9596348    284.84621  0.024547243  0.024552582            6 
  968000   0.86759781   -6.9480219    285.31644  0.024562365  0.024534695            9 
  969000   0.86516115   -6.9692286    284.67379   0.02448175  0.024516855            5 
  970000   0.85740586   -6.9846959    285.24227  0.024505349  0.024499068            8 
  971000   0.87358322    -6.923005    286.36125  0.024576146   0.02448132           12 
  972000   0.86678218   -6.9796277    285.40243  0.024468658  0.024463713            8 
  973000   0.85026955   -6.9429785     285.5966   0.02446014  0.024445973            4 
  974000   0.85268342   -6.9733178    285.65128  0.024439706  0.024428354            5 
  975000   0.85090551   -6.9689742    285.96603  0.024441541  0.024410701            7 
  976000   0.86287343   -6.9543126    286.64298  0.024474298  0.024393046            8 
  977000   0.86723988   -6.9754421     285.8776  0.024383964  0.024375551            7 
  978000    0.8675285   -6.9788417    287.72861  0.024516753  0.024358251            9 
  979000   0.88758261   -6.9606284    287.38378  0.024462358   0.02434101            4 
  980000   0.85326128   -6.9758694    285.78233  0.024301218  0.024323685            9 
  981000   0.85850219   -6.9873355     286.9397  0.024374762  0.024306159           10 
  982000   0.86551914   -6.9915085    287.30457  0.024380904  0.024288552           20 
  983000   0.85220897    -6.962252    287.43608   0.02436725  0.024271163            5 
  984000   0.86555568   -6.9657372    287.13009  0.024316573  0.024253783            8 
  985000   0.86866856   -6.9594088    287.23927  0.024301123  0.024236444            7 
  986000   0.84690435   -6.9588798    287.82058  0.024325607  0.024219081            7 
  987000    0.8392059   -6.9634727     287.0764  0.024238129  0.024201618            9 
  988000   0.85554223    -6.994583    286.36776  0.024153826  0.024183927            7 
  989000   0.87506471   -7.0164326    286.96055  0.024179352   0.02416621           10 
  990000   0.84640965   -6.9551268    287.96461  0.024239446  0.024148443           15 
  991000   0.87563016   -7.0086876    287.31054  0.024159985  0.024130796            5 
  992000   0.85128912   -6.9873629    287.12037  0.024119654  0.024113117            8 
  993000   0.86123324    -6.973763    288.33226  0.024197068  0.024095466           12 
  994000   0.87162284    -6.970465    287.99884  0.024144772  0.024077796            7 
  995000   0.84439034   -6.9722023    287.97871   0.02411882  0.024060286            5 
  996000   0.84852395   -7.0039336    287.40078   0.02404625  0.024042706            4 
  997000   0.83670947   -6.9940067    288.15395  0.024085084  0.024025055            3 
  998000   0.84795075   -6.9576565    288.45074  0.024085733  0.024007535            7 
  999000   0.85631421   -6.9892039    287.94296  0.024019266  0.023990133           15 
 1000000   0.85279489   -7.0130023    288.60662  0.024050552   0.02397269           12 
 1001000    0.8624014   -7.0137803    288.19023  0.023991861  0.023955216            5 
 1002000   0.87923647   -6.9952286    288.61407  0.024003166  0.023937746            6 
 1003000   0.84707634   -6.9933987    288.91286  0.024004059  0.023920382            7 
 1004000    0.8592858   -7.0074925    288.26661  0.023926511  0.023902839            9 
 1005000    0.8476459   -6.9939308    287.47109   0.02383674  0.023885347            4 
 1006000   0.84147996   -6.9787094    288.48049  0.023896661  0.023867632           18 
 1007000   0.83074784   -6.9868313    288.86849  0.023905039  0.023850029            4 
 1008000   0.86098739   -7.0239557    287.57755  0.023774599  0.023832424           12 
 1009000   0.85128156    -7.022379    288.39119  0.023818235  0.023814696            5 
 1010000   0.84033501   -7.0042012    288.95032  0.023840786  0.023796923            9 
 1011000   0.85693281   -6.9858662    289.00736  0.023821906  0.023779211            5 
 1012000   0.86167951   -6.9763057    289.90283  0.023872104  0.023761765            6 
 1013000   0.83526384   -7.0156536    288.86449  0.023763121  0.023744125           11 
 1014000   0.85532891   -7.0461317     288.7361  0.023729134  0.023726161            9 
 1015000   0.84507056   -6.9990784    289.06569  0.023732815  0.023708457            7 
 1016000   0.84666918   -6.9887964    289.25894  0.023725307  0.023690899           11 
 1017000   0.84121022   -6.9793112    290.13603  0.023773847   0.02367354            6 
 1018000   0.85320571    -6.988979    289.76989  0.023720521  0.023656142            5 
 1019000   0.84453013   -7.0144807    289.87342   0.02370571  0.023638634            5 
 1020000   0.85006841   -6.9938871     289.4917  0.023651283  0.023621053           14 
 1021000   0.84886957   -7.0036454    289.33822  0.023615591  0.023603385           11 
 1022000   0.85976475   -7.0099116    289.16241  0.023578148  0.023585749           11 
 1023000   0.83950903   -6.9872711    290.21445  0.023640799  0.023568064           14 
 1024000   0.84318399   -7.0096939    289.03946  0.023522091  0.023550473           17 
 1025000   0.85571966   -7.0441622    289.91874  0.023570629  0.023532873            4 
 1026000   0.83431115   -7.0220803    289.87416  0.023544035  0.023515119            5 
 1027000    0.8438362   -7.0260036    290.20773  0.023548177    0.0234974           10 
 1028000   0.83798523   -7.0593706    289.30274  0.023451908  0.023479718           13 
 1029000   0.83803164   -7.0322257     290.5138  0.023527195  0.023462013           13 
 1030000   0.84594633   -7.0217632    290.49632  0.023502939  0.023444321            7 
 1031000   0.84447633   -7.0436074    289.41444  0.023392696  0.023426581            5 
 1032000     0.822735   -7.0111809    290.07905  0.023423696  0.023408936            6 
 1033000    0.8393585   -7.0159592    290.62978  0.023445448  0.023391347           11 
 1034000    0.8547642   -7.0061187    290.82643  0.023438623  0.023373859            6 
 1035000   0.85551297   -7.0154104    290.70331  0.023406063  0.023356427            9 
 1036000   0.84780269   -6.9721892    291.72036   0.02346528  0.023339137            7 
 1037000   0.85475669   -7.0196013    290.59656  0.023352343  0.023321788            5 
 1038000   0.84214778   -7.0424914    291.53382  0.023405091  0.023304397           11 
 1039000   0.82717454   -7.0885253    291.10793  0.023348406  0.023286832           13 
 1040000   0.83457421    -7.061119    290.47309  0.023275088  0.023269243           10 
 1041000   0.83539862   -7.0822541     290.9117   0.02328784  0.023251649           15 
 1042000    0.8365989   -7.0353187     290.7952  0.023256174  0.023234102            7 
 1043000   0.85254612   -7.0282227    291.42537  0.023284225  0.023216735            9 
 1044000   0.82819061   -7.0093737    292.75609  0.023368142  0.023199435            6 
 1045000   0.84872232   -7.0727303     290.9344   0.02320051  0.023182174           11 
 1046000   0.84597365   -7.0746746    291.53236  0.023225969  0.023164884           10 
 1047000   0.82265604    -7.060059    292.09375  0.023248468  0.023147629            7 
 1048000   0.84024696   -7.0576074    291.82717  0.023205087  0.023130322            8 
 1049000   0.82989942   -7.0539028    291.39306   0.02314848  0.023112967            5 
 1050000   0.86462096   -7.0648816    292.14029  0.023185738  0.023095574            6 
 1051000   0.84243003   -7.0518263    292.12681  0.023162608  0.023078214            9 
 1052000    0.8359887   -7.0791078    292.18948  0.023145555  0.023060881            8 
 1053000   0.84715307   -7.0589987    291.87956  0.023099047  0.023043542            7 
 1054000   0.81908697    -7.060805    291.31177   0.02303224  0.023026084            9 
 1055000   0.83588128   -7.0566742    292.07682  0.023070839  0.023008748           15 
 1056000   0.82502131   -7.0534117    292.37796  0.023072756   0.02299147            7 
 1057000   0.84019555    -7.038354    292.71951  0.023077855  0.022974233           11 
 1058000   0.83027055   -7.0465386    293.06337  0.023083126  0.022956948           25 
 1059000   0.81296315   -7.0674078    292.72559  0.023034749  0.022939692            5 
 1060000   0.82949884   -7.0671501    292.50589  0.022995746  0.022922376            9 
 1061000   0.84361443   -7.0847522    292.67715  0.022987524  0.022905069            4 
 1062000    0.8298558   -7.0531007    293.29396  0.023014278  0.022887646            5 
 1063000    0.8221425   -7.0298675    293.70288  0.023024685  0.022870328           10 
 1064000   0.83246355   -7.0825939    292.44331  0.022904395  0.022852979           11 
 1065000   0.85345271   -7.0948964    292.42894  0.022881764  0.022835521            6 
 1066000   0.84072951   -7.0678259    293.06569  0.022910076  0.022818013            8 
 1067000   0.82479918   -7.1004212     293.0042  0.022883802  0.022800703            6 
 1068000   0.84177483   -7.1119684    292.70886  0.022839331  0.022783418            8 
 1069000   0.82358989   -7.0665239    292.70105  0.022817357   0.02276616           14 
 1070000   0.84158999   -7.1116282    293.12769   0.02282926  0.022748885            9 
 1071000   0.80979827   -7.0970204    293.46072  0.022833856  0.022731533            6 
 1072000   0.83513019   -7.1207643    292.97753  0.022774995  0.022714208           10 
 1073000   0.83266059   -7.0665893    293.59369  0.022801623  0.022696835           11 
 1074000   0.83028998   -7.1115028    293.18123  0.022748389  0.022679653           20 
 1075000   0.81622596   -7.1106792    293.40533  0.022744599  0.022662292            9 
 1076000   0.82216196   -7.0423735    294.26125   0.02278975  0.022645013           16 
 1077000   0.82987204   -7.0643882    294.02679  0.022750448  0.022627826            7 
 1078000   0.82906211   -7.0875448    293.34014  0.022676263  0.022610562            5 
 1079000   0.83182269   -7.1025142    293.87073  0.022696226  0.022593158           20 
 1080000   0.81331682   -7.0814214    293.28121  0.022629723  0.022575754            7 
 1081000   0.82718927   -7.1037999    293.59759  0.022633178  0.022558447           13 
 1082000   0.82349267   -7.0702652     294.0064  0.022643746  0.022541108            7 
 1083000   0.82348512   -7.0939479    294.09045  0.022629305  0.022523793           11 
 1084000   0.83217174   -7.0775398    294.36314  0.022629392  0.022506666            3 
 1085000   0.83227999   -7.1004477    293.72969  0.022559884  0.022489383           14 
 1086000   0.82274747   -7.1076183     293.6644  0.022534101  0.022471958           14 
 1087000   0.82120524    -7.125542    293.54645  0.022504328  0.022454597           18 
 1088000   0.83533143   -7.1459228    293.17076  0.022454868   0.02243721            9 
 1089000   0.83032735   -7.1382013    293.86791  0.022487597   0.02241978            7 
 1090000   0.83224862   -7.1398906    294.17705    0.0224906  0.022402323            4 
 1091000   0.84115839   -7.1264391    294.63718  0.022505131  0.022385062            6 
 1092000   0.81400702   -7.0807812    294.36335  0.022463626  0.022367703            8 
 1093000    0.8203741   -7.1136487    294.16385  0.022427863  0.022350355           10 
 1094000   0.83864188   -7.1093025    293.87932  0.022385688  0.022333019            9 
 1095000   0.81836223   -7.1118408    294.05063  0.022378282  0.022315635           10 
 1096000   0.81983336   -7.1036861    294.87263  0.022420364  0.022298216           10 
 1097000   0.82370893   -7.1189915    294.05907  0.022338125  0.022280719           16 
 1098000    0.8204169   -7.1475803    293.27402  0.022258198  0.022263092           13 
 1099000   0.83270276   -7.1133188    294.61467  0.022339602  0.022245519            7 
 1100000   0.81585126    -7.107154    294.04607  0.022276218   0.02222786           10 
 1101000   0.80348914   -7.1071135    294.44616  0.022286267  0.022210325           32 
 1102000   0.83470283   -7.1334212    293.85881  0.022221628  0.022192598           22 
 1103000   0.83350697   -7.1523037     292.8476  0.022125083  0.022174799           10 
 1104000   0.82397588   -7.1243901    293.79935  0.022176883  0.022157031           14 
 1105000   0.82215443   -7.1253876    294.50791   0.02221025  0.022139362           13 
 1106000   0.79520201   -7.1414577    294.39319  0.022181524  0.022121661           10 
 1107000   0.79547897   -7.1599238    293.87642  0.022122585  0.022103977            7 
 1108000   0.81309109   -7.1552377    294.34297  0.022137708  0.022086286           11 
 1109000   0.81823158    -7.090361     295.0398  0.022170108  0.022068713            8 
 1110000   0.83859811   -7.1093321    294.91838   0.02214102   0.02205125            9 
 1111000   0.81517961    -7.106387    293.78509  0.022036085  0.022033814            7 
 1112000   0.80651817   -7.1071225    294.67958  0.022083302  0.022016354           28 
 1113000   0.80372782   -7.1213325    294.59587  0.022057193  0.021998939            6 
 1114000   0.81120655   -7.1448732    294.49082  0.022029534  0.021981498           20 
 1115000   0.82161912   -7.1495864     294.7472  0.022028939  0.021963949            7 
 1116000   0.80589458   -7.1551609     294.5687   0.02199587  0.021946333           12 
 1117000   0.81104717   -7.1691595    294.16787  0.021946275  0.021928692           14 
 1118000    0.7888256   -7.1577252    294.05238  0.021918037  0.021910865           14 
 1119000   0.81026416   -7.1414751    294.31496  0.021918004  0.021893195           16 
 1120000   0.79431185   -7.1281089    294.95314  0.021945918  0.021875558            8 
 1121000   0.82069741   -7.1671542    295.39857  0.021959453  0.021857972           12 
 1122000    0.8106875   -7.1467195    294.62737  0.021882603  0.021840359            7 
 1123000   0.81659622   -7.1685954    294.62049  0.021862607    0.0218227            6 
 1124000   0.80471839   -7.1300259    295.44612  0.021904368  0.021805162            8 
 1125000   0.79885373   -7.1428094    295.19129  0.021866021  0.021787683            9 
 1126000   0.78919497   -7.1504885    295.25199  0.021851095  0.021770325            5 
 1127000   0.82564828   -7.1498582    296.32749  0.021911231  0.021752892            5 
 1128000   0.80602898   -7.1281387    295.65936  0.021842447  0.021735662            7 
 1129000    0.7981526   -7.1466466    296.18786   0.02186211  0.021718424            6 
 1130000   0.79668427   -7.1288464    296.21144  0.021844501  0.021701126           10 
 1131000    0.8093714    -7.174405    295.83101  0.021797157  0.021683882           12 
 1132000   0.79776595   -7.1597288     295.6773  0.021766586  0.021666772            7 
 1133000   0.79600718   -7.1385112    296.28471   0.02179205  0.021649571            7 
 1134000   0.80986245   -7.1490094    296.43047  0.021783544  0.021632433           14 
 1135000   0.79663044    -7.183375    296.09967  0.021740064  0.021615319            9 
 1136000   0.80183083   -7.1346771     296.8797  0.021778147  0.021598236            7 
 1137000   0.81419274   -7.1565792    296.72341  0.021747538  0.021581164           10 
 1138000   0.77828724   -7.1897016    295.83033   0.02166303  0.021564073           14 
 1139000   0.78432967   -7.2014864    296.71174  0.021708497  0.021547027           18 
 1140000   0.79738616   -7.1918472    295.77792  0.021621193  0.021529935            9 
 1141000   0.81141279    -7.179532    295.93118  0.021613437  0.021512831           12 
 1142000   0.80232067   -7.2050531    295.57563  0.021568566  0.021495605           19 
 1143000   0.80632648   -7.1996471     295.9783  0.021579053  0.021478362           11 
 1144000    0.7990026   -7.1955027    295.90761  0.021555041  0.021461083           21 
 1145000   0.80327118   -7.2257373    296.12748  0.021552218  0.021443877            8 
 1146000   0.80208356   -7.1999661    295.89208  0.021516295   0.02142667           11 
 1147000     0.807834   -7.1614312    297.03973  0.021580916  0.021409566           22 
 1148000   0.81087402   -7.1976222    296.05894  0.021490922  0.021392403           12 
 1149000   0.80538414    -7.193025    296.72913  0.021520825  0.021375179           20 
 1150000   0.78817545   -7.1687586    296.93734  0.021517199  0.021358042            9 
 1151000   0.79619927   -7.1527628    296.91371  0.021496793  0.021341009            9 
 1152000   0.78945516   -7.1347475    297.53988  0.021523429  0.021324077            6 
 1153000   0.80743711   -7.1400814    297.66323  0.021513676  0.021307167           10 
 1154000   0.79956432   -7.1589603    297.50195  0.021483388  0.021290246            9 
 1155000   0.80327671   -7.1362951    297.29972  0.021450196  0.021273337           16 
 1156000   0.81081326   -7.1751212    296.69209  0.021387838  0.021256376            7 
 1157000   0.78242732   -7.2003653    296.80577   0.02137754  0.021239265           10 
 1158000   0.80433639   -7.1720012    297.59293  0.021415726  0.021222193            6 
 1159000   0.79205562   -7.1866064    297.22215  0.021370589  0.021205214            9 
 1160000   0.77748294   -7.2015432    296.77906  0.021320334  0.021188117           12 
 1161000   0.79975795    -7.215348    296.73643  0.021298911  0.021171028           26 
 1162000   0.79388428   -7.2009406    296.85992  0.021289438  0.021153814           12 
 1163000   0.78985754   -7.1923021    297.49358  0.021316537  0.021136728           23 
 1164000   0.79073761   -7.1732778    297.74367  0.021316127  0.021119707           11 
 1165000   0.78447262   -7.2127312    297.52984  0.021282535  0.021102751           10 
 1166000   0.78951287   -7.2092366    297.83629  0.021286185  0.021085717            8 
 1167000   0.78775454   -7.2210999    297.09291  0.021214861    0.0210687            9 
 1168000   0.79533782   -7.1946096    297.73042  0.021242182  0.021051624           10 
 1169000   0.77621958   -7.2222282    297.41413  0.021201463  0.021034687           10 
 1170000   0.79227465    -7.195283    297.05102   0.02115748  0.021017771           13 
 1171000   0.76991015    -7.226769    297.14716  0.021146254   0.02100084           22 
 1172000    0.7780441   -7.2250271    297.50009  0.021153306  0.020983856           10 
 1173000   0.76885321   -7.2239742    297.18495  0.021112883  0.020966874           14 
 1174000   0.79455739   -7.2291422     297.4064  0.021110619   0.02094983           11 
 1175000   0.78440378   -7.2359345     297.5372  0.021101929  0.020932774           18 
 1176000   0.79854761   -7.2521233    296.60041  0.021017603  0.020915847           21 
 1177000   0.78321213   -7.2182064    297.79754  0.021084504  0.020898886            8 
 1178000   0.77410343   -7.2700265    297.38203  0.021037212  0.020881838           16 
 1179000    0.8084678   -7.2384803    297.70639  0.021042295  0.020864857           14 
 1180000   0.80114573   -7.2388929    297.90384  0.021038407  0.020847936           20 
 1181000   0.79121713   -7.2117032    297.91117   0.02102111  0.020831043           27 
 1182000   0.78064536   -7.2344644    297.85935  0.020999672  0.020814142           13 
 1183000   0.77376441   -7.2077708    298.81004   0.02104889  0.020797312           29 
 1184000   0.77587561   -7.2153215    298.15216  0.020984809  0.020780473           12 
 1185000    0.7823153   -7.2313198    297.88674  0.020948434  0.020763581           21 
 1186000   0.76196853   -7.2165396    298.34088  0.020962682  0.020746689           23 
 1187000   0.76679748   -7.2077118    298.05591  0.020925015  0.020729853           21 
 1188000   0.78674194   -7.2227627    297.96256  0.020900853  0.020713081           17 
 1189000   0.79169701   -7.2378737    298.17895  0.020898441  0.020696276           19 
 1190000   0.78826399    -7.251927    298.50059  0.020903403  0.020679557           14 
 1191000   0.79230883   -7.2388943    298.23032  0.020866941  0.020662832            6 
 1192000   0.79856287   -7.2491824     298.2172  0.020848518  0.020646102            6 
 1193000   0.78871012   -7.1963731      298.442  0.020846745  0.020629356           11 
 1194000   0.78491327   -7.2266141    298.19015  0.020811708  0.020612705            4 
 1195000   0.77242214   -7.2349659    298.17818  0.020793457  0.020596052           12 
 1196000   0.79333258     -7.24365    298.88367  0.020825228  0.020579356           16 
 1197000   0.77615735   -7.2202837    298.49913  0.020781059  0.020562623            9 
 1198000   0.76204695    -7.214091    297.87984  0.020720634  0.020545871            6 
 1199000   0.77166173    -7.239129      298.313  0.020733458  0.020529083            9 
 1200000   0.77777959   -7.2537251    298.81247  0.020750866   0.02051222            7 
 1201000    0.7634834   -7.2282515    298.33237  0.020700275  0.020495476           14 
 1202000   0.77679302   -7.2465134    298.48436  0.020693591  0.020478718           11 
 1203000   0.76022208   -7.2575158    298.03135  0.020645009  0.020461917           12 
 1204000   0.76987145   -7.2423204    299.23461  0.020711144  0.020445223           12 
 1205000   0.78173505   -7.2002076    299.36187  0.020702757  0.020428588            7 
 1206000   0.78097434   -7.2297822    298.66634  0.020637531  0.020412064           12 
 1207000   0.79070095   -7.2294406    298.41529  0.020603099  0.020395482           19 
 1208000   0.77018988   -7.2186991    299.59638   0.02066752  0.020378868            9 
 1209000   0.78415699   -7.2149099    299.39138  0.020636296  0.020362353            5 
 1210000   0.76274298   -7.2149303    299.12866  0.020601147  0.020345806           13 
 1211000   0.78166653   -7.2331009    299.51329  0.020610604  0.020329334           17 
 1212000    0.7729731   -7.2224889    299.56704  0.020597294  0.020312871            7 
 1213000   0.76260698   -7.2103181    299.93385  0.020605513   0.02029643           30 
 1214000   0.76239583    -7.248897    298.91208  0.020518402   0.02027992           10 
 1215000   0.77814382   -7.2375807     299.2054  0.020521632  0.020263402           13 
 1216000   0.77357441   -7.2437648    299.54177  0.020527808  0.020246849           15 
 1217000   0.77833697   -7.2468432    298.75514  0.020457076  0.020230293           20 
 1218000   0.75716277   -7.2607526     298.9009  0.020450253  0.020213731           22 
 1219000   0.78304155   -7.2601807    298.66845  0.020417586   0.02019714           12 
 1220000    0.7562224   -7.2362465    299.36966  0.020448748  0.020180519           15 
 1221000   0.76496627   -7.2578723    298.19474  0.020351812  0.020163995           16 
 1222000   0.75845384   -7.2489263    298.54676  0.020359162  0.020147502           35 
 1223000   0.76752302   -7.2629391    298.31588  0.020326784  0.020130996           12 
 1224000   0.76811665   -7.2619218    299.48211  0.020389577  0.020114504           13 
 1225000   0.76468218   -7.2795781    298.91956  0.020334664  0.020097951           28 
 1226000   0.75601131   -7.2713312    299.32301  0.020345501   0.02008134            7 
 1227000   0.77191892   -7.2424609    299.84887  0.020364634  0.020064781           24 
 1228000   0.78304235   -7.2605003    298.93013  0.020285704  0.020048365           12 
 1229000   0.75496197   -7.2648273    298.78195   0.02025915  0.020031968           13 
 1230000   0.75247614   -7.2508372    299.21805  0.020272225  0.020015465            7 
 1231000   0.76575307   -7.2647998    299.06323  0.020245277  0.019998896           10 
 1232000   0.76783163   -7.2937324    298.91832  0.020219042   0.01998233           22 
 1233000   0.77643423   -7.3045127    299.02921  0.020210138   0.01996578           22 
 1234000   0.75508453   -7.2853105    299.17045  0.020203299  0.019949299           24 
 1235000   0.75261004   -7.2600652    299.44834  0.020205691  0.019932825            8 
 1236000   0.75401476   -7.3119198    299.02428  0.020160752  0.019916312           22 
 1237000   0.76219898   -7.2927783      298.817  0.020130491   0.01989977           17 
 1238000    0.7768517    -7.295201    299.51867  0.020161461  0.019883205           14 
 1239000   0.78323983   -7.3017754    299.25695  0.020127586  0.019866696           14 
 1240000   0.76272513   -7.2866653    299.67083  0.020139169  0.019850162            7 
 1241000    0.7519636   -7.3119681     299.4196  0.020106071  0.019833649            9 
 1242000   0.75431512   -7.2911592    299.54731  0.020098451  0.019817113           15 
 1243000   0.75209809     -7.29964    299.14739   0.02005547   0.01980068           32 
 1244000   0.74206524   -7.3104971    299.24118  0.020045631  0.019784238           16 
 1245000   0.77315327   -7.2961055    298.99853  0.020013288  0.019767815           10 
 1246000   0.76137958   -7.3009195    299.65186  0.020040921  0.019751383           12 
 1247000   0.76315542   -7.2751168    299.88139  0.020040189  0.019735033           16 
 1248000   0.75516502   -7.2827513    299.26589  0.019983032  0.019718627           16 
 1249000   0.74235111   -7.3043834     299.6794  0.019994622  0.019702251           15 
 1250000   0.72017647    -7.280459    300.26434  0.020017623  0.019685922           18 
 1251000    0.7667056   -7.3217331    298.89878  0.019910657  0.019669574           18 
 1252000   0.74341508   -7.2764655    300.65054  0.020011351  0.019653306            6 
 1253000    0.7749463   -7.2964325    300.57128  0.019990109  0.019637194           17 
 1254000   0.75392619    -7.264351    300.99899  0.020002591  0.019621093           17 
 1255000   0.75135277   -7.3061778    299.90838  0.019914235  0.019604971           13 
 1256000   0.75122983   -7.3085797    299.48664  0.019870398  0.019588843           24 
 1257000   0.75997125   -7.2824143    300.62544  0.019930088   0.01957278           15 
 1258000   0.75378308   -7.3104276     300.2121  0.019886864  0.019556713           10 
 1259000   0.76413757   -7.2781187    299.98441  0.019855997   0.01954061            7 
 1260000   0.73761382   -7.2690148    301.09125  0.019913443  0.019524557            8 
 1261000   0.77280377   -7.2954671    300.70636  0.019872215  0.019508575           11 
 1262000    0.7432202   -7.2884682    300.43193  0.019838347  0.019492587           13 
 1263000   0.75785827   -7.2887392    299.82057  0.019782302  0.019476652           13 
 1264000   0.76105205   -7.3493445    300.00158  0.019778585  0.019460668           16 
 1265000   0.73112302   -7.2772471    301.50799  0.019862186  0.019444659            7 
 1266000   0.74995363   -7.3102406    300.69835  0.019793204  0.019428587           10 
 1267000   0.75633355   -7.3364899    300.67238  0.019775873  0.019412547           12 
 1268000   0.74774458   -7.2957952    300.80825  0.019769207  0.019396564            9 
 1269000    0.7429763      -7.3214    300.74036   0.01974917  0.019380626           10 
 1270000   0.74917264   -7.2914288    300.34909  0.019707945  0.019364553           27 
 1271000   0.75665848   -7.3196602    300.30645  0.019689644  0.019348545           20 
 1272000   0.73991803   -7.3501434    300.20034  0.019667213  0.019332508           12 
 1273000   0.74830065   -7.3385371    300.60239  0.019678083  0.019316442           15 
 1274000   0.73357601   -7.3004208    300.80892  0.019676146  0.019300382            7 
 1275000   0.74163651   -7.3454636    299.93764  0.019603767  0.019284302           30 
 1276000   0.74058031   -7.3444954    299.83186  0.019581496   0.01926823           16 
 1277000   0.74490579   -7.3455551    300.72612  0.019624519  0.019252234           14 
 1278000   0.74613872   -7.3569504    300.46634  0.019592223  0.019236225           28 
 1279000   0.75092198   -7.3512223     299.6783   0.01952556   0.01922011           20 
 1280000   0.75209078   -7.3249235    300.46811  0.019561726  0.019204096           16 
 1281000    0.7448771   -7.3362735    300.89433  0.019574182  0.019188101           16 
 1282000   0.74023329   -7.3348784    300.86678  0.019557123  0.019172085           24 
 1283000   0.76442964   -7.3772626    299.91665  0.019480167  0.019156086           15 
 1284000   0.73444499   -7.3374764    300.41991  0.019497658  0.019140071           17 
 1285000   0.73751032   -7.3413164    300.59551  0.019493872  0.019124045           16 
 1286000   0.73948697   -7.3597483    300.14071  0.019449242  0.019108033           14 
 1287000   0.74145435   -7.3589883    300.43252  0.019453025  0.019092057           17 
 1288000   0.74491336   -7.3314272    300.65549  0.019452348  0.019076113            8 
 1289000   0.73685971   -7.3396136    301.27069  0.019477029  0.019060227           24 
 1290000   0.72942215   -7.3200457     300.7589  0.019428869   0.01904434           11 
 1291000   0.74675899   -7.3580577    300.22692  0.019379481  0.019028441           15 
 1292000   0.71598217   -7.3625724    300.64923   0.01939172  0.019012505           45 
 1293000   0.72545599    -7.347476     300.5603  0.019370991    0.0189965           10 
 1294000   0.72862977   -7.3515124    300.34543  0.019342184  0.018980519           16 
 1295000   0.73101672    -7.396943    300.50042  0.019337222  0.018964523           12 
 1296000   0.73301432   -7.3740221    299.45099  0.019254822  0.018948528           12 
 1297000   0.72391226   -7.3677279    300.23704   0.01929048  0.018932494           16 
 1298000   0.72873034    -7.376164     299.8926  0.019253505  0.018916468           14 
 1299000   0.73326192   -7.3601473    299.77669  0.019231248  0.018900465           19 
 1300000   0.74481826   -7.3581211     300.3365   0.01925234  0.018884551           23 
 1301000   0.72451856   -7.3722374    301.17691  0.019291373  0.018868654           22 
 1302000   0.72475383   -7.3654548    300.26082  0.019217922  0.018852779           54 
 1303000   0.73130435   -7.3773012    300.73738  0.019233652  0.018836944           16 
 1304000    0.7150737   -7.3630746    300.87363  0.019227609  0.018821113           25 
 1305000   0.73632103   -7.3617885    299.69117  0.019137367  0.018805238           28 
 1306000   0.71355112   -7.3770986    300.26626  0.019159409  0.018789407           14 
 1307000   0.73703135   -7.3570228    300.37778   0.01915186  0.018773548           28 
 1308000   0.73481357   -7.3761812    300.61076  0.019152061  0.018757728           16 
 1309000   0.73625162   -7.3707768    300.37996  0.019122738  0.018741899           31 
 1310000   0.73316272   -7.3611699    300.74673  0.019131472  0.018726084           17 
 1311000   0.72924345   -7.3648998    300.44309  0.019097578  0.018710277           15 
 1312000   0.73355785   -7.3527033    300.17517  0.019066004   0.01869449           60 
 1313000    0.7230048   -7.3649743    300.74227  0.019087476   0.01867865           32 
 1314000   0.73744684   -7.3866211    300.87519  0.019081379  0.018662825           26 
 1315000    0.7333193   -7.3883959    300.68216  0.019054636  0.018647135           29 
 1316000    0.7239201   -7.3932405    300.29633  0.019015725  0.018631383           18 
 1317000   0.73012435   -7.4026094    300.15416   0.01899229  0.018615559           86 
 1318000    0.7235181   -7.3874074    299.75819  0.018952844  0.018599764           29 
 1319000   0.73102925    -7.413551    300.16118  0.018963936  0.018584003           39 
 1320000   0.73704586   -7.4182064    299.18168  0.018887732  0.018568223           17 
 1321000   0.72336359   -7.3946915    300.01047  0.018925717   0.01855241           27 
 1322000   0.71497769   -7.4090324    300.29379   0.01892926  0.018536584           27 
 1323000   0.72392005   -7.4289684     300.0796  0.018901461  0.018520782           17 
 1324000   0.71381436   -7.3845141    300.85897  0.018936239   0.01850502           17 
 1325000   0.71795541   -7.3931692    300.68404  0.018910946  0.018489213           21 
 1326000   0.72175822   -7.3900793     300.9279   0.01891201  0.018473453           29 
 1327000   0.72320595   -7.4180109    300.43594  0.018866864  0.018457689           41 
 1328000    0.7205862    -7.420979    300.49739  0.018856513  0.018441967           36 
 1329000   0.72318635   -7.4133318    301.06471  0.018877898   0.01842629           23 
 1330000   0.71241111   -7.4108457    301.20232  0.018872326  0.018410572           17 
 1331000   0.72439789   -7.3949041    300.20626  0.018795784  0.018394833           24 
 1332000   0.70906226   -7.3917389    299.69848  0.018749905   0.01837909           26 
 1333000   0.71990112   -7.4262447    300.58624  0.018791338  0.018363381           31 
 1334000   0.69757633   -7.4028228    300.58854  0.018777395  0.018347657           35 
 1335000   0.72523751   -7.4149844     299.9012  0.018720424  0.018331943           33 
 1336000   0.71532132   -7.4544878    300.22906  0.018726862  0.018316233           22 
 1337000   0.69834996   -7.4467194    301.46825  0.018790093  0.018300538           36 
 1338000   0.71777023    -7.412555    300.62631  0.018723612  0.018284939           22 
 1339000   0.72627286   -7.4398755     300.4584  0.018699178  0.018269339           46 
 1340000   0.72034425   -7.4276657    300.74989  0.018703351    0.0182538           34 
 1341000   0.72802818   -7.4074861    301.32975  0.018725438  0.018238322           22 
 1342000   0.72681562   -7.3915722    301.05124   0.01869419  0.018222806           22 
 1343000   0.70009978   -7.4019458    300.99807  0.018676971  0.018207292           35 
 1344000   0.71907895   -7.4302847    300.51992  0.018633427  0.018191793           26 
 1345000   0.69934559   -7.4148293    300.64547  0.018627352  0.018176304           20 
 1346000   0.68929319   -7.4613056    300.97089  0.018633661  0.018160827           49 
 1347000   0.71888579   -7.4316955    300.42895  0.018586299  0.018145329           30 
 1348000   0.70611098   -7.4482846    300.16615  0.018556266  0.018129813           29 
 1349000   0.71791329   -7.4215656    300.75497  0.018578884  0.018114339           29 
 1350000   0.71097439   -7.4465933    300.42864  0.018544978  0.018098872           21 
 1351000   0.71652255   -7.4427317    299.76565  0.018490356  0.018083335          113 
 1352000   0.72128655    -7.446006    300.30962  0.018510208  0.018067851           46 
 1353000   0.71799255    -7.443203    301.15414  0.018548543  0.018052397           39 
 1354000   0.71595429   -7.4531563    300.48292  0.018493532   0.01803691           75 
 1355000   0.71451005   -7.4615975    300.71459  0.018494132  0.018021431           49 
 1356000   0.70022906   -7.4586168     299.6664  0.018416077   0.01800601           70 
 1357000   0.69302823    -7.457507    300.15581   0.01843256  0.017990549           68 
 1358000   0.70711751   -7.4672064    300.47495  0.018438571  0.017975121           48 
 1359000   0.72438617   -7.4374248    300.29418  0.018413918  0.017959729          105 
 1360000   0.70607728   -7.4475985    301.08673  0.018448942  0.017944355           45 
 1361000   0.69692304    -7.424198     300.8932  0.018423536  0.017929038           47 
 1362000   0.71978799   -7.4604249    300.78051  0.018403115  0.017913666           56 
 1363000   0.70721952   -7.4769282    300.30447  0.018360508  0.017898349           73 
 1364000   0.72721107    -7.445711    300.25087  0.018343773   0.01788305           50 
 1365000   0.70034917   -7.4559934    301.17577  0.018386799  0.017867725           54 
 1366000   0.69887225   -7.4663011    300.15602  0.018311129   0.01785234           53 
 1367000   0.71730932   -7.4690096     300.1982  0.018300305  0.017836938           53 
 1368000   0.70053196   -7.4616997    300.95959  0.018333309  0.017821614           31 
 1369000   0.69529448   -7.4708101    300.67987   0.01830289  0.017806324           49 
 1370000   0.68863077   -7.4515337    300.21039  0.018260972  0.017791051          101 
 1371000   0.70715323   -7.4616774    300.19904  0.018246963  0.017775774           90 
 1372000   0.71009118    -7.434638    301.07767   0.01828703  0.017760486           38 
 1373000   0.70689077   -7.4587108     300.6064  0.018245108    0.0177452           40 
 1374000   0.70517226    -7.442366    300.71857  0.018238633  0.017729964           48 
 1375000   0.70479821   -7.4686048    300.68472  0.018223316  0.017714744          115 
 1376000   0.71621328   -7.4508762    300.66461  0.018208855  0.017699529          137 
 1377000   0.70860389   -7.4856272    300.56722  0.018189737  0.017684331           60 
 1378000   0.68643735   -7.4745627    300.25209   0.01815748  0.017669151           51 
 1379000   0.70578747   -7.4835186    300.21945   0.01814234  0.017653938          117 
 1380000   0.69034441   -7.4773098    299.92556  0.018111447  0.017638643           66 
 1381000   0.69124911   -7.4502898    300.95451  0.018160422  0.017623412           32 
 1382000   0.70342802   -7.4526315    300.59986  0.018125896  0.017608247           40 
 1383000   0.68914497   -7.5013088    300.84072  0.018127303  0.017593032           51 
 1384000   0.69047393   -7.4856574    299.69234  0.018045059  0.017577776           51 
 1385000   0.70062117   -7.4810121     300.8487  0.018101607  0.017562507           81 
 1386000   0.69637784   -7.4809971     300.5234  0.018068988   0.01754733           69 
 1387000   0.71015282   -7.4781056    300.48106  0.018053416  0.017532105           85 
 1388000   0.69072146   -7.4791906    300.37686  0.018034154  0.017516928          111 
 1389000   0.69015439   -7.4738228    300.70717  0.018040987  0.017501761          103 
 1390000   0.69101583   -7.4867318    300.46769  0.018013651   0.01748662          177 
 1391000   0.69244065   -7.4873106    300.16904  0.017982809  0.017471458          173 
 1392000   0.69399142   -7.4778763    300.45821  0.017987201  0.017456303          200 
 1393000   0.70054816   -7.4897236    300.73727  0.017990983  0.017441144          139 
 1394000   0.68719509   -7.5305931    300.28805  0.017951223  0.017426007          147 
 1395000   0.70750105   -7.4972058    300.05112  0.017924201  0.017410827          143 
 1396000   0.69949851   -7.5248151    299.78576   0.01789552  0.017395647          110 
 1397000   0.68952962   -7.5382769    299.73563   0.01787972  0.017380488          232 
 1398000   0.68902621   -7.5216005    300.08792   0.01788793    0.0173654          196 
 1399000   0.69976728   -7.5013904    299.29405  0.017827856  0.017350311          218 
 1400000   0.71999514   -7.5117248    300.59455  0.017892532  0.017335254          213 
 1401000   0.69116794   -7.5146356    299.73635  0.017828715  0.017320162          236 
 1402000   0.69303153   -7.4964374    300.24427  0.017846188  0.017305101          190 
 1403000   0.68941989   -7.5184263    300.60393  0.017854831  0.017290042          139 
 1404000   0.69382596   -7.4998129    300.56503  0.017839805  0.017275012           72 
 1405000   0.68691085   -7.5118517    300.41051  0.017817943  0.017260001          186 
 1406000   0.69732345   -7.4892383    300.58062  0.017815352  0.017245005           88 
 1407000   0.69364007   -7.5067822    300.48849  0.017797234  0.017229979          138 
 1408000   0.70509683   -7.5216726    300.08058  0.017760451  0.017215006           83 
 1409000   0.70004549   -7.4969975    300.21476  0.017755782  0.017200014          115 
 1410000   0.69243185   -7.5020658    300.22542  0.017743819  0.017185071           90 
 1411000   0.68881622   -7.5111508    300.45702  0.017744922  0.017170102          239 
 1412000   0.69710727   -7.5084613    299.70823  0.017688163  0.017155168          125 
 1413000   0.69083564    -7.521131    299.58331  0.017668277  0.017140229          102 
 1414000   0.70991605   -7.5152616       299.87  0.017672678  0.017125311          223 
 1415000    0.6990815   -7.5088295    299.94906  0.017664845  0.017110406          162 
 1416000   0.68463842   -7.5025298    300.63181   0.01769255  0.017095552          135 
 1417000   0.68309116   -7.5045951    300.10007  0.017648793  0.017080696          107 
 1418000   0.69799749   -7.5064221    300.36772  0.017652076  0.017065855          150 
 1419000   0.69392459   -7.5274376    300.73756  0.017661355  0.017051005          161 
 1420000   0.69499178   -7.5109966    300.55825  0.017638395  0.017036137          131 
 1421000   0.69352734   -7.4937871    300.34382  0.017613407  0.017021277          212 
 1422000   0.67734709   -7.5322162     299.8261  0.017570681  0.017006458          156 
 1423000   0.69118542   -7.5063812    300.76796   0.01761349  0.016991653          119 
 1424000   0.67532067   -7.5174336    300.17074  0.017566172  0.016976911          145 
 1425000   0.67552598   -7.5388562    300.67572  0.017583375  0.016962138          168 
 1426000   0.68263485   -7.5430455    300.22215  0.017544539  0.016947358          157 
 1427000   0.67013365   -7.5295934    300.46784  0.017546592  0.016932588          146 
 1428000   0.69493279   -7.5131143    300.85292  0.017556777  0.016917889          128 
 1429000   0.67458553   -7.5252397    299.98936  0.017494131  0.016903178           99 
 1430000   0.67882857   -7.5299348     300.2753   0.01749856  0.016888454          153 
 1431000   0.68225618   -7.5506501    300.14889  0.017478971  0.016873708          132 
 1432000   0.69311534   -7.5456764    299.92946  0.017453996   0.01685895          431 
 1433000   0.67971217   -7.5399906    300.29024  0.017462796  0.016844191          220 
 1434000   0.68947244   -7.5501206    300.20349  0.017445577  0.016829407          333 
 1435000   0.69998284   -7.5650289    299.86868  0.017413976  0.016814649          197 
 1436000   0.68217587   -7.5611456    299.25498  0.017366236  0.016799907          406 
 1437000   0.69370888   -7.5613643    299.02384  0.017340747  0.016785134          528 
 1438000   0.68485123   -7.5637063     299.7744  0.017372184  0.016770367          404 
 1439000   0.68337146   -7.5402438    300.34143  0.017392948   0.01675561          424 
 1440000    0.6811382   -7.5638519    299.84793  0.017352311  0.016740902          216 
 1441000   0.67482222   -7.5544531    300.06372  0.017352748  0.016726199          252 
 1442000   0.67194186   -7.5592997    299.22669  0.017292342  0.016711502          195 
 1443000   0.69606911   -7.5604661    299.43205  0.017292218  0.016696783          199 
 1444000   0.70211526   -7.5537133    300.22022  0.017325728  0.016682132          282 
 1445000   0.67835848   -7.5927281    299.21656  0.017255857  0.016667475          211 
 1446000   0.66413527    -7.556486    300.23292  0.017302496  0.016652853          360 
 1447000   0.67128189   -7.5631296    299.32162  0.017238057   0.01663823          414 
 1448000   0.67455484   -7.5716657    299.58312  0.017241201  0.016623623          392 
 1449000   0.67155779   -7.5514339    300.09319  0.017258638  0.016609008          253 
 1450000   0.69406277   -7.5824572    299.35006  0.017204027  0.016594415          290 
 1451000   0.67767206   -7.5862959    300.26966  0.017244984  0.016579853          409 
 1452000   0.67131751   -7.5754406     300.2125  0.017229827  0.016565307          184 
 1453000   0.67322958   -7.5696975    299.99547  0.017205522  0.016550726          230 
 1454000   0.66690676   -7.5781158    299.23604  0.017150163  0.016536166          240 
 1455000   0.66890222   -7.5632291    300.19502    0.0171933  0.016521589          265 
 1456000   0.67151602   -7.5506549    299.40483  0.017136266   0.01650702          346 
 1457000   0.67333823    -7.572047    299.24465  0.017115342  0.016492464          416 
 1458000   0.66490771   -7.5715431    299.66189  0.017127452  0.016477977          224 
 1459000   0.68285974   -7.6011465    299.96915  0.017133262  0.016463461          232 
 1460000   0.69380242   -7.5920822     299.6144  0.017101279  0.016448922          420 
 1461000    0.6587138   -7.5934509    299.65918  0.017092128  0.016434379          407 
 1462000   0.67506054   -7.5903825    298.99355  0.017042496  0.016419845          346 
 1463000   0.67344154   -7.5943342    299.81305  0.017077526   0.01640533          212 
 1464000   0.66649645   -7.5903289    299.38537  0.017041517  0.016390863          305 
 1465000   0.65535315   -7.5859913    299.42375  0.017032068  0.016376424          214 
 1466000   0.67019302   -7.6097678    299.53522  0.017026786  0.016362012          361 
 1467000   0.66740374   -7.5745091    300.09296  0.017046862  0.016347645          240 
 1468000   0.66297893   -7.5617083    300.28535  0.017046171  0.016333289          197 
 1469000   0.67060324   -7.5633302    299.87266  0.017011156  0.016318916          512 
 1470000   0.67916455   -7.5790805    299.52355  0.016979793  0.016304552          334 
 1471000   0.67351306    -7.559372    300.79649  0.017040363  0.016290242          342 
 1472000   0.67292243   -7.6065561    299.55018   0.01695823  0.016275915          358 
 1473000   0.67502258   -7.5690197    299.90447  0.016966761   0.01626161          376 
 1474000   0.66927908   -7.5827711    299.62194  0.016939277  0.016247282          196 
 1475000   0.66304472    -7.614064    298.63334   0.01687194  0.016232944          182 
 1476000   0.65059866   -7.5968614    299.62014  0.016916223  0.016218595          394 
 1477000   0.66743442   -7.6247006    299.09075  0.016874901  0.016204241          476 
 1478000   0.65844384   -7.5990329    299.73242  0.016899663  0.016189922          210 
 1479000    0.6630488   -7.5934781    299.32471  0.016865264  0.016175626          231 
 1480000   0.65006475   -7.5994461    299.34363  0.016854934  0.016161329          353 
 1481000   0.66775591   -7.5928421    299.40088  0.016846774  0.016147039          429 
 1482000   0.65079666   -7.5974101    299.40512  0.016835645  0.016132759          461 
 1483000   0.65743769   -7.6196369    299.29143  0.016817905  0.016118437          479 
 1484000   0.65045542   -7.6078858    299.21111  0.016802061  0.016104122          478 
 1485000   0.67286584   -7.6239697    298.72784  0.016763627  0.016089847          399 
 1486000    0.6539032   -7.6145438     299.2164  0.016779745  0.016075564          455 
 1487000   0.66210255   -7.6306452     299.1464  0.016764537  0.016061294          413 
 1488000   0.68451735    -7.610704    298.83897  0.016736053  0.016047024          436 
 1489000   0.64955421   -7.6171887    298.93971  0.016730451  0.016032757          363 
 1490000   0.65660147   -7.6237355     298.4563  0.016692187   0.01601849          427 
 1491000   0.65093084   -7.6248242    298.61688  0.016689967  0.016004224          245 
 1492000   0.65231142   -7.6181071    298.86319  0.016692537  0.015989991          414 
 1493000   0.65191967   -7.6233381    298.65432  0.016669698  0.015975739          264 
 1494000   0.65359142    -7.634087    298.22154  0.016634401  0.015961475          492 
 1495000   0.66468404   -7.6425999    298.42749  0.016634754  0.015947254          491 
 1496000     0.649675   -7.6638407    298.79924  0.016644343   0.01593303          600 
 1497000    0.6543318   -7.6343898    299.42601  0.016668115  0.015918792          493 
 1498000   0.66024429   -7.6315473    298.75882  0.016619872  0.015904634          315 
 1499000   0.65619196   -7.6425374    299.38267  0.016643466   0.01589045          522 
 1500000   0.65271216   -7.6479314    298.57782  0.016587657   0.01587629          235 
 1501000   0.66672896   -7.6278009    299.50728  0.016628208  0.015862118          212 
 1502000    0.6578176   -7.6498826    298.40129  0.016555775     0.015848          259 
 1503000    0.6511922   -7.6432871    298.46692  0.016548399  0.015833896          494 
 1504000   0.66451958   -7.6330894    299.39056  0.016588573  0.015819818          384 
 1505000   0.65944366   -7.6347757    298.58615   0.01653301  0.015805769          432 
 1506000   0.65511384   -7.6238483    298.95104  0.016542222  0.015791712          451 
 1507000   0.66342291   -7.6176284    298.74561  0.016519886  0.015777688          238 
 1508000   0.66684484   -7.6329865    298.65731  0.016504051  0.015763676          501 
 1509000   0.64892748   -7.6072957    299.21814  0.016524086  0.015749684          462 
 1510000   0.63801115   -7.6096852    299.21342  0.016512882  0.015735691          497 
 1511000   0.64447733   -7.6326731    299.12726  0.016497202  0.015721707          421 
 1512000   0.66463363   -7.6305075    298.57132   0.01645565  0.015707771          232 
 1513000   0.64370309   -7.6450458     298.6971  0.016451702  0.015693828          470 
 1514000   0.64049163   -7.6542649     299.2556  0.016471577  0.015679871          235 
 1515000   0.65140994   -7.6462605    298.90042  0.016441167  0.015665922          524 
 1516000   0.65117826   -7.6437613    298.45407  0.016405787   0.01565197          241 
 1517000   0.64987835   -7.6462097    298.85141  0.016416799  0.015638044          474 
 1518000   0.65134529   -7.6391937    298.92116  0.016409813  0.015624148          466 
 1519000   0.64971153   -7.6564435    298.80268  0.016392511   0.01561025          564 
 1520000   0.65405161   -7.6558256    298.54833  0.016367781  0.015596343          274 
 1521000   0.64073795   -7.6433836    298.67176  0.016363782   0.01558246          502 
 1522000   0.64465062    -7.659907    298.52889  0.016345208  0.015568579          455 
 1523000   0.64237268   -7.6813708    298.61184  0.016339015  0.015554698          563 
 1524000   0.64926394   -7.6647358    298.49175  0.016321728   0.01554083          523 
 1525000      0.63907   -7.6659135    298.70657  0.016322763  0.015526947          491 
 1526000   0.64199147   -7.6825059    298.27094  0.016288278   0.01551307          262 
 1527000     0.653198    -7.666748    298.79253  0.016306076  0.015499223          534 
 1528000   0.64394062   -7.6571652     298.4713  0.016277885  0.015485401          289 
 1529000   0.66459019   -7.6631308    298.43599  0.016265315  0.015471578          238 
 1530000   0.64814935   -7.6574271    298.03037  0.016232591  0.015457776          619 
 1531000   0.62285941   -7.6635205    299.16004  0.016283477  0.015443981          498 
 1532000   0.63582191   -7.6844454    298.04901  0.016212414  0.015430183          312 
 1533000   0.65149698   -7.6718918    297.43937  0.016168698  0.015416394          362 
 1534000   0.63707256   -7.6540714    298.61086  0.016221798   0.01540262          450 
 1535000   0.63821351   -7.6578903    298.21195  0.016189574  0.015388885          302 
 1536000   0.62672336   -7.6829722    297.54707  0.016142962  0.015375144          582 
 1537000   0.64926114   -7.6732334    298.08474   0.01616161  0.015361397          579 
 1538000   0.63483695   -7.6667453    298.73207  0.016186176  0.015347699          577 
 1539000   0.64304602   -7.6758939    298.32913  0.016153841  0.015333966          509 
 1540000   0.64337344   -7.6798559    298.20352  0.016136554  0.015320249          519 
 1541000   0.63459758   -7.6988011    297.62005   0.01609453   0.01530653          547 
 1542000   0.64029746   -7.6487828    297.82049  0.016094925  0.015292821          435 
 1543000   0.63370504   -7.6943171    298.18736  0.016104308  0.015279139          496 
 1544000   0.64191155    -7.671592    298.39857  0.016105277  0.015265491          517 
 1545000   0.62888822   -7.6742372    298.05138  0.016076126  0.015251855          538 
 1546000   0.63279159   -7.6817945    297.98152  0.016061962  0.015238204          486 
 1547000    0.6380375   -7.7066166     297.4705  0.016024052  0.015224539          558 
 1548000   0.63472083   -7.6846556    298.66871  0.016078204  0.015210879          612 
 1549000   0.62932815   -7.6971349    297.70211  0.016015822  0.015197246          582 
 1550000   0.63419119   -7.6699095    298.57155  0.016052234  0.015183621          392 
 1551000   0.63568631   -7.6849079    298.32507  0.016028641  0.015170012          367 
 1552000   0.62782078   -7.6842809    298.38262  0.016021404   0.01515641          338 
 1553000   0.64264894   -7.6864883    297.29201  0.015952565  0.015142806          627 
 1554000   0.63889483   -7.6922805    297.97521  0.015978937  0.015129223          550 
 1555000   0.63292388   -7.6725059    297.95143  0.015967386  0.015115667          560 
 1556000    0.6305497   -7.7016594    298.09831  0.015964991  0.015102123          694 
 1557000   0.63276609    -7.709912    297.74208  0.015935671   0.01508859          624 
 1558000   0.63392404   -7.6895451    297.69852  0.015923113  0.015075095          604 
 1559000    0.6400452   -7.6887253    298.21784  0.015940658  0.015061602          663 
 1560000   0.63821598   -7.6742004    298.24982  0.015932149  0.015048131          672 
 1561000   0.63208765   -7.6999453    297.63223  0.015888972  0.015034646          641 
 1562000   0.63767121   -7.7164032    297.54797  0.015874305  0.015021153          600 
 1563000   0.63005425     -7.69522    298.72242  0.015926766  0.015007718          612 
 1564000   0.61700834   -7.6731411    298.50971  0.015905249   0.01499429          621 
 1565000   0.64351638   -7.7102868    297.80044  0.015857319  0.014980887          583 
 1566000   0.62118867   -7.6921682    297.83135  0.015848837  0.014967484          621 
 1567000    0.6234962   -7.7113669    298.26224  0.015861638  0.014954098          675 
 1568000   0.62254043   -7.6907535    297.93505  0.015834133   0.01494073          621 
 1569000   0.62019716   -7.7059109    297.24304  0.015787287  0.014927365          686 
 1570000    0.6044787   -7.7053963    297.78791  0.015806153  0.014914023          354 
 1571000   0.60978307   -7.7087157    297.47174   0.01577932  0.014900669          652 
 1572000   0.62216917   -7.7253721    297.19585  0.015754657  0.014887299          690 
 1573000   0.61683015   -7.6708467    298.24637  0.015800295   0.01487398          574 
 1574000   0.62867006   -7.6798788    297.96176  0.015775188  0.014860683          634 
 1575000   0.62214883   -7.6953249    298.03129  0.015768851  0.014847373          580 
 1576000   0.62569828   -7.7310062    297.46469  0.015728886  0.014834084          639 
 1577000    0.6163407   -7.7173721    298.25948  0.015760911  0.014820772          374 
 1578000   0.62917362   -7.6788358    297.86718  0.015730206    0.0148075          594 
 1579000   0.61567236   -7.7139082     297.8393  0.015718773  0.014794241          546 
 1580000   0.62632362   -7.7227901    297.72613  0.015702855  0.014780991          589 
 1581000    0.6244977   -7.7203551    297.47827  0.015679858  0.014767739          583 
 1582000    0.6229089    -7.704693    297.92845  0.015693661  0.014754517          605 
 1583000   0.62584637   -7.7234099    297.85591  0.015679928  0.014741319          635 
 1584000   0.60643348   -7.7116379    297.75073  0.015664496  0.014728133          560 
 1585000   0.62458054   -7.6925656    297.95085  0.015665134  0.014714958          602 
 1586000   0.62990218    -7.701378    298.12112  0.015664203  0.014701801          572 
 1587000   0.62811625   -7.6997831    297.88786  0.015642085  0.014688639          600 
 1588000   0.61950475   -7.7375702    297.63834   0.01561914  0.014675492          606 
 1589000   0.62493992   -7.6962837    296.93465  0.015572407  0.014662351          615 
 1590000   0.62590613   -7.7260876    297.98286   0.01561755  0.014649209          586 
 1591000   0.61742015   -7.7250271    297.17797  0.015565576  0.014636076          683 
 1592000   0.61391743   -7.7166246    298.16155  0.015607284  0.014622984          682 
 1593000   0.62412041   -7.7317551    297.56943  0.015566511  0.014609916          691 
 1594000   0.61610866    -7.740126    297.29566  0.015542433  0.014596868          717 
 1595000   0.60859788   -7.7353056     297.2598  0.015530815  0.014583811          641 
 1596000   0.61752103   -7.7314272    297.64963  0.015541439  0.014570762          628 
 1597000   0.61561909   -7.7151767     296.9007  0.015492627  0.014557709          624 
 1598000   0.61216613   -7.7239778    297.46894  0.015512565  0.014544665          721 
 1599000   0.61081078    -7.738428    297.33598  0.015495934  0.014531607          662 
 1600000   0.60830467    -7.739913    297.38273  0.015488684  0.014518594          689 
 1601000   0.59900824   -7.7201766    297.59919  0.015490276  0.014505585          736 
 1602000   0.62261453   -7.7395331    297.63833  0.015482643  0.014492574          698 
 1603000   0.61524402   -7.7298658    297.16635  0.015448448  0.014479594          626 
 1604000   0.62403285   -7.7559011    297.67932  0.015465468  0.014466617          685 
 1605000    0.6167382   -7.7308013    297.79706  0.015461945  0.014453635          679 
 1606000   0.59510213   -7.7438973    297.22211  0.015422484  0.014440675          701 
 1607000   0.62028142   -7.7292764    296.78947  0.015390452  0.014427734          645 
 1608000   0.61695375   -7.7568893    297.56021  0.015420823  0.014414812          681 
 1609000   0.61005804     -7.72217    297.33652  0.015399654  0.014401914          611 
 1610000   0.61661574   -7.7390372    297.17511  0.015381735  0.014389012          654 
 1611000   0.61240007   -7.7329372    297.57942  0.015393101  0.014376124          611 
 1612000   0.61870997   -7.7530983    297.16704  0.015362233  0.014363244          636 
 1613000   0.60027346   -7.7296771    297.30461  0.015359817   0.01435039          648 
 1614000    0.6063365   -7.7420923    297.59901    0.0153655   0.01433755          732 
 1615000   0.59581546   -7.7381398    296.85632  0.015317664  0.014324706          674 
 1616000   0.60164058   -7.7441155    297.05661  0.015318513  0.014311873          678 
 1617000   0.59329276   -7.7549045    296.28292  0.015269167  0.014299038          717 
 1618000   0.61872615   -7.7521839    297.62916  0.015329067   0.01428623          633 
 1619000   0.59872413   -7.7404806    297.14527  0.015294692   0.01427343          367 
 1620000   0.61141021   -7.7423404    296.84371  0.015269738  0.014260632          727 
 1621000   0.61406474    -7.771377    296.35345  0.015235114  0.014247828          788 
 1622000   0.60674212   -7.7741444    297.39058  0.015279007  0.014235056          706 
 1623000    0.5929502   -7.7757723    297.32817  0.015266388  0.014222298          670 
 1624000   0.61160312   -7.7441925    297.00805  0.015240561  0.014209538          632 
 1625000   0.61264944    -7.758009     297.0884  0.015235303  0.014196803          730 
 1626000   0.62196815   -7.7549754    296.64125  0.015203016  0.014184092          653 
 1627000   0.59316981   -7.7408329    297.16667  0.015220584  0.014171383          551 
 1628000    0.6037939   -7.7664595    297.03455  0.015204471   0.01415869          602 
 1629000   0.61275258   -7.7683416    296.85329  0.015185865   0.01414601          659 
 1630000   0.61704498   -7.7596695    297.02581  0.015185369  0.014133349          628 
 1631000   0.61582293   -7.7464989    297.34327  0.015192278  0.014120683          603 
 1632000   0.58517404   -7.7613707    296.66594  0.015148383  0.014108045          690 
 1633000   0.59338029   -7.7604958    297.15803  0.015164219  0.014095409          654 
 1634000    0.5979673   -7.7608771    296.58429  0.015125678  0.014082794          755 
 1635000    0.6028766   -7.7605427    297.16754  0.015146154  0.014070183          708 
 1636000   0.60072635   -7.7542922    297.50519  0.015154095  0.014057602          657 
 1637000   0.59332723   -7.7612974    296.83559  0.015110751  0.014045011          690 
 1638000   0.59398997   -7.7466278    296.56519  0.015087769  0.014032435          664 
 1639000     0.589784   -7.7630758    296.94712  0.015097982  0.014019894          678 
 1640000   0.60382328   -7.7572165    296.52519  0.015067337  0.014007343          646 
 1641000   0.59219043   -7.7498334    296.45407  0.015054544  0.013994812          703 
 1642000    0.5943744   -7.7452303    296.81887  0.015063889  0.013982296          715 
 1643000   0.58999129   -7.7724103    296.42039  0.015034509  0.013969801          759 
 1644000   0.59571453   -7.7925424    296.17237  0.015012792  0.013957278          716 
 1645000    0.5925685   -7.7842489     296.3177  0.015011028  0.013944768          703 
 1646000   0.60077392   -7.7669881    296.85551  0.015029137  0.013932276          730 
 1647000   0.59261023   -7.7750404    296.89761  0.015022142  0.013919801          702 
 1648000     0.596238   -7.7770919    296.51807  0.014993835  0.013907318          653 
 1649000   0.57593565   -7.7718216    296.97471  0.015007818  0.013894866          665 
 1650000   0.58691984   -7.7679066    296.52606  0.014976064  0.013882415          714 
 1651000   0.60280321   -7.7910773     296.1765  0.014949349  0.013869979          746 
 1652000   0.59187046    -7.764343    297.04734  0.014984228  0.013857568          750 
 1653000   0.61135628    -7.783422    296.23656  0.014934289  0.013845158          711 
 1654000   0.59314537   -7.7808316     295.8798  0.014907285  0.013832745          700 
 1655000   0.59543624   -7.7769648    296.46561  0.014927775  0.013820344          806 
 1656000   0.60209902    -7.785609    296.60731  0.014925891  0.013807969          740 
 1657000   0.59510058   -7.7856753    297.50806  0.014962184  0.013795618          480 
 1658000   0.59459377   -7.7832998    296.89819  0.014922507  0.013783253          726 
 1659000   0.58000888   -7.7994571    296.43432  0.014890211  0.013770894          748 
 1660000   0.60161112   -7.8014236    295.83726  0.014851268  0.013758533          694 
 1661000   0.59135758   -7.8078122    296.03542  0.014852269  0.013746205          723 
 1662000   0.59523791   -7.7975564    296.13801  0.014848476  0.013733897          714 
 1663000   0.59539478   -7.8025737    295.67941  0.014816567  0.013721599          752 
 1664000   0.58430069   -7.7946138    296.71279  0.014859414  0.013709314          751 
 1665000   0.57446216   -7.7962484    297.09761   0.01486975  0.013697036          752 
 1666000   0.59303858   -7.7935339    296.08041  0.014809945  0.013684781          738 
 1667000   0.59499662   -7.7903359    296.44748   0.01481941  0.013672533          838 
 1668000   0.58986504   -7.7981665    296.23401   0.01479986  0.013660278          767 
 1669000   0.59582758   -7.8096362    296.04651  0.014781631  0.013648024          804 
 1670000   0.59171258   -7.8187415    296.61676  0.014801236  0.013635809          730 
 1671000   0.58147007   -7.7912008    295.40613  0.014732003  0.013623611          739 
 1672000   0.59098346   -7.7932531    296.05641  0.014755603  0.013611413          737 
 1673000   0.58266158   -7.8005334    296.25097  0.014756474  0.013599271          752 
 1674000   0.59617408   -7.7989553      296.377  0.014753933  0.013587118          817 
 1675000    0.5981998   -7.8045874    296.24736  0.014738675  0.013574964          666 
 1676000   0.58758936   -7.7929482    296.48232  0.014741563    0.0135628          823 
 1677000   0.58795646   -7.8307916    295.75049  0.014696407  0.013550673          763 
 1678000   0.57718329   -7.8070331    295.93899   0.01469701  0.013538534          759 
 1679000   0.58552035   -7.8024318    296.13399  0.014697935  0.013526406          737 
 1680000   0.58719245   -7.8188405    295.85813  0.014675502  0.013514304          705 
 1681000   0.58411952   -7.8053002    295.49295  0.014648669  0.013502198          793 
 1682000    0.5832052   -7.8022653    295.38927  0.014634823  0.013490115          803 
 1683000   0.57850725   -7.8140839    295.75381  0.014644178  0.013478033          798 
 1684000   0.58608618   -7.7865664    296.49163  0.014671993  0.013465983          694 
 1685000   0.56514994   -7.8080092     295.9082  0.014634431  0.013453943          751 
 1686000   0.58055792   -7.8090181    295.94394  0.014627518  0.013441907          709 
 1687000   0.59403871    -7.799429    296.01406  0.014622311   0.01342988          735 
 1688000   0.58229415   -7.8120799     296.1416  0.014619945  0.013417877          670 
 1689000   0.55847224   -7.8210491    296.00507  0.014604553  0.013405875          715 
 1690000   0.57395554    -7.811078    296.31747  0.014611315  0.013393883          705 
 1691000   0.57154292   -7.8127309    296.00584  0.014587317  0.013381899          754 
 1692000   0.57944691   -7.8368164    295.86101  0.014571563  0.013369926          695 
 1693000   0.56937143    -7.801658    295.74756  0.014557372  0.013358004          688 
 1694000   0.56447968   -7.8326615    296.44123  0.014582902  0.013346082          804 
 1695000   0.56627115    -7.813645    296.19196  0.014562043  0.013334221          784 
 1696000   0.56050554   -7.8115906    295.82833   0.01453559  0.013322335          820 
 1697000   0.57264645   -7.8350478    296.09776  0.014540255  0.013310466          826 
 1698000   0.58782564   -7.8349654    295.46581  0.014500678   0.01329859          793 
 1699000   0.56994149   -7.8177444    296.23788  0.014530012  0.013286749          774 
 1700000   0.56533565   -7.8295945    296.03131  0.014511338  0.013274923          763 
 1701000   0.57949651    -7.826096    295.70668  0.014486904  0.013263103          672 
 1702000   0.56734879    -7.827519    296.14818  0.014500009  0.013251295          774 
 1703000   0.58270832   -7.8256912    296.19621  0.014493845  0.013239481          751 
 1704000   0.56899487   -7.8357722    295.41151  0.014446964  0.013227671          746 
 1705000   0.58034782   -7.8117405    295.78667  0.014456827  0.013215881          786 
 1706000    0.5663339   -7.8429579    295.73548  0.014445852  0.013204089          760 
 1707000   0.56727995   -7.8194486    295.16169  0.014409377  0.013192319          813 
 1708000   0.57999749   -7.8272608    295.91067  0.014437484  0.013180559          725 
 1709000   0.57217885    -7.823114      295.543  0.014411108  0.013168821          767 
 1710000   0.57157002    -7.836644    295.46832  0.014399041   0.01315707          832 
 1711000   0.57088091   -7.8219813    295.79579  0.014406574  0.013145368          884 
 1712000    0.5771035   -7.8106921    296.13153  0.014414502  0.013133667          870 
 1713000   0.56792789   -7.8397612    295.84066  0.014391937  0.013121961          795 
 1714000   0.56660629   -7.8292232     295.7167  0.014377514  0.013110269          742 
 1715000   0.58435773   -7.8408809    295.78306  0.014372355  0.013098603          844 
 1716000   0.56149242   -7.8187238    296.03267  0.014376101  0.013086933          751 
 1717000   0.56453327   -7.8422497    295.14199    0.0143245  0.013075263          842 
 1718000   0.56583719   -7.8559025    295.70013  0.014343235  0.013063623          769 
 1719000   0.56589528   -7.8465899    295.48881  0.014324647  0.013052002          844 
 1720000   0.58242066   -7.8445666    295.10198  0.014297576  0.013040371          872 
 1721000   0.57005212   -7.8562703    295.63673  0.014315162  0.013028757          806 
 1722000   0.55712382   -7.8453551     296.0495  0.014326824  0.013017161          909 
 1723000   0.57654313   -7.8393862    295.62513  0.014297985  0.013005586          902 
 1724000   0.57083724   -7.8261774    295.81303  0.014298774  0.012994026          757 
 1725000   0.57546443   -7.8465702    296.03197  0.014301061  0.012982468          794 
 1726000   0.56961286   -7.8333596    295.45185  0.014264767  0.012970929          901 
 1727000   0.56761738   -7.8485967    295.71305  0.014269111  0.012959415          825 
 1728000   0.56424093   -7.8625869    295.63181  0.014256935  0.012947914          846 
 1729000   0.55679389   -7.8394358    295.41728   0.01423835  0.012936416          718 
 1730000   0.57781596   -7.8428412    295.04507   0.01421219   0.01292492          871 
 1731000   0.56388986   -7.8621518    295.36803  0.014219528  0.012913424          831 
 1732000   0.55825973    -7.852158    295.16216  0.014201412  0.012901939          800 
 1733000   0.56327417   -7.8476848    295.61824  0.014215149  0.012890478          766 
 1734000   0.55493701   -7.8649072    295.50817  0.014201662  0.012879008          837 
 1735000   0.56852318    -7.837449    295.46556  0.014191429  0.012867547          894 
 1736000   0.55785898   -7.8538262    295.82949  0.014200725  0.012856119          774 
 1737000   0.56708351   -7.8509829    295.27696  0.014166041  0.012844706          799 
 1738000   0.55154691   -7.8440226    295.65742  0.014176133  0.012833296          835 
 1739000   0.55101564    -7.853601    295.32066  0.014151843   0.01282191          808 
 1740000   0.56507361   -7.8702273    295.05189  0.014130838  0.012810523          860 
 1741000   0.55301601   -7.8572633    295.20745  0.014130167  0.012799157          912 
 1742000   0.55926845   -7.8665528      294.914  0.014108018  0.012787794          926 
 1743000   0.55602772   -7.8636272    295.11291  0.014109433  0.012776433          852 
 1744000   0.56930225   -7.8455488    295.00994  0.014096423   0.01276509          737 
 1745000   0.56106682   -7.8616199    295.65915  0.014119348   0.01275375          838 
 1746000   0.55273051   -7.8690203    295.19061  0.014088899  0.012742432          800 
 1747000   0.55660725   -7.8523795    295.20207  0.014081381  0.012731124          885 
 1748000   0.55451875   -7.8627834    295.07781  0.014067402  0.012719828          877 
 1749000   0.55195618   -7.8704347    295.03941  0.014057529  0.012708553          757 
 1750000   0.53965293   -7.8716264    294.87777  0.014041799  0.012697286          736 
 1751000   0.54748123   -7.8617824    295.35743  0.014056607  0.012686006          852 
 1752000   0.56707429   -7.8779501    294.51094  0.014008321  0.012674739          764 
 1753000   0.54863492   -7.8784722    295.52451  0.014048513  0.012663487          884 
 1754000   0.55804693   -7.8840288     295.1606  0.014023213  0.012652242          836 
 1755000   0.56038873    -7.887109    294.53245  0.013985397  0.012641015          839 
 1756000   0.56504943   -7.8639135    295.32392  0.014014992  0.012629801          820 
 1757000   0.56672857   -7.8713872     294.6902  0.013976959  0.012618601          863 
 1758000   0.54284377   -7.8617964    294.60267  0.013964859  0.012607397          858 
 1759000   0.56228953   -7.8671635    295.05651  0.013978421  0.012596215          800 
 1760000   0.55789971    -7.871867    295.18469  0.013976548  0.012585037          823 
 1761000   0.55464333   -7.8640505    295.01957  0.013960798  0.012573872          974 
 1762000   0.53897026   -7.8554346     295.5533  0.013978117  0.012562718          801 
 1763000   0.55856732   -7.8652402    295.08749   0.01394817  0.012551589          828 
 1764000   0.55636212   -7.8695947    295.22315  0.013946672  0.012540471          828 
 1765000   0.55003125   -7.8795472    294.71497  0.013914776  0.012529362          820 
 1766000   0.55340111   -7.8692097    294.77986   0.01390996  0.012518264          833 
 1767000   0.54740401   -7.8777927    295.51746  0.013936873  0.012507185          781 
 1768000    0.5381209   -7.8720847    295.04098  0.013906532  0.012496116          787 
 1769000   0.54216642    -7.875095    294.55366  0.013875714  0.012485058          796 
 1770000   0.53630072   -7.8762358     295.1536   0.01389612  0.012474007          791 
 1771000   0.54990719    -7.869472    294.77723  0.013870564   0.01246296          838 
 1772000   0.55185163   -7.8893195     294.8002  0.013863817  0.012451933          886 
 1773000   0.54343785   -7.8830304    294.45104  0.013839586  0.012440907          755 
 1774000   0.54685355   -7.8754531    294.68766    0.0138429  0.012429893          837 
 1775000   0.54555511   -7.8971785    294.27695  0.013815819  0.012418912          828 
 1776000   0.54406215   -7.8960453    295.15059  0.013849033  0.012407931          939 
 1777000   0.54321491   -7.8778213    294.93409  0.013831086  0.012396977          801 
 1778000   0.53856107   -7.8722978    295.01447  0.013827075  0.012386013          887 
 1779000    0.5297958   -7.8670755    294.80412  0.013809449  0.012375059          802 
 1780000    0.5382247   -7.8772917    294.96941  0.013809429  0.012364115          872 
 1781000   0.54314449   -7.8903221    294.61454  0.013785071  0.012353183          922 
 1782000   0.54646404   -7.9131226    294.37786  0.013766267  0.012342259          863 
 1783000   0.54635449   -7.8748476    295.02175   0.01378864   0.01233136          919 
 1784000   0.55312927   -7.8819935    294.42198  0.013752895  0.012320476          733 
 1785000   0.55246118   -7.8944137    294.71529  0.013758884  0.012309593          725 
 1786000   0.53995195   -7.8811831    294.56528   0.01374418  0.012298721          803 
 1787000    0.5461053   -7.8828289    294.33049   0.01372554  0.012287871          818 
 1788000   0.54191693   -7.8938493    294.27055   0.01371507  0.012277031          859 
 1789000   0.54105902   -7.9006427     294.9771  0.013740316   0.01226621          771 
 1790000   0.54891641   -7.8961266    294.21534  0.013697176  0.012255402          787 
 1791000   0.54297776   -7.8826741    294.73043  0.013713495  0.012244595          794 
 1792000   0.53922531    -7.884341    294.29546  0.013685615  0.012233795          840 
 1793000   0.54234694   -7.9020058    294.84211  0.013703389  0.012223013          797 
 1794000   0.54625936   -7.8724114    294.16149  0.013664135  0.012212241          848 
 1795000   0.53598867   -7.8898218    294.77738  0.013685115   0.01220148          835 
 1796000   0.53358656   -7.8859756    294.50868  0.013665028   0.01219073          761 
 1797000   0.54566392   -7.8774117    294.68596  0.013665645  0.012179999          868 
 1798000   0.53424755   -7.8850409    294.74034  0.013660564  0.012169288          812 
 1799000   0.53755303   -7.8994947     294.5439  0.013643872  0.012158583          883 
 1800000   0.53559321   -7.8724363    294.72908  0.013644865  0.012147897          801 
 1801000    0.5322294   -7.9043896    294.70427  0.013636141  0.012137225          706 
 1802000   0.53695813   -7.8920391    294.51573  0.013619854   0.01212655          842 
 1803000   0.53483641   -7.8962615    293.99553  0.013588257  0.012115901          786 
 1804000   0.53904234   -7.9002946    294.50857  0.013604424  0.012105257          809 
 1805000   0.53601099   -7.8886652    294.76037  0.013608512  0.012094616          717 
 1806000   0.53451393   -7.9083564    294.10238  0.013570615  0.012083987          797 
 1807000   0.51922119   -7.9043448    294.87703   0.01359883  0.012073363          893 
 1808000   0.52647141   -7.9248422    294.09221  0.013555135  0.012062752          848 
 1809000   0.54556062    -7.909131    294.54771  0.013568625  0.012052159          824 
 1810000   0.52904873   -7.9065941    294.37982  0.013553399  0.012041585          865 
 1811000   0.52713286   -7.9084487    294.66669  0.013559115  0.012031028          875 
 1812000    0.5268637    -7.904284    294.16891  0.013528739  0.012020487          830 
 1813000   0.53482148   -7.9102303    294.08324   0.01351734  0.012009942          804 
 1814000   0.53372155   -7.8999444    294.40739  0.013524779   0.01199939          803 
 1815000   0.53763395   -7.9078234    294.52133  0.013522559  0.011988863          829 
 1816000   0.52361884   -7.9252429    294.25023  0.013502672  0.011978332          813 
 1817000   0.53630853    -7.930513    294.28291  0.013496739  0.011967827          864 
 1818000   0.53321903   -7.9267263    294.65618  0.013506426  0.011957334          810 
 1819000   0.52315581   -7.8926615    294.49597  0.013491661  0.011946838          859 
 1820000   0.52817628   -7.9361334    293.69014  0.013447351  0.011936369          952 
 1821000   0.52391346   -7.9225477    294.14882  0.013460956  0.011925907          852 
 1822000   0.53138108   -7.8957064    294.80415  0.013483542   0.01191547          817 
 1823000   0.53087562   -7.9072928     294.8146  0.013476623  0.011905037          802 
 1824000   0.53044439   -7.9105862    294.05729  0.013434635  0.011894609          845 
 1825000   0.52084239   -7.9335104    294.24882  0.013436019  0.011884192          779 
 1826000   0.52910664    -7.923834    294.65564  0.013447227  0.011873791          883 
 1827000   0.53392891   -7.9372357    293.96634  0.013408426  0.011863393          897 
 1828000   0.52933315   -7.9155798     294.9065  0.013443951  0.011853017          888 
 1829000   0.53300735   -7.9257184    294.34318  0.013410934  0.011842638          831 
 1830000   0.51636887   -7.9038584    295.02985  0.013434875  0.011832279          883 
 1831000   0.53411658   -7.9163121    294.61585  0.013408695  0.011821942          947 
 1832000   0.52467442   -7.9229954    294.30397  0.013387189    0.0118116          882 
 1833000   0.52139005    -7.921667    294.39169  0.013383874  0.011801274          901 
 1834000   0.52478446   -7.9176729    294.31855  0.013373253  0.011790943          844 
 1835000   0.52269716   -7.9298715    294.00479  0.013351716  0.011780641          915 
 1836000   0.53380351   -7.9080518     294.7129  0.013376584  0.011770343          954 
 1837000   0.51119492   -7.9446769    293.70808   0.01332372  0.011760054          967 
 1838000   0.51298214   -7.9337653    294.27918  0.013342364  0.011749768          828 
 1839000   0.52428432    -7.923559    294.86507  0.013361658    0.0117395          974 
 1840000   0.52123906   -7.9225013    294.54758  0.013340017  0.011729241          974 
 1841000   0.49862129   -7.9261947    294.19713  0.013316908  0.011718987          880 
 1842000   0.51869563   -7.9477045    293.49788  0.013278044  0.011708747          945 
 1843000   0.51721335    -7.928924    293.55606   0.01327347  0.011698523          976 
 1844000   0.51230367   -7.9212598     294.1266  0.013292055   0.01168831          943 
 1845000   0.51190915    -7.921131    294.63896  0.013307993  0.011678101          954 
 1846000   0.51446374   -7.9366008    294.27086  0.013284167  0.011667921          916 
 1847000   0.52464374   -7.9311701    293.68345  0.013250471  0.011657741          927 
 1848000   0.51884963   -7.9289018    294.59024  0.013284192  0.011647566          993 
 1849000   0.50686362   -7.9164138    294.10999  0.013255363  0.011637414          903 
 1850000   0.50820022   -7.9238559    294.06785    0.0132463  0.011627278          899 
 1851000   0.51531088   -7.9241809    293.68863  0.013222071  0.011617143          926 
 1852000   0.50888367   -7.9518145    294.01231  0.013229496  0.011607021          935 
 1853000    0.5016328   -7.9254045    293.58985  0.013203357  0.011596906          993 
 1854000   0.50915333   -7.9407364     294.0053  0.013214909  0.011586787          959 
 1855000   0.50703465   -7.9376908    293.93975  0.013204841  0.011576687          999 
 1856000   0.52036013   -7.9395545    293.55336  0.013180377  0.011566598          911 
 1857000   0.50702383   -7.9301322    293.66587  0.013178328  0.011556507         1058 
 1858000   0.50893725   -7.9512883    293.88846  0.013181219   0.01154644          916 
 1859000   0.51170259    -7.929671    293.69935  0.013165651   0.01153638          931 
 1860000   0.50575193   -7.9405119    293.96303  0.013170387  0.011526334          904 
 1861000   0.50527611   -7.9625003    293.87896  0.013159545  0.011516294          934 
 1862000   0.51091635   -7.9352678    294.20869  0.013167235  0.011506264          955 
 1863000   0.50374414   -7.9598245    293.93871   0.01314809   0.01149626          920 
 1864000   0.50378249   -7.9413825    294.10303  0.013148383   0.01148627          929 
 1865000   0.50523846    -7.945406    293.83188  0.013129217  0.011476275          879 
 1866000   0.50712901   -7.9572165    293.89691  0.013125085  0.011466294          939 
 1867000   0.50508355   -7.9370066    293.47734  0.013099328  0.011456324          856 
 1868000   0.50459896   -7.9357428    294.02442  0.013116721  0.011446357          926 
 1869000   0.51227533   -7.9374979    293.56115  0.013089047  0.011436413         1030 
 1870000   0.52457011   -7.9408952    293.71604   0.01308895  0.011426464          931 
 1871000   0.50380436   -7.9516464    293.51237  0.013072883  0.011416539          887 
 1872000   0.51615746    -7.940095    293.70742  0.013074582  0.011406626          948 
 1873000   0.50705011   -7.9267975    293.53059  0.013059734  0.011396743          952 
 1874000   0.51476422   -7.9315609    293.83289  0.013066208  0.011386857          981 
 1875000   0.51401879   -7.9472512    293.87865  0.013061273  0.011376976          928 
 1876000   0.51059766   -7.9547556    293.64434  0.013043903  0.011367092          939 
 1877000   0.49910821    -7.958296    293.49606   0.01303037  0.011357225          951 
 1878000   0.50169414   -7.9532715     293.4611  0.013021881   0.01134736         1082 
 1879000   0.50591098   -7.9565679    293.27376  0.013006642  0.011337505          959 
 1880000   0.51395812   -7.9366716    292.92759  0.012984379  0.011327665          964 
 1881000   0.49713235   -7.9483435    293.96475  0.013023425  0.011317838         1012 
 1882000   0.50488271    -7.966366    292.80452  0.012965131  0.011308022         1022 
 1883000   0.50031725   -7.9615812    293.67119  0.012996601  0.011298208          955 
 1884000   0.49337802   -7.9484856     293.5047  0.012982338  0.011288425          989 
 1885000   0.49590862   -7.9632615    293.94844  0.012995068  0.011278648         1003 
 1886000   0.50558236   -7.9713436    293.48305  0.012967614  0.011268886          936 
 1887000   0.49402204   -7.9675155    293.31966  0.012953527  0.011259119         1050 
 1888000   0.50006337   -7.9342069    293.92107  0.012973211  0.011249369         1032 
 1889000   0.49930264   -7.9521919    293.37792  0.012942382   0.01123964          947 
 1890000   0.50012606   -7.9592834    293.73876  0.012951444   0.01122991         1019 
 1891000   0.50289331   -7.9550539    293.25641  0.012923339  0.011220191          974 
 1892000    0.4963502   -7.9552718    293.90268  0.012944974  0.011210492          989 
 1893000   0.49818759   -7.9515535    293.46159  0.012918718  0.011200803         1034 
 1894000   0.48615913    -7.954716    293.46657  0.012912116  0.011191119          930 
 1895000   0.50504962   -7.9608147    293.66807  0.012914163  0.011181448          970 
 1896000   0.49233941   -7.9657908    293.45101  0.012897811  0.011171777          895 
 1897000   0.49468353   -7.9763217     293.7444  0.012903901  0.011162136          984 
 1898000   0.48195878   -7.9602483    293.73209  0.012896562  0.011152501          881 
 1899000   0.49703643   -7.9668387    293.11819  0.012862831  0.011142873         1079 
 1900000   0.50463404   -7.9785802    293.11092  0.012855742  0.011133249          997 
 1901000    0.5016254   -7.9804002    293.07374   0.01284735  0.011123637          962 
 1902000   0.50063701   -7.9851236    292.99766  0.012837262  0.011114026          995 
 1903000   0.48952181   -7.9530564    293.56495  0.012855358  0.011104434         1036 
 1904000   0.49412451   -7.9799119    293.21454   0.01283327  0.011094853         1036 
 1905000   0.48694771   -7.9636252    294.07437  0.012864146  0.011085279         1024 
 1906000   0.49681599    -7.979248    293.09766  0.012814693  0.011075726         1092 
 1907000   0.50511872   -7.9767266    293.48247  0.012824789  0.011066169         1034 
 1908000   0.49419485   -7.9629076    293.79748  0.012831826  0.011056625         1042 
 1909000   0.49985479   -7.9767255    293.18758   0.01279848   0.01104709         1048 
 1910000   0.48327891   -7.9641988    293.38119  0.012800227  0.011037573         1012 
 1911000   0.48790512   -7.9701499    293.41121  0.012794837  0.011028064         1055 
 1912000   0.48645774   -7.9714357    293.73633  0.012802316   0.01101857         1016 
 1913000   0.49771354   -7.9739388    293.06283  0.012766285  0.011009079         1038 
 1914000   0.49064701   -7.9800026    293.73336  0.012788809  0.010999615         1012 
 1915000    0.4901424   -7.9687507    293.38553  0.012766994  0.010990161         1020 
 1916000   0.48161758   -7.9753686    293.40742  0.012761283  0.010980708          978 
 1917000   0.48661719   -7.9783397    293.23211  0.012747005  0.010971268          983 
 1918000   0.49389593   -7.9701821    293.01913  0.012731106  0.010961827         1069 
 1919000   0.48526194   -7.9707305    293.21325  0.012732901  0.010952406         1087 
 1920000   0.48613864   -7.9828451    292.87556  0.012711613  0.010942997         1081 
 1921000     0.478027   -7.9820123     293.3117  0.012723915  0.010933591         1151 
 1922000   0.48226465   -7.9804768     293.4585   0.01272366  0.010924203         1039 
 1923000   0.47287207   -7.9786129    293.36901  0.012713166  0.010914828          974 
 1924000   0.48007191   -7.9825322    293.23773  0.012700872  0.010905463         1065 
 1925000   0.48148272   -7.9850565    292.63894  0.012668352  0.010896107         1070 
 1926000   0.47561987   -7.9575407    292.80529  0.012668972  0.010886756         1046 
 1927000   0.47921223   -7.9836315    293.42483   0.01268919  0.010877414          991 
 1928000   0.48149604   -7.9683949    293.34462  0.012679142  0.010868083         1059 
 1929000   0.49514241   -7.9974673    293.46453  0.012677749  0.010858759         1036 
 1930000    0.4822399   -7.9814597    293.04828  0.012653207   0.01084945          984 
 1931000    0.4846061   -7.9929199    293.21651  0.012653914   0.01084014         1114 
 1932000   0.48888995   -8.0072802    292.95051  0.012635892  0.010830847         1074 
 1933000   0.47370087   -7.9909034    293.12155  0.012636728  0.010821557         1068 
 1934000   0.48392769   -7.9963771    292.80032  0.012616353  0.010812275         1056 
 1935000   0.47198089   -7.9848033    293.22984  0.012628331  0.010803018         1050 
 1936000    0.4723316    -7.993231    293.25106  0.012622721  0.010793759         1004 
 1937000   0.47449482   -8.0043864    293.27916  0.012617413  0.010784514         1015 
 1938000    0.4812018     -7.99279    293.40798  0.012616442  0.010775287         1047 
 1939000   0.46927645    -7.994683     293.4387  0.012611256  0.010766066         1046 
 1940000   0.47569122   -8.0004356     292.8502  0.012579476   0.01075686         1169 
 1941000   0.47120512   -7.9901155    293.18676  0.012587445  0.010747663         1156 
 1942000   0.47267831     -8.00194    293.17737   0.01258056  0.010738483         1016 
 1943000   0.48136346   -7.9950738    293.62226  0.012593166  0.010729297         1090 
 1944000   0.49294138   -7.9892297    292.77454  0.012550349  0.010720132         1046 
 1945000   0.47745059   -7.9977449    292.79344  0.012544706  0.010710965         1022 
 1946000   0.47689069   -7.9791519    293.14128  0.012553155   0.01070182         1064 
 1947000   0.47589348   -7.9902885    292.93123  0.012537718  0.010692678         1042 
 1948000   0.47891334   -8.0037158    293.36165  0.012549694  0.010683547         1079 
 1949000   0.47197629   -8.0142118    292.73275  0.012516365   0.01067443         1077 
 1950000   0.47683905   -7.9920205    293.20659  0.012530196  0.010665322         1082 
 1951000   0.47495683   -8.0015807    293.26551   0.01252629   0.01065622         1127 
 1952000   0.47485122   -8.0065577    293.21061   0.01251753  0.010647141         1165 
 1953000   0.47132342   -8.0061494    292.86329    0.0124963  0.010638065         1139 
 1954000   0.47195885    -8.011939     292.6403  0.012480395  0.010628996         1159 
 1955000   0.47555907   -7.9881103    292.71742  0.012477299   0.01061994         1095 
 1956000   0.47954186   -8.0111622    292.56298  0.012464339  0.010610893         1129 
 1957000   0.48294056   -8.0011238     292.6625  0.012462208  0.010601848         1086 
 1958000   0.47175444   -8.0119743    292.76516  0.012460213  0.010592814         1123 
 1959000   0.47088242   -7.9915808     293.0939  0.012467836   0.01058379         1081 
 1960000   0.47150106   -7.9945569    292.78529  0.012448354  0.010574776          995 
 1961000    0.4645968   -7.9987977    292.86259  0.012445291  0.010565774         1103 
 1962000   0.46737193   -8.0086581    292.71063  0.012432494  0.010556788         1056 
 1963000   0.46417409     -8.01432    292.69801  0.012425624  0.010547809         1048 
 1964000   0.45691459   -8.0153508    292.90687   0.01242816  0.010538827         1137 
 1965000   0.46060265   -8.0143559    292.90393   0.01242171  0.010529854         1091 
 1966000   0.45196713    -7.998393    292.46743   0.01239689  0.010520894         1046 
 1967000    0.4617821   -8.0149307    292.85939  0.012407193  0.010511948         1013 
 1968000   0.46991204   -8.0232677    293.11155  0.012411566  0.010503027         1140 
 1969000   0.47994384   -8.0166949    292.92876  0.012397527  0.010494108         1122 
 1970000   0.46628923   -8.0024867    292.49486  0.012372879  0.010485189         1082 
 1971000   0.46608467   -8.0080408    292.97972  0.012387101  0.010476287         1089 
 1972000   0.46175731   -8.0031357     292.7128   0.01236954  0.010467384         1052 
 1973000     0.465113   -8.0097626    292.97773  0.012374461  0.010458498         1067 
 1974000   0.46814832   -8.0115306    292.97599  0.012368118  0.010449614         1174 
 1975000   0.46332253   -8.0098384    293.07317  0.012365957  0.010440748         1078 
 1976000   0.45963413   -8.0119086    292.70038  0.012343977  0.010431893         1178 
 1977000   0.46839106   -8.0288594    293.14099  0.012356305  0.010423042         1129 
 1978000   0.46332923   -8.0131949    292.82121  0.012336586  0.010414213         1051 
 1979000   0.45990882   -8.0097223    292.91292  0.012334214  0.010405383         1075 
 1980000   0.46917064   -8.0232721     292.8117  0.012323725  0.010396562         1140 
 1981000   0.46373997   -8.0080253    293.02437   0.01232645  0.010387754         1147 
 1982000   0.46542733    -8.022678     292.5561  0.012300542  0.010378955         1160 
 1983000   0.46358686   -8.0293123    292.96294  0.012311436  0.010370162         1144 
 1984000   0.46601022   -8.0267731    292.62292  0.012290949  0.010361383         1093 
 1985000   0.45786627   -8.0166275    293.21318  0.012309537  0.010352604         1148 
 1986000   0.46898226   -8.0159154     292.3876  0.012268698  0.010343839         1112 
 1987000   0.45615548   -8.0351744    292.89665  0.012283872  0.010335082         1123 
 1988000   0.47063204   -8.0338846    292.58925  0.012264808  0.010326342         1180 
 1989000   0.46440097   -8.0356722    292.50215  0.012254992  0.010317609         1106 
 1990000   0.46047016   -8.0121819    292.80862  0.012261667  0.010308885         1183 
 1991000   0.46308536   -8.0243236    292.59861  0.012246719  0.010300172         1127 
 1992000   0.45464488   -8.0276459    292.81038   0.01224943  0.010291468         1052 
 1993000   0.46903813   -8.0268164    292.89673  0.012246894  0.010282768         1109 
 1994000   0.45395977   -8.0225106    292.76367  0.012235192  0.010274084         1047 
 1995000   0.46202465   -8.0361321    292.44058  0.012215563    0.0102654         1169 
 1996000   0.44107738   -8.0218992    292.69649  0.012220127  0.010256727         1179 
 1997000   0.46682426   -8.0148591     292.8498  0.012220405  0.010248072         1103 
 1998000   0.45314523   -8.0401302    292.72187  0.012208954  0.010239425         1136 
 1999000   0.46652379   -8.0186759    292.59648  0.012197619  0.010230784         1173 
 2000000   0.45685064   -8.0228485    292.65311  0.012193879  0.010222154         1129 
 2001000   0.45767502   -8.0329079    292.64727  0.012187542   0.01021352         1169 
 2002000   0.45456749   -8.0275203    292.74631  0.012185577  0.010204902         1119 
 2003000   0.44546625   -8.0471606    292.25765  0.012159163  0.010196295         1149 
 2004000   0.45747059     -8.02492    292.55391  0.012165415  0.010187698         1081 
 2005000   0.45157908   -8.0133525    292.30876  0.012149159  0.010179116         1071 
 2006000   0.45666225   -8.0141524    292.47331  0.012149938  0.010170543         1057 
 2007000   0.44293889    -8.029812    292.43003  0.012142087  0.010161975         1044 
 2008000   0.45199753   -8.0270946    292.24286  0.012128273  0.010153412         1086 
 2009000   0.45058325   -8.0336683    292.41382  0.012129327  0.010144859         1144 
 2010000   0.45173552    -8.043312    292.12616  0.012111366  0.010136315         1129 
 2011000     0.445915   -8.0316082     292.4769  0.012119878  0.010127779         1151 
 2012000   0.45356728   -8.0397966    292.51067  0.012115253  0.010119254         1110 
Loop time of 5270.35 on 48 procs for 2000000 steps with 4000 atoms

Performance: 65574.349 tau/day, 379.481 timesteps/s
99.4% CPU use with 48 MPI tasks x no OpenMP threads

MPI task timing breakdown:
Section |  min time  |  avg time  |  max time  |%varavg| %total
---------------------------------------------------------------
Pair    | 371.25     | 402.76     | 431.02     |  64.3 |  7.64
Neigh   | 37.268     | 38.322     | 39.787     |  10.2 |  0.73
Comm    | 324.25     | 360.49     | 393.23     |  74.5 |  6.84
Output  | 5.2274     | 5.2295     | 5.2828     |   0.3 |  0.10
Modify  | 4396.6     | 4413.2     | 4429.1     |  11.9 | 83.74
Other   |            | 50.32      |            |       |  0.95

Nlocal:        83.3333 ave          90 max          78 min
Histogram: 4 2 9 4 4 14 6 2 1 2
Nghost:        2430.38 ave        2447 max        2415 min
Histogram: 3 4 5 5 5 9 11 2 1 3
Neighs:        16878.3 ave       19040 max       14932 min
Histogram: 5 5 5 4 6 7 5 6 3 2
FullNghs:      33754.9 ave       36735 max       31611 min
Histogram: 3 5 10 3 9 10 3 3 0 2

Total # of neighbors = 1620237
Ave neighs/atom = 405.05925
Neighbor list builds = 106715
Dangerous builds = 0

#clear
#
#next RN
#
#jump SELF
Total wall time: 1:27:53
