
units lj                  # Use reduced LJ style units
atom_style atomic         # Uncharged point particles
atom_modify map hash      # Needed for indexing of clusters etc
                          # Used to be able to find where atoms are in relation to each other.

lattice fcc 1.0 spacing 1 1 1
Lattice spacing in x,y,z = 1.5874011 1.5874011 1.5874011
region box block 0 10 0 10 0 10 units lattice
create_box 2 box
Created orthogonal box = (0.0000000 0.0000000 0.0000000) to (15.874011 15.874011 15.874011)
  3 by 4 by 4 MPI processor grid
create_atoms 1 box
Created 4000 atoms
  using lattice units in orthogonal box = (0.0000000 0.0000000 0.0000000) to (15.874011 15.874011 15.874011)
  create_atoms CPU = 0.002 seconds
set type 1 type/fraction 2 0.57 78393
Setting atom values ...
  2292 settings made for type/fraction
mass 1 1.0
mass 2 1.0
pair_style lj/cut  3.5
pair_modify tail  yes
pair_coeff 1  1  1.0  1.0   # Intearaction between 1 and 1 set with epsilon = 1 and sigma = 1
pair_coeff 1  2  1.5  0.8
pair_coeff 2  2  0.5  0.88

write_data data.0
System init for write_data ...
Neighbor list info ...
  update every 1 steps, delay 10 steps, check yes
  max neighbors/atom: 2000, page size: 100000
  master list distance cutoff = 3.8
  ghost atom cutoff = 3.8
  binsize = 1.9, bins = 9 9 9
  1 neighbor lists, perpetual/occasional/extra = 1 0 0
  (1) pair lj/cut, perpetual
      attributes: half, newton on
      pair build: half/bin/atomonly/newton
      stencil: half/bin/3d
      bin: standard
WARNING: Not all mixed pair coeffs generated from mixing. Use write_data with 'pair ij' option to store all pair coeffs. (../write_data.cpp:312)


#############################
#   M E L T   S Y S T E M   #
#############################

velocity all create 2.4 3143649 mom yes dist gaussian # Assign velocities
                                                    # Temperature 2.4, random number seed, zero linear momentum
                                                                                # Gaussian distribution

timestep 0.002   # simulation timestep
thermo 1000       # output thermodynamic data every 1000 steps bf 100

# Define a fix  in this case with index 1 applied to all
# particles in the simulation. This fix is for simulations
# in the anisotropic NPT ensemble. Note that we use the MTK
# correction.
fix 1 all npt temp 2.4 2.4 0.1 iso 5.68 5.68 0.5 mtk yes tchain 5 pchain 5 # Use NPT ensemble
                                                                         # Set temperature and pressure and damping
                                                                         # Numbers of thermostats in chain and in barostat
run 10000          # run for 10000 steps
Per MPI rank memory allocation (min/avg/max) = 3.642 | 3.644 | 3.648 Mbytes
Step Temp E_pair E_mol TotEng Press Volume 
       0          2.4   -4.8904957            0   -1.2913957   -4.1230707         4000 
    1000     2.352867   -4.6173154            0   -1.0888973    5.7864688    3613.9692 
    2000    2.4281258   -4.6448324            0   -1.0035542     5.755064    3620.2619 
    3000    2.4386393   -4.6167423            0  -0.95969782    5.6012268    3634.2161 
    4000      2.40363    -4.648446            0   -1.0439024    5.8198715    3600.2134 
    5000    2.3851018   -4.6214277            0   -1.0446694    5.6234858    3619.8744 
    6000    2.4180339   -4.5993383            0  -0.97319416    5.8043743    3636.7619 
    7000    2.3701782   -4.6418318            0   -1.0874533    5.6389201    3621.1918 
    8000    2.3875298   -4.5979826            0   -1.0175832    5.8097642     3622.899 
    9000    2.3935365   -4.5392336            0  -0.94982649    5.8867105    3644.3336 
   10000    2.4132698   -4.6068013            0  -0.98780158    5.7400425    3626.8021 
Loop time of 2.69381 on 48 procs for 10000 steps with 4000 atoms

Performance: 641470.643 tau/day, 3712.214 timesteps/s
99.6% CPU use with 48 MPI tasks x no OpenMP threads

MPI task timing breakdown:
Section |  min time  |  avg time  |  max time  |%varavg| %total
---------------------------------------------------------------
Pair    | 1.2007     | 1.2727     | 1.4384     |   4.1 | 47.24
Neigh   | 0.21366    | 0.22295    | 0.24679    |   1.4 |  8.28
Comm    | 0.75982    | 0.91927    | 1.018      |   5.4 | 34.13
Output  | 0.00024692 | 0.0002527  | 0.0003185  |   0.0 |  0.01
Modify  | 0.22566    | 0.26293    | 0.3048     |   4.0 |  9.76
Other   |            | 0.01576    |            |       |  0.58

Nlocal:        83.3333 ave          92 max          75 min
Histogram: 3 3 6 4 9 7 5 7 3 1
Nghost:        1755.58 ave        1784 max        1725 min
Histogram: 3 4 4 7 3 9 6 3 4 5
Neighs:        10531.9 ave       11732 max        9392 min
Histogram: 2 6 1 10 7 6 8 2 3 3

Total # of neighbors = 505529
Ave neighs/atom = 126.38225
Neighbor list builds = 899
Dangerous builds = 168

# Equilibrate just above the melting temperature to avoid step fn in T

fix 1 all npt temp 1.25 1.25 0.1 iso 5.68 5.68 0.5 mtk yes tchain 5 pchain 5
run 2000
Per MPI rank memory allocation (min/avg/max) = 3.644 | 3.646 | 3.650 Mbytes
Step Temp E_pair E_mol TotEng Press Volume 
   10000    2.4132698   -4.6068013            0  -0.98780158    5.7400425    3626.8021 
   11000    1.2389879   -6.6832587            0   -4.8252415    5.5562277    2803.1558 
   12000    1.2708897   -6.7711305            0   -4.8652725    5.7707264    2778.3859 
Loop time of 0.6614 on 48 procs for 2000 steps with 4000 atoms

Performance: 522528.181 tau/day, 3023.890 timesteps/s
99.6% CPU use with 48 MPI tasks x no OpenMP threads

MPI task timing breakdown:
Section |  min time  |  avg time  |  max time  |%varavg| %total
---------------------------------------------------------------
Pair    | 0.29802    | 0.32329    | 0.36178    |   2.6 | 48.88
Neigh   | 0.04066    | 0.043265   | 0.04741    |   0.7 |  6.54
Comm    | 0.20689    | 0.24514    | 0.27132    |   3.2 | 37.06
Output  | 5.37e-05   | 5.4909e-05 | 7.0221e-05 |   0.0 |  0.01
Modify  | 0.039422   | 0.04473    | 0.049151   |   1.2 |  6.76
Other   |            | 0.004925   |            |       |  0.74

Nlocal:        83.3333 ave          91 max          78 min
Histogram: 5 2 9 11 6 1 9 2 0 3
Nghost:        2103.94 ave        2129 max        2076 min
Histogram: 1 2 2 7 8 11 9 5 1 2
Neighs:        13760.1 ave       15678 max       12122 min
Histogram: 2 3 7 8 8 8 5 3 2 2

Total # of neighbors = 660485
Ave neighs/atom = 165.12125
Neighbor list builds = 142
Dangerous builds = 11

#############################
# L I N E A R  Q U E N C H  #
#############################

# Define solid atoms. This closely follows ten Wolde  Ruiz-Montero and Frenkel  Faraday Discuss  1996  104  93-110
# Compute components of the per-atom q6 vector
compute q6 all orientorder/atom degrees 1 6 components 6 nnn NULL cutoff 1.3 # compute the Q6 parameter.
                                                                             # Use all neighbours within 1.3 unit cell.

# get number of connections
compute coord_number all coord/atom orientorder q6 0.5

# An atom is solid if it has 8 or more connections (of a possible 14)
variable is_solid atom c_coord_number>=8
group solid dynamic all var is_solid    # Must be dynamic to update
dynamic group solid defined

# do clustering
compute cluster solid cluster/atom 1.3 # Create a cluster where all atoms within are solid and max 1.3 units from another member

# define chunks one chunk per cluster
compute clus_chunks solid chunk/atom c_cluster nchunk every compress yes  # Says which atoms are in which chunk

# count the size of each chunk
compute size_chunks solid property/chunk clus_chunks count


# Find the maximum entry in the vector of chunk sizes
variable max_n equal max(c_size_chunks)


# Thermo style which includes this variable
# thermo_style custom step temp pe vol v_max_n

thermo ${N}  # Print the thermo information every 100 steps
thermo 1000  

# Reset the npt fix at a lower temperature (below freezing)
fix 1  all npt temp  ${temp} ${temp}  0.1  iso  5.68  5.68  0.5  mtk yes tchain  5  pchain  5
fix 1  all npt temp  0.45 ${temp}  0.1  iso  5.68  5.68  0.5  mtk yes tchain  5  pchain  5
fix 1  all npt temp  0.45 0.45  0.1  iso  5.68  5.68  0.5  mtk yes tchain  5  pchain  5

dump dmp2 all dcd ${N} traj.dcd
dump dmp2 all dcd 1000 traj.dcd


compute msd all msd com yes
variable twopoint equal c_msd[4]/6/(step*dt+1.0e-6)
fix 9 all vector 10 c_msd[4]
variable fit equal slope(f_9)/6/(10*dt)
thermo_style custom step temp pe c_msd[4] v_twopoint v_fit v_max_n

fix 1 all npt temp 1.25 ${temp} 0.1 iso 5.68 5.68 0.5 mtk yes tchain 5 pchain 5
fix 1 all npt temp 1.25 0.45 0.1 iso 5.68 5.68 0.5 mtk yes tchain 5 pchain 5
run 2000000 # 5000000  # Run for this many steps
Neighbor list info ...
  update every 1 steps, delay 10 steps, check yes
  max neighbors/atom: 2000, page size: 100000
  master list distance cutoff = 3.8
  ghost atom cutoff = 3.8
  binsize = 1.9, bins = 8 8 8
  4 neighbor lists, perpetual/occasional/extra = 1 3 0
  (1) pair lj/cut, perpetual
      attributes: half, newton on
      pair build: half/bin/atomonly/newton
      stencil: half/bin/3d
      bin: standard
  (2) compute orientorder/atom, occasional
      attributes: full, newton on
      pair build: full/bin/atomonly
      stencil: full/bin/3d
      bin: standard
  (3) compute coord/atom, occasional
      attributes: full, newton on
      pair build: full/bin/atomonly
      stencil: full/bin/3d
      bin: standard
  (4) compute cluster/atom, occasional
      attributes: full, newton on
      pair build: full/bin/atomonly
      stencil: full/bin/3d
      bin: standard
Per MPI rank memory allocation (min/avg/max) = 9.845 | 9.850 | 9.854 Mbytes
Step Temp PotEng c_msd[4] v_twopoint v_fit v_max_n 
   12000    1.2708897   -6.7711305 2.6312455e-30 1.8272538e-32 8.3333333e+20            2 
   13000     1.248799   -6.8352414   0.49650708 0.0031827376   0.04058797            2 
   14000    1.2436373   -6.8781426   0.96033537 0.0057162818   0.03934071            3 
   15000    1.2522432   -6.7894673     1.384891 0.0076938389  0.038264285            4 
   16000    1.2561132   -6.8088212    1.8174221   0.00946574  0.037143429            3 
   17000    1.2549733   -6.8043044    2.2002882  0.010785726   0.03626727            4 
   18000    1.2466002   -6.8179983    2.6642555  0.012334516  0.035748208            3 
   19000    1.2558841   -6.8218428    3.1338616  0.013745007  0.036101433            1 
   20000    1.2429161   -6.8355659    3.5431448  0.014763103  0.036316824            2 
   21000    1.2240797    -6.815525    3.9432101  0.015647659   0.03610951            2 
   22000      1.23426   -6.8355075    4.3327296  0.016411854   0.03590662            2 
   23000    1.2653081   -6.7742738    4.6767805  0.016944856  0.035580696            3 
   24000    1.2485809   -6.8654906    5.1560983  0.017903119  0.035284694            4 
   25000    1.2341232   -6.8136287    5.6285548  0.018761849  0.035362928            4 
   26000    1.2208281    -6.826795    6.0135239  0.019274115  0.035387609            5 
   27000     1.258879   -6.8785241    6.3940943  0.019734859  0.035224522            2 
   28000    1.2440169   -6.8050875    6.8373417  0.020349231  0.035130466            2 
   29000    1.2124566   -6.8354501    7.1785283  0.020627954  0.035011337            1 
   30000    1.2257534   -6.8638765     7.542991  0.020952752  0.034877251            2 
   31000    1.2364839   -6.8489784    7.7602507  0.020860889  0.034530205            3 
   32000    1.2451101   -6.8202035    8.1048191  0.021106299  0.034185298            2 
   33000    1.2388588   -6.8451552    8.5593731  0.021614578  0.033913703            6 
   34000    1.2398595   -6.8183154    9.0064472  0.022074625  0.033714996            2 
   35000    1.2266956   -6.8876482    9.5120962  0.022647848    0.0336547            2 
   36000    1.2537715   -6.8802807    9.8706245  0.022848667   0.03364061            2 
   37000    1.2303758   -6.8519886     10.26564  0.023120811  0.033600198            5 
   38000    1.2434254    -6.875872    10.716945  0.023502072  0.033598003            3 
   39000    1.2286486    -6.878035    11.148194  0.023820927  0.033630297            3 
   40000    1.2230294   -6.8117608    11.652975  0.024277031  0.033649795            2 
   41000    1.2101549   -6.8805184    12.054796  0.024501619  0.033699376            7 
   42000    1.2388434   -6.9231089    12.449111  0.024700617  0.033771873            4 
   43000    1.2566674   -6.8416546    12.944853  0.025086924  0.033823662            4 
   44000    1.2011742   -6.8597432    13.315505  0.025218758  0.033897198            2 
   45000     1.253399   -6.8775946    13.789895  0.025536843  0.033960282            2 
   46000    1.2144651     -6.86127     14.17036  0.025670942  0.034020414            2 
   47000    1.2239196   -6.8557781    14.533086  0.025767882  0.034063399            3 
   48000     1.244885   -6.8735675     15.04973  0.026128004  0.034114978            2 
   49000    1.2303166   -6.8469744    15.614932  0.026556007  0.034180251            3 
   50000    1.2465912   -6.9540305    15.827743  0.026379571  0.034230847            2 
   51000    1.2683099   -6.8917246    16.244066  0.026542592  0.034264648            2 
   52000    1.2633036    -6.863478    16.676101  0.026724521  0.034274355            3 
   53000    1.2216047   -6.8506299    16.836991  0.026473257  0.034256438            3 
   54000    1.2512496   -6.9108312    17.237241   0.02660068  0.034221205            3 
   55000     1.235207   -6.9079887    17.607898  0.026678634  0.034179596            2 
   56000    1.2646915   -6.9641388    18.050777  0.026861275  0.034137555            5 
   57000    1.2333196   -6.8797759    18.438303  0.026956583  0.034109499            6 
   58000    1.2337499   -6.8678452    18.866032  0.027106367  0.034082711            2 
   59000    1.2247736   -6.8802662    19.262025   0.02720625  0.034057182            1 
   60000     1.263301   -6.8732705    19.654267  0.027297593  0.034034903            2 
   61000      1.23778   -6.8819666    20.056247  0.027399245  0.033998272            8 
   62000    1.2412974   -6.8877812    20.430164  0.027459898  0.033969894            3 
   63000    1.2449648   -6.8599462    20.809777  0.027526159   0.03393521            3 
   64000    1.2439429    -6.872238    21.063634  0.027426607  0.033888226            4 
   65000    1.2573738   -6.8771203    21.391085  0.027424468  0.033833644            2 
   66000    1.2446871   -6.8875224    21.747136  0.027458505  0.033776609            3 
   67000    1.2161891   -6.8405117    22.264483  0.027692143  0.033724491            2 
   68000    1.2267847   -6.9216346     22.46551  0.027531263  0.033668022            2 
   69000    1.2321427   -6.8872639     22.93299  0.027696848  0.033614701            3 
   70000    1.2262208   -6.9101836    23.145047  0.027553627  0.033555155            3 
   71000    1.2289259   -6.9188501    23.444033  0.027516471  0.033484669            4 
   72000    1.2207095    -6.893663    23.880556  0.027639533   0.03340125            3 
   73000      1.25477   -6.8975679    24.269268  0.027704643  0.033326156            2 
   74000    1.2052334   -6.9072316    24.586808  0.027687847  0.033265768            3 
   75000      1.23134   -6.9074282    25.210895  0.028012106  0.033216558            1 
   76000     1.217883   -6.8772667     25.69868  0.028178378  0.033192606            2 
   77000    1.2155849   -6.8889722    26.106744  0.028254052  0.033172542            3 
   78000    1.2397665   -6.8554392    26.342368  0.028143556  0.033143304            3 
   79000    1.2305223   -6.8558581    26.870668  0.028344587   0.03311576            2 
   80000    1.2432756   -6.8898488    27.135321  0.028265959  0.033091688            4 
   81000    1.2118413   -6.8559713    27.593476   0.02838835  0.033063475            3 
   82000    1.2255605   -6.9136362    27.817635  0.028269954  0.033031241            1 
   83000    1.2318093   -6.9439696     28.20737  0.028320653  0.033002785            7 
   84000    1.2369738   -6.9647344    28.667966  0.028440443  0.032975979            5 
   85000    1.2133651   -6.9561579    28.950072  0.028382424  0.032947185            1 
   86000    1.1924704   -6.9534214    29.335056  0.028425441   0.03292238            3 
   87000    1.1992059   -6.9186388    29.661733  0.028411622  0.032894076            3 
   88000     1.201122    -6.960078    29.996553  0.028405827  0.032865222            2 
   89000    1.2079942   -6.9069918    30.593355  0.028645463   0.03283354            1 
   90000    1.2256559   -6.8808536    30.819361  0.028536445  0.032810286            2 
   91000     1.220102    -6.898301    31.290547  0.028654347  0.032785452            2 
   92000    1.2445375   -6.9473033     31.65845  0.028676132  0.032759369            6 
   93000    1.2005584   -6.9259473    32.026845   0.02869789   0.03273851            4 
   94000     1.229053    -6.895686    32.562745  0.028867681   0.03272304            5 
   95000    1.2095143   -6.9401572     32.85154   0.02881714  0.032705104            2 
   96000    1.2009467   -6.9804511    33.118828  0.028748983  0.032682993            4 
   97000    1.2338903   -6.9454569     33.40572  0.028699072  0.032657821            3 
   98000    1.2141201   -6.9561571    33.784238  0.028728094  0.032629559            4 
   99000    1.2367773   -6.8756837    34.354827  0.028918205  0.032606581            1 
  100000    1.1950142   -6.9106234    34.764797  0.028970664  0.032587269            4 
  101000    1.2078382   -6.9156825    34.877012  0.028776413  0.032566198            3 
  102000    1.2122128   -6.9588555    35.225281  0.028778825  0.032537124            5 
  103000     1.220589   -6.9411061    35.505959  0.028726504  0.032505965            2 
  104000    1.2244262   -6.9540831    35.957433  0.028812046  0.032480651            1 
  105000    1.2192713   -6.8957809    36.498193   0.02896682  0.032455923            1 
  106000    1.2444651   -6.9547458    36.801859  0.028932279  0.032431954            7 
  107000    1.1868023   -6.9495788    37.099654  0.028893812  0.032410589            2 
  108000    1.2015972   -6.9755941    37.266412  0.028754948  0.032382886            5 
  109000    1.2016264   -6.9495261    37.835857  0.028926496  0.032357285            2 
  110000    1.2143711   -6.9662113    38.143966  0.028896944  0.032335911            4 
  111000    1.2062705    -6.932052    38.609556  0.028986153   0.03231317            2 
  112000    1.2180628   -6.8593416     39.23832  0.029195178  0.032299999            5 
  113000    1.2012282   -6.8965461    39.535769  0.029156172  0.032281043            3 
  114000    1.1891742   -6.9346834    39.775744  0.029075836  0.032264594            1 
  115000    1.2255853   -6.9312648    40.100815  0.029058562  0.032250715            4 
  116000    1.2073511   -6.9143295    40.455234  0.029062668  0.032233524            2 
  117000    1.2064227   -6.9203346    40.653546  0.028955517  0.032213734            2 
  118000    1.2325735   -6.9839431    41.196947  0.029093889  0.032188966            1 
  119000    1.2109525    -6.941364     41.62778  0.029151106  0.032169847            5 
  120000    1.2030809   -6.8984339    42.359518  0.029416332  0.032156427            7 
  121000    1.1990257   -6.9506972    42.250276  0.029097986  0.032139877            1 
  122000    1.1960253   -6.9450829     42.73915  0.029193408  0.032120448            1 
  123000    1.1923581    -6.979361     42.91851  0.029077581  0.032101191            1 
  124000    1.1941618   -6.9571061    43.283734  0.029088531  0.032079347            1 
  125000     1.244238   -6.9940084    43.567655  0.029045104  0.032056353            1 
  126000    1.1925915    -6.955572     43.88594  0.029025092  0.032031317            3 
  127000    1.1808188   -6.9538075    44.144742  0.028966366   0.03200402            2 
  128000     1.213077   -6.9123289    44.574127  0.029019614  0.031977551            2 
  129000    1.2217816   -6.9297577    45.146275   0.02916426  0.031958092            2 
  130000    1.2009861   -6.9192389    45.448949  0.029133942  0.031937277            1 
  131000    1.2140511   -6.9055767     45.70322  0.029073295  0.031913196            3 
  132000    1.2101152   -6.9632266    45.892426  0.028972491  0.031886466            1 
  133000    1.1973948   -6.9667108    45.938091  0.028783265  0.031853703            1 
  134000    1.1995989     -6.96508    46.539929  0.028942742  0.031821048            2 
  135000    1.2046506   -6.9453077    47.139523  0.029098471  0.031794709            2 
  136000    1.2206053   -6.9237475    47.613899  0.029175183  0.031770027            4 
  137000    1.1868525   -6.9675591    47.904935  0.029139255  0.031745713            2 
  138000    1.1810378   -6.9520574    48.076981  0.029031993  0.031721218            3 
  139000    1.2189107    -6.974331    48.409676  0.029022587  0.031697148            3 
  140000    1.2227953   -6.9561007    48.835464  0.029068729  0.031672087            4 
  141000    1.2167145   -7.0032883    48.998983   0.02895921   0.03164952            5 
  142000    1.1943096   -7.0209173    49.514246  0.029057656  0.031625816            3 
  143000    1.2091571   -6.9607874    49.750299  0.028992016   0.03160081            2 
  144000    1.1915501   -6.9425577    50.274962  0.029094307  0.031574799            2 
  145000    1.2146513   -6.9811321    50.413897  0.028973504  0.031548791            3 
  146000    1.1999629   -6.9284796    50.925323  0.029066965  0.031525472            5 
  147000    1.2087759   -7.0141521    51.173022   0.02900965  0.031503475            4 
  148000    1.2074274   -6.9068901    51.646784  0.029080396  0.031478898            4 
  149000    1.2184041   -7.0107071    51.752903  0.028944576  0.031453915            3 
  150000    1.1981416   -6.9660063    52.300387   0.02905577  0.031427495            2 
  151000    1.1601127   -7.0113922    52.462528   0.02895283  0.031402331            2 
  152000    1.2094711   -6.9640745    52.817453  0.028956937  0.031378586            2 
  153000    1.1850364   -6.9721317    53.455052  0.029114952  0.031356872            4 
  154000    1.1801856   -6.9536667    53.787358  0.029105713  0.031339186            1 
  155000    1.1955142   -6.9616289    53.912927  0.028985445  0.031319773            2 
  156000    1.1865862   -6.9623578    54.393857  0.029056547  0.031298109            3 
  157000    1.2120939   -6.9571378    54.836134  0.029106228  0.031277383            2 
  158000    1.2251653   -6.9733811    54.946341  0.028980138  0.031256716            5 
  159000    1.1826761    -6.947288    55.435009  0.029053988  0.031236315            1 
  160000    1.2190829   -6.9767161    55.669607  0.028994587  0.031212512            6 
  161000    1.1929167   -6.9204033    56.025756  0.028998839  0.031187889            1 
  162000    1.2070765   -6.9466929    56.210359  0.028914793  0.031161635            2 
  163000     1.199208   -7.0135937    56.349318  0.028808445  0.031135392            2 
  164000    1.1826433   -6.9586091    56.929393  0.028927537   0.03111224            1 
  165000    1.1777887   -6.9716295    57.463275  0.029021856  0.031090115            5 
  166000    1.1478498   -6.9830652    57.827582   0.02902991   0.03107041            2 
  167000    1.1598141   -7.0149696    57.932211  0.028908289  0.031049659            3 
  168000    1.1908031   -7.0270025    58.282287  0.028909864  0.031027144            3 
  169000     1.182403   -6.9995324    58.656816  0.028923479  0.031004857            2 
  170000    1.1833866   -6.9739058    59.017458  0.028930127  0.030981752            1 
  171000    1.1855939   -7.0108842    59.281816  0.028889774  0.030959433            3 
  172000    1.1722196   -6.9715458    59.703562  0.028926144  0.030938695            3 
  173000    1.1876943   -7.0039499    59.895569   0.02885143  0.030915219            1 
  174000    1.1824985    -6.964288    60.409397  0.028931703  0.030891257            3 
  175000    1.1802871   -6.9776458    60.574551  0.028845024  0.030866716            2 
  176000    1.2127603   -7.0170147    60.635496  0.028709988  0.030840914            2 
  177000    1.1659296   -6.9946221    61.186135  0.028807032   0.03081367            2 
  178000    1.2044836   -6.9916242    61.425068  0.028757054  0.030789681            4 
  179000    1.1921585   -7.0078001    61.627383  0.028690588  0.030762473            6 
  180000    1.1765596   -7.0541825    61.937598  0.028674814  0.030735435            2 
  181000    1.1881402    -7.038073    62.359871  0.028710806  0.030708833            7 
  182000    1.1645428   -7.0003097    62.429083  0.028584745  0.030678998            2 
  183000    1.1855814   -7.0458149    62.857508  0.028623638  0.030652217            3 
  184000     1.166176    -7.047719    63.239408  0.028641036    0.0306244            6 
  185000    1.1763273   -7.0161833    63.575365  0.028637552  0.030599276            2 
  186000    1.1596494   -7.0147102    63.855579   0.02860913  0.030573102            5 
  187000    1.1810293   -7.0137736    64.116714  0.028572511  0.030548378            3 
  188000    1.1899602   -7.0282759    64.562158  0.028617978  0.030522704            1 
  189000    1.1847584   -7.0043907     64.69109  0.028523408  0.030495761            3 
  190000      1.17739   -6.9982355    65.062068  0.028535995  0.030467431            3 
  191000    1.1882261   -7.0019325    65.152146  0.028425892  0.030438943            2 
  192000    1.1767663   -7.0238958    65.764238  0.028543506  0.030411481            1 
  193000    1.1773489   -7.0612251    66.042341  0.028515691  0.030386003            3 
  194000    1.1479613   -6.9993616    66.498739   0.02856475  0.030359049            2 
  195000    1.1965797   -7.0552688    66.694275  0.028501827  0.030332508            2 
  196000    1.1800889   -7.0388831    67.013349   0.02849207  0.030306719            4 
  197000    1.1809545   -7.0037369    67.105864  0.028386575  0.030279717            2 
  198000    1.1833381   -7.0255296    67.419519  0.028375218  0.030252004            3 
  199000    1.1695915   -7.0007933    67.826303  0.028402975  0.030225818            2 
  200000    1.1529606    -7.056398    68.028919  0.028345383  0.030199392            2 
  201000    1.1982271   -6.9962041    68.586482  0.028435523   0.03017403            2 
  202000    1.1621379   -7.0488098     68.91833  0.028431654  0.030149059            3 
  203000     1.153959    -7.018351    69.412501  0.028494458  0.030125802            2 
  204000    1.1635893   -7.0021306    69.416826  0.028356546  0.030102024            3 
  205000    1.1867222   -6.9970141    69.677616  0.028324234  0.030077283            5 
  206000    1.1510461   -7.0728763    69.870712  0.028264851  0.030053281            6 
  207000    1.1783263   -7.0823218    70.130004  0.028232691   0.03002581            3 
  208000    1.1872758   -7.0229847    70.783937  0.028358949  0.029999766            3 
  209000    1.1804836   -7.0314855    70.846208  0.028248089  0.029974328            1 
  210000    1.1630801   -7.0145154    71.136408  0.028228733  0.029949504            4 
  211000    1.1779736   -7.0181346    71.436798  0.028213585  0.029923688            2 
  212000     1.169892   -7.0057595    71.995616  0.028300163   0.02989852            4 
  213000     1.151566   -7.0521434    72.276969  0.028277374  0.029873148            3 
  214000    1.1614552   -7.0470157    72.599841  0.028270966  0.029849529            4 
  215000    1.1704894   -7.0360816    72.733435  0.028191254    0.0298252            1 
  216000    1.1828944   -7.0368234    72.879287  0.028117009  0.029799503            3 
  217000    1.1711876   -7.0512939    73.230139  0.028122173  0.029772626            3 
  218000    1.1790048   -7.0169854    73.589573  0.028130571  0.029747773            5 
  219000    1.1731657   -7.0111371    73.892881  0.028117535  0.029722201            2 
  220000    1.1566959   -7.0375634    74.146984  0.028085979   0.02969402            4 
  221000    1.1739366   -7.0574753     74.30319  0.028017794  0.029666572            1 
  222000    1.1511366   -7.0153206    74.947693  0.028133518  0.029639779            4 
  223000     1.151544   -7.0951058    74.893715  0.027987188   0.02961363            3 
  224000    1.1748768   -7.0487137    75.340072    0.0280283  0.029586712            2 
  225000    1.1900259   -7.0626876     75.58379  0.027993996  0.029560893            2 
  226000    1.1604747   -7.0089225    76.151994  0.028079644  0.029534657            2 
  227000     1.167411   -7.0633076    76.071683  0.027926462  0.029508358            7 
  228000    1.1817672    -7.029592    76.302056  0.027888178  0.029481415            2 
  229000    1.1661259   -7.0723066    76.627032  0.027884655  0.029455489            1 
  230000    1.1393038   -7.0236378    76.890026  0.027858705  0.029428458            4 
  231000    1.2060179   -7.0452223    77.035873  0.027790719  0.029401715            3 
  232000    1.1579767   -7.0042566    77.472837  0.027827887  0.029372972            6 
  233000    1.1536506   -7.1028201    77.301119  0.027647038   0.02934491            2 
  234000     1.172145   -7.0611538    78.021013  0.027785261   0.02931726            4 
  235000    1.1203532   -7.0749712    78.464932  0.027824444  0.029289492            3 
  236000     1.146591   -7.0893439    78.438151  0.027697087  0.029261638            2 
  237000    1.1741317   -7.0411689    78.934996  0.027754921  0.029233739            2 
  238000    1.1626293   -7.0619486    79.427522  0.027810757  0.029207219            1 
  239000    1.1736342   -7.0863074      79.7334  0.027801046  0.029182228            3 
  240000    1.1682696   -7.0346521    80.168515   0.02783629  0.029156209            2 
  241000    1.1566061   -7.0565964    80.002874  0.027663511  0.029131039            2 
  242000    1.1502323   -7.0270136    80.783841  0.027818127  0.029106367            3 
  243000    1.1556008   -7.0969384    80.603693   0.02764187  0.029081649            3 
  244000    1.1817784   -7.0837454    80.956935  0.027649226  0.029056676            1 
  245000    1.1545834   -7.0701051    81.466163  0.027709579  0.029031548            2 
  246000    1.1891575   -7.0807746    81.857305  0.027729439  0.029008179            3 
  247000    1.1752302   -7.0854417    82.455422  0.027818968  0.028985272            3 
  248000    1.1481329   -7.0889765    82.444873   0.02770325  0.028962075            3 
  249000    1.1640468   -7.0731576    83.094421  0.027809378  0.028940422            2 
  250000      1.15673   -7.0465179     83.02659   0.02767553  0.028918313            4 
  251000    1.1607912   -7.0989728    83.550177  0.027739103  0.028896073            2 
  252000    1.1398974   -7.1078617    83.269644  0.027536258   0.02887163            3 
  253000    1.1507829   -7.1078278    83.449817  0.027486764  0.028846252            3 
  254000    1.1541423   -7.1080882    83.877206  0.027518768  0.028822478            2 
  255000    1.1360175   -7.1523233    83.945638  0.027433215  0.028798087            2 
  256000    1.1588455    -7.098426    84.396144  0.027472703  0.028774434            2 
  257000    1.1368119   -7.0199902    84.876019  0.027521407  0.028750007            5 
  258000    1.1579777   -7.0984829    84.742048  0.027371463  0.028724918            4 
  259000    1.1644134   -7.0780366    85.375409  0.027469565  0.028698829            4 
  260000    1.1693862   -7.0691067     85.56364  0.027424244  0.028674613            1 
  261000    1.1419353    -7.097037     85.80634   0.02739666  0.028650019            1 
  262000    1.1561777   -7.0676481    86.183266   0.02741198  0.028625819            5 
  263000    1.1607815   -7.1196168    86.432496  0.027386722  0.028600808            4 
  264000    1.1397713    -7.109738    86.681853  0.027361696  0.028576195            3 
  265000    1.1527122   -7.0886284    87.238671  0.027433544  0.028552819            2 
  266000    1.1486381   -7.0640226    87.660277  0.027462493  0.028529497            2 
  267000    1.1442284   -7.0890721      87.0939  0.027182865  0.028505563            2 
  268000    1.1438602   -7.0982962    87.980081   0.02735699   0.02848147            2 
  269000    1.1295075   -7.1277602     88.14388  0.027306035  0.028458306            4 
  270000    1.1305192   -7.1043432    88.149659  0.027206685  0.028434551            3 
  271000    1.1549517   -7.1065922    88.518584  0.027219737  0.028409425            2 
  272000    1.1366576   -7.0898338    88.856165   0.02722309  0.028384136            2 
  273000    1.1475654   -7.1098823    88.788613  0.027102751  0.028358728            1 
  274000    1.1633513   -7.1093781    89.450138   0.02720503  0.028334208            2 
  275000    1.1577668   -7.0947589    90.057991    0.0272903  0.028310645            2 
  276000    1.1422173   -7.1119366    89.836296  0.027124485  0.028287149            2 
  277000    1.1648066   -7.1285219    90.070763  0.027097101  0.028263688            3 
  278000    1.1466773   -7.0998206    90.564579  0.027147655  0.028240051            2 
  279000    1.1493283   -7.1047853    91.052055  0.027195954  0.028217967            3 
  280000    1.1243138   -7.0780307    91.366363   0.02719237  0.028195714            2 
  281000     1.158014   -7.0799434    91.409742  0.027108464  0.028173986            2 
  282000    1.1516526   -7.1390005    91.857252  0.027144578  0.028153371            3 
  283000    1.1429292   -7.1430744    92.081702  0.027114753  0.028131579            2 
  284000    1.1591268   -7.1192174    92.335125   0.02709364  0.028111819            2 
  285000      1.14908   -7.0944615    93.165594  0.027241402  0.028092066            4 
  286000    1.1332226   -7.1425031    93.059961  0.027115373  0.028073518            6 
  287000    1.1301868   -7.1061879    93.488364  0.027145286  0.028054633            3 
  288000    1.1198124    -7.141579    93.560501  0.027071904  0.028035226            4 
  289000    1.1707424   -7.1652509    94.023626  0.027111772  0.028015252            2 
  290000     1.156641   -7.1330111    94.193274  0.027067033  0.027996127            4 
  291000    1.1438643   -7.1360247    94.354325  0.027020139  0.027974713            4 
  292000    1.1428212   -7.1333909    94.228098   0.02689158  0.027953584            5 
  293000    1.1373883   -7.0889955    94.716787   0.02693879  0.027932135            1 
  294000    1.1610229   -7.1333338    94.897788  0.026898466  0.027910975            3 
  295000    1.1313317    -7.126269    95.182807  0.026887799  0.027888927            1 
  296000    1.1293138   -7.1442168    95.899488   0.02699873  0.027868295            2 
  297000    1.1274033   -7.1282582     96.06743  0.026954947  0.027847295            4 
  298000    1.1434224   -7.1418154    96.184062  0.026897109  0.027826411            1 
  299000    1.1774254   -7.1108678    96.405533  0.026868878  0.027805686            2 
  300000    1.1132331   -7.1836053    96.012232  0.026670064  0.027784142            1 
  301000    1.1599295    -7.161925    96.355862  0.026676595  0.027760647            6 
  302000    1.1261573   -7.1428359    97.029453  0.026774132  0.027737613            2 
  303000    1.1374812   -7.1611409    97.188982  0.026729643  0.027714382            3 
  304000    1.1203453   -7.1698504    97.381642  0.026694529  0.027691894            2 
  305000    1.1358411   -7.1276639    98.047631   0.02678897  0.027670525            2 
  306000    1.1168349   -7.1205019    98.325048  0.026776974  0.027650773            2 
  307000    1.1531124   -7.1452015    98.572403  0.026756896   0.02763058            2 
  308000    1.1440405   -7.1109023    98.863884  0.026748886  0.027609297            1 
  309000     1.129374     -7.13988    99.213812  0.026756692   0.02758848            4 
  310000    1.1345189   -7.1461893     99.01117  0.026615906  0.027567099            3 
  311000    1.1268976   -7.1323495    99.339472  0.026618294  0.027544803            5 
  312000    1.1124399   -7.1624192    99.256165  0.026510728  0.027521663            2 
  313000    1.1257059   -7.1394339    99.446486    0.0264767  0.027498191            2 
  314000    1.1126054   -7.1345485    99.751451  0.026473315  0.027474502            5 
  315000    1.1307713   -7.1384423    100.05716  0.026470148  0.027449947            4 
  316000    1.1479767   -7.1652085    100.10494  0.026398983  0.027425785            1 
  317000    1.1167851   -7.1688975    100.47278  0.026412402  0.027401881            4 
  318000    1.1488154   -7.1483966    100.72739  0.026396067  0.027378017            2 
  319000    1.1425118   -7.1613238    101.00142  0.026384906  0.027354011            4 
  320000    1.1358271   -7.1674205    101.16287  0.026344498  0.027330534            3 
  321000    1.1307295    -7.177668    101.02597  0.026226887   0.02730676            5 
  322000     1.135342   -7.1760301     101.6277  0.026301166  0.027282823            3 
  323000    1.1027755   -7.1993703    101.63337    0.0262212  0.027259179            8 
  324000    1.1336498   -7.1536422    102.14137  0.026270928  0.027234898            3 
  325000     1.126951   -7.1266413    102.69257  0.026331429  0.027211524            8 
  326000     1.127333    -7.184147    102.44009  0.026186117  0.027188676            3 
  327000    1.1330274   -7.1621554    102.83305  0.026206179  0.027164577            3 
  328000     1.133691   -7.1706533    102.97252  0.026161718  0.027140516            4 
  329000    1.1014239   -7.1603003    103.08681  0.026111147  0.027116053            2 
  330000     1.126553   -7.2147114     102.9437  0.025995885  0.027090968            3 
  331000    1.1232151   -7.1907785    103.86343  0.026148901  0.027066447            3 
  332000    1.1115732   -7.1803467    103.86045   0.02606939  0.027042399            2 
  333000     1.117432   -7.1581067    104.48908  0.026148419   0.02701886            3 
  334000    1.1281282   -7.1964537     104.5262  0.026079391  0.026995365            3 
  335000    1.1099392   -7.2071724     104.7372  0.026054029  0.026970685            4 
  336000    1.1180969   -7.1180143    105.04695  0.026053312  0.026946343            4 
  337000    1.1122703   -7.1686543    104.90962  0.025942043  0.026921412            4 
  338000    1.1474935   -7.1527721    105.37561   0.02598018  0.026896799            3 
  339000    1.1208377    -7.156143    105.23919  0.025870006   0.02687282            5 
  340000    1.1456154   -7.1941948    105.81676  0.025935479  0.026848781            2 
  341000    1.1070657   -7.1703542    106.12341  0.025934362   0.02682472            2 
  342000    1.1389258   -7.1919622     106.3617  0.025916595    0.0268005            2 
  343000    1.1217916   -7.1622194    106.78265  0.025943308  0.026777137            4 
  344000    1.1508742   -7.1551886    107.29148  0.025991154  0.026754632            2 
  345000     1.122986   -7.1995516    107.30836  0.025919893  0.026731976            3 
  346000    1.1447289   -7.1665097    107.24741  0.025830302  0.026708984            4 
  347000    1.1010114   -7.2089674    107.38968  0.025790029  0.026685672            2 
  348000    1.1293023   -7.1615513    107.74066  0.025799967  0.026662162            4 
  349000    1.0971494   -7.1595189    107.90413  0.025765074  0.026639349            3 
  350000    1.1257617   -7.2163686    107.95006  0.025702394  0.026616482            3 
  351000    1.1092065   -7.1851316    108.62786  0.025790091  0.026593202            3 
  352000    1.0969545   -7.1840866     108.8755  0.025775451  0.026569992            2 
  353000    1.1205707   -7.2036447     109.0176  0.025735978  0.026547111            6 
  354000    1.1105158   -7.2246105    109.26153  0.025720699  0.026524375            7 
  355000    1.1242092   -7.1721195    109.68666  0.025748043  0.026502604            3 
  356000    1.0795152   -7.1482913    110.33125  0.025826603  0.026481197            3 
  357000    1.1238865   -7.2029611    110.50934  0.025795832  0.026459668            1 
  358000    1.0935838   -7.1978808    110.62271  0.025750166  0.026438645            8 
  359000    1.1082256     -7.20261    110.44017  0.025636065   0.02641722            4 
  360000    1.1329276   -7.1833492    111.01154  0.025697115  0.026395296            3 
  361000    1.1124345   -7.1979144     111.2565  0.025682478  0.026373706            3 
  362000    1.0994367   -7.1945318    111.54371  0.025677649  0.026352819            6 
  363000     1.111524   -7.1874824    111.32441  0.025556569  0.026331493            3 
  364000    1.1061555   -7.2235841    111.95534  0.025630802  0.026309728            5 
  365000    1.0958209   -7.2558502    112.13906  0.025602526  0.026287695            3 
  366000    1.0824903   -7.1801865      112.762  0.025674409  0.026266449            4 
  367000    1.1172364   -7.1476073    113.25618  0.025716662  0.026245987            2 
  368000    1.0972563   -7.1946719    112.44456  0.025462988   0.02622564            2 
  369000    1.0989991   -7.2591448    112.81085  0.025476706  0.026204234            3 
  370000    1.1025546     -7.23544    113.27913  0.025513317   0.02618322            4 
  371000    1.0939502   -7.1721846    113.65933  0.025529949  0.026161856            2 
  372000     1.113721     -7.18224    113.63727  0.025456378  0.026140678            3 
  373000    1.0989844   -7.1901817    114.04215  0.025478585  0.026118985            3 
  374000    1.1290232   -7.2357304    114.13459  0.025431059  0.026096886            5 
  375000    1.0983828    -7.205012    114.64622  0.025476937  0.026075465            4 
  376000    1.1057905   -7.1859881    115.17965  0.025527404  0.026054304            3 
  377000    1.1073634   -7.2050368    115.28454  0.025482878  0.026033898            3 
  378000     1.101328   -7.1992515    115.24314  0.025406336  0.026013021            8 
  379000     1.098094   -7.2186819    115.68736  0.025436974  0.025993599            1 
  380000    1.0875423   -7.2440793    115.75209  0.025384231  0.025974115            3 
  381000    1.0793528    -7.225335    116.59069  0.025501025  0.025954807            3 
  382000       1.1079   -7.2236627    116.85261  0.025491408  0.025935385            4 
  383000    1.0888295   -7.2351256    116.27634  0.025299464  0.025915695            5 
  384000    1.0902187    -7.185578    116.57915  0.025299294  0.025896089            3 
  385000     1.104081   -7.2182545    116.42856  0.025200986  0.025875766            2 
  386000    1.0832136    -7.213484    116.75842  0.025206914  0.025855348            2 
  387000    1.1016027   -7.2139208    117.40917  0.025281906  0.025834736            3 
  388000    1.1169093   -7.2511265     117.5631  0.025249807   0.02581455            3 
  389000    1.1129255   -7.1976877    117.93927  0.025265482  0.025794714            3 
  390000    1.1182993   -7.2176351     118.1324  0.025241966  0.025775251           14 
  391000    1.1051839   -7.2382003    118.04951  0.025159742  0.025754695            4 
  392000    1.1000443   -7.1963644    118.16839  0.025120831  0.025733062            4 
  393000    1.0911228   -7.1996953     118.7401  0.025178138   0.02571208            3 
  394000    1.1166914    -7.212019    118.61029  0.025086779  0.025691604            8 
  395000    1.0902741   -7.2420416    119.27394  0.025163279   0.02567144            2 
  396000    1.0876315   -7.2636639    119.38947  0.025124046  0.025651973            4 
  397000    1.1041536   -7.2180809    119.72984  0.025132209  0.025632624            6 
  398000    1.0979029   -7.2855517    119.79952  0.025083651  0.025613208            3 
  399000    1.0664031   -7.3072336    119.78266  0.025017263  0.025593824            5 
  400000    1.1171256   -7.2466483    120.19791  0.025041232  0.025574678            4 
  401000    1.1192401    -7.239113    120.91566  0.025127942  0.025556475            4 
  402000      1.09438   -7.2116866    121.36208  0.025157976  0.025537507            3 
  403000    1.0892632   -7.2110557    121.32784  0.025088469  0.025518797            6 
  404000    1.0861861   -7.2275154    121.53155  0.025068389   0.02549998            2 
  405000    1.0863456   -7.2175326    122.17502  0.025138892  0.025481826            2 
  406000    1.1118265   -7.2913432    121.87778  0.025015965  0.025463544            2 
  407000    1.0899305   -7.2237956    122.29782  0.025040503  0.025445009            5 
  408000     1.095953   -7.2781847    122.01871  0.024922123  0.025426086            7 
  409000    1.0591376   -7.2329402    122.79061  0.025018462  0.025406963            3 
  410000    1.0800933    -7.261536    122.62985  0.024924765  0.025388668            7 
  411000     1.127767   -7.2665322    122.72315   0.02488304   0.02537001            2 
  412000    1.0841649   -7.2343796    123.70148  0.025020525  0.025351682            3 
  413000    1.0840805   -7.2575343     123.8665  0.024993241  0.025334067            3 
  414000    1.1161812   -7.2517024    123.91699  0.024943032  0.025316026            3 
  415000    1.0787809    -7.296531    123.67301  0.024833937  0.025297805            7 
  416000    1.0828501   -7.3139883    123.84891  0.024809478  0.025278635            4 
  417000    1.0916959   -7.3044014    124.33746  0.024847614  0.025260224            5 
  418000    1.0761261   -7.3090616    124.45453   0.02481151  0.025242001            2 
  419000    1.1001637   -7.3363517    125.28355  0.024917173   0.02522404            5 
  420000    1.1069698   -7.2884229    124.87802  0.024777385  0.025205675            2 
  421000     1.081519   -7.2724287    125.06452  0.024755448  0.025187957            3 
  422000    1.0774894   -7.2400467    126.08674  0.024898645  0.025170767            4 
  423000     1.087002   -7.2800367    126.39595    0.0249007  0.025154048            3 
  424000    1.1035759   -7.2492421    126.42617   0.02484791  0.025137651            2 
  425000    1.0969689   -7.2591192    126.79038  0.024860859  0.025120602            3 
  426000     1.087078   -7.2936082    126.54738  0.024754964  0.025103271            4 
  427000    1.0819813   -7.2783946    127.29463  0.024842824  0.025085756            4 
  428000    1.0717198   -7.2785604    127.14358  0.024755369  0.025068678            3 
  429000    1.0805175   -7.2252289    127.97356  0.024858888  0.025051998            2 
  430000     1.080412   -7.2663053    127.83651  0.024774517  0.025035436            2 
  431000    1.0661618   -7.2909311    127.73831   0.02469805  0.025018561            2 
  432000    1.0929277   -7.2599651    128.48803  0.024785499  0.025001184            3 
  433000    1.0973707    -7.252426    128.39508   0.02471037  0.024984388            5 
  434000    1.0755599   -7.2869893    128.58398  0.024689705  0.024967299            4 
  435000    1.0741279   -7.2999056    129.10215  0.024732212  0.024950015            3 
  436000    1.0724054   -7.2834301    128.72636  0.024603663  0.024933589            6 
  437000    1.0359016   -7.3027328    130.00171  0.024790563  0.024917426            6 
  438000    1.0477587   -7.2732339    129.58239  0.024654184  0.024900875            4 
  439000    1.0760195   -7.2378404    130.13399  0.024702732  0.024884353            2 
  440000    1.0788988   -7.2816177    130.35393  0.024688244    0.0248684            5 
  441000    1.0616605   -7.3161997    130.10804  0.024585797  0.024852259            3 
  442000    1.0616493   -7.3140089    130.37111  0.024579771  0.024835682            3 
  443000    1.0737492   -7.2667834    130.48162  0.024545074  0.024818729            3 
  444000    1.1037927   -7.3026129    131.05214  0.024596873  0.024802035            3 
  445000    1.0797681   -7.2578245    131.01935  0.024535459  0.024785877            3 
  446000    1.0892527   -7.3060997    131.03914  0.024484145  0.024769317            4 
  447000    1.0579931   -7.2910963    131.05183  0.024431735  0.024752206            5 
  448000    1.0827082   -7.3204404    131.47717  0.024456319  0.024735003            4 
  449000    1.0819741   -7.3158598    131.80045   0.02446185   0.02471857            4 
  450000    1.0674652   -7.2864925    132.05549  0.024454721   0.02470136            2 
  451000    1.0760667   -7.2970473    132.06464  0.024402188  0.024684212            5 
  452000    1.0598125   -7.3189599    132.72639  0.024470204  0.024667668            2 
  453000    1.0716934     -7.27734    132.48328  0.024371463  0.024651097            2 
  454000    1.0823645   -7.3476977    132.58354  0.024336186  0.024634418            3 
  455000    1.0715597   -7.2794514    133.02358  0.024363292  0.024617453            7 
  456000    1.0879349   -7.2855212    133.40427  0.024379435  0.024600678            4 
  457000    1.1308702    -7.286971    133.11959  0.024274178  0.024583651            3 
  458000    1.0704068   -7.3054082     133.0491  0.024208351   0.02456604            3 
  459000    1.0791753   -7.3096049    133.46189  0.024230554  0.024548701            2 
  460000    1.0700127   -7.3244853    133.62069  0.024206647  0.024531066            3 
  461000    1.0540664     -7.32634    134.08033  0.024237226  0.024512833            5 
  462000    1.0579013   -7.3360466    134.04519  0.024178426  0.024495345            3 
  463000    1.0674797   -7.3270573    134.35908  0.024182701  0.024477895            3 
  464000    1.0705754   -7.3024561    134.69341  0.024190626  0.024460628            2 
  465000     1.067642   -7.2966205    135.48268   0.02428005  0.024443889            2 
  466000    1.0855551   -7.3090428    135.05369  0.024151233  0.024426908            7 
  467000    1.0493608   -7.3739263    134.38929  0.023980957  0.024409062            3 
  468000    1.0821917   -7.3472658    134.95162  0.024029848  0.024390913            6 
  469000    1.0788525   -7.3331161    135.62074  0.024097503  0.024373541            5 
  470000    1.0855561   -7.3067979    136.12337   0.02413535  0.024356133            3 
  471000    1.0323331   -7.3516624    136.19429  0.024096654  0.024338576            3 
  472000    1.0809578   -7.3641286    136.11057  0.024030821  0.024321233            8 
  473000     1.055591   -7.3743943    136.14929  0.023986837  0.024303984           12 
  474000    1.0917852   -7.3517153     136.6452  0.024023417   0.02428582            2 
  475000    1.0810297   -7.3234001    137.03557  0.024041328  0.024268614            3 
  476000    1.0651028   -7.3274751    137.03374  0.023990501  0.024251435            5 
  477000    1.0303511   -7.3224756     137.4893  0.024019794  0.024234676            5 
  478000    1.0567387   -7.3012848    137.79202  0.024022319  0.024217928            4 
  479000    1.0687371   -7.3542645    137.75133  0.023965089   0.02420138            3 
  480000    1.0459301   -7.3294521     138.0929  0.023974462  0.024184361            5 
  481000    1.0696442   -7.3269282    138.18481  0.023940543  0.024167392            4 
  482000    1.0553872   -7.3291694    138.68559  0.023977454  0.024150358            3 
  483000    1.0695047   -7.3339207    138.27928  0.023857709  0.024133461            5 
  484000    1.0583016   -7.3271464    138.88813  0.023913245  0.024116423            3 
  485000    1.0579677   -7.3133156    138.91211  0.023868061  0.024099696            4 
  486000    1.0641167   -7.3271531    139.73723   0.02396043  0.024083546            5 
  487000    1.0556332   -7.3566258    138.98341   0.02378224  0.024066979            5 
  488000    1.0651774   -7.3353907    139.61143  0.023840749  0.024050504            2 
  489000    1.0659296   -7.3335605    139.65517   0.02379945  0.024033937            2 
  490000     1.062567   -7.3615701    139.75171  0.023767297  0.024017096            5 
  491000    1.0816444   -7.3139944    139.99692  0.023760509  0.024000559            7 
  492000    1.0714065   -7.3377038    140.11565  0.023732326  0.023984037            5 
  493000    1.0733162   -7.3752898    140.89146  0.023815325  0.023967616            3 
  494000     1.052926   -7.3362056     140.9012  0.023768758  0.023950881            7 
  495000    1.0618327   -7.3732461    140.41953  0.023639651  0.023933685            2 
  496000     1.051591   -7.3706919    140.96376  0.023683427   0.02391683            4 
  497000    1.0499145   -7.2810106     141.7413  0.023766147  0.023899854            5 
  498000    1.0385619   -7.2887552    141.81014  0.023729942  0.023883447            3 
  499000    1.0384958    -7.362482    141.16001  0.023573815  0.023866096            4 
  500000     1.050468     -7.36508    141.24943  0.023541571  0.023847903            9 
  501000    1.0387366   -7.3836799    141.10123  0.023469932  0.023829939            3 
  502000    1.0690649   -7.3226023    142.03334  0.023577912  0.023812263            4 
  503000    1.0551411   -7.3203059    141.86029  0.023502367  0.023794977            5 
  504000    1.0706238   -7.3765219    142.39747  0.023544556  0.023777367            4 
  505000      1.04215   -7.4074127    141.72564   0.02338707  0.023759476            4 
  506000    1.0617611   -7.3936055    142.31732  0.023438293  0.023741837            2 
  507000    1.0856098    -7.391272    142.43545  0.023411481  0.023724448            5 
  508000    1.0251952   -7.3599312    142.81641  0.023427889  0.023706922            6 
  509000    1.0377962   -7.3343146    143.30063  0.023461138  0.023689387            3 
  510000    1.0588051   -7.3644133    143.16863  0.023393567  0.023671978            5 
  511000    1.0369035   -7.3515675    143.50367  0.023402426  0.023654771            2 
  512000    1.0395477    -7.408314    143.56748  0.023367102  0.023637192            3 
  513000    1.0560705   -7.3791305    143.80083  0.023359459  0.023619553            4 
  514000      1.02392   -7.3480366    144.03479  0.023351944  0.023601791            4 
  515000      1.04139   -7.3654304    144.29721  0.023349063  0.023584063            3 
  516000    1.0582418   -7.3876624    144.22566  0.023292258  0.023566269            8 
  517000    1.0562441   -7.3701572    144.16212  0.023236964  0.023547917            3 
  518000    1.0605372   -7.4169863    144.17737  0.023194557  0.023529812            5 
  519000    1.0572403     -7.40734    144.17177  0.023148967  0.023511327            8 
  520000    1.0521732   -7.3659759    144.82039  0.023208396   0.02349283            2 
  521000    1.0452048   -7.3835305    144.81638  0.023163209  0.023474541            4 
  522000    1.0496398   -7.3757324    145.11638  0.023166728  0.023456542            4 
  523000    1.0508531   -7.3029413    145.70109  0.023215598  0.023439024            3 
  524000    1.0184095   -7.3374253     145.6243  0.023159081  0.023420969            3 
  525000    1.0344554   -7.3612787    145.74916  0.023134787  0.023402696            3 
  526000     1.040204    -7.371087     145.4334   0.02304078   0.02338446            2 
  527000     1.036544   -7.3756083    145.82402  0.023058827  0.023366328            5 
  528000    1.0297219   -7.3954425    145.77314  0.023007124  0.023347597            4 
  529000    1.0207129   -7.3949522    146.18108  0.023027895   0.02332897            6 
  530000    1.0393961    -7.354539    146.43939  0.023025061  0.023310767            3 
  531000    1.0393165   -7.3591287    146.58807  0.023005033  0.023292468            6 
  532000    1.0610352   -7.3803934     146.3478  0.022924154  0.023274574            2 
  533000    1.0598407   -7.3922971    146.93439  0.022972857  0.023256335            3 
  534000    1.0474744   -7.3765116    146.95812   0.02293354  0.023238583            3 
  535000    1.0604311   -7.4029233    147.22301  0.022931933  0.023220727            4 
  536000    1.0608383   -7.3779058    148.18487  0.023038692  0.023203123            5 
  537000    1.0564593   -7.4225478    147.59559  0.022904343  0.023185664            4 
  538000    1.0570336    -7.421178    147.64004  0.022868655  0.023168388            2 
  539000    1.0590197   -7.3834385    148.74399  0.022996906  0.023151432            6 
  540000    1.0221212   -7.4004659    148.57107  0.022927634   0.02313465            4 
  541000      1.06255   -7.4170636    149.25012  0.022989853  0.023117826            3 
  542000    1.0504393   -7.4248142    148.93174  0.022898483  0.023101356            8 
  543000     1.017074    -7.401764    149.53713  0.022949222  0.023084817            4 
  544000    1.0176376   -7.4155069    149.88927  0.022960979  0.023068133            2 
  545000    1.0408002   -7.4003266    149.65436  0.022882929  0.023051353            5 
  546000    1.0275931   -7.4263694    149.62854  0.022837078  0.023034063            3 
  547000    1.0192733   -7.3831631    150.31455  0.022899841  0.023016935            3 
  548000    1.0256714    -7.405489    149.88827  0.022793229  0.022999759            3 
  549000    1.0331406   -7.4059184     150.4884  0.022842805  0.022982891            2 
  550000    1.0690162    -7.413689    150.54496  0.022809842  0.022965805            4 
  551000    1.0251936   -7.3848055    150.55166  0.022769458  0.022948466            3 
  552000     1.023974   -7.3574188     150.7687  0.022760976  0.022931702            5 
  553000    1.0462641   -7.4180867    150.91374  0.022741672   0.02291492            7 
  554000    1.0183612   -7.4394958    151.00322  0.022714082  0.022897748           11 
  555000    1.0289328   -7.4197723    151.60404  0.022763369  0.022880664           10 
  556000    1.0423775   -7.3955933    151.34029  0.022682897  0.022863712            4 
  557000    1.0527818   -7.4445034    151.40775  0.022652266  0.022846653            6 
  558000    1.0429392   -7.3952891    151.81522  0.022672523  0.022829597            4 
  559000    1.0369995   -7.4257862    151.76679  0.022624744  0.022812636            8 
  560000    1.0187455   -7.4258969    151.96286  0.022613521  0.022795841            2 
  561000    1.0050994   -7.4495906    152.36941  0.022633603  0.022779202            6 
  562000    1.0053224   -7.4304377    153.07755  0.022698332  0.022762365            4 
  563000    1.0402672   -7.4080375    153.06435  0.022656062  0.022746303            3 
  564000    1.0316413    -7.405178    153.78036  0.022721685  0.022730355            9 
  565000    1.0224527   -7.4332662    153.40718  0.022626428  0.022714556            4 
  566000    1.0390125   -7.4371248    153.67146  0.022625362  0.022698576            3 
  567000    1.0226253    -7.429074    153.89061  0.022617668  0.022682207            5 
  568000    1.0223225   -7.4425603    153.79547  0.022563889  0.022665787            4 
  569000    1.0224319   -7.4338025    153.93451  0.022544597  0.022649293            5 
  570000    1.0113644   -7.4391353    154.25837  0.022552394  0.022632618            6 
  571000     1.024184   -7.4350045    154.89095  0.022605218   0.02261656            4 
  572000    1.0027818   -7.4537815    154.51152  0.022510419  0.022600643            5 
  573000    1.0301546   -7.4665596    154.48856  0.022467795  0.022584292            5 
  574000    1.0225349   -7.4416942    154.65194  0.022452373  0.022567523            4 
  575000    1.0416049    -7.454364    154.73601  0.022425509   0.02255082            4 
  576000    1.0296832   -7.4356205    155.23592  0.022458901  0.022534208           10 
  577000    1.0224687   -7.4371381    155.38576  0.022441618  0.022517679            9 
  578000    1.0111526   -7.4507985    155.63873  0.022439264  0.022501263            5 
  579000     1.031404    -7.463383    155.35636  0.022359867  0.022484779            6 
  580000    1.0157763   -7.4317653    155.37417  0.022323875  0.022468082            5 
  581000    1.0323521   -7.4537519    155.44324  0.022295359  0.022451404            3 
  582000    1.0048669    -7.445292    155.82701     0.022312   0.02243509            7 
  583000    1.0051977   -7.4666221    155.95806  0.022292461  0.022418523            4 
  584000    1.0237316    -7.427835    156.46402  0.022326487  0.022402057            2 
  585000    1.0272009   -7.4612533    156.52654  0.022297228  0.022385612            4 
  586000    1.0339219   -7.4454273    156.35761  0.022235155  0.022369042            6 
  587000    1.0273008   -7.4543024    156.45906  0.022211678  0.022352271            6 
  588000    1.0017645   -7.4385727    157.16909   0.02227453  0.022336187            3 
  589000    1.0107447   -7.4090021    157.46188  0.022278138  0.022320166            2 
  590000    1.0180353   -7.4413688    157.77312  0.022284339  0.022304243            3 
  591000    1.0298456   -7.4967109     157.1426  0.022157727  0.022288012            1 
  592000    1.0180847   -7.4670855    157.94477  0.022233217  0.022272084            5 
  593000    1.0310127    -7.464709     157.9848   0.02220135   0.02225622            5 
  594000   0.99203044   -7.4409772    158.32268  0.022211374  0.022240023            4 
  595000    1.0128162   -7.4999865    157.81573  0.022103043  0.022224159            5 
  596000    1.0069567    -7.522701    157.86876  0.022073372  0.022207922            4 
  597000    1.0172196   -7.5141469     158.2849  0.022094486  0.022191655           10 
  598000    1.0213451     -7.45979    158.27263  0.022055829  0.022175474            8 
  599000    1.0239047   -7.4655505    158.80394  0.022092924  0.022159407            5 
  600000    1.0021247   -7.4371656    159.67903  0.022177643  0.022143684            5 
  601000     1.010707   -7.4861218    159.21094  0.022075837   0.02212782            5 
  602000    1.0131333   -7.4901892     158.9781  0.022006936  0.022111907            4 
  603000    1.0086376   -7.4726303    159.22766  0.022004928  0.022095954            2 
  604000   0.98579929   -7.4947858    159.67445  0.022030139  0.022079912            2 
  605000    1.0422253   -7.4779588    159.85609  0.022018745   0.02206366            5 
  606000    1.0067494   -7.4802013    159.88269  0.021986068  0.022047534            4 
  607000    1.0238802   -7.4463583    160.00866  0.021967142  0.022031436            7 
  608000    1.0094593   -7.5259479    159.85018   0.02190929   0.02201513            4 
  609000    1.0099302   -7.4747648     160.3244  0.021938204  0.021998761            3 
  610000    1.0291289   -7.5282409    160.60052  0.021939962  0.021982461            2 
  611000     1.034547   -7.4868536    160.52991  0.021894423  0.021966227            6 
  612000    1.0009182   -7.4788085    161.09689  0.021935851  0.021950153            3 
  613000    1.0266193   -7.5222783    161.12494   0.02190388  0.021934213            3 
  614000    1.0281458   -7.5042863     161.1448  0.021870901  0.021918327            3 
  615000    1.0095244   -7.4672636     161.5746  0.021893578   0.02190265            3 
  616000    1.0237645   -7.4905673    161.59535  0.021860843  0.021886936            3 
  617000    1.0005447   -7.4479641    162.18757  0.021905398  0.021871126            5 
  618000    1.0042737    -7.507457    162.01886  0.021847203  0.021855453            3 
  619000    1.0090743   -7.4461444    162.47591  0.021873439   0.02183991            3 
  620000    1.0098589   -7.5004057    162.67543  0.021864977  0.021824244            6 
  621000    1.0176329   -7.5140188    162.30209  0.021779669  0.021808428            2 
  622000    1.0077733   -7.5103874    162.52577  0.021774621  0.021792587            9 
  623000    0.9955125   -7.4751449    162.47438  0.021732796  0.021776631            5 
  624000    1.0264591   -7.4812535    162.83063  0.021745544    0.0217606           13 
  625000   0.99684266   -7.5072166    162.71742  0.021695655  0.021744482            8 
  626000     1.012362   -7.5145735    162.92878  0.021689135  0.021728724            7 
  627000    1.0004541   -7.5117046    163.13651  0.021682152  0.021712912            2 
  628000     1.027342   -7.4930164      163.323  0.021672372  0.021697383            5 
  629000   0.99589634   -7.4828102    164.04746  0.021733898  0.021681728            4 
  630000    1.0027136   -7.5174765    163.74896  0.021659916  0.021666111           10 
  631000     1.020256   -7.4870223    164.19837   0.02168494  0.021650707            6 
  632000    1.0165169   -7.5091801    164.26178   0.02165899  0.021635413            7 
  633000   0.98806342   -7.4754893    164.60425  0.021669859  0.021620067            3 
  634000    1.0065828   -7.4822051    164.67896    0.0216455  0.021604909            4 
  635000    1.0099261   -7.5330089    164.71395  0.021616004  0.021589503            4 
  636000    1.0056893   -7.5425834    164.47492  0.021550697  0.021574073            5 
  637000    1.0104569   -7.5090591    165.04196  0.021591046  0.021558597            3 
  638000   0.99699795   -7.5429627    164.61963  0.021502042  0.021543105            3 
  639000    1.0068451   -7.5073651    164.98321  0.021515807  0.021527336            5 
  640000   0.99087061   -7.5491132    165.21175  0.021511946  0.021511546            4 
  641000    1.0142442   -7.4770868    166.03509  0.021585424   0.02149611            3 
  642000   0.99343829   -7.5002405    165.57618  0.021492236  0.021480529            4 
  643000   0.99549462    -7.523605    165.24854  0.021416348  0.021464974            9 
  644000   0.98943619    -7.500148    165.82314  0.021457446  0.021448967            7 
  645000   0.99002734   -7.4598891    166.27777  0.021482915  0.021433179            2 
  646000    1.0011497    -7.511962    165.86184  0.021396006  0.021417453            4 
  647000   0.99437535   -7.5108213    165.72367  0.021345141   0.02140138            4 
  648000    1.0107994   -7.5186429     165.4818  0.021281096  0.021385168            6 
  649000   0.97204906   -7.5658953    165.50486  0.021251266   0.02136865            5 
  650000   0.98765165   -7.5242091    166.30822  0.021321567  0.021352432            3 
  651000    0.9977547   -7.5306487    166.07588  0.021259073  0.021335955            7 
  652000   0.97916084   -7.5518566    166.00862   0.02121787   0.02131946            2 
  653000   0.97555678   -7.5513552    165.97924  0.021181628  0.021303081            2 
  654000   0.98265652   -7.5362066    166.28142  0.021187744   0.02128674            7 
  655000    1.0164889   -7.5411638    166.47219  0.021179668  0.021270615            6 
  656000    1.0031308   -7.5055703    166.96888  0.021210478  0.021254344            6 
  657000   0.99937681   -7.5160816    167.15462  0.021201753  0.021238225            5 
  658000    0.9899699   -7.5251119    167.03749  0.021154697  0.021221976            3 
  659000    1.0182633   -7.5358845    167.05352  0.021124624  0.021205677            6 
  660000   0.97432334   -7.5082827    167.64093  0.021166784  0.021189385            3 
  661000    1.0072242   -7.5367276    167.61093  0.021130979  0.021173085            4 
  662000    1.0041465   -7.5414081    167.60647  0.021098498  0.021156805           10 
  663000   0.99446071   -7.5814091    167.48154  0.021050973  0.021140438            2 
  664000   0.96585122   -7.5514363    167.75978   0.02105419  0.021124113            4 
  665000    1.0026805   -7.5168035    168.33623  0.021094766  0.021107911            2 
  666000   0.98385874   -7.5147007    168.24669  0.021051889  0.021091712            6 
  667000   0.96543231   -7.5062607    168.50085  0.021052081  0.021075201            2 
  668000    1.0102488   -7.5544828    168.30841  0.020996559  0.021058703            6 
  669000   0.98793622   -7.5285642    168.32199  0.020966865   0.02104213            2 
  670000   0.99669118   -7.5206563    168.46644  0.020953538  0.021025748            3 
  671000   0.97837074   -7.5336225    168.41321  0.020915699  0.021009324            5 
  672000    1.0024247   -7.5633191    168.20639  0.020858927  0.020992708           10 
  673000   0.97550818   -7.5986767    168.64217  0.020881894  0.020975843            4 
  674000   0.99546843    -7.572065    168.70749  0.020858987   0.02095907            4 
  675000   0.98608965   -7.5769488    169.02966   0.02086786  0.020942389            6 
  676000    0.9876513   -7.5390961    169.51008  0.020896213  0.020925872            3 
  677000   0.96523667   -7.5626498    169.15225  0.020821301  0.020909238            3 
  678000   0.94812319   -7.5733323    169.31496   0.02081059  0.020892598           18 
  679000   0.96795942   -7.5612129    169.86037  0.020846879  0.020876056           22 
  680000   0.99422698   -7.5657959    170.17349  0.020854595  0.020859876            4 
  681000    1.0060118   -7.5707092    169.55345  0.020748098  0.020843639            5 
  682000    0.9684478   -7.5730439    169.97084  0.020768675  0.020827359           16 
  683000   0.98375351   -7.5800518    169.86216  0.020725007   0.02081114           12 
  684000   0.97664714   -7.5514332    170.29275  0.020747168  0.020794818            4 
  685000   0.98266108    -7.577763    169.89688   0.02066872  0.020778502            6 
  686000   0.97028078   -7.6035172    170.06077    0.0206585  0.020761905            4 
  687000   0.98011951    -7.568116    170.61425  0.020695566  0.020745271            4 
  688000   0.97560039   -7.5841112     170.4071  0.020640395  0.020728747            9 
  689000    0.9842661   -7.5941035    170.65368  0.020640261  0.020712034            6 
  690000   0.95183486   -7.5665617    171.22608  0.020679479   0.02069557            2 
  691000   0.98370819   -7.5839492    170.27133   0.02053441   0.02067907            6 
  692000   0.97717751   -7.5963334    170.57359  0.020541136  0.020662666            5 
  693000    0.9631224   -7.6038734    170.78432  0.020536835  0.020646236            4 
  694000   0.96699719   -7.6028135    171.33637  0.020573532  0.020629814            5 
  695000   0.95649887    -7.601434    171.00025  0.020503627  0.020613333            4 
  696000   0.97442131    -7.582301    171.29567  0.020509539  0.020596672            3 
  697000   0.97782526   -7.6019335    171.16326  0.020464282  0.020580008            3 
  698000   0.97147575   -7.6031998    171.44366  0.020468441  0.020563305            5 
  699000    1.0014401   -7.6526055    171.25049  0.020416129  0.020546278            3 
  700000   0.94312438   -7.6343834    171.57298  0.020425354  0.020529354            6 
  701000   0.96679161   -7.5591284      172.034  0.020451022  0.020512706            3 
  702000   0.99407793   -7.5956217    171.90315  0.020406357  0.020496169            4 
  703000      0.98707   -7.5994583    172.07389  0.020397569  0.020479499            7 
  704000   0.99964922   -7.5999511    171.86522  0.020343894  0.020462945            5 
  705000   0.98976361   -7.5847845    172.24314   0.02035971  0.020446392            5 
  706000    0.9756933   -7.5675413    172.51904  0.020363437  0.020430057            4 
  707000   0.98708731   -7.5795616    172.66813  0.020352208  0.020413386            4 
  708000   0.97287259    -7.615299    172.28548  0.020278423  0.020396793            5 
  709000    0.9620636   -7.6135755    172.57277  0.020283588  0.020379781            4 
  710000   0.96737353   -7.6283854    172.24352  0.020216375  0.020363009           10 
  711000    0.9511798   -7.6267096    172.59068   0.02022863  0.020346186            4 
  712000   0.97880306   -7.6197116    172.82516  0.020227663  0.020329348            4 
  713000   0.96786878   -7.5911469    173.06483  0.020227306  0.020312626           12 
  714000   0.95449672   -7.6208248    172.97685  0.020188708  0.020295916            3 
  715000   0.96783356   -7.6336714    173.40213  0.020210039  0.020279505            6 
  716000   0.96628611   -7.5526042    174.30119  0.020286452  0.020263346            4 
  717000   0.96913857   -7.5869418    173.67462  0.020185334  0.020246978            3 
  718000   0.97881524   -7.5744459    173.75382  0.020166414  0.020230454           10 
  719000    0.9576653   -7.6163207    173.86817  0.020151619  0.020213914           14 
  720000   0.98529059   -7.6227069    173.77432  0.020112768  0.020197356            8 
  721000   0.96833072   -7.6094848    174.29588  0.020145154  0.020180646            9 
  722000   0.96288705   -7.6348006    174.06923  0.020091093  0.020164008            3 
  723000   0.93771865    -7.635426    174.43391  0.020105337  0.020147442            8 
  724000   0.97203916   -7.5807003    174.46536  0.020081187  0.020130966            4 
  725000   0.97495631   -7.5641793    175.02113  0.020117371  0.020114729            2 
  726000    0.9422857   -7.5948925     174.7802  0.020062006  0.020098472            5 
  727000   0.96252223   -7.5891595    175.30099  0.020094107   0.02008218            9 
  728000    0.9389849   -7.5896806    174.93548  0.020024665  0.020065819            7 
  729000   0.95877906   -7.6161588    174.62878  0.019962138  0.020049687            8 
  730000    0.9740952   -7.6045877    175.26371  0.020007272  0.020033579            3 
  731000   0.96920469   -7.6281699    175.48199  0.020004787  0.020017163            6 
  732000   0.97018029   -7.6272167    174.69726  0.019888122  0.020000639           13 
  733000   0.95679528   -7.6408374    174.96035  0.019890899  0.019983924            5 
  734000    0.9578553   -7.6664978    174.31184  0.019790173  0.019967146           14 
  735000   0.98018666   -7.6302631    175.85469  0.019938174  0.019950382            8 
  736000   0.98022992    -7.645073    175.05034  0.019820011  0.019933752            5 
  737000   0.96731505   -7.6672705      175.741  0.019871213  0.019917004            6 
  738000   0.96827231   -7.6589714    175.43916  0.019810203  0.019900335            4 
  739000   0.95648033   -7.6398075    176.06976  0.019854506  0.019883657            2 
  740000   0.98567893   -7.6269743    175.78939  0.019796103  0.019866855            3 
  741000   0.94313171   -7.6328996    176.21748  0.019817531  0.019850246            7 
  742000    0.9194802   -7.5703969    176.14624  0.019782822  0.019834038            5 
  743000   0.95431606   -7.5879453    176.54947  0.019801421  0.019817602            3 
  744000   0.95240379   -7.6425801    176.99786  0.019825029  0.019801363            6 
  745000   0.96816952   -7.6505647    175.70771  0.019654106  0.019785219            4 
  746000   0.94015278   -7.6298359    177.16188  0.019790201  0.019768981            7 
  747000   0.98403029   -7.6863282    176.33312  0.019671254  0.019752797            9 
  748000   0.97076639   -7.6428071    176.80244  0.019697242  0.019736609           10 
  749000   0.95040222    -7.677316    176.89259  0.019680973    0.0197204            7 
  750000   0.96335822   -7.6328296    176.92575  0.019658417  0.019704159            4 
  751000   0.95171733   -7.6141929    177.20404   0.01966312  0.019687878            7 
  752000   0.95488193   -7.6472203    177.65826  0.019687307  0.019671875            2 
  753000   0.95191252    -7.648508    177.96092  0.019694656  0.019655793            4 
  754000    0.9501159   -7.6815554    177.20431  0.019584915  0.019639488            9 
  755000   0.94644218   -7.6091032    178.18125  0.019666805  0.019623373            5 
  756000   0.93826826   -7.6198187    177.74135    0.0195923  0.019607204            7 
  757000   0.96623917   -7.6275869    178.12454  0.019608601  0.019591123            7 
  758000   0.94557825   -7.6471966    178.04694  0.019574202  0.019574938            4 
  759000    0.9283661   -7.6635377    177.76305  0.019517243  0.019558633            4 
  760000   0.95345022   -7.6543931    177.87455  0.019503788  0.019542167           10 
  761000   0.96882268   -7.6886629    177.92918  0.019484142  0.019525826            8 
  762000     0.956642   -7.6593197    178.23313  0.019491812  0.019509427           11 
  763000   0.95486864    -7.698118    178.04164  0.019445351  0.019493122           11 
  764000   0.94343643   -7.6905889    177.92222  0.019406874  0.019476655            7 
  765000   0.94184748   -7.6728488    178.24892  0.019417093  0.019460127            5 
  766000   0.93071377   -7.6689505    178.38833  0.019406911  0.019443846            7 
  767000     0.953817   -7.6304055    178.68401  0.019413734  0.019427709            7 
  768000   0.93786977   -7.6866607    179.15494  0.019439555  0.019411554            3 
  769000    0.9674306   -7.6521874    178.97995  0.019395313  0.019395446            5 
  770000   0.96953059   -7.6694811     178.5345  0.019321915  0.019379145            5 
  771000     0.957422    -7.696832    178.83163   0.01932897  0.019362822            4 
  772000   0.96145735   -7.6687598    179.19685  0.019343356  0.019346391            4 
  773000   0.94033023    -7.657158    179.08549  0.019306327   0.01933004            4 
  774000   0.97372774   -7.6769869    179.18735   0.01929235  0.019313913            5 
  775000   0.95438484   -7.6993603    178.93912  0.019240766  0.019297844            5 
  776000   0.94722366   -7.7115553    179.10474  0.019233757  0.019281458            5 
  777000   0.93120119   -7.6817983    179.50902  0.019252362  0.019265255            6 
  778000    0.9361731   -7.7066058    179.56937   0.01923408  0.019248875            6 
  779000   0.96095637    -7.705024    179.48168  0.019200008  0.019232408           16 
  780000   0.95087299   -7.7345926    179.43651  0.019170567  0.019215968            5 
  781000   0.92850518   -7.6737954    180.05751  0.019212283   0.01919962            6 
  782000   0.92439288   -7.6556083    180.19234  0.019202083  0.019183494            3 
  783000   0.93174795   -7.6593021    179.92401  0.019149001   0.01916748            5 
  784000    0.9169071   -7.6897111    180.66469  0.019203305  0.019151602            6 
  785000   0.94558845   -7.6905358    180.45676  0.019156768  0.019135628            4 
  786000    0.9461677   -7.6703166    180.70791  0.019159024   0.01911957            4 
  787000   0.94540021   -7.6414459    181.29012  0.019196328  0.019103636            2 
  788000   0.94313944   -7.6319005    181.38108  0.019181586   0.01908791            3 
  789000   0.94421481   -7.6698387    181.36973  0.019156076  0.019072239            7 
  790000   0.94026044   -7.6976295    180.36219  0.019025547  0.019056535            9 
  791000   0.95021391   -7.7115391    181.25012   0.01909504   0.01904064            5 
  792000   0.93494783   -7.6943098    181.48479  0.019095622  0.019024865            8 
  793000   0.95336288   -7.6792147    181.23568  0.019045364  0.019009182           11 
  794000   0.94036298   -7.6908329    181.22754  0.019020523  0.018993325            4 
  795000   0.91444159   -7.7261528    181.03083  0.018975978  0.018977499            5 
  796000   0.93098706   -7.6817966    181.57243  0.019008839  0.018961693            7 
  797000   0.94147332   -7.6795928    182.02801  0.019032624  0.018946007            6 
  798000   0.95305999   -7.6861745    181.93554  0.018999117  0.018930293            5 
  799000   0.92288343   -7.6921384     182.1141  0.018993961  0.018914535           18 
  800000   0.95453687   -7.6845289     182.0782  0.018966479   0.01889866            4 
  801000   0.93031967   -7.7090303    181.88573  0.018922777  0.018882955            4 
  802000   0.94428034   -7.7246958     182.0752  0.018918869  0.018867094           10 
  803000   0.93506607   -7.7269536    182.28144  0.018916713  0.018851271            5 
  804000   0.92408225   -7.7561243    182.01902  0.018865985  0.018835543            3 
  805000   0.93876912   -7.7018918    182.62759  0.018905547    0.0188199           12 
  806000   0.92632851   -7.7164451    182.36718  0.018855167  0.018804217            6 
  807000   0.90474859   -7.6889342     183.1532   0.01891297  0.018788694            5 
  808000   0.93334627   -7.7215901    182.40553  0.018812452  0.018773076            8 
  809000   0.93791868   -7.7075067     182.6498   0.01881436  0.018757594            5 
  810000   0.94100493   -7.7012837    182.77222  0.018803726  0.018742058            5 
  811000   0.91531279   -7.7058812    183.17114  0.018821531  0.018726523            6 
  812000   0.92996607   -7.6981269    183.28407  0.018809941  0.018710801            2 
  813000   0.93859848   -7.7292676    183.34095  0.018792635  0.018695225            6 
  814000   0.92948204   -7.7374291    183.46464  0.018782211  0.018679717            6 
  815000   0.92754472   -7.7436233    182.87909  0.018699294  0.018664144           10 
  816000   0.93823469   -7.7444744    183.39681  0.018729249  0.018648545            6 
  817000   0.93024646   -7.7532151    183.36817  0.018703404  0.018632959            4 
  818000   0.95537916   -7.7424266    183.46253  0.018690152  0.018617347            3 
  819000   0.91520065    -7.788456    183.19952   0.01864057  0.018601795            6 
  820000    0.9522391   -7.7660499    183.60331  0.018658873  0.018586227            4 
  821000   0.91978621   -7.7689423    183.53759  0.018629475  0.018570648            4 
  822000     0.944203   -7.7253605    184.12675   0.01866654  0.018555117            6 
  823000   0.93091335   -7.7124796    184.08504  0.018639635  0.018539892            5 
  824000   0.91833009   -7.7815698    183.81291  0.018589494  0.018524363            4 
  825000   0.93043501   -7.7387612    183.82252  0.018567931  0.018508758            6 
  826000   0.91540857    -7.731824    183.83147  0.018546355  0.018493208            9 
  827000   0.92163144   -7.7497644    183.84737  0.018525531  0.018477611            4 
  828000   0.92108582   -7.7456824    183.85593  0.018504019  0.018462013            7 
  829000   0.91377322    -7.735363    184.63406  0.018559917  0.018446435            9 
  830000   0.92116411   -7.7836022    183.46258  0.018419937  0.018430654            7 
  831000   0.90673925   -7.7736703    184.20295  0.018472016  0.018414792            3 
  832000   0.92812657   -7.7712194    184.32716  0.018462255  0.018398995            5 
  833000   0.90047399   -7.7415189    184.56473  0.018463859   0.01838323           22 
  834000    0.9483562   -7.7528655    184.93519  0.018478736  0.018367518           12 
  835000    0.9120664   -7.7277342    184.60673  0.018423826  0.018351986            7 
  836000   0.91727822   -7.7310616    185.12839  0.018453787  0.018336647           10 
  837000   0.92261273   -7.7640973    184.39327   0.01835855  0.018321164           11 
  838000   0.90059122   -7.7799323     184.8074  0.018377824  0.018305573           16 
  839000   0.91629545   -7.7622521    185.07958  0.018382954  0.018290139           16 
  840000   0.92737595   -7.7715675    185.11705  0.018364786  0.018274642            6 
  841000   0.92721892   -7.7762695    185.12489  0.018343726    0.0182594            7 
  842000   0.91729168   -7.7446079    185.86301  0.018394993   0.01824415            6 
  843000   0.90587549   -7.7410139    185.53753  0.018340997     0.018229           13 
  844000   0.91350818   -7.7921287    185.33104  0.018298878  0.018213753            9 
  845000   0.92162158   -7.7686773    185.75942   0.01831947  0.018198582            6 
  846000   0.91899241   -7.7960732    186.08929  0.018330309  0.018183269            7 
  847000   0.93038774   -7.7968104     185.5505  0.018255657  0.018168043            3 
  848000   0.92607506   -7.7530407    186.64952   0.01834213  0.018152799            4 
  849000   0.90970904   -7.8052675    185.54016  0.018211638  0.018137674            3 
  850000   0.92736891   -7.7626098    186.19158  0.018254076  0.018122455            3 
  851000   0.88310669   -7.7720932    186.70581  0.018282981  0.018107359            4 
  852000   0.93385526   -7.7593817    186.50645  0.018242024  0.018092335            6 
  853000   0.91917407   -7.7604848    187.03365  0.018272142  0.018077358            6 
  854000   0.89918512   -7.8176713    186.28192  0.018177392  0.018062185            2 
  855000   0.91094319   -7.7965248     186.4779  0.018175234  0.018046939           15 
  856000   0.90179344   -7.7546563    186.99669  0.018204506  0.018031867            5 
  857000   0.90712974   -7.7806453    186.89933  0.018173798  0.018016687            6 
  858000   0.92465473   -7.7768732    187.28379  0.018189956  0.018001776            7 
  859000   0.93868873   -7.7994482    186.72513  0.018114584  0.017986793            8 
  860000   0.89985386   -7.8080992    186.93396  0.018113755   0.01797176            6 
  861000   0.92405097   -7.8173004    186.92184  0.018091545  0.017956681            5 
  862000   0.90372947   -7.8125458    187.80719  0.018156147  0.017941839            3 
  863000   0.90228522   -7.7682905     187.8277   0.01813709  0.017927118            3 
  864000   0.92436645   -7.7568507    188.08159  0.018140585  0.017912483            3 
  865000   0.91190908   -7.7389026    188.02484  0.018114147  0.017897854            4 
  866000   0.89542367   -7.7637683    187.95706  0.018086708  0.017883325            7 
  867000   0.89935127   -7.8010066    187.99682  0.018069667  0.017868787           12 
  868000   0.89635523   -7.7695995    188.33041  0.018080877  0.017854213            9 
  869000   0.91305074   -7.7549613    188.52326  0.018078563  0.017839629            4 
  870000   0.92720898   -7.7997384    187.78151  0.017986735  0.017825009            7 
  871000   0.87691363   -7.7953646    188.59113  0.018043545  0.017810251            3 
  872000   0.89720608   -7.7918187     188.1427  0.017979998  0.017795406            8 
  873000   0.88774932   -7.8299518    188.32343  0.017976655  0.017780699            5 
  874000   0.90896321   -7.8016015     188.2601  0.017950048  0.017766013            5 
  875000   0.88406539   -7.8228769    187.88561  0.017893868  0.017751341           17 
  876000   0.91277295   -7.8234144    188.33866  0.017916539  0.017736513            5 
  877000   0.89427978   -7.8117181    188.51733  0.017913087  0.017721866           12 
  878000   0.88986782   -7.8414571    188.55746  0.017896494  0.017707087            7 
  879000   0.87522108   -7.8257054    188.62535   0.01788257  0.017692279            5 
  880000   0.91264722   -7.8508045    188.12015  0.017814408  0.017677351            7 
  881000   0.90105148   -7.8183402    188.52796  0.017832762  0.017662603            6 
  882000    0.9051955   -7.8272227    188.94361  0.017851815  0.017647871            6 
  883000   0.93156958   -7.8343766    188.50622  0.017790319   0.01763304            7 
  884000    0.9062266   -7.8237465    189.20838  0.017836386  0.017618232            8 
  885000   0.90577891   -7.8296365    189.10118  0.017806138  0.017603508            6 
  886000   0.88743182   -7.8248588    189.42715    0.0178167  0.017588905            7 
  887000   0.88524699   -7.8275619    189.08309  0.017764289  0.017574231            5 
  888000   0.92260537   -7.7881452    189.39845  0.017773879   0.01755949            4 
  889000   0.89061173   -7.8300661    189.20945  0.017736169  0.017544889            7 
  890000   0.91732488   -7.8098748    189.65977  0.017758406  0.017530444            4 
  891000   0.88207538   -7.8008721    189.36433  0.017710842  0.017515885            5 
  892000   0.87419348   -7.8323248    189.47567  0.017701389  0.017501313            8 
  893000   0.91516184   -7.8326569    189.64761  0.017697612  0.017486705           13 
  894000   0.88947238     -7.84492     189.2187  0.017637835  0.017472004            5 
  895000   0.90564169   -7.8663421    189.34599   0.01762998  0.017457191            7 
  896000    0.9072716   -7.8692749    189.01609  0.017579621  0.017442299            5 
  897000   0.89467908   -7.8424413    189.39353  0.017595088  0.017427541            5 
  898000   0.91271713   -7.8609869    189.78991  0.017612278   0.01741271            4 
  899000   0.88354098   -7.8067805    189.60902  0.017575919  0.017397879            8 
  900000   0.87583289    -7.822488    189.90741  0.017584019  0.017383118           12 
  901000   0.89560278   -7.8558892    189.63179  0.017539012  0.017368298            9 
  902000   0.89817755   -7.8601431     189.7649  0.017531865  0.017353329            6 
  903000   0.90717194   -7.8461974    190.04688  0.017538472   0.01733847            4 
  904000   0.91538363   -7.8252582    190.05828  0.017520122  0.017323706            3 
  905000   0.89798407   -7.8644396    189.78787  0.017475863  0.017308873            3 
  906000   0.89737804   -7.8253466    189.88721  0.017465711   0.01729407           12 
  907000   0.89829185     -7.85269    190.10342   0.01746632  0.017279184            8 
  908000   0.89484384   -7.8296253    190.15248  0.017451586  0.017264366            7 
  909000   0.87575933   -7.8331375    190.35957  0.017451372  0.017249553            5 
  910000   0.86847724    -7.856865    189.82603  0.017383336  0.017234682           18 
  911000   0.89128112   -7.8238107    190.60296  0.017435324  0.017219877           12 
  912000   0.89331343   -7.8374407    190.07637  0.017368089  0.017205032            5 
  913000   0.90771004   -7.8327509     190.3717  0.017376022  0.017190245            7 
  914000   0.89497382   -7.8663257    190.46638  0.017365644    0.0171755            9 
  915000   0.89188988   -7.8101147    191.26031  0.017418972   0.01716069            8 
  916000    0.8964953   -7.9108018    190.03222  0.017288229   0.01714588            6 
  917000   0.88757929   -7.8690632    190.47993  0.017310063  0.017130984            6 
  918000   0.90400079   -7.8939244    190.81889  0.017321976  0.017116092            6 
  919000   0.88891909   -7.8796257    190.64784  0.017287617  0.017101211            6 
  920000   0.89865811   -7.8642451    190.93022  0.017294404  0.017086451            4 
  921000   0.89600842   -7.8977376    190.70965  0.017255669  0.017071712           17 
  922000   0.88335656   -7.8723463     191.3782  0.017297379  0.017056984            6 
  923000   0.88658975   -7.8848713    190.75578  0.017222443  0.017042304            5 
  924000   0.91080033    -7.867529    190.99597  0.017225466  0.017027635           11 
  925000   0.90110604   -7.8685859    191.36794  0.017240355  0.017013076           13 
  926000   0.88896325    -7.874137    191.25899  0.017211932  0.016998434            6 
  927000     0.889767   -7.8562606    191.48596  0.017213769  0.016983844           10 
  928000   0.88325705   -7.8918726    191.34179  0.017182273  0.016969243           17 
  929000   0.86529605   -7.8341176    191.38266  0.017167443  0.016954557           13 
  930000   0.85992852   -7.8841657    191.36831  0.017147698  0.016939969           19 
  931000   0.89862051   -7.8667202    191.41652  0.017133595  0.016925244            7 
  932000   0.85001008   -7.9066115    191.69668  0.017140261  0.016910549           19 
  933000   0.87727069   -7.8892912    191.32089  0.017088325  0.016895771            9 
  934000   0.86445842   -7.9128352    191.05313  0.017046139  0.016881057           22 
  935000   0.89189087   -7.8934099    191.53971  0.017071275  0.016866266           25 
  936000   0.90109812   -7.9280013    191.12883  0.017016456  0.016851532           24 
  937000   0.88191427   -7.9357634    191.74577  0.017053164  0.016836741           15 
  938000   0.87609148   -7.8816601    191.89777  0.017048487  0.016822016           28 
  939000    0.8790969   -7.8976687    191.47018  0.016992383  0.016807334           11 
  940000   0.89114625   -7.8832164    192.36326   0.01705348  0.016792744           12 
  941000   0.87545821   -7.8804794    191.64208  0.016971491  0.016778108           14 
  942000   0.87468042   -7.8995913    191.94858  0.016980589   0.01676353           13 
  943000   0.87558746     -7.87047    192.24499  0.016988776  0.016749038           28 
  944000   0.86247888   -7.8900422    191.94559  0.016944349  0.016734441           27 
  945000   0.88321573   -7.9320766     192.0038  0.016931552  0.016719846           83 
  946000   0.86610811   -7.9283318    191.78651  0.016894512  0.016705174           30 
  947000   0.87197459   -7.8806807    192.20797   0.01691376  0.016690599           20 
  948000   0.84819852   -7.9081864    192.13508  0.016889511  0.016676097           41 
  949000   0.87634412   -7.8780163    193.08835  0.016955422  0.016661608           18 
  950000   0.88793152   -7.8903599    192.49732   0.01688573  0.016647103           51 
  951000   0.87612703   -7.8834005    192.78032  0.016892773  0.016632775           12 
  952000   0.86716443   -7.8995419    193.06167  0.016899656   0.01661844            6 
  953000   0.88749045     -7.91847    192.97628  0.016874456  0.016604082           15 
  954000   0.86166722   -7.8809485    193.58889   0.01691028  0.016589822           23 
  955000   0.86062215   -7.8705715    193.26072  0.016863937  0.016575671           25 
  956000   0.86878312    -7.919823    192.63699  0.016791928  0.016561334           29 
  957000    0.8773216   -7.9181663    192.95331  0.016801925   0.01654705           14 
  958000   0.86942702   -7.8998483    193.59173  0.016839921  0.016532812            7 
  959000   0.89084276   -7.9017211    192.88522  0.016760968  0.016518593            7 
  960000   0.85385709   -7.8922252    193.46376  0.016793729  0.016504456           10 
  961000   0.86002655   -7.9289522     193.4141  0.016771948  0.016490198            8 
  962000     0.873901    -7.947201    192.92462  0.016712112  0.016475927            6 
  963000   0.86459547    -7.969069    193.08408  0.016708557   0.01646167           13 
  964000   0.87489146   -7.8808858    193.33498  0.016712913  0.016447445           11 
  965000   0.87585657   -7.9333812    193.52514  0.016712015  0.016433202           16 
  966000   0.87426867    -7.925919    193.65369  0.016705805  0.016419041            6 
  967000   0.87088284   -7.9000943    193.82073  0.016702924  0.016404835            7 
  968000   0.88957119   -7.9401345    193.47737   0.01665611  0.016390502            6 
  969000    0.8679219   -7.9376965    193.90568  0.016675755  0.016376133           13 
  970000   0.87279762   -7.9249491    193.75962  0.016646015  0.016361807            4 
  971000   0.87050714   -7.9600871      193.194   0.01658033  0.016347515            6 
  972000   0.86415885   -7.9475641    193.47834  0.016587649  0.016333271           10 
  973000   0.85523518   -7.9169619    193.82276    0.0166001  0.016319085            6 
  974000   0.87723122    -7.932456    193.51089  0.016556374  0.016304878            8 
  975000   0.86530049   -7.9797042    193.73752  0.016558763  0.016290823           25 
  976000   0.86693887   -7.9597708     193.7165  0.016540001  0.016276637            6 
  977000   0.84653345   -7.9640039    193.92903    0.0165412  0.016262509            5 
  978000    0.8501362   -7.9579067    194.17305  0.016545079  0.016248415           15 
  979000   0.86426503   -7.9280696    194.34773  0.016543048   0.01623442            6 
  980000   0.86414804    -7.916544    194.57872  0.016545809  0.016220457           14 
  981000   0.86826144   -7.9113301    194.67285  0.016536939  0.016206541            4 
  982000   0.86173152   -7.9239885    195.03532  0.016550859  0.016192632            6 
  983000   0.86667258   -7.9125171    194.49486  0.016488204  0.016178709            3 
  984000   0.86227697   -7.9230045     194.4171  0.016464862  0.016164812            7 
  985000   0.86244095   -7.9704105    194.48613  0.016453988  0.016150917            7 
  986000   0.87995984   -7.9397943    195.20002  0.016497635  0.016137012           11 
  987000   0.87021801   -7.9595338    194.46855  0.016419161  0.016123158            9 
  988000   0.88234238   -7.9558017     194.6911  0.016421314    0.0161093            7 
  989000   0.86750559   -7.9427015    195.45867  0.016469386  0.016095433           11 
  990000   0.85000732   -7.9346249    194.98374  0.016412773   0.01608158            5 
  991000   0.83196004   -7.9549934    195.07433  0.016403828  0.016067615           12 
  992000   0.87064127   -7.9522088    194.68423  0.016354522  0.016053719           10 
  993000   0.85228369   -7.9539413    194.92777  0.016358491  0.016039892            6 
  994000   0.85549249    -7.902004    195.46048  0.016386693  0.016026164           12 
  995000   0.86578232   -7.9300644    195.30435  0.016357148  0.016012474            9 
  996000   0.85707701   -7.9364607    194.98873  0.016314318  0.015998723           13 
  997000   0.83439375   -7.9285012    195.34988  0.016328141   0.01598491           10 
  998000   0.85352068   -7.9485083    195.50706  0.016324905  0.015971131           12 
  999000   0.84961589   -7.9420862    195.43586  0.016302624  0.015957358           11 
 1000000    0.8603306   -7.9652563    195.24341  0.016270284  0.015943466            9 
 1001000   0.85609405   -7.9674103    194.86892  0.016222854  0.015929541           11 
 1002000   0.84448788   -7.9832699    195.20157  0.016234329  0.015915662            5 
 1003000     0.852729   -7.9546687    195.30751  0.016226945  0.015901724            4 
 1004000   0.85332388   -7.9682537    195.29359  0.016209627  0.015887768            5 
 1005000   0.84904656   -8.0061829    194.76758  0.016149883  0.015873654           11 
 1006000   0.85353032   -7.9807184    194.82448  0.016138542  0.015859629           11 
 1007000   0.86189224   -7.9749513    194.97258  0.016134772  0.015845632           10 
 1008000   0.85207968   -7.9686246    195.63034  0.016173143  0.015831692            8 
 1009000    0.8467651    -7.947435     195.6315   0.01615721  0.015817787            6 
 1010000   0.84363674   -7.9658096    195.42519   0.01612419  0.015803788            4 
 1011000   0.83980885   -7.9784131    195.10217  0.016081617  0.015789795            3 
 1012000   0.84199397   -7.9878868    195.47677  0.016096572  0.015775804           11 
 1013000   0.84454566   -8.0064936    195.30157  0.016066269   0.01576177            6 
 1014000   0.83648315   -7.9621274    195.53059  0.016069246  0.015747785            6 
 1015000   0.84763119   -7.9834975    195.55596  0.016055498  0.015733889            6 
 1016000   0.85730562   -7.9820388    195.37973   0.01602524  0.015719925           11 
 1017000   0.84946768   -7.9880986    195.27615  0.016000995  0.015705924           15 
 1018000   0.85074239    -8.010679    195.02146  0.015964429  0.015691832           12 
 1019000   0.85301207    -7.977922    195.56266  0.015993021  0.015677717           14 
 1020000   0.84736154   -7.9525938     195.7301  0.015991021  0.015663697           11 
 1021000   0.85022194   -7.9938271    195.30539  0.015940695  0.015649678            9 
 1022000   0.84564743   -7.9814323    195.31604  0.015925965  0.015635672            6 
 1023000   0.84003404   -7.9685806    195.82821  0.015952119  0.015621605            9 
 1024000   0.85281426   -7.9940344    195.25062  0.015889536  0.015607552           16 
 1025000     0.858078   -8.0080899     194.8977  0.015845341  0.015593436           12 
 1026000   0.85998086    -7.989095    195.73385  0.015897811  0.015579424           33 
 1027000   0.84970293   -8.0144512    195.66301  0.015876583  0.015565275            9 
 1028000   0.84534467   -8.0319597    195.37916  0.015838129  0.015551128           15 
 1029000   0.85474585   -8.0311488    194.88671  0.015782857  0.015536972           10 
 1030000     0.849623   -7.9521907    196.17678  0.015871908  0.015522938           17 
 1031000   0.84468904   -7.9915297    195.16624  0.015774834  0.015508885           11 
 1032000   0.82854179   -7.9880387    195.44685  0.015782207  0.015494875           11 
 1033000    0.8359302    -7.993799    195.36828   0.01576059  0.015480857            5 
 1034000   0.83510736   -7.9608167    196.03331  0.015798945  0.015466926            6 
 1035000   0.82917743   -7.9862688    195.52707  0.015742921  0.015453057            7 
 1036000   0.85588213    -7.998052    196.01269  0.015766786  0.015439196           10 
 1037000   0.84423964   -8.0120223    196.03728  0.015753558  0.015425237            8 
 1038000   0.83776394   -8.0076096    195.87076  0.015725013    0.0154113           24 
 1039000   0.84634898   -7.9993553    196.11956  0.015729833  0.015397311           13 
 1040000   0.83704865   -7.9978093     195.8249  0.015691097  0.015383388           27 
 1041000   0.84687691   -8.0102678    195.67527  0.015664047  0.015369496           34 
 1042000   0.83259607   -8.0290145    195.93776  0.015670006  0.015355565           32 
 1043000   0.81217198   -8.0265601    195.64006  0.015631197  0.015341677           31 
 1044000   0.82836342   -8.0483525    195.92094  0.015638644  0.015327795           53 
 1045000   0.83241433   -8.0360165    196.24233  0.015649308  0.015313933           17 
 1046000   0.82751849   -8.0485471    195.95258  0.015611263  0.015300057           28 
 1047000   0.82977403   -8.0465973    195.93456  0.015594919  0.015286209           31 
 1048000   0.85027066   -8.0114672    196.18203  0.015599716  0.015272349           17 
 1049000    0.8329889   -8.0555693    195.42386  0.015524615  0.015258508           40 
 1050000   0.83637919   -8.0317991    196.40232  0.015587485  0.015244643           54 
 1051000   0.83741686   -8.0587271    196.38553  0.015571323  0.015230821           40 
 1052000   0.82785882   -8.0576359    195.49401    0.0154859  0.015216927           49 
 1053000   0.83123069   -8.0468222    196.28696  0.015533947  0.015202983           53 
 1054000   0.84691671   -8.0202895    196.10881  0.015505124   0.01518909           35 
 1055000   0.82749774    -8.041631    196.60914  0.015529948  0.015175234           48 
 1056000   0.83029289   -8.0681627    195.76252  0.015448431  0.015161317           50 
 1057000   0.82983856   -8.0474945    195.92107  0.015446316   0.01514729           74 
 1058000    0.8306145   -8.0838824     195.7384  0.015417328  0.015133306           77 
 1059000   0.82798961   -8.0584514    195.90892  0.015416188  0.015119256           32 
 1060000   0.82671521   -8.0845584    195.79813  0.015392935  0.015105241           44 
 1061000    0.8289972   -8.0284552    196.32485  0.015419797  0.015091291           32 
 1062000   0.84563287   -8.1054762    195.27773  0.015323112  0.015077306           19 
 1063000    0.8185773   -8.0741036    195.60645  0.015334466   0.01506333           37 
 1064000   0.83371447   -8.0508558    196.02632  0.015352939  0.015049249           32 
 1065000   0.83998523   -8.0774473    195.40522  0.015289924  0.015035189           26 
 1066000   0.84645806   -8.0276969    196.34429  0.015348991  0.015021168           28 
 1067000   0.85235001   -8.0536021    195.92288  0.015301694  0.015007129           55 
 1068000   0.82138791   -8.0961767     195.3339  0.015241409  0.014993012           42 
 1069000   0.84596826   -8.0966018    195.28622  0.015223435  0.014978823           41 
 1070000   0.84050764    -8.078859    195.35271  0.015214386  0.014964588           43 
 1071000   0.82984024   -8.1007866    195.11017  0.015181308  0.014950355           39 
 1072000   0.80765661   -8.0660206    195.86199   0.01522559   0.01493608           73 
 1073000   0.81041784    -8.067483    195.57625  0.015189209  0.014921825           87 
 1074000   0.82281697   -8.0874934    195.64269  0.015180221  0.014907651           63 
 1075000   0.83134393    -8.103928    195.17179  0.015129596  0.014893512           41 
 1076000   0.81114663   -8.0929534    195.70895  0.015157137  0.014879412           45 
 1077000   0.84473385   -8.1208114    195.37318  0.015117083  0.014865227           59 
 1078000   0.83590818   -8.0937616    195.77205  0.015133894  0.014851167           46 
 1079000   0.81472827   -8.1060489    195.79863  0.015121921  0.014837071           52 
 1080000   0.84938839   -8.0686073    195.73443  0.015102965  0.014823007           52 
 1081000   0.81788001    -8.114231    195.61108  0.015079485  0.014808997           37 
 1082000   0.83747311   -8.0754297    196.22705  0.015112989  0.014794992           46 
 1083000   0.83811304   -8.0768985    195.93719   0.01507673  0.014780996           42 
 1084000   0.82421586   -8.0882281    195.58265  0.015035567  0.014766995           36 
 1085000   0.80864458   -8.0964595     196.2144   0.01507023  0.014753022           41 
 1086000   0.79757863   -8.0825119    195.94991  0.015036058    0.0147391           71 
 1087000   0.82628575   -8.1045663    195.74937  0.015006852  0.014725186          112 
 1088000   0.81549169   -8.1144111    195.58474  0.014980449   0.01471122           86 
 1089000   0.83642556   -8.1041408    195.94828  0.014994512   0.01469723           52 
 1090000   0.80841255   -8.1121924    195.59846   0.01495401  0.014683261           61 
 1091000   0.82982265   -8.1042386     196.1384  0.014981546  0.014669304           48 
 1092000   0.80992272   -8.0897047    196.24981  0.014976329  0.014655444           36 
 1093000   0.82892337   -8.0968824    196.17801  0.014957152  0.014641584           21 
 1094000   0.81839283   -8.0689499    196.70025  0.014983261  0.014627768           26 
 1095000   0.82337486   -8.0888454    196.26045  0.014936107  0.014613975           42 
 1096000   0.81928368   -8.0549135    196.81214  0.014964427  0.014600326           58 
 1097000   0.80173029   -8.0925718    196.14533  0.014900131   0.01458664           15 
 1098000   0.81094967   -8.0776722    196.58123  0.014919644   0.01457278           44 
 1099000    0.8013148   -8.1294188    195.87117  0.014852227  0.014558993           19 
 1100000   0.81256535   -8.1098695    196.04594  0.014851965   0.01454517           65 
 1101000     0.805937   -8.1224683    196.54028  0.014875892  0.014531322           54 
 1102000   0.81489713   -8.0918334     196.6682  0.014872066  0.014517577           52 
 1103000   0.80216388   -8.0766041    196.50779  0.014846463  0.014503929           32 
 1104000   0.81483638   -8.1182566    196.06376  0.014799499  0.014490197           26 
 1105000   0.80745776    -8.109181    196.31754  0.014805244  0.014476486           16 
 1106000   0.81092564   -8.1532521    196.39931  0.014798019  0.014462708           18 
 1107000   0.82910115   -8.1199165    195.88472  0.014745914  0.014448896           29 
 1108000     0.811516    -8.125783    196.18641  0.014755296  0.014435042           34 
 1109000    0.8203848   -8.1310225    196.12776  0.014737584  0.014421249           63 
 1110000   0.80342574   -8.1532429     195.8121  0.014700608  0.014407472           44 
 1111000   0.81099141   -8.1241643    196.52822  0.014741091  0.014393687           67 
 1112000   0.82247476   -8.1374612    196.24922  0.014706926  0.014379921           47 
 1113000   0.80307988   -8.0807765    195.88016  0.014666079  0.014366113           35 
 1114000   0.79253864   -8.0865726    196.75369  0.014718259  0.014352388           52 
 1115000   0.80866225   -8.0703295    196.47636  0.014684332  0.014338724           60 
 1116000   0.80328073   -8.1445817    196.03239  0.014638022  0.014325061           36 
 1117000   0.80304365   -8.0923042    197.38006   0.01472546  0.014311347           27 
 1118000   0.81722501   -8.1167933     196.4486   0.01464286  0.014297673           31 
 1119000   0.80202202   -8.1054985    196.19219  0.014610679  0.014283995           50 
 1120000   0.80017412   -8.1212757    196.50736  0.014621084   0.01427038           34 
 1121000   0.79551996    -8.109455    196.67452  0.014620467  0.014256777           16 
 1122000   0.78817696   -8.0841544    196.36787  0.014584661  0.014243156           18 
 1123000   0.80439773   -8.1053865     196.6993  0.014596268  0.014229531           16 
 1124000     0.815404   -8.1180307    196.37377  0.014559147  0.014215951           22 
 1125000   0.80951551   -8.0927919     197.2597   0.01461183  0.014202417           33 
 1126000   0.79810412   -8.1232319    196.43456  0.014537785  0.014188862           40 
 1127000   0.81395258    -8.116099    196.34691  0.014518405  0.014175276           37 
 1128000   0.79048647   -8.1036754    196.98476  0.014552657  0.014161751           41 
 1129000   0.79242242   -8.1290851    196.66151  0.014515907    0.0141482           43 
 1130000   0.79187354    -8.138433    196.53558  0.014493774  0.014134666           69 
 1131000   0.80934225   -8.0986828     196.9779   0.01451355   0.01412107           47 
 1132000   0.77535926   -8.1392183    196.62551  0.014474787  0.014107595           59 
 1133000   0.80314889   -8.1375452    196.94144  0.014485249  0.014094132           65 
 1134000   0.81457925   -8.1567394    196.43702  0.014435407  0.014080607           28 
 1135000   0.81157461   -8.1292371    196.79314  0.014448835   0.01406712           61 
 1136000   0.78903831   -8.1604148    196.60107  0.014422027  0.014053632           62 
 1137000   0.79119122   -8.1620774    196.51346  0.014402922  0.014040112           94 
 1138000   0.77536388   -8.1676866    196.76283  0.014408526  0.014026646           84 
 1139000   0.81839461   -8.1684105    196.16486  0.014352126  0.014013144           87 
 1140000   0.78457045   -8.1738805    196.62725  0.014373337  0.013999692           89 
 1141000   0.80955434    -8.164314    196.47017  0.014349268  0.013986233           90 
 1142000   0.80070612   -8.1512032    196.86176  0.014365278  0.013972754           85 
 1143000   0.79197637   -8.1791335    196.18475   0.01430335  0.013959293          112 
 1144000   0.79570617   -8.1473171     196.8921  0.014342373  0.013945832           52 
 1145000   0.79451101   -8.1718384    196.60421  0.014308894  0.013932411          109 
 1146000   0.80190516   -8.1794606    196.54262   0.01429193  0.013918989           94 
 1147000   0.79488138    -8.187644    196.85253  0.014301985  0.013905547          147 
 1148000   0.81455056   -8.1919621    196.43883  0.014259497  0.013892114          112 
 1149000   0.79643335   -8.1702656     195.9015  0.014208115  0.013878686          106 
 1150000   0.80161987   -8.2004522    197.10905  0.014283264   0.01386533          109 
 1151000   0.79493496   -8.1748972    197.32044   0.01428616  0.013851965          100 
 1152000   0.80493163   -8.2179185     196.1995  0.014192672  0.013838606          114 
 1153000   0.79058559   -8.1856309    196.65993  0.014213641  0.013825197          100 
 1154000   0.79740449   -8.1674959    197.31728  0.014248793  0.013811888           92 
 1155000   0.78906971   -8.1925702    196.93664  0.014208992  0.013798542          111 
 1156000   0.78084112   -8.1622276    197.22772  0.014217684  0.013785307          104 
 1157000   0.78736718   -8.2071119    196.79968  0.014174567  0.013772033          134 
 1158000   0.81093754   -8.2261471    196.71634  0.014156328  0.013758741          115 
 1159000       0.7939   -8.1944349    196.86621   0.01415489  0.013745442          128 
 1160000   0.79262303   -8.1946851    196.47365  0.014114486  0.013732165          111 
 1161000   0.78739847   -8.1734246    197.04251   0.01414316  0.013718891          143 
 1162000   0.77465644   -8.1896581    196.46293  0.014089424  0.013705629           99 
 1163000   0.79032402   -8.2280323    196.68276  0.014093061  0.013692398          112 
 1164000   0.80009441   -8.1865875    197.14065  0.014113735  0.013679201          139 
 1165000   0.79711771   -8.1756894    197.32615  0.014114889  0.013666056          164 
 1166000    0.8066333   -8.1988792    197.07289  0.014084683  0.013652878          141 
 1167000   0.78945728   -8.2266531    196.61204  0.014039705  0.013639656          135 
 1168000   0.80068313   -8.2137493    196.70899  0.014034603  0.013626447          132 
 1169000   0.78929424   -8.1780628    197.25171  0.014061285  0.013613269          133 
 1170000   0.80596174   -8.1926951    196.93951  0.014027031   0.01360003           94 
 1171000    0.7827705   -8.1910312    197.53085  0.014057134   0.01358684          112 
 1172000   0.78334968   -8.2017713    196.77033  0.013991065  0.013573632          164 
 1173000   0.77776182   -8.2046124    197.17937  0.014008196  0.013560435          160 
 1174000   0.77561839   -8.2013515    196.82636  0.013971207  0.013547233          148 
 1175000   0.78100791   -8.2120059    196.62571  0.013945086  0.013534037          186 
 1176000   0.80021851   -8.2078466    196.91078  0.013953428  0.013520874          171 
 1177000   0.78286512   -8.2381027    197.06627  0.013952582  0.013507663          202 
 1178000   0.77994068   -8.2195657    197.08369   0.01394197  0.013494404          160 
 1179000   0.77237304   -8.2263325    196.80097  0.013910162  0.013481171          201 
 1180000   0.78927529   -8.2575942    196.52919   0.01387918  0.013467952          169 
 1181000   0.77270585   -8.2187096    196.58622  0.013871452  0.013454754          165 
 1182000   0.77785264   -8.2151931    196.91967  0.013883225  0.013441549          156 
 1183000   0.78558404   -8.2435455    196.44114  0.013837781  0.013428353          177 
 1184000   0.78418071   -8.2396548    196.36064  0.013820428  0.013415158          190 
 1185000   0.79605617   -8.2396598     196.6439  0.013828685  0.013401985          143 
 1186000   0.77081954    -8.234345    196.55934  0.013811083  0.013388844          180 
 1187000   0.79018964    -8.230062    196.42175  0.013789789  0.013375748          154 
 1188000   0.77382423   -8.2457944     196.7116  0.013798513  0.013362633          188 
 1189000   0.78925624     -8.22895    196.35284  0.013761763  0.013349511          227 
 1190000   0.76266675   -8.2482516    196.31422  0.013747495  0.013336313          161 
 1191000   0.78090774   -8.2197659    196.65466  0.013759772  0.013323138          181 
 1192000   0.77505448   -8.2447999    196.93203  0.013767619  0.013310003          167 
 1193000   0.77967318   -8.2053885    196.98017  0.013759442  0.013296872          174 
 1194000   0.77548955   -8.2449531     196.6883  0.013727548  0.013283855          149 
 1195000    0.7900661    -8.256542    196.58285  0.013708707  0.013270816          183 
 1196000   0.78809005   -8.2775472    196.15486  0.013667423  0.013257713          197 
 1197000   0.80338172    -8.257291    196.31002  0.013666807  0.013244637          196 
 1198000   0.77732007   -8.2485886     196.6064  0.013676016  0.013231563          241 
 1199000    0.8040759   -8.2415854    196.68405  0.013670007  0.013218568          195 
 1200000   0.77660896   -8.2249073    196.30995  0.013632635  0.013205573          171 
 1201000   0.76506285   -8.2475716     196.7882  0.013654468  0.013192581          211 
 1202000   0.77431341   -8.2128841    196.71287  0.013637886  0.013179595          204 
 1203000   0.75904197   -8.2375662    196.59586  0.013618444  0.013166599          174 
 1204000   0.76996025   -8.2522059    196.70575  0.013614739  0.013153655          170 
 1205000   0.78747201   -8.2353782    196.71535  0.013604105   0.01314071          231 
 1206000   0.76443523   -8.2458539    196.92124  0.013607051   0.01312781          221 
 1207000   0.76021319   -8.2174087    196.59609  0.013573329  0.013114864          195 
 1208000   0.76563011   -8.2335543    196.59265  0.013561855  0.013101939          234 
 1209000    0.7799078   -8.2408161    196.70875   0.01355864   0.01308898          218 
 1210000   0.76375619   -8.2791065     196.2426  0.013515331  0.013076019          268 
 1211000   0.79325528   -8.2444969    197.05144   0.01355983  0.013063073          257 
 1212000   0.76536918   -8.2715392    196.66198  0.013521863  0.013050135          287 
 1213000   0.78707751   -8.2758283       196.51  0.013500275  0.013037209          325 
 1214000   0.76165708   -8.2786804    196.51409  0.013489435  0.013024346          344 
 1215000   0.77300856   -8.2783184    196.61469  0.013485232  0.013011448          312 
 1216000   0.76590117   -8.2729885    196.68121  0.013478701  0.012998547          282 
 1217000     0.774657   -8.2750522    196.91886  0.013483899  0.012985665          351 
 1218000   0.77643913     -8.29828    196.19904   0.01342358  0.012972778          316 
 1219000   0.77493803   -8.2747342    196.64251  0.013442884  0.012959869          292 
 1220000   0.75212034   -8.2845521    196.52568  0.013423885  0.012946982          379 
 1221000   0.76821658   -8.2930911     196.3626  0.013401761  0.012934091          380 
 1222000   0.75816744   -8.3106039    195.79944   0.01335239  0.012921195          353 
 1223000   0.76255281   -8.2611804    196.67687  0.013401259  0.012908297          318 
 1224000   0.76985856   -8.2923858    196.65229  0.013388636  0.012895378          384 
 1225000   0.76061888   -8.2870104    196.07344  0.013338329  0.012882475          364 
 1226000   0.75285535   -8.3238015    195.99113  0.013321855  0.012869552          363 
 1227000   0.77063904    -8.327276    195.83051  0.013300089   0.01285664          376 
 1228000    0.7684038   -8.3217716    196.23831  0.013316932  0.012843724          339 
 1229000   0.76456107   -8.3336819    196.20635  0.013303929  0.012830831          320 
 1230000   0.78035704   -8.2665212     196.5434  0.013315948  0.012817959          381 
 1231000   0.75904948   -8.2886754    196.32368  0.013290257  0.012805107          363 
 1232000   0.74825022    -8.338143     195.8852  0.013249811  0.012792247          415 
 1233000   0.75278742   -8.3408873    196.13347  0.013255844  0.012779434          348 
 1234000    0.7745121   -8.3330455    196.04943  0.013239427  0.012766608          353 
 1235000   0.76593543   -8.3360144    196.06652   0.01322986  0.012753799          359 
 1236000   0.73516659   -8.3152918    196.13608  0.013223845  0.012740955          330 
 1237000   0.76838191   -8.3345606    196.28142  0.013222947  0.012728162          345 
 1238000   0.75983219   -8.3306859    196.40267  0.013220427  0.012715376          334 
 1239000    0.7593489   -8.3432792    195.85503  0.013172924  0.012702603          323 
 1240000   0.75941446   -8.3410228    196.33951   0.01319486  0.012689847          344 
 1241000   0.76398101   -8.3274448     196.1049  0.013168473  0.012677133          341 
 1242000    0.7635309   -8.3319109    195.88992  0.013143446  0.012664406          415 
 1243000     0.748744   -8.3759124    195.86477  0.013131186  0.012651686          407 
 1244000   0.75676518   -8.3513834    196.19577  0.013142803  0.012638956          432 
 1245000   0.75784937   -8.3413981    196.25221  0.013136025  0.012626272          440 
 1246000   0.76927978   -8.3326963    196.17959  0.013120625  0.012613612          397 
 1247000   0.74224229   -8.3475535    196.22587  0.013113196  0.012600942          355 
 1248000     0.736355   -8.3241373    196.17882  0.013099547  0.012588276          382 
 1249000   0.76201538   -8.3611811    196.18559  0.013089511  0.012575633          436 
 1250000   0.76372785   -8.3447113    196.44451  0.013096301  0.012562978          423 
 1251000   0.75073027    -8.366205    196.35355  0.013079773  0.012550289          574 
 1252000   0.75356109   -8.3699732    195.83497  0.013034809  0.012537621          459 
 1253000   0.77637502   -8.3384203    196.40699  0.013062449  0.012524981          438 
 1254000   0.74126983   -8.3632928    196.04546  0.013028008  0.012512334          526 
 1255000   0.75186595   -8.3619277    195.81803  0.013002525  0.012499708          445 
 1256000   0.74213455   -8.3869428    195.61474  0.012978685  0.012487079          550 
 1257000    0.7582295   -8.3801001     195.8367  0.012983075  0.012474442          515 
 1258000   0.74937961   -8.3716438    196.25072   0.01300018  0.012461804          424 
 1259000   0.76341716   -8.3433922      195.937  0.012969089  0.012449179          470 
 1260000   0.74761621    -8.364705    195.92636  0.012958093  0.012436611          441 
 1261000   0.74453918   -8.3512526    196.00481  0.012953001  0.012424035          488 
 1262000   0.76670845   -8.3570206    196.43951  0.012971442  0.012411497          532 
 1263000   0.74604706   -8.3656586    195.71987  0.012913689  0.012398982          509 
 1264000    0.7494457   -8.3505551    195.78733   0.01290792  0.012386475          537 
 1265000   0.75811873   -8.4192788    195.64604  0.012888408  0.012373972          561 
 1266000   0.76145888   -8.3551347    195.91763  0.012896105  0.012361446          559 
 1267000   0.73796728   -8.4018113    195.83326  0.012880378  0.012348947          542 
 1268000   0.76749993   -8.3745421    195.68787  0.012860665  0.012336478          611 
 1269000   0.75022604   -8.3602374    195.65018  0.012848055  0.012323993          616 
 1270000   0.75041505   -8.3884407     195.6894  0.012840512  0.012311491          522 
 1271000   0.73884824   -8.3818834    195.71941  0.012832377  0.012299001          673 
 1272000    0.7604508   -8.3865804    195.62118  0.012815853  0.012286507          708 
 1273000   0.75256134   -8.3996381    196.09827  0.012837017  0.012274045          686 
 1274000   0.73838793   -8.4086143    195.94839  0.012817137  0.012261572          751 
 1275000   0.73738551   -8.3943646    195.86494   0.01280163   0.01224912          733 
 1276000   0.74181689   -8.4291343    195.52701  0.012769528  0.012236647          694 
 1277000   0.73455931   -8.3934463    195.82027  0.012778666  0.012224238          650 
 1278000   0.75222168    -8.409372    196.21752   0.01279457  0.012211827          700 
 1279000   0.74735973   -8.4236607     195.6173  0.012745459  0.012199423          667 
 1280000   0.72979495   -8.4182021    195.80483   0.01274771  0.012187032          651 
 1281000   0.74430794   -8.3951321    195.77086  0.012735549  0.012174651          719 
 1282000   0.75433255   -8.3967927    195.91681  0.012735102  0.012162268          721 
 1283000   0.73969533   -8.4281935    195.24375  0.012681459  0.012149909          726 
 1284000   0.74856396   -8.4241971    195.79401  0.012707295  0.012137553          684 
 1285000   0.72988445   -8.4078204    195.92479  0.012705888  0.012125213          783 
 1286000    0.7452473   -8.4024887    195.76742   0.01268581   0.01211287          667 
 1287000   0.74278739   -8.4303591    195.81182  0.012678828  0.012100553          789 
 1288000   0.72315587   -8.4160648    195.73278  0.012663871  0.012088269          752 
 1289000   0.75630951   -8.4239789    195.57972  0.012644151  0.012076005          692 
 1290000   0.74694433   -8.4102011    195.66899  0.012640116  0.012063732          768 
 1291000   0.73955302   -8.4287835    195.68564  0.012631399  0.012051484          805 
 1292000    0.7362228   -8.4259655    195.94014  0.012638038  0.012039248          848 
 1293000   0.73167652   -8.4255824    196.18395  0.012643977  0.012027034          765 
 1294000   0.73143826   -8.4152708    195.85057  0.012612737  0.012014851          795 
 1295000   0.73172099    -8.439041    195.78631  0.012598861  0.012002674          812 
 1296000   0.74284692   -8.4174769    195.73317  0.012585724  0.011990506          805 
 1297000   0.71499983   -8.4337153    195.54123  0.012563688  0.011978318          902 
 1298000   0.73530317   -8.4178267    195.32983  0.012540436  0.011966124          869 
 1299000   0.73059328   -8.4287872    195.70295  0.012554718  0.011953922          854 
 1300000   0.73323116    -8.447707    195.78487  0.012550312   0.01194177          809 
 1301000   0.73356492   -8.4557895    195.71388  0.012536118  0.011929622          925 
 1302000   0.73875673   -8.4756527    195.78493  0.012531037  0.011917483          958 
 1303000   0.72937858    -8.434187    195.83946  0.012524908   0.01190537          966 
 1304000   0.73983566   -8.4201566    196.04595  0.012528499  0.011893276          870 
 1305000   0.73017275   -8.4688278     195.6379  0.012492842  0.011881202          936 
 1306000   0.73339144   -8.4704751    195.37902  0.012466758  0.011869135          994 
 1307000   0.71810302   -8.4488667    195.84387  0.012486857  0.011857054          941 
 1308000   0.72694111   -8.4646277    195.37526  0.012447455  0.011845009         1045 
 1309000   0.73115541   -8.4640448    195.55731  0.012449536  0.011832945         1085 
 1310000   0.72210064   -8.4980451    195.38984  0.012429379   0.01182092         1085 
 1311000   0.73464845     -8.50293    195.34985  0.012417356  0.011808863         1019 
 1312000   0.73621225   -8.4846924    195.46619  0.012415282  0.011796827         1062 
 1313000   0.74358166   -8.4765715     195.4956  0.012407692  0.011784817         1108 
 1314000   0.74154154    -8.526377    194.85059  0.012357343  0.011772831         1147 
 1315000     0.736369   -8.5058664    195.37697  0.012381304  0.011760849         1100 
 1316000   0.73545826   -8.4854108    195.53949  0.012382186  0.011748869         1063 
 1317000   0.72650416   -8.4903416    195.60045  0.012376642  0.011736916         1079 
 1318000   0.72788775   -8.5054832    195.61594  0.012368231  0.011724995         1115 
 1319000   0.72656581   -8.4759441    195.34177  0.012341532  0.011713103         1089 
 1320000   0.73420521   -8.4635262    195.52997  0.012344064  0.011701234         1142 
 1321000   0.74096595   -8.4784509    195.78371  0.012350726  0.011689378         1100 
 1322000   0.74057895    -8.481888    195.39951  0.012317165  0.011677525         1111 
 1323000   0.73236079   -8.4801662    195.84073  0.012335647  0.011665708         1090 
 1324000   0.72228384   -8.4978241    195.56921  0.012309241  0.011653913         1100 
 1325000     0.740183   -8.4777919     196.0272  0.012328755  0.011642144         1143 
 1326000   0.72943482   -8.4976491    195.82517   0.01230676  0.011630409         1152 
 1327000   0.72301883   -8.4743252    195.56217   0.01228097  0.011618672         1125 
 1328000   0.72851104   -8.5130024     195.5597  0.012271568  0.011606911         1235 
 1329000   0.73511093   -8.4890682    195.57987  0.012263599   0.01159516         1140 
 1330000   0.72937708   -8.5109217    195.38904  0.012242421  0.011583422         1247 
 1331000   0.71488733   -8.5417205    195.52495  0.012241732  0.011571677         1209 
 1332000   0.71056903   -8.4808723    196.07035  0.012266663  0.011559942         1197 
 1333000   0.72676917   -8.4965167    195.65973  0.012231791  0.011548217         1221 
 1334000   0.72231897   -8.5234276    195.82777  0.012233119  0.011536498         1180 
 1335000   0.71835543    -8.515993    195.54704  0.012206432  0.011524794         1214 
 1336000   0.73789094   -8.5317214    195.61301   0.01220141  0.011513097         1195 
 1337000   0.72531161   -8.5164822     195.5313  0.012187191  0.011501385         1232 
 1338000    0.7228111   -8.4994478    195.58956  0.012181712  0.011489703         1154 
 1339000   0.72307611   -8.5017305    195.24657  0.012151268   0.01147804         1184 
 1340000   0.72175787   -8.5300241    195.32124  0.012146843  0.011466363         1224 
 1341000    0.7031479   -8.5426224    195.06279  0.012121724  0.011454719         1188 
 1342000   0.69614734   -8.5432371    195.65955  0.012149749  0.011443081         1238 
 1343000   0.71084381   -8.5334522    195.42021  0.012125851  0.011431449         1272 
 1344000   0.72661224   -8.5401146    195.20362  0.012103399  0.011419803         1331 
 1345000   0.70631857   -8.5215073    195.78225  0.012130251  0.011408157         1264 
 1346000   0.73174793   -8.5521738     195.5347  0.012105913  0.011396551         1294 
 1347000   0.71990381   -8.5395861    195.45987  0.012092296   0.01138495         1316 
 1348000   0.72282006   -8.5196781    195.91691   0.01211158   0.01137336         1278 
 1349000   0.72166424   -8.5589288    195.35128   0.01206766  0.011361769         1303 
 1350000   0.73576153   -8.5178387    195.52475  0.012069429  0.011350209         1307 
 1351000     0.703382   -8.5542178    195.31142  0.012047336  0.011338649         1382 
 1352000   0.70859982   -8.5464262    195.12763  0.012027097  0.011327082         1361 
 1353000   0.72507351   -8.5811848    195.08272  0.012015442  0.011315522         1279 
 1354000   0.71846514   -8.5315162    195.37353  0.012024467   0.01130395         1380 
 1355000   0.72520586   -8.5592657    194.86811  0.011984509  0.011292423         1392 
 1356000   0.73324341   -8.5665022    194.70626  0.011965724  0.011280889         1430 
 1357000   0.70266805   -8.5437964    195.36069  0.011997095  0.011269384         1393 
 1358000   0.71606962   -8.5581977    194.97285  0.011964461  0.011257886         1395 
 1359000   0.71683187   -8.5706943    195.22113  0.011970881  0.011246363         1409 
 1360000    0.7168863   -8.5776859    194.85764  0.011939806  0.011234881         1440 
 1361000   0.71099515   -8.5419163    195.24066  0.011954485  0.011223408         1480 
 1362000    0.6881357   -8.5850427    194.74499  0.011915381  0.011211938         1463 
 1363000   0.71140936   -8.5651549    195.10336   0.01192855  0.011200477         1480 
 1364000    0.7059604   -8.5535632    195.10352  0.011919814  0.011189022         1415 
 1365000   0.69927845   -8.5543096      195.058  0.011908303  0.011177569         1475 
 1366000   0.70991215   -8.5918465     194.7823  0.011882766  0.011166148         1508 
 1367000   0.71925519   -8.5586302    194.90348  0.011881461  0.011154734         1526 
 1368000   0.70557457   -8.5809364    194.87657  0.011871136  0.011143309         1465 
 1369000   0.72420064   -8.5472949    195.08797  0.011875333  0.011131906         1456 
 1370000   0.70880248   -8.5841284     195.0543  0.011864617  0.011120528         1556 
 1371000   0.72245296   -8.5944306    194.56583  0.011826272  0.011109175         1455 
 1372000   0.69710496   -8.5882141    194.72985  0.011827615  0.011097794         1450 
 1373000   0.69538532   -8.6063647    194.73763  0.011819473  0.011086431         1510 
 1374000   0.73276183   -8.5864032    195.04643  0.011829599  0.011075043         1534 
 1375000   0.70711461   -8.5821525    194.78675  0.011805257  0.011063716         1550 
 1376000   0.69017043   -8.5860348    194.94195  0.011806077   0.01105237         1600 
 1377000    0.7103944   -8.5863419    194.93152  0.011796873  0.011041044         1551 
 1378000   0.70639677   -8.5928232    194.37974  0.011754943  0.011029742         1593 
 1379000   0.70218993   -8.6263562    194.80528  0.011772134   0.01101843         1571 
 1380000   0.69129315   -8.5978701    194.84103  0.011765762   0.01100711         1564 
 1381000   0.70606314   -8.5917962    194.98016  0.011765639  0.010995808         1560 
 1382000   0.69179942   -8.6189745    194.88501  0.011751388  0.010984508         1507 
 1383000   0.69701842   -8.6035976    194.83426  0.011739832  0.010973226         1547 
 1384000   0.71514901   -8.5901861    194.88123  0.011734178  0.010961977         1576 
 1385000   0.70555213   -8.5882729    195.07759  0.011737521  0.010950741         1494 
 1386000   0.69324936   -8.6310758    194.69642  0.011706134  0.010939509         1590 
 1387000   0.68670791   -8.6347322     194.2675  0.011671924  0.010928285         1656 
 1388000   0.69385144   -8.6382847    194.39705  0.011671292  0.010917053         1700 
 1389000   0.69623499    -8.627349    194.71565  0.011682005  0.010905826         1622 
 1390000   0.68758458   -8.6208646     194.4785  0.011659382  0.010894598         1612 
 1391000    0.7022107   -8.5950232    194.90716  0.011676681    0.0108834         1562 
 1392000   0.68912903   -8.6247222    194.74197  0.011658403  0.010872212         1754 
 1393000   0.69780211   -8.6297329    194.68238  0.011646469  0.010861015         1661 
 1394000   0.70152409   -8.6402057    194.33357  0.011617263  0.010849872         1677 
 1395000    0.7024488   -8.6437122    193.96314  0.011586807  0.010838726         1589 
 1396000   0.68196555   -8.6230609    194.96966   0.01163859  0.010827619         1576 
 1397000   0.71238642   -8.6221339    194.90402  0.011626343  0.010816513         1702 
 1398000   0.68658204   -8.6352573    194.21892  0.011577189  0.010805422         1612 
 1399000   0.70125091   -8.6291815    194.49717  0.011585488  0.010794334         1646 
 1400000   0.68956038   -8.6442551    194.44232  0.011573948  0.010783245         1680 
 1401000   0.71298009   -8.6494211    194.89151  0.011592405  0.010772183         1722 
 1402000   0.69315707   -8.6347982    194.52705  0.011562473  0.010761113         1685 
 1403000   0.68886657   -8.6491507    194.56158  0.011556283  0.010750064         1750 
 1404000   0.69275827   -8.6473407    194.44419  0.011541084  0.010739012         1732 
 1405000   0.70345378     -8.62364    194.53369  0.011538179  0.010727988         1722 
 1406000   0.69429408   -8.6393913    194.28545  0.011515259  0.010716983         1791 
 1407000   0.69064107   -8.6771337    194.11584  0.011497029  0.010705977         1756 
 1408000   0.69870166   -8.6793938    194.24217  0.011496341  0.010694965         1754 
 1409000   0.68598035   -8.6568807    194.29293  0.011491184  0.010683964         1793 
 1410000   0.69015528   -8.6443075    194.51967  0.011496435  0.010672973         1815 
 1411000   0.70367493   -8.6611189    194.44484  0.011483867  0.010661996         1843 
 1412000   0.69232884   -8.6698326    194.50736  0.011479424  0.010651019         1902 
 1413000   0.66964846   -8.6740109    194.13868  0.011449557  0.010640042         1884 
 1414000   0.68362047   -8.6507473    194.32832  0.011452636  0.010629084         1844 
 1415000   0.67913184   -8.6602835    194.23893  0.011439277  0.010618115         1915 
 1416000   0.69892118   -8.6805783    193.99238  0.011416689  0.010607177         1873 
 1417000   0.69180097   -8.6619671    194.25456  0.011424051  0.010596232         1906 
 1418000   0.69326576   -8.6685527    194.27914  0.011417439  0.010585306         1895 
 1419000   0.68776297   -8.6851164    194.22064  0.011405957    0.0105744         1941 
 1420000   0.70125123   -8.6955118    194.60061  0.011420224  0.010563519         1862 
 1421000   0.69592805    -8.655321    194.42368  0.011401811  0.010552653         1946 
 1422000   0.69668251    -8.680331    194.47746  0.011396944  0.010541774         1976 
 1423000   0.67537234   -8.6829542    193.72772  0.011345029  0.010530916         1913 
 1424000   0.68282112   -8.6778185    194.04149  0.011355424  0.010520058         1910 
 1425000   0.69068723   -8.6603689    194.12602  0.011352399  0.010509218         1964 
 1426000   0.67603569   -8.6993958    194.03791  0.011339289  0.010498418         1841 
 1427000   0.68367717   -8.6843938    194.08846  0.011334295  0.010487608         1944 
 1428000   0.68298686   -8.6741731    194.10262  0.011327184  0.010476816         1974 
 1429000   0.68683728   -8.6708046    194.19334  0.011324547  0.010466025         1972 
 1430000   0.66714061   -8.6847525     193.8035   0.01129391  0.010455223         2052 
 1431000    0.6970595   -8.6761452    194.19489   0.01130881  0.010444444         2020 
 1432000   0.67784027   -8.6643966    193.88268  0.011282745  0.010433676         1882 
 1433000    0.6775647   -8.6880576    193.78415  0.011269141  0.010422916         1942 
 1434000   0.68450432   -8.6785126    194.04546  0.011276468  0.010412174         1951 
 1435000   0.68919352   -8.6787276    193.84168  0.011256776  0.010401432         1987 
 1436000   0.69254711   -8.6889057    194.29742  0.011275384  0.010390716         1958 
 1437000   0.66598833   -8.6779293    193.74478  0.011235489  0.010380021         2021 
 1438000   0.69330325   -8.6917875    194.13985  0.011250571  0.010369329         1948 
 1439000   0.70325109   -8.6784529    193.94008  0.011231183  0.010358665         1943 
 1440000   0.67691811   -8.6695113    193.96102  0.011224596  0.010348013         1960 
 1441000   0.66570444   -8.6735365    193.54194  0.011192571  0.010337377         1985 
 1442000   0.67557219   -8.6902219    194.07253  0.011215472  0.010326734         1935 
 1443000   0.66774555   -8.6673383    193.72271  0.011187498  0.010316101         1951 
 1444000   0.66570807    -8.700018    193.94878  0.011192797  0.010305479         1991 
 1445000   0.67338254   -8.6972782    193.88115   0.01118115  0.010294877         2053 
 1446000   0.68529337   -8.7125742    194.06086  0.011183775   0.01028429         2006 
 1447000   0.68273797    -8.694797    193.62261  0.011150807  0.010273704         1936 
 1448000   0.67980929   -8.7282492    193.97587  0.011163436  0.010263125         1933 
 1449000   0.67051262   -8.6885653    194.26391  0.011172297  0.010252562         2072 
 1450000   0.68168193   -8.7000567    193.88978  0.011143091  0.010242007         2031 
 1451000   0.68166285   -8.6852453    193.48781  0.011112325  0.010231475         2030 
 1452000     0.658736   -8.6938454    193.64818  0.011113876  0.010220951         2065 
 1453000   0.66828702   -8.6933783    193.98789  0.011125711  0.010210442         2011 
 1454000   0.68232951    -8.734349    193.73175  0.011103379  0.010199945         2047 
 1455000   0.67315166   -8.7211007    193.80159  0.011099747  0.010189439         2023 
 1456000   0.67772131   -8.7186704    193.73951  0.011088571  0.010178942         1961 
 1457000   0.67643895   -8.7134967    193.29897  0.011055763   0.01016845         2032 
 1458000   0.66878836   -8.7266219    193.41733  0.011054946  0.010157967         2081 
 1459000   0.68491533   -8.7364467     193.7846  0.011068346  0.010147505         2057 
 1460000   0.67565638   -8.7442566    193.33202  0.011034932  0.010137063         2102 
 1461000    0.6671435   -8.7266495    193.36468  0.011029243  0.010126644         2058 
 1462000   0.68860319   -8.7093432    193.35794  0.011021314  0.010116218         2072 
 1463000   0.66125877   -8.7377647    193.80795  0.011039414  0.010105802         2032 
 1464000   0.67324135   -8.7410895    193.50784   0.01101479  0.010095396         1998 
 1465000   0.66319641   -8.7270453    193.88026  0.011028456  0.010085013         1947 
 1466000   0.66920545   -8.7233518    193.52577  0.011000783  0.010074639         2035 
 1467000   0.66404639   -8.7268762    193.42046  0.010987302  0.010064262         1971 
 1468000   0.66332858   -8.7344107    193.34461  0.010975512   0.01005391         2112 
 1469000   0.66616826   -8.7228798    193.51363  0.010977628   0.01004355         2084 
 1470000    0.6519967   -8.7235908    193.49033   0.01096884  0.010033219         2031 
 1471000   0.66567235   -8.7426102    193.14469  0.010941802   0.01002289         2095 
 1472000   0.66105947   -8.7404357      193.882   0.01097611  0.010012563         2034 
 1473000   0.67484162   -8.7596332    193.68577  0.010957557  0.010002273         2071 
 1474000   0.67475601   -8.7135678    193.46254  0.010937502 0.0099919796         2088 
 1475000     0.662156   -8.7240023    193.44329     0.010929 0.0099817017         2067 
 1476000   0.66286039   -8.7386632    193.77835  0.010940512 0.0099714448         2108 
 1477000   0.67234148    -8.734152    193.69575  0.010928444 0.0099611891         2030 
 1478000   0.66626565   -8.7364612    193.73604  0.010923322 0.0099509437         2115 
 1479000   0.67547193   -8.7397299    193.42051  0.010898158 0.0099407152         2145 
 1480000   0.65029376   -8.7482666    193.13977  0.010874987  0.009930494         2152 
 1481000   0.67351356   -8.7594011    193.16071  0.010868822 0.0099202956         2049 
 1482000   0.65870272   -8.7473501    193.66786  0.010890006 0.0099100961         2111 
 1483000   0.65778107   -8.7607637    193.05552  0.010848254 0.0098999238         2056 
 1484000   0.66885423   -8.7377014    193.52814  0.010867483 0.0098897509         2079 
 1485000   0.65387656    -8.750556    192.98293   0.01082957 0.0098795943         2096 
 1486000   0.66612087   -8.7375683    193.56138  0.010854721  0.009869444         2127 
 1487000   0.66021911   -8.7726105    193.70561  0.010855504 0.0098593112         2120 
 1488000   0.66439508   -8.7428204    193.34625  0.010828083 0.0098491877         2079 
 1489000   0.66671883   -8.7648196    193.32276  0.010819496 0.0098390831         2071 
 1490000   0.65317529   -8.7263236    193.18276  0.010804405  0.009828985         1977 
 1491000    0.6662183   -8.7608309    193.39886  0.010809236 0.0098189019         2074 
 1492000   0.66317432   -8.7250805    193.31167  0.010797122 0.0098088371         2061 
 1493000    0.6665694   -8.7341399    193.39888  0.010794758 0.0097987958         2056 
 1494000   0.66783271   -8.7347712    193.38304  0.010786649 0.0097887624         2024 
 1495000   0.64962658   -8.7611409    193.02782  0.010759633  0.009778733         2071 
 1496000   0.64690383   -8.7666081    193.37857  0.010771979 0.0097687159         2125 
 1497000   0.66161531   -8.7603686    193.49302  0.010771155 0.0097587021         2164 
 1498000   0.66199443   -8.7610224    193.44002  0.010761016 0.0097487078         2135 
 1499000   0.64766304   -8.7538581    193.47034  0.010755522 0.0097387251         2177 
 1500000   0.63626731   -8.7654748    193.16071   0.01073115 0.0097287573         2058 
 1501000    0.6403463   -8.7529405    192.98682  0.010714347 0.0097188145         2172 
 1502000   0.64967585    -8.749159    192.97632  0.010706631 0.0097088761         2160 
 1503000   0.66533478   -8.7650037     193.1492  0.010709093 0.0096989434         2065 
 1504000   0.65387291    -8.765241    193.14321  0.010701641 0.0096890195         2114 
 1505000   0.65151005   -8.7427296    192.91436  0.010681858 0.0096791177         2152 
 1506000    0.6588145   -8.7631198    193.17352  0.010689106 0.0096692428         2136 
 1507000   0.65404519   -8.7398691    193.14231  0.010680287 0.0096593778         2151 
 1508000   0.64993968   -8.7600926     193.1176  0.010671839 0.0096495253         2109 
 1509000   0.64255167   -8.7479399    193.30974  0.010675378 0.0096396721         2143 
 1510000    0.6609787    -8.749746    193.27808  0.010666561 0.0096298321         2099 
 1511000   0.63983818   -8.7537328     193.7373  0.010684828 0.0096200057         2136 
 1512000   0.64090153   -8.7585704    193.43434  0.010661064 0.0096101874         2146 
 1513000    0.6567764   -8.7412707    193.33211  0.010648387 0.0096003834         2181 
 1514000   0.64760385   -8.7492814    193.25038  0.010636855 0.0095906025         2051 
 1515000    0.6519999   -8.7775864    193.49823  0.010643467 0.0095808361         2167 
 1516000   0.64986772   -8.7448117     193.0913  0.010614078 0.0095710703         2165 
 1517000   0.65477881   -8.7881061    193.27356  0.010617093 0.0095613194         2167 
 1518000   0.64298868   -8.7751946    193.39639  0.010616842 0.0095515734         2121 
 1519000    0.6400008    -8.776911    193.10999   0.01059414 0.0095418367         2130 
 1520000   0.65965317   -8.7639793    193.07749  0.010585389 0.0095321068         2165 
 1521000   0.65754221   -8.7912189    192.94326  0.010571075 0.0095223879         2217 
 1522000   0.63236696   -8.8024065    193.18098  0.010577145 0.0095126776         2167 
 1523000   0.63921169   -8.7667828     193.0677  0.010564002 0.0095029908         2152 
 1524000    0.6301004   -8.7804337    193.02121  0.010554528 0.0094933121         2116 
 1525000   0.64206586   -8.7780369    193.36468  0.010566376 0.0094836582         2203 
 1526000    0.6523873   -8.7732038    193.48182  0.010565848 0.0094740085         2196 
 1527000    0.6275007    -8.762159    193.02173  0.010533821 0.0094643712         2187 
 1528000   0.64738169   -8.8033048    192.92815  0.010521823 0.0094547421         2153 
 1529000   0.64007994   -8.7562667    193.10025  0.010524321 0.0094451276         2242 
 1530000   0.64887962   -8.7615558    192.95999  0.010509803 0.0094355218         2139 
 1531000   0.63394847   -8.7665727     193.1408   0.01051278 0.0094259259         2152 
 1532000   0.64256834   -8.7609158    193.23086  0.010510817 0.0094163469         2122 
 1533000   0.63407256   -8.7811046    192.98887  0.010490806  0.009406775         2109 
 1534000   0.64001942   -8.7780695    192.96036  0.010482418 0.0093972096         2151 
 1535000   0.63650816    -8.785036    193.12799   0.01048469 0.0093876561         2162 
 1536000   0.63911562   -8.7891634    192.99026  0.010470391  0.009378129         2193 
 1537000   0.63935715   -8.7666882    193.29031  0.010479848 0.0093686074         2199 
 1538000   0.64581126   -8.7756165     193.1533   0.01046561 0.0093591094         2149 
 1539000   0.65745309   -8.7848148    192.99821  0.010450412  0.009349618         2180 
 1540000   0.63195362   -8.7674287    192.92352  0.010439584 0.0093401476         2203 
 1541000   0.63751325    -8.797958    192.65196  0.010418125 0.0093306704         2234 
 1542000   0.64315472   -8.7727088    193.39276  0.010451403 0.0093212278         2250 
 1543000   0.63574436   -8.7986258    192.97462  0.010422047 0.0093117883         2231 
 1544000   0.63541578   -8.7732101    192.83803  0.010407925 0.0093023539         2255 
 1545000   0.63445359   -8.8014904    192.72858  0.010395285 0.0092929288         2194 
 1546000   0.64298495   -8.7834877    193.27223  0.010417865 0.0092835204         2231 
 1547000   0.63343232   -8.7925949    192.62044   0.01037602 0.0092741168         2208 
 1548000   0.63129304    -8.806038     192.7509  0.010376341 0.0092647287         2272 
 1549000   0.63887478   -8.7890453     192.6257  0.010362906 0.0092553434         2207 
 1550000   0.63317859   -8.7606481    193.08588  0.010380961 0.0092459687         2172 
 1551000   0.62396051   -8.8006384    192.92754  0.010365761 0.0092366144         2280 
 1552000    0.6236176   -8.7939787    193.08604  0.010367592 0.0092272575         2292 
 1553000   0.63653867   -8.8163895     192.6723  0.010338715 0.0092179188         2323 
 1554000   0.63986325   -8.7827276    192.83948  0.010341027 0.0092085905         2272 
 1555000   0.63996825   -8.8021956    193.06828  0.010346639 0.0091992714         2294 
 1556000   0.63557355   -8.7771864    192.80623  0.010325955 0.0091899653         2270 
 1557000   0.63551027   -8.7887764    192.41162  0.010298203 0.0091806756         2287 
 1558000   0.63008284   -8.7926361    192.90213  0.010317829 0.0091713986         2359 
 1559000   0.62462652   -8.8022501     193.1943  0.010326828 0.0091621367         2268 
 1560000   0.62653918   -8.7903116    192.82423   0.01030044  0.009152872         2318 
 1561000   0.63725512   -8.8004946    193.04781  0.010305777 0.0091436156         2314 
 1562000    0.6293889   -8.8025495    192.66131  0.010278559 0.0091343665         2274 
 1563000   0.64189436   -8.8033694    192.86383  0.010282781 0.0091251365         2262 
 1564000   0.63366822   -8.7925549    192.55246  0.010259615 0.0091159183         2411 
 1565000   0.63081484   -8.8199513    192.72378  0.010262182 0.0091067168         2318 
 1566000   0.63346517   -8.8075369    192.81195  0.010260321  0.009097535         2342 
 1567000   0.61241573   -8.7990669     192.8134   0.01025385 0.0090883581         2330 
 1568000    0.6320668   -8.8063527    192.85535  0.010249541 0.0090791961         2247 
 1569000   0.64070969   -8.8118555    192.67332   0.01023334 0.0090700303         2339 
 1570000   0.62653246   -8.8267938    192.88279   0.01023794 0.0090608891         2264 
 1571000   0.62071959   -8.8030005    192.54648  0.010213584 0.0090517519         2363 
 1572000   0.62234171   -8.8107249    192.94978  0.010228466 0.0090426256         2337 
 1573000   0.63920061   -8.8262835    192.85058  0.010216708 0.0090335102         2347 
 1574000   0.62906639   -8.8211307    193.13023  0.010225023 0.0090244155         2289 
 1575000   0.61352891    -8.836512    192.89682  0.010206181 0.0090153289         2415 
 1576000   0.62519576   -8.8207404    192.48562  0.010177962 0.0090062393         2318 
 1577000   0.61914156    -8.810722    192.32463  0.010163001  0.008997186         2379 
 1578000   0.63378765   -8.7922907    192.92601  0.010188319 0.0089881301         2266 
 1579000   0.63258219   -8.8383622    192.80146  0.010175294 0.0089790757         2371 
 1580000   0.61266677   -8.8214072     192.8504  0.010171434 0.0089700309         2413 
 1581000   0.63463035   -8.8300748    192.48441   0.01014571 0.0089610007         2359 
 1582000   0.63086161   -8.8286199    192.71973  0.010151693 0.0089519719         2358 
 1583000   0.59996863   -8.8132061    192.38019  0.010127405 0.0089429525         2419 
 1584000   0.61559775   -8.8312596    192.64531   0.01013496 0.0089339522         2348 
 1585000   0.61138389   -8.8380429    192.72503  0.010132756 0.0089249631         2417 
 1586000   0.62136624   -8.8303327    192.52007  0.010115599 0.0089159886         2367 
 1587000   0.62605691    -8.847006    192.47407  0.010106809 0.0089070481         2386 
 1588000   0.61040307   -8.8257713    192.70491  0.010112558  0.008898092         2440 
 1589000   0.60923057    -8.823312    192.57727    0.0100995 0.0088891578         2466 
 1590000   0.62948707   -8.8018828    192.41654  0.010084724 0.0088802182         2371 
 1591000   0.62946469   -8.8254961    192.64894  0.010090559 0.0088712986         2389 
 1592000   0.60320528   -8.8137202     192.5276  0.010077868 0.0088623944         2407 
 1593000   0.62937177    -8.838065    192.51733  0.010071005 0.0088534944         2423 
 1594000   0.60786693   -8.8176088    192.37537  0.010057265 0.0088446176         2451 
 1595000   0.60396011   -8.8289483     192.6848  0.010067126  0.008835749         2348 
 1596000    0.6134829   -8.8156838    192.86889  0.010070431  0.008826892         2418 
 1597000   0.61313107   -8.8441473    192.49066  0.010044389 0.0088180494         2372 
 1598000   0.63038986   -8.8299916    192.86776  0.010057768 0.0088092251         2420 
 1599000   0.60927885   -8.8232507    192.41347  0.010027802 0.0088004117         2323 
 1600000   0.60323608   -8.8357169    192.17895   0.01000932 0.0087915928         2404 
 1601000   0.62624375    -8.845771    192.49949  0.010019753 0.0087827848         2463 
 1602000   0.61115928   -8.8468621    192.34052  0.010005229 0.0087739888         2442 
 1603000   0.61751008   -8.8701778    192.38204  0.010001146 0.0087652048         2489 
 1604000    0.6076245   -8.8305677    192.62572  0.010007571 0.0087564275         2400 
 1605000   0.61566671   -8.8300801    192.42282 0.0099908006 0.0087476514         2450 
 1606000   0.60061047   -8.8549282    192.63308 0.0099954898 0.0087388998         2486 
 1607000   0.60883483   -8.8416004    192.33639 0.0099738846 0.0087301577         2380 
 1608000    0.6103723   -8.8596376     192.2613 0.0099637906 0.0087214332         2402 
 1609000   0.61558995    -8.866309    192.54631 0.0099723594 0.0087127033         2481 
 1610000   0.60593506   -8.8437745    192.15597 0.0099459612 0.0087039991         2354 
 1611000   0.59924463   -8.8571318    192.42053 0.0099534723 0.0086953048         2399 
 1612000   0.60981645   -8.8525927    192.21875 0.0099368668 0.0086866168         2419 
 1613000   0.61211698   -8.8414367    192.53442 0.0099470148   0.00867792         2457 
 1614000    0.6010233   -8.8346189    192.52406 0.0099403171 0.0086692628         2381 
 1615000   0.60663263   -8.8522206    192.21046 0.0099179806 0.0086606047         2460 
 1616000   0.61472359   -8.8492878     192.1503 0.0099087408 0.0086519652         2420 
 1617000   0.61286468    -8.853066    192.42665 0.0099168549 0.0086433262         2366 
 1618000   0.60711349    -8.862072    192.36595 0.0099075993 0.0086346934         2439 
 1619000   0.60915972   -8.8725577    192.44853 0.0099057305  0.008626078         2488 
 1620000    0.6089049    -8.856269     192.3564 0.0098948764 0.0086174739         2421 
 1621000   0.60709528   -8.8604608    192.38325 0.0098901525 0.0086088718         2394 
 1622000   0.59072133   -8.8399735    192.55022 0.0098926337 0.0086002835         2402 
 1623000   0.61436041   -8.8319487    192.16887 0.0098669576 0.0085917116         2457 
 1624000   0.61460182   -8.8412527    192.26677 0.0098659057 0.0085831529         2402 
 1625000    0.6117111   -8.8401133    192.77596 0.0098859468 0.0085746096         2493 
 1626000   0.60174457   -8.8514368    192.65925 0.0098738854 0.0085660735         2469 
 1627000   0.60519302    -8.865447     192.0817 0.0098382348 0.0085575475         2468 
 1628000   0.60419641    -8.866939    192.15948 0.0098361734 0.0085490384         2424 
 1629000   0.59817985   -8.8492924    192.19641 0.0098320242 0.0085405326         2437 
 1630000   0.59238487   -8.8607404      192.391 0.0098359409 0.0085320414         2410 
 1631000   0.60215755   -8.8579798    192.21563 0.0098209499 0.0085235578         2438 
 1632000   0.58794101   -8.8665418     192.2191 0.0098151094  0.008515079         2428 
 1633000   0.59781573    -8.858834    192.15639 0.0098058988  0.008506603         2398 
 1634000   0.58906577   -8.8775721    192.25047 0.0098046956 0.0084981581         2480 
 1635000   0.60057611   -8.8698526    192.28476 0.0098004464 0.0084897099         2422 
 1636000   0.59830575   -8.8713662    192.18635 0.0097894431 0.0084812848         2354 
 1637000    0.5982223   -8.8606714    192.24917 0.0097866611 0.0084728618         2453 
 1638000   0.59383051   -8.8786031     192.5071 0.0097938086 0.0084644494         2370 
 1639000   0.60003959   -8.8738611    192.20273 0.0097723579 0.0084560431         2475 
 1640000   0.60560931   -8.8800926    191.81588 0.0097467417 0.0084476458         2472 
 1641000   0.58966187   -8.8588405    192.04795 0.0097525872 0.0084392627         2465 
 1642000   0.60851371   -8.8748852    192.09913 0.0097492453 0.0084308879         2536 
 1643000   0.60383429   -8.8776155    192.23691 0.0097502999 0.0084225186         2468 
 1644000   0.59564407   -8.8937219    192.11035 0.0097379537 0.0084141606         2458 
 1645000   0.59894106   -8.8746602    192.17971 0.0097355475 0.0084058016         2484 
 1646000   0.58011065   -8.8825458    191.94885 0.0097179449 0.0083974668         2401 
 1647000   0.59649889   -8.8845104    192.25947 0.0097277612 0.0083891411         2398 
 1648000   0.60573992   -8.8528879    191.93037 0.0097052169 0.0083808354         2459 
 1649000   0.59263553   -8.8741128    191.98062 0.0097018708 0.0083725305         2531 
 1650000   0.59740082   -8.8760653    192.33952 0.0097141173 0.0083642342         2426 
 1651000   0.59652102   -8.8728562    192.04798 0.0096935183 0.0083559526         2401 
 1652000   0.58977052   -8.8876383    192.34544 0.0097026556 0.0083476771         2382 
 1653000   0.60559469   -8.8989624    192.29973 0.0096944812 0.0083394126         2389 
 1654000    0.5900914   -8.8943296    192.15228 0.0096811909 0.0083311725         2395 
 1655000   0.58896638   -8.8974718    191.87595 0.0096614272 0.0083229396         2510 
 1656000   0.59620746   -8.9090769     192.0121 0.0096624447 0.0083147171         2518 
 1657000   0.57904209   -8.8829917    192.20719 0.0096664249 0.0083065027         2437 
 1658000   0.58727421   -8.8824484    192.06369 0.0096533821 0.0082983023         2495 
 1659000   0.58859738   -8.8723175    192.16141 0.0096524719   0.00829011         2491 
 1660000   0.59315729   -8.8789552    192.04533   0.00964083 0.0082819214         2456 
 1661000   0.59881855   -8.9060281    192.08208 0.0096368693 0.0082737526         2551 
 1662000   0.59080964   -8.8868756    192.15261 0.0096346072  0.008265584         2490 
 1663000   0.58209337    -8.892808     191.6936 0.0096058126 0.0082574355         2449 
 1664000     0.595236   -8.9004854    192.03877 0.0096173264 0.0082492949         2457 
 1665000   0.58398243   -8.8813431    192.02475 0.0096108483  0.008241158         2371 
 1666000   0.59323692   -8.8866461    191.89463 0.0095985711 0.0082330265         2455 
 1667000   0.58509159   -8.8976309    191.78165 0.0095871649 0.0082249113         2532 
 1668000   0.58724926   -8.8735422    192.44679 0.0096146478 0.0082168028         2506 
 1669000   0.58716718   -8.8912488    192.00801 0.0095869789 0.0082087131         2526 
 1670000   0.58077449   -8.8810356    191.98699 0.0095801892  0.008200623         2489 
 1671000   0.59133764   -8.8794404    192.17926 0.0095840446 0.0081925463         2489 
 1672000   0.58014075   -8.8882149    192.04504 0.0095716228 0.0081844788         2493 
 1673000   0.59699717   -8.8900179    191.98134 0.0095627286 0.0081764212         2583 
 1674000   0.58320315   -8.9153278    191.73089 0.0095445485 0.0081683696         2569 
 1675000   0.59145737   -8.9002853    192.17881 0.0095611347  0.008160334         2530 
 1676000   0.56015409   -8.9053166    192.10122 0.0095515724 0.0081523077         2510 
 1677000   0.59284807   -8.8865587    191.80553 0.0095311831 0.0081442883         2505 
 1678000   0.59222981   -8.9027764    191.63408 0.0095169884 0.0081362766         2432 
 1679000    0.5961013   -8.9023273    192.09334 0.0095341144 0.0081282777         2498 
 1680000    0.5704055   -8.9113604    191.73547 0.0095106879 0.0081202854         2529 
 1681000   0.56972888   -8.9016721    191.66496 0.0095015349 0.0081123028         2529 
 1682000   0.58764021   -8.9031023    191.96509 0.0095107558 0.0081043256         2565 
 1683000   0.56858886   -8.8877987    191.49612 0.0094818836 0.0080963689         2453 
 1684000   0.57471583   -8.9105157    191.92005 0.0094972311 0.0080884175         2506 
 1685000   0.57638928   -8.9287998    191.56527 0.0094740491  0.008080472         2494 
 1686000   0.59135397   -8.9008487    191.69444 0.0094748141 0.0080725353         2474 
 1687000   0.56799528   -8.9071561    191.82913  0.009475851 0.0080646083         2472 
 1688000   0.57573022   -8.9200162     191.4685 0.0094524336 0.0080566976         2502 
 1689000   0.58630642   -8.9229602    191.86069 0.0094661874 0.0080487968         2477 
 1690000   0.56895535   -8.9072794    191.83699 0.0094594176 0.0080409056         2514 
 1691000   0.58093193   -8.9097565    191.50062 0.0094372472 0.0080330328         2529 
 1692000   0.58208576   -8.8749004    191.80605 0.0094467125  0.008025161         2408 
 1693000   0.57269787   -8.9204743    191.57323 0.0094296727 0.0080173033         2567 
 1694000   0.59200184   -8.8937317    191.93319 0.0094418136 0.0080094527         2470 
 1695000   0.58316418   -8.9067384    191.78822 0.0094291161 0.0080016099         2479 
 1696000   0.59693983   -8.9033478    191.80772 0.0094245146 0.0079937785         2544 
 1697000   0.57788901   -8.9306182    191.50868 0.0094042763 0.0079859587         2464 
 1698000   0.57531313    -8.921854    191.55659  0.009401089  0.007978141         2484 
 1699000   0.58012457   -8.8852272     191.7006 0.0094026192 0.0079703336         2533 
 1700000   0.57865887   -8.9106513    191.85301 0.0094045591  0.007962543         2472 
 1701000   0.57222603   -8.9049794    192.28655   0.00942027 0.0079547527         2509 
 1702000   0.56406375   -8.9117092    191.75585 0.0093887511 0.0079469778         2562 
 1703000   0.56978697    -8.895895    191.78725 0.0093847746 0.0079392127         2416 
 1704000   0.59296666   -8.9219586    191.77785 0.0093788074 0.0079314677         2506 
 1705000   0.58213028   -8.9154622    191.58826   0.00936404 0.0079237222         2506 
 1706000   0.57925271   -8.9210488     191.6291 0.0093605463 0.0079159961         2438 
 1707000    0.5806784   -8.9222305    191.97849 0.0093721193 0.0079082734         2472 
 1708000   0.56179564    -8.917131    192.05161 0.0093701994 0.0079005616         2481 
 1709000   0.56005966   -8.9231958    191.81887  0.009353368 0.0078928551         2527 
 1710000   0.58279638   -8.8997741    191.49809 0.0093322657 0.0078851584         2449 
 1711000   0.56388152   -8.9252909    191.62378  0.009332933 0.0078774756         2504 
 1712000   0.56670959   -8.9317506    191.76571 0.0093343902    0.0078698         2549 
 1713000   0.56420885   -8.9402245    191.57435 0.0093196316 0.0078621287         2552 
 1714000   0.56226328   -8.9244877    191.30211 0.0093009581 0.0078544602         2502 
 1715000   0.57763132   -8.9260643    191.65084 0.0093124801 0.0078468112         2479 
 1716000   0.57202274   -8.9196547    191.43573 0.0092966069 0.0078391746         2468 
 1717000   0.58319504    -8.909273    191.70361 0.0093041937 0.0078315522         2460 
 1718000   0.57769179   -8.9403328    191.40389   0.00928424 0.0078239383         2582 
 1719000   0.57689863   -8.9262335    191.65565 0.0092910435 0.0078163347         2542 
 1720000   0.57774716   -8.9003156     191.9354 0.0092991955 0.0078087451         2509 
 1721000   0.57388491   -8.9081578    191.61206 0.0092781357 0.0078011628         2469 
 1722000    0.5571394   -8.9209349    191.69063   0.00927655  0.007793584         2494 
 1723000    0.5611812   -8.9390689    191.36597 0.0092554637  0.007786012         2525 
 1724000   0.56937296   -8.9142389    191.81111 0.0092716118 0.0077784561         2452 
 1725000   0.55803558   -8.9325327    191.27265 0.0092402247 0.0077709002         2527 
 1726000   0.56444159   -8.9218903    191.43096 0.0092425144 0.0077633565         2570 
 1727000   0.55565585   -8.9388872    191.64775 0.0092476235 0.0077558229         2488 
 1728000   0.55581301   -8.9230145    191.64929 0.0092423464 0.0077482968         2518 
 1729000   0.55403675   -8.9321354    191.30347 0.0092203329 0.0077407811         2495 
 1730000    0.5752084   -8.9288832    191.48614 0.0092238023 0.0077332779         2550 
 1731000   0.55137604   -8.9432569     191.3684 0.0092128059 0.0077257806         2450 
 1732000   0.57492572    -8.940538    191.56144 0.0092167745 0.0077182907         2502 
 1733000    0.5466694   -8.9025507    191.62472 0.0092144991 0.0077108115         2566 
 1734000   0.56353783   -8.9382134    191.48873 0.0092026493 0.0077033451         2452 
 1735000   0.55927545   -8.9243598    191.66399 0.0092057634 0.0076958864         2637 
 1736000   0.54906237   -8.9107314    191.62277 0.0091984816  0.007688433         2490 
 1737000    0.5558884   -8.9246039    191.39064 0.0091820495 0.0076809889         2456 
 1738000   0.56593767   -8.9275421    191.21695 0.0091684384 0.0076735569         2466 
 1739000     0.549239   -8.9206181    191.32044 0.0091681251 0.0076661278         2529 
 1740000   0.53711446   -8.9148673    191.50373 0.0091716345 0.0076587089         2443 
 1741000   0.55930325   -8.9499511    191.68166  0.009174883 0.0076513012         2540 
 1742000   0.56045042   -8.9382741    191.52882 0.0091623047 0.0076439067         2503 
 1743000   0.57129697   -8.9225822    191.40125 0.0091509491 0.0076365214         2524 
 1744000   0.56235407   -8.9366454    191.29937  0.009140834 0.0076291441         2493 
 1745000   0.55809538   -8.9350154     191.6698 0.0091532854 0.0076217835         2444 
 1746000   0.56329566   -8.9351608    191.63813 0.0091465317 0.0076144252         2441 
 1747000   0.56301821   -8.9377442    191.03381 0.0091124693 0.0076070802         2511 
 1748000   0.55522531   -8.9322453     191.6085 0.0091346537 0.0075997452         2410 
 1749000   0.56331989   -8.9528083    191.51941 0.0091251863 0.0075924045         2522 
 1750000   0.56115949   -8.9478336    191.64899 0.0091261424 0.0075850919         2548 
 1751000   0.55282654   -8.9456282    191.09431 0.0090945321  0.007577788         2503 
 1752000   0.54929752   -8.9444133    191.38272 0.0091030594 0.0075704775         2532 
 1753000   0.55816922   -8.9357696    191.74706 0.0091151862 0.0075631792         2487 
 1754000   0.55392686   -8.9320971    191.49627 0.0090980743  0.007555901         2453 
 1755000   0.53770192   -8.9563312    191.53908 0.0090949232 0.0075486279         2530 
 1756000   0.55445596   -8.9599093    191.31462 0.0090790919 0.0075413688         2464 
 1757000    0.5507608    -8.940561    191.32868 0.0090745912 0.0075341165         2514 
 1758000   0.54130864   -8.9588638      191.572  0.009080963 0.0075268734         2538 
 1759000    0.5544385   -8.9530803    191.45289 0.0090701576 0.0075196448         2478 
 1760000   0.54864392   -8.9412268    191.64901 0.0090742901 0.0075124238         2398 
 1761000   0.54640418    -8.943898    191.57991 0.0090658673 0.0075052123         2469 
 1762000    0.5489786   -8.9483292    191.41471 0.0090529093 0.0074979991         2474 
 1763000   0.55346079   -8.9509423    191.29558 0.0090421431 0.0074907973         2512 
 1764000   0.54835713    -8.969815    191.34755 0.0090394721 0.0074836074         2462 
 1765000   0.55139384   -8.9572998     191.6396 0.0090481395 0.0074764241         2509 
 1766000   0.54331432   -8.9539749    191.31753 0.0090278183 0.0074692593         2490 
 1767000    0.5423257    -8.957921    191.19987 0.0090171603 0.0074621026         2436 
 1768000    0.5505137    -8.947063    191.51591 0.0090269564 0.0074549517         2518 
 1769000   0.53676295   -8.9344296     191.2706 0.0090102979  0.007447812         2480 
 1770000   0.55567667   -8.9607748     191.2757 0.0090054475 0.0074406787         2431 
 1771000    0.5387156   -8.9551696    191.24137 0.0089987471 0.0074335512         2425 
 1772000   0.54942196    -8.955405    190.97373 0.0089810823 0.0074264301         2582 
 1773000   0.55222143   -8.9537571    191.31842 0.0089922175 0.0074193121         2483 
 1774000   0.53797547   -8.9641207    191.51071 0.0089961813 0.0074122084         2542 
 1775000   0.55324901   -8.9673751     191.3314 0.0089826949 0.0074051045         2593 
 1776000   0.55650338   -8.9472637    190.98893 0.0089615676 0.0073980115         2530 
 1777000   0.54908451   -8.9479048    191.22797 0.0089677344 0.0073909307         2596 
 1778000   0.54005332   -8.9688295    191.12585 0.0089579047 0.0073838611         2473 
 1779000   0.53439018   -8.9656506    191.10638  0.008951957 0.0073767922         2534 
 1780000   0.54391841   -8.9637756    191.12978 0.0089480233 0.0073697432         2558 
 1781000   0.54283319   -8.9563372      191.099 0.0089415592 0.0073626928         2560 
 1782000   0.53905026   -8.9661021    191.41037 0.0089511022 0.0073556584         2490 
 1783000   0.53524503   -8.9682533    191.55645 0.0089529096 0.0073486311         2500 
 1784000   0.55080849   -8.9874762    191.25746 0.0089339248 0.0073416208         2481 
 1785000   0.53681775   -8.9599083    191.08506  0.008920871  0.007334613         2518 
 1786000   0.53924482   -8.9695776    191.12109 0.0089175572 0.0073276147         2542 
 1787000   0.54183773   -8.9666853      191.252 0.0089186719 0.0073206188         2500 
 1788000   0.54554221   -8.9467637     191.2362 0.0089129472 0.0073136429         2464 
 1789000   0.53862411   -8.9853387     191.2466 0.0089084499 0.0073066653         2537 
 1790000   0.54446847   -8.9699122    191.08298 0.0088958558 0.0072996953         2527 
 1791000   0.53882607   -8.9871763    190.84998 0.0088800473  0.007292737         2531 
 1792000   0.53309367   -8.9702777    191.19252 0.0088910214 0.0072857875         2573 
 1793000   0.53221219   -8.9849824    190.90739 0.0088728102 0.0072788472         2565 
 1794000   0.51984806   -8.9805037    191.00934 0.0088726004 0.0072719263         2516 
 1795000    0.5370922   -8.9919807    191.21227 0.0088770785 0.0072650034         2501 
 1796000   0.54150271   -8.9803477    191.04123 0.0088641995 0.0072580913         2542 
 1797000   0.54217784   -8.9746348    191.31548  0.008871985 0.0072511941         2513 
 1798000   0.54402692   -8.9829998    191.32216 0.0088673598    0.0072443         2515 
 1799000    0.5242343   -8.9623714    190.91646 0.0088436382 0.0072374173         2516 
 1800000   0.53242911   -8.9763475     191.1364 0.0088489076 0.0072305321         2565 
 1801000   0.53897232    -8.993108    190.92729 0.0088343182 0.0072236626         2528 
 1802000   0.54400806   -8.9736282     191.0215 0.0088337728 0.0072168088         2527 
 1803000   0.53195532    -8.978462    191.04561 0.0088299877 0.0072099593         2567 
 1804000   0.52939534   -8.9857762    190.92377 0.0088194647 0.0072031129         2558 
 1805000   0.53801579    -8.984466    191.21408 0.0088279814 0.0071962749         2610 
 1806000   0.52495325   -8.9849326    191.23221 0.0088239298 0.0071894507         2608 
 1807000   0.54066229   -8.9756637    190.97713 0.0088072831 0.0071826408         2579 
 1808000   0.53703017   -8.9796812    191.22302 0.0088137454 0.0071758312         2550 
 1809000   0.52591169   -8.9941101    190.92559 0.0087951719 0.0071690334         2570 
 1810000   0.54019708   -8.9894678    190.90002 0.0087891354 0.0071622402         2579 
 1811000   0.53736812   -8.9971513     190.9664 0.0087873366 0.0071554586         2594 
 1812000   0.54886837   -8.9796336    191.21662 0.0087939948  0.007148685         2587 
 1813000   0.52202327   -8.9934222    191.07642 0.0087826998 0.0071419135         2597 
 1814000   0.52918981   -8.9864962    191.02547 0.0087755177 0.0071351612         2607 
 1815000   0.51717749   -8.9766517    191.27268 0.0087820328 0.0071284117         2588 
 1816000   0.52918751   -8.9961503    191.04725 0.0087668527 0.0071216702         2554 
 1817000   0.51549814   -8.9956921    191.26213 0.0087718829 0.0071149406         2584 
 1818000   0.52335255   -8.9933404    191.09181 0.0087592503 0.0071082201         2580 
 1819000   0.52429957   -8.9994507    191.10181 0.0087548931 0.0071015046         2623 
 1820000   0.53391974   -9.0039974    190.84461 0.0087383061 0.0070948023         2634 
 1821000   0.52305209    -8.984989    190.82958 0.0087328199  0.007088105         2592 
 1822000   0.53932463   -8.9729269    191.06548 0.0087388165 0.0070814158         2530 
 1823000   0.51666937    -8.993078    190.97929 0.0087300827 0.0070747353         2551 
 1824000   0.54093288    -8.980893    190.99452 0.0087259924 0.0070680656         2569 
 1825000   0.53095223   -9.0053191     191.2705  0.008733813 0.0070613982         2618 
 1826000   0.53211752   -8.9851782    190.90154 0.0087121917 0.0070547331         2516 
 1827000   0.53783122   -8.9928637    190.89712 0.0087072213 0.0070480808         2581 
 1828000   0.53561701   -8.9875254    190.95934 0.0087052945 0.0070414359         2576 
 1829000   0.51893951   -8.9921248    190.97761 0.0087013673 0.0070348007         2573 
 1830000   0.52415917   -9.0017003    191.07358 0.0087009827 0.0070281827         2560 
 1831000   0.52784109   -8.9761426    191.24438 0.0087040043 0.0070215692         2626 
 1832000   0.52238094   -8.9795687    191.17088 0.0086959095 0.0070149645         2599 
 1833000   0.51903081   -9.0116546    190.64661 0.0086673307 0.0070083634         2635 
 1834000   0.51317557   -8.9845284    191.12121 0.0086841696 0.0070017741         2566 
 1835000   0.52163629   -8.9907479    190.80339 0.0086650041 0.0069951863         2590 
 1836000   0.50983625   -9.0118104    190.64474 0.0086530838 0.0069886112         2666 
 1837000   0.52109049   -9.0048467     190.8156 0.0086561242 0.0069820397         2604 
 1838000   0.51845573   -8.9967245    191.20892 0.0086692474 0.0069754754         2554 
 1839000   0.52513509   -8.9956005    190.86489 0.0086489436 0.0069689178         2579 
 1840000   0.52954234   -9.0160715    190.63208 0.0086336995 0.0069623661         2642 
 1841000   0.50706174   -9.0045746    190.96465 0.0086440634 0.0069558262         2662 
 1842000   0.52351636   -8.9674278    190.57828 0.0086218911 0.0069492977         2621 
 1843000    0.5205993   -9.0236046     190.6017  0.008618272 0.0069427745         2680 
 1844000   0.51564966   -8.9879566    191.01335 0.0086322013 0.0069362565         2689 
 1845000    0.5113783   -9.0191417     190.6366  0.008610506 0.0069297469         2637 
 1846000   0.52226461   -8.9998531    191.05555 0.0086247539 0.0069232401         2613 
 1847000   0.51275546   -8.9932868    190.84964  0.008610794 0.0069167422         2628 
 1848000   0.50773339    -9.009473    190.92923 0.0086097235 0.0069102542         2675 
 1849000   0.51531607   -9.0151232    190.80306 0.0085993809 0.0069037715         2650 
 1850000   0.50758345   -9.0265309    190.59937 0.0085855573 0.0068972987         2685 
 1851000   0.50117354   -9.0040517    190.91684 0.0085952116 0.0068908327         2695 
 1852000   0.51292085   -9.0117388    190.79356 0.0085850233 0.0068843755         2697 
 1853000   0.51002611     -8.99983    190.81897  0.008581533 0.0068779212         2657 
 1854000   0.52261591   -9.0238894    190.38313 0.0085573144 0.0068714827         2752 
 1855000   0.50723112   -9.0222843    190.65346 0.0085648457 0.0068650412         2688 
 1856000   0.51155041   -9.0363767    190.78363 0.0085660752 0.0068586176         2738 
 1857000   0.51203023   -9.0312085    190.70626 0.0085579906 0.0068521991         2737 
 1858000   0.50096555   -9.0045388    190.66296 0.0085514423 0.0068457881         2698 
 1859000   0.50733014   -9.0265518    190.75845 0.0085511227 0.0068393743         2652 
 1860000   0.51907777   -9.0314752    190.92114 0.0085538144 0.0068329825         2686 
 1861000   0.51197824   -9.0173975    190.76067 0.0085420323 0.0068265908         2729 
 1862000   0.52034209   -9.0153336     190.5575 0.0085283523 0.0068202094         2657 
 1863000   0.50698306   -9.0140129    190.58172 0.0085248578 0.0068138383         2734 
 1864000   0.50873327   -9.0291335    190.87503 0.0085333975 0.0068074727         2696 
 1865000    0.5167724   -9.0138242     190.6807 0.0085201387 0.0068011149         2703 
 1866000   0.51469056   -9.0418446    190.87077 0.0085240607 0.0067947616         2706 
 1867000   0.50069186    -9.023022    190.47793 0.0085019607 0.0067884192         2734 
 1868000   0.50724282   -9.0387298    190.43335 0.0084954206 0.0067820882         2604 
 1869000   0.50691169   -9.0357276    190.51233 0.0084943969 0.0067757601         2736 
 1870000   0.50175025    -9.028248    191.01756  0.008512369 0.0067694374         2700 
 1871000   0.51227459   -9.0477329    190.69562 0.0084934802 0.0067631198         2692 
 1872000    0.5221936   -9.0342969    190.46495 0.0084786749 0.0067568156         2726 
 1873000   0.51592287   -9.0423241    190.75517 0.0084870604 0.0067505163         2699 
 1874000   0.49377337   -9.0288904    190.24845 0.0084599985 0.0067442174         2719 
 1875000   0.52341965   -9.0413913    190.70139 0.0084756174 0.0067379385         2680 
 1876000   0.49777073   -9.0249877    190.63786 0.0084682775 0.0067316652         2717 
 1877000   0.51888992   -9.0411183    190.35515 0.0084512143 0.0067254017         2707 
 1878000   0.51086962   -9.0397693    190.42883 0.0084499837 0.0067191428         2777 
 1879000   0.50674033   -9.0262778    190.22139 0.0084362866 0.0067128857         2770 
 1880000   0.50379972   -9.0294786    190.56588 0.0084470692 0.0067066465         2762 
 1881000   0.49968446   -9.0344213    190.71534    0.0084492 0.0067004099         2704 
 1882000   0.50010569   -9.0498638    190.83867 0.0084501714 0.0066941818         2766 
 1883000    0.4954774   -9.0562004    190.47763 0.0084297057 0.0066879611         2675 
 1884000   0.50260706   -9.0432882    190.50646 0.0084265064 0.0066817552         2695 
 1885000   0.50642599    -9.040926    190.34607 0.0084149457 0.0066755492         2722 
 1886000   0.50467271   -9.0520964     190.6175 0.0084224769 0.0066693498         2659 
 1887000   0.50352366   -9.0455376    190.60364 0.0084174013 0.0066631604         2719 
 1888000   0.50131899   -9.0476932    190.27862 0.0083985971 0.0066569817         2753 
 1889000   0.49753433   -9.0446216    190.53512 0.0084054667 0.0066508036         2732 
 1890000   0.49308686   -9.0411783    190.41054 0.0083955264 0.0066446383         2736 
 1891000   0.49888081   -9.0340248     190.7207 0.0084047551 0.0066384829         2693 
 1892000   0.49221505   -9.0507844    190.55675 0.0083930915 0.0066323278         2703 
 1893000   0.49993832   -9.0453517    190.44176 0.0083835956 0.0066261824         2743 
 1894000    0.4981043   -9.0414122    190.26905 0.0083715703 0.0066200471         2754 
 1895000   0.49490823    -9.056558    190.45731 0.0083754314 0.0066139147         2731 
 1896000   0.48803275   -9.0478399    190.28987 0.0083636546 0.0066077859         2823 
 1897000   0.48808697   -9.0441205    190.51858 0.0083692928 0.0066016605         2737 
 1898000   0.49632253   -9.0574894    190.36387 0.0083580905  0.006595542         2756 
 1899000    0.4871849   -9.0588713    190.35557 0.0083533248 0.0065894341         2764 
 1900000   0.50386187   -9.0562424    190.25777 0.0083446392 0.0065833284         2757 
 1901000   0.50260818   -9.0424285    190.43101 0.0083478435  0.006577234         2750 
 1902000   0.48402475    -9.034724     190.4761 0.0083454304  0.006571148         2727 
 1903000   0.48766766   -9.0538302    190.34262 0.0083351998 0.0065650675         2711 
 1904000   0.48677425   -9.0503166    190.23774 0.0083262315 0.0065589983         2754 
 1905000   0.49214297   -9.0531814    190.36602 0.0083274724 0.0065529343         2747 
 1906000   0.48428393   -9.0570494    190.34436 0.0083221564 0.0065468765         2731 
 1907000   0.48726515   -9.0539974    189.93856 0.0083000593 0.0065408257         2788 
 1908000   0.49379458   -9.0685498     190.3707 0.0083145833 0.0065347838         2790 
 1909000   0.49602169   -9.0626544    190.26755 0.0083057251 0.0065287527         2684 
 1910000   0.48494601   -9.0523182    190.54395 0.0083134357 0.0065227271         2759 
 1911000   0.49437395   -9.0669703    190.33659 0.0083000434 0.0065167031         2786 
 1912000   0.48840353   -9.0542664    190.42657  0.008299624 0.0065106957         2779 
 1913000   0.50168294   -9.0545389    190.33686 0.0082913773 0.0065046948         2812 
 1914000   0.49775928   -9.0660561    190.49159 0.0082937824 0.0064986959         2781 
 1915000   0.49281701   -9.0649227    190.15408 0.0082747643 0.0064927003         2771 
 1916000   0.49170059   -9.0582739    190.31213 0.0082773195  0.006486718         2737 
 1917000   0.49622058   -9.0727795    189.94879 0.0082572069  0.006480741         2812 
 1918000   0.48276467   -9.0770782    190.11226 0.0082600044 0.0064747706         2835 
 1919000   0.48987041   -9.0651613    189.92626 0.0082476229 0.0064688113         2769 
 1920000   0.49163472   -9.0653275    190.25741 0.0082576999 0.0064628572         2847 
 1921000   0.48997334   -9.0575841    190.00541 0.0082424696 0.0064569076         2828 
 1922000   0.48409078   -9.0548773    190.32046 0.0082518409 0.0064509662         2802 
 1923000   0.49924176    -9.075442    190.22689 0.0082434949 0.0064450287         2854 
 1924000   0.48792067   -9.0714101    190.36049  0.008244997 0.0064390941         2821 
 1925000   0.48578345   -9.0888312    190.16228 0.0082321332 0.0064331658         2883 
 1926000   0.47983497   -9.0745094    190.37632 0.0082371203 0.0064272462         2768 
 1927000   0.48238137    -9.073518    189.95464 0.0082146101 0.0064213292         2829 
 1928000   0.48729678   -9.0678605    190.39338 0.0082293127 0.0064154216         2814 
 1929000   0.48869765   -9.0751944    190.20316 0.0082168292 0.0064095194         2822 
 1930000   0.46781204   -9.0869427    189.97296 0.0082026322  0.006403622         2828 
 1931000    0.4787021   -9.0855524    189.90648 0.0081955154 0.0063977351         2805 
 1932000   0.48796278   -9.0683787    189.90143 0.0081910554 0.0063918516         2852 
 1933000   0.48435774   -9.0952819    189.79745 0.0081823352 0.0063859764         2812 
 1934000   0.47591485   -9.0840603    189.93199 0.0081839018  0.006380106         2892 
 1935000   0.48761798   -9.0815989    190.11124 0.0081873918 0.0063742501         2811 
 1936000   0.48172566   -9.0910705     190.1461 0.0081846633 0.0063683951         2847 
 1937000   0.47150875   -9.0749921    190.31388 0.0081876563 0.0063625526         2874 
 1938000   0.48782254   -9.0780804    189.89004 0.0081652066 0.0063567106         2818 
 1939000   0.47005536   -9.0878851    189.84545  0.008159079 0.0063508768         2891 
 1940000   0.47693769   -9.0812888    190.34021  0.008176126 0.0063450492         2804 
 1941000   0.47878808   -9.0939666    190.08978 0.0081611617 0.0063392352         2858 
 1942000   0.48453154   -9.0991067    190.19967 0.0081616749 0.0063334241         2846 
 1943000   0.47407728   -9.0777868    189.93826 0.0081462629  0.006327627         2847 
 1944000   0.47898037   -9.1025548    189.74475 0.0081337771 0.0063218329         2860 
 1945000    0.4755125   -9.0890312    189.97747 0.0081395658  0.006316045         2856 
 1946000   0.48544553   -9.0818852    190.03802 0.0081379762 0.0063102678         2876 
 1947000    0.4763561    -9.093744     189.8464 0.0081255949 0.0063044939         2874 
 1948000   0.47888811   -9.0809436    189.98108 0.0081271853 0.0062987217         2920 
 1949000    0.4740399    -9.098266    189.91765 0.0081203033 0.0062929601         2851 
 1950000   0.47463403   -9.0953216     189.8086 0.0081114786 0.0062872073         2901 
 1951000   0.47749378   -9.0918525    190.05503 0.0081178468  0.006281465         2845 
 1952000   0.47620682   -9.0894694    190.29997 0.0081241447 0.0062757261         2896 
 1953000   0.48130626   -9.0998405    190.04196 0.0081089759 0.0062699884         2819 
 1954000   0.47241228   -9.0896938    189.84577  0.008096459  0.006264262         2878 
 1955000   0.47965216   -9.0928199     189.8673 0.0080932354  0.006258541         2833 
 1956000   0.47243556   -9.0933113    190.05961 0.0080972909 0.0062528274         2914 
 1957000    0.4792164    -9.104689    189.52678 0.0080704642 0.0062471226         2921 
 1958000   0.46889403   -9.0959752    189.97415 0.0080853825 0.0062414298         2816 
 1959000   0.47454538   -9.0963176    189.94594 0.0080800552 0.0062357369         2821 
 1960000   0.46677195   -9.0993751    190.07544 0.0080814388 0.0062300493         2851 
 1961000   0.47602846    -9.094647    190.04963  0.008076221 0.0062243736         2906 
 1962000   0.45918815   -9.0927093    190.09461 0.0080740152 0.0062187045         2868 
 1963000   0.46191471   -9.0892192    190.00636 0.0080661555 0.0062130392         2798 
 1964000   0.46119317   -9.0987455    189.82825 0.0080544911 0.0062073771         2793 
 1965000   0.46313943   -9.1044639    189.89795 0.0080533483 0.0062017272         2868 
 1966000   0.46956759   -9.1018482     189.7255 0.0080419422 0.0061960814         2883 
 1967000   0.46808243   -9.1165386    189.91825 0.0080460196 0.0061904424         2928 
 1968000   0.46618252   -9.1041307    190.09631 0.0080494709 0.0061848081         2897 
 1969000   0.45997138   -9.1108167    190.03707 0.0080428759 0.0061791851         2880 
 1970000   0.45531053   -9.1091668    190.00612 0.0080374841 0.0061735658         2852 
 1971000   0.45363129   -9.1139137    189.89441 0.0080286832 0.0061679506         2836 
 1972000   0.46336594   -9.1044812    189.85548 0.0080229666 0.0061623449         2929 
 1973000   0.45386325   -9.1082391     189.7392 0.0080139887 0.0061567472         2835 
 1974000   0.45937643   -9.1027386    189.78933 0.0080120453 0.0061511569         2926 
 1975000   0.46456733    -9.109014    190.10036 0.0080211122  0.006145573         2934 
 1976000   0.46992367   -9.1012527    189.93314  0.008010001 0.0061399998         2877 
 1977000   0.47304107   -9.1099158    190.01072 0.0080092193 0.0061344353         2866 
 1978000    0.4596474   -9.1033381    189.89388 0.0080002479 0.0061288743         2926 
 1979000   0.46352715   -9.1066334    189.74459 0.0079899187 0.0061233222         2935 
 1980000   0.46495506   -9.1199979    190.13448 0.0080022928 0.0061177749         2864 
 1981000   0.46905518    -9.113021    189.64803 0.0079777902 0.0061122299         2911 
 1982000    0.4675304   -9.1060755    190.03033  0.007989839 0.0061066963         2863 
 1983000   0.46036948   -9.0966847    189.75951  0.007974429 0.0061011725         2890 
 1984000    0.4599334   -9.1098047    189.64761 0.0079657093 0.0060956534         2925 
 1985000   0.46500426   -9.1106988    189.83888 0.0079697264 0.0060901385         2868 
 1986000   0.46767886   -9.1091688     189.7172 0.0079606077 0.0060846291         2874 
 1987000   0.46106023   -9.1289574    189.76151 0.0079584595 0.0060791301         2941 
 1988000   0.46032678   -9.1315869    189.83281  0.007957445 0.0060736347         2897 
 1989000   0.45621799      -9.1174    189.87048 0.0079550228 0.0060681457         2893 
 1990000   0.45368467   -9.0973198    189.66141 0.0079422702 0.0060626667         2910 
 1991000   0.46078043   -9.1176726    189.93979 0.0079499324 0.0060571897         2918 
 1992000   0.46032639   -9.1167574    189.92532 0.0079453362 0.0060517221         2895 
 1993000   0.45396766   -9.1113748    189.99267 0.0079441659 0.0060462606         2852 
 1994000   0.45752261    -9.126911    189.59056 0.0079233769 0.0060408106         2910 
 1995000    0.4488741   -9.1150512     189.7402 0.0079256558  0.006035365         2859 
 1996000   0.45304428   -9.1371899    189.45828  0.007909915 0.0060299225         2901 
 1997000   0.46445375   -9.1330373     189.6674 0.0079146803 0.0060244899         2847 
 1998000   0.45507578   -9.1361147    189.63643 0.0079094274 0.0060190659         2874 
 1999000   0.46157133   -9.1219107    189.52673 0.0079008974  0.006013643         2915 
 2000000   0.44914915   -9.1243247    189.73822  0.007905759 0.0060082273         2876 
 2001000   0.45115475   -9.1249092    189.56479 0.0078945857 0.0060028227         2834 
 2002000   0.45478845   -9.1380083    189.77437 0.0078993662 0.0059974222         2875 
 2003000    0.4555617   -9.1316841    189.76467 0.0078950187 0.0059920233         2883 
 2004000   0.45698653   -9.1190685    189.97217 0.0078997078 0.0059866323         2878 
 2005000   0.45110586   -9.1127639    189.58455 0.0078796571 0.0059812539         2836 
 2006000   0.45581325   -9.1242913    189.71094 0.0078809795 0.0059758792         2883 
 2007000   0.44358429    -9.128002    189.79162 0.0078804027 0.0059705078         2892 
 2008000   0.46115458   -9.1362648    189.55612 0.0078667049 0.0059651476         2887 
 2009000    0.4573439   -9.1179321    189.60234 0.0078647064 0.0059597912         2887 
 2010000   0.45914653   -9.1255475    189.60355 0.0078608438 0.0059544398         2903 
 2011000   0.45457019   -9.1207519    189.69916 0.0078608968 0.0059490977         2846 
 2012000   0.45524288   -9.1268925    189.61974 0.0078537003 0.0059437587         2886 
Loop time of 5264.17 on 48 procs for 2000000 steps with 4000 atoms

Performance: 65651.409 tau/day, 379.927 timesteps/s
99.4% CPU use with 48 MPI tasks x no OpenMP threads

MPI task timing breakdown:
Section |  min time  |  avg time  |  max time  |%varavg| %total
---------------------------------------------------------------
Pair    | 363.21     | 400.18     | 443.08     |  82.7 |  7.60
Neigh   | 36.5       | 38.121     | 40.506     |  15.9 |  0.72
Comm    | 318.88     | 369.09     | 414.57     |  97.6 |  7.01
Output  | 6.5332     | 6.536      | 6.5942     |   0.3 |  0.12
Modify  | 4376.5     | 4397.3     | 4428.6     |  19.4 | 83.53
Other   |            | 52.92      |            |       |  1.01

Nlocal:        83.3333 ave          92 max          75 min
Histogram: 1 0 8 6 10 14 3 3 1 2
Nghost:        2422.67 ave        2444 max        2403 min
Histogram: 4 6 4 7 3 8 5 4 4 3
Neighs:        16693.0 ave       19770 max       14543 min
Histogram: 4 6 7 8 6 7 3 4 2 1
FullNghs:      33387.1 ave       37295 max       29663 min
Histogram: 1 0 6 8 10 14 4 2 1 2

Total # of neighbors = 1602579
Ave neighs/atom = 400.64475
Neighbor list builds = 106447
Dangerous builds = 0

#clear
#
#next RN
#
#jump SELF
Total wall time: 1:27:47
