
units lj                  # Use reduced LJ style units
atom_style atomic         # Uncharged point particles
atom_modify map hash      # Needed for indexing of clusters etc
                          # Used to be able to find where atoms are in relation to each other.

lattice fcc 1.0 spacing 1 1 1
Lattice spacing in x,y,z = 1.5874011 1.5874011 1.5874011
region box block 0 10 0 10 0 10 units lattice
create_box 2 box
Created orthogonal box = (0.0000000 0.0000000 0.0000000) to (15.874011 15.874011 15.874011)
  3 by 4 by 4 MPI processor grid
create_atoms 1 box
Created 4000 atoms
  using lattice units in orthogonal box = (0.0000000 0.0000000 0.0000000) to (15.874011 15.874011 15.874011)
  create_atoms CPU = 0.002 seconds
set type 1 type/fraction 2 0.81 78393
Setting atom values ...
  3229 settings made for type/fraction
mass 1 1.0
mass 2 1.0
pair_style lj/cut  3.5
pair_modify tail  yes
pair_coeff 1  1  1.0  1.0   # Intearaction between 1 and 1 set with epsilon = 1 and sigma = 1
pair_coeff 1  2  1.5  0.8
pair_coeff 2  2  0.5  0.88

write_data data.0
System init for write_data ...
Neighbor list info ...
  update every 1 steps, delay 10 steps, check yes
  max neighbors/atom: 2000, page size: 100000
  master list distance cutoff = 3.8
  ghost atom cutoff = 3.8
  binsize = 1.9, bins = 9 9 9
  1 neighbor lists, perpetual/occasional/extra = 1 0 0
  (1) pair lj/cut, perpetual
      attributes: half, newton on
      pair build: half/bin/atomonly/newton
      stencil: half/bin/3d
      bin: standard
WARNING: Not all mixed pair coeffs generated from mixing. Use write_data with 'pair ij' option to store all pair coeffs. (../write_data.cpp:312)


#############################
#   M E L T   S Y S T E M   #
#############################

velocity all create 2.4 6229865 mom yes dist gaussian # Assign velocities
                                                    # Temperature 2.4, random number seed, zero linear momentum
                                                                                # Gaussian distribution

timestep 0.002   # simulation timestep
thermo 1000       # output thermodynamic data every 1000 steps bf 100

# Define a fix  in this case with index 1 applied to all
# particles in the simulation. This fix is for simulations
# in the anisotropic NPT ensemble. Note that we use the MTK
# correction.
fix 1 all npt temp 2.4 2.4 0.1 iso 5.68 5.68 0.5 mtk yes tchain 5 pchain 5 # Use NPT ensemble
                                                                         # Set temperature and pressure and damping
                                                                         # Numbers of thermostats in chain and in barostat
run 10000          # run for 10000 steps
Per MPI rank memory allocation (min/avg/max) = 3.642 | 3.644 | 3.648 Mbytes
Step Temp E_pair E_mol TotEng Press Volume 
       0          2.4   -3.6458899            0 -0.046789881   -3.2123361         4000 
    1000    2.3816078   -2.9793486            0   0.59217002    5.7212159    3810.2468 
    2000    2.4095629   -3.0295672            0   0.58387353    5.5618887    3787.1194 
    3000    2.3510847   -2.9847904            0   0.54095499    5.4486673    3836.0086 
    4000    2.4718569   -3.0622039            0   0.64465455    5.7940489    3745.0083 
    5000    2.4242123   -2.9418838            0   0.69352556    6.0232112    3805.8365 
    6000    2.3452382   -2.9757949            0   0.54118294    5.5010155     3819.438 
    7000    2.4260922   -2.9449239            0    0.6933046    5.4526579    3866.2939 
    8000    2.4023056   -2.9921061            0   0.61045147    5.7243741    3799.7472 
    9000    2.3792738    -2.996478            0    0.5715405    5.6551885    3805.5423 
   10000    2.3550428   -2.9594493            0    0.5722318    5.6871187     3805.758 
Loop time of 2.92269 on 48 procs for 10000 steps with 4000 atoms

Performance: 591236.730 tau/day, 3421.509 timesteps/s
99.3% CPU use with 48 MPI tasks x no OpenMP threads

MPI task timing breakdown:
Section |  min time  |  avg time  |  max time  |%varavg| %total
---------------------------------------------------------------
Pair    | 1.1298     | 1.2051     | 1.2602     |   2.5 | 41.23
Neigh   | 0.20602    | 0.2182     | 0.232      |   0.9 |  7.47
Comm    | 0.84692    | 0.93061    | 1.0079     |   4.1 | 31.84
Output  | 0.00024259 | 0.00024781 | 0.00031652 |   0.0 |  0.01
Modify  | 0.46962    | 0.55324    | 0.59997    |   3.9 | 18.93
Other   |            | 0.01528    |            |       |  0.52

Nlocal:        83.3333 ave          97 max          68 min
Histogram: 1 1 3 7 5 15 11 4 0 1
Nghost:        1698.52 ave        1723 max        1677 min
Histogram: 1 5 5 11 4 6 10 3 0 3
Neighs:        10029.2 ave       12223 max        8358 min
Histogram: 3 3 6 8 9 11 6 1 0 1

Total # of neighbors = 481400
Ave neighs/atom = 120.35000
Neighbor list builds = 904
Dangerous builds = 206

# Equilibrate just above the melting temperature to avoid step fn in T

fix 1 all npt temp 1.25 1.25 0.1 iso 5.68 5.68 0.5 mtk yes tchain 5 pchain 5
run 2000
Per MPI rank memory allocation (min/avg/max) = 3.643 | 3.645 | 3.649 Mbytes
Step Temp E_pair E_mol TotEng Press Volume 
   10000    2.3550428   -2.9594493            0    0.5722318    5.6871187     3805.758 
   11000    1.2684697   -4.4050722            0   -2.5028433    5.8225029    2922.1288 
   12000     1.271225   -4.3854948            0   -2.4791341    5.8626984    2927.7803 
Loop time of 0.679445 on 48 procs for 2000 steps with 4000 atoms

Performance: 508650.538 tau/day, 2943.580 timesteps/s
99.5% CPU use with 48 MPI tasks x no OpenMP threads

MPI task timing breakdown:
Section |  min time  |  avg time  |  max time  |%varavg| %total
---------------------------------------------------------------
Pair    | 0.28575    | 0.30758    | 0.33673    |   2.4 | 45.27
Neigh   | 0.039994   | 0.042553   | 0.0467     |   0.7 |  6.26
Comm    | 0.20081    | 0.24138    | 0.30322    |   5.0 | 35.53
Output  | 5.1343e-05 | 5.26e-05   | 7.4031e-05 |   0.0 |  0.01
Modify  | 0.045031   | 0.083121   | 0.095677   |   6.2 | 12.23
Other   |            | 0.004764   |            |       |  0.70

Nlocal:        83.3333 ave          93 max          77 min
Histogram: 5 6 4 12 3 9 5 1 1 2
Nghost:        2025.79 ave        2059 max        1993 min
Histogram: 1 2 3 6 11 13 7 3 1 1
Neighs:        13035.0 ave       15288 max       11389 min
Histogram: 3 2 6 9 13 9 4 0 0 2

Total # of neighbors = 625678
Ave neighs/atom = 156.41950
Neighbor list builds = 143
Dangerous builds = 9

#############################
# L I N E A R  Q U E N C H  #
#############################

# Define solid atoms. This closely follows ten Wolde  Ruiz-Montero and Frenkel  Faraday Discuss  1996  104  93-110
# Compute components of the per-atom q6 vector
compute q6 all orientorder/atom degrees 1 6 components 6 nnn NULL cutoff 1.3 # compute the Q6 parameter.
                                                                             # Use all neighbours within 1.3 unit cell.

# get number of connections
compute coord_number all coord/atom orientorder q6 0.5

# An atom is solid if it has 8 or more connections (of a possible 14)
variable is_solid atom c_coord_number>=8
group solid dynamic all var is_solid    # Must be dynamic to update
dynamic group solid defined

# do clustering
compute cluster solid cluster/atom 1.3 # Create a cluster where all atoms within are solid and max 1.3 units from another member

# define chunks one chunk per cluster
compute clus_chunks solid chunk/atom c_cluster nchunk every compress yes  # Says which atoms are in which chunk

# count the size of each chunk
compute size_chunks solid property/chunk clus_chunks count


# Find the maximum entry in the vector of chunk sizes
variable max_n equal max(c_size_chunks)


# Thermo style which includes this variable
# thermo_style custom step temp pe vol v_max_n

thermo ${N}  # Print the thermo information every 100 steps
thermo 1000  

# Reset the npt fix at a lower temperature (below freezing)
fix 1  all npt temp  ${temp} ${temp}  0.1  iso  5.68  5.68  0.5  mtk yes tchain  5  pchain  5
fix 1  all npt temp  0.45 ${temp}  0.1  iso  5.68  5.68  0.5  mtk yes tchain  5  pchain  5
fix 1  all npt temp  0.45 0.45  0.1  iso  5.68  5.68  0.5  mtk yes tchain  5  pchain  5

dump dmp2 all dcd ${N} traj.dcd
dump dmp2 all dcd 1000 traj.dcd


compute msd all msd com yes
variable twopoint equal c_msd[4]/6/(step*dt+1.0e-6)
fix 9 all vector 10 c_msd[4]
variable fit equal slope(f_9)/6/(10*dt)
thermo_style custom step temp pe c_msd[4] v_twopoint v_fit v_max_n

fix 1 all npt temp 1.25 ${temp} 0.1 iso 5.68 5.68 0.5 mtk yes tchain 5 pchain 5
fix 1 all npt temp 1.25 0.45 0.1 iso 5.68 5.68 0.5 mtk yes tchain 5 pchain 5
run 5000000 # 5000000  # Run for this many steps
Neighbor list info ...
  update every 1 steps, delay 10 steps, check yes
  max neighbors/atom: 2000, page size: 100000
  master list distance cutoff = 3.8
  ghost atom cutoff = 3.8
  binsize = 1.9, bins = 8 8 8
  4 neighbor lists, perpetual/occasional/extra = 1 3 0
  (1) pair lj/cut, perpetual
      attributes: half, newton on
      pair build: half/bin/atomonly/newton
      stencil: half/bin/3d
      bin: standard
  (2) compute orientorder/atom, occasional
      attributes: full, newton on
      pair build: full/bin/atomonly
      stencil: full/bin/3d
      bin: standard
  (3) compute coord/atom, occasional
      attributes: full, newton on
      pair build: full/bin/atomonly
      stencil: full/bin/3d
      bin: standard
  (4) compute cluster/atom, occasional
      attributes: full, newton on
      pair build: full/bin/atomonly
      stencil: full/bin/3d
      bin: standard
Per MPI rank memory allocation (min/avg/max) = 9.835 | 9.839 | 9.846 Mbytes
Step Temp PotEng c_msd[4] v_twopoint v_fit v_max_n 
   12000     1.271225   -4.3854948 4.2923894e-30 2.9808258e-32 8.3333333e+20            1 
   13000    1.2582049   -4.3967109   0.80362174 0.0051514212  0.067406991            2 
   14000    1.2254268   -4.4426909    1.6516513 0.0098312572  0.069631968            1 
   15000    1.2763553   -4.3931097    2.4238167  0.013465648  0.068050031            2 
   16000    1.2799384   -4.4600818    3.2667609  0.017014379  0.067658862            3 
   17000    1.2423906   -4.4025768    4.1020259  0.020107969  0.068155026            1 
   18000    1.2396054   -4.4045786    4.9207284   0.02278115  0.068426699            3 
   19000    1.2699158   -4.3670213    5.7132557  0.025058138  0.068275253            2 
   20000    1.2612409   -4.4150258    6.4345496  0.026810623  0.067773224            3 
   21000    1.2486407   -4.4168117     7.291851  0.028935916  0.067510988            2 
   22000    1.2747565   -4.4365849    8.2077843  0.031090091  0.067627067            2 
   23000    1.2443505   -4.3818791    9.0563288  0.032812785  0.067924464            4 
   24000    1.2553484      -4.3973    9.8650233  0.034253553  0.068152048            2 
   25000    1.2428534   -4.4306751    10.730635  0.035768781  0.068328876            1 
   26000    1.2351404   -4.4158037    11.598123  0.037173471  0.068580031            4 
   27000     1.255159   -4.4051267    12.430301  0.038365126  0.068879217            3 
   28000    1.2831742   -4.4015801    13.132438  0.039084636  0.068879779            1 
   29000    1.2494901   -4.4290204    14.025637  0.040303554   0.06891511            3 
   30000    1.2160951   -4.4372729    14.914273  0.041428536   0.06898082            2 
   31000    1.2567938   -4.4142977    15.893742  0.042725113  0.069170683            2 
   32000    1.2639257   -4.3873159    16.847023  0.043872456  0.069525987            3 
   33000    1.2312601   -4.4047694    17.720507  0.044748755  0.069821045            3 
   34000    1.2365077   -4.4126158    18.490012  0.045318657  0.070032571            8 
   35000    1.2079403   -4.4291161    19.350317  0.046072184  0.070199129            2 
   36000    1.2600024   -4.4180384    20.399446   0.04722094  0.070361199            4 
   37000     1.250777   -4.3903685    21.229046  0.047813167  0.070586122            6 
   38000    1.2354342   -4.4133603    21.950863  0.048137858  0.070713725            2 
   39000    1.2488692   -4.4447304    22.727494   0.04856302   0.07073771            4 
   40000    1.2548146   -4.4201133    23.602638  0.049172162  0.070844085            3 
   41000    1.2653334   -4.4088411    24.509504  0.049816063   0.07093684            1 
   42000    1.2645908   -4.4264953    25.371773  0.050340819  0.070952977            2 
   43000    1.2758726   -4.4341125    26.290129  0.050949861  0.070999252            3 
   44000    1.2560822   -4.4249305    27.230167  0.051572286  0.071042485            4 
   45000    1.2684107   -4.4189669    28.177708   0.05218094  0.071158172            3 
   46000    1.2358234   -4.4138697    29.029806  0.052590227  0.071232622            2 
   47000    1.2352298   -4.4031318     29.89368  0.053002978  0.071335599            1 
   48000    1.2678263   -4.4077253    30.731603  0.053353476  0.071412685            2 
   49000    1.2665994   -4.4469532    31.409534  0.053417574  0.071463006            9 
   50000    1.2270895   -4.3684928    32.595932  0.054326553  0.071496992            2 
   51000    1.2295608    -4.412736    33.375719  0.054535488  0.071588041            4 
   52000    1.2311344   -4.4485473    34.110465  0.054664206  0.071633425            1 
   53000    1.2506516   -4.4523196    34.839601  0.054779246  0.071642295            4 
   54000    1.2360206   -4.4637368    35.404485  0.054636551  0.071622303            1 
   55000    1.2260513   -4.4153566     36.20233  0.054852015  0.071554685            4 
   56000    1.2145704     -4.41712    36.908696  0.054923654    0.0714309            1 
   57000    1.2559157   -4.4428683    37.655756  0.055052275  0.071284035            2 
   58000    1.2213834   -4.3977914    38.471107  0.055274579  0.071113257            1 
   59000    1.2373436   -4.4351101    38.992836  0.055074626  0.070975546            3 
   60000    1.2581243    -4.441141    39.860869  0.055362318  0.070810294            1 
   61000    1.2495298   -4.3537887    40.735296  0.055649312  0.070642696            2 
   62000    1.2421833    -4.425771    41.286702  0.055492878   0.07049901            2 
   63000    1.2494299   -4.4255736    42.196679  0.055815712  0.070355819            1 
   64000     1.252719   -4.3927459    42.789508  0.055715505  0.070200442            1 
   65000    1.2685633   -4.4510157    43.327719  0.055548357  0.070007314            4 
   66000    1.2670055   -4.4465978    44.353546  0.056001952  0.069845478            2 
   67000    1.2153723   -4.4117646    45.144659  0.056150073  0.069694713            1 
   68000    1.2488763   -4.4362795    45.966728  0.056331774  0.069554974            2 
   69000    1.2431139   -4.4124115    46.559134  0.056230838  0.069393852            2 
   70000    1.2372956   -4.4173179    47.263778  0.056266402  0.069243587            2 
   71000    1.2634467   -4.3970389    48.193916  0.056565628  0.069107824            2 
   72000    1.2330692   -4.4486615    48.990194  0.056701613  0.068986763            4 
   73000    1.2436922   -4.4467099    49.757391  0.056800674  0.068868866            3 
   74000    1.2828025   -4.4164759    50.676334  0.057067943  0.068753663            3 
   75000    1.2325321   -4.4660027    51.078994  0.056754437  0.068635402            2 
   76000    1.2457833   -4.4358283    52.005576  0.057023658  0.068521897            3 
   77000    1.2172742   -4.4147115    52.981224  0.057338987  0.068426682            3 
   78000     1.242292    -4.434399    54.011147  0.057704216  0.068338454            5 
   79000    1.2447546    -4.399808     54.62947  0.057626022  0.068262107            1 
   80000    1.2442502   -4.3863853    55.735582  0.058057898  0.068191035            2 
   81000     1.233541   -4.4200674    55.924425  0.057535416  0.068113354            4 
   82000    1.2200102   -4.4124184    56.963116  0.057889345  0.068027125            1 
   83000    1.2506645   -4.4441864    57.819051  0.058051256   0.06795344            3 
   84000    1.2445276   -4.4908208    58.102668  0.057641535  0.067877616            2 
   85000    1.2232148    -4.418457    59.081012   0.05792256  0.067793196            2 
   86000    1.2342355   -4.4386048    60.073053  0.058210322  0.067723648            4 
   87000    1.2012758   -4.4671567    60.844327  0.058280006  0.067665247            3 
   88000    1.2509824   -4.4339052    61.605075  0.058338139  0.067605297            2 
   89000    1.2425372   -4.4525186    62.348725  0.058378955  0.067548695            3 
   90000    1.2588799   -4.4012152    63.554097  0.058846385   0.06750044            1 
   91000      1.23399   -4.3897548    64.096053  0.058696019  0.067468067            1 
   92000    1.2303879   -4.4704228    64.755004  0.058654895  0.067422941            3 
   93000    1.2283661   -4.4666809    65.336081  0.058544875  0.067373712            2 
   94000    1.2382105   -4.4108632    66.835896  0.059251681  0.067337478            6 
   95000    1.2310952   -4.4175754    67.411691  0.059133062   0.06730462            2 
   96000    1.2167548   -4.4338561    68.014248  0.059040145  0.067289574            2 
   97000    1.2366742   -4.4244806    68.986623  0.059266858  0.067262328            2 
   98000    1.2319516   -4.4401738    69.505527  0.059103339  0.067224752            2 
   99000    1.2640299   -4.3999139    70.769948  0.059570663  0.067199615            5 
  100000    1.2633785   -4.4218621    71.295817   0.05941318  0.067186046            3 
  101000    1.2417352   -4.4515137    72.146061  0.059526453  0.067164837            2 
  102000    1.2178337   -4.4357759    72.519267  0.059247767  0.067135956            1 
  103000     1.243147   -4.4026782     74.01587   0.05988339  0.067111426            2 
  104000    1.2339431   -4.4301326    74.715385  0.059868096  0.067102765            1 
  105000    1.2310337   -4.4278782     75.95842   0.06028446  0.067107604            2 
  106000    1.2394247   -4.4193977    76.996478  0.060531822  0.067115199            1 
  107000    1.2273462   -4.4186513    77.623729  0.060454617  0.067131525            4 
  108000    1.2330398    -4.410779    78.188244  0.060330435  0.067135081            3 
  109000    1.2298088   -4.4328354    79.095739  0.060470748  0.067145196            2 
  110000    1.2408741   -4.4312856    79.835374  0.060481343  0.067163055            2 
  111000    1.2274918   -4.4210189    80.996314  0.060808043  0.067176867            1 
  112000    1.2320575   -4.4359668    81.835558  0.060889552  0.067190922            5 
  113000    1.2098025   -4.4144512    82.602026  0.060915948  0.067205425            2 
  114000    1.2555647   -4.4263823    83.288425  0.060883351   0.06723113            2 
  115000    1.2559765   -4.4239038    84.262898   0.06106007  0.067245512            4 
  116000    1.2407745   -4.4097614    85.498791  0.061421545  0.067273906            2 
  117000    1.2108614   -4.4250612      85.8457  0.061143661  0.067311138            4 
  118000    1.2509218   -4.4368668    86.992967  0.061435711  0.067337502            2 
  119000    1.2413546   -4.4567447    87.932836  0.061577616  0.067368629            3 
  120000    1.2213474   -4.4272937    88.677135  0.061581343  0.067398772            4 
  121000    1.2195179   -4.4145911    89.534778   0.06166307  0.067428808            2 
  122000    1.2369315   -4.4525069    90.218318  0.061624534  0.067457069            3 
  123000    1.2349705   -4.4315149    91.537885  0.062017537   0.06748994            2 
  124000    1.2250672   -4.4393382     92.12969  0.061915114  0.067525422            4 
  125000    1.2299477   -4.4057501     93.28747  0.062191646  0.067557884            2 
  126000    1.2398187   -4.4242466    93.541622  0.061866152   0.06757817            3 
  127000    1.2261081   -4.4626546    94.121703  0.061759647  0.067591998            2 
  128000    1.2460526   -4.4639884    94.924648  0.061799901  0.067593803            2 
  129000     1.255782   -4.4456991    95.146515  0.061464157  0.067593182            2 
  130000    1.2369032   -4.4097254      96.7297  0.062006218  0.067599148            1 
  131000    1.2237487   -4.4303924    97.381386  0.061947446   0.06760662            3 
  132000    1.2646434   -4.4414786    98.074454   0.06191569  0.067610092            2 
  133000    1.2183017   -4.4643864    98.528715  0.061734783  0.067604581            2 
  134000    1.2506777    -4.438899     99.50151  0.061879048  0.067602339            3 
  135000    1.2137802   -4.4198585    100.94576    0.0623122  0.067604768            1 
  136000    1.2206857   -4.4265708    101.10483  0.061951487  0.067611302            2 
  137000    1.2321841   -4.4823211    101.55482  0.061773004  0.067614081            5 
  138000    1.1993462   -4.4403312    103.03106  0.062216825  0.067621682            1 
  139000     1.192978   -4.4436013    103.94296  0.062315923  0.067634167            4 
  140000    1.2172003   -4.4435875    104.88969  0.062434342  0.067647624            1 
  141000    1.2281411   -4.4630704     105.9496  0.062617969   0.06766409            2 
  142000    1.2333122   -4.4465525    106.89596  0.062732372  0.067680789            3 
  143000    1.2155858   -4.4257021     108.0071  0.062941198  0.067704887            1 
  144000    1.2528068   -4.4505013    107.47054  0.062193601  0.067723845            1 
  145000    1.2224767   -4.4510558    109.46091  0.062908571  0.067737808            6 
  146000    1.2314693   -4.4483047    110.11327  0.062850039  0.067755358            3 
  147000    1.2151918   -4.4303807    110.74224  0.062779047  0.067775502            2 
  148000    1.2357619    -4.456472    111.46469  0.062761648  0.067795159            2 
  149000    1.2422183   -4.4378678    112.69699  0.063029639  0.067809912            1 
  150000    1.2418376   -4.4583549    113.85958  0.063255321  0.067830576            3 
  151000    1.2100933    -4.430286    114.10054  0.062969391  0.067851052            1 
  152000    1.2520838   -4.4614267    115.03349  0.063066603  0.067868805            3 
  153000    1.2049827   -4.4016276    116.28199  0.063334417  0.067886629            3 
  154000    1.2397839   -4.4043319    116.86267  0.063237375  0.067906506            3 
  155000    1.2059132   -4.4187563    117.88079  0.063376769  0.067927173            2 
  156000    1.2303838   -4.4411276    118.37025  0.063231973  0.067948886            4 
  157000    1.2106856   -4.4768901     119.4299  0.063391669  0.067974164            1 
  158000    1.2313679   -4.4386525    120.70845  0.063664792  0.067999358            2 
  159000    1.2309085   -4.4763523    120.39345  0.063099294  0.068016491            3 
  160000    1.2063286   -4.4491993    121.77898  0.063426552  0.068026646            3 
  161000    1.2545107   -4.4190626    122.40167  0.063354899  0.068031026            3 
  162000     1.222806   -4.4468547    122.96267  0.063252401  0.068031859            5 
  163000    1.1894585   -4.4557991     123.2633  0.063018049  0.068032047            1 
  164000    1.2166181   -4.4315909    124.00924  0.063012828   0.06803447            2 
  165000    1.2192743   -4.4583266    125.54868  0.063408426  0.068042803            2 
  166000    1.2445626   -4.4260663    126.30676  0.063407007  0.068043138            2 
  167000    1.2449673   -4.4226888    126.87003    0.0633084  0.068039452            1 
  168000    1.2166707   -4.4579716    127.41802  0.063203381  0.068031207            3 
  169000    1.2085463   -4.4427201    128.38422  0.063305826  0.068028544            2 
  170000    1.1998648   -4.4899505    128.30488  0.062894548  0.068022493            1 
  171000    1.2332206   -4.4240433    129.71799  0.063215393  0.068010691            2 
  172000     1.202656   -4.4172596    129.58341  0.062782659  0.067992463            2 
  173000     1.226981   -4.4577053    130.04836   0.06264372  0.067972167            1 
  174000     1.206636   -4.4437915    131.52205  0.062989489  0.067948098            3 
  175000    1.2379225   -4.4742994    131.66105  0.062695738  0.067920439            2 
  176000    1.1980954   -4.4201436    133.45579  0.063189293  0.067897735            4 
  177000    1.2539278   -4.4049114    134.11538  0.063142836   0.06787903            2 
  178000     1.228298   -4.4942573    134.10957  0.062785377  0.067855589            4 
  179000    1.2243211   -4.4518288    134.96429  0.062832538  0.067830197            1 
  180000    1.2173096   -4.4630121    135.51722  0.062739451  0.067800901            2 
  181000     1.223107   -4.4817884    135.31655  0.062300439  0.067771567            2 
  182000    1.2430344   -4.4566815    136.79431  0.062634756  0.067737814            1 
  183000    1.2276317   -4.4305281    138.47239  0.063056643   0.06770931            1 
  184000    1.2185429   -4.4368698    138.43946  0.062699033  0.067681507            2 
  185000    1.2154804   -4.4634798    138.77194  0.062509883  0.067646662            2 
  186000    1.2214985   -4.4685615    140.01746  0.062731839  0.067617365            2 
  187000    1.1987585   -4.4915394    140.54718  0.062632431  0.067590021            4 
  188000    1.2166925   -4.4637971    141.81485  0.062861192  0.067561697            1 
  189000    1.2358846   -4.4678827    142.56849  0.062860887  0.067541333            2 
  190000    1.2189737   -4.4652871    143.42476  0.062905595  0.067522981            2 
  191000    1.2035066   -4.4829678    144.04134   0.06284526  0.067503613            1 
  192000    1.2100542   -4.4879409    144.56565  0.062745508  0.067478415            1 
  193000    1.2100714   -4.4747567    146.15023  0.063104591  0.067456573            5 
  194000    1.2371756   -4.4597531    146.09457  0.062755398  0.067434517            1 
  195000    1.1920983   -4.4682236      147.599  0.063076495   0.06741612            2 
  196000    1.2269765   -4.4378324    148.71238  0.063228052   0.06740157            2 
  197000    1.2117126   -4.4692617      149.236  0.063128595  0.067389063            4 
  198000    1.2175215    -4.464254    150.41228  0.063304833  0.067380485            1 
  199000    1.2105293    -4.479159     151.1332   0.06328861  0.067374762            8 
  200000    1.2386541   -4.4503854    152.58777  0.063578237  0.067369101            1 
  201000     1.240798   -4.4732017    152.86369  0.063376321  0.067365472            1 
  202000    1.2328637   -4.5033322    153.45318  0.063305767  0.067362573            4 
  203000    1.2176291   -4.4523034    154.95887  0.063612015  0.067357177            3 
  204000    1.2266362   -4.4371625    155.67934  0.063594499  0.067349298            2 
  205000    1.2073503   -4.4632294    156.31696  0.063543478  0.067339226            3 
  206000    1.2143379   -4.4441973    156.35241  0.063249355  0.067324743            3 
  207000    1.2241336   -4.4498005    157.21696   0.06329185  0.067312904            1 
  208000    1.2223033   -4.4320141    158.17504   0.06337141   0.06729892            2 
  209000     1.240447   -4.4190394    159.80039  0.063716262   0.06728351            1 
  210000    1.2492867   -4.4321412    159.33715  0.063229029  0.067269062            1 
  211000    1.2494783   -4.4670975    159.83951  0.063127768  0.067249186            5 
  212000     1.221774   -4.4572764    160.32706  0.063021644  0.067228808            4 
  213000     1.213455   -4.4754943    161.42744  0.063156276  0.067205211            7 
  214000    1.2042704   -4.4675004     161.9195  0.063052765  0.067182183            3 
  215000    1.2218235   -4.4569264    162.74324  0.063078774   0.06716326            2 
  216000    1.2336247   -4.4609242    163.36581  0.063026934  0.067143593            1 
  217000      1.22118   -4.4564582    164.14073  0.063034073  0.067120456            2 
  218000    1.2466839   -4.4303149    165.35509  0.063209134  0.067095462            1 
  219000    1.1907293   -4.4159813    165.85009  0.063108863  0.067075021            2 
  220000    1.1806842   -4.4555816    166.18741  0.062949776  0.067051704            1 
  221000    1.2076306   -4.4747215    166.92882  0.062944504  0.067025249            2 
  222000    1.1974837   -4.4904713    166.69604  0.062573587  0.066993153            3 
  223000     1.231842   -4.4862781    167.37738    0.0625476  0.066961178            2 
  224000    1.1870684   -4.4716958    168.70762   0.06276325  0.066929494            2 
  225000    1.1948288   -4.4850395    168.79519  0.062516737  0.066901492            2 
  226000    1.2176493    -4.436392    170.80666  0.062981807  0.066873243            4 
  227000    1.2160077    -4.448469    171.51878  0.062965777  0.066848149            3 
  228000    1.2019445   -4.4501117    172.81035  0.063161679  0.066824176            2 
  229000    1.2252329   -4.4577076    172.85756  0.062903043  0.066799672            6 
  230000    1.2250667   -4.4763367    173.35159  0.062808548  0.066776077            2 
  231000    1.2482198   -4.4788359     174.6805  0.063016053  0.066751139            2 
  232000     1.225572   -4.4544982     175.5828  0.063068534  0.066726974            2 
  233000    1.1998463   -4.4594187    176.03172  0.062958412  0.066704793            4 
  234000    1.2231608   -4.4774636    176.45665  0.062840686  0.066678541            1 
  235000    1.2190322   -4.4542696    177.55786  0.062963779   0.06665558            1 
  236000    1.2406639   -4.4506586    178.34302   0.06297423  0.066636174            2 
  237000    1.2096637   -4.4638451    179.16805  0.062998612  0.066612237            1 
  238000    1.2173953      -4.4903    179.05359  0.062693835  0.066584618            2 
  239000    1.2249061   -4.4655682    180.03356  0.062773208  0.066556478            1 
  240000    1.2176427   -4.5071575    180.49492  0.062671846  0.066530619            1 
  241000    1.2039944   -4.4458991    182.07662   0.06295872  0.066504436            4 
  242000    1.2338396   -4.4285207    182.46659  0.062832846  0.066479822            2 
  243000     1.221259    -4.489079    183.21797  0.062831952   0.06645602            1 
  244000    1.2219839    -4.462962    184.77289  0.063105497  0.066434112            2 
  245000     1.204559   -4.4591218    184.70246  0.062823966  0.066411049            1 
  246000    1.2077009   -4.4454219    185.13343  0.062714576   0.06638615            2 
  247000    1.2220065   -4.4669728    185.63869  0.062631137  0.066360784            2 
  248000    1.2025842   -4.4505861    186.75654  0.062754214  0.066334705            2 
  249000    1.1913598   -4.4948735    187.01228  0.062587779  0.066311679            1 
  250000    1.2081577   -4.5074052    187.95184  0.062650614  0.066287051            4 
  251000    1.2132823   -4.4607299    188.95549  0.062734227  0.066264571            1 
  252000      1.23096   -4.4958721    189.85873   0.06278397  0.066240626            2 
  253000    1.2402884   -4.4585177    190.47026  0.062737239   0.06622072            2 
  254000    1.2092569   -4.4279348    193.11768   0.06335882  0.066203763            3 
  255000    1.2014253   -4.4951907    193.53656  0.063247243  0.066185504            1 
  256000     1.214437   -4.4768796    194.71327  0.063383227  0.066170332            2 
  257000    1.1826737   -4.4770672    195.69545  0.063455076   0.06615798            2 
  258000    1.2114281   -4.4705015    195.11672  0.063022196  0.066147926            3 
  259000    1.2214494   -4.4509432     196.4014  0.063192213  0.066134405            4 
  260000    1.2294473    -4.520487    195.72022  0.062730838   0.06611921            2 
  261000    1.2444377   -4.5029361    197.26783   0.06298462   0.06610085            2 
  262000    1.1961839   -4.4586084     198.4405  0.063117207  0.066083925            2 
  263000    1.1985063   -4.4933552     199.0004  0.063054627  0.066069875            1 
  264000     1.218715   -4.4855472    198.95599  0.062801766  0.066058085            5 
  265000    1.2246853   -4.4780951    201.08249  0.063233487  0.066042059            2 
  266000    1.1859829   -4.4964897    200.65874  0.062863014  0.066022004            8 
  267000    1.2318107   -4.4458826     201.7225  0.062959582  0.066004595            1 
  268000    1.2230797   -4.4543806    202.33401  0.062914804  0.065987125            3 
  269000    1.1633732   -4.4679283    203.85655  0.063152587  0.065969708            2 
  270000    1.2070931   -4.4827066    204.81923  0.063215812  0.065956716            4 
  271000    1.2005458   -4.4522587    205.41023  0.063164278  0.065945715            2 
  272000    1.2204514   -4.4993234    205.65253  0.063006291  0.065932716            1 
  273000    1.2170845   -4.4775467    207.24082  0.063260324  0.065922056            2 
  274000    1.2218124   -4.4612335    208.56228  0.063431351  0.065916623            1 
  275000    1.2119401   -4.5048413    208.23065  0.063100196  0.065912182            1 
  276000    1.2137198   -4.4751209    210.72684  0.063625254  0.065904283            3 
  277000     1.193316   -4.4917718    210.02547  0.063184559  0.065894559            2 
  278000    1.2223491   -4.4905013    210.04838  0.062964142  0.065884858            3 
  279000    1.2141279   -4.4625771    211.41301  0.063146061  0.065875627            2 
  280000    1.2320192   -4.4770835    213.38111  0.063506284  0.065866834            3 
  281000    1.1836964    -4.486379    212.95433  0.063153717  0.065856921            2 
  282000    1.2311999   -4.4510746    215.19653  0.063592354  0.065850247            1 
  283000    1.2080731   -4.4683344    215.32971  0.063406863  0.065845319            5 
  284000    1.1911051   -4.4534344    215.97238  0.063372177  0.065837551            1 
  285000    1.2335769   -4.4696114    216.43656  0.063285544  0.065828902            3 
  286000     1.230011   -4.5013625    217.90214  0.063491299  0.065821487            6 
  287000    1.2130935   -4.4803599    218.02421  0.063305521  0.065815565            3 
  288000    1.1865402   -4.4425376    219.94922  0.063642714  0.065808848            4 
  289000    1.1995546    -4.500029    219.74078  0.063362394  0.065803439            1 
  290000    1.2438715   -4.4774719    221.10415  0.063535676  0.065799808            2 
  291000     1.215268   -4.4379495    222.01595   0.06357845  0.065793646            2 
  292000     1.217181    -4.482064     222.4566  0.063486473  0.065787123            3 
  293000    1.1827217   -4.4855155    222.99938   0.06342417  0.065781006            1 
  294000    1.1829811   -4.4632883    225.03729   0.06378608  0.065776661            3 
  295000     1.224684   -4.5235491    223.74734  0.063205463  0.065768958            2 
  296000    1.1986886   -4.4759498    226.35129  0.063725025  0.065763536            2 
  297000    1.1839941   -4.4841889    226.15206  0.063454563  0.065761408            2 
  298000    1.2067705   -4.4443178    227.10035  0.063506808  0.065756421            2 
  299000    1.2151859   -4.4982314    227.34591   0.06336285  0.065750972            1 
  300000    1.1896415   -4.4427958     228.1099   0.06336386  0.065743756            2 
  301000    1.1933803   -4.4533033    229.43842  0.063521158  0.065736254            1 
  302000     1.201859   -4.4913389    229.51676  0.063332439  0.065729764            2 
  303000    1.1915951   -4.4741336    229.40777  0.063093446   0.06572015            2 
  304000    1.2111715   -4.5020131    231.44818  0.063445224  0.065712741            2 
  305000     1.204399   -4.4889238    231.57952  0.063273092  0.065702973            3 
  306000    1.1691191   -4.5112727    231.69018  0.063096454  0.065691663            2 
  307000     1.209585   -4.4518681    233.23508  0.063310281  0.065681468            2 
  308000    1.2215961   -4.4746952    234.27871  0.063387096  0.065672638            1 
  309000    1.2137792   -4.4474536     236.5071  0.063782929  0.065665008            3 
  310000    1.2213547   -4.4863802    235.20176  0.063226279   0.06565635            2 
  311000    1.2077941   -4.4814397    235.24121  0.063033551  0.065644836            2 
  312000    1.2220881    -4.489747    236.94289  0.063286028  0.065634052            3 
  313000    1.1972186    -4.478076    237.80402  0.063313104  0.065626306            2 
  314000    1.1915028   -4.4920013    238.86119  0.063392037  0.065617114            2 
  315000    1.1881408   -4.4856527    240.04042  0.063502755  0.065611273            2 
  316000    1.1929185   -4.5314602    239.85782  0.063253645  0.065603777            3 
  317000    1.1998773   -4.4749991    241.13764  0.063390548   0.06559633            1 
  318000    1.2264157   -4.4806497    242.42541  0.063528672  0.065588358            2 
  319000    1.1831132    -4.470766    242.27145  0.063289302  0.065581542            3 
  320000    1.2031396   -4.5013925    242.85472  0.063243417  0.065571513            2 
  321000    1.1975975   -4.4782526    244.34428  0.063433094   0.06556177            3 
  322000    1.1891377   -4.4911588    243.93855  0.063131095  0.065552674            2 
  323000    1.1913466   -4.4942298    245.04009  0.063219838   0.06554242            1 
  324000    1.1754957   -4.4957524    246.35624  0.063363231  0.065533429            2 
  325000      1.21008   -4.4626713    246.92389  0.063313817  0.065523022            4 
  326000    1.2050185   -4.4774469    248.15172  0.063433466  0.065513295            4 
  327000    1.2134479   -4.4956478    248.28861  0.063274366  0.065502424            5 
  328000    1.2337071   -4.4986454    250.01279  0.063519508   0.06549231            3 
  329000     1.186421   -4.4707839    250.29893  0.063398919  0.065483389            4 
  330000    1.2098691    -4.506341    250.48066  0.063252693  0.065473266            2 
  331000    1.1964293   -4.5085742    251.41373  0.063296508  0.065462658            3 
  332000    1.1758892   -4.4774621     252.6351  0.063412424  0.065453435            4 
  333000    1.2093153   -4.4965398    252.98651  0.063309937   0.06544558            2 
  334000    1.2058332   -4.4969077    254.14659  0.063409829  0.065436847            6 
  335000    1.1857995   -4.4889799     254.2221  0.063239327  0.065428545            2 
  336000    1.1996401   -4.5161774    254.73788  0.063179038  0.065419451            5 
  337000    1.1691978   -4.5153982    256.14608  0.063339782  0.065408827            2 
  338000    1.2020298   -4.4955199    256.39721  0.063214302  0.065399313            3 
  339000    1.1925283   -4.4874795    258.51564  0.063548584  0.065391893            2 
  340000     1.189461   -4.5046968    258.24802  0.063296084  0.065384397            2 
  341000    1.1993105   -4.5278449    258.86107  0.063260281  0.065375582            2 
  342000    1.1886869   -4.4903565    259.14159  0.063143663  0.065365774            2 
  343000    1.1960026    -4.486627    259.91515   0.06314751  0.065356019            1 
  344000    1.2166615   -4.5017693    260.58646  0.063126566  0.065345419            1 
  345000    1.2118129   -4.5216905    261.63482  0.063196815  0.065335308            2 
  346000    1.1909274   -4.5288264    262.59216   0.06324474  0.065326473            5 
  347000    1.1995282   -4.5061998     264.0454   0.06341148  0.065317584            2 
  348000    1.1831627   -4.5065759    263.48181  0.063094303   0.06531044            3 
  349000    1.1983133   -4.4955711    264.53708  0.063165493  0.065301981            2 
  350000    1.2237264   -4.4787384    266.73271  0.063507787  0.065295143            3 
  351000     1.179964    -4.502878    265.66282  0.063072845  0.065286992            2 
  352000     1.191133   -4.5011437    266.91943  0.063191152  0.065275977            2 
  353000    1.1728396   -4.4960306    268.59443  0.063407561   0.06526611            2 
  354000     1.234006   -4.5019863    267.87647  0.063059433  0.065255201            2 
  355000    1.2191055   -4.4841561    268.48599   0.06302488  0.065244543            2 
  356000    1.2192154   -4.5057321    268.66872  0.062890619  0.065233422            3 
  357000    1.1801805   -4.5337543    269.35815  0.062875384  0.065221078            3 
  358000    1.2164117   -4.5243381    270.04564  0.062859786  0.065206329            2 
  359000    1.2005391   -4.4573424    270.65043  0.062825077  0.065190636            2 
  360000    1.2197086   -4.5036878    270.76618  0.062677357  0.065176001            2 
  361000    1.2045745   -4.5312398    271.73581  0.062727564  0.065159168            3 
  362000    1.2107057   -4.4749729    272.81942  0.062803733  0.065144386            1 
  363000     1.174224   -4.4983139    272.84335  0.062636213  0.065128186            2 
  364000    1.2000276   -4.5182735    274.51948  0.062847865   0.06511261            4 
  365000    1.1819547   -4.5027937    275.31975   0.06285839  0.065095065            6 
  366000    1.1986177   -4.5224715    275.03467  0.062621737  0.065078083            3 
  367000    1.2114841   -4.5046581    276.83858  0.062860714  0.065061028            1 
  368000    1.1795591   -4.4590628    277.77651   0.06290229   0.06504527            4 
  369000     1.182076   -4.5087438    279.02344  0.063013424  0.065031782            5 
  370000    1.1972495   -4.5126906    278.92954  0.062821968  0.065018028            2 
  371000    1.1951583   -4.5097306    279.78235  0.062844195  0.065004086            2 
  372000    1.1972631   -4.5110073    280.24793  0.062779554  0.064991331            2 
  373000    1.1686417   -4.4694365    281.61633  0.062916963  0.064975002            1 
  374000    1.1879573   -4.5345397     282.1042  0.062857443  0.064961652            2 
  375000    1.1706373   -4.4876564    283.66233  0.063036074  0.064949186            6 
  376000    1.2141932   -4.4960613    284.22951  0.062994129  0.064937372            2 
  377000    1.1701945   -4.5014168    285.06506  0.063011728  0.064925717            1 
  378000    1.1720674   -4.5062698    284.80152   0.06278693  0.064912421            2 
  379000    1.1866433   -4.5262258    285.32591  0.062736567  0.064899554            1 
  380000    1.2023698   -4.4818944    285.94509  0.062707257  0.064884374            1 
  381000     1.192905   -4.5256353    285.61578  0.062470643  0.064868912            2 
  382000     1.179117   -4.5048418    287.31581  0.062677968  0.064851412            3 
  383000    1.1961856    -4.517284    288.37349  0.062744449  0.064833898            2 
  384000    1.1860513   -4.4896111    288.21071  0.062545728   0.06481775            2 
  385000    1.1880947   -4.5118466    287.89182  0.062314246  0.064800025            2 
  386000    1.1858636   -4.5265911    289.80996  0.062566916  0.064783941            2 
  387000    1.2252598   -4.4976236    289.90251  0.062425174  0.064765114            1 
  388000    1.1689108   -4.4949538    290.47563  0.062387378  0.064747115            1 
  389000    1.2264723   -4.5066391    290.30588  0.062190634  0.064727699            2 
  390000     1.184496   -4.5117833    292.15313  0.062425882   0.06470755            3 
  391000    1.1972028   -4.5228236    293.36757  0.062525057   0.06468911            3 
  392000    1.1965713   -4.5338997    291.88355  0.062050074  0.064670473            2 
  393000    1.2182691   -4.5165831    294.53275  0.062453934   0.06465226            2 
  394000    1.1806814   -4.5244204    294.42474  0.062272577  0.064634188            5 
  395000    1.1983033   -4.5300113    295.29015  0.062297499  0.064617524            2 
  396000    1.2110559   -4.5119886    296.57079  0.062409678  0.064599991            4 
  397000    1.1561547   -4.5162173    296.87226  0.062315755  0.064582855            2 
  398000    1.1880066   -4.5105858    297.96543  0.062388072  0.064564722            1 
  399000     1.180355   -4.5293009    298.94279  0.062435838  0.064546762            5 
  400000    1.1638406   -4.4977225    298.10645  0.062105511  0.064529269            2 
  401000    1.1923034   -4.5568178    298.99098  0.062134451  0.064509509            4 
  402000    1.1781931      -4.5342    300.08369  0.062206404  0.064490109            3 
  403000    1.1955473   -4.5162643    300.27134  0.062090847  0.064470919            4 
  404000    1.1926524   -4.5234276    301.65933  0.062223459  0.064452232            5 
  405000    1.1764571   -4.5481204     301.1734  0.061969836  0.064433403            2 
  406000    1.1782676   -4.5418832    302.84501  0.062160306  0.064413801            1 
  407000    1.2015458   -4.5192712    302.55345   0.06194788  0.064396878            3 
  408000    1.1885878   -4.5242599    305.86324  0.062472067  0.064378446            2 
  409000    1.1825817   -4.5269418    305.08605  0.062160972  0.064359236            1 
  410000    1.1962165   -4.4853853    306.22976  0.062241822  0.064341001            4 
  411000    1.1808111   -4.5551464    306.47703  0.062140517  0.064324695            2 
  412000    1.1559498   -4.5010971    309.73737  0.062649145   0.06430916            2 
  413000    1.1863599   -4.5266279    309.63332  0.062476458   0.06429531            2 
  414000    1.1795692   -4.4857823    310.57412  0.062514919  0.064279882            3 
  415000    1.1734609   -4.4907785    310.42279  0.062333894  0.064265514            2 
  416000    1.2092941   -4.5170133    311.28839   0.06235745  0.064253253            3 
  417000      1.21355   -4.5813686    311.28291  0.062206816   0.06423938            2 
  418000    1.1645724   -4.5297787    313.32068   0.06246425  0.064225971            2 
  419000    1.1663901   -4.5252313    314.10928  0.062472012  0.064213388            2 
  420000    1.1691852    -4.506267    314.39355  0.062379673  0.064201744            3 
  421000    1.1846541   -4.5537943    315.57915  0.062466182   0.06418926            2 
  422000    1.1788242   -4.5111738    316.86161  0.062571408   0.06417723            1 
  423000    1.1743255   -4.5120755    316.83913  0.062419057  0.064164766            3 
  424000     1.189348   -4.5367916    317.76895  0.062454589  0.064152231            4 
  425000    1.1739737   -4.5062149    318.36339  0.062424194  0.064139285            5 
  426000      1.19194   -4.4590521     320.4045  0.062676937  0.064129286            2 
  427000    1.1783557   -4.5022956    320.30447   0.06251063  0.064117502            2 
  428000    1.1870355   -4.5302264    320.02114  0.062309411  0.064105854            1 
  429000    1.1722092   -4.5201269    321.99495  0.062547581  0.064094488            2 
  430000    1.1998017   -4.5368786    322.05382  0.062413531  0.064083771            1 
  431000     1.168522   -4.5130486    322.23448   0.06230365  0.064073698            2 
  432000    1.1803162   -4.4902109    323.49294  0.062402187  0.064063239            3 
  433000    1.2161226   -4.5192201    324.67341  0.062485259  0.064053817            1 
  434000    1.1557902   -4.5166204    324.23459  0.062257025   0.06404295            1 
  435000    1.1770373   -4.5342643    326.55915  0.062559225  0.064030434            1 
  436000    1.1774729   -4.5201697    326.67883  0.062438615  0.064018244            2 
  437000    1.1747708   -4.5333766    326.04056   0.06217402  0.064004801            3 
  438000    1.2028621   -4.5348143    327.82571  0.062371711  0.063993624            8 
  439000    1.1906149   -4.5270503    327.88638   0.06224115  0.063981636            3 
  440000    1.2025184   -4.5201174    328.98523  0.062307808  0.063970894            4 
  441000     1.178364    -4.501244    330.16223  0.062388932  0.063961415            1 
  442000    1.1815728   -4.5319563    331.17508  0.062438741  0.063950722            4 
  443000    1.1893597   -4.5030348    332.24502  0.062499063  0.063939444            4 
  444000    1.1880576   -4.5078472    331.91516  0.062296388  0.063928369            3 
  445000    1.1785686   -4.5489952    333.67508  0.062485969  0.063917446            2 
  446000    1.1782451   -4.5140201     335.1227  0.062616348  0.063906966            1 
  447000    1.1364458   -4.5064935    334.64165  0.062386587  0.063895564            2 
  448000    1.1595282    -4.517207    334.87916   0.06229151  0.063883573            3 
  449000    1.1736854   -4.5028289    336.41806  0.062438392  0.063869788            2 
  450000    1.1686544   -4.5398277     335.4457  0.062119575  0.063856891            2 
  451000    1.1873485   -4.5291004    337.48089  0.062357887  0.063843715            4 
  452000    1.1752158    -4.530977    337.62774  0.062247003  0.063829786            2 
  453000    1.1729453   -4.5173262    338.13627   0.06220314  0.063816168            2 
  454000    1.1829371   -4.5439213    337.03053  0.061863166  0.063801931            3 
  455000    1.1657658   -4.5262796    338.64313  0.062022551   0.06378695            2 
  456000      1.17751   -4.5416247    338.69131  0.061895341   0.06377241            2 
  457000    1.1768941   -4.5071081    340.33777  0.062060133  0.063758055            3 
  458000    1.1779757   -4.4955982    341.81487   0.06219339  0.063745272            2 
  459000    1.1782062   -4.5414858    341.95229  0.062082841  0.063732508            2 
  460000    1.1897523   -4.5182519    342.07836  0.061970717  0.063719258            2 
  461000    1.1894977   -4.5386537    342.87678  0.061980618  0.063706299            2 
  462000    1.1753652   -4.5339688    343.92807  0.062036087  0.063693318            3 
  463000    1.1779374   -4.5107394    345.18401  0.062128152   0.06368013            3 
  464000    1.1860221   -4.5318714    345.94387  0.062130724  0.063669112            1 
  465000    1.1599899   -4.5460694    345.96498  0.062000892  0.063658553            2 
  466000    1.1809756   -4.5370738    347.42237  0.062128463   0.06364863            2 
  467000    1.1678395   -4.5437954    348.18372  0.062131284  0.063638672            2 
  468000    1.1785955   -4.5132441    350.38196  0.062389951  0.063627939            2 
  469000    1.1807688   -4.5287859    350.30895   0.06224395  0.063617021            3 
  470000    1.1805338    -4.552225     351.2908  0.062285602  0.063606441            2 
  471000    1.1706073   -4.5562972    352.18067  0.062310805  0.063596339            2 
  472000    1.1749654   -4.5643621    351.34022  0.062030406  0.063586904            2 
  473000    1.1933241   -4.5154891    352.95582  0.062183901  0.063575742            1 
  474000    1.1568527   -4.5266474    354.03887   0.06224312   0.06356516            5 
  475000    1.1541552   -4.5231266    354.04223  0.062112672  0.063554989            2 
  476000    1.1743547   -4.5637389    353.87463  0.061952842  0.063544123            1 
  477000    1.1892618   -4.5276581     354.5503  0.061941002   0.06353103            3 
  478000    1.1813988   -4.5025126    354.50061  0.061802756  0.063518294            2 
  479000      1.15202   -4.5396931    356.00057  0.061934684   0.06350569            1 
  480000     1.202687   -4.5086735    358.27157  0.062199926   0.06349354            2 
  481000    1.1902956   -4.5465056    358.37312  0.062088205  0.063483332            1 
  482000    1.1858892   -4.5314536    358.08152  0.061908977  0.063472837            2 
  483000    1.1707547    -4.503486     361.7948  0.062421463  0.063462074            1 
  484000     1.188881   -4.5712785    359.40856  0.061881639  0.063451667            5 
  485000    1.1538887   -4.5170787    360.55933  0.061951775  0.063441273            2 
  486000    1.1639449   -4.5357544    362.73286  0.062196992  0.063431293            2 
  487000    1.1862333   -4.5218548    362.25635  0.061987739  0.063419367            1 
  488000    1.1658056    -4.520186    362.94903  0.061979002  0.063408789            2 
  489000    1.1822179   -4.5628427     362.8662  0.061838138  0.063398807            3 
  490000    1.1643518   -4.5316213    364.51997  0.061993192  0.063388919            2 
  491000    1.1625721   -4.5431425     364.9557  0.061940885  0.063377699            1 
  492000    1.1698822   -4.5335253    366.09288  0.062007601  0.063365729            2 
  493000    1.1616548   -4.5402539    365.95207  0.061858024  0.063355206            2 
  494000    1.1600284   -4.5379841    368.34013  0.062135649  0.063344924            3 
  495000    1.1569404   -4.5238429    368.62504  0.062058087  0.063334235            6 
  496000    1.1741002   -4.5664201    367.07056  0.061671801  0.063323464            4 
  497000    1.1791094   -4.5569582    367.24008  0.061576137  0.063310071            2 
  498000    1.1741276   -4.5681555    369.36144  0.061807471  0.063297204            2 
  499000    1.1489714   -4.5342713     370.4125  0.061859134  0.063285598            3 
  500000    1.1780016    -4.514497    371.81439  0.061969064  0.063274489            1 
  501000     1.175842   -4.5114408    371.41322  0.061778646  0.063263466            2 
  502000    1.1704948   -4.5296594     373.3802  0.061982106   0.06325146            2 
  503000    1.1523685   -4.5534005    373.59609  0.061894646   0.06324019            1 
  504000    1.1916417   -4.5488776     373.9794  0.061835219  0.063227925            3 
  505000    1.1618758   -4.5625859    373.81753  0.061686061  0.063215619            6 
  506000    1.2001515   -4.5187004    374.06846  0.061605478  0.063202017            2 
  507000    1.1825556   -4.5378657    372.84602  0.061283041  0.063188962            2 
  508000    1.1872552   -4.5224449    375.36283  0.061575268  0.063174961            4 
  509000    1.1853747   -4.5358272    375.05033  0.061403132  0.063161323            2 
  510000    1.1696811   -4.5378319    375.25003  0.061315364  0.063146951            3 
  511000    1.1738016   -4.5251681    377.13838  0.061503323  0.063134192            2 
  512000    1.2009988   -4.5613432    377.44577   0.06143323  0.063120232            2 
  513000    1.1566605    -4.503262    379.97481  0.061724303  0.063107515            2 
  514000    1.1651955   -4.5393656    380.28112  0.061653878  0.063094884            2 
  515000    1.1786024    -4.553211     379.3245  0.061379369  0.063082204            4 
  516000    1.1656278   -4.5432532    382.44254  0.061763975  0.063070393            4 
  517000    1.1767404    -4.537767    381.64042  0.061515219  0.063058823            2 
  518000    1.1940594   -4.5378853    384.85898   0.06191425  0.063047253            3 
  519000    1.1568864   -4.5237266    385.87947   0.06195881  0.063036201            3 
  520000    1.1685003     -4.58305    385.00859  0.061700095  0.063024686            3 
  521000    1.1883832    -4.547127    385.38298  0.061641551  0.063013217            3 
  522000    1.1488742   -4.5067016     388.2556  0.061982057  0.063001571            1 
  523000    1.1683174   -4.5249462    387.42226  0.061730762  0.062990283            2 
  524000    1.1825756     -4.50181    388.93707   0.06185386  0.062979651            1 
  525000    1.1383336   -4.5571821    388.73524  0.061704006  0.062969064            1 
  526000    1.1609133   -4.5815037    387.74895  0.061430442  0.062957514            2 
  527000     1.163795   -4.5239049    392.43008  0.062054093   0.06294611            3 
  528000    1.1735829   -4.5675441    390.82183  0.061682739  0.062935867            3 
  529000    1.1513209   -4.5373551    391.77234   0.06171587  0.062925542            2 
  530000    1.1727852   -4.5687139    393.54554  0.061878229  0.062916395            2 
  531000    1.1682105    -4.585864    394.34601  0.061887321  0.062907484            3 
  532000    1.1521182   -4.5862484    392.97716  0.061556573  0.062898977            4 
  533000    1.1695604   -4.5361704      395.175  0.061784709   0.06288912            2 
  534000     1.161984   -4.5328871    395.09152   0.06165598  0.062879551            4 
  535000    1.1743948    -4.546861    395.12601  0.061546108  0.062869348            1 
  536000    1.1745574    -4.564526    395.61464  0.061507251  0.062857959            3 
  537000     1.160228   -4.5399343    397.32209   0.06165768  0.062847831            2 
  538000    1.1833662   -4.5528402    397.85418  0.061625492  0.062836157            3 
  539000    1.1645051   -4.5524023    397.54474  0.061463318  0.062825035            1 
  540000    1.1409048   -4.5614349    399.31571  0.061622795  0.062813202            2 
  541000    1.1788284   -4.5848711    398.55667   0.06139197  0.062800696            2 
  542000    1.1432589   -4.5306566    399.68233  0.061451773  0.062786768            3 
  543000    1.1717625   -4.5627732    399.52687  0.061314744  0.062772875            2 
  544000    1.1896157   -4.5464781    400.43833  0.061341656  0.062757576            2 
  545000    1.1568541   -4.5921695    399.35086  0.061062823  0.062741744            3 
  546000    1.1737762   -4.5655804    401.19522  0.061232482  0.062726279            2 
  547000    1.1627337   -4.5051208    402.73148  0.061354583  0.062711753            4 
  548000    1.1681794   -4.5483432    401.79513  0.061100233  0.062697549            1 
  549000    1.1562544   -4.5458499    402.08601  0.061033091  0.062681479            2 
  550000    1.1627358   -4.5610853     404.0636  0.061221758  0.062665678            3 
  551000    1.1678243   -4.5500596    404.23024  0.061135849  0.062650189            2 
  552000    1.1630909   -4.5319695    403.97405  0.060986421  0.062634024            1 
  553000    1.1558253   -4.5441834    404.73009  0.060990068   0.06261994            4 
  554000    1.1786293   -4.5516568    405.75453  0.061034075  0.062604574            2 
  555000     1.168672   -4.5510295    407.52658  0.061190176  0.062589975            3 
  556000     1.128746   -4.5310212    406.99494   0.06100044  0.062576077            3 
  557000     1.155867   -4.5480088    408.70071  0.061146127  0.062560931            3 
  558000    1.1623607   -4.5792766    408.04745  0.060938986  0.062546218            1 
  559000    1.1944234   -4.5368094    408.99108  0.060970644  0.062530227            3 
  560000    1.1425067   -4.5926021    409.82761  0.060986252   0.06251551            3 
  561000    1.1504222   -4.5558734    412.17055  0.061225571   0.06250142            2 
  562000    1.1730619   -4.5540238    412.69925  0.061195025   0.06248869            1 
  563000    1.1524345   -4.5265577    411.93652  0.060973434  0.062476007            1 
  564000    1.1682292   -4.5691263    413.67065   0.06112155  0.062463053            5 
  565000     1.186093   -4.5997712    413.67781  0.061014426  0.062449664            3 
  566000     1.174222   -4.5102768    414.68586  0.061055044  0.062435596            2 
  567000    1.1494601   -4.5351648    415.01451  0.060995666  0.062422897            2 
  568000    1.1515895   -4.5422195    416.02609  0.061036691  0.062409457            2 
  569000    1.1928867   -4.5526525    417.01096  0.061073661   0.06239681            2 
  570000    1.1641386   -4.5616293    418.08301  0.061123247  0.062383987            2 
  571000    1.1436711   -4.5390409    417.80354  0.060975415  0.062370585            4 
  572000    1.1538047   -4.5959369    418.34128  0.060947156  0.062357016            3 
  573000    1.1615513   -4.5466748    419.40146  0.060994977  0.062343718            2 
  574000    1.1875501    -4.576789    419.34551   0.06088059  0.062331069            2 
  575000    1.1810633   -4.5746949    420.00734  0.060870629  0.062317969            2 
  576000     1.161962   -4.5395417    421.50675  0.060981879  0.062305854            3 
  577000    1.1806162   -4.5728062    421.88883  0.060931374  0.062291704            2 
  578000    1.1656453   -4.5642875    421.89965  0.060827516  0.062278538            2 
  579000    1.1535823   -4.6007717    421.01421  0.060595021  0.062264765            3 
  580000    1.1792173   -4.5677848    423.99956  0.060919478  0.062251273            3 
  581000    1.1625337   -4.5678882    424.84149  0.060935382  0.062237657            2 
  582000    1.1504609   -4.5812966    425.32674  0.060900163  0.062223837            1 
  583000    1.1761459   -4.5909105    424.70143  0.060706322  0.062208735            2 
  584000    1.1457666   -4.5805335    422.86845  0.060340818  0.062193636            4 
  585000    1.1486266   -4.5313884    425.82945  0.060659465  0.062179224            2 
  586000    1.1924055   -4.5876406    427.05812  0.060730678  0.062164216            1 
  587000    1.1869329   -4.5443604    427.49479   0.06068921  0.062149158            4 
  588000    1.1428488   -4.5803713    427.30586  0.060559221  0.062132653            1 
  589000    1.1636358    -4.552147    427.52669  0.060487647  0.062115974            2 
  590000    1.1478165   -4.5917638    427.56978  0.060391211  0.062098998            5 
  591000    1.1602317    -4.554064    430.42583  0.060691741  0.062083274            1 
  592000     1.176988   -4.5309034    430.06514  0.060538449  0.062067931            2 
  593000    1.1464888   -4.5259973    431.54393  0.060644173  0.062051236            2 
  594000    1.1563818   -4.5321319    431.23756  0.060499097  0.062034287            2 
  595000    1.1618407   -4.5658036     431.1205  0.060381022  0.062017366            2 
  596000    1.1522371   -4.5817758      432.399  0.060458473  0.062000058            3 
  597000     1.171534   -4.5593162    433.27103  0.060478926  0.061983605            3 
  598000     1.161685   -4.5728429    433.05493  0.060347677  0.061968751            2 
  599000    1.1657141   -4.5974095    434.36676  0.060429433  0.061952538            3 
  600000    1.1378585   -4.5574204    434.60055  0.060361187  0.061935996            2 
  601000    1.1586477   -4.5847576    436.28147  0.060493825  0.061920657            6 
  602000     1.150936   -4.5507294    435.35431  0.060264994  0.061905036            2 
  603000    1.1390406   -4.6276433    436.25636  0.060289712  0.061890087            2 
  604000     1.167008   -4.6135304    438.12152  0.060447229  0.061874981            1 
  605000    1.1488269   -4.5782523    439.74981  0.060571599  0.061860746            3 
  606000    1.1502377   -4.5682014    440.05589  0.060513736  0.061846725            8 
  607000    1.1581827   -4.5550283    440.17378  0.060430228  0.061831896            2 
  608000    1.1607163   -4.5506391    442.89723  0.060704115  0.061816792            3 
  609000    1.1330156   -4.5829813    441.35789    0.0603938  0.061801378            1 
  610000    1.1586783   -4.6002399    440.99788  0.060245613  0.061785486            2 
  611000    1.1773238   -4.5527605    443.91122  0.060544356  0.061770874            2 
  612000    1.1581749   -4.5420725    444.79821  0.060566205  0.061755885            2 
  613000    1.1394239    -4.538826    444.00005  0.060358897  0.061740805            2 
  614000    1.1485466   -4.5760861    443.76332  0.060228463   0.06172665            2 
  615000    1.1739776   -4.6119721    444.81185  0.060272609  0.061712787            1 
  616000    1.1652513   -4.5940829    445.88754  0.060320284  0.061698873            1 
  617000    1.1702773   -4.5954681    447.06834  0.060382001  0.061685361            4 
  618000    1.1461801   -4.5373016    447.69572  0.060368895   0.06167083            2 
  619000     1.173972   -4.5778907    449.03301  0.060451402  0.061656082            2 
  620000    1.1499599   -4.5767201    448.02365  0.060218233  0.061642196            2 
  621000    1.1694448   -4.5261856     450.5405  0.060459004  0.061628762            4 
  622000    1.1596884   -4.5573635    452.74872  0.060657652   0.06161583            3 
  623000    1.1399269    -4.571839    451.30677  0.060367412  0.061602445            4 
  624000    1.1605527    -4.577234    451.63955  0.060315111  0.061589698            2 
  625000    1.1588975   -4.5503663    452.87418  0.060383224  0.061576673            3 
  626000    1.1470935   -4.5738428    454.08512  0.060447966   0.06156367            2 
  627000    1.1684011   -4.5913119    452.33536     0.060119  0.061549787            3 
  628000    1.1574262   -4.5889486    455.04309  0.060382576  0.061536772            1 
  629000    1.1369085   -4.5647116    456.75328  0.060513153  0.061522349            2 
  630000     1.117593   -4.5261056    457.63938  0.060534309  0.061508994            2 
  631000    1.1721453    -4.607418    456.56666  0.060296706  0.061495955            5 
  632000    1.1329191   -4.6028199    457.00961  0.060259706  0.061483564            4 
  633000     1.149654   -4.6073733    456.73665  0.060128574  0.061470926            3 
  634000    1.1475076   -4.5967169    457.51252  0.060135715  0.061457385            3 
  635000    1.1428339   -4.6085615    459.00809  0.060237282  0.061444867            2 
  636000    1.1379354   -4.5934938    458.82579  0.060118683  0.061431274            2 
  637000    1.1420281    -4.596916    458.92483  0.060037262  0.061417053            2 
  638000    1.1391826   -4.5816738    460.03734  0.060088471  0.061403075            3 
  639000    1.1383935   -4.5509134    462.37527  0.060299331  0.061389309            4 
  640000    1.1560337   -4.5928931    460.68594  0.059985148  0.061375845            2 
  641000    1.1523236   -4.5597791    461.03186   0.05993654  0.061361406            2 
  642000    1.1537103    -4.613147    463.04745   0.06010481  0.061347478            2 
  643000    1.1415988   -4.5948303    463.94843  0.060128102  0.061334338            3 
  644000    1.1592632   -4.6024124    466.13546  0.060317735   0.06132139            3 
  645000    1.1480832   -4.5662423    466.14194  0.060225056  0.061307442            1 
  646000    1.1362589   -4.6222683    466.37655  0.060162093  0.061294003            2 
  647000    1.1604964   -4.5802461    467.00326  0.060149828  0.061280033            3 
  648000    1.1448269   -4.5982672    466.01555  0.059929983   0.06126589            2 
  649000    1.1664148   -4.5577796    469.27236  0.060255824  0.061252165            4 
  650000    1.1437348   -4.6176249    467.75211   0.05996822  0.061238086            4 
  651000    1.1221997   -4.5801292    470.08499   0.06017473  0.061223762            3 
  652000     1.129791   -4.5842716    469.95317  0.060065589  0.061209995            2 
  653000    1.1277604   -4.5912361    469.65272  0.059935263   0.06119727            2 
  654000    1.1442069   -4.5619556    472.06843   0.06015143   0.06118394            2 
  655000    1.1372814   -4.5608139    471.34986  0.059968175  0.061170945            2 
  656000    1.1607918   -4.6111695    472.28627  0.059995715  0.061157999            2 
  657000    1.1622033   -4.5902661    471.57391  0.059814043  0.061143791            2 
  658000    1.1372195   -4.5835325    472.63244  0.059857199  0.061129595            2 
  659000    1.1463253   -4.5600296    473.19918  0.059838035   0.06111574            3 
  660000     1.160124    -4.559556    476.31071  0.060140241  0.061101712            6 
  661000    1.1448593   -4.5523869    477.27439  0.060170751  0.061088975            3 
  662000     1.109376   -4.5686783    476.11422  0.059933814  0.061074604            2 
  663000    1.1511236      -4.5476    477.21745  0.059982082  0.061060279            2 
  664000    1.1596719   -4.6048382    475.31676  0.059653207  0.061046449            5 
  665000    1.1447297   -4.5819169    476.75811  0.059744124  0.061031853            2 
  666000    1.1556855   -4.6147348    475.85434  0.059541334  0.061017196            3 
  667000    1.1312695   -4.5500633    478.52506   0.05978574  0.061002887            3 
  668000    1.1351339   -4.6140831    478.41202  0.059682138   0.06098884            5 
  669000    1.1545583   -4.5722473    481.85986  0.060022405  0.060974707            3 
  670000    1.1541002   -4.5805811     481.0739  0.059835062  0.060960777            4 
  671000    1.1659442   -4.5883084    479.00815  0.059489339  0.060946807            1 
  672000    1.1381531   -4.5902041    482.74372  0.059864053  0.060932723            2 
  673000      1.16372   -4.6191505    482.39243  0.059731603  0.060918292            5 
  674000    1.1509649   -4.6063397    484.07279   0.05985074  0.060903826            1 
  675000    1.1419537   -4.5857388    483.53541   0.05969573  0.060889687            3 
  676000    1.1327778    -4.586772    483.69293   0.05962684  0.060876033            3 
  677000    1.1094303   -4.6099233    485.07645  0.059709066  0.060861969            5 
  678000    1.1467387   -4.5805104    483.74315  0.059457122  0.060847826            3 
  679000    1.1566825   -4.5979354    484.64687   0.05948047  0.060832518            3 
  680000    1.1560462   -4.5917365    486.17382  0.059580125   0.06081661            2 
  681000    1.1324385   -4.5745999    484.70227  0.059312563  0.060801891            2 
  682000    1.1331493   -4.5860848    486.92344  0.059496999  0.060787086            3 
  683000    1.1365198   -4.5873218    486.73706  0.059387147  0.060772477            5 
  684000     1.137176   -4.5652591    489.84195    0.0596786  0.060757416            3 
  685000    1.1585356   -4.6186418    486.62148  0.059199694  0.060741998            2 
  686000    1.1249932   -4.5775343     490.6675  0.059604896  0.060726823            6 
  687000    1.1651623    -4.609177    490.28779  0.059472075  0.060711403            3 
  688000     1.154806   -4.6032078    491.23345  0.059500176  0.060696219            2 
  689000    1.1183927   -4.5935937    493.08546  0.059637816  0.060682047            3 
  690000    1.1396617   -4.6031612    492.32945  0.059460078  0.060668802            2 
  691000    1.1484354   -4.6196984    493.76893  0.059547627  0.060654744            3 
  692000    1.1219924   -4.6243512    493.96196  0.059484821  0.060640613            3 
  693000     1.133468   -4.6197373    494.48352  0.059461703  0.060626973            2 
  694000    1.1187134   -4.5951007    495.90002  0.059546112  0.060613122            3 
  695000     1.142873   -4.5861717    498.34053  0.059753061  0.060600523            2 
  696000    1.1607185    -4.590589    498.58249  0.059696179  0.060588148            1 
  697000     1.161218   -4.5959441    499.17947  0.059681906  0.060576038            3 
  698000    1.1404134   -4.5944933    500.39093  0.059741037  0.060563616            3 
  699000     1.123406   -4.5834113    500.65111  0.059686589  0.060551375            2 
  700000    1.1471754   -4.6319155    499.81329  0.059501582  0.060538345            2 
  701000     1.138001   -4.5983707    503.24759  0.059824963  0.060526067            3 
  702000    1.1358117   -4.6039913    500.06898  0.059362414  0.060513406            3 
  703000    1.1322767    -4.642464    501.84726   0.05948877  0.060501035            3 
  704000    1.1533752   -4.6351557    502.03501  0.059426492  0.060489886            4 
  705000    1.1355544   -4.5776486    505.38773  0.059738503  0.060478785            2 
  706000    1.1400695   -4.6085631    507.19439  0.059867137  0.060468275            3 
  707000    1.1417806   -4.6142436    504.95564   0.05951858  0.060457012            1 
  708000    1.1202088   -4.5387948    507.68125  0.059755326  0.060445856            3 
  709000    1.1451894    -4.593577    506.68924  0.059554448  0.060434675            2 
  710000    1.1299615   -4.5995741    507.29613  0.059541799  0.060423139            4 
  711000    1.1209822   -4.6033857    507.64852  0.059499358  0.060412089            2 
  712000    1.1575375   -4.6411363    508.97005  0.059570465  0.060400707            3 
  713000    1.1071356   -4.5867727    510.56885  0.059673778  0.060388879            2 
  714000    1.1505902   -4.6045348    509.48393  0.059463577  0.060376926            3 
  715000    1.1161594    -4.584916    513.28029  0.059822877  0.060365212            4 
  716000    1.1238292   -4.6240688     511.5174  0.059534148  0.060354106            2 
  717000    1.1382188   -4.5876345    511.92807  0.059498846  0.060342939            2 
  718000     1.124791   -4.6003472    513.32362   0.05957795  0.060331565            2 
  719000    1.1202566   -4.5786914    513.46569  0.059511554  0.060320722            2 
  720000    1.1386243    -4.614158    514.43959  0.059541619    0.0603095            1 
  721000    1.1545582   -4.6457252    510.66088  0.059022293  0.060297855            2 
  722000    1.1535305    -4.580069    516.05188  0.059562774  0.060285455            2 
  723000    1.1622386   -4.5924572     515.7623  0.059447015  0.060274201            3 
  724000    1.1413985   -4.5992345    516.06143  0.059399336  0.060262429            3 
  725000    1.1234781   -4.6133311     516.1758  0.059330551  0.060250524            4 
  726000    1.1371939   -4.6285279    518.80466  0.059550581  0.060237945            2 
  727000    1.1392806   -4.5786243    518.46071  0.059429242  0.060225774            4 
  728000    1.1412577   -4.6259049    517.78987  0.059270818  0.060213685            2 
  729000     1.123434   -4.5927326    520.57298  0.059507657  0.060202233            1 
  730000    1.1257302   -4.5931107    522.05932  0.059595813  0.060191132            1 
  731000    1.1333112   -4.6654674    519.01134  0.059166819  0.060179744            3 
  732000    1.1220976   -4.5577318    521.98207  0.059424189  0.060167216            2 
  733000    1.1186887   -4.6025842    521.93292  0.059337531  0.060156226            3 
  734000    1.1582982   -4.6355077    521.54565  0.059212721   0.06014446            4 
  735000    1.1483247   -4.5629967    522.47436  0.059237456   0.06013348            1 
  736000    1.1390293   -4.6145681    523.38621  0.059260214  0.060121867            4 
  737000     1.112841   -4.5876525    524.76031  0.059335177  0.060110086            1 
  738000    1.1500888   -4.6588273    521.47053  0.058883303  0.060097549            3 
  739000    1.1492127   -4.6362504    524.65899   0.05916317   0.06008506            2 
  740000    1.1345323   -4.5814098    527.01729  0.059348794  0.060073115            3 
  741000     1.147815   -4.5926204    526.02381  0.059156974  0.060060936            2 
  742000    1.1254155   -4.6115672    527.31873  0.059222679  0.060048093            2 
  743000    1.1229139   -4.6038986    529.42642  0.059379366  0.060037015            6 
  744000    1.1397518   -4.6039255     528.4299  0.059187937  0.060025615            2 
  745000    1.1302611   -4.5949544    529.77207  0.059258621  0.060014677            4 
  746000    1.1494072    -4.630042    530.07191   0.05921268  0.060002799            3 
  747000    1.1584749   -4.6150092    532.46599   0.05940049  0.059991234            4 
  748000    1.1321331   -4.6045528    531.15829  0.059175389    0.0599799            4 
  749000    1.1260531   -4.6099143    532.28471  0.059221707   0.05996825            2 
  750000    1.1417029    -4.630526    532.15341  0.059128157  0.059956616            2 
  751000    1.1330559   -4.6102914    530.90781  0.058911208   0.05994497            3 
  752000    1.1105205   -4.6066887    532.29717  0.058986832   0.05993234            3 
  753000    1.1471601   -4.6244153    534.17216  0.059115998  0.059919291            3 
  754000    1.1210511   -4.6176929    533.00586  0.058908694   0.05990704            1 
  755000    1.1286516   -4.6560247    534.03862  0.058944661  0.059895141            2 
  756000    1.1236837    -4.618364     537.5363  0.059252237  0.059883001            2 
  757000    1.1483647    -4.610031    537.73708  0.059196067  0.059871282            1 
  758000    1.1341413   -4.6188879     537.4798  0.059089688  0.059859396            2 
  759000    1.1308033   -4.6623034    536.68761  0.058924858  0.059847262            3 
  760000    1.1427375   -4.6005491    538.70491   0.05906852   0.05983477            1 
  761000    1.1388955   -4.5966341    539.90444  0.059122256  0.059822154            3 
  762000    1.1226913    -4.644698    536.91028  0.058717223  0.059809418            1 
  763000    1.1279018   -4.6016424    540.79738  0.059064808  0.059796106            3 
  764000    1.1096266   -4.6186118    541.76152  0.059092662  0.059783598            2 
  765000    1.1169235   -4.6288506     541.0278   0.05893549  0.059771644            2 
  766000    1.1254398    -4.622255    540.71737  0.058824779  0.059759497            3 
  767000    1.1463554   -4.6694381    540.03491  0.058673937  0.059746713            4 
  768000    1.1147287   -4.5972361    542.54414  0.058869807  0.059733679            1 
  769000    1.1279913   -4.6087021    542.68293  0.058808293  0.059720816            1 
  770000    1.1330674   -4.6418761    541.63168  0.058618148  0.059707761            3 
  771000    1.1133579   -4.6280071    542.87317  0.058676305  0.059694912            9 
  772000    1.1435677   -4.6161014    544.72054  0.058799713  0.059681484            2 
  773000    1.1348305   -4.6226766    545.90286  0.058851106  0.059668274            2 
  774000    1.1492319   -4.6278544    544.91673  0.058668898  0.059655017            3 
  775000     1.123566   -4.6564146     545.2082  0.058624537  0.059641783            2 
  776000    1.1441828   -4.5951385    545.73775  0.058605858  0.059628288            2 
  777000    1.1433585   -4.5931698    548.23658  0.058798432  0.059614244            4 
  778000    1.1210249   -4.6374782    545.05256  0.058381808  0.059600417            3 
  779000    1.1338961   -4.5828256    547.44918  0.058563241  0.059586153            2 
  780000    1.1365264   -4.6127258    547.55072  0.058499008  0.059572438            2 
  781000    1.1135932   -4.6023454    549.56602   0.05863914  0.059558415            2 
  782000    1.1280332   -4.6017608    551.31256  0.058750273  0.059545031            5 
  783000    1.1234995   -4.6018044    551.51991  0.058697308    0.0595316            5 
  784000    1.1295952    -4.590545     553.4813   0.05883092  0.059517789            3 
  785000    1.1310439   -4.6574581    549.89041  0.058374778  0.059504118            5 
  786000    1.1483747   -4.6479177    550.38136  0.058352562  0.059490875            3 
  787000    1.1494767   -4.6004414    551.24906  0.058370294  0.059476933            6 
  788000    1.1274641    -4.619769    554.42466  0.058632049  0.059463863            1 
  789000    1.1479917   -4.6280962    553.91498  0.058503906  0.059450872            2 
  790000    1.1168007   -4.6278757      555.832  0.058632068  0.059438336            4 
  791000    1.1362477   -4.6417834    557.41449  0.058724662  0.059426058            2 
  792000    1.1305216   -4.6489373    556.21468  0.058524272  0.059414031            2 
  793000    1.1221478   -4.6259275    556.94491  0.058527207  0.059401592            2 
  794000    1.1144081   -4.6080641    558.47306  0.058613881  0.059388925            3 
  795000    1.1479234   -4.5931026    561.05481  0.058810776  0.059376398            2 
  796000    1.1212295   -4.6067573    561.89699  0.058825062  0.059365426            2 
  797000    1.1133765   -4.6285795    561.97557  0.058759469  0.059353866            2 
  798000    1.1273622   -4.6181824    561.46659  0.058632685  0.059342978            1 
  799000    1.1277335   -4.6252459    559.88037  0.058393864  0.059330689            3 
  800000    1.1142656   -4.6153269    561.47497  0.058486976  0.059318587            1 
  801000    1.1230343   -4.5869103    566.28823  0.058914713  0.059306815            2 
  802000     1.154873   -4.5969841    566.29175   0.05884162  0.059295484            4 
  803000     1.118183   -4.6073225    567.45274  0.058888827  0.059284318            2 
  804000    1.1293951   -4.6071633    567.10665  0.058779711   0.05927286            1 
  805000    1.1018369   -4.6283827    565.65042  0.058555944  0.059262138            2 
  806000    1.1152444   -4.6749198    566.08517  0.058528243  0.059251099            9 
  807000    1.1372985    -4.637259     566.5854  0.058507373  0.059240715            4 
  808000    1.1159398   -4.6003852    568.95977  0.058679844  0.059229563            1 
  809000    1.1138919   -4.6441221    570.50091   0.05876606  0.059219135            2 
  810000    1.1405942   -4.6731103    568.57099  0.058494957  0.059208511            3 
  811000    1.1343917   -4.6286657    569.85113   0.05855437   0.05919719            2 
  812000    1.1201938    -4.635103    572.31301  0.058734915  0.059186877            2 
  813000    1.1632639   -4.6551779    572.75198  0.058707665   0.05917634            3 
  814000    1.1289022   -4.6340812    574.43331  0.058807669  0.059166022            4 
  815000    1.1345161   -4.6240932    573.47808   0.05863784   0.05915685            6 
  816000    1.1003415   -4.6255846    576.41963  0.058866383  0.059146544            2 
  817000    1.1089698   -4.6370446    574.69014  0.058617925  0.059136275            2 
  818000    1.1413626   -4.6596171     575.0925  0.058587256  0.059125535            2 
  819000    1.1346929   -4.6414727    576.06004  0.058614167   0.05911449            2 
  820000    1.1221251   -4.6435868    573.44096   0.05827652   0.05910252            2 
  821000    1.1237091   -4.6175001    577.66519  0.058634307  0.059090939            1 
  822000    1.1247041   -4.6440635    576.27608  0.058422149  0.059079472            2 
  823000    1.0982472   -4.6357999    575.85677  0.058308705   0.05906779            1 
  824000    1.1252294   -4.6602966    577.46609  0.058400697  0.059056138            6 
  825000    1.1078039   -4.6350136    578.24473  0.058408559  0.059044542            2 
  826000    1.1401606   -4.6308647    581.47341  0.058663581  0.059033314            3 
  827000    1.0979738   -4.6269441    580.43905  0.058488417   0.05902222            2 
  828000    1.1248566   -4.6288978    578.34527  0.058207052  0.059010491            1 
  829000    1.1310367   -4.6162075    580.66214  0.058369736  0.058999215            2 
  830000    1.1137225   -4.6471258    580.31813  0.058264872  0.058987851            4 
  831000    1.0939062   -4.6381843    580.25535  0.058188463  0.058975776            3 
  832000    1.1203629   -4.5934892    583.83433  0.058476996    0.0589642            1 
  833000    1.1068822   -4.5998886    582.02654  0.058225945  0.058953508            3 
  834000    1.0755119   -4.6439798    584.15745  0.058369049  0.058942671            2 
  835000    1.1266063   -4.6341976    584.78955  0.058362231  0.058931696            2 
  836000    1.1276755   -4.6218015    588.25472  0.058637831   0.05892113            2 
  837000    1.1251946   -4.6713963    585.92589  0.058335911  0.058910982            4 
  838000    1.1223007   -4.6382689    588.01815  0.058474359  0.058899604            3 
  839000    1.1371488   -4.6241306    590.49589  0.058650764   0.05888969            1 
  840000    1.1165001   -4.6511093    587.98853  0.058332196  0.058879074            1 
  841000    1.1211446   -4.6951137    588.62669  0.058326069  0.058868832            4 
  842000    1.1282757   -4.6524015    587.58685  0.058153884  0.058858163            2 
  843000    1.1238923   -4.6547733    592.28151  0.058548983  0.058847893            4 
  844000     1.102765   -4.6407327    590.54182  0.058307841  0.058837439            4 
  845000    1.1031097   -4.6860767    589.27614  0.058114017  0.058827047            2 
  846000    1.1130137   -4.6330247    590.30562  0.058146731  0.058816245           12 
  847000    1.1297012   -4.6250649    593.37399  0.058379968  0.058805965            3 
  848000     1.132135   -4.6341969    591.26007  0.058103387  0.058795806            4 
  849000    1.1389435   -4.6196666    594.00999  0.058304867  0.058785064            3 
  850000    1.1180517   -4.6194464    594.74121  0.058307962  0.058774321            2 
  851000    1.1119639   -4.6340958    596.78391  0.058439474  0.058764094            4 
  852000    1.1120332   -4.6854226      593.491  0.058048807  0.058753569            2 
  853000    1.1328776   -4.6287661    596.62864  0.058287284  0.058743047            4 
  854000    1.1033647    -4.664522    597.19857  0.058274646   0.05873211            4 
  855000    1.1125748   -4.6703189    596.72022  0.058159865  0.058720987            3 
  856000    1.1386421   -4.6136635    597.34623  0.058152865  0.058709977            3 
  857000    1.1286011   -4.6761582    597.58214  0.058107948  0.058699231            1 
  858000    1.1087899   -4.6678159    598.45707  0.058125201  0.058688433            3 
  859000    1.0936679   -4.6694855    599.70365  0.058178468  0.058677461            2 
  860000    1.0990112   -4.6487568    598.97997  0.058040695  0.058666757            2 
  861000    1.1181366   -4.6460945    598.20086  0.057897877  0.058655431            4 
  862000    1.1121891   -4.6641401    601.52688  0.058152251  0.058645257            3 
  863000    1.0978083   -4.6509016     603.3676  0.058262611  0.058635233            4 
  864000    1.1304615   -4.6196259    602.89418  0.058149516  0.058625226            7 
  865000    1.1276569   -4.6216693    606.89353  0.058467585  0.058615118            3 
  866000    1.1076163   -4.6102025    605.31692  0.058248357  0.058605509            2 
  867000    1.1241855   -4.6581897    603.82378  0.058037656  0.058595407            4 
  868000    1.0971683   -4.6202452    605.39711  0.058121843   0.05858522            2 
  869000    1.1333893   -4.6178754    606.41876  0.058152931  0.058574856            2 
  870000    1.0930192    -4.652279    606.00449  0.058046407  0.058563783            3 
  871000    1.1335404   -4.6495938    606.05766   0.05798485  0.058552633            5 
  872000     1.102786   -4.6287899     605.7857  0.057892364  0.058541154            4 
  873000    1.0844502   -4.6388009    604.95998   0.05774723  0.058529155            5 
  874000     1.098535   -4.6716281    605.63743   0.05774575   0.05851719            2 
  875000    1.1174718   -4.6701246    604.97027  0.057616216  0.058505641            1 
  876000    1.1234942   -4.6151962    609.51773  0.057983041  0.058494125            3 
  877000    1.1211905   -4.6509469    606.93132  0.057671163  0.058482278            5 
  878000    1.1228428   -4.6385199    608.69701  0.057773065  0.058470327            4 
  879000    1.1241627   -4.6620957    610.46039  0.057874516  0.058458633            2 
  880000    1.1323732   -4.6642497    611.18542  0.057877407  0.058446922            3 
  881000     1.091098   -4.6390682    611.77896  0.057867854  0.058435349            6 
  882000    1.1300054    -4.646665    610.00565  0.057634698   0.05842376            2 
  883000    1.1203347   -4.6567498    611.43935  0.057704732  0.058412098            2 
  884000    1.1045146   -4.6607213    613.06778  0.057792966  0.058400236            3 
  885000    1.1143766   -4.6471946    612.01498   0.05762853   0.05838846            3 
  886000    1.1119756   -4.6411717    612.27878  0.057588298  0.058376516            2 
  887000      1.12693   -4.6372975    614.08147  0.057692735  0.058364133            5 
  888000    1.1151947    -4.619251    615.98851  0.057806729  0.058352563            2 
  889000    1.1271634   -4.6574269    614.88352  0.057638125  0.058340927            3 
  890000     1.104926   -4.6704658    614.68286  0.057554575  0.058328939            2 
  891000    1.1027386   -4.6775914    615.16674  0.057535236  0.058317047            4 
  892000    1.0961532   -4.5940043     617.9183  0.057727793  0.058305018            2 
  893000    1.0985972   -4.6198469    617.63481  0.057636694  0.058292951            3 
  894000    1.1008679    -4.637714    617.03263  0.057516091  0.058280443            1 
  895000     1.135812    -4.696247    617.72007  0.057515835  0.058267468            3 
  896000    1.1000711   -4.5989085    619.37021  0.057605116  0.058255588            2 
  897000    1.1031387   -4.6236383    618.74837  0.057483126  0.058243864            3 
  898000    1.1209175   -4.6864921    617.39422   0.05729345  0.058231294            3 
  899000    1.1021579   -4.6790455    618.30503  0.057314148  0.058218138            2 
  900000    1.1014649   -4.6739764    621.38648  0.057535785  0.058205206            3 
  901000    1.1138755   -4.7015237    620.45592   0.05738586  0.058192679            2 
  902000    1.0914476   -4.6416083    618.68148  0.057158304  0.058178742            1 
  903000     1.105943   -4.6921244    616.89159  0.056929825  0.058165232            1 
  904000    1.1192807   -4.6807635    620.52216  0.057201527  0.058151464            1 
  905000    1.1065118   -4.6666315    620.42794  0.057129645  0.058137563            2 
  906000    1.0927643   -4.6390365    623.04238  0.057307062  0.058123967            3 
  907000    1.1233681   -4.6685299    622.85168  0.057226357  0.058110146            3 
  908000    1.1183539   -4.6450231    623.72545  0.057243525  0.058096546            2 
  909000    1.1180861   -4.6825941     622.8973  0.057104629  0.058083151            2 
  910000    1.1174199    -4.674782    623.32903  0.057081413  0.058069496            1 
  911000    1.1140031   -4.6558504    623.94795  0.057075371  0.058055597            2 
  912000    1.1018349   -4.6556895    625.65793  0.057169036  0.058041688            5 
  913000    1.1102279   -4.6458675    626.72038  0.057203393  0.058028289            2 
  914000    1.1213464   -4.6639771    627.91782  0.057249983  0.058015563            1 
  915000    1.1058499   -4.7001371    626.79115  0.057084804   0.05800201            3 
  916000    1.0800263   -4.6637808    628.88622  0.057213084   0.05798883            2 
  917000    1.0776183   -4.6234582    627.44439  0.057019665  0.057975275            2 
  918000    1.1080797   -4.6845661    629.19772  0.057116714  0.057961473            2 
  919000     1.078549   -4.6555623    629.07565  0.057043494    0.0579474            5 
  920000    1.1285336   -4.6301057    629.60201  0.057029167  0.057933852            2 
  921000    1.0752158   -4.6461074    628.95701  0.056908886  0.057920121            2 
  922000    1.1130155   -4.6545165    629.23829  0.056872586  0.057906394            2 
  923000     1.135731   -4.6218638    631.17628  0.056985941  0.057892436            5 
  924000    1.0974067   -4.6603779    632.55636  0.057048734  0.057879246            3 
  925000    1.1142908   -4.6730211    632.29169  0.056963215  0.057866162            4 
  926000    1.1140228   -4.6518856    631.48616  0.056829208    0.0578526            2 
  927000    1.0781684   -4.6528905    633.30166   0.05693111  0.057839211            2 
  928000    1.0934115   -4.6611325    636.33858  0.057142473  0.057826142            3 
  929000    1.0970912   -4.6505731    634.63528  0.056928173  0.057812662            2 
  930000    1.1292666   -4.6619859    637.87272  0.057157054  0.057800123            4 
  931000    1.1005599   -4.6719969    635.24128  0.056860122  0.057787053            2 
  932000    1.0966105   -4.6921266    639.11065  0.057145086   0.05777387            7 
  933000    1.1038034   -4.6443822    638.71919  0.057048874   0.05776139            3 
  934000    1.0963089   -4.6547291    639.12054  0.057023603  0.057748909            2 
  935000    1.0761847   -4.6371438     640.7537  0.057108173  0.057735863            2 
  936000    1.1049147   -4.6819581    639.53125  0.056938324  0.057723696            5 
  937000    1.0923006   -4.6560289     641.7873  0.057078202  0.057711549            3 
  938000    1.1116882   -4.6487141    642.71169  0.057099475  0.057699483            4 
  939000    1.1044401   -4.6408818    642.55484  0.057024746  0.057686977            2 
  940000    1.1287577   -4.6621361    641.74412  0.056892209  0.057674338            2 
  941000    1.0816758   -4.6770237    641.89278  0.056844915  0.057661378            3 
  942000     1.083704   -4.6493719    642.13411  0.056805919  0.057647964            5 
  943000    1.0957461   -4.6848314    643.66137  0.056880645  0.057634617            1 
  944000    1.0876644   -4.6379665      644.196  0.056867585  0.057622046            2 
  945000    1.1272323   -4.6808994    643.66897  0.056760932  0.057609173            4 
  946000    1.0951742   -4.6714218    645.69382  0.056879301  0.057595792            2 
  947000    1.0963111   -4.7100056    643.83814  0.056655944  0.057582177            3 
  948000    1.0871312   -4.6387614    647.57194  0.056924397  0.057569741            2 
  949000     1.098771   -4.6711369    644.66175  0.056608864  0.057556363            6 
  950000    1.0966324   -4.6675958    648.14715  0.056855013  0.057543272            5 
  951000    1.0799584   -4.6518586    648.85776  0.056857497   0.05753088            3 
  952000    1.1057861   -4.6620644    650.37456  0.056930546  0.057518369            2 
  953000    1.0941652   -4.6545249    649.31238  0.056777927  0.057505973            2 
  954000    1.1083566   -4.6923775    648.11239  0.056613591  0.057493033            2 
  955000    1.1195742   -4.6456674     651.7827  0.056874581  0.057480592            3 
  956000     1.097067   -4.6776526    651.76486  0.056813534  0.057467739            3 
  957000    1.0976941   -4.6687751    651.83739  0.056760483  0.057455128            3 
  958000     1.101207    -4.657372    654.85253  0.056963512  0.057442644            4 
  959000     1.101363   -4.6876376    655.40843  0.056952418  0.057430606            2 
  960000    1.0879736   -4.6701821    655.28425  0.056882313  0.057418995            6 
  961000    1.0922275   -4.6800136     654.4983  0.056754969  0.057407028            1 
  962000    1.1016944   -4.6692799    657.11663  0.056922785  0.057394704            2 
  963000    1.1228737   -4.6561072    657.69838  0.056914017  0.057383429            3 
  964000    1.1006088   -4.6654816    654.66061  0.056592376  0.057371575            2 
  965000    1.0892976   -4.6838174    657.13966  0.056747811  0.057359634            4 
  966000    1.0901452   -4.6842886    657.75197  0.056741889  0.057347036            3 
  967000    1.1161456   -4.6414949    658.70031  0.056764935  0.057335156            4 
  968000    1.0688854   -4.6460523    659.78444  0.056799624  0.057323234            1 
  969000    1.1025857   -4.6484809    660.61499  0.056812434  0.057310744            1 
  970000    1.0953568    -4.679376    656.79517  0.056425702  0.057298308            2 
  971000    1.1026958   -4.6685136    657.06812  0.056391016  0.057285735            5 
  972000    1.0700884   -4.6882587    659.73547  0.056561683  0.057273679            2 
  973000    1.0898291    -4.662909    661.47373  0.056652426  0.057261529            3 
  974000    1.0862064   -4.6613255    659.91928  0.056461266  0.057249346            3 
  975000    1.0658566   -4.6682285    661.22471  0.056514933  0.057236462            6 
  976000    1.0695131   -4.6631167    662.48703  0.056564808  0.057223676            2 
  977000    1.1122793   -4.6633436    660.09804  0.056303142  0.057210735            4 
  978000    1.1215237   -4.6686045    663.85854  0.056565997  0.057198071            2 
  979000    1.1105953   -4.6834034    664.65795  0.056576264  0.057185785            2 
  980000    1.0813001   -4.7154619    665.74064  0.056610599  0.057173187            2 
  981000    1.0983428   -4.7171169    663.81297  0.056389141    0.0571606            2 
  982000     1.101695   -4.7027637     663.4981  0.056304998   0.05714847            4 
  983000    1.1034472   -4.6319503    670.66051  0.056854909   0.05713638            4 
  984000    1.0818294   -4.6572051    667.64983  0.056542161  0.057124709            4 
  985000    1.0764927   -4.6663737    667.34593  0.056459046  0.057113073            2 
  986000    1.0912611   -4.6488744    672.06126  0.056800309  0.057101641            6 
  987000    1.0702649    -4.682024    670.11298  0.056578265  0.057089905            7 
  988000    1.1101856   -4.6701599    670.09969  0.056519879   0.05707849            4 
  989000    1.0600825   -4.6937341    671.03935  0.056541907  0.057066659            3 
  990000    1.0863443   -4.6522473    672.72859  0.056626986   0.05705498            3 
  991000     1.102753   -4.6816563    673.69369     0.056651  0.057043359            4 
  992000    1.1179449   -4.6979898    673.67119  0.056592002  0.057031636            3 
  993000    1.0569765   -4.6943117    672.25173  0.056415889  0.057020429            3 
  994000    1.0829957   -4.7033324    673.26435  0.056444027  0.057009013            2 
  995000    1.1105698   -4.6478705    674.45641  0.056487137  0.056998418            3 
  996000    1.0762013   -4.6896622    674.19294  0.056408379  0.056987367            5 
  997000    1.0904866   -4.6500379    678.89934   0.05674518  0.056976154            3 
  998000    1.0911469   -4.6747829    676.56029   0.05649301  0.056965297            3 
  999000    1.0774136   -4.6624703     678.7567  0.056619678  0.056954156            3 
 1000000    1.0903672   -4.6695472    679.56692  0.056630576  0.056943056            3 
 1001000    1.0879883   -4.6928256    678.43939  0.056480135  0.056932369            4 
 1002000    1.1239178    -4.664783    683.12588  0.056813529  0.056921917            1 
 1003000    1.1096197   -4.6735684    683.10215  0.056754914  0.056911799            3 
 1004000     1.069146   -4.6601125    682.87642   0.05667965  0.056901979            2 
 1005000    1.0915141   -4.6337187     683.2146  0.056651294  0.056892138            3 
 1006000    1.0923649   -4.6982808    681.25892  0.056432978  0.056881376            2 
 1007000    1.0740512   -4.6634434    683.50354  0.056562689  0.056870576            4 
 1008000    1.0879763   -4.6492429    682.90442  0.056457045  0.056859832            3 
 1009000    1.0853817   -4.6718596    684.63139  0.056543722  0.056849727            4 
 1010000    1.0940835   -4.6986757    683.30318   0.05637815  0.056838546            3 
 1011000    1.0875902   -4.6961325    685.91651  0.056537793  0.056827807            5 
 1012000    1.0898643   -4.6805141    682.69725  0.056216835  0.056816765            5 
 1013000     1.096103   -4.6755343     686.9939  0.056514799  0.056806439            8 
 1014000    1.0726535   -4.6521689    688.65796  0.056595822  0.056796051            3 
 1015000    1.0918159   -4.6533172    690.13911  0.056661667  0.056785359            8 
 1016000    1.1009523   -4.6739802    689.44848  0.056549252  0.056774641            2 
 1017000    1.0761788   -4.6771295    688.89647  0.056448416   0.05676417            3 
 1018000    1.0943573    -4.679567    687.65344  0.056291211  0.056753523            5 
 1019000    1.0963219   -4.6790701    689.51072  0.056387858  0.056742807            3 
 1020000    1.0866079   -4.6884651    689.42727  0.056325757  0.056732425            2 
 1021000    1.0575685   -4.7016439     691.2125  0.056416299  0.056721726            7 
 1022000    1.0764062   -4.6786825    692.04745  0.056429179  0.056711225            3 
 1023000    1.0947247   -4.7218877     691.2762  0.056311193  0.056700791            1 
 1024000    1.0427404   -4.6733828    694.70841  0.056535515  0.056690575            3 
 1025000    1.0825063   -4.6891012    693.96276  0.056419737  0.056679914            2 
 1026000    1.0799951   -4.6743429    694.26498  0.056389294  0.056669478            4 
 1027000    1.0909084   -4.7032926    695.33656  0.056421337  0.056659494            3 
 1028000    1.1009635   -4.7020496    694.37012   0.05628811   0.05664954            3 
 1029000    1.0906805   -4.7276553    694.22552  0.056221697   0.05663937            4 
 1030000    1.0787134   -4.6733668    697.07412  0.056397582  0.056629535            1 
 1031000    1.1016232   -4.7325019    697.40927   0.05636997  0.056619448            1 
 1032000     1.094337   -4.6862982    698.56117  0.056408363   0.05660962            2 
 1033000    1.1132494   -4.6859382    700.08218  0.056476458  0.056600184            2 
 1034000    1.0818457   -4.6673332    702.26015  0.056597369  0.056591214            4 
 1035000    1.0911544   -4.6651747    701.92429  0.056515643  0.056581998            3 
 1036000    1.0786848   -4.6804264    704.42004  0.056661843  0.056572828            2 
 1037000    1.1040002   -4.6867592    702.03198  0.056415299  0.056563485            2 
 1038000     1.099174   -4.6674168    704.59105  0.056566398  0.056554368            4 
 1039000    1.0759974   -4.7243296    704.75514  0.056525116  0.056545035            3 
 1040000    1.0947805   -4.7062705    704.02264  0.056412071  0.056536138            4 
 1041000    1.0893391   -4.6789331    706.38632  0.056547096  0.056527306            1 
 1042000    1.0937615   -4.7016873     706.2887   0.05648502  0.056518442            3 
 1043000    1.0772875   -4.7207392    702.92679  0.056162255   0.05650975            3 
 1044000    1.1043639   -4.6833517    706.01189  0.056354716  0.056500864            2 
 1045000    1.0825894   -4.6630583    709.98166  0.056617357  0.056492304            3 
 1046000    1.1005841   -4.7204169    708.52285  0.056447008  0.056483719            2 
 1047000    1.0801405    -4.702977    710.33368  0.056537223  0.056475108            2 
 1048000    1.0678573   -4.6935712    708.51653  0.056338783  0.056467013            4 
 1049000    1.0871315     -4.69643     711.0962  0.056490006  0.056458708            3 
 1050000    1.0720048   -4.7104871    710.00914  0.056349932  0.056450288            3 
 1051000    1.0969438   -4.6851776    714.68918  0.056667395  0.056441753            2 
 1052000    1.0985623   -4.6975727    714.54887  0.056602414  0.056433583            3 
 1053000    1.0778753   -4.6942556    714.95314  0.056580654   0.05642554            4 
 1054000    1.0863763   -4.7118497    714.81208  0.056515819  0.056417372            5 
 1055000    1.0857693   -4.6796278    716.06267  0.056561032   0.05640945            1 
 1056000    1.0794397   -4.6756929    717.13533  0.056592119  0.056401701            2 
 1057000    1.1083098   -4.6998063     716.4282  0.056482828  0.056393539            2 
 1058000    1.0921834   -4.6878001    714.69301   0.05629277  0.056385679            6 
 1059000    1.0874067   -4.7084732    718.65401  0.056551307  0.056377752            2 
 1060000    1.0837707    -4.684605    718.04442  0.056450033  0.056370176            4 
 1061000     1.079317   -4.6837422    720.42207  0.056583574  0.056362699            2 
 1062000    1.0572078   -4.7130998    718.36754  0.056369078  0.056355151            2 
 1063000    1.0738998   -4.6715018    719.74236  0.056423829  0.056347572            2 
 1064000    1.1044447    -4.679897    724.19012  0.056719151  0.056340701            1 
 1065000    1.0573511   -4.7218339      720.978  0.056414554  0.056333325            1 
 1066000    1.0832969   -4.7216059    724.79569  0.056660076  0.056325611            3 
 1067000    1.0870538   -4.7130538    724.20798  0.056561073   0.05631827            2 
 1068000    1.0583147   -4.6896286    722.51104  0.056375705  0.056310474            2 
 1069000    1.0801822   -4.6874161    725.96783  0.056592441  0.056302727            2 
 1070000    1.1028368   -4.7285356    724.44999  0.056421338  0.056294611            2 
 1071000    1.0711848   -4.7129012    724.62216  0.056382054  0.056286767            3 
 1072000    1.0900058   -4.6976621    725.86284  0.056425905  0.056278541            4 
 1073000    1.0859784   -4.7276011    725.46826  0.056342673  0.056269902            2 
 1074000    1.0845959   -4.7172317    722.73949  0.056078483  0.056261774            3 
 1075000    1.0786021   -4.6955934    723.95388  0.056120456  0.056253494            4 
 1076000    1.0758142   -4.7078733    725.44033  0.056183421  0.056244715            5 
 1077000    1.0913142   -4.6980713     727.9553  0.056325851  0.056236574            4 
 1078000    1.0937243   -4.7231027    727.49955  0.056238369     0.056228            1 
 1079000    1.0735886   -4.7385489    725.12528  0.056002879  0.056219272            4 
 1080000    1.0971002   -4.7137855    727.99255  0.056172265  0.056209918            3 
 1081000    1.0805163   -4.7031827    730.62359  0.056323126  0.056201258            1 
 1082000     1.063201   -4.6882218    729.16449  0.056158695  0.056192237            3 
 1083000    1.0709798    -4.756702    729.30356  0.056117541  0.056183053            2 
 1084000    1.0765821   -4.7178453    729.26501  0.056062809  0.056173781            1 
 1085000    1.0793199   -4.7038348    729.41313  0.056022514  0.056164573            1 
 1086000    1.0877021   -4.7540968    728.69305  0.055915673  0.056155474            1 
 1087000    1.0705555   -4.7179721    728.61377  0.055858154  0.056146106            3 
 1088000    1.0675394   -4.6873472    732.23547  0.056084211  0.056136703            3 
 1089000    1.0721737   -4.6918772    731.12032  0.055947377   0.05612747            3 
 1090000    1.0779807   -4.7025529     735.2811  0.056214151  0.056118427            1 
 1091000    1.0971295   -4.6853735    734.37193  0.056093181   0.05610943            6 
 1092000    1.0662824   -4.7216367    731.22081  0.055801344  0.056100403            3 
 1093000    1.0690889   -4.7139266     732.3907  0.055839486  0.056091542            2 
 1094000    1.0923381   -4.7124616    734.46967  0.055946806  0.056082237            3 
 1095000    1.0879973   -4.7541475    731.89087  0.055699457  0.056072638            3 
 1096000    1.0692659    -4.710176    735.40132  0.055915551  0.056063292            5 
 1097000    1.0862218   -4.6987751    736.06401   0.05591492  0.056054144            2 
 1098000    1.0645191   -4.6964012    739.48033   0.05612328  0.056045157            2 
 1099000    1.0674267   -4.7255876    737.80925  0.055945499  0.056035285            5 
 1100000    1.0773999   -4.7141756    737.07029  0.055838658  0.056025947            5 
 1101000    1.0875021   -4.7151517    737.50676  0.055820978  0.056016347            2 
 1102000    1.0973618   -4.7393024    738.62316  0.055854746  0.056007107            5 
 1103000    1.0556641   -4.7018652     737.8247  0.055743782  0.055997962            3 
 1104000    1.0552812   -4.6841112     742.1313  0.056018365  0.055988249            2 
 1105000    1.0604747    -4.709092    739.68029  0.055782827  0.055978269            1 
 1106000    1.0618508   -4.7356979    739.95977  0.055753448  0.055968511            3 
 1107000    1.0914609    -4.699893    739.95186  0.055702489  0.055958326            5 
 1108000    1.0844108    -4.719845    740.28894  0.055677568  0.055948202            4 
 1109000    1.0524081   -4.7027914    739.92314  0.055599876  0.055937885            2 
 1110000    1.0691464   -4.7329552    740.66668  0.055605607  0.055928022            2 
 1111000     1.089746   -4.7096583    741.75779  0.055637398  0.055918196            2 
 1112000    1.0949934   -4.6833623     743.6554  0.055729571  0.055908331            3 
 1113000    1.0756841   -4.7105679     742.4767  0.055591247  0.055898358            2 
 1114000    1.0705239   -4.7199856    742.78958   0.05556475  0.055888583            3 
 1115000    1.0674301   -4.7099323    744.10613  0.055613313  0.055878008            2 
 1116000    1.0819395   -4.7165617    744.03868  0.055558444  0.055868469            1 
 1117000    1.0806605   -4.6667731    748.59252  0.055848443  0.055858392            1 
 1118000    1.0873275   -4.7062884    743.43247  0.055413869  0.055848304            2 
 1119000     1.074639   -4.7019835     744.9421  0.055476772   0.05583783            3 
 1120000    1.0833996   -4.7154963    746.43209  0.055538102  0.055827557            2 
 1121000    1.0794992   -4.7356098    745.20657  0.055397455  0.055817505            7 
 1122000    1.0819184   -4.7214136    747.01878  0.055482678  0.055807366            4 
 1123000     1.049912   -4.7072297    748.68003  0.055556547    0.0557971            6 
 1124000    1.0569211   -4.7344983     748.3523  0.055482822  0.055786589            2 
 1125000     1.058435   -4.7270354    748.23271  0.055424645  0.055776135            1 
 1126000    1.0490689   -4.6909639    746.83907  0.055272281   0.05576562            1 
 1127000    1.0483537    -4.776839    746.79618  0.055220067  0.055754974            2 
 1128000    1.0824148   -4.7279774    749.84563  0.055396397  0.055744241            6 
 1129000    1.0427119   -4.7077087    752.83457  0.055567949  0.055733271            4 
 1130000    1.0711353   -4.7301814    750.75338  0.055365294   0.05572272            3 
 1131000    1.0634589   -4.7203469    750.00648  0.055261309  0.055711871            2 
 1132000    1.0758286   -4.7325941    746.97194    0.0549891  0.055700949            2 
 1133000    1.0507519   -4.7413123    749.23893  0.055107306  0.055690262            2 
 1134000    1.0644445   -4.7086937    755.21681  0.055498002  0.055679715            3 
 1135000    1.0522893   -4.7088268    753.22968  0.055303207  0.055669556            3 
 1136000    1.0620648   -4.7581688    753.93936  0.055306585  0.055659202            2 
 1137000    1.0933832   -4.7339117      756.059  0.055413295  0.055648638            3 
 1138000    1.0962967   -4.7084952    755.72936  0.055340462  0.055638139            6 
 1139000    1.0853798   -4.6942192    758.47566  0.055492805  0.055628007            3 
 1140000    1.0759934   -4.7166422    757.70068  0.055387477  0.055617613            4 
 1141000    1.0719515   -4.7110675    754.98211  0.055140382  0.055607558            4 
 1142000    1.0825035   -4.7541673    757.59266  0.055282593  0.055596912            4 
 1143000    1.0620558   -4.7270149    755.62414  0.055090707  0.055586579            2 
 1144000    1.0438825   -4.7657202    756.43027  0.055101273   0.05557626            3 
 1145000    1.0721587   -4.7447432    757.28935  0.055115673  0.055565394            2 
 1146000    1.0796357   -4.7272305     759.1255  0.055201098  0.055554445            2 
 1147000    1.0672247   -4.7330861    760.13937  0.055226632  0.055544306            2 
 1148000    1.0919402   -4.6863034    764.08271  0.055464772   0.05553414            2 
 1149000    1.0717631   -4.7300169    759.57716  0.055089727  0.055524147            9 
 1150000    1.0809003   -4.7246357    759.39572  0.055028675  0.055513476            4 
 1151000    1.0704062   -4.6757396    762.05774  0.055173598  0.055502717            6 
 1152000     1.056622   -4.7353105    762.25908  0.055140269  0.055492188            4 
 1153000    1.0908245   -4.7263753    764.44479  0.055250419  0.055481358            4 
 1154000    1.0743845   -4.7448163    761.07416  0.054959139  0.055470388            4 
 1155000    1.0297347   -4.7317385    763.81422  0.055109251  0.055459294            4 
 1156000    1.0677108    -4.709198     762.9407  0.054998609  0.055448242            3 
 1157000    1.0828977   -4.7298464    761.55787  0.054851474  0.055436999            4 
 1158000    1.0481961   -4.7352794    764.70704  0.055030731  0.055425914            3 
 1159000    1.0705707    -4.691979    769.04453   0.05529512   0.05541502            5 
 1160000    1.0528457    -4.719982    768.55872  0.055212552  0.055404069            2 
 1161000    1.0786884   -4.7717336    764.65592  0.054884864  0.055393121            2 
 1162000    1.0802127   -4.7458944    768.12443  0.055086376   0.05538243            2 
 1163000    1.0579008   -4.7524934    766.79866  0.054944014  0.055371841            4 
 1164000    1.0834543   -4.7366117    767.18185  0.054924245  0.055361333            2 
 1165000    1.0650248   -4.7338284    771.15807  0.055161521  0.055350772            2 
 1166000    1.0704778   -4.7203494    766.06431  0.054750165  0.055340014            3 
 1167000    1.0523868   -4.7496536    769.11334  0.054920976  0.055329408            2 
 1168000    1.0869816   -4.7302843    771.01119   0.05500936  0.055319214            2 
 1169000    1.0863938   -4.7304811     771.8569  0.055022591  0.055309197            5 
 1170000    1.0804123   -4.7619194     773.8145  0.055114993  0.055299616            3 
 1171000    1.0596229   -4.7194165    774.79314  0.055137571  0.055290166            1 
 1172000    1.0716211   -4.7519358    775.35552  0.055130512  0.055280437            1 
 1173000     1.068936   -4.7340184     774.4994  0.055022691  0.055270109            2 
 1174000    1.0457912   -4.7716963    775.59388  0.055053512  0.055260064            2 
 1175000    1.0760488   -4.7354316     774.5672  0.054933844  0.055249778            3 
 1176000    1.0572554    -4.707922    777.17059  0.055071612  0.055239597            2 
 1177000    1.0650356   -4.7678053    775.15493  0.054882111   0.05522939            3 
 1178000    1.0668716   -4.7556999    776.85806  0.054956003  0.055219216            3 
 1179000    1.0239943   -4.7655488    776.93558   0.05491487  0.055209005            3 
 1180000    1.0847733   -4.7594587    780.26172  0.055103229  0.055198783            3 
 1181000    1.0705242   -4.7136771    780.40973  0.055067015  0.055188533            4 
 1182000    1.0676131   -4.7278064    776.02346  0.054711186  0.055178487            2 
 1183000    1.0357477   -4.7259377    779.01327  0.054875547  0.055168172            4 
 1184000    1.0746091   -4.7213336    781.20251  0.054983285  0.055158086            7 
 1185000    1.0688744   -4.7396173    782.42371  0.055022765  0.055148116            2 
 1186000    1.0509762   -4.7138728    780.79475  0.054861913  0.055137988            1 
 1187000    1.0714379   -4.7389613    782.45009  0.054931907  0.055127773            5 
 1188000    1.0799652   -4.7708797    778.60851  0.054616198  0.055117464            2 
 1189000    1.0705783   -4.7454699     784.3357  0.054971664  0.055107005            2 
 1190000    1.0798874   -4.7135104    783.49552  0.054866633  0.055096575            1 
 1191000    1.0754269    -4.728208    780.49818  0.054610844  0.055086348            4 
 1192000    1.0749442   -4.7292815    785.46708  0.054912407  0.055075923            3 
 1193000    1.0665787   -4.7713265    784.57728  0.054804225   0.05506531            3 
 1194000    1.0677972   -4.7241361    786.77516  0.054911722  0.055054718            2 
 1195000    1.0529624   -4.7470227    783.66992  0.054649227  0.055044272            2 
 1196000    1.0520972   -4.7317035    786.52128  0.054802208  0.055033874            4 
 1197000    1.0413518   -4.7347522    786.95333  0.054786503  0.055022775            4 
 1198000    1.0370827   -4.7193461    789.72688  0.054933701  0.055011939            3 
 1199000    1.0552422    -4.721972    786.97611    0.0546967   0.05500109            4 
 1200000    1.0627851    -4.727628    785.18196  0.054526525  0.054990466            3 
 1201000    1.0468028   -4.7262506    787.87948  0.054668296  0.054979633            3 
 1202000    1.0290604   -4.7284352    786.90372  0.054555166  0.054968564            3 
 1203000    1.0576768   -4.7671983    785.94471  0.054443385  0.054957579            3 
 1204000    1.0348107   -4.7572169    789.24535  0.054626616  0.054946791            3 
 1205000    1.0679615   -4.7231864    787.86822  0.054486046  0.054935614            2 
 1206000    1.0570043   -4.7570375    789.93209  0.054583478  0.054924487            3 
 1207000    1.0394779   -4.7235226    791.36288   0.05463704  0.054913844            2 
 1208000    1.0806409   -4.7261647    789.14139  0.054438561  0.054903527            1 
 1209000    1.0471409   -4.7484612    791.68289  0.054568713  0.054892562            3 
 1210000    1.0660485   -4.7389041    791.24172  0.054493231  0.054882062            4 
 1211000    1.0532249   -4.7629261    791.74686  0.054482993  0.054871182            4 
 1212000    1.0518161   -4.7669834    790.57049  0.054357157  0.054860192            4 
 1213000    1.0708217   -4.7443057    791.95784  0.054407656  0.054848898            3 
 1214000    1.0641247   -4.7166039    793.85368  0.054492976  0.054837856            2 
 1215000    1.0710116   -4.7442389    795.47967  0.054559648   0.05482698            4 
 1216000    1.0758723   -4.7366894     795.9093  0.054544223  0.054816279            6 
 1217000    1.0579671   -4.7326805    798.88469  0.054703143  0.054805567            2 
 1218000     1.053749   -4.7440592    795.92049  0.054455425  0.054794998            3 
 1219000    1.0539129   -4.7362493    798.37509  0.054578554  0.054784738            3 
 1220000    1.0266075   -4.7231417    799.63801  0.054620083  0.054774335            3 
 1221000    1.0535776   -4.7381089    797.52631  0.054431225  0.054764225            2 
 1222000     1.034236   -4.7421528    799.75164  0.054538437  0.054753944            5 
 1223000    1.0547185   -4.7628221    801.13016  0.054587773  0.054743356            3 
 1224000    1.0526517     -4.74488    799.41585  0.054426461  0.054733591            6 
 1225000    1.0592468   -4.7308456    801.38602  0.054516056  0.054723693            3 
 1226000    1.0650772   -4.7179902    802.05367  0.054516971  0.054713771            3 
 1227000    1.0627939    -4.737319    800.53656  0.054369503   0.05470357            3 
 1228000    1.0488552    -4.767372    802.41258  0.054452537  0.054693841            3 
 1229000    1.0559782   -4.7800589    798.40312  0.054136366  0.054683736            2 
 1230000    1.0614898   -4.7669372    802.79638  0.054389999  0.054673795            2 
 1231000    1.0444788   -4.7401388    809.17236  0.054777441  0.054664117            4 
 1232000    1.0516829   -4.7475219    809.88316  0.054781058  0.054654354            5 
 1233000    1.0661915   -4.7540885    805.16119   0.05441749  0.054644477            2 
 1234000    1.0519357   -4.7637612    805.99784  0.054429892  0.054635123            2 
 1235000    1.0405992   -4.7411242    807.28204  0.054472472  0.054625756            3 
 1236000    1.0368421   -4.7432352    808.96969  0.054542185  0.054616271            4 
 1237000    1.0679842   -4.7554488    808.15083  0.054442928  0.054606833            3 
 1238000    1.0379676   -4.7809317    808.17116  0.054400321  0.054596829            4 
 1239000    1.0510817   -4.7727243     807.7327  0.054326923  0.054586928            2 
 1240000    1.0441045   -4.7576178    808.01516  0.054302094  0.054576974            8 
 1241000    1.0404026   -4.7901799    809.56857  0.054362649  0.054567055            5 
 1242000    1.0476217   -4.7503754    810.81435  0.054402466  0.054557277            2 
 1243000    1.0292338     -4.75702    810.94508  0.054367463  0.054547492            3 
 1244000    1.0463537   -4.7460327    814.05284  0.054531943  0.054537446            4 
 1245000    1.0446677   -4.7246688    813.43183  0.054446575  0.054527726            7 
 1246000    1.0497666   -4.7918462    812.16198  0.054317949  0.054517791            3 
 1247000    1.0388817    -4.788222    813.02548  0.054332095  0.054507959            5 
 1248000    1.0340474   -4.7495132    813.76406  0.054337878  0.054498088            2 
 1249000    1.0361828   -4.7433613    813.59629  0.054283179  0.054488122            1 
 1250000    1.0644207   -4.7623448    813.33041  0.054222027  0.054478133            2 
 1251000    1.0469278   -4.7621911    815.97787  0.054355041  0.054468212            4 
 1252000    1.0449687   -4.7418092    817.77419   0.05443119  0.054458435            2 
 1253000    1.0539074   -4.7522902    818.28844   0.05442195  0.054448493            2 
 1254000    1.0499311   -4.7637857    819.64425   0.05446865   0.05443852            3 
 1255000    1.0643574   -4.7752065    816.46446  0.054214107  0.054428637            3 
 1256000    1.0382704   -4.7693519    816.09221  0.054146246  0.054418794            6 
 1257000    1.0554771   -4.7763635    817.90308  0.054223222  0.054409156            2 
 1258000    1.0555526   -4.7795776    819.37063  0.054277334   0.05439947            1 
 1259000    1.0662092   -4.7665133    818.90693   0.05420353  0.054390266            2 
 1260000    1.0410337   -4.7347894    823.56583  0.054468639  0.054380941            5 
 1261000    1.0408143   -4.7473309    825.83185  0.054575195  0.054371524            3 
 1262000    1.0569999    -4.741665    823.41522  0.054372373  0.054362517            4 
 1263000    1.0530983   -4.7364687    821.71759  0.054217312  0.054353172            3 
 1264000    1.0282982   -4.7549717    821.86279  0.054183992  0.054344179            5 
 1265000    1.0496519   -4.7245758    827.53943  0.054515114  0.054334994            4 
 1266000    1.0449231   -4.7544882    825.63543  0.054346724  0.054325697            6 
 1267000    1.0270132   -4.7728862    826.54389  0.054363582  0.054316847            3 
 1268000    1.0867453    -4.762692    827.24215  0.054366598  0.054307968            1 
 1269000    1.0278033   -4.7511058    830.50617  0.054538099  0.054298928            6 
 1270000     1.050881   -4.7688019    828.21885  0.054345069  0.054289528            3 
 1271000    1.0755602   -4.7419451    827.21082  0.054236219   0.05428058            4 
 1272000     1.051933    -4.769274    827.85653  0.054235884  0.054271723            5 
 1273000    1.0303888   -4.7569387    826.58144  0.054109809  0.054262783            3 
 1274000    1.0633239   -4.7340878    829.73205  0.054273421  0.054253814            3 
 1275000    1.0562703   -4.7604702    830.37611  0.054272948  0.054244553            3 
 1276000    1.0528309   -4.7612475    826.82562  0.053998539  0.054235653            3 
 1277000    1.0445266   -4.7609771    830.76569  0.054213371  0.054226444            3 
 1278000    1.0371846   -4.7463342    834.23379  0.054397091  0.054217337            3 
 1279000    1.0201762   -4.7618429     835.2758  0.054422452  0.054208538            4 
 1280000    1.0233156   -4.7753422     832.2735  0.054184472  0.054199452            2 
 1281000    1.0216756   -4.7567198    836.89463  0.054442794  0.054190595            2 
 1282000    1.0394293   -4.7635443    834.77265  0.054262392  0.054181575            3 
 1283000    1.0510011   -4.7722975    831.74383  0.054023372  0.054172926            4 
 1284000    1.0551403   -4.7408524    835.57453  0.054229915  0.054164102            4 
 1285000    1.0390259   -4.7753407    834.39548   0.05411125  0.054155262            5 
 1286000    1.0552455   -4.7935555     836.8895  0.054230787  0.054146778            5 
 1287000    1.0446888   -4.7570316    841.46276  0.054484768  0.054138324            5 
 1288000    1.0567259   -4.7927685    833.02951  0.053896837  0.054129612            3 
 1289000    1.0480343   -4.7696257     842.7044  0.054480502  0.054120953            7 
 1290000    1.0374211   -4.7585623    841.20117  0.054341161  0.054112344            1 
 1291000    1.0534575   -4.7612796    838.42354  0.054119774  0.054103983            3 
 1292000    1.0491273   -4.7683748    843.43736  0.054401275  0.054095153            2 
 1293000    1.0246208    -4.772423    837.52149  0.053977926  0.054086333            4 
 1294000    1.0361325   -4.7795887    839.59315  0.054069626  0.054077696            3 
 1295000    1.0418181   -4.7765174    840.84275  0.054108285   0.05406899            3 
 1296000    1.0272748   -4.7521875    841.19271  0.054089038  0.054059749            4 
 1297000    1.0326602   -4.8352973    842.35245  0.054121849  0.054050486            4 
 1298000    1.0431758   -4.7740633    845.41686  0.054276891  0.054041571            7 
 1299000    1.0308877   -4.7805639    843.98809   0.05414345  0.054032852            2 
 1300000    1.0485914   -4.7525772    846.84434  0.054284894  0.054024314            3 
 1301000    1.0339235     -4.76137    844.72351  0.054107322  0.054015814            5 
 1302000    1.0424497   -4.7766314    845.70186  0.054128383  0.054007148            5 
 1303000    1.0326073   -4.7901854    845.50532  0.054074272  0.053998091            3 
 1304000     1.057944   -4.8120297     842.5555  0.053844293  0.053988989            3 
 1305000    1.0352654   -4.7674719    845.60209  0.053997579  0.053979723            3 
 1306000    1.0249645   -4.7878351    842.47164  0.053756485  0.053970422            2 
 1307000    1.0388101   -4.7973472    846.13651  0.053949025  0.053961184            4 
 1308000     1.035553   -4.7646663    845.98373  0.053898046  0.053952257            1 
 1309000    1.0221116   -4.7893271    849.51678  0.054081791  0.053943486            4 
 1310000    1.0327707   -4.7345645    849.44239  0.054035776  0.053934683            8 
 1311000    1.0494445    -4.767301    849.50065  0.053998262  0.053926047            3 
 1312000    1.0408309   -4.7749012    847.18258  0.053809869  0.053917557            3 
 1313000    1.0641453   -4.7531635    851.78033  0.054060696  0.053908749            2 
 1314000    1.0380118   -4.7806682     849.6339  0.053883428  0.053899794            4 
 1315000    1.0523094   -4.7809896    853.81587   0.05410747  0.053890979            4 
 1316000    1.0631045   -4.7358654    855.08544  0.054146748  0.053882194            6 
 1317000    1.0455135   -4.7745513    853.93933  0.054033113  0.053873477            2 
 1318000     1.037484   -4.7965275    847.27604  0.053570817  0.053864391            2 
 1319000    1.0477907   -4.8035579    852.08911  0.053834288  0.053855357            2 
 1320000    1.0688268   -4.7782125    853.66367  0.053892909  0.053846423            3 
 1321000    1.0395452   -4.7981525    853.29726  0.053828997  0.053837849            2 
 1322000    1.0304243    -4.753499    859.82239  0.054199596  0.053829272            3 
 1323000    1.0584687   -4.8011769    854.34143  0.053813393  0.053820868            3 
 1324000    1.0714944   -4.7539211    854.37914  0.053775122  0.053812494            2 
 1325000    1.0311424   -4.7997173    854.97896  0.053772261  0.053804069            6 
 1326000    1.0283149   -4.7675088    860.01522  0.054048217  0.053795857            4 
 1327000    1.0322513   -4.7421462    860.84776  0.054059769  0.053787679            2 
 1328000    1.0203701   -4.7897164    860.71198  0.054010541  0.053779432            5 
 1329000    1.0127844   -4.7782087    859.17879  0.053873764  0.053770754            2 
 1330000    1.0356979   -4.8025041    860.55487  0.053919478  0.053762165            3 
 1331000    1.0328086   -4.7487094    857.72068   0.05370152  0.053753913            3 
 1332000    1.0471593   -4.7962579    861.12451  0.053874156  0.053745509            5 
 1333000     1.039825   -4.7798914    860.18576  0.053775054  0.053736889            3 
 1334000    1.0511357   -4.7771666    861.03151  0.053787576  0.053727949            4 
 1335000    1.0419775   -4.7767364    863.11125  0.053877107  0.053719356            3 
 1336000    1.0207786   -4.7806623    860.65107  0.053683325  0.053710557            2 
 1337000    1.0282343   -4.7974571    862.11476  0.053734403   0.05370189            4 
 1338000    1.0364839   -4.7687493    863.13063  0.053757513  0.053693602            2 
 1339000    1.0406862   -4.7770218    865.79371  0.053883104  0.053685264            2 
 1340000    1.0338345   -4.7786956    867.18014  0.053929113   0.05367662            3 
 1341000    1.0405213   -4.7961739    865.89817  0.053809233  0.053668092            2 
 1342000    1.0385294   -4.8162086    865.22942  0.053727609  0.053659355            2 
 1343000    1.0248688   -4.7568787    867.76387  0.053844867  0.053650501            2 
 1344000    1.0312243   -4.7961347    864.62912  0.053610437  0.053641837            1 
 1345000    1.0192956   -4.7607804    865.53114  0.053626465  0.053632996            4 
 1346000    1.0439657   -4.7991929    863.72344  0.053474706  0.053623787            3 
 1347000    1.0288286    -4.766608     863.6571  0.053430902  0.053614181            3 
 1348000    1.0650277   -4.8053485    865.87196  0.053528188  0.053604866            3 
 1349000    1.0333518   -4.7457882    868.76438  0.053667184  0.053595466            3 
 1350000    1.0297021   -4.7907552    869.44323  0.053669335  0.053586415            6 
 1351000    1.0208396   -4.7777666    867.93874  0.053536808  0.053577041            2 
 1352000    1.0200229    -4.798878    867.20429  0.053451941  0.053567937            1 
 1353000    1.0322858   -4.7643451     869.6975  0.053565996  0.053558897            2 
 1354000    1.0127388   -4.7862338    866.90339  0.053354467  0.053549331            7 
 1355000    1.0326891   -4.8057869    867.89716  0.053376209  0.053539756            3 
 1356000    1.0300843   -4.8057097    868.11582  0.053350284  0.053530071            1 
 1357000    1.0233237   -4.8196824    870.00654  0.053427078  0.053520349            2 
 1358000    1.0381181   -4.7885763    868.04467  0.053267346  0.053510833            4 
 1359000    1.0364795   -4.7578837    868.93113  0.053282507     0.053501            8 
 1360000    1.0526585   -4.7728985    874.76079  0.053600539  0.053491747            3 
 1361000    1.0266102   -4.7629237    872.67987  0.053433742  0.053482189            4 
 1362000    1.0309982   -4.7759036    871.70598  0.053334923  0.053472628            4 
 1363000    1.0508164   -4.7870785    872.95876  0.053372387  0.053463044            1 
 1364000     1.031901   -4.7892219    873.50116  0.053366396  0.053453345            4 
 1365000    1.0588888   -4.7642879    877.83614   0.05359195  0.053444041            2 
 1366000    1.0233814    -4.793372    874.16786  0.053328933  0.053434841            3 
 1367000    1.0315715   -4.8117964    873.32256  0.053238391  0.053425092            2 
 1368000    1.0240588   -4.7920143    870.80057  0.053045844  0.053415397            5 
 1369000    1.0226286   -4.7723808     875.5959  0.053298996  0.053405384            4 
 1370000    1.0426804   -4.8035547    872.64898  0.053080838  0.053395764            4 
 1371000    1.0436621   -4.7940736    877.19487  0.053318434  0.053385932            3 
 1372000    1.0130238   -4.7948291    873.56061  0.053058832  0.053375832            5 
 1373000    1.0538833   -4.8050327    871.93152  0.052921311  0.053365516            6 
 1374000    1.0400421   -4.8078669    874.16445  0.053018222  0.053355483            3 
 1375000    1.0504861   -4.7881326    878.05576    0.0532155  0.053345384            2 
 1376000      1.02545   -4.8073674    876.32736  0.053072151  0.053335151            4 
 1377000    1.0293739   -4.7839141    876.72295   0.05305755  0.053324897            1 
 1378000    1.0148695   -4.7919082    879.84178  0.053207655  0.053315034            3 
 1379000    1.0055914   -4.7971905    878.17922  0.053068602  0.053305072            4 
 1380000    1.0219935   -4.7973038    878.12574  0.053026916  0.053295092            5 
 1381000     1.046727   -4.7778144    883.21678  0.053295727  0.053285008            2 
 1382000    1.0297034   -4.7637477      882.585  0.053219067  0.053275143            5 
 1383000    1.0413096   -4.8223786    880.59204  0.053060499  0.053265154            3 
 1384000    1.0077827   -4.7948065     881.0579  0.053050211  0.053255243            3 
 1385000    1.0473278   -4.7820048    883.04202  0.053131289  0.053244832            5 
 1386000    1.0435968     -4.77577    879.48673  0.052879193  0.053234525            2 
 1387000     1.031366   -4.8132772    880.68937  0.052913324  0.053224338            1 
 1388000    1.0582172   -4.8108049    881.27117  0.052910133  0.053214156            5 
 1389000    1.0397975   -4.7918483    883.78422  0.053022811  0.053204018            3 
 1390000    1.0183316    -4.798636     882.0517  0.052880798  0.053193783            2 
 1391000    1.0347739   -4.7822785    885.34216  0.053039909  0.053183486            4 
 1392000    1.0070535   -4.7713108    886.98165  0.053099955   0.05317362            5 
 1393000    1.0286299   -4.8283223    885.94928  0.053000076  0.053163231            3 
 1394000    1.0547574   -4.7899125    885.69499  0.052946855  0.053152849            4 
 1395000    1.0332695   -4.8356347    887.92739  0.053042257  0.053142598            5 
 1396000    1.0499941   -4.7894903    887.96111  0.053006274  0.053132698            6 
 1397000    1.0380334   -4.7282381    893.06832  0.053272985  0.053123023            4 
 1398000    1.0138086   -4.7637651    891.50183  0.053141502   0.05311337            1 
 1399000    1.0344963   -4.7875013    890.00824  0.053014548  0.053103335            2 
 1400000    1.0442813    -4.784006    889.07933  0.052921389  0.053092879            3 
 1401000    1.0315369   -4.7873361    885.62809   0.05267833    0.0530828            1 
 1402000    1.0157745   -4.8254461    882.35193  0.052446025  0.053072605           13 
 1403000    1.0244076    -4.847043    886.36884  0.052647235  0.053061891            3 
 1404000    1.0624375   -4.7983656    887.23793  0.052661321  0.053051349            2 
 1405000    1.0273196    -4.815188    887.71045  0.052651865   0.05304085            5 
 1406000    1.0261123   -4.8082133    892.00517  0.052868964  0.053030309            6 
 1407000    1.0206176   -4.8145638    893.37396  0.052912459   0.05301985            5 
 1408000    1.0347224   -4.7805541    894.24324  0.052926328  0.053009402            3 
 1409000    1.0394569   -4.7850857    890.82209  0.052686426  0.052999246            3 
 1410000    1.0143214   -4.7911331    892.61358   0.05275494  0.052989195            7 
 1411000    1.0151064   -4.7821925    895.89216  0.052911183  0.052978911            2 
 1412000     1.017538   -4.8393884    892.10287  0.052650075  0.052968577            4 
 1413000    1.0487887   -4.8103658    892.23093  0.052620366  0.052958136            3 
 1414000    1.0024418   -4.7779767    898.25894   0.05293841  0.052947803            2 
 1415000    1.0149906   -4.8108913    891.00581  0.052473841  0.052937422            2 
 1416000    1.0286615   -4.8212315    894.13706  0.052621061   0.05292684            3 
 1417000    1.0254493   -4.7821041    899.91086   0.05292348  0.052916574            2 
 1418000    1.0239472   -4.7869351    896.39937  0.052679794  0.052906385            5 
 1419000    1.0259163   -4.7787039    896.38412  0.052641773  0.052896243            4 
 1420000    1.0270935   -4.8097444    899.25043  0.052772913  0.052886288            3 
 1421000    1.0005603   -4.8118379    896.11884  0.052552125  0.052876162            3 
 1422000    1.0250869   -4.8196352    895.99944  0.052508172  0.052865748            2 
 1423000    1.0303838   -4.8272785    897.82645  0.052578265  0.052855787            6 
 1424000    1.0316506   -4.8043815    897.58255  0.052527069  0.052845594            3 
 1425000    1.0306432   -4.7952893    903.31838  0.052825636  0.052835861            3 
 1426000    1.0172703   -4.8091594    899.94391  0.052591393   0.05282592            3 
 1427000    1.0517212   -4.8024857    901.45487  0.052642774  0.052816175            2 
 1428000    1.0090141   -4.8117048    902.40978  0.052661635  0.052805815            4 
 1429000    1.0294666   -4.8109603    901.66382  0.052581282  0.052795619            4 
 1430000     1.023617   -4.8386417    897.97468  0.052329527  0.052784986            5 
 1431000    1.0130429   -4.8061062    899.99328   0.05241051  0.052774655            2 
 1432000    1.0143298    -4.804284    900.69504  0.052414749  0.052764322            4 
 1433000    1.0305178   -4.8253693    902.62559  0.052490439  0.052754241            2 
 1434000    1.0325102   -4.7754506    908.23245  0.052779664  0.052744309            4 
 1435000   0.98031995   -4.8212088    901.88391  0.052374211  0.052734536            4 
 1436000    1.0291194   -4.8478347    901.37713  0.052308329   0.05272447            2 
 1437000    1.0168441   -4.8180155    904.17079  0.052433936  0.052714293            2 
 1438000    1.0339505   -4.8118474    905.30124  0.052462983  0.052704268            3 
 1439000    1.0075212   -4.7972609    907.96532  0.052580804  0.052694602            2 
 1440000    1.0327953   -4.8122443    906.87971  0.052481465  0.052684928            3 
 1441000    1.0212395   -4.8367168    907.88815  0.052503363  0.052675033            2 
 1442000    1.0121261   -4.8182384    907.99558  0.052473161  0.052665506            3 
 1443000    1.0282757   -4.7848266    910.73705  0.052595117  0.052655861            3 
 1444000    1.0209051   -4.8074967    910.27694  0.052532141  0.052646375            2 
 1445000    1.0093644   -4.8395427    909.51848  0.052452046  0.052636603            4 
 1446000     1.032257   -4.8409539    907.99155  0.052327775  0.052626626            3 
 1447000    1.0092335   -4.7993857    906.88077  0.052227641  0.052616849            2 
 1448000    1.0221415   -4.8123537     910.6808  0.052410267  0.052606832            2 
 1449000    1.0190818   -4.8121667    913.93307  0.052561138  0.052596752            1 
 1450000    1.0287708   -4.8111427    912.13017  0.052421274  0.052586957            2 
 1451000    1.0268888    -4.822282    911.55241  0.052351965  0.052576867            3 
 1452000    1.0016326   -4.8059883    912.87272  0.052391685  0.052566957            3 
 1453000    1.0159575   -4.8470749    913.07139  0.052367022  0.052556811            4 
 1454000    1.0263022   -4.8330885     911.3254  0.052230938  0.052546801            4 
 1455000    1.0050842   -4.7953903     919.4712  0.052661581     0.052537            4 
 1456000    1.0158989   -4.7765702    918.23048    0.0525544  0.052527177            6 
 1457000    1.0280917   -4.8599547    913.16934  0.052228857  0.052517381            4 
 1458000    1.0090268   -4.8091044    920.96298  0.052638488  0.052507384            3 
 1459000   0.98109322   -4.8371411    916.33703   0.05233819  0.052497536            3 
 1460000    1.0099748   -4.7778955    920.00142  0.052511496  0.052487834            2 
 1461000    1.0280698   -4.8470959    917.43362  0.052329091  0.052477929            3 
 1462000    1.0177047   -4.7924676    919.42674  0.052406905  0.052468045            5 
 1463000    1.0241142   -4.8408398     921.5489  0.052491963  0.052458074            4 
 1464000    1.0163544     -4.84333    916.63793  0.052176567  0.052448008            4 
 1465000    1.0382545   -4.8322721    914.82245  0.052037682  0.052437852            4 
 1466000    1.0082227   -4.8026771    918.47482  0.052209801  0.052427635            3 
 1467000    1.0196101   -4.8034318    919.65498  0.052241251  0.052417542            1 
 1468000   0.99995648   -4.7854853    922.35021  0.052358663  0.052407677            2 
 1469000    1.0174562   -4.8515173    921.10316  0.052252278  0.052397913            3 
 1470000    1.0214305   -4.8153807    917.96753  0.052038975  0.052387843            2 
 1471000    1.0181258   -4.7954597    926.35065  0.052478509  0.052378077            4 
 1472000    1.0303968    -4.806831    925.12908  0.052373702  0.052368038            3 
 1473000    1.0236078   -4.8121379     920.3421  0.052067328  0.052358045            3 
 1474000    1.0213432   -4.7952786    922.70285  0.052165471  0.052347917            2 
 1475000    1.0294101   -4.8370351    923.30478  0.052164112  0.052337699            4 
 1476000    1.0199366   -4.8274104    920.95314  0.051995999   0.05232743            4 
 1477000    1.0234807   -4.8274968    922.58295   0.05205275  0.052316936            4 
 1478000    1.0195208   -4.8098781    924.08268  0.052102091  0.052306668            4 
 1479000    1.0260272   -4.7621283    927.92699  0.052283468  0.052296369            2 
 1480000    1.0193687   -4.8204761    921.79148  0.051902674  0.052286604            4 
 1481000    1.0079281   -4.8185174    928.32475  0.052235244  0.052276543            5 
 1482000     1.011347   -4.8024039    928.56149  0.052213309  0.052266416            1 
 1483000    1.0228792   -4.8055371    929.29828  0.052219503  0.052256346            4 
 1484000    1.0025419   -4.8216101    928.54595  0.052142068  0.052246366            2 
 1485000    1.0330757   -4.8284542    927.64301  0.052056286    0.0522361            2 
 1486000    1.0271685   -4.8151513    930.09433  0.052158722  0.052226392            2 
 1487000   0.99841007   -4.7925773    934.48911  0.052369934  0.052216599            3 
 1488000    1.0085815   -4.8361871    927.51629  0.051944237  0.052206416            3 
 1489000    1.0328605   -4.8596289    927.20691  0.051892036  0.052195925            8 
 1490000    1.0242839   -4.8440082    925.60472  0.051767602  0.052185873            4 
 1491000    1.0325288    -4.842072    930.98668  0.052033684  0.052175755            6 
 1492000    1.0178949   -4.7875131    932.32931    0.0520738  0.052165895            2 
 1493000    1.0030712   -4.8577232    927.51768  0.051770355  0.052155914            2 
 1494000    1.0202773   -4.8164869    929.31911  0.051836184  0.052145561            8 
 1495000   0.99547138   -4.8122494     930.1157  0.051845914  0.052135276            2 
 1496000    1.0012881   -4.8310854    928.04915  0.051696143  0.052125117            2 
 1497000    1.0405059   -4.8192322    934.48143  0.052019674  0.052114701            3 
 1498000    1.0055108   -4.8038796    935.01076  0.052014395  0.052104729            2 
 1499000   0.99760583   -4.8570203    931.39931  0.051778926  0.052094463            2 
 1500000    1.0301276   -4.8342672    935.29446  0.051960803  0.052084305            3 
 1501000    1.0170144    -4.826155    935.39622  0.051931836  0.052073851            4 
 1502000    1.0079889   -4.7786571    936.75864   0.05197285  0.052063509            3 
 1503000   0.99356856   -4.8119875    933.90728  0.051780178  0.052053357            2 
 1504000     1.012174   -4.8537398    933.06819  0.051699257  0.052043033            2 
 1505000    1.0050708    -4.823015    933.59702  0.051694187  0.052032535            6 
 1506000    1.0050339   -4.8016129    939.33716  0.051977488   0.05202219            2 
 1507000    1.0104032   -4.8465832    934.92001   0.05169874  0.052011766            5 
 1508000   0.99798507   -4.8527974    937.53191  0.051808793  0.052001391            2 
 1509000    1.0213387   -4.8499277    937.89584  0.051794557  0.051991205            6 
 1510000    1.0087196   -4.8381235    935.22118  0.051612648  0.051980741            4 
 1511000    1.0131033   -4.8266297    938.73675  0.051772378   0.05197063            2 
 1512000    1.0190607   -4.8112164    939.05598  0.051755731  0.051960354            2 
 1513000    1.0047086   -4.8409519    938.49979  0.051690889  0.051950033            4 
 1514000    1.0115195   -4.8172302    937.36055  0.051594042  0.051939575            2 
 1515000   0.99941905   -4.8589983    937.77703  0.051582895  0.051929371            5 
 1516000    1.0153117   -4.8338669    939.95798  0.051668755  0.051918755            4 
 1517000   0.99971373    -4.852308    938.36837  0.051547372  0.051908061            4 
 1518000    1.0066592   -4.8413105    938.61033  0.051526698  0.051897388            3 
 1519000     1.013288   -4.8379868    942.72256  0.051718376  0.051886735            4 
 1520000    1.0116927   -4.8507353    939.21748  0.051492186  0.051876316            2 
 1521000      1.02791   -4.8717086     938.9314  0.051442659  0.051865825            4 
 1522000    1.0294717   -4.8319021    941.38746  0.051543334  0.051855427            2 
 1523000    1.0196065   -4.8611051    944.57209  0.051683743  0.051845081            3 
 1524000   0.99841444   -4.8370191     943.8676  0.051611308  0.051834743            3 
 1525000     1.002956   -4.8377664    942.91349  0.051525327  0.051824416            6 
 1526000     1.008346   -4.8443174    947.83365  0.051760247  0.051814116            4 
 1527000    1.0080965    -4.852635     945.3372  0.051590111  0.051803522            3 
 1528000    1.0131421   -4.8464858    942.19047  0.051384733  0.051793244            2 
 1529000    1.0267389   -4.8568393    945.81445   0.05154864  0.051782862            3 
 1530000    1.0209181   -4.8712545    943.83709  0.051407249  0.051772631            6 
 1531000    1.0222391   -4.8221334    946.48666  0.051517889  0.051762353            4 
 1532000    1.0036322   -4.8736646    946.44591  0.051482045  0.051752363            3 
 1533000    1.0014666   -4.8562182    945.50238  0.051397172  0.051742214            2 
 1534000    1.0234033   -4.8474749    950.04018  0.051610179  0.051732428            5 
 1535000    1.0099625   -4.8321587    948.22147  0.051477821  0.051722666            3 
 1536000    1.0146969   -4.8433367    949.16055  0.051495255  0.051712855            2 
 1537000    1.0036252   -4.8395361    949.25404   0.05146682  0.051702731            3 
 1538000    1.0162846    -4.861467     953.5694  0.051667176  0.051692896            2 
 1539000    1.0123844   -4.8502073    949.70612  0.051424416  0.051683096            3 
 1540000    1.0248396    -4.836039     956.5939  0.051763739  0.051673225            2 
 1541000    1.0103938   -4.8450993     952.8634  0.051528412  0.051663321            3 
 1542000    1.0057934   -4.8992368    946.70136  0.051161984  0.051653258            6 
 1543000    1.0137629   -4.8424003    954.19428    0.0515335  0.051643091            5 
 1544000    1.0054398   -4.8281147     955.1473   0.05155156  0.051633142            2 
 1545000   0.98845111   -4.8593594    954.63518   0.05149057  0.051622936            6 
 1546000   0.98886644   -4.8427235    951.97044  0.051313629  0.051612818            4 
 1547000    0.9964423   -4.8400918    951.06978  0.051231942  0.051602442            3 
 1548000   0.99436642   -4.8503635    953.99778  0.051356469   0.05159195            5 
 1549000   0.99643324   -4.8361426    955.30973  0.051393895  0.051581845            3 
 1550000    1.0041531   -4.8383587     952.4561  0.051207317  0.051571568            4 
 1551000    1.0090794    -4.864232    955.17556  0.051320415  0.051561449            3 
 1552000    1.0265437   -4.8281588    955.45522  0.051302363  0.051551279            4 
 1553000   0.98574733   -4.8701655    955.36365  0.051264416  0.051541154            3 
 1554000    1.0124429   -4.8063546    961.94023  0.051584096  0.051530931            4 
 1555000    1.0093469    -4.835431    958.14201  0.051347375  0.051520741            2 
 1556000   0.99858991   -4.8751896    956.86327  0.051245891  0.051510415            2 
 1557000   0.99370622   -4.8726557    956.99527  0.051220042  0.051500173            3 
 1558000    1.0073849   -4.8524107    959.23977  0.051307219  0.051489851            3 
 1559000    1.0300121   -4.8567177    957.63455  0.051188505  0.051479417            4 
 1560000    1.0224957   -4.8654899    954.22714  0.050973672  0.051469333            3 
 1561000    1.0148927   -4.8774703     955.8743   0.05102895   0.05145881            2 
 1562000    1.0233419   -4.8471073    957.29161  0.051071896  0.051448396            4 
 1563000    0.9862343   -4.8583081    965.07194  0.051454038  0.051437824            3 
 1564000   0.98847043   -4.8095331    964.91106  0.051412567   0.05142769            6 
 1565000   0.99780387   -4.8500386    959.09187  0.051069855  0.051417284            6 
 1566000   0.99611384   -4.8600701    958.68102   0.05101538  0.051406603            3 
 1567000    1.0055835   -4.8630994    963.28204  0.051227507   0.05139615            1 
 1568000   0.99968854   -4.8638458    962.10745  0.051132411  0.051385902            4 
 1569000   0.99830733   -4.8078156    963.65504  0.051182018  0.051375507            3 
 1570000   0.99770537   -4.8206962    967.05854  0.051330071  0.051365338            2 
 1571000   0.99689573   -4.8544115    962.73373  0.051067989  0.051354639            3 
 1572000   0.98595525   -4.8787776    962.21797  0.051008162  0.051344096            6 
 1573000   0.99684957   -4.8604745    961.24632  0.050924259  0.051333426            4 
 1574000    1.0043049   -4.8716919    964.55061  0.051066847  0.051323093            4 
 1575000   0.99823556   -4.8466951    966.28524  0.051126203  0.051312875            3 
 1576000    1.0020571   -4.8401007    967.76298    0.0511719  0.051302853            6 
 1577000    1.0102005   -4.8882865    965.96589  0.051044488  0.051292769            3 
 1578000   0.99742183   -4.8590704    971.40277  0.051299259  0.051283045            1 
 1579000   0.98541468   -4.8687136    966.58173  0.051012335  0.051272996            3 
 1580000   0.99339205   -4.8354223    966.35968  0.050968338  0.051263027            3 
 1581000   0.99974316   -4.8462228    969.54651  0.051104075   0.05125293            3 
 1582000    1.0034904   -4.8666898    966.43524  0.050907882  0.051242685            5 
 1583000    1.0182272   -4.8686819    965.99042  0.050852307  0.051232385            3 
 1584000   0.98469827   -4.8301745    971.36595  0.051103007  0.051222175            3 
 1585000    1.0213564   -4.8707304    967.95534  0.050891448  0.051211692            6 
 1586000    1.0083481   -4.8465665    970.46902  0.050991436  0.051201337            3 
 1587000   0.98831906   -4.8904267    971.25396  0.051000523  0.051190801            3 
 1588000   0.97357841   -4.8663021    968.81855  0.050840604  0.051180303            2 
 1589000    1.0122144   -4.8417231     971.7467  0.050962172   0.05116963            2 
 1590000    1.0172559   -4.8860314    970.58446  0.050869207  0.051159099            2 
 1591000    1.0078938   -4.8719796    969.67548  0.050789623  0.051148573            3 
 1592000   0.99301679   -4.8637246    974.18964  0.050994014  0.051138098            2 
 1593000   0.98779016   -4.8250332    977.15347  0.051117047  0.051127878            3 
 1594000   0.99256141   -4.8424693     975.8279  0.051015678   0.05111767            6 
 1595000    1.0052431   -4.8394806     972.7586  0.050823333  0.051107376            5 
 1596000   0.98892636   -4.8584237    975.00213  0.050908633  0.051096912            5 
 1597000    1.0182619   -4.8752922    974.88817  0.050870808  0.051086837            3 
 1598000    1.0025488   -4.8437668    977.16972  0.050957954  0.051076577            5 
 1599000   0.99064521   -4.8459963    977.54355  0.050945568  0.051066181           10 
 1600000   0.99029919   -4.8412712    978.86437  0.050982519   0.05105612            4 
 1601000   0.99785843   -4.8434602    976.95243  0.050851157  0.051046052            4 
 1602000   0.96465643   -4.8594773    974.83475  0.050709257    0.0510358            4 
 1603000   0.99264301   -4.8889819    980.54275  0.050974358  0.051025334            4 
 1604000   0.97481248   -4.8949195    973.66338  0.050585172    0.0510151            3 
 1605000    1.0057453   -4.8260942    979.54322  0.050858942  0.051004735            2 
 1606000   0.99735149   -4.8793641    980.72909  0.050888807  0.050994578            2 
 1607000    1.0335892   -4.8923458    976.73129  0.050649828  0.050984273            3 
 1608000   0.99953834   -4.8671787      980.459  0.050811515  0.050973851            5 
 1609000   0.99512709    -4.849843    980.61886  0.050788215  0.050963689            2 
 1610000   0.95312664   -4.8353308    979.19936  0.050683197  0.050953359            2 
 1611000   0.99143374   -4.8854315    981.36435  0.050763726  0.050943164            6 
 1612000   0.98864405   -4.8483265      980.713  0.050698563  0.050932987            2 
 1613000    1.0030651   -4.8541261    980.40848  0.050651399  0.050922822            6 
 1614000   0.98984249   -4.8489193    982.40516  0.050723108  0.050912616            5 
 1615000    1.0181358   -4.8924606    980.42733  0.050589645  0.050902343            3 
 1616000   0.97032348   -4.8917477    982.09697  0.050644439  0.050891663            2 
 1617000   0.99805521   -4.8297856    984.18128  0.050720536   0.05088135            7 
 1618000   0.99669201   -4.8770391    981.13671  0.050532381   0.05087096            6 
 1619000     1.003639   -4.8501829    983.79742  0.050638121  0.050860767            3 
 1620000   0.97543396   -4.8887195    986.25501  0.050733282  0.050850419            6 
 1621000   0.99906223    -4.874493    979.78784  0.050369517  0.050840339            4 
 1622000   0.95799311   -4.8731394    986.45447  0.050680974  0.050830239            2 
 1623000    0.9886445   -4.8882627    987.71813   0.05071463  0.050820099            5 
 1624000   0.99643547   -4.8894007    987.67076  0.050680971    0.0508098            3 
 1625000     1.007315   -4.8615782    988.53437   0.05069407  0.050799455            3 
 1626000   0.99759154   -4.8808185    985.13308  0.050488575  0.050789135            6 
 1627000    1.0295961   -4.8516704    988.62215   0.05063625  0.050778757            2 
 1628000   0.97223232   -4.8564929    987.71672    0.0505588  0.050768301            7 
 1629000   0.99342454   -4.8940081    987.33614  0.050508294  0.050758034            3 
 1630000   0.98560856   -4.8697591     987.7439  0.050498154  0.050747642            3 
 1631000   0.97972673   -4.8685755    991.37124  0.050652526  0.050737597            3 
 1632000   0.98701123   -4.8600046    989.86453  0.050544553  0.050727123            3 
 1633000   0.99348459   -4.8700136     989.2433    0.0504819  0.050716541            3 
 1634000   0.99974123   -4.8563385    993.32558  0.050659199  0.050706562            2 
 1635000   0.98433732   -4.8606798    991.68419  0.050544556  0.050696388            4 
 1636000   0.98232124   -4.9211012    990.23332  0.050439758   0.05068627            4 
 1637000    0.9844895   -4.8335807    994.42094  0.050622121  0.050675975            3 
 1638000    1.0076351   -4.9014054    991.12286  0.050423426   0.05066584            3 
 1639000   0.99922845    -4.876684    992.16182  0.050445486  0.050655648            3 
 1640000   0.99831205   -4.8777337    990.12922  0.050311444  0.050645577            4 
 1641000    1.0008144   -4.8718994    994.28386  0.050491766  0.050635373            2 
 1642000   0.98072551   -4.8850075    996.56658  0.050576867  0.050625139            1 
 1643000     1.013216   -4.8523657    993.88352  0.050409998  0.050615026            4 
 1644000    1.0210599   -4.8653547      995.723  0.050472577  0.050605103            4 
 1645000   0.99392385   -4.8824347    994.17811  0.050363633  0.050594866            2 
 1646000    0.9848921   -4.8626197    995.65347  0.050407729  0.050584689            3 
 1647000   0.99358349   -4.8511059    994.00294  0.050293611  0.050574497            3 
 1648000   0.99018918   -4.8219341    998.38074  0.050484463  0.050564385            3 
 1649000   0.99305101   -4.8750463    994.93208  0.050279568  0.050554511            6 
 1650000    1.0071135   -4.8625714    999.44093  0.050476815  0.050544528            2 
 1651000   0.99116516   -4.8772298    1000.8384  0.050516776  0.050534679            3 
 1652000   0.99211198   -4.8543129     1000.636  0.050475988  0.050524901            2 
 1653000   0.98253037   -4.8559598    1001.3465  0.050481271  0.050515078            4 
 1654000   0.98871029   -4.8689808    998.89753  0.050327364  0.050505338            3 
 1655000   0.99297187   -4.8826736    1002.7528   0.05049108  0.050495542            4 
 1656000    1.0076437   -4.8843307    1002.9117  0.050468582  0.050485612            3 
 1657000   0.99054675   -4.8891742    999.33404    0.0502582  0.050475769            4 
 1658000   0.98453295   -4.8978207    996.61843  0.050091397  0.050465821            5 
 1659000   0.99504838   -4.8691288    1001.6573  0.050314312  0.050455744            2 
 1660000   0.97704337   -4.8811647    1001.8464  0.050293495  0.050445643            3 
 1661000   0.99856238   -4.8772693    1003.1658  0.050329408  0.050435965            4 
 1662000   0.99778721   -4.8779642    1005.7771  0.050430057  0.050426386            9 
 1663000   0.96864133   -4.8844947    1002.6034    0.0502407  0.050416547            4 
 1664000    1.0239355   -4.8745505    1003.3567  0.050248232  0.050406554            6 
 1665000   0.98713973   -4.8601969    1004.9365  0.050297122  0.050396507            3 
 1666000    1.0108279   -4.8657394    1003.7798  0.050209072  0.050386546            4 
 1667000   0.96705685   -4.9005011    1002.4782  0.050113888  0.050376488            3 
 1668000   0.98415622   -4.8784837     1007.496  0.050334532  0.050366471            3 
 1669000   0.96575981   -4.9029641    1004.2412  0.050141859   0.05035625            2 
 1670000     0.972292   -4.8765583    1007.3289  0.050265915   0.05034618            2 
 1671000    1.0101766   -4.8661359    1002.3339  0.049986731  0.050336335            2 
 1672000    1.0083514   -4.8900535    1009.3403  0.050306037  0.050326369            2 
 1673000   0.96085126   -4.8971838    1010.0245  0.050310047  0.050316543            1 
 1674000   0.98176056   -4.9164958    1005.6823  0.050063834  0.050306549            6 
 1675000   0.96101144    -4.859759    1008.0649  0.050152485  0.050296595            3 
 1676000   0.97811912    -4.837736    1012.1246  0.050324414    0.0502868            4 
 1677000   0.96847161   -4.8746534    1009.0988  0.050144047  0.050276989            3 
 1678000    1.0163262    -4.899788    1006.8459  0.050002278  0.050267164            5 
 1679000   0.97910633   -4.8734202    1011.0666  0.050181981  0.050257132            5 
 1680000   0.98711954   -4.8849388    1010.8937  0.050143538  0.050247249            4 
 1681000   0.98798943   -4.9207746       1007.9  0.049965297   0.05023729            2 
 1682000    0.9644809   -4.8884067    1012.1902  0.050148147  0.050227497            2 
 1683000    0.9714908   -4.8600462    1012.7445  0.050145798  0.050217655            4 
 1684000   0.98545583   -4.8733768    1015.7457  0.050264536  0.050207866            3 
 1685000    0.9642778   -4.9124347    1011.3176  0.050015709  0.050197735            4 
 1686000   0.97905518   -4.8858552    1015.7652  0.050205874  0.050187801            4 
 1687000   0.97289124   -4.8837026    1016.5046  0.050212638  0.050178089            3 
 1688000   0.96640066   -4.9070658     1011.167  0.049919383  0.050168331            5 
 1689000   0.98837091   -4.8634972    1021.5652  0.050402862   0.05015854            8 
 1690000   0.99289529    -4.849167    1017.2385  0.050159689  0.050148791            3 
 1691000   0.98969339   -4.8812668    1017.0309  0.050119796  0.050139096            3 
 1692000   0.97864163   -4.8689895    1012.9062  0.049887025  0.050129336            2 
 1693000   0.94414408   -4.8501114    1019.6191  0.050187984  0.050119564            1 
 1694000   0.98241077   -4.8993908    1018.9291  0.050124416  0.050109844            4 
 1695000    1.0071519   -4.8975834    1018.9013  0.050093475  0.050100136            5 
 1696000   0.96174532   -4.9025542    1019.3464  0.050085809   0.05009033            5 
 1697000   0.97538842   -4.9246395    1015.9585  0.049889929   0.05008018            2 
 1698000   0.96379897   -4.8992787    1021.3427   0.05012479  0.050070201            2 
 1699000   0.98934156   -4.8852913    1023.8263  0.050217102  0.050060637            2 
 1700000   0.98255937   -4.8844059    1021.3599  0.050066663  0.050050982            3 
 1701000   0.98008497    -4.902657    1020.0711  0.049974091  0.050041141            5 
 1702000   0.98512842   -4.8796633    1020.0764  0.049944987  0.050031453            5 
 1703000   0.97686513   -4.9006897    1019.3829  0.049881723   0.05002149            3 
 1704000   0.96190373   -4.9008562    1018.6666  0.049817422  0.050011645            6 
 1705000   0.96942485   -4.8941035    1020.6532  0.049885296  0.050001752            2 
 1706000   0.97814047   -4.9003187    1021.0672  0.049876278  0.049991926            5 
 1707000   0.97499372   -4.8968562    1024.5887  0.050018975  0.049982229            3 
 1708000   0.98141872   -4.9070896    1023.2863  0.049926144   0.04997238            3 
 1709000   0.98771056   -4.8935188    1023.7052  0.049917359  0.049962877            5 
 1710000   0.97720711   -4.8719519    1027.1517  0.050056127  0.049953342            2 
 1711000   0.96054671   -4.8845349    1024.1903  0.049882635  0.049943999            5 
 1712000   0.96570928   -4.8938313    1026.4758  0.049964751  0.049934567            4 
 1713000   0.99050442   -4.8733167    1026.9034  0.049956381  0.049925158            2 
 1714000   0.97948431   -4.9203895    1026.1416  0.049890199  0.049915588            3 
 1715000   0.97201628   -4.9322724     1023.398  0.049727793  0.049906153            4 
 1716000   0.97124673   -4.9127416    1027.4128  0.049893786   0.04989675            2 
 1717000   0.96630035   -4.8881024    1025.7923  0.049786076  0.049887509            4 
 1718000   0.95666739   -4.9320222    1029.8131  0.049952128  0.049878283            8 
 1719000   0.94881212   -4.8956051    1028.8951   0.04987857  0.049868902            4 
 1720000   0.97924229   -4.9186467    1027.0858  0.049761911  0.049859687            3 
 1721000   0.98515088   -4.8704359    1032.6003  0.050000016  0.049850712            3 
 1722000   0.97853107   -4.8685878    1034.6818   0.05007171  0.049841901            7 
 1723000   0.96946445   -4.8877993    1035.4822  0.050081359  0.049833061            3 
 1724000   0.99290022   -4.9005261    1035.6207  0.050059007  0.049824254            5 
 1725000   0.99392099   -4.9236111    1036.2012  0.050058027  0.049815578            5 
 1726000   0.99092958   -4.9160974    1039.0998  0.050168975  0.049806829            3 
 1727000    0.9714862    -4.886278    1038.4414  0.050108156  0.049798166            4 
 1728000   0.98975661    -4.904429    1033.1453   0.04982375  0.049789311            3 
 1729000    0.9729618    -4.885983    1036.6404  0.049963391  0.049780807            6 
 1730000   0.96055392   -4.9037503    1039.3653  0.050065764  0.049772129            2 
 1731000   0.98143875   -4.9378305    1037.8501  0.049963896  0.049763525            5 
 1732000   0.97025015   -4.8762083    1042.4198  0.050154915  0.049754837            3 
 1733000   0.96757627   -4.8978245    1040.8131  0.050048718  0.049745902            2 
 1734000    0.9802664    -4.904901    1039.5267  0.049958028  0.049737303            2 
 1735000   0.99056758   -4.9007325     1042.704  0.050081843  0.049728535            3 
 1736000   0.98533411   -4.9230028    1037.9543  0.049824995  0.049719707            4 
 1737000   0.95423875   -4.8881945    1038.2672  0.049811321  0.049710764            3 
 1738000   0.97330748   -4.8649838    1047.3139  0.050216434  0.049702114            5 
 1739000   0.96777069   -4.9183452    1040.1232  0.049842974  0.049693417            7 
 1740000   0.98685711   -4.8817412    1042.2612  0.049916723  0.049684523            2 
 1741000   0.99447406   -4.9195275    1039.8221  0.049771306  0.049675578            4 
 1742000     0.978146    -4.912352     1043.859   0.04993585  0.049666637            3 
 1743000   0.95744517   -4.9187975    1043.1258  0.049872145  0.049657958            3 
 1744000   0.94841763   -4.9305956    1043.1001  0.049842322  0.049649294           10 
 1745000   0.97402583   -4.8988581    1047.5478   0.05002616  0.049640778            4 
 1746000   0.96806561   -4.8963644    1046.0514  0.049926087  0.049632443            1 
 1747000    0.9790947   -4.8953574    1045.4271   0.04986773  0.049623968            3 
 1748000   0.96988115   -4.9185942    1050.0504   0.05005961  0.049615676            3 
 1749000   0.94490665   -4.9084948    1052.4602  0.050145806  0.049607345            1 
 1750000   0.97362178   -4.9200817     1047.391  0.049875764  0.049599028            2 
 1751000   0.97283941   -4.9206359    1047.5762   0.04985609  0.049590626            4 
 1752000   0.96906265   -4.9225902     1048.485  0.049870864  0.049582528            3 
 1753000   0.96028266   -4.9549971    1049.6119  0.049895982  0.049574357            2 
 1754000   0.96556761    -4.881808    1053.0631  0.050031506  0.049566328            2 
 1755000   0.96826528    -4.866874    1053.0615   0.05000292  0.049558325            5 
 1756000    0.9556683   -4.9188953    1055.3219  0.050081714  0.049550148            3 
 1757000   0.96352131   -4.9026831    1054.8698  0.050031767  0.049542195            5 
 1758000   0.98532754   -4.9017998    1054.2636  0.049974574  0.049534067            2 
 1759000   0.97342077   -4.9036358    1053.1284  0.049892384  0.049526199            3 
 1760000   0.97772069   -4.9167108    1052.9818  0.049857091  0.049517801            3 
 1761000   0.96689323   -4.9001478    1055.5299  0.049949362  0.049509529            2 
 1762000   0.95525372   -4.9008663    1051.5518  0.049732872  0.049501284            5 
 1763000   0.95790381    -4.872027    1056.8013  0.049952794  0.049493041            2 
 1764000   0.97821787   -4.9097185    1054.3517  0.049808753  0.049484786            3 
 1765000   0.97418892   -4.8965554    1059.4462  0.050021069  0.049476627            3 
 1766000     0.975595    -4.893292    1055.9714  0.049828777  0.049468556            2 
 1767000   0.94411002   -4.9093901    1056.0169   0.04980272  0.049460344            3 
 1768000   0.96451668   -4.9005162    1060.9057   0.05000498  0.049452124            4 
 1769000   0.99106115   -4.8997755    1057.5379  0.049818065  0.049444017            5 
 1770000   0.95520128   -4.9059367    1059.3624  0.049875819  0.049436039            5 
 1771000   0.96020805   -4.9226523    1059.0179  0.049831446  0.049427925            2 
 1772000   0.94796013   -4.8879038    1062.7598  0.049979298  0.049419887            3 
 1773000   0.96078062   -4.9059901    1056.4266  0.049653442  0.049411975            4 
 1774000   0.98244894    -4.942964    1056.4846  0.049628177  0.049404033            6 
 1775000   0.98279254   -4.9037509    1060.6109  0.049793938  0.049395879            3 
 1776000   0.97295513   -4.9263351    1059.3256  0.049705591  0.049387773            3 
 1777000   0.95507347    -4.924883    1061.4889  0.049779072   0.04937981            2 
 1778000   0.95426684   -4.9578749    1064.0166  0.049869543   0.04937169            4 
 1779000   0.97969793   -4.9041694    1062.8718  0.049787885  0.049363615            6 
 1780000   0.97104072   -4.8946258    1064.8156  0.049850917   0.04935553            3 
 1781000   0.95385144   -4.9312219    1062.6195  0.049720169  0.049347622            2 
 1782000   0.96902301    -4.917866    1067.7069  0.049930178   0.04933958            8 
 1783000   0.94551174    -4.933436    1063.6944  0.049714637   0.04933139            3 
 1784000   0.96872425   -4.9475754    1063.5725  0.049681078  0.049323106            4 
 1785000   0.96145662   -4.9293523    1065.9045  0.049762113  0.049314981            4 
 1786000   0.98969615   -4.8886209    1067.6711  0.049816682  0.049306915            4 
 1787000   0.99788851   -4.9187577    1065.8597  0.049704333  0.049298837            6 
 1788000    0.9846432   -4.9035153    1065.4338  0.049656681  0.049290908            3 
 1789000    0.9662211   -4.9135718    1069.9853  0.049840938  0.049282994            3 
 1790000   0.96234626    -4.892522    1068.0964   0.04972516  0.049275122            2 
 1791000    0.9419128    -4.918206    1066.0051  0.049600087  0.049266928            6 
 1792000   0.96762363   -4.9451319    1065.8293  0.049564235  0.049258663            5 
 1793000   0.97389165   -4.9492721     1067.749  0.049625814  0.049250351            8 
 1794000   0.97264972   -4.8975637    1068.0822  0.049613631  0.049242169            2 
 1795000   0.97762488   -4.9244843    1071.3266  0.049736609  0.049233936            6 
 1796000   0.97236924   -4.9067363    1067.1364  0.049514493  0.049225748            5 
 1797000    0.9440113   -4.9331843    1069.3909  0.049591489  0.049217482            3 
 1798000    0.9613627   -4.9611226    1069.7322   0.04957973  0.049209263           12 
 1799000   0.95703484   -4.9146988    1066.5982  0.049406995  0.049201047            2 
 1800000    0.9715937   -4.9418889    1073.1168  0.049681335   0.04919285           14 
 1801000   0.97292849    -4.889643    1070.0399  0.049511379  0.049184599            3 
 1802000   0.98820572   -4.9463452     1070.035  0.049483678  0.049176166            3 
 1803000   0.95412637   -4.9360436    1072.0619  0.049549912  0.049167889            6 
 1804000   0.97873454    -4.930124    1070.9525  0.049471199  0.049159761            6 
 1805000    0.9773325   -4.9569922    1072.4986  0.049515173  0.049151452            4 
 1806000   0.95116517   -4.9269796    1074.4311  0.049576926   0.04914324            7 
 1807000   0.96962997   -4.9308687    1073.7889  0.049519872  0.049134852            2 
 1808000   0.96742402   -4.9498297    1071.9248  0.049406563  0.049126605            5 
 1809000   0.94598176   -4.9739716    1071.3068  0.049350785  0.049118221            2 
 1810000   0.94878794   -4.9291402    1077.9003  0.049627083  0.049109903            5 
 1811000    0.9416051   -4.8986613    1077.5109  0.049581765  0.049101751            5 
 1812000   0.96905614   -4.9445687    1072.3672  0.049317845  0.049093328           10 
 1813000   0.95181188   -4.9492438    1074.4651  0.049387072  0.049084732            3 
 1814000   0.96944197   -4.8971578    1080.6452  0.049643753  0.049076476            5 
 1815000   0.96055722   -4.9505037    1072.2312  0.049230082  0.049068152           10 
 1816000   0.95500513   -4.9262716    1077.7775  0.049457483  0.049059868            3 
 1817000   0.94924992   -4.9297512    1077.6521  0.049424513  0.049051543            4 
 1818000   0.97626336   -4.9027735    1080.1076   0.04950988  0.049043352            4 
 1819000   0.94602835   -4.9398857    1075.8337  0.049286867  0.049035097            7 
 1820000   0.94198277    -4.934209     1080.056  0.049453116  0.049026828            6 
 1821000   0.95897358   -4.8828202    1082.9545  0.049558599  0.049018719            6 
 1822000   0.93409315   -4.9446024    1080.6071  0.049424034  0.049010508            5 
 1823000   0.95828099   -4.9490174    1077.5364  0.049256555  0.049002166            3 
 1824000   0.94192288   -4.9333444    1079.0364  0.049298079  0.048994027            3 
 1825000    0.9715458   -4.9044158    1081.2211  0.049370825  0.048985852            7 
 1826000   0.95618945    -4.925391    1080.7245  0.049321126  0.048977522            1 
 1827000   0.94669926   -4.9389279     1085.606  0.049516784  0.048969284            3 
 1828000   0.95427536   -4.9634342    1077.4429  0.049117563  0.048960987            4 
 1829000      0.97648   -4.9290324     1079.454  0.049182342   0.04895248            6 
 1830000   0.97037971   -4.9780778    1079.3949  0.049152773  0.048944092            4 
 1831000   0.94416848   -4.9522472    1085.1057  0.049385842   0.04893572            3 
 1832000   0.96398618   -4.9335502    1082.4478  0.049237984  0.048927065            3 
 1833000   0.95287509   -4.9643115    1087.0999  0.049422616  0.048918623            4 
 1834000   0.94375896   -4.9329089    1081.1682  0.049126144  0.048910374            6 
 1835000   0.95285461   -4.9211559    1083.3456  0.049198257  0.048902191            9 
 1836000   0.95780894   -4.8788562    1089.5412   0.04945267  0.048894232            3 
 1837000   0.94775698   -4.9411053    1085.6979    0.0492514  0.048886192            2 
 1838000   0.95328595    -4.911109    1088.2188  0.049338902   0.04887784            3 
 1839000      0.95521   -4.9194182    1089.1637   0.04935489  0.048869697            3 
 1840000   0.96831926   -4.9434136    1088.5747  0.049301392  0.048861602            3 
 1841000   0.94348164   -4.9238134    1087.0242  0.049204425  0.048853321            2 
 1842000   0.92542697   -4.9264203    1086.0384  0.049133116  0.048845083            2 
 1843000   0.97039781   -4.9629509    1083.2473  0.048980253  0.048836846            3 
 1844000   0.93667128   -4.9232826    1090.8142  0.049295652  0.048828384            3 
 1845000   0.95074484   -4.9369872    1083.0913  0.048920114  0.048820005            2 
 1846000   0.96420446    -4.945057    1087.2669  0.049082112  0.048811483            3 
 1847000   0.96138768    -4.955663    1090.1672  0.049186394  0.048802959            2 
 1848000   0.94239442   -4.9217857    1092.8286  0.049279791  0.048794794            3 
 1849000   0.95382908   -4.9234091    1094.2944  0.049319201  0.048786449            5 
 1850000   0.94654285   -4.9377201     1085.656  0.048903425  0.048778064            3 
 1851000   0.94521772   -4.9415005    1086.8307  0.048929889  0.048769395            3 
 1852000    0.9650396   -4.9351832    1092.0002   0.04913608   0.04876096            4 
 1853000   0.95236309   -4.9603828    1091.7614  0.049098822  0.048752666            3 
 1854000   0.96323133   -4.9776594    1086.2108  0.048822852  0.048743983            4 
 1855000   0.93718198   -4.9496881    1089.8478  0.048959918  0.048735244            4 
 1856000   0.94737538   -4.9548039    1089.9806  0.048939504  0.048726582            5 
 1857000   0.96709003    -4.965787    1091.1761  0.048966795  0.048718073           10 
 1858000   0.94406112   -4.9524513    1093.4302  0.049041539  0.048709595            2 
 1859000    0.9738182   -4.9346508    1091.4343  0.048925691  0.048701444            5 
 1860000   0.95638121   -4.9497875    1092.2543  0.048936126  0.048692827            4 
 1861000   0.97060286   -4.9419636    1095.2046  0.049041939  0.048684323            4 
 1862000    0.9550243   -4.9438448    1093.2566  0.048928421  0.048676112            5 
 1863000   0.94548732   -4.9562188    1093.6677  0.048920545  0.048667553            3 
 1864000   0.96678695   -4.9682072    1097.4503  0.049063406  0.048658912            4 
 1865000   0.96818063   -4.9314374    1090.4323  0.048723515  0.048650215            2 
 1866000   0.92990636   -4.9239859     1094.444  0.048876563  0.048641538            6 
 1867000    0.9361336   -4.9440095    1093.7341  0.048818697  0.048632947            6 
 1868000   0.95464118   -4.9537416    1094.2632  0.048816168  0.048624212            3 
 1869000   0.95956112   -4.9602148    1097.9266   0.04895339  0.048615357            4 
 1870000   0.95675421   -4.9328689    1094.6181  0.048779773  0.048606779            5 
 1871000   0.97222588   -4.9456318    1097.4817  0.048881243  0.048598165            9 
 1872000    0.9635533    -4.962676    1094.0488  0.048702313  0.048589569            2 
 1873000   0.94645038   -4.9134885    1100.7982  0.048976606  0.048581157            2 
 1874000   0.94988582   -5.0040416    1092.7678  0.048593373  0.048572468            3 
 1875000   0.94167406   -4.9585427    1096.6409  0.048739595  0.048563615            8 
 1876000   0.93013583   -4.9749478    1099.6626  0.048847842  0.048554901            7 
 1877000   0.94813904   -4.9475424    1096.5638   0.04868424  0.048546107            4 
 1878000   0.95839216   -4.9577188     1100.417  0.048829294  0.048537205            5 
 1879000    0.9514624   -4.9410778    1102.7889    0.0489085  0.048528363            3 
 1880000   0.93737576   -4.9339739    1100.8416  0.048796171  0.048519783            2 
 1881000   0.93887078    -4.950954    1098.7017  0.048675425  0.048511295            3 
 1882000   0.97454041   -4.9733073    1100.2263   0.04871707  0.048502498            3 
 1883000   0.93271425   -4.9491309    1099.2652  0.048648665  0.048493781            5 
 1884000    0.9427328    -4.926721    1103.2325  0.048798323  0.048485425            4 
 1885000   0.95113035   -4.9315327    1100.4219  0.048648181  0.048476838            1 
 1886000   0.93740223   -4.8980739    1104.8509  0.048818086  0.048468411            2 
 1887000   0.93432926   -4.9123753     1106.022  0.048843932  0.048459818            5 
 1888000    0.9757968   -4.9702864    1098.5291  0.048487336  0.048451178            4 
 1889000   0.94149707    -4.984638    1100.2202  0.048536271  0.048442422            3 
 1890000   0.93583581   -4.9708049    1105.1455  0.048727755  0.048433595            2 
 1891000   0.94115931    -4.951576    1103.0627  0.048610201  0.048424954            5 
 1892000   0.93599399   -4.9241001    1105.4675  0.048690429   0.04841637            5 
 1893000   0.94725308   -4.9323826    1103.1081  0.048560843   0.04840761            3 
 1894000   0.94126078    -4.980171      1100.87  0.048436728  0.048398724            6 
 1895000   0.91886926   -4.9584773     1102.808  0.048496395  0.048389756            8 
 1896000   0.94273166   -4.9515846    1103.9944  0.048522959  0.048380747            6 
 1897000   0.92822956   -4.9860463    1102.4158  0.048428037  0.048371628            2 
 1898000   0.94326859   -4.9356555     1103.951  0.048469923  0.048362633            6 
 1899000   0.93402096   -4.9358718    1106.3642    0.0485503   0.04835379            2 
 1900000   0.95359104   -4.9424196    1102.5855  0.048359013  0.048344561            3 
 1901000   0.94978665   -4.9364379     1106.747     0.048516  0.048335525            3 
 1902000   0.91007183   -4.9766788    1104.9159  0.048410265  0.048326374            3 
 1903000   0.94088464   -4.9419282     1105.697  0.048419033   0.04831721            5 
 1904000   0.97266848   -4.9293495    1109.4113  0.048556169  0.048308337            3 
 1905000   0.95499744   -4.9669181    1103.4874  0.048271538  0.048299487            3 
 1906000   0.95779583   -4.9583561    1107.6588  0.048428594  0.048290679            4 
 1907000   0.92922001   -4.9341502    1109.4545  0.048481668  0.048281633            4 
 1908000    0.9277973   -4.9297713    1112.4488  0.048587039  0.048272773            6 
 1909000   0.97917514   -4.9376894    1109.8406   0.04844773  0.048263952            3 
 1910000   0.93920303   -4.9646127    1110.7051  0.048460082  0.048255119            5 
 1911000   0.94317668   -4.9426824    1110.2827  0.048416307  0.048246407            3 
 1912000    0.9451668    -4.947992    1111.1931  0.048430663  0.048237612            5 
 1913000   0.93987113   -4.9628084    1111.5556  0.048421137  0.048228805            4 
 1914000   0.91712282   -4.9372519    1111.2145  0.048380988  0.048220062            4 
 1915000   0.95486514   -4.9673111      1109.22  0.048268928  0.048211365            3 
 1916000   0.95496888   -4.9415657    1113.1387  0.048414176  0.048202734            3 
 1917000   0.92778993   -4.9722956    1112.2164  0.048348826  0.048193967            5 
 1918000   0.95580554   -4.9390716    1116.2146  0.048497333  0.048185335            3 
 1919000   0.94638943   -5.0003239    1109.6957  0.048188976  0.048176509            9 
 1920000   0.94110769   -4.9509998    1112.3268  0.048278072  0.048167758            5 
 1921000   0.93630747   -4.9426397    1111.8234  0.048231105  0.048159018            2 
 1922000   0.94015554    -4.940536    1113.1879   0.04826517  0.048150182            8 
 1923000    0.9496258   -4.9393562    1114.7577  0.048308099  0.048141307            4 
 1924000   0.94886204   -4.9754463    1113.2489  0.048217639  0.048132269            3 
 1925000   0.94323907      -4.9417    1116.3555  0.048327077  0.048123663            5 
 1926000   0.93857314   -4.9459979    1117.7284  0.048361388  0.048114842            2 
 1927000    0.9488259   -4.9748491    1112.3209  0.048102443  0.048106083            4 
 1928000    0.9486947   -4.9771288    1118.9938  0.048365916   0.04809712            2 
 1929000    0.9363583    -4.946007    1120.0897  0.048388184  0.048088354            8 
 1930000   0.92689917   -4.9542174     1113.731  0.048088557   0.04807941            3 
 1931000   0.94323802   -4.9742884    1113.2516  0.048042964  0.048070261            4 
 1932000   0.94339404   -4.9602026    1120.8141  0.048344295  0.048061384            6 
 1933000   0.94153508   -4.9969773    1115.6666  0.048097369  0.048052404            2 
 1934000   0.93102622   -4.9760921    1118.6367  0.048200477  0.048043395            4 
 1935000   0.95178576   -4.9555188    1117.5291  0.048127869   0.04803428            4 
 1936000   0.96073981    -4.973408     1121.455  0.048271997  0.048025378            2 
 1937000   0.94944588   -4.9395189    1118.3816   0.04811485  0.048016737            3 
 1938000   0.95247901   -4.9515728    1120.0267  0.048160761  0.048007878            5 
 1939000   0.94683633   -4.9261683    1124.9697  0.048348362  0.047999246            3 
 1940000   0.93824087   -4.9529164    1120.7187   0.04814084  0.047990401            2 
 1941000   0.94142435   -4.9713261    1118.0242   0.04800035  0.047981621            6 
 1942000   0.94599697   -4.9536791    1125.0991  0.048279229  0.047972743            5 
 1943000   0.92255697   -4.9839663    1121.1059  0.048083115  0.047963868            2 
 1944000   0.94272753   -4.9717162    1120.1807  0.048018721  0.047954795            4 
 1945000   0.95313132   -4.9615123    1122.9256  0.048111636  0.047946099            3 
 1946000   0.96752959   -4.9678685    1122.2141  0.048056444  0.047937325            4 
 1947000   0.92388425   -4.9535343    1124.9002   0.04814673   0.04792861            3 
 1948000    0.9479859   -4.9520196    1122.2791  0.048009888  0.047919933            7 
 1949000   0.95063051   -4.9774299    1123.5425  0.048039272  0.047911279            3 
 1950000    0.9529257   -4.9571163    1129.1249    0.0482532  0.047902696            3 
 1951000   0.96259995   -4.9537029    1127.5093  0.048159462  0.047894073            3 
 1952000    0.9206074   -4.9839232    1125.0675  0.048030544  0.047885423            5 
 1953000   0.96610247   -4.9973344    1122.7845   0.04790854  0.047876743            4 
 1954000   0.96199409   -4.9436511    1128.5141  0.048128374  0.047867912            4 
 1955000   0.93761787   -5.0011999    1128.0418  0.048083624  0.047859056            5 
 1956000   0.95205236   -4.9564065    1127.5337  0.048037392  0.047850324            1 
 1957000   0.95465548    -4.984916     1126.285  0.047959676  0.047841502            3 
 1958000   0.96701911   -4.9727775    1129.7486  0.048082593  0.047832551            4 
 1959000   0.92031158   -4.9619936    1126.5656  0.047922649  0.047823771            4 
 1960000   0.94976713   -4.9638428    1130.5075  0.048065793  0.047814856            8 
 1961000   0.94553049   -5.0033685     1126.274  0.047861379  0.047805942            3 
 1962000   0.93741694   -4.9600831     1131.612   0.04806371  0.047796952            2 
 1963000   0.91123693   -4.9632904    1128.5674  0.047909978  0.047787858            3 
 1964000   0.94862025   -4.9920489    1130.3479  0.047961129  0.047778983            2 
 1965000   0.94721666    -4.962236    1127.6347  0.047821659  0.047769832            5 
 1966000   0.94567397   -4.9906631    1130.7402  0.047928966  0.047760799            3 
 1967000   0.94851805   -4.9462331    1132.0365  0.047959519   0.04775196            6 
 1968000   0.93211134   -4.9772482    1132.8002  0.047967487   0.04774292            3 
 1969000   0.92027689   -4.9991904    1131.3786   0.04788296  0.047733955            6 
 1970000   0.95785719   -4.9895743     1129.962  0.047798732  0.047724795            3 
 1971000   0.97266599   -4.9894871    1132.7439  0.047892098  0.047715883            3 
 1972000   0.95084817   -4.9749209    1131.3599  0.047809324  0.047706953            4 
 1973000   0.94506362   -4.9742871    1134.2586  0.047907526  0.047698142            4 
 1974000   0.94153146   -4.9986993    1129.4732  0.047681241  0.047689342            4 
 1975000   0.92148845   -4.9778149    1131.6198  0.047747672  0.047680537            5 
 1976000   0.93560391    -4.980092    1133.8211  0.047816343  0.047671759            3 
 1977000   0.93887619   -4.9791368    1134.1627  0.047806552  0.047662987            3 
 1978000   0.92720235    -4.946259     1131.693  0.047678339  0.047654048           12 
 1979000   0.95492117   -4.9743832    1135.5037  0.047814707  0.047645182            4 
 1980000   0.93776272   -4.9932486    1136.6524  0.047838908  0.047636263            4 
 1981000   0.94248021   -4.9639082    1138.0691  0.047874351  0.047627424            4 
 1982000   0.93787014   -5.0046007    1135.2403  0.047731259   0.04761847            4 
 1983000   0.93753386   -4.9823829    1136.3191  0.047752527  0.047609369            4 
 1984000   0.91878516   -4.9664519    1138.3596  0.047814162  0.047600382            4 
 1985000   0.94034644   -4.9915858    1137.3185  0.047746369  0.047591487            3 
 1986000   0.94455098   -4.9895302    1133.5809  0.047565498  0.047582193            3 
 1987000   0.92711469   -4.9296264    1136.3755  0.047658759  0.047573109            3 
 1988000   0.93805618   -4.9643678    1139.5955  0.047769763  0.047564117            5 
 1989000   0.93784639   -4.9911814    1136.0441  0.047596954  0.047555103            2 
 1990000   0.92755227   -5.0068411    1139.1046  0.047701198  0.047545991            3 
 1991000   0.92314935   -4.9730591    1137.7799  0.047621795  0.047536773            3 
 1992000   0.93107782   -4.9615878    1139.0509   0.04765106  0.047527772            4 
 1993000   0.92720583   -4.9965226    1136.6496  0.047526744  0.047518662            2 
 1994000   0.93727597   -5.0042006      1134.78  0.047424775  0.047509509            2 
 1995000   0.92363875   -4.9745052    1140.0558  0.047621379  0.047500442            4 
 1996000   0.92886802   -4.9594424    1140.9314  0.047634075  0.047491516            2 
 1997000   0.94066599   -5.0104787    1139.1831  0.047537268  0.047482419            4 
 1998000   0.93970453   -4.9857115    1139.0064  0.047506105   0.04747323            7 
 1999000   0.92038868   -4.9748133    1142.6027  0.047632261   0.04746429            2 
 2000000   0.91937374   -4.9466674     1142.054  0.047585584  0.047455259            3 
 2001000   0.92335616   -4.9577359    1143.5888   0.04762572  0.047446516            3 
 2002000   0.92809527   -4.9814703    1145.3426  0.047674935  0.047437703            3 
 2003000   0.91608014   -5.0057409    1142.9224  0.047550441  0.047428713            4 
 2004000   0.94024693   -4.9648886      1147.37  0.047711658  0.047419973            5 
 2005000   0.93090404   -4.9679804     1143.913  0.047544179  0.047411207            3 
 2006000   0.93834294   -4.9959992     1146.038  0.047608759  0.047402599            3 
 2007000   0.91965789   -4.9974838    1146.1746  0.047590706  0.047393675           11 
 2008000   0.94222216   -4.9786326     1147.721  0.047631182  0.047384896            3 
 2009000   0.92435295   -4.9872463     1148.866   0.04765497  0.047376001            2 
 2010000   0.92780218   -4.9824239    1144.9595  0.047469301  0.047367082            4 
 2011000   0.91549395   -4.9965023    1149.6455  0.047639878  0.047358362            4 
 2012000   0.91989482   -4.9940263    1152.0474  0.047715679  0.047349513            4 
 2013000   0.90806155   -4.9996859    1144.5385  0.047381128  0.047340477            4 
 2014000   0.92388317   -4.9820544    1146.3787  0.047433744  0.047331439            4 
 2015000   0.94383939   -4.9867527    1145.6239  0.047378986  0.047322641            4 
 2016000   0.93733765   -4.9812165    1149.8097  0.047528509  0.047313893            5 
 2017000   0.92504304   -5.0080478    1148.3244  0.047443578  0.047305121            4 
 2018000   0.95730587   -4.9705604    1151.2084  0.047539162  0.047296339            4 
 2019000   0.92240499   -4.9614972    1151.5583  0.047530062  0.047287659            3 
 2020000   0.90559885   -5.0013448    1151.5009  0.047504164  0.047278924            2 
 2021000   0.91896496   -5.0129893    1152.5273   0.04752298  0.047270029            4 
 2022000   0.93142754   -4.9820576    1150.0486   0.04739732  0.047261062            3 
 2023000   0.92003453   -4.9845532    1151.5341  0.047435084  0.047252148            3 
 2024000   0.92641099   -4.9907897    1155.6344  0.047580467  0.047243484            3 
 2025000   0.92828094   -4.9569864    1151.8669   0.04740193  0.047234684            3 
 2026000   0.93484529   -4.9777003    1154.1207  0.047471235  0.047226156            7 
 2027000   0.92709325   -4.9991319    1151.9891  0.047360182  0.047217497            7 
 2028000   0.92705454   -4.9973383    1152.2318  0.047346805  0.047208737            4 
 2029000    0.9245846   -4.9823228    1156.2314  0.047487737  0.047199887            3 
 2030000   0.94228602   -5.0187513     1151.641  0.047275902  0.047191182            4 
 2031000   0.90912234   -5.0082475     1156.965  0.047471075  0.047182328            2 
 2032000   0.90987795   -5.0104135     1151.039  0.047204683  0.047173569            8 
 2033000   0.92862899   -5.0181369    1151.6188  0.047205232  0.047164596            5 
 2034000    0.9349311   -5.0112456    1156.9995  0.047402471  0.047155664            4 
 2035000   0.94048741   -5.0015813    1154.5154  0.047277455  0.047146813            3 
 2036000   0.90292403    -5.001923    1157.1322  0.047361338  0.047137718            4 
 2037000   0.91826606   -5.0008215    1158.0836  0.047377008  0.047128917            4 
 2038000   0.92370368    -5.022416    1152.5575  0.047127801  0.047120092            4 
 2039000   0.93482986   -4.9942998    1157.7978  0.047318859  0.047111156            9 
 2040000   0.94580964   -4.9876942    1154.8218  0.047174093  0.047102283            2 
 2041000   0.92439697   -4.9924111    1153.0793  0.047079832  0.047093279            8 
 2042000   0.91836967   -5.0056318    1157.0073  0.047217078  0.047084356            7 
 2043000   0.93506393   -4.9697225      1153.33  0.047043972  0.047075401            3 
 2044000   0.93804734   -4.9827993    1157.5789  0.047194182  0.047066538            6 
 2045000   0.91353054   -4.9805237    1159.1878  0.047236667  0.047057569            6 
 2046000   0.93256903   -5.0333234    1154.5905  0.047026333  0.047048482            4 
 2047000   0.92034676   -5.0505263    1153.2529  0.046948904  0.047039343            5 
 2048000    0.9135914   -4.9862035    1159.0501  0.047161871  0.047030264            6 
 2049000   0.90750942   -5.0135341    1157.1114  0.047060004  0.047021322            4 
 2050000    0.9436077   -5.0327914    1155.7362  0.046981145  0.047012113            4 
 2051000   0.91995019   -4.9812088    1158.9978  0.047090761   0.04700313            2 
 2052000   0.91915105   -5.0180106    1159.6813  0.047095568  0.046994156            6 
 2053000   0.93700184    -4.990888    1162.5394  0.047188644  0.046985186            5 
 2054000     0.931613   -5.0098149    1160.6431  0.047088734  0.046976159            7 
 2055000    0.9239726   -5.0032232     1160.461  0.047058433  0.046967025            3 
 2056000   0.93328577   -4.9886906    1164.1649  0.047185674  0.046958075            2 
 2057000   0.92847375   -5.0120176    1157.9698  0.046911755  0.046949261            3 
 2058000    0.9077841   -4.9803284    1160.7645  0.047002127  0.046940327            3 
 2059000   0.90702321   -4.9968865    1162.0108  0.047029741  0.046931429            2 
 2060000   0.92040907   -4.9919867    1160.3923  0.046941435  0.046922342            2 
 2061000   0.94002318    -5.032602    1164.0667  0.047067228  0.046913285            7 
 2062000   0.91273956   -5.0223833    1165.0243  0.047083102  0.046904181            3 
 2063000   0.91918822   -4.9732597    1162.4736  0.046957245  0.046895148            2 
 2064000   0.93915774   -4.9723112    1167.0781    0.0471204  0.046886222            4 
 2065000   0.90564379   -5.0198232    1162.4375  0.046910311  0.046877278            3 
 2066000    0.9367834   -4.9662115    1166.3344  0.047044789  0.046868471            3 
 2067000   0.91156793   -5.0293107     1160.815  0.046799507  0.046859438            2 
 2068000   0.91475828   -5.0239442    1165.7884   0.04697729  0.046850355            5 
 2069000   0.90456888   -5.0176824    1166.8518  0.046997413  0.046841276            4 
 2070000   0.92314016   -5.0117405    1165.5513  0.046922354  0.046832248           13 
 2071000   0.92308225   -5.0142862    1167.3624  0.046972574  0.046823095            5 
 2072000   0.91158497   -5.0118852    1167.9308  0.046972764  0.046813994            4 
 2073000   0.92003663    -5.009753    1166.5305  0.046893812  0.046804765            3 
 2074000   0.89277234   -5.0139684    1169.3097  0.046982871  0.046795619            6 
 2075000   0.92886062   -5.0219146    1164.9324  0.046784432  0.046786336            5 
 2076000   0.94004142   -5.0340968    1165.5091  0.046785048  0.046776919            4 
 2077000   0.91044298   -5.0160317    1166.4585  0.046800613  0.046767596            4 
 2078000   0.93077807   -4.9897506    1167.6724  0.046826772  0.046758179            4 
 2079000   0.91891632   -5.0135839    1167.7189  0.046806112  0.046748742            3 
 2080000   0.90855599   -4.9897573     1166.802  0.046746875  0.046739385            2 
 2081000   0.93525345   -5.0112098    1170.0447  0.046854266  0.046730255            4 
 2082000    0.9007632   -5.0034384    1166.8498  0.046703882  0.046720765            8 
 2083000   0.91112619   -5.0195139    1168.4325  0.046744777  0.046711314            4 
 2084000    0.9516581   -5.0121571      1167.67  0.046691858  0.046701918            5 
 2085000   0.91915666   -5.0033399    1170.1493  0.046768558  0.046692437            7 
 2086000   0.92423737   -5.0210641    1168.3164  0.046672914  0.046682878            5 
 2087000   0.92279896    -5.011803     1168.686  0.046665308  0.046673373            5 
 2088000   0.91850403   -5.0086774    1171.1504  0.046741315  0.046663924            4 
 2089000   0.91745863    -5.011006    1169.4173  0.046649804  0.046654684            3 
 2090000   0.91983751   -5.0191833    1171.6036  0.046714657  0.046645265            6 
 2091000   0.92409382   -4.9797205    1172.2995  0.046720052  0.046635911            5 
 2092000   0.91722174   -5.0217115     1167.879  0.046521631  0.046626562            5 
 2093000   0.92124378   -5.0368122     1168.475  0.046523132  0.046617149            5 
 2094000   0.92963915   -5.0299033    1171.6284  0.046626409  0.046607806            8 
 2095000   0.92332471   -5.0204153    1170.8324   0.04657249  0.046598527            8 
 2096000   0.91156827   -5.0061101    1174.1091  0.046680547  0.046589096            3 
 2097000   0.89912508   -4.9974239    1172.6568  0.046600574  0.046579925            3 
 2098000   0.91103552   -4.9648776    1177.4334  0.046768087  0.046570651            2 
 2099000   0.92354412   -5.0369733    1168.1345  0.046376629  0.046561319            2 
 2100000   0.89924238   -5.0304571    1173.1809  0.046554799  0.046551673            3 
 2101000   0.91612887    -5.015724    1171.6263  0.046470978  0.046542043            4 
 2102000   0.91253332   -5.0247239    1173.5348  0.046524531  0.046532571            1 
 2103000   0.92756197   -5.0133563    1172.5742  0.046464344  0.046522873            6 
 2104000   0.89442767   -5.0446268    1166.5455  0.046203483  0.046513228            5 
 2105000   0.92154467   -5.0051016    1173.2366  0.046446419  0.046503581            4 
 2106000   0.91624681   -4.9899216    1173.7923  0.046446354  0.046494053            3 
 2107000   0.89635796   -4.9978153    1177.1348  0.046556509  0.046484657           14 
 2108000   0.89456867   -5.0083512    1170.8359  0.046285415   0.04647512           12 
 2109000   0.92001202   -5.0353051    1173.6499   0.04637466  0.046465464            4 
 2110000   0.91649383   -5.0128272    1174.5975  0.046390105  0.046455985            2 
 2111000   0.93310506   -5.0001978     1173.901  0.046340636  0.046446434            4 
 2112000   0.90787668   -5.0042691    1175.1839  0.046369315  0.046437007            6 
 2113000    0.9026207   -4.9839909    1175.9485  0.046377523  0.046427479            7 
 2114000   0.91349506   -5.0206742    1175.2299   0.04632726  0.046417891            5 
 2115000   0.92779383   -5.0375624    1173.3973  0.046233147  0.046408519            4 
 2116000   0.91389298   -5.0643919     1171.536  0.046137997  0.046398835            5 
 2117000   0.89526434   -5.0386083    1176.5568   0.04631384  0.046389271            5 
 2118000   0.91732015   -5.0066571     1177.154  0.046315471  0.046379764            6 
 2119000   0.90138701   -5.0336766    1174.7273  0.046198181  0.046370332            7 
 2120000    0.9408457   -5.0283067    1175.1857  0.046194406  0.046360794            5 
 2121000   0.90003903   -5.0146194    1179.3146   0.04633485  0.046351284            3 
 2122000   0.92741437   -4.9938397    1179.8528  0.046334152   0.04634184            3 
 2123000   0.90660526   -5.0166839    1178.2333  0.046248756  0.046332477            5 
 2124000   0.91764362   -5.0177394    1174.5203  0.046081303  0.046322899            3 
 2125000    0.9106894   -4.9833832    1180.9669  0.046312426  0.046313234            6 
 2126000   0.90188391   -5.0243503    1178.9269  0.046210683  0.046303528            3 
 2127000   0.91165518   -5.0657795    1175.5669  0.046057315   0.04629381            7 
 2128000   0.91104753   -5.0130593    1181.5774  0.046271044  0.046284121            6 
 2129000   0.92302092    -5.003164    1186.9034   0.04645778  0.046274767            3 
 2130000   0.90742829   -5.0298918    1178.6361  0.046112523  0.046265336            6 
 2131000   0.93055979   -5.0535419    1181.5034   0.04620301  0.046255831            8 
 2132000   0.91597324   -5.0466196    1182.8642   0.04623453  0.046246322            4 
 2133000   0.92237575   -5.0360813    1183.9892  0.046256807  0.046236898            4 
 2134000   0.91645414   -5.0360537    1180.6706  0.046105538  0.046227323            5 
 2135000   0.94516971   -5.0170296    1185.4049  0.046268733  0.046217753            5 
 2136000   0.90248076   -5.0647979    1180.8025  0.046067514  0.046208323            4 
 2137000   0.92141789   -5.0517534    1183.5893  0.046154629  0.046198901           10 
 2138000   0.90491241   -5.0280508    1185.1305  0.046193111   0.04618953            8 
 2139000   0.90246754   -5.0422665    1189.0169  0.046322928  0.046180331            3 
 2140000   0.93595241   -5.0179243    1186.3041  0.046195642  0.046171016            6 
 2141000   0.91798064   -5.0495869    1183.1049  0.046049547  0.046161826            2 
 2142000   0.92157309   -5.0616055    1184.8746  0.046096895  0.046152242            3 
 2143000   0.89770282   -5.0531917    1186.9283  0.046155248  0.046142813            7 
 2144000   0.88435935   -5.0458801    1188.1964  0.046183006   0.04613335            5 
 2145000   0.89907096   -4.9757032    1189.8989  0.046227619  0.046124074            3 
 2146000   0.91832744   -5.0231677    1187.9589  0.046130742  0.046114573            3 
 2147000   0.90698037   -5.0845128    1183.7402  0.045945514     0.046105            5 
 2148000   0.88948255   -5.0478113     1183.388  0.045910459  0.046095394            5 
 2149000   0.90938974   -5.0635155    1185.5315  0.045972215   0.04608587            3 
 2150000   0.92151441   -5.0254647    1185.5274  0.045950674  0.046076478            5 
 2151000    0.8919058   -5.0552238    1185.1462  0.045914542  0.046066832            3 
 2152000   0.91321177   -5.0439286    1184.5435  0.045869869  0.046057199            9 
 2153000   0.91272134   -5.0648345    1184.7364   0.04585603  0.046047645            2 
 2154000    0.9046287   -5.0626403    1186.9736  0.045921294  0.046038048            4 
 2155000    0.9112413   -5.0064315     1193.507  0.046152628  0.046028547            5 
 2156000   0.92773286   -5.0408109    1190.0109  0.045996094  0.046019246            5 
 2157000   0.90111764   -4.9925495    1192.0227  0.046052494  0.046009965            3 
 2158000   0.89283498   -5.0826912    1190.1369  0.045958331  0.046000491            4 
 2159000   0.90010044   -5.0138836    1192.8711  0.046042577  0.045991031            4 
 2160000   0.91014076   -5.0337709    1190.9394  0.045946738  0.045981555            5 
 2161000   0.90508168   -5.0423914    1190.4333   0.04590596  0.045972023            3 
 2162000   0.91165323   -5.0653379    1186.7611  0.045743183  0.045962257            6 
 2163000   0.91119172   -5.0292529    1189.3202  0.045820628  0.045952618            7 
 2164000   0.91106556   -5.0416488    1191.7111  0.045891526  0.045943039            4 
 2165000   0.90428308   -5.0335755    1192.3086  0.045893324  0.045933522            2 
 2166000   0.91099479   -5.0071618    1191.6073  0.045845156  0.045924164            4 
 2167000   0.90155683   -5.0340386    1198.7241  0.046097682  0.045914531            3 
 2168000   0.92038168   -5.0493217    1190.1975  0.045748672  0.045904916            3 
 2169000   0.88899103   -5.0417832      1197.76  0.046018135  0.045895553            2 
 2170000   0.90392493   -5.0564018    1194.0742  0.045855386  0.045886021            6 
 2171000   0.89545984   -5.0496515    1196.2155  0.045916456  0.045876645            5 
 2172000   0.90496779   -5.0303243    1189.5431  0.045639314  0.045867098            6 
 2173000   0.90296975   -5.0278073    1195.9654  0.045864605  0.045857668            9 
 2174000   0.91081555   -5.0322014    1196.0369  0.045846249  0.045848402            3 
 2175000   0.89007995    -5.063348    1193.1964  0.045716339  0.045839027           11 
 2176000   0.89000046   -5.0338054    1194.7421  0.045754521  0.045829692            2 
 2177000   0.90749598   -5.0223749    1195.7199  0.045770934  0.045820179            6 
 2178000   0.88167984   -5.0492544    1196.0332  0.045761905   0.04581074            6 
 2179000   0.91381366   -5.0453375    1196.8316  0.045771438  0.045801276            7 
 2180000   0.89403758   -4.9887884    1198.6872  0.045821375  0.045791859            7 
 2181000    0.9184879   -5.0179879    1199.0713  0.045815042   0.04578239            4 
 2182000   0.89107098   -5.0257445    1196.9152  0.045711702  0.045772905            4 
 2183000   0.90384405   -5.0445148    1194.5715  0.045601294  0.045763471            5 
 2184000   0.90380839   -5.0438089    1197.6862  0.045699259  0.045753943            3 
 2185000   0.89476913   -5.0659095    1196.2011  0.045621705  0.045744405            7 
 2186000   0.90099779   -5.0281064    1196.8486  0.045625518  0.045734743            3 
 2187000   0.90580849   -5.0625225    1196.1161  0.045576744  0.045725245            3 
 2188000   0.91891841   -5.0450917    1197.0214  0.045590395  0.045715576            3 
 2189000   0.89384906    -5.049366    1199.2816  0.045655611  0.045705777            4 
 2190000   0.89233447     -5.08182    1197.0078   0.04554824  0.045696026            3 
 2191000   0.89271679   -5.0409087    1193.7223   0.04540249  0.045686216            4 
 2192000   0.88277604   -5.0475399    1196.9507  0.045504513   0.04567651            5 
 2193000    0.8999946   -5.0814649    1194.4554  0.045388941  0.045666735            5 
 2194000   0.88296112   -5.0594512    1196.2901   0.04543794  0.045656982            4 
 2195000   0.89154379   -5.0222581    1200.4437  0.045574931  0.045647235            3 
 2196000    0.9087378   -5.0647409    1195.8447  0.045379655  0.045637427            3 
 2197000    0.9058731   -5.0489452    1200.7054  0.045543372  0.045627536            8 
 2198000   0.89255194    -5.054656    1198.2911  0.045431114  0.045617753            4 
 2199000   0.88715195   -5.0340347    1200.0792  0.045478216  0.045607982            3 
 2200000   0.88544947   -5.0868166     1197.412  0.045356514   0.04559811            4 
 2201000   0.88076902   -5.0475536    1202.9275  0.045544735  0.045588455            5 
 2202000   0.90484347   -5.0431188    1200.2094  0.045421185  0.045578866            2 
 2203000   0.90488793   -5.0127932    1205.9434  0.045617467  0.045569204            6 
 2204000   0.88411937   -4.9974655    1203.8018  0.045515796  0.045559548            2 
 2205000   0.91491195   -5.0874935    1198.5979  0.045298485  0.045549759            5 
 2206000    0.9105526   -5.0397811    1203.8755  0.045477318  0.045540149            6 
 2207000   0.90107566   -5.0375708    1204.7628  0.045490212   0.04553051            4 
 2208000   0.89951275   -5.0395405    1205.5845  0.045500622  0.045520889            3 
 2209000   0.89494286   -5.0445742    1205.5672  0.045479373  0.045511351            4 
 2210000   0.89924148   -5.0248723    1205.2098  0.045445316  0.045501825            5 
 2211000   0.87771698   -5.0476317    1205.6333  0.045440724  0.045492263            8 
 2212000   0.89269914   -5.0871613    1202.6919   0.04530937   0.04548249            6 
 2213000   0.89800545   -5.0368288    1205.0638  0.045378211  0.045472815            3 
 2214000   0.92140956   -5.0256167    1203.0257  0.045281003  0.045463026            7 
 2215000   0.91134884   -5.0503383    1204.1358  0.045302324  0.045453442            4 
 2216000   0.89762643    -5.079792    1205.3966  0.045329294  0.045443541            3 
 2217000   0.89274105   -5.0680137    1202.3358  0.045193798  0.045433718            4 
 2218000   0.87950402   -5.0624092    1205.9062  0.045307565  0.045424028            4 
 2219000   0.89785332   -5.0478574    1202.8265  0.045171494  0.045414391           11 
 2220000   0.89808313   -5.0159184    1203.3028  0.045169024  0.045404719            5 
 2221000   0.87770809   -5.0737778    1204.3825  0.045189196  0.045394945            5 
 2222000   0.91470121   -5.0558768    1205.1577  0.045197935  0.045385227            3 
 2223000   0.87509335   -5.0613559    1207.8084  0.045276967  0.045375515            5 
 2224000   0.90064828   -5.0557075    1208.0479  0.045265585  0.045365783            3 
 2225000   0.88063637   -5.0633804    1208.6571  0.045268054  0.045356103            5 
 2226000   0.90628183   -5.0424201    1207.4441  0.045202309  0.045346464           11 
 2227000   0.88921499   -5.0474628    1213.5561   0.04541072  0.045336866            4 
 2228000   0.88466959   -5.0679792    1208.2976  0.045193655   0.04532704            4 
 2229000   0.88590687   -5.0664457    1205.3928  0.045064784  0.045317116            8 
 2230000   0.91396595   -5.0668948    1207.3403   0.04511735  0.045307276            6 
 2231000   0.91095861   -5.0592249    1209.2295  0.045167693  0.045297594            2 
 2232000   0.88540059   -5.0590705    1209.8577  0.045170911  0.045287772            7 
 2233000   0.88709395   -5.0447125    1205.4867   0.04498756  0.045278005            3 
 2234000   0.87087603   -5.0540648    1208.7191     0.045088  0.045268222            4 
 2235000    0.8808742   -5.0410938    1212.0104  0.045190543  0.045258463            4 
 2236000   0.91451632   -5.0466639    1210.3992  0.045110287  0.045248692            6 
 2237000   0.89009953   -5.0526923    1213.3329  0.045199406  0.045238928            3 
 2238000   0.88567448   -5.0667755     1208.151   0.04498626  0.045229134            4 
 2239000   0.90216457   -5.0754723    1209.8801  0.045030525  0.045219149            4 
 2240000   0.90219983   -5.0655056    1208.8698  0.044972835  0.045209276            5 
 2241000   0.89337451   -5.0557171     1215.226  0.045189128  0.045199347            3 
 2242000   0.89929545   -5.0711041    1207.7037  0.044889372  0.045189345            7 
 2243000   0.90298324   -5.0525538    1208.8429  0.044911683  0.045179267            5 
 2244000   0.87963109   -5.0712646    1212.1351   0.04501393  0.045169315            5 
 2245000   0.89605229   -5.0384801    1213.8545  0.045057703  0.045159485            6 
 2246000    0.8986825   -5.0912065    1211.5549  0.044952319  0.045149621            4 
 2247000   0.88607322   -5.0506738    1214.1156  0.045027281  0.045139908            3 
 2248000   0.89393312   -5.0707834    1211.9634   0.04492747  0.045129927            4 
 2249000   0.88906721    -5.047907    1211.1426  0.044877079  0.045120057            3 
 2250000   0.90605453   -5.0531104    1213.7602  0.044954083  0.045110269            3 
 2251000   0.87797777   -5.0538865    1215.3977  0.044994731   0.04510044            6 
 2252000   0.89680174   -5.0746078    1213.1082  0.044890032  0.045090512           13 
 2253000   0.89152089   -5.0623445    1214.0814  0.044906104  0.045080706            7 
 2254000   0.89856743   -5.0561875    1212.4439  0.044825639  0.045070872            6 
 2255000   0.90300364   -5.0405097    1218.4043  0.045026026  0.045061019            3 
 2256000   0.87817463   -5.0701414     1215.682  0.044905511  0.045051187            3 
 2257000   0.90562666   -5.0712274    1213.0639  0.044788951  0.045041355            3 
 2258000   0.89622763   -5.0602801    1217.8872  0.044947123  0.045031496            4 
 2259000   0.88673808   -5.0775058    1212.5958  0.044732028  0.045021483            3 
 2260000   0.89914075   -5.0927211    1216.4008  0.044852538  0.045011573            3 
 2261000   0.88219328   -5.0690613    1218.6195  0.044914474  0.045001719            6 
 2262000   0.88816568   -5.0320523    1222.2367  0.045027877  0.044991927            5 
 2263000     0.888883    -5.052451    1215.9382  0.044776043  0.044982284            3 
 2264000   0.88990577   -5.0580678    1217.4927  0.044813483  0.044972511            3 
 2265000   0.88076098   -5.0784077    1217.3129  0.044787082  0.044962848            5 
 2266000   0.87979764   -5.0512178    1219.5267  0.044848733  0.044953056            2 
 2267000   0.87758838   -5.0639476    1218.6742   0.04479761  0.044943217            3 
 2268000   0.88901754    -5.075515    1217.6952  0.044741886  0.044933305            3 
 2269000   0.92227195   -5.0913299    1216.4334  0.044675828  0.044923399            4 
 2270000   0.87341418   -5.0633378    1222.3245  0.044872411  0.044913419            3 
 2271000   0.88199755   -5.0887237    1212.9955  0.044510329  0.044903575            6 
 2272000   0.86682035   -5.0869986     1220.949  0.044782461  0.044893483            5 
 2273000   0.86355821    -5.076219    1216.9638  0.044616653  0.044883405            5 
 2274000   0.88128515   -5.0933149    1219.1147  0.044675852  0.044873527            4 
 2275000   0.88599438   -5.0764623    1217.2439  0.044587688  0.044863526            4 
 2276000   0.88221272   -5.0639715    1219.8246  0.044662589  0.044853586            5 
 2277000   0.91625498   -5.0782776    1218.0242  0.044577082  0.044843625            4 
 2278000   0.87668315    -5.116328    1217.5101  0.044538707   0.04483364            4 
 2279000   0.89838621   -5.1036865     1219.576  0.044594706   0.04482369            6 
 2280000   0.89436437   -5.0778916    1219.6892  0.044579283  0.044813873            5 
 2281000   0.88621881   -5.0769918    1221.4304  0.044623353  0.044803934            4 
 2282000   0.88026583   -5.0897271    1223.4463  0.044677415  0.044794174            9 
 2283000   0.88012711   -5.0839836    1225.0281  0.044715582  0.044784332            6 
 2284000   0.88719262   -5.0877893    1221.6443  0.044572545  0.044774385            3 
 2285000   0.87745638   -5.0566731    1223.5098  0.044621073  0.044764461            8 
 2286000   0.87716631   -5.0785091     1221.732  0.044536744  0.044754589            3 
 2287000   0.88703802   -5.0970052    1222.3027  0.044538065   0.04474489            3 
 2288000   0.88715592   -5.0911437    1221.7266  0.044497619  0.044735003           11 
 2289000   0.87825623   -5.0711699    1228.3771  0.044720295  0.044725194            2 
 2290000   0.87331826    -5.082923    1225.2786  0.044588014  0.044715497            5 
 2291000   0.88492907   -5.0739637    1227.2559  0.044640473  0.044705742            3 
 2292000   0.89481965   -5.0842877    1226.5466  0.044595209  0.044695831            3 
 2293000    0.8856515   -5.0585017    1227.8892  0.044624553  0.044685986            4 
 2294000   0.88975153   -5.0870538    1222.4613  0.044407923  0.044676105            8 
 2295000   0.89224803   -5.0502011    1229.8454  0.044656695  0.044666263            5 
 2296000   0.91021251   -5.0366079    1228.3379  0.044582531  0.044656553            4 
 2297000   0.89410781   -5.0851466    1223.3109  0.044380747  0.044646562            4 
 2298000   0.87281098   -5.0816563    1222.5763  0.044334796  0.044636607            6 
 2299000   0.88241858   -5.0759367    1226.4802  0.044457018  0.044626543            3 
 2300000    0.8887734   -5.0716331    1227.7421  0.044483409  0.044616397            3 
 2301000   0.89051598   -5.0737877     1227.138  0.044442199   0.04460646            4 
 2302000   0.87864637   -5.1049918    1226.2608  0.044391138  0.044596524            5 
 2303000   0.88791974   -5.0912561    1221.7057  0.044207037  0.044586509            5 
 2304000   0.90184392   -5.1019114    1225.1907    0.0443139  0.044576366            4 
 2305000   0.86266577   -5.0972139    1228.1716  0.044402443  0.044566195            5 
 2306000   0.88374994   -5.0739053    1231.0527  0.044487304  0.044556011            4 
 2307000   0.89229518   -5.1168202    1224.2566  0.044222534  0.044545973            5 
 2308000   0.88456986   -5.0751554     1229.069   0.04437713  0.044535874            3 
 2309000    0.8724963   -5.0882708     1227.648  0.044306626   0.04452581            4 
 2310000   0.89311224   -5.1005618    1226.3787  0.044241657  0.044515678            4 
 2311000   0.88085746   -5.0702719    1227.6007  0.044266578   0.04450548            3 
 2312000   0.87861916    -5.105207    1229.4981  0.044315819  0.044495415            6 
 2313000   0.90152827     -5.08553    1230.4173  0.044329778  0.044485286            3 
 2314000   0.86187644   -5.1071385    1225.6707  0.044139683  0.044475323            4 
 2315000   0.88096123   -5.0952979    1224.2275  0.044068666  0.044465258            6 
 2316000   0.88919171   -5.0990002    1227.9106  0.044182162  0.044455207            3 
 2317000   0.86444725   -5.0886903    1231.2542  0.044283346  0.044445151           13 
 2318000   0.87174878   -5.0857086    1231.2017  0.044262358  0.044435157            3 
 2319000   0.87435279   -5.1171108    1228.2507  0.044137224  0.044425151            5 
 2320000   0.87966919   -5.0870442    1231.8036   0.04424582  0.044415076            5 
 2321000   0.88085944   -5.1090614    1228.7435  0.044116887  0.044404866            2 
 2322000    0.8613854   -5.0738399    1233.1543  0.044256184  0.044394904            8 
 2323000   0.89694145   -5.0748231    1234.1592  0.044273182  0.044384951            6 
 2324000   0.87043586   -5.1045679    1230.7925  0.044133408  0.044375026            4 
 2325000   0.87914275   -5.0939768    1229.8856  0.044081921  0.044364953           10 
 2326000   0.87376023   -5.0884641    1233.3473  0.044186991  0.044355055            3 
 2327000   0.88784707   -5.0829411    1235.4295  0.044242569  0.044344999            2 
 2328000   0.88173824   -5.0863138    1233.1074  0.044140443  0.044335094            2 
 2329000   0.88032628   -5.1064694    1233.7864  0.044145786  0.044325164            3 
 2330000   0.88820357   -5.1218905    1229.5792  0.043976366  0.044315121            4 
 2331000   0.88456862   -5.1159004    1231.5698  0.044028663  0.044305039            3 
 2332000   0.86189115   -5.0998606    1235.7995  0.044160932  0.044295046            4 
 2333000   0.86868747   -5.0824261    1236.0965  0.044152611  0.044285041            4 
 2334000   0.88491515   -5.0974443    1235.2136  0.044102172  0.044275055            5 
 2335000   0.88353539   -5.0854479    1240.2672   0.04426364  0.044265023            7 
 2336000   0.87050561    -5.086178    1233.7082   0.04401071     0.044255            4 
 2337000   0.88076543   -5.0793249    1233.3246    0.0439782  0.044244919            4 
 2338000   0.87814501   -5.1106756    1232.1607  0.043917902  0.044234797            4 
 2339000   0.87969395   -5.1093622    1231.8924  0.043889569  0.044224745            4 
 2340000   0.84548216    -5.079421    1236.5884  0.044038049  0.044214704            5 
 2341000   0.88567157   -5.1071631    1235.0806  0.043965561  0.044204673            3 
 2342000    0.8962133   -5.0713182     1235.594  0.043965058   0.04419465            1 
 2343000   0.87977314   -5.1104949    1238.3002  0.044042545  0.044184787            5 
 2344000    0.8851835   -5.1209074    1240.2501  0.044093076  0.044174915            5 
 2345000   0.85546637   -5.1090904    1239.9934  0.044065151  0.044165063            4 
 2346000   0.87724623   -5.0934243    1233.8066  0.043826604  0.044155133            2 
 2347000   0.87858064   -5.0662001    1240.5015  0.044045644  0.044145308            6 
 2348000   0.87716131    -5.099769    1243.8568  0.044145968  0.044135596            5 
 2349000   0.89331434   -5.0867883    1242.7726  0.044088711  0.044125751            5 
 2350000   0.88354781    -5.090958    1239.8219  0.043965315  0.044115954            3 
 2351000   0.88535442   -5.0844872    1240.4096  0.043967445  0.044106154            5 
 2352000   0.89120778    -5.099607    1239.0303  0.043899884  0.044096565            4 
 2353000    0.8736848   -5.0678789    1244.4638  0.044073657  0.044086961            3 
 2354000   0.88099396   -5.1074026    1242.6318   0.04399008  0.044077397            8 
 2355000   0.87602337   -5.0956356    1242.1978  0.043956046  0.044067701            9 
 2356000   0.86316748   -5.1145592     1240.477  0.043876523  0.044057801            3 
 2357000   0.88041465   -5.0769591    1242.9314  0.043944682  0.044048099            6 
 2358000    0.8592034   -5.0988598    1243.3491  0.043940808  0.044038413            6 
 2359000   0.85805949   -5.0957494    1245.1886  0.043987163   0.04402864           11 
 2360000   0.88879331   -5.0853424     1242.328  0.043867514  0.044018753            4 
 2361000   0.87824551   -5.0671028    1244.3178  0.043919165   0.04400908            6 
 2362000   0.87987854   -5.0829223     1243.113  0.043858066  0.043999324            4 
 2363000   0.88480507   -5.0966917    1247.3612  0.043989322  0.043989629            4 
 2364000    0.8690033   -5.1048101    1242.3519  0.043794131    0.0439798            6 
 2365000   0.87954163   -5.1268801    1244.1403  0.043838628  0.043970103            3 
 2366000   0.87843208   -5.0729535    1246.4467  0.043901334  0.043960383            3 
 2367000   0.87489891   -5.0581518    1247.1305  0.043906861  0.043950577            9 
 2368000   0.88383548   -5.0862082    1243.7379  0.043768931  0.043940882            3 
 2369000   0.86357014   -5.0862464    1242.0814  0.043692183  0.043931073            5 
 2370000   0.86687472   -5.0961092    1244.7921  0.043769061  0.043921238            2 
 2371000   0.86727979   -5.0991913    1243.3224  0.043698946  0.043911374            5 
 2372000   0.87900524   -5.1206371    1244.2394  0.043712738  0.043901495           10 
 2373000   0.90217519   -5.1116862    1243.3149  0.043661852  0.043891635            9 
 2374000   0.88777073   -5.0918083    1248.1982  0.043814876  0.043881808            4 
 2375000   0.85991891   -5.1202095    1245.9134  0.043716258  0.043871814            4 
 2376000   0.87892003   -5.1109834    1242.7172  0.043585759  0.043861811            8 
 2377000   0.87756757   -5.0964553    1245.1588  0.043653021  0.043851891            6 
 2378000   0.87294159   -5.1292915    1245.0625  0.043631291   0.04384185            3 
 2379000    0.8570246   -5.0901622    1247.9655   0.04371464  0.043831874            4 
 2380000   0.88270299   -5.0743839    1251.4002  0.043816535  0.043821929            5 
 2381000   0.87769035   -5.0819301    1246.2269  0.043617071  0.043812034            3 
 2382000   0.85946682   -5.0793673    1249.5254  0.043714154  0.043802069            2 
 2383000   0.85155711   -5.0972651    1247.5806  0.043627802  0.043791996            4 
 2384000   0.88149805   -5.0641521    1247.2954  0.043599532  0.043782134            2 
 2385000   0.87131876   -5.0857052    1249.1111  0.043644691  0.043772287            6 
 2386000   0.87472128   -5.0861042    1248.2404  0.043595989  0.043762406            6 
 2387000   0.88635339   -5.1012436    1247.0906  0.043537586   0.04375245            2 
 2388000   0.87289043    -5.074621    1253.9371  0.043758275  0.043742476            5 
 2389000   0.87025951   -5.1171748    1247.7423  0.043523871  0.043732649            6 
 2390000   0.88435382   -5.1182809    1245.2858  0.043420008  0.043722651            2 
 2391000   0.87744645   -5.1086147    1249.6789   0.04355496  0.043712669            3 
 2392000   0.88844724   -5.1051477    1251.0213  0.043583518  0.043702639            4 
 2393000   0.88991636    -5.114736    1246.5008  0.043407885  0.043692605            5 
 2394000     0.877772   -5.1407783    1246.3958  0.043386097  0.043682669            5 
 2395000   0.87668414   -5.1216649    1250.2549  0.043502259  0.043672661            6 
 2396000   0.87031763   -5.1271112    1251.2939   0.04352024  0.043662604            3 
 2397000   0.86224285   -5.0819839    1254.8668  0.043626296  0.043652608            4 
 2398000    0.8665292   -5.1067523    1253.2448  0.043551737  0.043642683           11 
 2399000    0.8512713   -5.1259266     1249.454  0.043401904  0.043632769            7 
 2400000   0.87289197    -5.106558    1250.0821  0.043405627  0.043622781            5 
 2401000   0.89119258   -5.1255896    1250.3989  0.043398547  0.043612765            2 
 2402000   0.86851833   -5.1129155     1252.282  0.043445809  0.043602828            5 
 2403000   0.86833455    -5.106024    1250.0963   0.04335193  0.043592924            5 
 2404000   0.85323266   -5.1200401    1255.1647  0.043509592   0.04358307            4 
 2405000   0.84533872   -5.0940844    1252.3275   0.04339319  0.043573319           10 
 2406000   0.87175944   -5.1322117    1252.9972  0.043398353  0.043563411            4 
 2407000   0.86160712   -5.1430053    1253.9313   0.04341266  0.043553506            6 
 2408000   0.87480795   -5.1293884    1256.8701  0.043496336  0.043543776            9 
 2409000   0.86553343   -5.0798576    1257.2577  0.043491689  0.043534097            4 
 2410000   0.85557906   -5.1386207    1254.6293  0.043382756  0.043524326            4 
 2411000   0.87912675   -5.1135665    1255.7899  0.043404877  0.043514472            2 
 2412000   0.85784818   -5.1412737    1252.8235  0.043284393  0.043504658            4 
 2413000   0.87679146   -5.1117289    1259.0091  0.043480076  0.043494888            3 
 2414000   0.86157655   -5.1305422    1255.9495  0.043356444  0.043485156            5 
 2415000   0.86229015   -5.1034597    1258.4672  0.043425369  0.043475375            4 
 2416000   0.87074774   -5.1218994    1257.8861  0.043387351  0.043465747            9 
 2417000   0.85644894   -5.1391277    1257.7894  0.043366067  0.043456095            2 
 2418000   0.86926702   -5.1117867    1258.8284  0.043383942  0.043446536            5 
 2419000   0.86312736   -5.1299273    1254.6906  0.043223461  0.043436897            4 
 2420000   0.85993573   -5.1358219    1260.9715  0.043421882  0.043427278            6 
 2421000   0.86610932   -5.1208963    1257.2449  0.043275674   0.04341783            8 
 2422000   0.85537801   -5.1220901    1258.3039  0.043294243   0.04340827            7 
 2423000     0.864351   -5.1110374    1260.6048   0.04335551  0.043398553            4 
 2424000   0.88217164   -5.1156406    1259.0609  0.043284545   0.04338882            8 
 2425000   0.86521819   -5.1152325    1260.9203  0.043330593  0.043379205            8 
 2426000   0.88261938   -5.1260293    1262.4474  0.043365189  0.043369718            3 
 2427000   0.86177199   -5.1293157    1261.3649  0.043310154  0.043360102            6 
 2428000   0.88098374    -5.130605    1261.7625  0.043305961  0.043350382            6 
 2429000   0.85602065   -5.1087121    1264.8654  0.043394585  0.043340791            4 
 2430000   0.83996414   -5.1377917    1261.6045    0.0432649     0.043331            4 
 2431000   0.84654679   -5.1359467    1259.5678  0.043177285  0.043321141            8 
 2432000   0.84663357   -5.1172135     1261.599  0.043229132  0.043311401            8 
 2433000   0.86763827   -5.1226391    1261.8393  0.043219595  0.043301628            3 
 2434000   0.86997518   -5.1061691    1263.1442  0.043246513  0.043291864           10 
 2435000   0.85852818   -5.1314625    1265.3618  0.043304646  0.043282146            4 
 2436000   0.87597188   -5.1417683    1259.1632  0.043074821  0.043272353            8 
 2437000   0.84978256   -5.1286895    1261.8119  0.043147721  0.043262579            4 
 2438000   0.86155154   -5.1420423    1264.4301  0.043219512  0.043252857            8 
 2439000   0.85682716   -5.1283968    1263.4699  0.043168987  0.043243224            6 
 2440000   0.87227437   -5.1520764    1263.1645  0.043140865  0.043233555            5 
 2441000    0.8521627   -5.1118909    1264.5119  0.043169189  0.043223925            9 
 2442000   0.84612239   -5.1276519    1263.1407   0.04310472  0.043214293            4 
 2443000   0.85614243   -5.1024943     1267.888   0.04324901  0.043204711            4 
 2444000   0.86614433   -5.1071679    1266.2618  0.043175866  0.043195244            3 
 2445000   0.86512916   -5.1446991    1267.3788  0.043196277  0.043185652            4 
 2446000   0.82528709   -5.1592088     1264.347  0.043075326  0.043176141            3 
 2447000   0.86930371   -5.1324844    1267.1996  0.043154869  0.043166621           10 
 2448000   0.83740345   -5.1341229     1273.095  0.043337928  0.043157191            6 
 2449000   0.85111214   -5.1143691    1268.8856  0.043176999   0.04314781            4 
 2450000   0.84263823   -5.1741655    1268.0427  0.043130705   0.04313839            9 
 2451000   0.85899152   -5.1376474    1268.3573  0.043123802  0.043128995            3 
 2452000   0.87610553   -5.1345462    1270.6576  0.043184394  0.043119628            7 
 2453000   0.86764542   -5.1432072    1269.1045  0.043114028   0.04311015            8 
 2454000      0.87053   -5.1279531    1269.0916  0.043096018  0.043100761            7 
 2455000   0.85960718   -5.1490036     1268.417  0.043055567  0.043091373            5 
 2456000   0.85881455   -5.1307862    1271.1769  0.043131683  0.043081918            5 
 2457000   0.86073494   -5.1306069    1271.9195  0.043139314  0.043072622            9 
 2458000    0.8532786   -5.1236106    1272.7611  0.043150294  0.043063285           17 
 2459000   0.86307081   -5.1314151    1268.7152  0.042995634  0.043053943            5 
 2460000   0.86337977   -5.1379914    1273.2321  0.043131167  0.043044577            7 
 2461000   0.84875322   -5.1279985    1273.1166  0.043109732  0.043035249            2 
 2462000   0.83630299   -5.1464635    1270.0892  0.042989751   0.04302577            6 
 2463000   0.85940267   -5.1673181    1270.9317  0.043000803   0.04301639            2 
 2464000   0.85543062    -5.117737    1272.5051  0.043036563  0.043006917            5 
 2465000   0.86783773   -5.1655523    1271.8714  0.042997681  0.042997517            4 
 2466000   0.86738735   -5.1332698    1275.7913  0.043112708  0.042988225            6 
 2467000   0.85784267   -5.1557011    1270.8893  0.042929649   0.04297886            3 
 2468000   0.85123096   -5.1342186    1274.5074  0.043034421  0.042969497            6 
 2469000   0.86597375   -5.1149244    1276.8187  0.043095003  0.042960223            4 
 2470000   0.86450362    -5.111754    1279.0686  0.043153463  0.042950944            8 
 2471000   0.86680201   -5.1246112    1272.7465  0.042922786  0.042941729            3 
 2472000   0.84685714   -5.1374232    1272.9466   0.04291217   0.04293245            5 
 2473000   0.85532873   -5.1216268    1278.7277  0.043089623  0.042923194            3 
 2474000   0.86613416   -5.1358165    1277.3196  0.043024778  0.042914087            8 
 2475000   0.85997219   -5.1111026    1279.3066  0.043074296  0.042904978            7 
 2476000   0.83323689   -5.1787223    1276.4187  0.042959704  0.042895649            7 
 2477000    0.8516551   -5.1574037    1278.4036  0.043009136  0.042886419            3 
 2478000   0.84764049    -5.130319    1277.5499  0.042963071  0.042877271            6 
 2479000    0.8570886   -5.1148466    1279.5762  0.043013857  0.042868203            2 
 2480000   0.84679124   -5.1018604    1283.7441  0.043136562  0.042859112            4 
 2481000   0.86604266   -5.1309148    1282.4451  0.043075545  0.042849992            3 
 2482000   0.84945288   -5.1075061     1281.457  0.043025012  0.042840903            3 
 2483000   0.85030359   -5.1285168    1282.8942  0.043055921  0.042831749            6 
 2484000   0.86696112   -5.1203977     1282.109  0.043012244   0.04282268            4 
 2485000   0.84834421   -5.1414306    1280.2705  0.042933284  0.042813602           14 
 2486000   0.85304536   -5.1469706    1281.3468  0.042952093  0.042804479            6 
 2487000   0.84131943   -5.1759135    1275.8414  0.042750348  0.042795445            6 
 2488000   0.85474416   -5.1631394    1279.8738  0.042868228  0.042786284            5 
 2489000   0.83100652   -5.1335228    1279.3528  0.042833561  0.042777018            4 
 2490000   0.84513971   -5.1154016    1282.0073  0.042905198    0.0427679            4 
 2491000   0.84784525   -5.1455438    1284.5296  0.042972355  0.042758764            4 
 2492000   0.86114062   -5.1271797    1284.9771  0.042970076  0.042749726            3 
 2493000   0.85158806   -5.1534017    1276.5603  0.042671491  0.042740487            6 
 2494000   0.84748731   -5.1389646    1286.7011  0.042993219  0.042731359            3 
 2495000   0.85006975   -5.1568597    1285.6094  0.042939524  0.042722213            2 
 2496000   0.84587563   -5.1108845    1286.6324  0.042956479  0.042713008            7 
 2497000   0.84303335   -5.1403821    1284.0006  0.042851441  0.042703968            4 
 2498000   0.84466056   -5.1239525    1287.5958  0.042954223  0.042694884            4 
 2499000   0.84697748   -5.1583725    1285.0455   0.04285199  0.042685868            9 
 2500000   0.86649053    -5.142813    1282.6301  0.042754338  0.042676715            7 
 2501000   0.85528203   -5.1511922    1286.5225  0.042866936  0.042667469            6 
 2502000   0.86671026   -5.1325994    1283.2093  0.042739452  0.042658316            6 
 2503000   0.85424062   -5.1120753    1286.8587  0.042843879  0.042649149            5 
 2504000   0.87480565   -5.1605209    1285.7842  0.042791006  0.042640045            6 
 2505000   0.86687772   -5.1148143    1287.7817  0.042840376  0.042630824            4 
 2506000   0.87331312   -5.1731548    1282.9782  0.042663547  0.042621589            4 
 2507000   0.83684441    -5.132567     1284.462   0.04269585  0.042612426            3 
 2508000    0.8569073   -5.1296801    1286.1941  0.042736381  0.042603296            4 
 2509000    0.8381683   -5.1716354    1288.0795   0.04278197  0.042594116            6 
 2510000   0.84140003   -5.1502469    1284.8118  0.042656433  0.042584815            4 
 2511000   0.84341976    -5.168332    1285.4484  0.042660574  0.042575602            5 
 2512000   0.86932966   -5.1267848    1290.8529   0.04282288   0.04256646            3 
 2513000   0.86080338   -5.1818989    1284.2917  0.042588263  0.042557338            3 
 2514000   0.84374961   -5.1016384    1288.8209  0.042721455  0.042548221            4 
 2515000   0.86762868   -5.1517932    1287.4064    0.0426576  0.042539057           19 
 2516000   0.85354843   -5.1656105    1286.5833  0.042613385  0.042529887            5 
 2517000   0.83615217   -5.1551588    1287.2237  0.042617655  0.042520791            4 
 2518000   0.87159303    -5.130692    1291.9771  0.042758045  0.042511624            7 
 2519000   0.84413206   -5.1476118     1286.417  0.042557133  0.042502491            4 
 2520000    0.8538192   -5.1767017    1289.3151  0.042636081  0.042493339            6 
 2521000   0.84750656   -5.1322134    1290.3635  0.042653826  0.042484129            7 
 2522000    0.8562729   -5.1947653    1282.8982   0.04239024  0.042475014            5 
 2523000   0.83287172     -5.19631     1286.075  0.042478366  0.042465635            7 
 2524000   0.85899408   -5.1548921    1287.9088  0.042522081  0.042456312            6 
 2525000   0.86036401   -5.1568408    1285.5744  0.042428198  0.042447077            4 
 2526000   0.85073818   -5.1477512    1289.5123  0.042541313   0.04243787            5 
 2527000   0.84098904   -5.1954038    1288.8144  0.042501464  0.042428653            6 
 2528000   0.85261285   -5.1969771    1285.2115  0.042365884  0.042419418            5 
 2529000   0.84209498   -5.1622666    1290.8083  0.042533556  0.042410177            6 
 2530000   0.85281473   -5.1704755    1287.5519  0.042409482  0.042400919            3 
 2531000    0.8511672   -5.1531573    1288.3633  0.042419443  0.042391694            7 
 2532000    0.8390272   -5.1660633    1290.5368  0.042474225  0.042382495            8 
 2533000   0.84375823   -5.1888724    1291.5842  0.042491913  0.042373314            7 
 2534000    0.8533755    -5.164642     1291.834   0.04248336  0.042364106            5 
 2535000   0.85686655   -5.1396072    1290.5606   0.04242474  0.042354912            6 
 2536000   0.84206396   -5.1501258    1295.0262  0.042554751  0.042345736            3 
 2537000    0.8504404   -5.1603028    1297.3342   0.04261379  0.042336688            6 
 2538000   0.84113081   -5.1619714    1292.6466  0.042443087  0.042327634            5 
 2539000   0.84705883   -5.1872979     1294.342  0.042482013  0.042318592            7 
 2540000   0.82468614   -5.1425581    1294.8908  0.042483295  0.042309567            6 
 2541000   0.84521728    -5.150347    1296.9383  0.042533723  0.042300549            7 
 2542000   0.83611592   -5.1659969    1292.1554  0.042360195  0.042291356            3 
 2543000   0.84004809   -5.1749949    1292.9244  0.042368737  0.042282158            4 
 2544000   0.85129954   -5.1549214    1294.1014  0.042390637  0.042272958            6 
 2545000    0.8519527   -5.1438145     1296.818  0.042462932  0.042263795            3 
 2546000   0.85097752   -5.1204604     1298.138   0.04248946  0.042254708            6 
 2547000   0.83199898   -5.1969391    1294.9858  0.042369643  0.042245615           12 
 2548000   0.83919082   -5.1946943    1292.1569  0.042260497  0.042236365            7 
 2549000   0.82679938   -5.1359464    1293.6736    0.0422935  0.042227102            5 
 2550000   0.84810689     -5.16024    1296.0549  0.042354734  0.042217922            4 
 2551000   0.83152088   -5.1847721    1297.9953  0.042401519  0.042208724            2 
 2552000    0.8431458   -5.1704621    1296.9993   0.04235238  0.042199515            8 
 2553000   0.83091096   -5.1646235    1297.8886   0.04236482  0.042190217            8 
 2554000   0.86537002   -5.1667944    1295.7752  0.042279273   0.04218092            5 
 2555000    0.8289848   -5.1605761    1295.7398  0.042261572    0.0421718            7 
 2556000   0.83502675   -5.1496956    1292.3231  0.042133642  0.042162658            5 
 2557000   0.85696842    -5.184076    1295.5313  0.042221723  0.042153385           14 
 2558000   0.84163732   -5.1918696    1299.4706   0.04233355  0.042144278            6 
 2559000   0.84039793   -5.1467048    1298.7445   0.04229336  0.042135125            6 
 2560000   0.85001614   -5.1753294     1298.262  0.042261134  0.042126115            7 
 2561000   0.83020849   -5.2058198    1294.5746  0.042124646  0.042116873            4 
 2562000    0.8598528   -5.1911289    1296.5738  0.042173232  0.042107694            4 
 2563000   0.85693325   -5.1753127    1296.1623  0.042143395  0.042098565            9 
 2564000   0.84076349   -5.2045477    1295.9947  0.042121514  0.042089427            7 
 2565000   0.85513046   -5.1786363     1297.135  0.042142138  0.042080147            7 
 2566000   0.84735893   -5.1540537    1300.3329  0.042229568   0.04207101            7 
 2567000   0.83719294   -5.1709259    1297.4132  0.042118337  0.042061881            7 
 2568000   0.83651398   -5.1658124    1295.9521   0.04205452  0.042052638            8 
 2569000   0.83444106   -5.1406542    1302.9951  0.042266611  0.042043459            4 
 2570000   0.80978482   -5.1752579    1301.1196   0.04218935   0.04203428            8 
 2571000   0.85027338   -5.1757908    1298.1892  0.042077959  0.042025147            5 
 2572000   0.83315769   -5.1951475    1297.8017  0.042049044  0.042015948            5 
 2573000   0.84753973   -5.1442203    1303.4589  0.042215924  0.042006728            6 
 2574000   0.84396553   -5.1735637    1299.0661  0.042057307  0.041997668            3 
 2575000   0.83414188   -5.1653947    1302.6981  0.042158514  0.041988495            3 
 2576000   0.82909131   -5.1793643    1304.7938  0.042209944  0.041979366            6 
 2577000   0.85252785   -5.1561474     1300.599  0.042057915  0.041970249            6 
 2578000   0.83809157   -5.1865887    1303.1839  0.042125159  0.041960924            3 
 2579000   0.83460579   -5.1780438    1301.9916  0.042070297  0.041951729            3 
 2580000   0.84097624   -5.1666251    1303.1329  0.042090857  0.041942479            8 
 2581000   0.82757933   -5.1854487     1302.733  0.042061635  0.041933202            6 
 2582000   0.83306038   -5.1581333    1302.3578  0.042033235   0.04192396            5 
 2583000   0.85179266   -5.2004238    1300.9382  0.041971163  0.041914723            5 
 2584000   0.84112595   -5.1785367    1302.9203  0.042018845  0.041905455            3 
 2585000    0.8508246   -5.1593113    1305.0205  0.042070294  0.041896166            5 
 2586000   0.83422213   -5.1614413     1303.837  0.042015886  0.041886882            4 
 2587000   0.82726263   -5.1934652    1300.8805  0.041904411  0.041877598            4 
 2588000   0.83614979   -5.1937039    1301.7424  0.041915971  0.041868369            5 
 2589000   0.83789518    -5.154306    1302.4999  0.041924163  0.041859062            7 
 2590000   0.85383953   -5.1582476    1305.5739  0.042006883  0.041849738            2 
 2591000   0.82117251   -5.1915604     1305.291  0.041981572  0.041840387            5 
 2592000   0.83938071   -5.2047024    1300.2874  0.041804507  0.041830909            4 
 2593000    0.8542489   -5.1933112    1301.9729  0.041842553  0.041821526            4 
 2594000   0.82714726   -5.1847864    1305.2616  0.041932073   0.04181213            9 
 2595000   0.82753952   -5.2155844    1300.4832  0.041762467  0.041802777           10 
 2596000   0.82148637   -5.1940857    1305.5203  0.041908073  0.041793454            3 
 2597000   0.82258607   -5.1601576    1305.2071  0.041881888  0.041784227            4 
 2598000   0.83765235   -5.2000221    1301.0292  0.041731754  0.041774994            8 
 2599000   0.84865562   -5.1790217    1303.1778   0.04178459   0.04176569            8 
 2600000   0.85346906   -5.2032808    1300.9899  0.041698394  0.041756402            3 
 2601000   0.82298823   -5.1895684    1306.9105  0.041872053  0.041747216            4 
 2602000   0.83504767   -5.1660375    1308.0897  0.041893727  0.041737982            8 
 2603000    0.8277337   -5.1902015    1302.2907   0.04169198  0.041728759            4 
 2604000   0.82445585   -5.1621357    1309.8668  0.041918421  0.041719561            4 
 2605000   0.83391076   -5.2103108    1309.0063  0.041874801  0.041710332            9 
 2606000   0.84482468   -5.1775785    1305.1448  0.041735253  0.041701139            9 
 2607000   0.84230204   -5.1923101     1307.177  0.041784203  0.041692088            7 
 2608000   0.82533095   -5.1918875    1310.9348  0.041888253  0.041682856            7 
 2609000   0.83356099   -5.1293404    1312.3109  0.041916153  0.041673638            3 
 2610000   0.82840674    -5.184033    1307.1271  0.041734583  0.041664347            7 
 2611000   0.81827141   -5.1867943    1305.3943  0.041663292  0.041655178            4 
 2612000   0.83891038   -5.1727221    1313.9163  0.041919229  0.041646065            8 
 2613000   0.83872406   -5.1901113    1306.7755  0.041675452  0.041637067            6 
 2614000   0.80839217     -5.18989    1309.7178  0.041753309  0.041627951            9 
 2615000   0.83983966   -5.1824187    1315.2182  0.041912625  0.041618889            4 
 2616000   0.83311363   -5.2123379    1307.7929  0.041660068  0.041609692           10 
 2617000   0.82697946   -5.1845506    1309.6122  0.041702082  0.041600475            4 
 2618000   0.82684031   -5.1920138    1314.1744  0.041831372  0.041591439            4 
 2619000   0.81507197    -5.164125    1312.5068  0.041762339  0.041582373            7 
 2620000     0.841657   -5.1771894    1311.3058    0.0417082  0.041573318            6 
 2621000   0.83005514   -5.1760228    1309.1281  0.041623047  0.041564162            3 
 2622000   0.83217103   -5.1748633    1311.2143  0.041673478  0.041555035            3 
 2623000   0.84831067   -5.1664146    1309.6233  0.041607043  0.041545916            5 
 2624000   0.84917713   -5.1845018    1311.9432  0.041664863  0.041536734            5 
 2625000   0.81810046   -5.1987165    1312.8145  0.041676652  0.041527555           11 
 2626000    0.8389594   -5.1835301    1311.6214  0.041622918  0.041518353            8 
 2627000   0.82149219   -5.1742026    1309.7796  0.041548648   0.04150917            5 
 2628000   0.85102502    -5.186147     1313.729  0.041658072  0.041499903            8 
 2629000   0.81337866   -5.1947176     1314.252  0.041658807  0.041490635            5 
 2630000   0.81636732   -5.1956714    1310.4448  0.041522333  0.041481356            5 
 2631000   0.83287104   -5.1477652    1320.1577  0.041814193  0.041472151            8 
 2632000   0.81539011   -5.1738912    1310.3104  0.041486525  0.041463041            3 
 2633000   0.83503765   -5.1917683    1313.9097  0.041584684  0.041453761            6 
 2634000   0.83599168   -5.1926084    1317.5835  0.041685129  0.041444506            4 
 2635000    0.8126238   -5.1616762    1314.2984  0.041565415  0.041435235            4 
 2636000   0.82359468   -5.1720421     1315.387  0.041584062  0.041425989            6 
 2637000   0.84848783   -5.1793831    1313.7827  0.041517594  0.041416795            6 
 2638000   0.82210434   -5.2361418    1312.2217  0.041452544  0.041407454           19 
 2639000   0.81845307   -5.2221076    1307.7035  0.041294161  0.041398115            6 
 2640000   0.82736706    -5.184703    1311.2555   0.04139064  0.041388629            4 
 2641000   0.81426164   -5.1895551    1312.4588  0.041412935  0.041379204            4 
 2642000   0.84858801   -5.2003298    1314.3744  0.041457683  0.041369856           13 
 2643000   0.82101405   -5.2094726    1314.9035  0.041458679   0.04136046            5 
 2644000   0.83390549   -5.2211006    1311.6316  0.041339878  0.041351138            3 
 2645000   0.81766162   -5.1818552    1312.5841  0.041354256  0.041341833            6 
 2646000   0.83461727   -5.1768617    1315.5275  0.041431326  0.041332659            8 
 2647000   0.84630678   -5.2037592    1312.1025  0.041307848  0.041323396            6 
 2648000   0.84956447   -5.1853042    1317.4477  0.041460465  0.041314212           12 
 2649000   0.80839157   -5.2027755    1314.3724  0.041348069   0.04130482            4 
 2650000   0.83010896   -5.1671627    1319.1136  0.041481561  0.041295583            8 
 2651000   0.82880207   -5.1881176    1318.5967  0.041449663  0.041286516            6 
 2652000   0.82516385   -5.1712542    1313.4452  0.041272158  0.041277326            4 
 2653000    0.8322383   -5.2238423    1319.7065  0.041453275  0.041268139            5 
 2654000   0.82627727   -5.1969847    1316.1362  0.041325553  0.041258822            9 
 2655000   0.82162262   -5.1822242    1316.9961  0.041336978  0.041249621            4 
 2656000   0.82454401   -5.2146597    1319.4815  0.041399395  0.041240279            3 
 2657000   0.83302847   -5.2126366    1319.1686     0.041374  0.041231108           11 
 2658000   0.83573106    -5.207221     1313.159  0.041170021  0.041221782            5 
 2659000   0.83196329   -5.1829813    1321.0449  0.041401684  0.041212618            8 
 2660000   0.81951047   -5.1685548    1316.1471  0.041232679  0.041203439            5 
 2661000   0.82554845   -5.2165264    1315.3534  0.041192329  0.041194216            5 
 2662000    0.8217889   -5.1981984    1320.8061  0.041347549  0.041185019            7 
 2663000   0.84960033    -5.195648    1318.3578  0.041255408  0.041175848            4 
 2664000   0.82780501    -5.176999    1321.1741  0.041328018  0.041166828           10 
 2665000   0.82776121   -5.1801392     1321.008  0.041307316  0.041157737            4 
 2666000   0.83552329   -5.2005374     1322.899   0.04135093  0.041148619            5 
 2667000   0.82844802   -5.2138983    1323.4735  0.041353378  0.041139502            3 
 2668000   0.81479266   -5.1853058    1322.3144  0.041301675  0.041130489           14 
 2669000   0.81862873   -5.1907234    1317.2526  0.041128157  0.041121389            5 
 2670000   0.82404116   -5.2233108    1320.3955  0.041210845   0.04111218            3 
 2671000   0.81841965   -5.1954401    1321.8792  0.041241707  0.041103128            7 
 2672000   0.82862552   -5.1727037     1323.055  0.041262941  0.041093907            4 
 2673000   0.82655903    -5.194688    1322.8035  0.041239665  0.041084834            4 
 2674000   0.79424131   -5.2025693    1322.1636    0.0412043  0.041075763            6 
 2675000    0.8478801   -5.2151073    1321.3248  0.041162768  0.041066647            9 
 2676000   0.82336441   -5.1847591    1325.6847  0.041283155  0.041057507            6 
 2677000   0.83404298   -5.2157572    1325.1262  0.041250347  0.041048362            6 
 2678000   0.82678554   -5.1933231     1325.176  0.041236495  0.041039187            7 
 2679000   0.83502256   -5.1871834    1320.2087  0.041066589  0.041029947            7 
 2680000   0.80789768   -5.2386613    1320.2985  0.041054058   0.04102071            5 
 2681000   0.83058824   -5.1853577    1326.2428  0.041223512  0.041011612            5 
 2682000   0.83265887   -5.2108638    1327.2326  0.041238895  0.041002525            5 
 2683000   0.81575863   -5.1953121    1325.4674  0.041168698  0.040993394            5 
 2684000   0.83979704   -5.1922419    1324.4932  0.041123112  0.040984236            4 
 2685000   0.82418133   -5.1911072    1326.4991  0.041170054  0.040975111            6 
 2686000   0.81112332   -5.2075636    1322.5642  0.041032643  0.040966076           11 
 2687000   0.80282386   -5.2233896    1325.9387   0.04112203  0.040956977            8 
 2688000   0.81567337   -5.1705845    1330.0103  0.041232958  0.040947874            4 
 2689000   0.81278331   -5.2134014    1327.9188  0.041152808  0.040938819            8 
 2690000   0.80796898    -5.241706    1325.7179  0.041069327  0.040929684            8 
 2691000   0.84084123   -5.2203099     1328.847  0.041150967  0.040920557            4 
 2692000   0.84008049   -5.2029072    1325.5214  0.041032732  0.040911419            5 
 2693000   0.81809794   -5.2009516    1330.3261  0.041166175  0.040902297            5 
 2694000   0.80458354   -5.1753093    1330.3082  0.041150341  0.040893233            9 
 2695000   0.81672187   -5.1750767    1327.1206  0.041036506  0.040884266            5 
 2696000   0.81715037   -5.2195503    1328.5395  0.041065144  0.040875222            3 
 2697000   0.81546983   -5.1900134    1327.7861  0.041026638  0.040866132            5 
 2698000   0.83447009   -5.2402217    1322.3368  0.040843119  0.040856972           10 
 2699000   0.80126358   -5.1912293    1329.3395  0.041044199  0.040847719            8 
 2700000    0.8303361   -5.2017427    1330.4152  0.041062199  0.040838509            7 
 2701000   0.80780252   -5.1999062    1323.4997  0.040833633  0.040829265            8 
 2702000   0.81819093    -5.230225    1328.2709   0.04096567  0.040820055            7 
 2703000   0.81293945    -5.206406    1330.2542  0.041011659  0.040810885            5 
 2704000   0.82746144   -5.2218313      1329.33   0.04096801  0.040801822            5 
 2705000   0.81397116   -5.2058493    1329.8612  0.040969229  0.040792637            5 
 2706000   0.82076077   -5.2219208    1331.1679   0.04099433  0.040783439            2 
 2707000   0.82693971   -5.2218056    1325.9923  0.040819858  0.040774298            6 
 2708000   0.84311283   -5.2149107    1328.6872  0.040887716  0.040765076            4 
 2709000   0.82736645   -5.1867743    1333.1908   0.04101116  0.040756056           10 
 2710000    0.8321355   -5.2102733    1331.0262  0.040929466  0.040747064            3 
 2711000   0.80791687   -5.2277653    1329.3384  0.040862486  0.040738005            5 
 2712000   0.82542338    -5.190161    1331.8472  0.040924509  0.040728911            4 
 2713000   0.81039678   -5.2304317    1327.5649  0.040777887   0.04071984            7 
 2714000   0.81834644   -5.2176826    1335.1035  0.040994333  0.040710746            7 
 2715000   0.81809641   -5.2455728    1327.4446  0.040744154  0.040701682            6 
 2716000   0.82001576   -5.2378844    1327.6388  0.040735112  0.040692409            5 
 2717000   0.80586932   -5.2209351    1329.7355  0.040784428  0.040683288            9 
 2718000    0.8134047   -5.2125034    1328.0681  0.040718301  0.040674143           11 
 2719000   0.83493048   -5.2166255    1330.9367  0.040791244  0.040664971            6 
 2720000   0.81841297   -5.2183641    1326.1158  0.040628547  0.040655753            6 
 2721000   0.82589843   -5.2142071    1330.9854  0.040762752  0.040646648           10 
 2722000   0.80906011   -5.2213297     1333.696  0.040830762  0.040637496            2 
 2723000   0.80043279   -5.2217814    1334.4517  0.040838894  0.040628352            3 
 2724000   0.81580318    -5.214765    1333.4431  0.040793045  0.040619127            5 
 2725000   0.82649386   -5.1988689    1333.1345  0.040768638  0.040609936            2 
 2726000   0.80481708    -5.214027    1330.4089  0.040670361  0.040600791            7 
 2727000   0.83541714   -5.2111061    1327.6566  0.040571341  0.040591386            6 
 2728000   0.80342209   -5.2346992      1331.41  0.040671126  0.040582105            7 
 2729000   0.80275909   -5.2299882    1332.4458  0.040687853  0.040572655           12 
 2730000   0.81722485    -5.243594    1330.8714  0.040624889  0.040563314            7 
 2731000   0.81424413   -5.2021019    1332.6642   0.04066472  0.040553968            4 
 2732000   0.81639497   -5.2212253    1335.9219  0.040749205  0.040544718            7 
 2733000   0.79727296   -5.2579013     1329.497   0.04053839  0.040535436            5 
 2734000   0.80595477   -5.2406358    1329.8296    0.0405337  0.040526041            7 
 2735000   0.80623475   -5.2367977    1333.8333  0.040640868  0.040516695            5 
 2736000   0.81859544   -5.2082485    1335.4442   0.04067508  0.040507405            3 
 2737000    0.8141316   -5.2353056    1329.7115  0.040485674  0.040498145            6 
 2738000   0.83031448   -5.2187416    1335.2598  0.040639757  0.040488961            4 
 2739000   0.82299263   -5.2326918    1331.4206  0.040508112  0.040479736            6 
 2740000   0.81140104   -5.2032475    1337.3697  0.040674262  0.040470391            5 
 2741000   0.80393132   -5.2439691    1330.9662  0.040464738  0.040461008            5 
 2742000   0.82021212   -5.2218825     1337.618  0.040652141  0.040451678            5 
 2743000   0.82204926   -5.2163959     1336.336  0.040598372  0.040442473            5 
 2744000   0.81734016   -5.2451433    1330.7603  0.040414245  0.040433117            9 
 2745000   0.81604148   -5.2499529    1331.4467  0.040420363  0.040423764            2 
 2746000   0.81629701   -5.2520089    1327.8859  0.040297582  0.040414379            3 
 2747000   0.80248448   -5.2214277     1334.633  0.040487592  0.040405048           10 
 2748000   0.81509284   -5.2148337    1334.5431  0.040470131  0.040395747            5 
 2749000   0.80472487   -5.2355809    1333.9309  0.040436854  0.040386393            3 
 2750000   0.82326427    -5.256445    1331.6476  0.040352957  0.040376998            4 
 2751000   0.81644001   -5.2218257    1336.6179  0.040488849  0.040367637            3 
 2752000   0.79451261   -5.2385312    1335.9457  0.040453781  0.040358241            4 
 2753000   0.80544868   -5.2161302    1336.4781  0.040455202   0.04034891            4 
 2754000   0.79879167   -5.2116383    1338.8521   0.04051235  0.040339601            5 
 2755000   0.82566201   -5.2179525    1337.8617  0.040467687  0.040330234            4 
 2756000   0.81550877   -5.2422047    1331.9871  0.040275372  0.040320819            6 
 2757000   0.80703069   -5.2427619     1337.483  0.040426884   0.04031156            7 
 2758000   0.81964632   -5.2331178    1336.6877  0.040388193  0.040302197           17 
 2759000   0.80600963   -5.2450292     1334.593  0.040310288  0.040292887            6 
 2760000   0.81648377   -5.2151136     1335.037  0.040309088   0.04028358            6 
 2761000   0.81620583   -5.2478635    1339.0334   0.04041511  0.040274291            3 
 2762000   0.80755632   -5.2180158    1339.6293  0.040418456  0.040265088            8 
 2763000   0.81240118   -5.2381031    1339.5012  0.040399963  0.040255848            7 
 2764000   0.80064716   -5.2325685    1337.8082  0.040334303  0.040246645            3 
 2765000   0.82106006   -5.2392229    1339.3507  0.040366205  0.040237401            5 
 2766000   0.78302977   -5.2800849    1334.3592  0.040201228  0.040228191           10 
 2767000   0.78978927   -5.2293301     1342.985  0.040446481  0.040218905            4 
 2768000   0.80210011   -5.2684125    1334.1199  0.040164978   0.04020977           11 
 2769000    0.8329429   -5.2209279    1348.1964  0.040574105  0.040200598            4 
 2770000   0.80970206   -5.2366091    1339.0985  0.040285754  0.040191352            5 
 2771000   0.80485216   -5.2476071    1339.2196  0.040274859  0.040182207           12 
 2772000   0.80289854   -5.2306271    1337.6292  0.040212519  0.040172944           12 
 2773000   0.79504573    -5.233269      1338.87  0.040235304  0.040163642            4 
 2774000   0.80996288   -5.2399916    1336.9644  0.040163554  0.040154366            4 
 2775000   0.82569188   -5.2348575    1338.7298  0.040202095  0.040145068            9 
 2776000   0.80298889   -5.2131571    1338.9858  0.040195298  0.040135796            5 
 2777000   0.81815695   -5.2529748    1337.8309  0.040146168  0.040126548            4 
 2778000   0.80143887   -5.2475262    1339.7218   0.04018844  0.040117194            6 
 2779000   0.78517782   -5.2557992    1338.4185  0.040134896  0.040107884           11 
 2780000   0.80027213   -5.2568933    1341.9554   0.04022648  0.040098723            5 
 2781000   0.82054767   -5.2700394    1339.7311  0.040145363  0.040089462            8 
 2782000   0.80771921   -5.2738518    1338.9744  0.040108269  0.040080127            3 
 2783000   0.79310069   -5.2155937    1341.7058  0.040175645  0.040070795            9 
 2784000    0.8154913   -5.2520144    1341.0707  0.040142201  0.040061556            9 
 2785000   0.80418575   -5.2339264    1339.3511  0.040076335  0.040052306            9 
 2786000   0.80523624   -5.2331026    1342.2025  0.040147241  0.040043069            7 
 2787000   0.82998061   -5.2376525    1342.1357  0.040130835  0.040033797            8 
 2788000   0.81403812   -5.2720585    1338.2715  0.040000942  0.040024489           14 
 2789000   0.81020414   -5.2149276    1346.7044  0.040238569  0.040015151            6 
 2790000   0.82216981   -5.2371891    1345.8231  0.040197822  0.040005923           10 
 2791000   0.79627735   -5.2437997    1344.9796  0.040158235   0.03999672            6 
 2792000   0.80723356   -5.2492805     1341.189  0.040030713  0.039987442            8 
 2793000    0.7904988   -5.2554425    1341.1984  0.040016662  0.039978069            6 
 2794000   0.81091727   -5.2411717    1339.4772  0.039951003  0.039968681            5 
 2795000   0.80481768   -5.2642077    1345.1282  0.040105193  0.039959313            4 
 2796000   0.79979945   -5.2526736    1344.1047  0.040060346  0.039949985            7 
 2797000   0.81998368   -5.2359917    1342.0734  0.039985502  0.039940662            5 
 2798000   0.80758076   -5.2336646    1347.6578  0.040137534   0.03993132            4 
 2799000   0.81404286   -5.2573622    1345.7349  0.040065943  0.039922047            3 
 2800000   0.78689287   -5.2388321    1341.3306  0.039920554  0.039912737            8 
 2801000   0.79541116   -5.2607974    1342.9967   0.03995587  0.039903404           11 
 2802000   0.80023115   -5.2280476    1341.6164   0.03990056  0.039893971            8 
 2803000   0.79145967   -5.2806941     1344.441  0.039970299  0.039884623            8 
 2804000    0.8162111   -5.2650535    1344.8696  0.039968783  0.039875146           11 
 2805000   0.80959672    -5.275998     1341.385  0.039851011  0.039865785            9 
 2806000    0.8181981   -5.2519106    1345.3956  0.039955915  0.039856527            6 
 2807000   0.79704854   -5.2618723     1344.127  0.039904018  0.039847201            7 
 2808000   0.81875491   -5.2651377    1344.9831  0.039915216  0.039837923            4 
 2809000   0.81305911   -5.2351477    1346.9174  0.039958389  0.039828602            6 
 2810000   0.79941053   -5.2628115    1346.9029  0.039943738  0.039819271            8 
 2811000   0.78907091   -5.2610399    1343.5053  0.039828807  0.039809969            5 
 2812000   0.80722017   -5.2688746    1345.6864  0.039879279  0.039800624            9 
 2813000   0.80813998   -5.2576578    1348.4851  0.039948012  0.039791332            9 
 2814000   0.79576036   -5.2950382    1347.6484  0.039909038  0.039782075            7 
 2815000   0.80531973   -5.2575215    1344.8099  0.039810832  0.039772769            3 
 2816000   0.79430751   -5.2198971    1344.5506   0.03978902  0.039763489            5 
 2817000   0.81093711   -5.2387673    1347.3584  0.039857959  0.039754196            3 
 2818000   0.79895052   -5.2685705     1347.181  0.039838568   0.03974494            8 
 2819000   0.81935292   -5.2621843    1349.2225  0.039884785  0.039735669            8 
 2820000   0.81878058   -5.2505719    1347.1459  0.039809276  0.039726519            4 
 2821000   0.80065563    -5.257575    1348.8649  0.039845945  0.039717248            4 
 2822000   0.77893388   -5.2317278    1347.9832  0.039805788  0.039708053           16 
 2823000   0.80344117   -5.2434878    1347.0015  0.039762708  0.039698764            3 
 2824000   0.82045319   -5.2636643    1348.6398  0.039796974  0.039689432            6 
 2825000   0.77768155   -5.2452395    1350.6559  0.039842357  0.039680238            6 
 2826000   0.79989618   -5.2692414    1344.2453  0.039639223  0.039670883            4 
 2827000    0.7929804   -5.2661935    1347.0258  0.039707163  0.039661605            9 
 2828000   0.79286834   -5.2607887    1346.2001  0.039668791  0.039652225            7 
 2829000   0.80323678   -5.2579422    1348.8635  0.039733225  0.039642842            4 
 2830000   0.80179782   -5.2468352    1350.9528  0.039780707  0.039633589           17 
 2831000   0.80638012   -5.2778071    1344.9194  0.039589056  0.039624321            5 
 2832000   0.80360879   -5.2310752    1350.0686  0.039726594  0.039615049            5 
 2833000   0.80011742   -5.2513527    1351.2398  0.039747024  0.039605761            5 
 2834000   0.80554808   -5.2483794    1349.0286  0.039667979  0.039596489            8 
 2835000   0.81905193   -5.2704257    1349.2018  0.039659077  0.039587216            5 
 2836000   0.79026972   -5.2765419    1349.9559  0.039667252  0.039577901            5 
 2837000   0.79965167   -5.2542543    1348.7568  0.039618049  0.039568527            3 
 2838000   0.79596744   -5.2519003    1354.7443  0.039779902  0.039559284            4 
 2839000   0.79048884   -5.2324638    1350.1464  0.039630925   0.03955001            2 
 2840000   0.79604826   -5.2553254    1348.9975  0.039583259  0.039540732            4 
 2841000   0.79561338    -5.268778    1348.1917  0.039545692  0.039531421            5 
 2842000   0.79780174   -5.2619657    1352.2077  0.039649535  0.039522145            6 
 2843000   0.79367049   -5.2651263    1351.5101  0.039615139  0.039512858            8 
 2844000   0.79210187   -5.2684648    1353.3306  0.039654553  0.039503572            8 
 2845000   0.77919777   -5.2715382    1348.8209   0.03950852  0.039494254            4 
 2846000   0.79878223   -5.2721067    1348.3237  0.039480081  0.039485076            7 
 2847000   0.78668815   -5.2530696    1353.5202  0.039618317  0.039475771            7 
 2848000   0.82298314   -5.2749253    1351.9976  0.039559853  0.039466575            7 
 2849000   0.78522548   -5.2502375     1354.541  0.039620362  0.039457356           14 
 2850000   0.80423512   -5.2483265    1354.8809  0.039616401  0.039448074           10 
 2851000   0.80030791    -5.257853    1353.3703   0.03955835  0.039438826            9 
 2852000   0.80681856   -5.2691879    1354.0072  0.039563091  0.039429576            4 
 2853000   0.79070842   -5.2357831    1353.4255  0.039532231   0.03942028            7 
 2854000   0.81346667   -5.3107449    1349.5346   0.03940477  0.039410941            6 
 2855000   0.79693142   -5.2864887    1351.6747  0.039453434  0.039401536            3 
 2856000   0.79497575   -5.3089337    1348.4521  0.039345591  0.039392149            4 
 2857000   0.80783865   -5.2658716    1353.6703  0.039484026  0.039382775            5 
 2858000   0.79198514   -5.2654531    1347.2763  0.039283772  0.039373401            5 
 2859000   0.79680359    -5.264734    1354.2575  0.039473518  0.039363921            7 
 2860000   0.77743031   -5.2645748    1354.2747  0.039460219  0.039354473            6 
 2861000   0.76619168   -5.2772029    1349.1623  0.039297515  0.039345045            9 
 2862000    0.7946152   -5.2430634    1351.7776  0.039359934  0.039335578            5 
 2863000   0.79333383   -5.2656809    1352.9072  0.039379066  0.039326166            7 
 2864000   0.76871263   -5.2678365    1352.3737  0.039349794  0.039316696            5 
 2865000   0.80332948   -5.2596294    1351.5346  0.039311653  0.039307265            8 
 2866000   0.80563934   -5.2795137    1348.8559   0.03922005  0.039297845            5 
 2867000   0.78439282   -5.2434764    1352.2445  0.039304863   0.03928849           11 
 2868000   0.78842557   -5.3126945    1346.2104  0.039115831  0.039278979            5 
 2869000   0.78220639   -5.2885772    1347.4912  0.039139399  0.039269453            4 
 2870000   0.78399817   -5.2790907    1350.6429  0.039217274  0.039259964            9 
 2871000   0.78849353   -5.2718708    1355.4744  0.039343852  0.039250473            5 
 2872000    0.8006214   -5.2947299    1349.6205  0.039160299  0.039240893           12 
 2873000   0.79390963   -5.2825519    1351.7338  0.039207965  0.039231316            7 
 2874000   0.79026205   -5.2911312    1351.7998  0.039196235  0.039221757            6 
 2875000   0.81874985   -5.2754306    1352.3398  0.039198256  0.039212248            7 
 2876000   0.78438235   -5.2605481    1353.8294  0.039227789  0.039202736            4 
 2877000   0.78689962   -5.2731899    1352.4278  0.039173555  0.039193351            8 
 2878000   0.79023469   -5.2613256    1352.2975   0.03915617  0.039183914            4 
 2879000   0.79583669   -5.2858022    1355.8011  0.039243981  0.039174356           10 
 2880000   0.79960694   -5.2486146    1355.6552  0.039226135   0.03916483           10 
 2881000   0.78289455    -5.286145    1353.0863  0.039138214  0.039155332            9 
 2882000   0.80418634   -5.2888819    1348.9465   0.03900493  0.039145826            5 
 2883000   0.79643122   -5.2689495    1353.6386  0.039127026  0.039136364            3 
 2884000   0.78805396   -5.2892414    1352.3965  0.039077568  0.039126939            8 
 2885000   0.78124889   -5.2738338    1351.1065  0.039026761  0.039117504            4 
 2886000   0.80387293   -5.2677475    1353.1386  0.039071916  0.039108052            4 
 2887000   0.78910987   -5.2747076    1348.3896  0.038921302  0.039098566           12 
 2888000    0.7901224   -5.2770697    1353.8207   0.03906454  0.039089134           12 
 2889000   0.79428742   -5.2426663     1356.028  0.039114688  0.039079795            3 
 2890000   0.77114419   -5.2789252    1355.8886  0.039097135  0.039070461            9 
 2891000   0.79223454   -5.2986623    1355.2594  0.039065474  0.039060996            7 
 2892000   0.79055185   -5.2578356    1358.9825  0.039159246  0.039051562            4 
 2893000   0.78468596   -5.2910265    1355.8998  0.039056913  0.039042174            6 
 2894000   0.78826097    -5.288787    1356.5089  0.039060956   0.03903274            5 
 2895000   0.78596836   -5.2463887    1356.4796  0.039046621  0.039023339            4 
 2896000   0.80092551    -5.265221    1358.4418  0.039089601  0.039013892            5 
 2897000   0.77764845   -5.2483439     1356.739  0.039027126  0.039004425            4 
 2898000   0.76960723   -5.2646151     1357.195  0.039026772  0.038994967           14 
 2899000   0.77392443   -5.2385325    1356.3513  0.038989056  0.038985565            7 
 2900000   0.79554101   -5.2948089    1355.3308  0.038946287  0.038976111           11 
 2901000   0.77919232   -5.2835122    1356.0918  0.038954723  0.038966626            7 
 2902000   0.79173425   -5.2878029    1351.8937  0.038820747  0.038957156            6 
 2903000   0.80019894   -5.2770451     1355.768  0.038918589   0.03894767            4 
 2904000   0.78344743   -5.2961411    1356.0095   0.03891212  0.038938161            7 
 2905000   0.79336767   -5.2791006    1356.4052  0.038910076  0.038928608            4 
 2906000   0.79544451   -5.2861029    1354.2799  0.038835739  0.038919141            7 
 2907000   0.77141998   -5.3109388     1355.921  0.038869423  0.038909601            8 
 2908000   0.79772885   -5.2834503    1360.9429  0.038999969  0.038900151           11 
 2909000   0.79839809   -5.2717235     1358.813  0.038925547  0.038890737            4 
 2910000   0.79822515   -5.2801735    1356.5011  0.038845964  0.038881314            5 
 2911000   0.77216447    -5.292541     1353.725  0.038753149  0.038871863            8 
 2912000   0.79910879   -5.2919003    1356.7401  0.038826124  0.038862378           14 
 2913000   0.79536766   -5.2913242    1355.6603  0.038781905  0.038852947            7 
 2914000   0.78851498   -5.2903921    1358.2735  0.038843328  0.038843519            3 
 2915000   0.78655685   -5.2720242     1365.133    0.0390261  0.038834067            5 
 2916000   0.78057472   -5.3055899    1357.9962  0.038808762  0.038824686            5 
 2917000    0.7901897   -5.2757336    1361.8053  0.038904276  0.038815248            2 
 2918000   0.77801401    -5.287447    1356.4774  0.038738789  0.038805887            6 
 2919000   0.78318068   -5.2891091    1362.0139  0.038883576  0.038796481            7 
 2920000   0.79054662   -5.2956763    1358.4428  0.038768346  0.038787043            9 
 2921000   0.79657897   -5.3157185    1354.3174  0.038637379  0.038777673            8 
 2922000   0.79549913   -5.3007291    1359.4568  0.038770729  0.038768221            8 
 2923000    0.7893465    -5.291209    1361.6679  0.038820502   0.03875883            4 
 2924000   0.79177648   -5.2744344    1359.6113  0.038748612  0.038749461            9 
 2925000    0.7697109   -5.3064191    1361.7205  0.038795455  0.038739982            7 
 2926000   0.77136134   -5.2701022    1359.7964  0.038727398  0.038730595            6 
 2927000   0.79018554   -5.2901349    1362.0623  0.038778677  0.038721173           15 
 2928000   0.79745643   -5.2929477     1359.529  0.038693334  0.038711725            7 
 2929000    0.7853916   -5.3158831    1359.6383  0.038683234  0.038702277           10 
 2930000   0.78436203   -5.2605913    1360.2143  0.038686415  0.038692875            6 
 2931000   0.78413031   -5.2919514    1364.0658  0.038782718  0.038683418            5 
 2932000   0.78423173    -5.274504    1364.0802  0.038769901  0.038674064            6 
 2933000   0.78320282   -5.3007103    1358.2622  0.038591379  0.038664695            5 
 2934000   0.77281843   -5.3338163    1358.2547  0.038578014  0.038655282            5 
 2935000   0.78333365   -5.2657923    1362.6186  0.038688772  0.038645863            7 
 2936000   0.78990671      -5.2873    1359.8109  0.038595903  0.038636564            5 
 2937000   0.78744023   -5.2762898    1365.0791   0.03873224  0.038627202            6 
 2938000   0.78201099   -5.2997011    1366.0439  0.038746425  0.038617774            6 
 2939000   0.77870194   -5.3146324    1360.5726  0.038578104  0.038608392            7 
 2940000   0.76833322    -5.279907     1365.112   0.03869365  0.038599025            5 
 2941000   0.78513877   -5.3278995    1360.8495  0.038559715   0.03858956            7 
 2942000   0.76449784   -5.3163912    1360.9843  0.038550428  0.038580106           11 
 2943000   0.78960829   -5.2747627    1363.6946  0.038614074  0.038570809            5 
 2944000   0.76791831   -5.2977537    1363.8175  0.038604436  0.038561437           11 
 2945000   0.78152126   -5.2988569    1364.1776  0.038601515  0.038552084           10 
 2946000   0.79763234   -5.3140924    1363.1111  0.038558246   0.03854268            7 
 2947000   0.77909784   -5.3259584    1361.8196  0.038508642  0.038533298            7 
 2948000   0.76980314   -5.3160603    1362.2418  0.038507512  0.038523874            4 
 2949000   0.75721902   -5.2992824    1363.2909    0.0385241  0.038514502            6 
 2950000   0.76631668   -5.2817222    1366.0516  0.038589029  0.038505134           15 
 2951000   0.76313661   -5.2904636    1366.4723  0.038587831  0.038495752            3 
 2952000   0.79097651   -5.3014475    1364.4428  0.038517468  0.038486334            8 
 2953000   0.79345101   -5.3143796    1368.4208  0.038616684  0.038476989           14 
 2954000   0.78399082    -5.306626    1368.8098  0.038614584  0.038467652            5 
 2955000   0.77506676   -5.3009449    1367.6501  0.038568813  0.038458424            4 
 2956000   0.77748947   -5.3223945    1365.1289  0.038484689   0.03844913            5 
 2957000   0.78709275   -5.3153603    1365.0453  0.038469319  0.038439756            5 
 2958000   0.78299609   -5.3042121    1371.0155  0.038624507  0.038430372            8 
 2959000   0.78038052    -5.303031    1365.5991  0.038458913   0.03842104            7 
 2960000    0.7661352   -5.3268941    1366.0398  0.038458326  0.038411693            6 
 2961000   0.78722641   -5.3010545    1368.2866  0.038508573  0.038402342            4 
 2962000   0.76975239    -5.273418    1372.4672  0.038613189  0.038393045            9 
 2963000   0.79939729   -5.3071653    1364.0774  0.038364196  0.038383719           10 
 2964000   0.77485309   -5.3067517    1368.2436  0.038468386  0.038374439            5 
 2965000   0.76780056   -5.3187634    1363.8694  0.038332472  0.038365078            4 
 2966000   0.78246221   -5.3225552     1369.229  0.038470133  0.038355884            5 
 2967000   0.77409371   -5.3064618    1371.6998  0.038526564  0.038346655            8 
 2968000    0.7759969   -5.3038376    1366.2951  0.038361834  0.038337467            4 
 2969000   0.77957109   -5.2747027    1374.4829  0.038578727   0.03832833            5 
 2970000   0.77237215    -5.313211    1367.2807  0.038363657  0.038319132            8 
 2971000    0.7707163   -5.3017325    1368.8532  0.038394851  0.038309774            4 
 2972000   0.77594981   -5.3271741    1368.0985  0.038360769  0.038300515            9 
 2973000   0.77247984   -5.3161478    1370.7579  0.038422411  0.038291307            8 
 2974000   0.78853024   -5.3254199    1370.4578  0.038401081  0.038282045            6 
 2975000   0.77702386   -5.3207808    1371.9491  0.038429946  0.038272727            4 
 2976000   0.76831024   -5.3146296    1368.0957   0.03830913  0.038263495            3 
 2977000   0.77260876   -5.3012123    1376.0021  0.038517583  0.038254268            5 
 2978000   0.76260121   -5.3017871     1371.507  0.038378861  0.038245067            3 
 2979000   0.78593473    -5.334635    1374.4122  0.038447247  0.038235783            9 
 2980000   0.76387557   -5.2914971    1371.8398  0.038362412  0.038226569            9 
 2981000   0.78954308   -5.3382475    1370.1002   0.03830091   0.03821733            5 
 2982000   0.77467221   -5.3125391    1371.1866  0.038318428  0.038208106            5 
 2983000   0.76848088   -5.3157196    1367.9539  0.038215272  0.038198836            5 
 2984000   0.77008203   -5.3092478    1372.7968  0.038337711  0.038189526           13 
 2985000   0.79035705   -5.3069097    1372.8262  0.038325689  0.038180306            7 
 2986000   0.78808107   -5.3113071     1376.079  0.038403635  0.038170995            5 
 2987000   0.76158142   -5.3166386    1371.1117  0.038252195  0.038161738            3 
 2988000   0.77527939   -5.3135936     1372.033  0.038265089  0.038152477            5 
 2989000   0.76929977    -5.310609    1373.2879  0.038287274  0.038143326            8 
 2990000   0.76150155   -5.3276094     1373.618  0.038283669  0.038134136            5 
 2991000   0.78469037   -5.2933951    1373.0752  0.038255746  0.038124941            7 
 2992000   0.78441104   -5.3072189    1375.3688   0.03830684   0.03811583            6 
 2993000   0.76256909   -5.3231339    1372.4724  0.038213398  0.038106683            7 
 2994000   0.76470037   -5.3256152    1375.5525  0.038286365  0.038097508           15 
 2995000   0.77432731    -5.305507    1376.3007  0.038294399  0.038088343           13 
 2996000   0.76724456   -5.3313615    1373.9566  0.038216415  0.038079191           11 
 2997000   0.76303564   -5.3499169    1375.2616  0.038239952  0.038070086            6 
 2998000   0.76964926   -5.3242121    1369.9817  0.038080433  0.038060971            6 
 2999000   0.77788187   -5.3143926    1376.6223  0.038252259  0.038051871           10 
 3000000   0.75663034   -5.3245807    1377.3992  0.038261088  0.038042796            5 
 3001000   0.77920064   -5.3199565    1376.7077  0.038229137  0.038033684            4 
 3002000   0.78432329   -5.3084811    1373.8317  0.038136566  0.038024536            5 
 3003000    0.7737275   -5.3309259    1372.8682  0.038097131  0.038015437            7 
 3004000   0.75867064   -5.3005066    1377.3068  0.038207578  0.038006345            5 
 3005000   0.76509806   -5.3177431    1376.6684  0.038177161   0.03799724            7 
 3006000   0.76475763    -5.294792    1377.6551  0.038191815  0.037988196            6 
 3007000   0.76625433    -5.332791      1379.84  0.038239662   0.03797914           10 
 3008000   0.76250897   -5.3230711    1375.4859  0.038106324  0.037970032            7 
 3009000   0.75368941   -5.3131243    1375.6608  0.038098506  0.037960895            8 
 3010000    0.7634197   -5.3247597    1375.3114  0.038076175  0.037951763           11 
 3011000   0.76605341   -5.3247748     1378.691  0.038157063  0.037942616            9 
 3012000   0.76434797   -5.3292687    1371.9508  0.037957913  0.037933503            5 
 3013000   0.75697381   -5.3309634    1373.0195  0.037974872  0.037924293            6 
 3014000    0.7829161   -5.3558216     1376.096  0.038047333  0.037915104            7 
 3015000   0.77213286   -5.3112346    1382.3432  0.038207385  0.037905901           11 
 3016000   0.76657973    -5.339424    1374.8784  0.037988462  0.037896689            8 
 3017000   0.75943522   -5.3463004    1377.1807  0.038039464  0.037887463            7 
 3018000   0.77319423    -5.328119    1379.8337  0.038100113  0.037878234           12 
 3019000   0.77282049   -5.3239463    1378.0148  0.038037286  0.037869085            5 
 3020000   0.77409353   -5.3567973    1374.8734  0.037938008  0.037859941            7 
 3021000    0.7604769   -5.3240426    1378.2672  0.038019067   0.03785074            6 
 3022000   0.75192508   -5.3018107    1379.0443  0.038027914   0.03784158           11 
 3023000   0.76118821   -5.3318659    1377.0126  0.037959328  0.037832402           18 
 3024000   0.78310544   -5.3343979    1379.9443  0.038027567  0.037823236            7 
 3025000   0.77285116   -5.3262289    1376.4285  0.037918142  0.037814082            6 
 3026000   0.77614545   -5.3172224    1377.8588  0.037944999  0.037804973           15 
 3027000   0.76290295    -5.309364    1380.1577  0.037995752  0.037795893            2 
 3028000   0.77625067   -5.3158407     1379.814  0.037973745  0.037786832            5 
 3029000   0.76802793   -5.3329904    1377.1347  0.037887497  0.037777729           12 
 3030000   0.77608592   -5.3553671    1377.6536  0.037889264  0.037768643            9 
 3031000   0.77009614   -5.3136432    1381.4181  0.037980262  0.037759512            4 
 3032000   0.75682058   -5.3404411    1380.4559   0.03794129  0.037750366           10 
 3033000   0.75682883   -5.3365795    1378.0612  0.037862985  0.037741316            6 
 3034000   0.75797198   -5.3340903    1378.1314  0.037852434  0.037732169            5 
 3035000   0.77585564   -5.3360938    1378.9177   0.03786155  0.037723015           11 
 3036000    0.7528968   -5.3080524    1378.6802  0.037842561    0.0377139            5 
 3037000   0.77701391    -5.341751    1381.5474  0.037908776  0.037704829            3 
 3038000   0.76309258   -5.3166035    1383.5311  0.037950712  0.037695729            7 
 3039000   0.74009177   -5.3400351    1380.3475  0.037850923  0.037686578           10 
 3040000   0.75760101   -5.3397473    1377.8769  0.037770747  0.037677455            8 
 3041000   0.78470254   -5.3530046    1379.8829  0.037813298  0.037668332           13 
 3042000   0.76875212   -5.3455316    1379.1264  0.037780146  0.037659097            7 
 3043000   0.76130149   -5.3300317    1382.5032  0.037860203   0.03765002            8 
 3044000   0.75902343   -5.3296167    1380.2109  0.037785011  0.037640907            5 
 3045000   0.77956896   -5.3194675    1381.5113  0.037808192  0.037631919            5 
 3046000   0.76396822   -5.3170683     1383.851  0.037859788  0.037622985            3 
 3047000   0.75878455   -5.2905572    1385.2862  0.037886616  0.037613998            9 
 3048000   0.76029006   -5.3620304    1379.5824  0.037718242  0.037605012            5 
 3049000   0.76711072   -5.3280698    1383.1143  0.037802402  0.037595924            7 
 3050000   0.77127726   -5.3206712    1386.1982  0.037874269  0.037586934            4 
 3051000   0.77135808   -5.3373499     1385.907    0.0378539  0.037577947            7 
 3052000   0.76631529   -5.3082453     1383.324   0.03777097  0.037568989            8 
 3053000   0.75899525   -5.3543136    1383.3461  0.037759202  0.037560005            5 
 3054000   0.77324092   -5.3163404    1383.6829  0.037756028  0.037550982            8 
 3055000   0.78056762   -5.3356021     1383.201  0.037730525  0.037542021            5 
 3056000    0.7662896   -5.3363224    1389.3177  0.037884972  0.037532948            6 
 3057000   0.77249939   -5.3304414    1383.9762  0.037726971  0.037523948           15 
 3058000   0.77088497   -5.3310356    1385.2708  0.037749912   0.03751484           13 
 3059000   0.76237812    -5.333887    1389.0732  0.037841158  0.037505872            4 
 3060000   0.76656621   -5.3453933    1386.2723  0.037752513  0.037496942            3 
 3061000   0.77220721   -5.3288246    1385.6373  0.037722892   0.03748805            7 
 3062000   0.76242291   -5.3456622    1382.7217  0.037631224  0.037479076            7 
 3063000   0.76061961   -5.3328181     1387.526  0.037749646   0.03747017            5 
 3064000   0.76292337    -5.326708    1383.1838  0.037619229  0.037461267            7 
 3065000   0.76954178   -5.3545653     1385.329   0.03766528  0.037452222            4 
 3066000   0.77370018   -5.3445058    1388.1499  0.037729668  0.037443263            5 
 3067000     0.773332   -5.3416714    1387.1027  0.037688912  0.037434276            8 
 3068000   0.77260018   -5.3555613    1387.5093  0.037687672  0.037425268            3 
 3069000   0.75376666   -5.3584424    1385.3802  0.037617579  0.037416375            4 
 3070000    0.7639103   -5.3161554    1389.4218  0.037715033  0.037407428            7 
 3071000   0.75907598   -5.3528231    1386.7975  0.037631539  0.037398492            9 
 3072000   0.77207011   -5.3551926    1385.9406  0.037596044  0.037389576           14 
 3073000   0.75912418   -5.3459419    1389.8601  0.037690099  0.037380584            7 
 3074000   0.74168125   -5.3341523     1391.829  0.037731214  0.037371666            5 
 3075000   0.78269118   -5.3407461    1385.7399  0.037553927  0.037362761            7 
 3076000   0.76860828   -5.3274569    1392.9714  0.037737629  0.037353862            9 
 3077000   0.76353648   -5.3121155     1386.531  0.037550943  0.037344937            5 
 3078000   0.73594381   -5.3778359    1388.1072  0.037581417  0.037335964            6 
 3079000   0.75526405   -5.3512186    1388.6778  0.037584654  0.037327005            6 
 3080000   0.76399154   -5.3612783    1389.8294  0.037603608  0.037318077            7 
 3081000   0.76169209   -5.3413642    1390.0404  0.037597111  0.037309134            8 
 3082000   0.76153308   -5.3290324    1389.9916  0.037583593  0.037300247            2 
 3083000   0.75428717   -5.3477125    1389.3833  0.037554961  0.037291415           22 
 3084000   0.76424921   -5.3500629    1391.4699  0.037599166  0.037282548            7 
 3085000   0.76413652   -5.3455559    1387.5265  0.037480456  0.037273629            4 
 3086000    0.7604363   -5.3443193    1392.4351  0.037600863  0.037264651            6 
 3087000    0.7800802   -5.3453427      1389.87  0.037519437  0.037255691           12 
 3088000   0.76331062   -5.3365098    1390.8408  0.037533485  0.037246778            4 
 3089000     0.750053   -5.3293467    1388.1656  0.037449164  0.037237797            7 
 3090000   0.74580522   -5.3312158    1389.7807    0.0374806  0.037228833            8 
 3091000   0.76092287    -5.330113    1393.3653  0.037565116  0.037219945           12 
 3092000   0.76062327    -5.363855    1388.6817  0.037426738  0.037210968            7 
 3093000   0.75193988   -5.3404651    1389.1132  0.037426264  0.037201981           10 
 3094000   0.76789836   -5.3706622    1388.2987  0.037392231  0.037193016            4 
 3095000   0.75297537   -5.3385976    1392.4746  0.037492585  0.037184014            6 
 3096000   0.75306616   -5.3689476    1388.9606  0.037385892  0.037175068            9 
 3097000   0.75173453   -5.3346862    1390.9343  0.037426927  0.037166146            6 
 3098000   0.75242217   -5.3528151     1391.081  0.037418791  0.037157235           11 
 3099000   0.74517475   -5.3394881    1392.2974  0.037439427   0.03714827           11 
 3100000   0.76599078   -5.3501059    1393.2585  0.037453185  0.037139366            6 
 3101000   0.74970291    -5.328241    1390.5535  0.037368416  0.037130469            8 
 3102000   0.75735734   -5.3531504    1388.6818  0.037306087   0.03712157            4 
 3103000   0.73557985   -5.3377507    1392.2641  0.037390271  0.037112703            6 
 3104000   0.74464255   -5.3286829    1392.8844  0.037394877  0.037103807            7 
 3105000   0.75373833   -5.3343152    1391.5491  0.037346998  0.037094903           10 
 3106000   0.76153253   -5.3572815    1392.3823  0.037357327  0.037085942            5 
 3107000   0.77760078   -5.3288934    1391.9237  0.037333005   0.03707707            5 
 3108000   0.75533221   -5.3618989    1391.3593  0.037305859  0.037068179           10 
 3109000   0.75417499    -5.328978    1394.4583  0.037376925  0.037059317            8 
 3110000   0.74346483   -5.3556963    1390.4737  0.037258138  0.037050397           21 
 3111000    0.7722325   -5.3464336    1395.4606  0.037379743  0.037041498            9 
 3112000   0.74248252   -5.3491193    1391.9825  0.037274596  0.037032611            9 
 3113000   0.76531646   -5.3634063    1393.1215  0.037293112  0.037023712            4 
 3114000   0.75894806    -5.361509    1390.5362  0.037211953  0.037014738            6 
 3115000   0.75762597   -5.3733621     1393.184  0.037270841  0.037005788            8 
 3116000   0.74276151     -5.34064     1394.762   0.03730108   0.03699687            6 
 3117000    0.7539266   -5.3558006    1391.2429  0.037195031  0.036987956            4 
 3118000   0.75469886   -5.3698651    1392.0494  0.037204655  0.036979046            6 
 3119000   0.75613771   -5.3518278    1393.0965  0.037220704  0.036970121            4 
 3120000   0.75337054   -5.3605057    1392.6307  0.037196333  0.036961223           14 
 3121000   0.75286322   -5.3525606    1395.6446  0.037264887  0.036952267           14 
 3122000   0.75572727   -5.3526384    1394.7454  0.037228951  0.036943333            5 
 3123000   0.74665107   -5.3613292    1396.9058  0.037274678  0.036934386            3 
 3124000   0.76137266   -5.3779347    1390.4804  0.037091347  0.036925405            6 
 3125000   0.74532099   -5.3676385    1391.9003   0.03711734  0.036916482            4 
 3126000   0.74642932   -5.3489109    1395.1747  0.037192757  0.036907553            3 
 3127000   0.74198892   -5.3338951    1399.0428  0.037283946  0.036898679            6 
 3128000   0.74321373   -5.3503135    1397.5091  0.037231168  0.036889798            5 
 3129000   0.74769985   -5.3265807     1397.836  0.037227974  0.036880996            7 
 3130000   0.74792501   -5.3709549    1396.4492  0.037179158  0.036872156           10 
 3131000   0.74349954   -5.3457829    1396.6125   0.03717163  0.036863366            5 
 3132000   0.75807533   -5.3580784    1394.7945   0.03711139    0.0368545            8 
 3133000   0.75601812   -5.3631305    1399.0778  0.037213474  0.036845671           20 
 3134000   0.74723709   -5.3752347    1393.6182  0.037056431  0.036836839            9 
 3135000   0.74021503   -5.3174207    1395.2783  0.037088738  0.036827984            6 
 3136000   0.76088758   -5.3778427    1400.1671  0.037206821  0.036819142            7 
 3137000   0.76319273   -5.3350335     1395.862  0.037080598  0.036810282            6 
 3138000   0.76028537    -5.363719    1398.1907  0.037130622  0.036801372            7 
 3139000   0.73954435   -5.3599346    1392.1026  0.036957168   0.03679244           25 
 3140000   0.74660614   -5.3655856    1396.8066  0.037070238  0.036783511            4 
 3141000    0.7512666   -5.3662956    1394.3308  0.036992752  0.036774603            5 
 3142000   0.75087675    -5.345292     1399.538  0.037119086  0.036765689            5 
 3143000   0.75816299    -5.368985    1395.3126  0.036995243  0.036756772           12 
 3144000   0.74517027   -5.3799752    1394.1449  0.036952527  0.036747811            5 
 3145000   0.74563771   -5.3743796    1395.5143  0.036977062  0.036738883            4 
 3146000   0.75303458   -5.3882155    1394.0355  0.036926136  0.036729891            4 
 3147000   0.76649775   -5.3537142    1396.5436  0.036980818  0.036720969           15 
 3148000    0.7592292   -5.3402739    1400.7684  0.037080909  0.036712035            4 
 3149000   0.73664613   -5.3370171    1401.7077   0.03709399  0.036703231            5 
 3150000   0.75587059   -5.3518077    1399.8173  0.037032204  0.036694398            6 
 3151000    0.7590836   -5.3536795    1397.0086  0.036946171  0.036685513           10 
 3152000   0.74572374   -5.3603046    1402.7837  0.037087133   0.03667668            5 
 3153000   0.75746221   -5.3566229    1395.6229  0.036886112   0.03666777            7 
 3154000   0.75628353   -5.3662725    1401.9618  0.037041899  0.036658869            9 
 3155000   0.74085008   -5.3727038    1396.7882  0.036893508  0.036650004           10 
 3156000   0.75688788   -5.3589973    1398.4956  0.036926902  0.036641092            4 
 3157000   0.74380467   -5.3757412    1402.1339  0.037011243  0.036632152            7 
 3158000   0.74595703   -5.3584296     1398.744   0.03691007  0.036623295            7 
 3159000    0.7422079   -5.3734358    1398.1496  0.036882707  0.036614447            5 
 3160000   0.73118184   -5.3362604    1404.5819  0.037040663  0.036605615            6 
 3161000   0.75391951   -5.3865118    1397.2844  0.036836561  0.036596732            8 
 3162000   0.74273385   -5.3669087    1400.4252  0.036907684  0.036587825           11 
 3163000   0.74032027   -5.3469672    1400.2185   0.03689057  0.036578969           10 
 3164000   0.73910229   -5.3421163    1402.6172  0.036942087  0.036570166            7 
 3165000   0.74073368    -5.361677    1397.8041   0.03680369  0.036561353            6 
 3166000   0.73721575   -5.3842082    1400.5445  0.036864195  0.036552486            7 
 3167000   0.74329813   -5.3624989    1398.0958  0.036788123   0.03654359            4 
 3168000   0.75940641    -5.367965    1398.1249  0.036777276  0.036534716            6 
 3169000   0.73144343   -5.4065831      1397.95  0.036761072  0.036525915            6 
 3170000     0.756343   -5.3738161    1397.4654  0.036736734  0.036517021            6 
 3171000   0.73677119   -5.3446704    1401.6708  0.036835667  0.036508211            3 
 3172000   0.75165868    -5.354227    1403.6186  0.036875225  0.036499477            7 
 3173000   0.74877476    -5.352042    1402.6482  0.036838117  0.036490741           10 
 3174000   0.75366136   -5.3725773    1398.3296  0.036713128  0.036481855            8 
 3175000   0.73273187   -5.3866033     1400.631  0.036761967  0.036473029            5 
 3176000   0.73212866   -5.3892409    1398.2666  0.036688356  0.036464159            7 
 3177000   0.73095423   -5.3554238    1401.3673   0.03675814  0.036455333            3 
 3178000   0.74728664   -5.3952339    1401.3181  0.036745282    0.0364465            7 
 3179000   0.72891761   -5.3817068    1402.4554  0.036763537  0.036437735            7 
 3180000   0.73434881   -5.3825723     1400.411  0.036698403  0.036428875            7 
 3181000   0.74237648   -5.3787568    1402.7723  0.036748725  0.036420007            5 
 3182000   0.72884757   -5.3598078    1401.5979  0.036706419  0.036411209            6 
 3183000    0.7423058   -5.3925011    1401.3884  0.036689403  0.036402382            6 
 3184000   0.73451669   -5.3807138    1402.5457  0.036708169  0.036393505           11 
 3185000   0.74114698   -5.3569235    1398.3137  0.036585917  0.036384673            6 
 3186000   0.75005168   -5.3597668    1399.7303  0.036611485  0.036375881            9 
 3187000   0.74236994   -5.3685281    1400.7986  0.036627932  0.036367016           13 
 3188000   0.74476137   -5.3890136    1402.1881  0.036652762  0.036358169           19 
 3189000   0.74193023   -5.3741551    1404.2131  0.036694186  0.036349241            5 
 3190000   0.75022121    -5.391932    1398.5419  0.036534533  0.036340386            9 
 3191000   0.73777815   -5.4087052    1398.6679  0.036526373  0.036331556            9 
 3192000   0.74425077   -5.4280493    1401.9762  0.036601299  0.036322563           14 
 3193000   0.75413308   -5.3747539     1401.407  0.036574982  0.036313718            7 
 3194000   0.73712578   -5.3847698    1404.9919  0.036657064  0.036304818            8 
 3195000   0.74434826   -5.3779353    1403.1106  0.036596522  0.036295927            9 
 3196000   0.74505118   -5.3821574    1400.7248  0.036522862  0.036286995            9 
 3197000    0.7382447   -5.4062668    1404.1552  0.036600855  0.036278095            4 
 3198000   0.72384081    -5.380974    1405.3855  0.036621468  0.036269276            7 
 3199000   0.72889109   -5.3754855    1404.3038  0.036581845   0.03626042            7 
 3200000   0.74380011   -5.3814267    1403.1813   0.03654118  0.036251514            3 
 3201000   0.72796586   -5.4019245    1404.0787  0.036553126  0.036242641            7 
 3202000    0.7350874   -5.3742963    1403.2893  0.036521165  0.036233781            8 
 3203000   0.75675411   -5.3754716    1404.5264   0.03654195  0.036224922           10 
 3204000   0.73445253    -5.396908    1401.1993  0.036444009  0.036215998            5 
 3205000    0.7494858   -5.3908144    1399.1168  0.036378492  0.036207108            6 
 3206000   0.73774839   -5.3820497    1398.6342  0.036354601  0.036198152            5 
 3207000   0.74309448   -5.3901285    1405.5324  0.036522513  0.036189187            4 
 3208000   0.74008288   -5.4070099    1399.9961  0.036367314  0.036180281            8 
 3209000   0.74047833   -5.3879615    1406.6496  0.036528763  0.036171367            5 
 3210000   0.73304765   -5.4040405    1403.0758  0.036424606  0.036162516            7 
 3211000   0.74851921   -5.3897723    1402.6744  0.036402843  0.036153626           18 
 3212000   0.73384358   -5.4048106    1399.9244  0.036320164  0.036144729           11 
 3213000   0.72910896    -5.382795    1406.0602     0.036468  0.036135811            7 
 3214000   0.73990529   -5.4033982    1404.8978  0.036426514  0.036126921           12 
 3215000   0.74580726   -5.3682063    1403.2429  0.036372289  0.036118017            8 
 3216000   0.73941743   -5.3897888     1408.513  0.036497538  0.036109172            9 
 3217000    0.7386323   -5.4379002    1400.8209  0.036286937  0.036100269            7 
 3218000   0.72657301    -5.365321    1405.5137  0.036397186  0.036091333            6 
 3219000   0.73342566    -5.386057    1405.1243  0.036375798  0.036082492            4 
 3220000   0.72049457    -5.395931    1404.8187  0.036356592  0.036073535            5 
 3221000   0.72667635   -5.4045262    1406.2554  0.036382475  0.036064655           10 
 3222000   0.72904534   -5.3821452    1406.7561  0.036384132  0.036055849           17 
 3223000   0.73127493   -5.3727216    1404.8848  0.036324461  0.036047075            5 
 3224000   0.73741489   -5.3987737    1404.7456  0.036309595  0.036038261            7 
 3225000   0.72764994   -5.3880507     1407.946  0.036381033  0.036029516            5 
 3226000   0.75262341   -5.4050177    1408.4563  0.036382937  0.036020805            7 
 3227000    0.7188198    -5.421384    1410.2396  0.036417714  0.036012077            9 
 3228000   0.74414326     -5.40894    1404.7875  0.036265683   0.03600329            6 
 3229000   0.72271699   -5.4098703    1405.7982  0.036280535  0.035994488            7 
 3230000   0.74317569   -5.3983814    1403.9093  0.036220571  0.035985683            8 
 3231000   0.71773848   -5.3862534    1408.4772  0.036327175  0.035976857            7 
 3232000   0.73151797   -5.4009034    1408.0188  0.036304114  0.035968034            8 
 3233000    0.7291625   -5.3933444    1406.8885  0.036263753  0.035959215            6 
 3234000   0.71806601   -5.4203983     1404.056   0.03617955  0.035950313            9 
 3235000   0.71469281   -5.4142965    1408.9694  0.036294935  0.035941438            7 
 3236000   0.72038129   -5.4234319    1410.4366  0.036321504  0.035932572            5 
 3237000   0.72854302   -5.4074292    1404.8299  0.036165943  0.035923641            6 
 3238000   0.71195385   -5.3958658    1407.1469  0.036214405  0.035914783            4 
 3239000   0.73582393   -5.4141555     1403.525   0.03611004  0.035905981            5 
 3240000   0.72266786   -5.4128717    1408.6622  0.036231024  0.035897235            7 
 3241000   0.74841704   -5.3966718     1408.615  0.036218631  0.035888443           12 
 3242000   0.74013771   -5.3877916    1409.4402  0.036228669   0.03587966            8 
 3243000    0.7225144   -5.3849475     1408.557  0.036194804  0.035870918            7 
 3244000   0.72455422   -5.3878299    1410.8544  0.036242662    0.0358622            6 
 3245000   0.72587351   -5.3987358    1409.9291  0.036207732  0.035853451            7 
 3246000   0.75623336   -5.3967267    1410.7466  0.036217566  0.035844753            7 
 3247000   0.75482517     -5.38895    1409.7535  0.036180923  0.035836029            8 
 3248000   0.73124332   -5.4279707    1406.8785  0.036096022  0.035827239            7 
 3249000   0.73729778   -5.3840516    1412.2475   0.03622262  0.035818493            8 
 3250000   0.73550641   -5.4269255    1403.9851  0.035999618  0.035809694            7 
 3251000   0.74284916   -5.4057114    1412.1202  0.036197072  0.035800893            8 
 3252000   0.71804892   -5.3915186    1410.2557  0.036138163  0.035792118            4 
 3253000    0.7298255   -5.4146445    1408.7251  0.036087845  0.035783352            5 
 3254000   0.73383297   -5.4038573     1412.112  0.036163492  0.035774549           10 
 3255000   0.72940419   -5.4065274    1410.5594  0.036112632  0.035765794            6 
 3256000   0.73514195   -5.3774875    1410.8013  0.036107731  0.035757074            5 
 3257000   0.72077488   -5.3892086    1407.3784  0.036009067  0.035748322            5 
 3258000   0.72362378    -5.403979    1408.0243  0.036014537  0.035739548            7 
 3259000   0.72472783   -5.4022466     1408.009  0.036003095  0.035730737            8 
 3260000   0.71428154   -5.4158742    1409.5741  0.036032059  0.035721929            8 
 3261000   0.71818437   -5.4161986    1406.9273  0.035953371  0.035713038            6 
 3262000   0.73738742   -5.4037473    1411.6939  0.036064119  0.035704202            9 
 3263000   0.72530068   -5.4048893    1408.5426  0.035972588  0.035695346           12 
 3264000    0.7110746   -5.3854776    1410.6297  0.036014852  0.035686485            6 
 3265000   0.72558257   -5.4136311    1410.5904  0.036002817  0.035677643            4 
 3266000   0.72342614   -5.3928632    1409.7582   0.03597056  0.035668811           12 
 3267000   0.73108349   -5.4180157    1410.8191  0.035986611  0.035660043           13 
 3268000   0.74119479   -5.3928101    1414.0208  0.036057243  0.035651223            4 
 3269000   0.73098235   -5.4164725    1412.5318  0.036008255  0.035642463            7 
 3270000   0.72995714   -5.4234715    1410.1468  0.035936464  0.035633695            7 
 3271000   0.71721212   -5.4141842    1414.0043  0.036023752  0.035624868           11 
 3272000   0.72984662   -5.4011157    1411.6787  0.035953513   0.03561609           13 
 3273000   0.72456349   -5.3965432    1412.8745  0.035972973  0.035607354            6 
 3274000   0.71523713   -5.3987584    1413.4398  0.035976374  0.035598602           11 
 3275000   0.71926793   -5.4069183    1413.0591  0.035955702  0.035589822            5 
 3276000   0.72865365   -5.4296409    1406.6999  0.035782965  0.035580885           10 
 3277000   0.73569193   -5.4244967     1409.873  0.035852736  0.035572027            8 
 3278000   0.72130903   -5.4206323    1409.7362  0.035838322  0.035563309           10 
 3279000   0.72736087   -5.4052173    1409.6355  0.035824832  0.035554526            8 
 3280000   0.72383921   -5.4063755    1412.7211  0.035892305  0.035545701            5 
 3281000   0.71279282   -5.3994411    1411.5772  0.035852311  0.035536982            6 
 3282000   0.72125093   -5.4159647    1411.6889  0.035844223  0.035528196            4 
 3283000   0.73677438   -5.4035827    1414.8283  0.035912993  0.035519529            5 
 3284000   0.72633572   -5.4065808    1414.6304  0.035897035  0.035510813            8 
 3285000   0.73272891   -5.4100738    1410.5576  0.035782789  0.035502041           10 
 3286000   0.71578698   -5.4376205    1410.2721  0.035764661  0.035493318            8 
 3287000   0.71352961   -5.4520442     1410.717   0.03576506  0.035484553           13 
 3288000   0.72826913   -5.4172917    1413.2101  0.035817368  0.035475761           11 
 3289000   0.72787565   -5.4354234    1411.9345  0.035774159  0.035466965            6 
 3290000   0.74221955   -5.4205321    1414.1669   0.03581983   0.03545827            5 
 3291000   0.72247437   -5.4059566       1416.8   0.03587562  0.035449551            8 
 3292000   0.71111271   -5.4075715    1413.3938  0.035778498  0.035440905            4 
 3293000   0.71943817   -5.4312752    1410.7731  0.035701314  0.035432162            9 
 3294000   0.72002936   -5.4524482    1411.5055  0.035709005  0.035423448           11 
 3295000   0.72235736   -5.4328681    1414.2993  0.035768824  0.035414714            9 
 3296000   0.72789831   -5.4362934    1414.9937  0.035775528  0.035405971           11 
 3297000   0.71287829   -5.4375049    1411.2416   0.03566984  0.035397267            8 
 3298000   0.73344682   -5.4113292    1416.3425  0.035787915  0.035388558            5 
 3299000    0.7335034   -5.4265111    1417.2213  0.035799265  0.035379879            8 
 3300000   0.73211797   -5.4204582    1417.1982  0.035787834  0.035371182           15 
 3301000   0.74319748   -5.4184653    1420.4917  0.035860137  0.035362545            5 
 3302000   0.73812742   -5.4280511    1415.4131  0.035721105  0.035353919            9 
 3303000   0.72208508   -5.4345744    1411.6076  0.035614281  0.035345262           11 
 3304000   0.71979585   -5.4301362    1416.8866  0.035736648  0.035336548            5 
 3305000   0.72887826   -5.4412195     1418.992   0.03577892   0.03532788           10 
 3306000    0.7167072   -5.4378756    1415.0507  0.035668752  0.035319208            8 
 3307000   0.71637419   -5.4321527    1422.4741  0.035845028  0.035310539            8 
 3308000   0.71592816   -5.4179158    1417.1027  0.035698879  0.035301886           12 
 3309000   0.71334554   -5.4488785    1414.9194  0.035633106  0.035293206            8 
 3310000   0.72347768   -5.4097523    1417.3043  0.035682384  0.035284486            8 
 3311000   0.72240432   -5.4243812    1415.9599  0.035637772  0.035275831           10 
 3312000   0.72645646   -5.4203893    1418.0644  0.035679963  0.035267139            8 
 3313000   0.71553521    -5.418789    1414.8634  0.035588675  0.035258485            6 
 3314000   0.70453146   -5.4338087    1418.3835  0.035666454  0.035249759           10 
 3315000   0.73231409   -5.4043892    1420.2064  0.035701519  0.035241102            5 
 3316000   0.72474238   -5.4177099    1419.3525  0.035669292  0.035232435            4 
 3317000   0.73071857   -5.4014953    1413.5281  0.035512212  0.035223785           13 
 3318000   0.69925746   -5.4636522    1413.0672  0.035489934  0.035215107            7 
 3319000   0.73345641    -5.416653    1416.0012  0.035552908  0.035206335            7 
 3320000   0.73187966    -5.430177    1420.1159  0.035645479  0.035197652            8 
 3321000   0.71506804   -5.4582256    1416.7556  0.035550428  0.035188969           10 
 3322000   0.69548919   -5.4469332    1415.0388  0.035496659  0.035180296           15 
 3323000   0.72698384   -5.4273931    1418.6297  0.035576029   0.03517159            7 
 3324000   0.73240489   -5.4145377     1417.427  0.035535174  0.035162908            6 
 3325000   0.71526708   -5.4397771    1418.1066  0.035541518  0.035154265           18 
 3326000   0.71976791   -5.4487767    1418.4711  0.035539965  0.035145592           11 
 3327000   0.73327223    -5.462825    1417.4035  0.035502541  0.035136922            4 
 3328000   0.71980993    -5.431841    1421.2342  0.035587794  0.035128257            7 
 3329000   0.73827269   -5.4259076    1417.7356  0.035489525  0.035119624            6 
 3330000   0.71357216   -5.4301279    1415.5594  0.035424409  0.035110944            4 
 3331000   0.71681724   -5.4258525    1419.9017  0.035522408  0.035102233            6 
 3332000   0.70845869   -5.4262498    1418.8814   0.03548623  0.035093482            8 
 3333000   0.71909084   -5.4326516    1419.1864  0.035483209  0.035084832            4 
 3334000   0.72787141   -5.4212224    1421.8038  0.035537987  0.035076194           12 
 3335000   0.71067478   -5.4551812    1417.0272  0.035407976  0.035067622            9 
 3336000   0.72200393   -5.4060095     1422.186   0.03552623  0.035058968            9 
 3337000    0.7257618   -5.4589852    1418.0441  0.035412149  0.035050393            7 
 3338000   0.72591963   -5.4053235    1421.7797  0.035494799  0.035041804           10 
 3339000   0.72068046    -5.421169    1418.7176  0.035407747  0.035033179           10 
 3340000   0.70319492   -5.4208792    1420.1487  0.035432851  0.035024512            6 
 3341000   0.72228045   -5.4395379    1421.4472  0.035454635  0.035015847            5 
 3342000   0.70808491   -5.4246112    1416.4059  0.035318319  0.035007192           11 
 3343000   0.72499756   -5.4201224    1420.9453  0.035420911   0.03499857           10 
 3344000   0.71573721   -5.4283134    1418.3461  0.035345547  0.034989912            5 
 3345000   0.71577716   -5.4558506     1417.903  0.035323942  0.034981218           15 
 3346000   0.71738916   -5.4540065    1416.8797  0.035287898  0.034972503            8 
 3347000   0.71318077   -5.4250032     1419.282  0.035337168  0.034963818            4 
 3348000    0.7181605   -5.4497081     1418.675  0.035311505  0.034955105           13 
 3349000   0.71725661   -5.4456054    1419.2253  0.035314655  0.034946422            7 
 3350000   0.71514781   -5.4331981    1422.1517  0.035376909   0.03493784            8 
 3351000   0.72014177   -5.4577688    1424.1945  0.035417152  0.034929178            3 
 3352000    0.7232862    -5.435708    1421.2554  0.035333516  0.034920541            7 
 3353000   0.71030531   -5.4675776    1422.7489  0.035360099  0.034911906           10 
 3354000   0.71447666   -5.4495763    1423.2437   0.03536185  0.034903255            8 
 3355000   0.70641094   -5.4354992     1422.214  0.035325733  0.034894564           10 
 3356000   0.71829738   -5.4499885     1419.543  0.035248883  0.034885859            6 
 3357000   0.71359287    -5.457871    1418.7281  0.035218154  0.034877222            5 
 3358000   0.72253526   -5.4485849    1422.2837  0.035295904  0.034868571           13 
 3359000   0.71070273   -5.4431535    1420.9401  0.035252063   0.03485991            7 
 3360000   0.71218622   -5.4361369    1425.6015  0.035357179  0.034851347            6 
 3361000    0.7048524   -5.4473628    1419.7009  0.035200359    0.0348427           13 
 3362000   0.71032386   -5.4309661    1424.1976   0.03530135   0.03483412            8 
 3363000   0.71276848   -5.4158049    1421.8849  0.035233543  0.034825496            8 
 3364000   0.69951771   -5.4320384    1423.2635   0.03525722  0.034816878            9 
 3365000   0.69924882   -5.4568599    1422.0236  0.035216038  0.034808247           11 
 3366000   0.72001632   -5.4303469     1417.415   0.03509148  0.034799571            6 
 3367000   0.71037456   -5.4457851    1423.8521  0.035240375  0.034790922           13 
 3368000   0.71201766   -5.4474662    1422.3171  0.035191932  0.034782229            7 
 3369000   0.71354243   -5.4391981    1417.3469  0.035058546  0.034773511            9 
 3370000   0.70703704   -5.4742546    1419.5755  0.035103252  0.034764834            8 
 3371000   0.72686629   -5.4534508    1418.5452  0.035067368   0.03475612            7 
 3372000   0.71551295   -5.4906762    1421.5426  0.035131045   0.03474742           10 
 3373000   0.72299436    -5.469966    1422.4366  0.035142718  0.034738758           11 
 3374000   0.69629599   -5.4543858    1420.3867   0.03508167  0.034730078           10 
 3375000   0.72229137   -5.4460014    1420.5939  0.035076392  0.034721435            4 
 3376000   0.70374829    -5.462505    1421.7328  0.035094114  0.034712816            3 
 3377000   0.71914156   -5.4520428    1420.7346   0.03505909  0.034704174            4 
 3378000   0.71690679   -5.4570901     1420.356  0.035039371  0.034695554           12 
 3379000   0.71565325    -5.446933    1424.8949  0.035140942  0.034686889            6 
 3380000   0.70557523   -5.4469541    1419.5748  0.034999378   0.03467828           11 
 3381000   0.71574392    -5.458242    1421.2471  0.035030245  0.034669649            4 
 3382000   0.72017658   -5.4403751    1423.3245  0.035071075  0.034661007            7 
 3383000    0.7112692   -5.4792525    1422.4152  0.035038309  0.034652335            8 
 3384000   0.71377529   -5.4569214    1425.2701  0.035098259  0.034643683           10 
 3385000   0.71854205   -5.4598366     1422.135   0.03501071  0.034635029            7 
 3386000   0.70355329   -5.4658368    1422.9473  0.035020361   0.03462638            6 
 3387000   0.70205638   -5.4419336    1424.3782  0.035045226  0.034617768            8 
 3388000    0.7297377   -5.4480814    1419.2019  0.034907563  0.034609078            9 
 3389000    0.7067148   -5.4784163    1417.3374  0.034851415  0.034600417           10 
 3390000   0.71674734   -5.4547888    1423.2889  0.034987436  0.034591693            7 
 3391000   0.71256655   -5.4379228    1423.0215  0.034970548  0.034583006            5 
 3392000   0.72447999   -5.4905173    1422.4725  0.034946751  0.034574271            5 
 3393000    0.7047746   -5.4666156    1419.8286  0.034871514  0.034565612           12 
 3394000   0.70344083   -5.4573493    1425.9258  0.035010947  0.034556962            7 
 3395000   0.69963191   -5.4548031     1426.584  0.035016789  0.034548348            6 
 3396000   0.70275145   -5.4684566    1423.5972  0.034933186  0.034539702           10 
 3397000   0.69073993   -5.4786905    1421.6751  0.034875752  0.034531104            9 
 3398000   0.70252652   -5.4656762    1425.5133  0.034959616  0.034522414            7 
 3399000    0.7173966   -5.4557643     1425.819  0.034956826  0.034513773            8 
 3400000   0.70552176   -5.4710438    1421.0732  0.034830226   0.03450511            8 
 3401000   0.71705098   -5.4474706    1419.5467  0.034782581  0.034496404            8 
 3402000   0.69844074   -5.4691043    1422.2552  0.034838702   0.03448764           15 
 3403000   0.70847067   -5.4495732    1423.7099  0.034864088   0.03447898            8 
 3404000   0.71638629   -5.4694016    1427.0842  0.034936452  0.034470327            5 
 3405000   0.72440756   -5.4726953    1421.2872  0.034784316  0.034461639           22 
 3406000    0.6897173   -5.4638895    1425.4553  0.034876084  0.034452992           12 
 3407000   0.70286668   -5.4735341    1423.3011  0.034813158  0.034444299           13 
 3408000   0.72652802   -5.4712653    1420.2579  0.034728529  0.034435645            9 
 3409000   0.69980181   -5.4634233    1426.8504  0.034879496  0.034426993            7 
 3410000   0.71990688    -5.492791     1422.908  0.034772924  0.034418321           14 
 3411000   0.70354359   -5.4608066    1425.7559  0.034832306   0.03440969            7 
 3412000   0.70363298   -5.4820972     1425.751  0.034821977  0.034401045            6 
 3413000   0.70219225   -5.4670822    1423.7131  0.034762014  0.034392379           12 
 3414000   0.71177131    -5.483856    1421.0214   0.03468613  0.034383724            8 
 3415000    0.6933517   -5.4647777    1424.8394  0.034769141  0.034375058            6 
 3416000   0.71447659   -5.4665593    1426.9898  0.034811423  0.034366388            8 
 3417000    0.7083229   -5.4834533    1423.3504  0.034712476  0.034357698           11 
 3418000   0.69971076   -5.4763521    1426.7475  0.034785145  0.034349013           28 
 3419000   0.69876284   -5.4483232    1426.8976  0.034778628   0.03434029           12 
 3420000   0.69493136   -5.4479863    1428.6636  0.034811491  0.034331671            9 
 3421000   0.71457851   -5.4598552      1427.13  0.034763959  0.034323001           12 
 3422000   0.72513141   -5.4800854    1423.9498  0.034676355  0.034314345           12 
 3423000   0.69580367   -5.4913907    1424.3052  0.034674877  0.034305638            6 
 3424000   0.70197025   -5.4390811    1425.8552  0.034702473  0.034296953            3 
 3425000   0.70868012    -5.463749     1423.698  0.034639853  0.034288304           11 
 3426000   0.69735151   -5.4336734    1429.6751  0.034775128  0.034279642           15 
 3427000   0.70341097   -5.4721539    1425.5021  0.034663507  0.034271029           15 
 3428000   0.70010308   -5.4783678    1424.4149  0.034626967   0.03426236           12 
 3429000   0.70028308   -5.4755301    1423.4915  0.034594428  0.034253615            8 
 3430000   0.69379514   -5.4567332    1425.0346  0.034621832  0.034244949            4 
 3431000   0.71842529   -5.4443831    1426.9029  0.034657118  0.034236299           10 
 3432000   0.69333128   -5.4422504    1427.5155  0.034661895  0.034227697            4 
 3433000   0.71101792   -5.5143767     1425.073  0.034592509  0.034219011           12 
 3434000   0.70641104    -5.473841    1426.1308  0.034608105  0.034210303           11 
 3435000    0.7142562   -5.5099987    1423.7267  0.034539707  0.034201644            5 
 3436000   0.69615128   -5.4653052    1427.6306  0.034624336  0.034192972            8 
 3437000   0.70535066   -5.5007975    1421.8538  0.034474198  0.034184269            9 
 3438000   0.70208705   -5.4694385    1424.8098  0.034535821  0.034175588            4 
 3439000   0.70508355    -5.495311    1429.5601  0.034640885  0.034166897            8 
 3440000   0.71211376    -5.473852    1426.3619  0.034553341   0.03415826            7 
 3441000   0.70777678   -5.4568315    1425.5509  0.034523657  0.034149689            8 
 3442000    0.7021022   -5.4732501    1424.1149  0.034478862   0.03414106            7 
 3443000   0.70525158   -5.4559872    1424.4811   0.03447771  0.034132418            7 
 3444000   0.69570656     -5.49448    1428.2253  0.034558296  0.034123778            6 
 3445000   0.70349062   -5.4876721    1425.7926  0.034489419  0.034115178            9 
 3446000   0.70005547   -5.4612988    1428.9329  0.034555352  0.034106537           14 
 3447000   0.71479575   -5.4865455    1426.8343  0.034494591  0.034097896           12 
 3448000   0.70591399   -5.4918154    1423.6665  0.034408027  0.034089225            4 
 3449000   0.69065229   -5.4831284     1430.873  0.034572172  0.034080631            4 
 3450000   0.69628973   -5.4879225    1427.1488  0.034472194  0.034072017            7 
 3451000   0.69766159   -5.4773482    1428.1898  0.034487342  0.034063443           17 
 3452000   0.68670968   -5.4709586    1427.3861   0.03445795  0.034054873            5 
 3453000   0.70895049   -5.4580059    1428.3478   0.03447118  0.034046287            8 
 3454000   0.70664784   -5.4650897    1432.7072  0.034566376  0.034037654            9 
 3455000   0.70957313   -5.4743615    1427.3814  0.034427916   0.03402902           10 
 3456000   0.71020282   -5.4686529    1428.6855  0.034449399  0.034020448            9 
 3457000   0.71255707   -5.4793052    1428.0636  0.034424444  0.034011839           10 
 3458000   0.71278498   -5.4868881    1428.1936  0.034417621  0.034003246            7 
 3459000   0.70743791    -5.480433    1424.6766   0.03432294  0.033994625            8 
 3460000   0.69737024    -5.477994    1429.2609  0.034423433  0.033986028            5 
 3461000   0.70489139   -5.5033376    1425.0206  0.034311389  0.033977412            7 
 3462000   0.69347098   -5.4937741    1427.2908  0.034356124   0.03396878           14 
 3463000   0.68920675   -5.4825861    1429.0098  0.034387568  0.033960154            6 
 3464000   0.68538671   -5.4687561    1430.9217  0.034423636  0.033951537            8 
 3465000   0.67933119   -5.4629023     1430.887  0.034412866   0.03394295            9 
 3466000   0.69773224   -5.4960767    1428.3287  0.034341429  0.033934413            6 
 3467000   0.70143093    -5.448326    1426.4352   0.03428601  0.033925809           15 
 3468000   0.68827321   -5.4884529    1429.3579  0.034346355  0.033917226            8 
 3469000   0.70668977   -5.4726732    1431.6929  0.034392547  0.033908623            9 
 3470000   0.69915686   -5.5170271    1426.3027  0.034253187       0.0339           10 
 3471000   0.70753561   -5.4927792    1429.2023  0.034312934  0.033891349            7 
 3472000   0.68827535   -5.4900578     1428.402  0.034283842   0.03388269            8 
 3473000   0.69368597   -5.4749734    1428.3116  0.034271801  0.033874031            7 
 3474000   0.69036734   -5.4798869    1430.6196    0.0343173  0.033865349            6 
 3475000   0.70272066   -5.4967354    1424.1159  0.034151461  0.033856703            4 
 3476000   0.68128419   -5.4807398    1431.3157  0.034314242  0.033848022            8 
 3477000   0.69634429   -5.4893151    1428.6871  0.034241374  0.033839381            8 
 3478000   0.69605464   -5.4811463    1426.1084  0.034169742  0.033830709           12 
 3479000   0.68758526   -5.5076715     1426.474   0.03416868  0.033822039            9 
 3480000   0.69851976   -5.5048451      1426.58  0.034161398  0.033813334           13 
 3481000   0.70402597   -5.4903943    1427.1585  0.034165433  0.033804702           12 
 3482000    0.6865325   -5.4825984    1427.4052  0.034161525  0.033795994           10 
 3483000   0.69031719   -5.4673852    1427.7252  0.034159374  0.033787307           11 
 3484000   0.69525235   -5.4808774    1427.3386  0.034140323  0.033778667           12 
 3485000    0.6883389    -5.482327    1426.7875  0.034117348  0.033770009           10 
 3486000   0.69909921   -5.5006546    1426.1306  0.034091857  0.033761301           14 
 3487000   0.68253401   -5.4909437    1429.0577  0.034152034  0.033752556           11 
 3488000   0.69025358   -5.5106592    1425.9002  0.034066805  0.033743855           10 
 3489000   0.67949274   -5.4888818    1427.6866  0.034099708  0.033735167            7 
 3490000    0.6916502   -5.4742044    1426.1985  0.034054405   0.03372655           17 
 3491000   0.68951976   -5.4906192    1429.5919  0.034125653  0.033717835           13 
 3492000   0.69228168   -5.4966027    1427.5641  0.034067491  0.033709156           26 
 3493000   0.69140772    -5.474686    1429.7425  0.034109706  0.033700538            7 
 3494000   0.68006785   -5.5077501     1430.359  0.034114648  0.033691855           19 
 3495000   0.70730967   -5.4908907    1427.2608  0.034031016   0.03368318           10 
 3496000    0.7004624   -5.4873354    1428.9456  0.034061442  0.033674471            9 
 3497000   0.70150583   -5.4912057    1431.6946   0.03411721  0.033665822            7 
 3498000   0.68385656   -5.4968695    1428.8261  0.034039119  0.033657157           10 
 3499000   0.69363606    -5.501641    1429.7794  0.034052095  0.033648512           18 
 3500000   0.69427078   -5.4641971    1436.9548  0.034213208  0.033639953           13 
 3501000   0.69145545   -5.4811024    1434.8124  0.034152442  0.033631367            6 
 3502000   0.68090638   -5.4928858     1429.489  0.034016015  0.033622769            8 
 3503000   0.66640628   -5.4930389    1428.4967  0.033982698  0.033614168            4 
 3504000   0.68237447   -5.5140665    1428.9777  0.033984438  0.033605556            7 
 3505000    0.7016944   -5.5014897    1430.9511  0.034021661  0.033596887            8 
 3506000   0.69991018    -5.482601    1432.4109  0.034046657   0.03358828           19 
 3507000    0.6773031   -5.4914568    1429.1248  0.033958864  0.033579748            9 
 3508000   0.69732209   -5.4827688    1428.2529   0.03392847  0.033571164           12 
 3509000   0.70381161   -5.4730312    1436.8673  0.034123381  0.033562656            7 
 3510000   0.68495217   -5.4950883    1429.3944  0.033936239  0.033554049            9 
 3511000   0.68312243    -5.507501    1428.3009  0.033900621  0.033545387           12 
 3512000   0.70459212   -5.4903587     1429.163  0.033911422  0.033536717           12 
 3513000   0.70325745   -5.5216892    1429.0127  0.033898205  0.033528046            9 
 3514000   0.68848943   -5.5030639    1426.9932  0.033840667  0.033519379           13 
 3515000   0.70099727    -5.516981    1430.8462  0.033922386  0.033510743            8 
 3516000    0.6730389    -5.492871    1430.5126  0.033904831  0.033502127           14 
 3517000   0.68068898   -5.5309633    1428.9716  0.033858677  0.033493451           10 
 3518000    0.7137025   -5.4938709    1429.3232  0.033857382  0.033484816           22 
 3519000   0.69075346    -5.498023    1430.9366  0.033885968  0.033476157           17 
 3520000     0.693751   -5.5312639     1429.774  0.033848816  0.033467511            9 
 3521000   0.67878547   -5.4962391    1432.0507  0.033893087  0.033458837            6 
 3522000   0.69350327   -5.5286254    1426.5191  0.033752583  0.033450177            8 
 3523000   0.69157402    -5.491178    1427.8125  0.033773596  0.033441551            9 
 3524000   0.67081645   -5.5131495    1429.4858  0.033803579  0.033432938           10 
 3525000    0.6877114   -5.5123802    1429.0871  0.033784566  0.033424349           10 
 3526000   0.69079692   -5.5201923    1429.6392  0.033788031  0.033415744            4 
 3527000   0.70519554   -5.5065102    1432.6392  0.033849333  0.033407157            8 
 3528000   0.70370324    -5.532858    1430.5153  0.033789571  0.033398545            9 
 3529000   0.70240556   -5.5113777    1433.2777  0.033845229  0.033389938           12 
 3530000   0.69426576   -5.4831991    1431.9419  0.033804105  0.033381297            9 
 3531000   0.68127029   -5.5256097    1430.1352  0.033751892   0.03337266           23 
 3532000   0.69705016   -5.4935615    1430.6157  0.033753673  0.033364018            8 
 3533000   0.68335052   -5.5160985    1429.3723  0.033714791   0.03335537            6 
 3534000   0.70116468   -5.5103154     1430.763  0.033738044  0.033346684           11 
 3535000   0.69089027   -5.5034121    1433.0651   0.03378277  0.033338059            8 
 3536000   0.68630359   -5.4997302    1432.7461  0.033765698  0.033329429            7 
 3537000   0.69055544    -5.514388     1431.076  0.033716802  0.033320833           21 
 3538000   0.67377488   -5.4916607    1432.9573  0.033751585  0.033312175           20 
 3539000   0.68706317   -5.4967884    1431.5875  0.033709792  0.033303534            8 
 3540000   0.67843832   -5.4821614    1431.8598   0.03370668  0.033294941            7 
 3541000   0.69138216   -5.4969429    1430.9718  0.033676264   0.03328635           10 
 3542000   0.68817237   -5.5083498    1428.6496  0.033612121  0.033277772            7 
 3543000   0.68258101   -5.5024911    1432.6478  0.033696675  0.033269185           10 
 3544000   0.68217849   -5.4999323    1430.4033  0.033634389  0.033260619           10 
 3545000   0.67541194   -5.5183925    1431.1681  0.033642879  0.033252027            5 
 3546000   0.68356201   -5.5024275    1434.8784  0.033720586  0.033243443           11 
 3547000   0.66813316   -5.5161315    1436.3158   0.03374485  0.033234874           12 
 3548000    0.6856016   -5.5175019    1431.2778  0.033617009  0.033226297           24 
 3549000   0.67789674   -5.4949952     1434.216  0.033676528  0.033217727           10 
 3550000   0.69557295   -5.4901659    1433.9104   0.03365987  0.033209228           11 
 3551000   0.67746668   -5.5208284    1431.9859  0.033605227  0.033200677            8 
 3552000   0.67755226    -5.510489    1428.1505  0.033505784  0.033192093            8 
 3553000   0.68404038   -5.5046889    1432.1764  0.033590778  0.033183522            3 
 3554000    0.7030275   -5.5091913    1434.3003  0.033631127   0.03317499            8 
 3555000   0.68557077   -5.5277771    1429.3325  0.033505217  0.033166416           10 
 3556000   0.69058742   -5.5330244    1431.8785  0.033555458  0.033157828           10 
 3557000   0.69038182   -5.5344795    1429.6816  0.033494555  0.033149213           10 
 3558000   0.68106444   -5.5464208    1428.8905  0.033466613   0.03314062            7 
 3559000   0.66237309   -5.5220586    1434.6427  0.033591896   0.03313203            7 
 3560000   0.69100537   -5.5218585    1431.4794  0.033508413  0.033123467            9 
 3561000   0.67592738   -5.5151482    1436.9038  0.033625943  0.033114912            9 
 3562000   0.70293102    -5.519235    1431.6918  0.033494567  0.033106364            6 
 3563000    0.6816361   -5.5280798    1433.3535  0.033524032  0.033097787           11 
 3564000   0.67173315   -5.5201599    1432.9157  0.033504389  0.033089237           13 
 3565000   0.68818166    -5.535272    1429.7277  0.033420471  0.033080683           23 
 3566000   0.69037849    -5.520982    1433.2867  0.033494268  0.033072108            6 
 3567000   0.67872331    -5.518145    1434.3526   0.03350978  0.033063545            7 
 3568000    0.6889429   -5.5107722    1428.6915  0.033368169  0.033054991           14 
 3569000   0.67824184   -5.4883168    1434.3845  0.033491746  0.033046476           14 
 3570000   0.68023641   -5.5073391    1431.9695  0.033425993  0.033037864            8 
 3571000   0.67781568   -5.5164811    1430.2986  0.033377638  0.033029245            8 
 3572000   0.68316816   -5.5358169    1434.5012  0.033466341  0.033020627            9 
 3573000    0.6880399   -5.5009489    1438.8058  0.033557371   0.03301209           12 
 3574000   0.67693177   -5.5262746    1435.5233  0.033471445  0.033003529            4 
 3575000   0.68265119   -5.5526004    1431.7556  0.033374256  0.032994921            9 
 3576000   0.67645069   -5.5327461     1431.008  0.033347503  0.032986275            7 
 3577000   0.68236927   -5.5264608    1434.0799  0.033409746  0.032977666            9 
 3578000   0.67661405   -5.5070941    1429.8099  0.033300958  0.032969045            5 
 3579000   0.67998941   -5.5442059    1432.8849   0.03336325  0.032960448           12 
 3580000   0.68868351   -5.5462924    1433.3154  0.033363953  0.032951826           13 
 3581000   0.69151419   -5.5003403    1435.2552  0.033399776  0.032943219           23 
 3582000   0.68497204   -5.5390336    1431.0471  0.033292553  0.032934619           21 
 3583000   0.66133453   -5.5368364    1439.7563  0.033485819  0.032926032           12 
 3584000   0.67656687   -5.5355349    1430.5911  0.033263372  0.032917415           11 
 3585000   0.67110912   -5.5471353    1433.8607  0.033330096  0.032908807           12 
 3586000   0.69721415   -5.5221312    1435.5004  0.033358906  0.032900215           16 
 3587000   0.67229014   -5.5452063    1432.3063  0.033275399  0.032891626           18 
 3588000   0.67463386   -5.5345992    1429.9093  0.033210453  0.032883001            6 
 3589000   0.67490745    -5.540056     1434.439  0.033306376  0.032874406            7 
 3590000   0.67664855   -5.5165256    1431.7438  0.033234536   0.03286581            8 
 3591000   0.68038611   -5.5465826    1426.8674  0.033112118  0.032857182            6 
 3592000   0.67026035   -5.5270716    1431.5382  0.033211261  0.032848568           16 
 3593000   0.67665548   -5.5288718    1434.0885  0.033261167  0.032839958            7 
 3594000   0.66053088   -5.5372375    1429.0977  0.033136193  0.032831326           10 
 3595000   0.67805572   -5.5335594    1433.6905  0.033233439  0.032822737            8 
 3596000   0.68301796   -5.5315544    1434.7815  0.033249478  0.032814163           12 
 3597000   0.68622426     -5.53495    1436.0432  0.033269466  0.032805578            5 
 3598000   0.66139572   -5.5377502    1433.4447  0.033200034  0.032797019            8 
 3599000    0.6772545   -5.5145556    1435.1217   0.03322964  0.032788463           11 
 3600000   0.68098139   -5.5281219    1431.5777  0.033138373  0.032779864            6 
 3601000   0.67244071   -5.5185783    1436.6628  0.033246849  0.032771315           12 
 3602000   0.67125256   -5.5274323    1435.0118  0.033199421  0.032762768           10 
 3603000   0.69120862   -5.5354764    1434.4115  0.033176324   0.03275416           12 
 3604000   0.66177264   -5.5203421    1434.7556  0.033175074  0.032745608           10 
 3605000   0.66638848   -5.5250606    1436.6711   0.03321015  0.032737068           12 
 3606000   0.68876337   -5.5464417    1433.7771  0.033134061  0.032728578           19 
 3607000   0.67113028   -5.5337177    1434.9864  0.033152815  0.032720016           14 
 3608000   0.67217695   -5.5519638    1433.5857  0.033111274  0.032711443            7 
 3609000   0.66906312   -5.5414956    1437.4474  0.033191268   0.03270286            9 
 3610000   0.68774302    -5.524914    1435.6346  0.033140225   0.03269434            6 
 3611000   0.66353503   -5.5425203    1433.4499  0.033080632  0.032685812           10 
 3612000   0.66183639   -5.5188141    1437.6441  0.033168237  0.032677277           11 
 3613000   0.67243139   -5.5355581    1435.1458  0.033101434  0.032668759           10 
 3614000   0.67164032   -5.5518401    1434.6573  0.033081012    0.0326602            9 
 3615000   0.66908285   -5.5317043    1434.1856  0.033060987  0.032651601           11 
 3616000   0.67766356   -5.5344129    1439.5948  0.033176502  0.032643061           20 
 3617000   0.67340197   -5.5213619    1440.2074  0.033181444  0.032634576           17 
 3618000   0.66497298   -5.5278763    1436.1426  0.033078649  0.032626096           18 
 3619000   0.67294876   -5.5600016    1435.0314  0.033043922  0.032617579           11 
 3620000   0.67444619   -5.5204111    1439.5993  0.033139948  0.032609087           23 
 3621000   0.67178075   -5.5183213    1436.0248  0.033048533  0.032600633           15 
 3622000   0.66650335   -5.5564293    1437.9054  0.033082676  0.032592163           14 
 3623000    0.6788496   -5.5692091    1430.6807  0.032907367  0.032583604            9 
 3624000   0.67454929   -5.5289575     1438.931  0.033088001  0.032575114           11 
 3625000   0.67376014   -5.5133861    1440.6651  0.033118738   0.03256662           13 
 3626000   0.67954885   -5.5314192    1436.1838  0.033006615  0.032558156            5 
 3627000   0.66744495   -5.5430029    1440.4295  0.033095061  0.032549678           17 
 3628000   0.67034541    -5.530237    1438.4837  0.033041247  0.032541212            7 
 3629000   0.67643793   -5.5134761    1440.4275  0.033076777  0.032532774            5 
 3630000   0.66635373   -5.5342752    1439.3774  0.033043558  0.032524377           10 
 3631000   0.68565266   -5.5314087    1439.5477  0.033038367  0.032515985           10 
 3632000   0.67606663   -5.5419695    1436.2691  0.032954044  0.032507539           21 
 3633000   0.66097089   -5.5625792    1437.2774  0.032968102  0.032499071           10 
 3634000   0.67241198   -5.5273581    1437.1265  0.032955569  0.032490574           12 
 3635000   0.67218706   -5.5405911    1437.9523  0.032965435  0.032482095           11 
 3636000   0.67129834   -5.5602589    1440.4363    0.0330133  0.032473683            5 
 3637000   0.67152977   -5.5679092    1437.5323  0.032937683  0.032465157           17 
 3638000   0.67116602   -5.5489279    1435.8272  0.032889573  0.032456691           26 
 3639000    0.6594282   -5.5197403    1441.0278  0.032999629  0.032448217            6 
 3640000   0.66280819   -5.5622897    1439.1262  0.032947029  0.032439771            9 
 3641000   0.65214147   -5.5348769    1438.7155   0.03292858  0.032431305           12 
 3642000   0.66812047   -5.5573567    1438.3362  0.032910859  0.032422848           25 
 3643000   0.66723646   -5.5482184    1436.0965  0.032850591   0.03241444           23 
 3644000   0.66112593   -5.5464929     1436.877  0.032859425  0.032406001           18 
 3645000   0.68234479   -5.5526261    1439.2509  0.032904684   0.03239749           14 
 3646000   0.66449701    -5.570601    1436.1975  0.032825872  0.032389007            5 
 3647000   0.65943002   -5.5787725     1435.411    0.0327989  0.032380531           11 
 3648000   0.66407752   -5.5141787    1442.9467   0.03296205  0.032372068            8 
 3649000   0.67085629   -5.5576773    1434.2851  0.032755208  0.032363595           10 
 3650000   0.66690795   -5.5551255    1441.3336  0.032907159  0.032355088            7 
 3651000    0.6705895   -5.5504169    1436.5293  0.032788489  0.032346597            9 
 3652000   0.66267017   -5.5475803    1438.8286  0.032831977  0.032338133            8 
 3653000   0.67610383   -5.5281228    1439.1898   0.03283123  0.032329701            5 
 3654000   0.66527013   -5.5629338    1438.5318  0.032807239  0.032321251           10 
 3655000   0.65721641   -5.5556622    1440.6033  0.032845493  0.032312821            8 
 3656000   0.67471727   -5.5654283    1435.2701  0.032714946  0.032304373           16 
 3657000   0.66526583   -5.5403695    1441.3738  0.032845088  0.032295959           15 
 3658000   0.66738504   -5.5438333    1442.1953  0.032854822  0.032287518           12 
 3659000   0.66980929   -5.5500115    1438.9166  0.032771172  0.032279058            7 
 3660000   0.65731454   -5.5751056    1438.6337  0.032755777  0.032270674            7 
 3661000   0.64180887    -5.558119    1442.0179  0.032823861  0.032262309           11 
 3662000   0.65597794   -5.5739219    1438.1891   0.03272777  0.032253976            6 
 3663000   0.66879359     -5.55721    1441.4437  0.032792877  0.032245646            7 
 3664000   0.67399981   -5.5461821    1444.7942   0.03286013  0.032237327            8 
 3665000   0.66676733   -5.5455172    1441.1289  0.032767823  0.032229017            8 
 3666000   0.66532153   -5.5763102    1437.6662  0.032680174  0.032220614           10 
 3667000   0.66487241   -5.5436079    1440.3121  0.032731389  0.032212283           13 
 3668000   0.65367195   -5.5629498    1438.7526  0.032687035  0.032203954           13 
 3669000   0.67784933    -5.558055    1443.8256   0.03279335  0.032195634            6 
 3670000   0.66969952   -5.5455334    1440.8072  0.032715876  0.032187273            9 
 3671000    0.6533242   -5.5332577    1444.0092  0.032779651  0.032178925            6 
 3672000    0.6573731   -5.5492942    1444.9234  0.032791471  0.032170591            9 
 3673000   0.65863605   -5.5447668    1444.5145  0.032773267  0.032162283            5 
 3674000   0.66588591   -5.5677783     1443.095  0.032732149  0.032153987            9 
 3675000   0.65723497   -5.5704418    1439.8865  0.032650488  0.032145585           20 
 3676000   0.66314089   -5.5769483    1439.2537  0.032627261  0.032137187           11 
 3677000   0.66326094   -5.5486618    1440.6195  0.032649341  0.032128768           27 
 3678000   0.66097015   -5.5489431    1439.0183  0.032604185  0.032120355            7 
 3679000   0.67750441   -5.5711368    1439.4512  0.032605129  0.032111972           14 
 3680000   0.66972437   -5.5764692     1440.746   0.03262559  0.032103568            8 
 3681000   0.67169791   -5.5709706    1439.9929  0.032599676   0.03209515            9 
 3682000   0.66183181   -5.5467032    1444.0356   0.03268232  0.032086802           12 
 3683000   0.66038322   -5.5733791    1438.7196  0.032553162  0.032078389           17 
 3684000   0.65027147   -5.5946648    1439.4457  0.032560751  0.032069954           29 
 3685000   0.66477074   -5.5794876    1436.9612  0.032495731  0.032061581           18 
 3686000   0.66169471   -5.5539229    1440.8234  0.032574231  0.032053195           10 
 3687000   0.65916721   -5.5811264    1440.9379  0.032567984  0.032044823            9 
 3688000   0.66504315   -5.5764417    1440.9926  0.032560389   0.03203648           10 
 3689000   0.66823174   -5.5377208    1443.4812   0.03260778  0.032028158           10 
 3690000   0.66028357   -5.5487521    1442.3842  0.032574168   0.03201985            7 
 3691000   0.66969642   -5.5852844    1439.6769  0.032504219  0.032011531           11 
 3692000   0.66259996   -5.5590746    1443.0623   0.03257183  0.032003205           12 
 3693000   0.65669821   -5.5222337     1448.153  0.032677881  0.031994942            6 
 3694000    0.6583667   -5.5756478    1441.3225  0.032514946  0.031986626           11 
 3695000   0.67388156   -5.5525641    1440.4995  0.032487585  0.031978293           22 
 3696000   0.67348205    -5.588819    1439.0837  0.032446873  0.031969965            7 
 3697000   0.65552292   -5.5525555    1443.2814  0.032532716  0.031961647           17 
 3698000   0.64592055   -5.5870305    1443.3092  0.032524544  0.031953355           12 
 3699000   0.65647506   -5.5550789    1443.0426  0.032509745  0.031945015            5 
 3700000   0.66094087   -5.5715335    1438.6605  0.032402263   0.03193669           22 
 3701000   0.67060611   -5.5812556    1442.9907  0.032491009  0.031928313           18 
 3702000   0.66594407   -5.5721537    1443.0322  0.032483167  0.031919984            9 
 3703000   0.66308893   -5.5857178    1442.3515  0.032459075  0.031911684            5 
 3704000   0.66817308   -5.5747222    1441.9128  0.032440443  0.031903331           10 
 3705000   0.65743585   -5.5818791    1440.2509  0.032394307  0.031894993           12 
 3706000    0.6603032    -5.572971    1443.7721  0.032464744  0.031886654            9 
 3707000   0.67043267   -5.5851876    1441.0621  0.032395066  0.031878303           21 
 3708000   0.65152076   -5.6016414    1442.5478  0.032419719  0.031869958           10 
 3709000   0.66257172   -5.5475046    1442.5847  0.032411806  0.031861657            8 
 3710000     0.654935   -5.5777192    1442.1359  0.032392991  0.031853311           12 
 3711000   0.65699523   -5.5594841    1446.1062  0.032473416  0.031845015            7 
 3712000   0.66160002   -5.5642557    1442.2631  0.032378393  0.031836754            9 
 3713000   0.64531468   -5.5780983    1442.5625  0.032376392  0.031828439           11 
 3714000   0.65804935   -5.5723062     1440.754  0.032327097   0.03182013           18 
 3715000   0.66103188   -5.5677267    1444.9044  0.032411494  0.031811842           18 
 3716000    0.6652751   -5.5294983     1448.759  0.032489214  0.031803572           11 
 3717000   0.66284004   -5.5476896    1447.5057  0.032452375  0.031795332           12 
 3718000   0.65279058   -5.5495129    1443.2527   0.03234832  0.031787083           14 
 3719000   0.65050534   -5.5650704    1443.7377   0.03235049  0.031778816           17 
 3720000   0.67161599   -5.5467848    1444.4382  0.032357486  0.031770556           10 
 3721000   0.66545994   -5.5535629    1445.2163  0.032366217  0.031762265           14 
 3722000   0.66541351   -5.5837169    1441.5004  0.032274325  0.031754005           11 
 3723000   0.65564909   -5.6010755    1441.5718  0.032267252  0.031745698           13 
 3724000   0.63235642   -5.6094873    1441.6986  0.032261425  0.031737326           12 
 3725000   0.64965911   -5.5834833    1441.3034  0.032243925  0.031728976           26 
 3726000   0.62497932   -5.5663482    1443.7493  0.032289974  0.031720659           11 
 3727000   0.66276948   -5.5848912    1442.5911  0.032255413  0.031712359           20 
 3728000   0.66581249   -5.5975646    1441.1727  0.032215054  0.031704075           27 
 3729000   0.65275252   -5.6009956    1441.1805  0.032206589  0.031695712            8 
 3730000   0.65507132   -5.5718576    1442.1433  0.032219466  0.031687373            5 
 3731000   0.65540582   -5.5892979    1443.2041  0.032234523  0.031679083            8 
 3732000   0.64662647   -5.6040255     1442.329  0.032206347  0.031670776           11 
 3733000   0.66324023   -5.5777273    1446.7313  0.032295992  0.031662453           11 
 3734000   0.64750261   -5.5970326    1442.4003  0.032190688  0.031654159           20 
 3735000   0.66249567   -5.5862724     1444.168  0.032221507   0.03164584           16 
 3736000   0.65102041   -5.5745747    1444.8445  0.032227973  0.031637576            8 
 3737000   0.66728101   -5.5807603    1444.6377  0.032214738  0.031629314            8 
 3738000   0.64320963   -5.5648948    1445.4065  0.032223259  0.031621042           17 
 3739000   0.65558683   -5.5850921    1447.0388   0.03225102  0.031612807            7 
 3740000    0.6596424   -5.5684098    1447.7793  0.032258896   0.03160466           19 
 3741000   0.65794178   -5.5687032    1442.9014  0.032141615  0.031596457            7 
 3742000   0.65877551   -5.5777618    1445.3698  0.032187997   0.03158823           20 
 3743000   0.65230684   -5.5737517    1444.1274  0.032151737  0.031579989           11 
 3744000     0.656074   -5.5876276     1445.949  0.032183695  0.031571715            7 
 3745000   0.66252957   -5.6054008    1446.0697  0.032177785  0.031563457           21 
 3746000   0.64750451   -5.5962064    1444.9257  0.032143746  0.031555195           25 
 3747000   0.66248721   -5.5798877    1448.1747  0.032207426  0.031546933           11 
 3748000   0.64635207   -5.5778129    1446.5283  0.032162226   0.03153869           14 
 3749000   0.65045732   -5.5727714    1444.3433  0.032105078  0.031530427           14 
 3750000   0.65401563    -5.561903    1441.5484  0.032034409  0.031522194            9 
 3751000   0.65650868   -5.5786079      1447.14  0.032150094  0.031513935           10 
 3752000   0.64834545   -5.5676979    1448.6248  0.032174502  0.031505751            7 
 3753000   0.63693455   -5.6091224    1445.9617  0.032106797  0.031497544           13 
 3754000   0.65699085   -5.5822726    1446.7966  0.032116778  0.031489286            8 
 3755000    0.6563091   -5.6017307     1444.094  0.032048246  0.031481006            9 
 3756000   0.64069646   -5.6121082    1443.5692  0.032028071  0.031472735            5 
 3757000   0.65715875   -5.5871268    1447.3448  0.032103292  0.031464505           26 
 3758000   0.66521177   -5.5899442    1446.1716  0.032068732  0.031456304           30 
 3759000   0.62641601   -5.6091464    1443.8181  0.032008027  0.031448033           12 
 3760000   0.64256726   -5.5807785    1448.0753  0.032093867  0.031439777           11 
 3761000   0.65042739   -5.5819684    1445.1924  0.032021456  0.031431605            5 
 3762000   0.62877672   -5.5899131    1445.5436  0.032020724  0.031423375           14 
 3763000   0.63716192   -5.6005154    1444.5486   0.03199018  0.031415132            9 
 3764000   0.65506482   -5.5710039    1446.3869  0.032022381  0.031406919           28 
 3765000   0.64730512   -5.6019451    1443.6511  0.031953322  0.031398732           21 
 3766000   0.66129737   -5.5791264    1446.7649  0.032013739  0.031390541           49 
 3767000   0.65032477   -5.5813802    1445.8135  0.031984195  0.031382372           14 
 3768000   0.64130491   -5.5655721    1447.8156  0.032019984  0.031374196            6 
 3769000   0.66101488   -5.5781403    1450.5421  0.032071771  0.031366027            8 
 3770000   0.65210162   -5.5906885    1448.3934  0.032015769  0.031357813            8 
 3771000   0.64753914   -5.6062484    1442.7836  0.031883311  0.031349563           18 
 3772000   0.65764905   -5.6064385    1447.1339  0.031970969   0.03134136           22 
 3773000   0.64372416   -5.6098971    1444.8099  0.031911165  0.031333114           30 
 3774000   0.66639249   -5.5855396    1446.8628  0.031948039  0.031324926           12 
 3775000   0.64505939   -5.5974516    1446.6379  0.031934612    0.0313167           13 
 3776000   0.64378048    -5.608184    1445.3956  0.031898738  0.031308454            8 
 3777000   0.65221504   -5.5802588    1446.6958  0.031918978  0.031300202           16 
 3778000   0.65367362   -5.5789287    1445.7978  0.031890723  0.031291983           14 
 3779000   0.64527247   -5.6266596    1445.9684  0.031886047  0.031283754           15 
 3780000   0.64031143   -5.5989204    1444.3176  0.031841216  0.031275468           10 
 3781000   0.63448531   -5.5867944    1447.7604  0.031908675  0.031267229           19 
 3782000   0.64526102   -5.6209724    1443.3544  0.031803155  0.031258962           12 
 3783000   0.64079432   -5.6085501     1444.925  0.031829346  0.031250697           10 
 3784000   0.62524403   -5.6056157    1449.9013  0.031930526  0.031242474            9 
 3785000   0.64776005     -5.58943    1448.9326  0.031900763  0.031234259            8 
 3786000   0.62720922   -5.6333069     1444.161  0.031787308  0.031226055           21 
 3787000    0.6401583   -5.5958682    1444.7412  0.031791681  0.031217831            9 
 3788000   0.65811241   -5.6187362    1443.1734  0.031748799  0.031209604           18 
 3789000   0.65906765   -5.6091099    1444.4567  0.031768643  0.031201356            5 
 3790000   0.64335325   -5.6011833    1449.0225  0.031860653  0.031193113           11 
 3791000   0.65509421   -5.6071931    1445.8981  0.031783569  0.031184915            7 
 3792000   0.63953166   -5.6090238    1441.6605  0.031682062  0.031176676           20 
 3793000   0.66043455   -5.6175659    1444.1139  0.031727609  0.031168439            8 
 3794000   0.64608791   -5.6151342    1444.5609  0.031729067  0.031160211            7 
 3795000   0.63375231   -5.6175206    1448.7435   0.03181255  0.031151952           16 
 3796000   0.63789726   -5.6177346    1445.6274  0.031735761  0.031143715           10 
 3797000   0.65154128   -5.6238872    1445.9394  0.031734251  0.031135408           22 
 3798000   0.64037435   -5.6172109     1445.861  0.031724176  0.031127159           19 
 3799000   0.64177034   -5.6260943    1444.1473  0.031678234  0.031118899           18 
 3800000   0.62620259   -5.5960003    1444.0141  0.031666975  0.031110664            6 
 3801000   0.64261522   -5.6042162    1446.6887  0.031717284  0.031102415            8 
 3802000   0.64686429   -5.5877492    1444.8628  0.031668919   0.03109414            9 
 3803000    0.6520375   -5.5806028    1443.6788  0.031634647  0.031085921           11 
 3804000   0.63645458    -5.594953    1446.3972  0.031685882  0.031077724           20 
 3805000   0.64162726   -5.5909813    1447.0039  0.031690843  0.031069541           38 
 3806000   0.63905974   -5.5956536    1445.9852  0.031660212   0.03106133           12 
 3807000   0.65388173   -5.5985897    1445.0074  0.031630492   0.03105314           14 
 3808000    0.6352752   -5.5963768    1443.3576  0.031586081  0.031044926            7 
 3809000   0.64879361   -5.6059121    1447.3147  0.031664362   0.03103674           15 
 3810000   0.64463295   -5.6100374    1447.1187  0.031651766  0.031028574           11 
 3811000   0.64561802   -5.5829867    1447.0768  0.031642544  0.031020393           10 
 3812000    0.6489886   -5.6044532    1453.0854  0.031765596  0.031012227           11 
 3813000   0.63757807    -5.591017    1446.0786  0.031604132  0.031004041           14 
 3814000   0.63711513   -5.5687785    1451.2087  0.031707933  0.030995906           21 
 3815000   0.63663364   -5.5898553    1446.3823  0.031594197  0.030987772           19 
 3816000   0.64214784    -5.609734    1449.1508  0.031646374  0.030979589            8 
 3817000   0.63593519     -5.60807    1447.7364  0.031607204  0.030971337           14 
 3818000   0.63265848   -5.6084755    1445.9964  0.031560949  0.030963111           13 
 3819000   0.63288899   -5.6059962    1448.5286  0.031607937  0.030954879           20 
 3820000    0.6320661   -5.6270426    1440.8559  0.031432283  0.030946624           12 
 3821000   0.63914574   -5.6223761    1445.3738  0.031522589  0.030938356           15 
 3822000   0.61767657   -5.6379893      1445.74  0.031522327  0.030930082           11 
 3823000   0.63442873   -5.6201452    1446.7642  0.031536407  0.030921788           12 
 3824000   0.63842399   -5.6054429    1447.6032  0.031546443  0.030913523           11 
 3825000   0.63435923   -5.6245871    1444.1323  0.031462577  0.030905281            7 
 3826000   0.62843577   -5.6091983     1448.883  0.031557829  0.030897067           13 
 3827000   0.64227318   -5.6262905    1445.3009  0.031471582  0.030888821           37 
 3828000   0.63961993   -5.6163635    1447.1003  0.031502531  0.030880636            7 
 3829000   0.63482996   -5.6281094    1447.7178  0.031507743  0.030872418           15 
 3830000   0.64459193    -5.599976     1452.483  0.031603199  0.030864206            6 
 3831000   0.63706343   -5.6134161    1448.2888  0.031503715   0.03085603           15 
 3832000   0.63987447   -5.6344206    1445.8897  0.031443322   0.03084784           17 
 3833000   0.63910296   -5.6050112    1452.1545   0.03157132  0.030839655           14 
 3834000   0.63588725   -5.6102425    1445.7353  0.031423563  0.030831461            8 
 3835000   0.62163154   -5.6352486    1447.7794  0.031459786  0.030823248           13 
 3836000    0.6480382   -5.6322131    1449.8699  0.031497001   0.03081505           30 
 3837000   0.63751226   -5.6063011     1448.196  0.031452436  0.030806834           13 
 3838000   0.63569914   -5.6090983    1447.0016  0.031418309  0.030798639           12 
 3839000   0.63977476   -5.6085457    1449.5204  0.031464801  0.030790444           15 
 3840000   0.63533711   -5.6124315    1445.2318  0.031363537  0.030782224           17 
 3841000   0.64395592   -5.6306842    1445.5135  0.031361483  0.030774031            9 
 3842000   0.62742909   -5.6321618    1446.2808  0.031369964  0.030765812           19 
 3843000   0.63045987   -5.6145842    1446.8055  0.031373178   0.03075759            8 
 3844000   0.63488905   -5.6190745    1444.2054  0.031308649  0.030749412            9 
 3845000     0.648738   -5.6130505    1448.5093  0.031393787  0.030741244            9 
 3846000   0.63193875   -5.6080312    1448.2788  0.031380628  0.030733078           18 
 3847000   0.63258286   -5.6118831    1444.3393  0.031287134   0.03072492           15 
 3848000   0.62013767   -5.6190025     1445.887  0.031312522  0.030716799           18 
 3849000   0.64524952   -5.6041926    1450.1229  0.031396097  0.030708659           21 
 3850000   0.63525982   -5.6241118    1449.6241  0.031377144  0.030700563           13 
 3851000    0.6274498    -5.626331    1446.3406  0.031297945   0.03069241           25 
 3852000   0.64819291   -5.6177535    1451.9639  0.031411473   0.03068429            9 
 3853000   0.61914069   -5.6138803    1449.3753  0.031347333  0.030676163            9 
 3854000   0.61673262   -5.6309497    1449.1077  0.031333414   0.03066805           14 
 3855000   0.64143021   -5.6193241    1447.2393  0.031284895  0.030659918           19 
 3856000    0.6303154   -5.6316489     1449.097   0.03131693   0.03065178           25 
 3857000   0.63744019   -5.6238401    1449.4863  0.031317223  0.030643655           11 
 3858000   0.63509188   -5.5975712    1448.5806  0.031289542  0.030635512           20 
 3859000    0.6350568    -5.641999    1449.2295  0.031295445   0.03062743           10 
 3860000   0.63831323   -5.6440166    1449.3525  0.031289993  0.030619333           18 
 3861000   0.64034263   -5.6308975    1448.4327  0.031262036  0.030611228           10 
 3862000   0.62278322   -5.6286729    1449.3211  0.031273112  0.030603112            7 
 3863000   0.62866047   -5.6017465    1455.0269  0.031388103  0.030595008            7 
 3864000   0.63347723   -5.6190393    1452.0181   0.03131509  0.030586923           13 
 3865000   0.62859528   -5.6160463    1451.5673  0.031297268  0.030578867            8 
 3866000   0.62461312   -5.6260408     1452.757  0.031314817  0.030570833           10 
 3867000   0.62852155    -5.618942    1449.8364  0.031243781  0.030562766           10 
 3868000   0.62418594   -5.6148227     1450.157   0.03124261  0.030554669           20 
 3869000   0.63552782   -5.6273744    1450.3547  0.031238793  0.030546609           10 
 3870000   0.63213142   -5.6158644    1453.2626  0.031293338  0.030538537           10 
 3871000   0.62958013   -5.6158865    1449.0948  0.031195531  0.030530473           22 
 3872000   0.63019471   -5.6458749    1446.6123  0.031134046  0.030522374            8 
 3873000   0.64117291   -5.6536539    1444.6721  0.031084261   0.03051419           15 
 3874000   0.62824521   -5.6341841    1450.4364  0.031200233  0.030506057            7 
 3875000   0.63242543   -5.6462254    1448.4574  0.031149621  0.030497954            5 
 3876000    0.6364229   -5.6477078    1446.2331  0.031093763  0.030489835           13 
 3877000    0.6302319   -5.6510162    1448.1105  0.031126096  0.030481726           31 
 3878000   0.63492859   -5.6343632    1452.6135  0.031214833   0.03047362           14 
 3879000   0.62069277   -5.6432717    1452.4602  0.031203494  0.030465522           15 
 3880000   0.64087262   -5.6602832     1449.703  0.031136233  0.030457431           21 
 3881000   0.63050628   -5.6375316    1448.3315  0.031098762  0.030449356           11 
 3882000   0.63722393   -5.6250809    1454.5867  0.031225028  0.030441275            8 
 3883000   0.62612092   -5.6332296    1448.4754  0.031085832  0.030433203           24 
 3884000   0.62971678   -5.6576228    1446.2557  0.031030202  0.030425117           10 
 3885000   0.63790082   -5.6577093    1448.7004  0.031074654  0.030416995           11 
 3886000   0.64691994   -5.6248275    1452.2791  0.031143402  0.030408913           31 
 3887000    0.6416344   -5.6287401    1452.2782  0.031135371  0.030400853           25 
 3888000   0.63506775   -5.6268741    1451.5869  0.031112545  0.030392775           37 
 3889000   0.62232181   -5.6328634    1451.1404  0.031094978  0.030384696           16 
 3890000   0.63977317   -5.6183648    1450.8044  0.031079785  0.030376626           12 
 3891000     0.626536   -5.6284837    1452.6957  0.031112303  0.030368616           12 
 3892000    0.6302757   -5.6433473     1451.605  0.031080958  0.030360572           32 
 3893000   0.62866795    -5.640618    1450.5365    0.0310501  0.030352535           25 
 3894000   0.62162632   -5.6253442    1449.8955  0.031028408   0.03034452           23 
 3895000   0.62938175   -5.6649599    1445.3107  0.030922352  0.030336442           27 
 3896000   0.62290161   -5.6564257    1450.3794  0.031022831  0.030328357           18 
 3897000    0.6218592   -5.6445042    1449.5139  0.030996362  0.030320309           30 
 3898000   0.62380456   -5.6217723    1452.2218  0.031046301  0.030312317           15 
 3899000    0.6312872   -5.6339633    1452.9967    0.0310549  0.030304289           14 
 3900000   0.62131013   -5.6495654    1449.7426  0.030977405  0.030296282           12 
 3901000   0.63726214   -5.6103008      1456.49  0.031113603  0.030288294            8 
 3902000   0.63058357   -5.6189204    1455.3859  0.031082051  0.030280309            5 
 3903000   0.63858214   -5.6287574    1453.3147  0.031029864  0.030272342           10 
 3904000   0.63520347   -5.6289202    1453.8898  0.031034191  0.030264356           11 
 3905000   0.64760155   -5.6465985    1452.2151  0.030990507  0.030256368           15 
 3906000   0.61888858   -5.6405528     1450.718  0.030950632  0.030248349           18 
 3907000   0.62933948   -5.6709192    1449.4996  0.030916721  0.030240295            9 
 3908000   0.62633891   -5.6423988    1452.7966  0.030979115  0.030232243           17 
 3909000   0.62654835   -5.6367145    1449.3949  0.030898672  0.030224234           17 
 3910000   0.63270623   -5.6467525    1451.1364  0.030927886  0.030216213            8 
 3911000   0.63534583   -5.6562818    1453.5091  0.030970534  0.030208171           10 
 3912000   0.62173792   -5.6742611     1449.439  0.030875917  0.030200125           13 
 3913000   0.62122029   -5.6493691    1448.4278  0.030846491  0.030192052           11 
 3914000   0.62680325   -5.6457255    1450.8433  0.030890038  0.030184012           11 
 3915000     0.614246   -5.6288583    1449.4344  0.030852157  0.030176007           11 
 3916000    0.6361284   -5.6589891    1447.3503   0.03079993   0.03016799           11 
 3917000   0.63592298   -5.6474593    1453.3239  0.030919154  0.030159941           13 
 3918000    0.6325762   -5.6221416    1454.5937   0.03093827  0.030151953           15 
 3919000   0.61075062   -5.6439026    1449.4233  0.030820432  0.030143918           11 
 3920000   0.63194643   -5.6347453    1448.3756  0.030790298  0.030135893           20 
 3921000    0.6297984   -5.6459072    1453.2005  0.030884989  0.030127867           22 
 3922000   0.63422029   -5.6772141    1450.8337  0.030826825  0.030119851            6 
 3923000   0.61954084   -5.6502931    1452.3449  0.030851069  0.030111843           23 
 3924000   0.61643289   -5.6485271    1450.9025  0.030812575  0.030103833            7 
 3925000    0.6138045    -5.675675    1450.8299  0.030803183  0.030095794            9 
 3926000    0.6161472   -5.6456743    1452.1866  0.030824134  0.030087768           15 
 3927000    0.6245806     -5.66248    1455.6513  0.030889808  0.030079748           15 
 3928000   0.62343196   -5.6503257    1450.9017   0.03078118  0.030071747           28 
 3929000   0.60594067   -5.6581295    1453.7344  0.030833427   0.03006373            9 
 3930000   0.61762603   -5.6573712    1449.7103  0.030740252  0.030055716           13 
 3931000   0.62441281   -5.6676685    1449.1724   0.03072103  0.030047692           14 
 3932000    0.6190387   -5.6325649    1449.8368  0.030727297  0.030039667            9 
 3933000    0.6217441   -5.6703498    1449.1541  0.030705019  0.030031678           22 
 3934000   0.62272363   -5.6481279    1454.5669  0.030811873  0.030023681           20 
 3935000   0.61218137   -5.6279705    1453.9388  0.030790742  0.030015679           19 
 3936000   0.61958791   -5.6547996    1451.8509  0.030738712  0.030007674           16 
 3937000   0.62358172   -5.6558067    1450.1407  0.030694706  0.029999642           23 
 3938000   0.62843316   -5.6435223    1453.1648  0.030750905  0.029991685           17 
 3939000   0.62843769   -5.6446089    1452.4254  0.030727455  0.029983742           32 
 3940000   0.63063361   -5.6514748    1457.3278  0.030823346  0.029975811           12 
 3941000   0.62376074   -5.6569695    1454.4142  0.030753917  0.029967862            9 
 3942000   0.61557402   -5.6430173    1453.5479  0.030727801  0.029959898           10 
 3943000   0.62097628   -5.6367381    1453.8332  0.030726039  0.029951911            8 
 3944000   0.62217901   -5.6670831    1450.8128  0.030654428   0.02994395           11 
 3945000    0.6266255   -5.6440207    1455.2684  0.030740778     0.029936           13 
 3946000   0.62663813   -5.6569054    1454.9242  0.030725718  0.029928065           18 
 3947000   0.60754143   -5.6557497    1449.6263  0.030606078  0.029920115           35 
 3948000   0.62508303   -5.6487886     1448.973  0.030584537  0.029912182           10 
 3949000   0.61369514   -5.6413333    1454.6476   0.03069654  0.029904197           17 
 3950000   0.63703522   -5.6664049    1451.5756  0.030623958  0.029896191           23 
 3951000   0.62382103   -5.6622766    1452.6124  0.030638074  0.029888188           10 
 3952000   0.62250186     -5.65894     1450.512  0.030586032  0.029880208           15 
 3953000   0.63280779   -5.6748414    1452.1515  0.030612857  0.029872184           16 
 3954000   0.61547853    -5.647018     1451.136  0.030583713  0.029864181           11 
 3955000   0.61586812    -5.670024    1451.7745  0.030589432  0.029856179           10 
 3956000   0.63161882   -5.6677959     1449.342   0.03053046  0.029848166            9 
 3957000   0.60661059   -5.6717335    1453.0476  0.030600783  0.029840133           13 
 3958000   0.60766967   -5.6720298    1450.5391  0.030540237  0.029832082           14 
 3959000   0.61679667   -5.6629372    1451.8231  0.030559549  0.029824068           16 
 3960000   0.62268997   -5.6662069    1455.0816  0.030620403  0.029816078            8 
 3961000   0.61224484   -5.6601684     1448.573  0.030475743  0.029808072           17 
 3962000   0.61724871   -5.6549687    1448.6793  0.030470287  0.029800054           15 
 3963000    0.6270486   -5.6381593    1453.0332  0.030554151  0.029792045           23 
 3964000   0.61974282   -5.6736298    1450.9835  0.030503354  0.029784031           20 
 3965000   0.61233979   -5.6631572    1448.8368  0.030450543  0.029776002           14 
 3966000    0.6067738   -5.6277308    1454.0073  0.030551506  0.029768035           22 
 3967000   0.61912583   -5.6568863    1454.8342  0.030561176  0.029760084           12 
 3968000   0.62374181   -5.6576105    1453.6114  0.030527794  0.029752107           11 
 3969000   0.61531375   -5.6534622    1452.1519  0.030489457  0.029744149           12 
 3970000   0.62894999   -5.6733996    1449.6824  0.030429941  0.029736162           24 
 3971000   0.61814601   -5.6811144    1453.1111  0.030494232  0.029728133           15 
 3972000   0.61321662   -5.6728596    1449.1057  0.030402521  0.029720113           20 
 3973000   0.62226114   -5.6510829    1448.8734  0.030389994  0.029712105            7 
 3974000   0.60221116   -5.6566486    1452.7423  0.030463477  0.029704124           30 
 3975000   0.63243598   -5.6659562     1451.138  0.030422181  0.029696098           19 
 3976000   0.61098485   -5.6477194    1452.7169   0.03044762  0.029688108           15 
 3977000   0.62146465   -5.6545261    1449.2736  0.030367815   0.02968007           14 
 3978000   0.61811891   -5.6820819    1446.8497  0.030309404  0.029672021           12 
 3979000   0.61335051   -5.7076389    1448.7705  0.030342015  0.029663971           13 
 3980000   0.61637406      -5.6788    1448.6853  0.030332607  0.029655959            8 
 3981000   0.60827861   -5.6796642    1452.9789  0.030414865  0.029647949           11 
 3982000    0.6102419    -5.663343    1450.0606  0.030346154  0.029639958           18 
 3983000   0.62908255   -5.6613794    1452.1072  0.030381354  0.029631968           11 
 3984000    0.6106625   -5.6553999    1454.1075  0.030415569  0.029624018            5 
 3985000   0.62080343    -5.662197    1453.6927  0.030399262  0.029616068           15 
 3986000    0.6006808   -5.6722468    1453.9508  0.030397032  0.029608082           15 
 3987000    0.6133292   -5.6732473    1450.7864  0.030323268  0.029600136           16 
 3988000   0.62232415   -5.6839316    1447.9656  0.030256719  0.029592154           23 
 3989000   0.61863707   -5.6848458    1450.8675  0.030309758  0.029584162           59 
 3990000   0.60420591   -5.6869625    1452.9355  0.030345353  0.029576161           18 
 3991000   0.60564034   -5.7152383    1447.9713  0.030234096  0.029568143           20 
 3992000   0.62069878   -5.6997024    1447.3456  0.030213461  0.029560086           11 
 3993000   0.61455375   -5.6590565    1451.2664  0.030287721  0.029552073           10 
 3994000   0.61469586   -5.6718933    1453.7297  0.030331534   0.02954406           20 
 3995000   0.60771642   -5.6841313    1449.1154  0.030227689  0.029536062           27 
 3996000   0.61440763   -5.7013576      1448.07  0.030198323  0.029528055           33 
 3997000   0.61410307   -5.6881572    1451.2133  0.030256302  0.029520066           28 
 3998000   0.62320688   -5.6786421    1451.8571  0.030262153  0.029512083           16 
 3999000   0.62037454    -5.684504    1452.5116  0.030268225  0.029504064           15 
 4000000   0.61899701   -5.6686895    1451.4454  0.030238445  0.029496053           13 
 4001000   0.61114656   -5.6639834    1451.3576   0.03022906  0.029488099           15 
 4002000   0.60660281   -5.6716781    1454.1582  0.030279823  0.029480154            8 
 4003000   0.61595172   -5.6945221    1452.9702  0.030247528  0.029472154           21 
 4004000    0.6118619   -5.6833899    1449.9831  0.030177803   0.02946416           30 
 4005000   0.59536523   -5.6534293    1451.2108  0.030195814  0.029456198           11 
 4006000   0.61405759   -5.6901317    1451.0203  0.030184313  0.029448241           13 
 4007000   0.61152571   -5.6849691    1453.5237  0.030228842  0.029440292           20 
 4008000   0.60765986   -5.6997263    1449.3794  0.030135133  0.029432288           16 
 4009000   0.61683292   -5.6807671    1450.7287  0.030155665  0.029424324           14 
 4010000   0.61262122   -5.6900182    1454.2815  0.030221976  0.029416374           20 
 4011000   0.60475578   -5.6926522    1448.2548  0.030089229  0.029408387           13 
 4012000   0.61596884   -5.6847355    1450.1938  0.030122006  0.029400441           14 
 4013000   0.61526605   -5.6723912    1452.0284  0.030152595  0.029392535           16 
 4014000    0.6140805   -5.6645041     1452.598  0.030156908  0.029384649            9 
 4015000    0.6054811   -5.6675761    1454.4779  0.030188417  0.029376754           23 
 4016000   0.60770727   -5.6850635    1452.9924  0.030150074  0.029368881           14 
 4017000   0.61263335   -5.6747837    1453.7946  0.030159211  0.029360985            9 
 4018000   0.62317871    -5.677769    1453.9915  0.030155788  0.029353112           21 
 4019000   0.61247207   -5.6752782    1457.4813  0.030220645  0.029345208           17 
 4020000   0.61578766   -5.7074502    1453.9378  0.030139672  0.029337301           11 
 4021000   0.59769577    -5.676796     1454.663  0.030147206  0.029329406           12 
 4022000    0.6017625    -5.682647    1453.0139  0.030105542  0.029321525           10 
 4023000    0.6174104   -5.6828295    1454.4379  0.030127557  0.029313623           24 
 4024000   0.60557886   -5.6871092    1452.9723  0.030089717   0.02930574           20 
 4025000   0.62590055   -5.6758344    1452.1029  0.030064241  0.029297878            6 
 4026000   0.60499134   -5.6878622    1453.6364  0.030088517      0.02929           17 
 4027000   0.61148028   -5.6888486    1451.2373  0.030031399  0.029282128           37 
 4028000   0.60497174   -5.6627134    1454.8415  0.030098507  0.029274267           12 
 4029000   0.60126643    -5.683471    1452.1456  0.030035278  0.029266411           28 
 4030000   0.60222392   -5.6511239    1455.1672  0.030090306  0.029258588           20 
 4031000   0.59924333   -5.6933736    1452.4863  0.030027418  0.029250726           17 
 4032000   0.59747248   -5.7022175    1451.9262  0.030008396  0.029242828           16 
 4033000   0.61624374    -5.698581    1451.1483   0.02998488  0.029234924           22 
 4034000   0.61339083   -5.6865427    1452.1435  0.029998006  0.029227071           17 
 4035000   0.60223469   -5.6867163    1451.9919  0.029987442  0.029219212           14 
 4036000   0.61132555   -5.6838749    1455.1415  0.030045043  0.029211334           17 
 4037000   0.61534583   -5.6868605    1456.5743  0.030067177  0.029203472           20 
 4038000   0.60722247   -5.7029605    1454.5139  0.030017209  0.029195576           15 
 4039000   0.59415998   -5.6976635    1454.0594  0.030000399  0.029187682           17 
 4040000    0.6137628   -5.7017307      1454.04  0.029992575  0.029179819            9 
 4041000   0.59888194   -5.7179195    1452.4426  0.029952211  0.029171916           11 
 4042000   0.61662871   -5.7359964    1453.6519  0.029969732  0.029164004            7 
 4043000   0.60327326   -5.6966599    1452.3499  0.029935483   0.02915609           17 
 4044000    0.6142962    -5.704905    1450.9566  0.029899369  0.029148159           17 
 4045000   0.60358944    -5.730499    1452.2097  0.029917793  0.029140246           28 
 4046000    0.6230926   -5.7109989    1453.5899  0.029938826  0.029132332           15 
 4047000   0.60002338   -5.7018453    1450.4292  0.029866346   0.02912447            9 
 4048000   0.60953889   -5.7012423    1451.4247   0.02987946  0.029116629           18 
 4049000    0.5998167   -5.7087002     1447.424  0.029789742  0.029108754           15 
 4050000   0.60324593   -5.7061984    1451.6657  0.029869665  0.029100859           14 
 4051000   0.61105183   -5.7045908    1449.2099  0.029811774  0.029092976           22 
 4052000   0.60778287   -5.7165217    1454.8604  0.029920624    0.0290851           34 
 4053000   0.60555361   -5.6876257    1456.8745  0.029954654  0.029077236           17 
 4054000   0.59658329    -5.685452    1454.0865  0.029889955   0.02906939           21 
 4055000   0.59331283   -5.6849208    1454.3913  0.029888847  0.029061583           10 
 4056000    0.5977882   -5.6985418    1453.8312  0.029869971  0.029053765           16 
 4057000   0.59044248    -5.700243    1456.5055  0.029917539  0.029045949           14 
 4058000   0.61260824   -5.7041388     1451.263  0.029802509  0.029038096           14 
 4059000   0.61593338   -5.6846136    1451.9051  0.029808349  0.029030234           11 
 4060000   0.59529415   -5.6923553     1454.957  0.029863649  0.029022418           13 
 4061000   0.60132571   -5.6875756    1458.0451  0.029919665  0.029014611            9 
 4062000   0.60127173   -5.7072402    1453.2054  0.029813012   0.02900682           12 
 4063000   0.60104488   -5.6883307    1458.3389  0.029910963  0.028999024            7 
 4064000   0.59526465   -5.7025455    1454.9298  0.029833698  0.028991209           17 
 4065000   0.59026464   -5.7090107    1451.3032  0.029752013  0.028983412           15 
 4066000   0.60246019   -5.6993984    1454.9515  0.029819468  0.028975597            9 
 4067000   0.60191917   -5.7204361    1454.7183  0.029807358   0.02896778           19 
 4068000   0.60362974   -5.7209561    1451.3685  0.029731409  0.028959959           13 
 4069000   0.60459811   -5.7019825    1453.7418  0.029772708  0.028952099           21 
 4070000   0.60154523   -5.7240661    1453.7961  0.029766504  0.028944243           16 
 4071000   0.58718327   -5.7075325    1452.2808  0.029728175   0.02893642           16 
 4072000   0.59991797    -5.718146     1453.042  0.029736451  0.028928569           25 
 4073000   0.58729003   -5.7085695    1454.4164  0.029757271   0.02892071           17 
 4074000   0.58810734   -5.7030142    1450.3841  0.029667487  0.028912874           16 
 4075000   0.60403635   -5.7157214    1455.5933  0.029766735  0.028905009           23 
 4076000   0.60419614   -5.6933848    1455.8124  0.029763911  0.028897178           14 
 4077000   0.59262025   -5.7086694     1450.239  0.029642692  0.028889345           24 
 4078000   0.59545432   -5.7071043    1451.1021  0.029653059  0.028881501           19 
 4079000   0.59051067    -5.725448      1453.03  0.029685176  0.028873671           17 
 4080000    0.6108524   -5.7118485    1453.2649  0.029682698   0.02886588           14 
 4081000   0.59388077   -5.7122397    1456.4676  0.029740823  0.028858062            6 
 4082000   0.60278995   -5.6988592    1455.3751  0.029711234  0.028850273           15 
 4083000   0.60191219   -5.7060952    1453.5233  0.029666163  0.028842475           36 
 4084000   0.59900756   -5.7113657    1458.6194  0.029762884  0.028834667           15 
 4085000   0.59239022   -5.7070613    1454.1207  0.029663824  0.028826869           11 
 4086000   0.60037806   -5.6856687    1450.4624  0.029581954  0.028819046            6 
 4087000   0.59942434   -5.7040736    1454.7493  0.029662125  0.028811249           18 
 4088000    0.5967151   -5.7090161    1453.5258   0.02962993  0.028803452           12 
 4089000   0.59285314   -5.7176775    1451.4295   0.02957996  0.028795634            7 
 4090000   0.59737744   -5.7217848    1452.7613  0.029599863  0.028787811           13 
 4091000   0.59073194   -5.7292951    1452.2796  0.029582817  0.028779978           14 
 4092000   0.58994154   -5.7106124    1455.4524    0.0296402  0.028772142           12 
 4093000   0.60847768   -5.7152708    1452.3885  0.029570579  0.028764314           14 
 4094000   0.60366428   -5.7237693    1451.7573  0.029550507  0.028756483           18 
 4095000   0.59956148   -5.7129258     1452.039  0.029549023  0.028748621           17 
 4096000   0.60872266   -5.7253789    1450.6864  0.029514291  0.028740767           17 
 4097000   0.59103403   -5.7263543    1451.5633  0.029524923  0.028732917           30 
 4098000   0.60117141   -5.7168535    1451.8108  0.029522752  0.028725075           27 
 4099000   0.58645618   -5.7223098    1452.6467  0.029532543  0.028717252           27 
 4100000   0.58958716   -5.7456217     1452.804  0.029528537  0.028709415           27 
 4101000   0.59516641   -5.7177703    1449.4792  0.029453776  0.028701542           14 
 4102000   0.57903915   -5.7090311    1450.6449  0.029470276  0.028693659           14 
 4103000   0.58719759   -5.7130551    1451.8181  0.029486922  0.028685833           22 
 4104000   0.60285911    -5.729396    1452.2425  0.029488354  0.028677988           32 
 4105000    0.5974705   -5.7130943    1452.4556  0.029485497  0.028670163           11 
 4106000   0.58675483   -5.6951251    1453.8299  0.029506209  0.028662362           15 
 4107000   0.60405121   -5.7405108    1450.7983  0.029437511  0.028654549           14 
 4108000   0.59111645   -5.7392941    1448.5754  0.029385253  0.028646706           17 
 4109000   0.60345668    -5.728188    1452.9365  0.029466547  0.028638821            8 
 4110000    0.6011416   -5.7028983    1452.4131  0.029448764  0.028630968           13 
 4111000   0.59185261   -5.7359296    1450.8517  0.029409951  0.028623145           18 
 4112000   0.59741952   -5.7353551    1450.9581  0.029404955  0.028615286           37 
 4113000   0.59639906   -5.7429524      1451.24  0.029403518  0.028607429           30 
 4114000   0.58188685   -5.7339627    1450.8111  0.029387682  0.028599575           12 
 4115000   0.59672014   -5.7194239     1453.265  0.029430236  0.028591743           16 
 4116000   0.58765526   -5.7260524    1452.4008  0.029405587  0.028583921           21 
 4117000   0.59868273   -5.7279249    1451.6634   0.02938352  0.028576083           14 
 4118000   0.59421621   -5.7393819    1450.9041  0.029361018  0.028568245           24 
 4119000   0.60777873   -5.7302302    1452.0418  0.029376907   0.02856043           20 
 4120000    0.5840716   -5.7270008    1455.8157  0.029446111  0.028552638           12 
 4121000   0.59539485   -5.7028882      1454.84  0.029419234  0.028544865           39 
 4122000   0.60461804   -5.7265866    1451.6791  0.029348195   0.02853707           14 
 4123000   0.59949734   -5.7246864    1452.4662  0.029356986  0.028529266           14 
 4124000   0.58919582   -5.7071492    1456.2504  0.029426333  0.028521495           14 
 4125000   0.59013584   -5.7262068    1452.7657  0.029348802  0.028513712           19 
 4126000   0.58511852   -5.7279279     1453.094   0.02934832  0.028505914           13 
 4127000    0.5961591   -5.7342673    1455.1838  0.029383405  0.028498095           17 
 4128000   0.58526503   -5.7300522    1455.4067  0.029380788  0.028490307           13 
 4129000    0.5870274   -5.7154724     1450.873  0.029282171  0.028482524           14 
 4130000    0.5842169   -5.7599207    1452.3525  0.029304933  0.028474686           33 
 4131000   0.58077492   -5.7286202    1452.8661  0.029308201  0.028466854           13 
 4132000   0.57857597   -5.7137643     1453.317  0.029310202  0.028459067           18 
 4133000   0.57650169   -5.7395898     1451.252  0.029261472  0.028451304           18 
 4134000   0.58222945   -5.7450631    1450.3352  0.029235914  0.028443531           31 
 4135000   0.59341001   -5.7160773    1456.7628   0.02935838  0.028435749           12 
 4136000   0.58634962   -5.7180774     1453.995  0.029295516  0.028427991           20 
 4137000   0.58601816   -5.7439808    1449.0182  0.029188184   0.02842021           19 
 4138000   0.59729759   -5.7155039    1450.5008  0.029210988  0.028412408           16 
 4139000   0.59228815   -5.7432023    1449.6268  0.029186332  0.028404599            8 
 4140000   0.59514933   -5.7551868    1452.6041  0.029239213  0.028396785           16 
 4141000   0.60106514   -5.7370066    1449.7699  0.029175118  0.028388951            7 
 4142000   0.59039255   -5.7515268    1451.1757  0.029196357  0.028381133           22 
 4143000   0.58516393   -5.7499458     1449.184  0.029149248  0.028373307           10 
 4144000   0.57434842   -5.7361658    1452.7075  0.029213069  0.028365497           24 
 4145000   0.59965138   -5.7427125    1449.0033   0.02913155  0.028357675           18 
 4146000   0.59206061   -5.7534789    1451.2749  0.029170182  0.028349868           39 
 4147000   0.58320239   -5.7601863     1450.096  0.029139457  0.028342073           40 
 4148000   0.59141051    -5.749295     1452.239  0.029175487  0.028334269           33 
 4149000   0.58835258    -5.758396    1451.5126  0.029153864  0.028326483           13 
 4150000   0.58752475   -5.7370024    1451.9237  0.029155094   0.02831868           45 
 4151000   0.56258088   -5.7460744    1453.9292  0.029188331  0.028310873           13 
 4152000   0.59747107   -5.7255415    1451.7691  0.029137947  0.028303109           12 
 4153000   0.58066304   -5.7122359    1454.5485  0.029186701  0.028295361           17 
 4154000    0.5861533   -5.7141431    1456.4251  0.029217322  0.028287636           12 
 4155000   0.58146359   -5.7235317    1451.2646   0.02910679  0.028279874           48 
 4156000   0.59435994   -5.7238989     1452.506   0.02912468  0.028272132           31 
 4157000   0.58950974   -5.7389674    1451.4192  0.029095887  0.028264376           39 
 4158000   0.58234409    -5.748248    1454.6795   0.02915423  0.028256634           32 
 4159000   0.58941303   -5.7480983    1452.7091  0.029107741  0.028248878           28 
 4160000    0.5797319    -5.732593    1451.7772  0.029082075  0.028241101           29 
 4161000    0.5888614   -5.7511566    1452.1493  0.029082539  0.028233365           20 
 4162000   0.58970026   -5.7261344    1452.6716  0.029086009  0.028225616           31 
 4163000   0.57909096   -5.7282332    1451.0129  0.029045818   0.02821789           40 
 4164000   0.58216632   -5.7333072    1449.6838  0.029012244  0.028210127           14 
 4165000   0.59078542   -5.7319958    1454.5866  0.029103373  0.028202402           30 
 4166000   0.58202636    -5.722961    1452.9898  0.029064446  0.028194658           22 
 4167000   0.59083253   -5.7467827    1453.0074  0.029057823  0.028186893           23 
 4168000   0.59127173   -5.7419211    1451.8494  0.029027699  0.028179154           16 
 4169000   0.57573645   -5.7179324    1452.6432  0.029036604  0.028171399           19 
 4170000   0.59040532   -5.7494613    1453.3848  0.029044461  0.028163649           16 
 4171000   0.59093123   -5.7500339    1450.5517  0.028980893  0.028155869           34 
 4172000   0.59063341   -5.7361087     1452.571  0.029014281  0.028148101           25 
 4173000   0.57417689    -5.742481    1452.2766  0.029001449  0.028140344           18 
 4174000   0.58243752   -5.7677468    1453.3725  0.029016382  0.028132586           27 
 4175000   0.58516541   -5.7340615    1452.2429  0.028986884  0.028124823           33 
 4176000   0.56903925   -5.7570104    1451.7258  0.028969624  0.028117053           48 
 4177000   0.58373722    -5.762454    1450.4769  0.028937772  0.028109323           27 
 4178000   0.58755468   -5.7565004    1450.0141  0.028921615   0.02810155           40 
 4179000   0.58934866   -5.7602637    1449.1868  0.028898197  0.028093789           15 
 4180000   0.57928788   -5.7817755    1449.6718  0.028900953  0.028086046           26 
 4181000   0.58703177   -5.7502864    1449.9855  0.028900294  0.028078281           53 
 4182000   0.59007821   -5.7657583    1450.6672  0.028906967  0.028070514           32 
 4183000   0.58593342   -5.7656326    1453.1781  0.028950077  0.028062782           22 
 4184000   0.58102115   -5.7376222    1455.6058  0.028991511  0.028055036           24 
 4185000   0.58339182   -5.7595844    1453.0166  0.028933026  0.028047294           12 
 4186000   0.58082243   -5.7432333    1453.7125  0.028939968   0.02803953           16 
 4187000   0.58475838   -5.7623749    1453.5815  0.028930449  0.028031802           17 
 4188000   0.58668612   -5.7559032    1448.7627  0.028827656  0.028024062           27 
 4189000   0.58843763   -5.7710135    1449.8463   0.02884233  0.028016322           31 
 4190000   0.57890894    -5.760296    1451.5062  0.028868461  0.028008579           24 
 4191000   0.58016836   -5.7424974    1451.1168  0.028853829  0.028000868           13 
 4192000   0.58395529   -5.7830464    1449.8399  0.028821563  0.027993128           58 
 4193000   0.58534332    -5.744874    1453.3624  0.028884696  0.027985404           18 
 4194000   0.57967999   -5.7679111      1453.28  0.028876173  0.027977655           18 
 4195000   0.58341305    -5.783881    1451.3642  0.028831232  0.027969944           28 
 4196000   0.57424043   -5.7474941     1451.713  0.028831288   0.02796223           36 
 4197000   0.58806511    -5.770289     1451.254  0.028815305   0.02795452           11 
 4198000   0.58204336   -5.7421095    1455.1484  0.028885748  0.027946802           22 
 4199000   0.56953295   -5.7455783    1455.1798  0.028879491  0.027939099           23 
 4200000   0.58773352   -5.7765569    1451.6141  0.028801867  0.027931355           20 
 4201000   0.58801594   -5.7676809    1451.6509   0.02879574   0.02792365           12 
 4202000   0.56909071   -5.7643713    1453.2925  0.028821445  0.027915939           19 
 4203000   0.57845103   -5.7695595    1451.3603  0.028776276  0.027908255           27 
 4204000   0.58650627   -5.7509463    1453.6691  0.028815198  0.027900576           20 
 4205000   0.56236296   -5.7832675    1452.9544  0.028794182  0.027892882           19 
 4206000   0.58540475   -5.7634953    1452.2057  0.028772502  0.027885179           15 
 4207000   0.58105226   -5.7637714    1447.9521  0.028681405  0.027877501           24 
 4208000   0.58346378   -5.7784306    1449.0281  0.028695898  0.027869799           21 
 4209000   0.57746866    -5.765368     1454.877  0.028804882  0.027862083           21 
 4210000   0.58902473   -5.7581019    1449.0778   0.02868325  0.027854397           32 
 4211000   0.57292439   -5.7636118    1451.8388  0.028731077  0.027846701           21 
 4212000   0.59254225   -5.7607216    1448.9941  0.028667974  0.027839001           32 
 4213000   0.57798342   -5.7615186    1454.2642  0.028765413  0.027831302           15 
 4214000   0.57700445   -5.7577214    1451.7227  0.028708328  0.027823657           26 
 4215000   0.57638653   -5.7766766    1455.2164  0.028770589  0.027816007           12 
 4216000   0.56587563   -5.7441697    1454.4356  0.028748331   0.02780833           30 
 4217000   0.57234257   -5.7718532     1452.339  0.028700083  0.027800664           12 
 4218000   0.57470115   -5.7435894    1456.7103   0.02877964  0.027793005           20 
 4219000   0.55924576   -5.7463215    1455.3957  0.028746854  0.027785353           27 
 4220000   0.58094081   -5.7727174    1453.7426  0.028707397  0.027777717           18 
 4221000   0.58415897   -5.7533155    1452.5294  0.028676645  0.027770072           12 
 4222000   0.56805405    -5.780124    1452.5334  0.028669932  0.027762439           47 
 4223000   0.56940377   -5.7600694    1453.5915  0.028684022  0.027754781           54 
 4224000   0.58947912   -5.7607777    1450.3823  0.028613919   0.02774713           28 
 4225000   0.57811577    -5.749103    1456.1682  0.028721266  0.027739495            9 
 4226000    0.5742975   -5.7757991    1450.2871    0.0285985  0.027731834           28 
 4227000   0.57716684   -5.7636844     1451.605  0.028617716  0.027724188           23 
 4228000   0.56357297   -5.7695681    1451.4354  0.028607604  0.027716533           17 
 4229000   0.57747575   -5.7688524    1451.8211   0.02860844  0.027708886           38 
 4230000   0.57269737   -5.7638649    1452.6444  0.028617896   0.02770123           22 
 4231000   0.56062721    -5.778503    1450.8477  0.028575745  0.027693576           53 
 4232000   0.57723197   -5.7789533    1452.9997  0.028611367  0.027685924           63 
 4233000   0.56922901   -5.7591149    1453.6173  0.028616767  0.027678282           46 
 4234000   0.58270767   -5.7703646    1454.3365  0.028624164  0.027670629           30 
 4235000   0.56619152   -5.7702569    1449.6847   0.02852587  0.027662988           20 
 4236000   0.58455103   -5.7733224    1455.0525  0.028624734  0.027655359           22 
 4237000   0.56991634   -5.7952989    1451.9124  0.028556219  0.027647712           52 
 4238000   0.57465907   -5.7773808    1449.6656  0.028505301  0.027640075           38 
 4239000   0.58095258   -5.7722938    1454.3112  0.028589903  0.027632422           29 
 4240000    0.5706248   -5.8003981    1449.9478  0.028497402  0.027624753           15 
 4241000   0.57814277   -5.7814591    1451.3195  0.028517636  0.027617085           14 
 4242000   0.56478008   -5.7702806      1454.74  0.028578108  0.027609427           34 
 4243000   0.57043081    -5.778186    1451.3745  0.028505273  0.027601786           25 
 4244000   0.58209769   -5.7750793    1455.4855  0.028579278  0.027594152            9 
 4245000   0.56681484   -5.7893609    1451.9347  0.028502841  0.027586525           12 
 4246000   0.57597579   -5.7964542    1450.3544  0.028465112  0.027578879           35 
 4247000   0.56415591   -5.7793275    1453.9502  0.028528966  0.027571237           35 
 4248000   0.56889059   -5.7695093    1451.9848  0.028483695  0.027563612           19 
 4249000   0.57021945   -5.7776399     1450.971  0.028457108  0.027555988           21 
 4250000   0.57346395    -5.787963    1452.7771  0.028485825  0.027548381           17 
 4251000   0.57162127   -5.8008654    1451.1347  0.028446928  0.027540756           33 
 4252000   0.56909896   -5.7785074    1449.1532  0.028401403  0.027533135           17 
 4253000   0.56398264   -5.7730839    1452.3847  0.028458044  0.027525525            7 
 4254000   0.57106045   -5.7860581    1448.2171  0.028369712  0.027517912           29 
 4255000   0.56097524   -5.7715336    1454.4815  0.028485733  0.027510321            8 
 4256000   0.57498479   -5.7811937    1452.3843  0.028437976  0.027502717           31 
 4257000   0.57789055   -5.7585863    1453.3162  0.028449539  0.027495115           17 
 4258000    0.5672471    -5.786134    1452.7902  0.028432563  0.027487521           23 
 4259000   0.57036071   -5.7870555    1456.3578  0.028495692  0.027479932           16 
 4260000   0.58097619   -5.7821346    1452.5207  0.028413942  0.027472335           38 
 4261000   0.56569632    -5.781205    1455.6598  0.028468665  0.027464765           31 
 4262000   0.57582304   -5.7777318    1455.1878  0.028452756  0.027457208           24 
 4263000   0.56385069   -5.7870158    1451.9084  0.028381976  0.027449643           19 
 4264000   0.57274545   -5.7600553    1455.2467  0.028440563  0.027442056           20 
 4265000   0.56031793   -5.7784742    1450.8099  0.028347204    0.0274345           15 
 4266000   0.57693202   -5.7777305     1451.886   0.02836158  0.027426918           21 
 4267000   0.55823302   -5.7597496    1453.4865   0.02838619  0.027419367           17 
 4268000   0.56719688   -5.7669082    1452.8134  0.028366397  0.027411814            4 
 4269000   0.56996377   -5.7623005    1454.3141  0.028389047  0.027404281           15 
 4270000   0.58390326   -5.7543697    1456.3186  0.028421518   0.02739674           14 
 4271000   0.56366668   -5.7672488    1453.4624  0.028359135  0.027389185           32 
 4272000   0.57627625    -5.804402    1449.5832  0.028276827  0.027381613           20 
 4273000   0.56507537   -5.7832596    1452.0279  0.028317886  0.027374023           36 
 4274000   0.57209631   -5.7895919    1450.7441  0.028286229  0.027366425           50 
 4275000   0.57433656   -5.7992624    1449.0628  0.028246838   0.02735882           14 
 4276000   0.56760522    -5.770014    1450.7669  0.028273443   0.02735122           19 
 4277000   0.56195125    -5.778092    1452.5128  0.028300849  0.027343655           19 
 4278000    0.5677055   -5.7641715    1452.2696  0.028289496  0.027336057           19 
 4279000   0.56265017   -5.7985136    1449.2004  0.028223113  0.027328466           44 
 4280000   0.57270517   -5.7815526    1453.0957  0.028292362  0.027320877           12 
 4281000   0.56266294    -5.772474    1452.7353  0.028278738  0.027313298           17 
 4282000   0.57656979   -5.7893083    1454.1857  0.028300361  0.027305731           30 
 4283000   0.57219843   -5.7929589    1455.2065  0.028313614  0.027298174           13 
 4284000   0.56185929   -5.7868009    1453.7383  0.028278445  0.027290603           39 
 4285000   0.57867124   -5.7908638    1451.2692  0.028223828  0.027283015           18 
 4286000   0.57145685   -5.8054094    1451.6332   0.02822432  0.027275449           17 
 4287000   0.56315822   -5.7944082    1453.8986  0.028261772  0.027267912           16 
 4288000   0.57213813   -5.7826803    1448.9114  0.028158259   0.02726037           34 
 4289000   0.56850652   -5.7787931    1451.1313  0.028194826  0.027252819           41 
 4290000   0.57522569   -5.7980085    1450.5079  0.028176145  0.027245251           33 
 4291000   0.56661597   -5.7773571     1453.778  0.028233085    0.0272377           12 
 4292000   0.57414861   -5.7850691    1453.1085  0.028213508  0.027230163            8 
 4293000   0.56419396   -5.7841169     1455.108  0.028245748   0.02722263           16 
 4294000   0.57398599   -5.7960531     1451.977  0.028178409  0.027215095           33 
 4295000    0.5667054    -5.792005    1452.3937  0.028179933  0.027207536           21 
 4296000   0.58311895   -5.8327112    1449.6706   0.02812055   0.02720001           28 
 4297000   0.57241913   -5.7993267    1452.5667  0.028170171  0.027192447           35 
 4298000   0.57278298   -5.7982237    1455.1132   0.02821299  0.027184907           31 
 4299000   0.56867487   -5.7935472    1453.7834  0.028180651  0.027177351           18 
 4300000   0.56805498   -5.7977737    1449.5392  0.028091845   0.02716981           21 
 4301000   0.56777749   -5.7696187    1453.2586  0.028157379   0.02716228           27 
 4302000   0.56246036   -5.8098812    1453.2936  0.028151511  0.027154767           25 
 4303000    0.5652348   -5.8134324    1454.7775  0.028173706  0.027147256           17 
 4304000   0.56211347   -5.8319463    1449.5962  0.028066841  0.027139721           49 
 4305000   0.57827573   -5.8114334     1452.366  0.028113938   0.02713215           37 
 4306000    0.5566888   -5.8069995    1451.2145  0.028085123  0.027124603           22 
 4307000   0.56912272    -5.814956    1450.7794  0.028070185  0.027117068           20 
 4308000   0.58322953   -5.8093595    1453.1216  0.028108975  0.027109549           10 
 4309000   0.55918029    -5.815643    1450.4292  0.028050383   0.02710201           24 
 4310000   0.56244179   -5.8168482    1451.6565  0.028067604  0.027094447           30 
 4311000   0.56253341   -5.7937019    1451.1224   0.02805077  0.027086917           14 
 4312000   0.55552032   -5.8032257    1455.2826  0.028124664  0.027079399           11 
 4313000   0.56606068   -5.7965155    1452.8992  0.028072093  0.027071869           14 
 4314000   0.55727905   -5.8034943    1452.8843  0.028065298  0.027064354           16 
 4315000    0.5619661   -5.7902537    1451.3898  0.028029931   0.02705684           17 
 4316000   0.54518972   -5.7958189    1453.3931  0.028062116  0.027049315           20 
 4317000   0.56057833    -5.805259    1452.8582  0.028045291  0.027041785           27 
 4318000   0.56338844   -5.8167563    1448.2299  0.027949473   0.02703424           39 
 4319000   0.56116266   -5.8149088    1453.7666  0.028049829  0.027026713           14 
 4320000   0.55107169   -5.7891517    1450.5565  0.027981414  0.027019188           31 
 4321000   0.56415905   -5.8071231     1448.877  0.027942548  0.027011651           39 
 4322000   0.56157539   -5.8194464     1449.687  0.027951701  0.027004101           27 
 4323000   0.55670829   -5.8123485    1456.0889  0.028068642  0.026996566           27 
 4324000   0.55878662   -5.8161927    1453.8975  0.028019918   0.02698905           60 
 4325000   0.56496583   -5.8214381    1448.7238  0.027913753  0.026981511           29 
 4326000   0.55808385   -5.8047681    1448.8868   0.02791044   0.02697395           38 
 4327000   0.56808532   -5.8214606    1449.6879  0.027919419  0.026966405           54 
 4328000   0.56001869    -5.802996    1452.0268  0.027958001  0.026958887           18 
 4329000   0.56546394   -5.7987702    1453.4829  0.027979574  0.026951384           13 
 4330000   0.55335102   -5.8167547    1452.9733  0.027963305  0.026943886           19 
 4331000   0.56798619   -5.8080461    1455.7707  0.028010672  0.026936409           14 
 4332000   0.55267456   -5.8307214    1453.2065   0.02795488  0.026928906           15 
 4333000   0.55719099    -5.822401    1453.1766  0.027947854  0.026921407           39 
 4334000   0.54638347   -5.8307274    1450.4249  0.027888496   0.02691389           45 
 4335000   0.56157833   -5.8199204    1450.4288  0.027882138  0.026906363           73 
 4336000   0.56608159   -5.8019406    1452.1387   0.02790857  0.026898853           69 
 4337000   0.56121017   -5.8187227     1450.315  0.027867093  0.026891327           48 
 4338000   0.56597454   -5.8196762    1450.8074  0.027870129  0.026883808           25 
 4339000   0.55250467     -5.80494    1450.2831  0.027853635  0.026876299           36 
 4340000   0.55751606   -5.8151584    1450.9178  0.027859405  0.026868788           38 
 4341000   0.56122346   -5.8213405    1452.2195  0.027877976  0.026861267           44 
 4342000   0.57268692   -5.8241284    1451.0942  0.027849959  0.026853746           31 
 4343000   0.54023819   -5.8254756    1453.6457  0.027892504  0.026846237           31 
 4344000   0.54851886   -5.8337353    1451.8898  0.027852398  0.026838706           65 
 4345000   0.56072536   -5.8190096    1453.9064  0.027884665  0.026831174           39 
 4346000   0.55688563    -5.826089    1453.6189  0.027872736  0.026823663           76 
 4347000   0.56688491   -5.8190785    1453.4349  0.027862796  0.026816157           51 
 4348000   0.54689812   -5.8231094    1448.6468   0.02776462  0.026808652          141 
 4349000   0.55189831   -5.8130605    1451.6629  0.027816028  0.026801158          110 
 4350000    0.5607197   -5.8369602    1450.4448  0.027786298  0.026793637           52 
 4351000   0.54649232   -5.8188691    1450.0538  0.027772424  0.026786136           90 
 4352000    0.5520245   -5.8128997    1452.1341  0.027805877  0.026778642           63 
 4353000   0.55484181   -5.8120118    1452.5068  0.027806625  0.026771158           54 
 4354000   0.55705952   -5.8221526    1449.6322  0.027745218  0.026763702           54 
 4355000   0.55613808   -5.7962081    1456.3389  0.027867182  0.026756237           68 
 4356000   0.56028044    -5.835771    1451.8961   0.02777579  0.026748785           68 
 4357000   0.55199693   -5.8173378    1449.9503    0.0277322  0.026741299           68 
 4358000   0.55947953   -5.8220003    1449.2065  0.027711612  0.026733799           55 
 4359000   0.54760996   -5.8316316     1448.615  0.027693947  0.026726332           55 
 4360000   0.55362584   -5.8334661    1452.1734  0.027755607  0.026718867           27 
 4361000   0.54541151   -5.8139523    1454.1013  0.027786083  0.026711392           50 
 4362000   0.55643943   -5.8305956     1450.043  0.027702182  0.026703911           60 
 4363000    0.5608346   -5.8207329    1452.2265  0.027737537  0.026696454          108 
 4364000   0.55233918   -5.8137616    1452.1623  0.027729955  0.026689008           84 
 4365000   0.54440535   -5.8188706    1450.4367  0.027690659  0.026681557           99 
 4366000   0.55314556   -5.8306237    1453.4797  0.027742398  0.026674094           85 
 4367000    0.5485136    -5.826084    1452.9389  0.027725726  0.026666656           90 
 4368000   0.55614709   -5.8458934    1450.5209  0.027673247  0.026659217          108 
 4369000   0.54586332   -5.8332991    1452.5751  0.027706094  0.026651778           64 
 4370000   0.54749664   -5.8352303    1451.6344  0.027681816  0.026644322           62 
 4371000   0.54985746   -5.8255527    1453.1335  0.027704063  0.026636892           49 
 4372000   0.56404664   -5.8324606    1451.8457  0.027673179  0.026629465           39 
 4373000   0.56723141   -5.8265776    1450.9544  0.027649866  0.026622058           35 
 4374000   0.55048783   -5.8068998    1454.6687  0.027714309  0.026614685           42 
 4375000   0.54121441   -5.8085442    1454.4693  0.027704177  0.026607315           18 
 4376000   0.55696059   -5.8143246    1451.6074  0.027643347  0.026599938           73 
 4377000    0.5503065   -5.8070807    1454.5165  0.027692417   0.02659255          170 
 4378000    0.5406782   -5.8386224    1449.3082  0.027586955  0.026585156           64 
 4379000   0.54818482   -5.8212527    1450.4951  0.027603241   0.02657775           37 
 4380000   0.55422121   -5.8337409    1449.6241  0.027580368  0.026570339          129 
 4381000   0.56018024    -5.819997     1455.227  0.027680648  0.026562952           49 
 4382000    0.5527479   -5.8236933    1452.7702  0.027627609  0.026555568          117 
 4383000   0.55820463   -5.8277522    1452.5462  0.027617048  0.026548175          136 
 4384000   0.55386673    -5.812523    1450.2404  0.027566917  0.026540785           97 
 4385000   0.55808413   -5.8337729    1449.8164  0.027552573  0.026533384           96 
 4386000   0.55044793   -5.8250052    1450.1467  0.027552566  0.026525995           99 
 4387000   0.55357309    -5.816358    1452.7049  0.027594881  0.026518599          103 
 4388000   0.55276454   -5.7963763    1451.0843  0.027557815  0.026511203           83 
 4389000   0.55294624   -5.8284311    1453.5584  0.027598512  0.026503822           40 
 4390000   0.54803047   -5.8137177    1453.8914  0.027598545  0.026496431           61 
 4391000   0.55850055   -5.8212392      1456.32  0.027638351  0.026489058           88 
 4392000   0.55729726   -5.8224328     1451.044  0.027531951  0.026481691           65 
 4393000    0.5523554   -5.8142017    1452.1465  0.027546599  0.026474317          105 
 4394000   0.54366363   -5.8272235    1454.7628  0.027589948  0.026466938           68 
 4395000   0.54878294   -5.8157513    1451.1915  0.027515955  0.026459563           83 
 4396000     0.535566   -5.8357691     1451.761  0.027520492  0.026452203           45 
 4397000   0.55057372   -5.8211194    1447.5763  0.027434924  0.026444828           48 
 4398000   0.54675787   -5.8151046    1452.8496  0.027528604  0.026437454           67 
 4399000   0.55047311   -5.8457683    1451.2963  0.027492921  0.026430081           87 
 4400000   0.54504088   -5.8288658    1453.0797  0.027520449  0.026422698           39 
 4401000   0.56275531   -5.8418011    1451.7929  0.027489829  0.026415317           45 
 4402000   0.55766464   -5.8442828    1453.6061  0.027517911  0.026407934           37 
 4403000   0.54144593   -5.8457485    1449.0399  0.027425238  0.026400541           30 
 4404000   0.54679908   -5.8434451    1453.0319  0.027494548  0.026393168           46 
 4405000   0.54671466   -5.8463177    1450.9021  0.027448016  0.026385778           78 
 4406000   0.55696445   -5.8458342    1450.6773  0.027437535  0.026378398           86 
 4407000    0.5485171   -5.8330463    1450.1732  0.027421775   0.02637102           58 
 4408000   0.53504997   -5.8221002     1451.002  0.027431224   0.02636365          103 
 4409000   0.55982202   -5.8514417    1451.4977  0.027434371  0.026356274           33 
 4410000   0.54241371   -5.8500993    1452.8789   0.02745425   0.02634889           33 
 4411000   0.55025739   -5.8355191    1449.7802  0.027389484  0.026341505           95 
 4412000   0.53599351   -5.8364117    1451.3905  0.027413691  0.026334131           61 
 4413000   0.54226267    -5.840017    1453.0265  0.027438373  0.026326766          100 
 4414000   0.54288745   -5.8317901    1450.5111  0.027384668  0.026319417           54 
 4415000   0.56099367   -5.8405104    1452.2507  0.027411301  0.026312071           86 
 4416000   0.54845187   -5.8247612    1452.0142   0.02740063  0.026304715           67 
 4417000   0.54816219   -5.8314241    1453.0821  0.027414575  0.026297376           44 
 4418000   0.54724819   -5.8542986    1447.9775  0.027312085  0.026290013           83 
 4419000   0.54931616   -5.8490743    1451.4289   0.02737099  0.026282666           51 
 4420000   0.53769599   -5.8678018     1451.076  0.027358144  0.026275313           22 
 4421000   0.55407588   -5.8436996     1451.312  0.027356405  0.026267953           43 
 4422000   0.53587538    -5.839634     1455.314  0.027425637   0.02626062           23 
 4423000    0.5566779   -5.8502247    1451.2147  0.027342201  0.026253259           33 
 4424000   0.54188218   -5.8220756     1452.658  0.027363209  0.026245933           26 
 4425000   0.53207349   -5.8641357    1449.8697  0.027304515  0.026238598           29 
 4426000   0.53757726    -5.851635     1449.135  0.027284511  0.026231258           32 
 4427000   0.52997528     -5.84105    1451.3598  0.027320228  0.026223933           58 
 4428000    0.5383228   -5.8530473    1450.5002  0.027297882  0.026216611           38 
 4429000   0.54028533   -5.8476189    1456.6697    0.0274078  0.026209316           32 
 4430000   0.54275256   -5.8370073    1449.5997  0.027268618  0.026202014           58 
 4431000    0.5289133   -5.8349196    1453.4984  0.027335786  0.026194709           25 
 4432000   0.54163973   -5.8189466    1455.5668   0.02736851  0.026187433           21 
 4433000   0.54211696   -5.8383739    1450.9954  0.027276401  0.026180157           19 
 4434000   0.54914344   -5.8504492    1454.1713  0.027329936  0.026172877           39 
 4435000   0.53941088   -5.8327894    1454.6819  0.027333368   0.02616561           25 
 4436000   0.54715877   -5.8304533     1452.282  0.027282123  0.026158345           19 
 4437000    0.5305593   -5.8241119    1455.5574  0.027337491  0.026151097           76 
 4438000    0.5470163   -5.8280864     1452.198  0.027268252  0.026143837           22 
 4439000   0.54816851   -5.8423841    1454.2045  0.027299777   0.02613658           23 
 4440000   0.54097882   -5.8260234    1453.4203  0.027278909  0.026129312           39 
 4441000    0.5469109   -5.8322663     1454.543  0.027293834  0.026122053           28 
 4442000   0.54454442   -5.8567321    1453.3827  0.027265923  0.026114769           34 
 4443000   0.53909354   -5.8220535    1453.1785  0.027255955  0.026107485           62 
 4444000   0.54794321   -5.8415025    1455.0399  0.027284726  0.026100193           20 
 4445000   0.54003407   -5.8532668     1449.707  0.027178609  0.026092897           45 
 4446000    0.5300799   -5.8791046    1448.4716  0.027149341  0.026085574           34 
 4447000   0.53829924   -5.8480394    1449.2158   0.02715718  0.026078239           39 
 4448000   0.54129987   -5.8501608    1449.8606  0.027163155  0.026070923           20 
 4449000   0.54230555    -5.857598    1451.5046  0.027187843  0.026063607           27 
 4450000   0.53792603   -5.8510705    1450.9289  0.027170954  0.026056317           58 
 4451000   0.53960919   -5.8450532    1451.0855   0.02716778  0.026049024           51 
 4452000   0.53741602   -5.8586007    1448.7496  0.027117954  0.026041721           31 
 4453000   0.53146749   -5.8499885     1453.444  0.027199716  0.026034414           28 
 4454000    0.5340702   -5.8453042    1449.9673  0.027128561  0.026027116           38 
 4455000   0.54677543   -5.8356717    1448.9663  0.027103747  0.026019801           15 
 4456000   0.52933324   -5.8576006    1450.1341  0.027119503  0.026012482           21 
 4457000    0.5438835   -5.8470647    1451.0459  0.027130467  0.026005159           51 
 4458000   0.53531417   -5.8602805    1452.4055  0.027149796  0.025997832           27 
 4459000   0.55176701    -5.857008    1448.1246  0.027063702  0.025990521           35 
 4460000   0.54029862   -5.8540361    1447.9757  0.027054853  0.025983212           30 
 4461000   0.53751811   -5.8866299    1449.5397  0.027078005  0.025975891           47 
 4462000   0.53600781   -5.8686361    1449.9361  0.027079339  0.025968572           17 
 4463000   0.53256195   -5.8517208    1450.0407  0.027075224  0.025961275           18 
 4464000   0.52979157   -5.8543309     1449.772  0.027064143  0.025953981           26 
 4465000    0.5250344   -5.8618699    1451.6218  0.027092605  0.025946699           42 
 4466000   0.53433575   -5.8621386    1447.6784  0.027012957  0.025939412           53 
 4467000   0.53358975   -5.8494788    1452.5158  0.027097153   0.02593212           39 
 4468000    0.5354974   -5.8594107    1453.5464   0.02711031  0.025924842          112 
 4469000   0.53878213    -5.871191    1452.2167  0.027079449  0.025917576           94 
 4470000   0.53280398   -5.8774005    1450.4752  0.027040925  0.025910299           36 
 4471000   0.53223488   -5.8592122    1450.7823    0.0270406  0.025903015           61 
 4472000   0.52998218   -5.8659637    1450.3069  0.027025694  0.025895738           56 
 4473000   0.54070805   -5.8768097    1450.5073  0.027023387  0.025888452           87 
 4474000   0.52487285   -5.8669306    1450.5998  0.027019069   0.02588116           47 
 4475000   0.54533119   -5.8573773    1450.3823  0.027008982  0.025873877           96 
 4476000   0.53395723   -5.8641306    1450.1334  0.026998312  0.025866582          100 
 4477000   0.53153686   -5.8697662    1451.5938  0.027019466  0.025859305           81 
 4478000   0.53071911   -5.8665118    1450.0855  0.026985363  0.025852036           99 
 4479000   0.52712845   -5.8818249    1449.0427  0.026959937   0.02584477          123 
 4480000   0.53938627    -5.874664    1449.8701   0.02696931  0.025837489          150 
 4481000   0.52614677   -5.8602518    1447.9994  0.026928501  0.025830219          114 
 4482000   0.54478675   -5.8604021    1450.1746  0.026962937  0.025822944           89 
 4483000   0.53137552    -5.852209     1447.961  0.026915774   0.02581569           81 
 4484000   0.53569344   -5.8643191    1449.1555  0.026931971  0.025808418           49 
 4485000   0.52828692   -5.8752025    1449.8972  0.026939748  0.025801145           58 
 4486000   0.53791155   -5.8737406    1448.9207  0.026915601  0.025793867           73 
 4487000   0.52804591   -5.8694738    1452.8557  0.026982684  0.025786598          129 
 4488000   0.54252052   -5.8858476    1451.5583  0.026952583  0.025779326           95 
 4489000   0.53599929   -5.8753547    1446.2843  0.026848673  0.025772052          116 
 4490000   0.52859022   -5.8758645    1448.9093  0.026891413   0.02576479          157 
 4491000   0.52858825   -5.8730233    1449.2999  0.026892672   0.02575753          204 
 4492000   0.52953186   -5.8497264    1449.8638  0.026897146  0.025750241          160 
 4493000   0.52960738   -5.8528723    1447.5191  0.026847673   0.02574299          166 
 4494000    0.5277676   -5.8736349    1449.5792  0.026879899  0.025735715          159 
 4495000   0.52900397   -5.8811479    1449.9049  0.026879958  0.025728455          178 
 4496000   0.54078992   -5.8816269     1448.183  0.026842064  0.025721205          178 
 4497000    0.5347578   -5.8888406    1450.2889  0.026875118  0.025713933          188 
 4498000   0.53387541   -5.8715697    1448.5252  0.026836468  0.025706687          157 
 4499000   0.52980681    -5.881797    1447.7301  0.026815776  0.025699418          193 
 4500000   0.52192031   -5.8833281    1451.0646  0.026871566   0.02569217          162 
 4501000   0.53472824   -5.8803177    1447.0151  0.026790623  0.025684915          170 
 4502000   0.52190884   -5.8852821    1448.3555  0.026809483  0.025677664          153 
 4503000    0.5301356    -5.881952     1447.524  0.026788141    0.0256704          118 
 4504000   0.53409266    -5.900851    1449.1126  0.026811586  0.025663139          175 
 4505000   0.53633536    -5.891578    1445.9604  0.026747324  0.025655858          274 
 4506000   0.52459342   -5.8742278    1449.1766   0.02680087  0.025648584          105 
 4507000   0.53327405   -5.8953527    1447.6588  0.026766859   0.02564129          114 
 4508000   0.52650447   -5.9068124    1447.1232  0.026751021  0.025634015          154 
 4509000     0.525111   -5.8948891    1449.1836  0.026783168  0.025626715          101 
 4510000   0.52570595   -5.8774386    1447.6973  0.026749766  0.025619436          108 
 4511000   0.52727005    -5.879682     1447.459  0.026739434   0.02561215           66 
 4512000   0.52551299   -5.8955244    1444.3615  0.026676299  0.025604884          117 
 4513000   0.51786395   -5.8913978    1445.0048  0.026682266  0.025597593          129 
 4514000   0.53612691    -5.887641    1447.6804  0.026725749  0.025590304           63 
 4515000    0.5288384   -5.8810213    1444.3473  0.026658311  0.025583023          121 
 4516000   0.52224452   -5.8980498    1445.8859  0.026680799   0.02557574          285 
 4517000   0.53215655    -5.895836    1445.0406  0.026659299   0.02556846          205 
 4518000   0.53717986    -5.913631    1449.0826  0.026727952  0.025561183          107 
 4519000   0.52471095   -5.8936828    1446.1427  0.026667824  0.025553895          140 
 4520000   0.52451113   -5.9037092    1448.0432  0.026696961  0.025546607          134 
 4521000   0.52314172    -5.897397    1444.9451   0.02663395  0.025539318          120 
 4522000   0.53119762    -5.909071    1447.1868  0.026669371  0.025532055          120 
 4523000   0.53001448    -5.897265    1446.3034    0.0266472  0.025524793          251 
 4524000   0.53594808   -5.9035164    1445.4642  0.026625851  0.025517541          150 
 4525000   0.52575408   -5.8878917    1447.4783  0.026657059  0.025510268           90 
 4526000   0.53226525   -5.9021003     1450.689  0.026710285  0.025502998          102 
 4527000   0.54430695   -5.8714836    1449.4966  0.026682435  0.025495748          113 
 4528000   0.51373581    -5.886693    1445.6997  0.026606665  0.025488495           95 
 4529000   0.52513458   -5.9086461    1444.0888  0.026571148   0.02548123           97 
 4530000   0.53198138   -5.9054509    1445.5663  0.026592463  0.025473964           88 
 4531000   0.52454593   -5.9097427    1446.0935   0.02659629  0.025466706          202 
 4532000   0.52218652   -5.8873446     1445.843  0.026585816  0.025459448          140 
 4533000   0.53272106   -5.8903948    1447.2092  0.026605066  0.025452195          166 
 4534000   0.53633329   -5.9073023    1445.4558  0.026566972   0.02544492          200 
 4535000   0.52125316   -5.9033274    1446.4087  0.026578624  0.025437653          198 
 4536000   0.53365616   -5.9010364    1447.3608  0.026590256  0.025430399          279 
 4537000   0.52318139   -5.8793737     1446.729   0.02657279  0.025423169          298 
 4538000   0.53336643   -5.8952218    1447.0178  0.026572239   0.02541595          184 
 4539000   0.51839498   -5.9126345    1444.6609  0.026523113  0.025408719          205 
 4540000   0.52939597   -5.9092144    1448.9013  0.026595104  0.025401496          172 
 4541000   0.52180275   -5.8905191    1449.7663  0.026605122  0.025394258          100 
 4542000   0.50558862   -5.9014999     1446.886  0.026546419  0.025387029           97 
 4543000   0.52425568   -5.8858912    1447.1947  0.026546238  0.025379808          172 
 4544000   0.53009023   -5.9030833    1444.5724  0.026492305  0.025372612          177 
 4545000    0.5313331   -5.8970838    1446.2724  0.026517646  0.025365405           60 
 4546000   0.52819103   -5.9116666    1446.4265  0.026514637  0.025358229           82 
 4547000   0.52803297   -5.8919815    1447.1229  0.026521569  0.025351032          104 
 4548000   0.52176863   -5.8999198    1447.3808  0.026520463  0.025343826           89 
 4549000   0.52316879   -5.8925025    1450.8583  0.026578337  0.025336625          133 
 4550000   0.52791471   -5.8967022    1446.6424  0.026495282   0.02532942          110 
 4551000   0.52468921   -5.9094365    1446.8331  0.026492953  0.025322208          109 
 4552000   0.52627967   -5.9067571    1446.6979  0.026484658  0.025315019           46 
 4553000   0.51721769   -5.8967369    1444.8634  0.026445263  0.025307809          191 
 4554000   0.51886033   -5.8928833    1446.8723  0.026476217  0.025300604          113 
 4555000   0.52402288   -5.9175396    1447.0565  0.026473774  0.025293406          125 
 4556000   0.53845725   -5.9059895    1447.0186  0.026467271  0.025286196          103 
 4557000   0.52060974   -5.8978237    1443.8131  0.026402843  0.025278998          212 
 4558000   0.51531588   -5.8947457    1448.0418  0.026474364   0.02527181          107 
 4559000   0.52035125   -5.9061018    1444.3987  0.026401965  0.025264625          233 
 4560000   0.52241518    -5.902055    1447.2814  0.026448855  0.025257458           87 
 4561000    0.5161386   -5.9152392    1444.2336  0.026387372  0.025250271          126 
 4562000   0.52157619   -5.8829134    1448.7348  0.026463809  0.025243092          181 
 4563000   0.51956882   -5.8994473    1448.9861    0.0264626  0.025235918          212 
 4564000   0.53028054   -5.8963274    1444.6961  0.026378471   0.02522875          206 
 4565000   0.52368712   -5.9242205    1444.2788  0.026365075  0.025221558          305 
 4566000     0.523631   -5.8867714    1449.3403  0.026451677   0.02521438          134 
 4567000   0.52636952   -5.9129354     1445.221  0.026370721  0.025207206          141 
 4568000   0.51607642    -5.922765    1444.1705  0.026345784   0.02520003          253 
 4569000   0.50989042   -5.9348566     1445.646   0.02636693  0.025192838          224 
 4570000   0.53275057   -5.9129083    1444.8329  0.026346332  0.025185647          140 
 4571000   0.51058517   -5.8960117    1447.4948  0.026389097  0.025178468          146 
 4572000   0.52048295   -5.9146927     1446.247  0.026360582    0.0251713          203 
 4573000   0.51980411   -5.9095407    1449.1508  0.026407735  0.025164135          190 
 4574000   0.51609505   -5.9245998    1445.6826  0.026338773  0.025156962          248 
 4575000   0.51760844   -5.9027398    1445.4688  0.026329123   0.02514982          116 
 4576000   0.52341476   -5.9144123    1447.2442    0.0263557  0.025142679           80 
 4577000   0.51454111   -5.8848132    1449.3012  0.026387393  0.025135533           95 
 4578000   0.52052138   -5.9110149    1446.4493  0.026329717  0.025128401          149 
 4579000   0.51336155   -5.9119502    1445.1604  0.026300509  0.025121263          187 
 4580000    0.5136478   -5.9192632    1444.8412  0.026288959  0.025114127          258 
 4581000   0.51950297    -5.887477    1446.0155  0.026304582  0.025106983          170 
 4582000   0.51604279   -5.9034979    1444.1846  0.026265543  0.025099837           93 
 4583000   0.51166101   -5.8848733    1448.7025  0.026341961  0.025092719          168 
 4584000   0.52377138   -5.9083885    1450.2213  0.026363825  0.025085604           70 
 4585000   0.52126064   -5.8942226     1447.463  0.026307943  0.025078489           65 
 4586000   0.51794219   -5.9133249    1451.0588  0.026367547  0.025071377          158 
 4587000   0.51688877   -5.9059644    1448.2288  0.026310384  0.025064269           70 
 4588000   0.53725902   -5.9234593    1444.2044  0.026231553  0.025057153           95 
 4589000   0.51554587    -5.910615    1446.7153  0.026271434  0.025050037          108 
 4590000   0.51350577   -5.8850567    1442.4881  0.026188962  0.025042915           51 
 4591000   0.51577573   -5.8958617    1449.8901  0.026317617  0.025035798          176 
 4592000   0.51451396   -5.9073767     1446.186  0.026244665  0.025028673          144 
 4593000   0.51953252    -5.913632    1446.4233  0.026243256  0.025021554          182 
 4594000   0.52098969   -5.9146673    1445.6833   0.02622412  0.025014456          102 
 4595000   0.51485507   -5.8957924    1446.9957  0.026242214  0.025007366           68 
 4596000   0.51588825   -5.9148773    1449.0249  0.026273298  0.025000293           81 
 4597000   0.51549221   -5.9258338    1446.5004  0.026221819  0.024993188           64 
 4598000   0.50904484   -5.9040618    1448.6203  0.026254537    0.0249861           55 
 4599000   0.50967818   -5.9220534    1446.4424  0.026209365  0.024979007           71 
 4600000   0.51668805   -5.9031233    1446.1989  0.026199256  0.024971904           46 
 4601000   0.52146592   -5.9158591    1446.8293  0.026204978  0.024964816           62 
 4602000   0.53328112   -5.9015776    1446.4434  0.026192296  0.024957741           48 
 4603000   0.52095657   -5.9235988    1446.9776  0.026196278  0.024950656           38 
 4604000   0.51768231   -5.9123064    1447.0137  0.026191241  0.024943563           31 
 4605000   0.51312905   -5.9258405    1449.2197  0.026225473  0.024936469           42 
 4606000    0.5084389   -5.9052368    1449.4109   0.02622324    0.0249294           28 
 4607000   0.51314916   -5.9346972    1444.3622  0.026126225   0.02492231           83 
 4608000   0.51358082   -5.9075539    1446.8856  0.026166189  0.024915227           24 
 4609000   0.52000976   -5.9297257    1445.6726  0.026138581  0.024908139          130 
 4610000   0.51441987   -5.9104924     1449.933  0.026209924  0.024901064           52 
 4611000   0.50811868   -5.9128665     1446.227  0.026137262  0.024894003           60 
 4612000   0.52512905    -5.907886    1447.2401    0.0261499  0.024886957           46 
 4613000   0.51432695   -5.9278469    1445.9542  0.026121002  0.024879896           31 
 4614000    0.5159402   -5.9048658    1448.9998  0.026170347  0.024872845           58 
 4615000   0.51958435   -5.8919772     1448.782  0.026160745  0.024865799           45 
 4616000   0.49513603    -5.924102    1448.1192   0.02614311  0.024858746           42 
 4617000   0.51547435   -5.9180381    1448.6932  0.026147808  0.024851695           22 
 4618000   0.51399518   -5.9179871    1448.3446  0.026135857  0.024844661           22 
 4619000   0.51973759   -5.9169797    1444.9431   0.02606883  0.024837632           20 
 4620000   0.51202212   -5.9129006    1445.9563  0.026081463  0.024830584           33 
 4621000   0.51017113   -5.9101133     1447.899  0.026110853  0.024823528           26 
 4622000    0.5050028   -5.9082777    1450.7916  0.026157356  0.024816475           41 
 4623000    0.5117055   -5.9376341    1447.4395  0.026091274  0.024809434           41 
 4624000   0.51131844    -5.920876    1447.7379  0.026091009  0.024802377           35 
 4625000   0.51411952   -5.9235714    1446.3288  0.026059979  0.024795324           34 
 4626000   0.51255502   -5.9184543    1446.8738  0.026064162  0.024788289           19 
 4627000   0.52506124   -5.9018643    1445.4514  0.026032912  0.024781266           29 
 4628000   0.51063638   -5.9275343    1446.2334  0.026041367  0.024774242           45 
 4629000   0.52006411   -5.9179996    1447.2355  0.026053782  0.024767213           28 
 4630000   0.49706735    -5.919406     1445.983  0.026025613  0.024760205           43 
 4631000   0.51348529   -5.9283226    1444.2973  0.025989658  0.024753161           37 
 4632000   0.50719481   -5.9250175    1447.1109  0.026034667  0.024746135           35 
 4633000   0.50696373   -5.9235986    1447.7461  0.026040472  0.024739109           68 
 4634000   0.50061593   -5.9219138    1443.7855  0.025963629  0.024732064           32 
 4635000   0.51394006   -5.9180272    1444.7834  0.025975969  0.024725026           40 
 4636000    0.5089556   -5.9248043    1443.8891   0.02595429  0.024717987           58 
 4637000   0.51510082   -5.9016785     1446.539  0.025996315  0.024710974           57 
 4638000   0.50918382   -5.9077066    1448.0825  0.026018443  0.024703933           33 
 4639000   0.51013005   -5.9288148    1444.8375  0.025954543  0.024696898           51 
 4640000   0.51432085   -5.9281209    1449.3176  0.026029411  0.024689878           44 
 4641000   0.50452794   -5.9297835    1443.6069  0.025921262  0.024682857           24 
 4642000   0.50268122   -5.9308495    1442.0896  0.025888439  0.024675826           84 
 4643000   0.51485104   -5.9179986    1446.6116  0.025964025  0.024668803           78 
 4644000   0.52209553   -5.9188321    1446.0235   0.02594788  0.024661785           60 
 4645000   0.50537241   -5.9334208    1446.1774  0.025945055  0.024654762           84 
 4646000   0.51521772   -5.9201629    1446.6527  0.025947996  0.024647731           64 
 4647000   0.50367263   -5.9292648     1444.073  0.025896151   0.02464071           75 
 4648000   0.50899534   -5.9298164    1444.1166  0.025891362   0.02463369           66 
 4649000    0.5133018   -5.9242853    1445.0216  0.025902014  0.024626675           87 
 4650000   0.50248934   -5.9330653    1445.2581  0.025900683  0.024619658          121 
 4651000   0.51629461   -5.9201642     1446.073  0.025909714   0.02461263           88 
 4652000   0.50967385   -5.9373915    1444.5777  0.025877359  0.024605612          162 
 4653000   0.50131731   -5.9292735     1444.161  0.025864334  0.024598599          103 
 4654000   0.50345224   -5.9371317    1448.3056   0.02593299    0.0245916          169 
 4655000   0.49864946   -5.9287376    1446.4282  0.025893809  0.024584615          266 
 4656000   0.50655944   -5.9326737    1447.0451  0.025899289  0.024577616          195 
 4657000   0.50574397    -5.927126      1445.51  0.025866259  0.024570627          124 
 4658000    0.5007784   -5.9305591    1446.8658  0.025884962  0.024563633          172 
 4659000   0.51279721   -5.9216582    1446.6429  0.025875419  0.024556642          176 
 4660000   0.50347213   -5.9298248    1447.9849  0.025893864  0.024549658          156 
 4661000   0.50779552   -5.9281824    1448.9256  0.025905127  0.024542671          149 
 4662000   0.48810779   -5.9225084     1446.837  0.025862238  0.024535673          134 
 4663000   0.51138132   -5.9337919    1445.5167  0.025833095   0.02452868          188 
 4664000    0.5000081   -5.9240735    1445.7284  0.025831339   0.02452169          228 
 4665000   0.49785575   -5.9418491    1446.5878  0.025841154  0.024514696          223 
 4666000   0.50664855   -5.9369378    1446.7053  0.025837714  0.024507692          176 
 4667000   0.50355008   -5.9443739    1444.5963  0.025794519  0.024500699          242 
 4668000   0.50296039   -5.9316676    1446.7469  0.025827387  0.024493705          184 
 4669000   0.49559167   -5.9532928    1444.1054  0.025774709  0.024486684          127 
 4670000   0.50590949     -5.95454    1441.6991  0.025726251  0.024479672          195 
 4671000   0.50574303   -5.9566359    1447.4812  0.025823899  0.024472661          155 
 4672000   0.50994422   -5.9474768    1445.0772  0.025775493  0.024465667          157 
 4673000   0.51096067   -5.9371123    1446.7252  0.025799365  0.024458693          121 
 4674000   0.51113606   -5.9123074    1446.6689  0.025792842  0.024451728          143 
 4675000   0.50390913   -5.9354463    1442.1173  0.025706191  0.024444749          208 
 4676000   0.50180274   -5.9321394    1446.4388  0.025777708  0.024437781          127 
 4677000   0.49691852    -5.934957    1445.0815  0.025748014  0.024430818          243 
 4678000   0.49603626   -5.9482749    1445.0588  0.025742105   0.02442385          241 
 4679000   0.50219472   -5.9455681    1445.9729  0.025752883  0.024416866          208 
 4680000   0.50069558   -5.9048453    1448.2376  0.025787707  0.024409913          241 
 4681000   0.49993589    -5.935546    1444.0277   0.02570725  0.024402955          154 
 4682000    0.4954867   -5.9368669    1445.4112  0.025726384  0.024395974          249 
 4683000   0.49970082   -5.9432225    1446.9845  0.025748887  0.024389006          172 
 4684000   0.50768252   -5.9414491    1441.0732  0.025638222   0.02438204          211 
 4685000   0.50567217   -5.9490502    1444.5295  0.025694227  0.024375073          229 
 4686000   0.49491902   -5.9403257    1445.5509  0.025706909  0.024368125          298 
 4687000   0.50552273   -5.9544233    1444.1622  0.025676733  0.024361181          263 
 4688000   0.50771612   -5.9514511    1445.0778  0.025687533  0.024354248          157 
 4689000   0.49965054   -5.9635861    1447.1046  0.025718073  0.024347327          203 
 4690000   0.50537793   -5.9541073    1445.6168  0.025686155  0.024340388          117 
 4691000   0.50294514   -5.9499083    1447.1054  0.025707123  0.024333451          120 
 4692000   0.49648616   -5.9647211    1446.2865    0.0256871  0.024326508          102 
 4693000   0.50191113   -5.9483178    1444.1525  0.025643733  0.024319562          118 
 4694000    0.4990794   -5.9489055    1442.9035  0.025616097  0.024312613          252 
 4695000   0.49859756   -5.9408235     1445.013  0.025648084  0.024305675          423 
 4696000   0.50292815   -5.9428023    1444.5813   0.02563496  0.024298746          434 
 4697000   0.49502003   -5.9536169    1445.3642  0.025643393  0.024291831          357 
 4698000   0.50044188   -5.9518984    1443.7324   0.02560899  0.024284893          207 
 4699000   0.49554893   -5.9413944    1441.7608  0.025568574   0.02427796          380 
 4700000    0.4998397   -5.9507418    1445.7342  0.025633585  0.024271034          266 
 4701000   0.50184825   -5.9352949    1447.3033  0.025655947  0.024264118          408 
 4702000   0.48486886   -5.9622508    1441.9374  0.025555392  0.024257195          292 
 4703000   0.48661526   -5.9568478    1445.2275  0.025608256   0.02425027          460 
 4704000   0.50752984    -5.945189    1446.5807  0.025626784  0.024243349          486 
 4705000   0.49839494    -5.962492    1443.3469  0.025564061  0.024236432          380 
 4706000   0.48426213   -5.9628196    1442.1149  0.025536814  0.024229498          461 
 4707000   0.49679213   -5.9750767    1443.6635  0.025558804  0.024222565          342 
 4708000    0.5073026   -5.9589097    1442.4962  0.025532713  0.024215643          522 
 4709000   0.49143554   -5.9590899    1440.2492  0.025487528  0.024208731          352 
 4710000   0.49846911    -5.941763    1445.4691   0.02557447  0.024201828          419 
 4711000   0.50695385   -5.9638175    1441.5204  0.025499194  0.024194918          514 
 4712000   0.49994534   -5.9531542    1442.9946  0.025519853  0.024187996          455 
 4713000   0.49907222   -5.9781323    1442.0497  0.025497731  0.024181082          490 
 4714000   0.50545024   -5.9795682    1442.5273  0.025500765  0.024174167          488 
 4715000   0.49588097   -5.9576681    1445.8694  0.025554426  0.024167253          446 
 4716000   0.48825013   -5.9618782    1443.3716  0.025504869  0.024160337          488 
 4717000   0.48630705   -5.9560391    1441.6443  0.025468947   0.02415343          492 
 4718000   0.50108317    -5.951924    1446.9613  0.025557462  0.024146513          592 
 4719000   0.50514246   -5.9634848    1443.3865   0.02548892  0.024139619          646 
 4720000   0.50127235   -5.9613546    1442.8654  0.025474318  0.024132697          542 
 4721000   0.49335855   -5.9593621    1445.7283  0.025519457   0.02412579          541 
 4722000   0.50068604    -5.964741    1441.9019  0.025446525   0.02411888          604 
 4723000   0.50429792   -5.9781278    1442.4175  0.025450234  0.024111983          547 
 4724000   0.49829604   -5.9794282    1444.8816  0.025488315  0.024105071          597 
 4725000   0.49244903   -5.9615096    1442.0102  0.025432278  0.024098162          523 
 4726000   0.48156921   -5.9724859    1444.4187  0.025469367  0.024091253          599 
 4727000   0.49840898   -5.9587884    1440.8672  0.025401369  0.024084355          559 
 4728000    0.5052812   -5.9714906    1442.9911  0.025433431  0.024077451          518 
 4729000   0.49803109   -5.9815392    1444.4076  0.025453013  0.024070549          587 
 4730000   0.48003008   -5.9704565    1440.0308  0.025370522   0.02406366          638 
 4731000   0.50102531   -5.9779279    1442.6515  0.025411321  0.024056763          607 
 4732000   0.49113992    -5.985447     1441.034  0.025377466  0.024049864          516 
 4733000   0.48587404   -5.9638438     1443.332  0.025412563  0.024042968          374 
 4734000    0.4816992   -5.9695518    1440.5102  0.025357524  0.024036076          573 
 4735000   0.48964642   -5.9730997    1443.1683  0.025398949  0.024029186          402 
 4736000   0.49458334   -5.9717106    1442.5936  0.025383474  0.024022296          654 
 4737000   0.49384403   -5.9506779    1445.9282  0.025436777  0.024015416          561 
 4738000    0.4907779   -5.9802309    1442.1186  0.025364405  0.024008552          622 
 4739000   0.49855044   -5.9684612    1442.2122  0.025360698   0.02400167          376 
 4740000   0.48781629    -5.960661    1444.0382  0.025387451   0.02399478          282 
 4741000    0.4916271   -5.9759978    1440.9088  0.025327091  0.023987891          632 
 4742000   0.49582379   -5.9562586    1445.6429  0.025404944  0.023981018          763 
 4743000   0.50694832   -5.9737171    1441.3901  0.025324866  0.023974136          778 
 4744000   0.49308588   -5.9594415    1443.1456  0.025350366  0.023967255          808 
 4745000   0.49387983   -5.9646558    1440.8548  0.025304791  0.023960371          745 
 4746000   0.49398512   -5.9696724    1440.6966  0.025296682  0.023953487          726 
 4747000   0.49084262   -5.9761356    1440.7163  0.025291699  0.023946605          735 
 4748000   0.49305885   -5.9839783    1439.8239  0.025270708  0.023939715          728 
 4749000   0.49431609   -5.9835306    1441.5685  0.025296001  0.023932835          695 
 4750000   0.48269446   -5.9969554    1443.4304   0.02532334   0.02392596          885 
 4751000   0.47672812   -5.9839222    1441.2256  0.025279338  0.023919081          712 
 4752000   0.49499977   -6.0029075    1439.7074  0.025247394  0.023912204          426 
 4753000     0.495496   -5.9684351    1441.6419  0.025275999   0.02390533          351 
 4754000   0.49668659   -5.9927595    1441.5798  0.025269594  0.023898464          695 
 4755000    0.4855514   -5.9935585    1442.3113  0.025277099  0.023891597          335 
 4756000   0.48925278   -5.9667351    1440.7595  0.025244594  0.023884749          519 
 4757000   0.48576005   -5.9873455    1441.3209  0.025249123  0.023877889          396 
 4758000   0.49816532   -5.9782149     1442.608  0.025266358  0.023871025          646 
 4759000   0.48384535   -5.9769844     1441.484  0.025241368  0.023864159          655 
 4760000   0.49411826   -5.9882681    1439.9825  0.025209777   0.02385729          655 
 4761000   0.49062717   -5.9817523    1442.7794  0.025253437  0.023850442          579 
 4762000   0.49040479   -5.9903335    1439.4519  0.025189905  0.023843585          676 
 4763000    0.4942768   -5.9874524    1443.1161  0.025248724   0.02383673          647 
 4764000   0.50040909   -5.9882479    1442.1402  0.025226355  0.023829874          619 
 4765000   0.49169695   -5.9962666    1439.9067  0.025181999  0.023823029          616 
 4766000   0.49022884   -6.0039606    1440.1097  0.025180265  0.023816176          586 
 4767000   0.48932869   -5.9947096     1441.456  0.025198517  0.023809316          569 
 4768000   0.48621596   -5.9801358    1439.1133  0.025152288  0.023802465          599 
 4769000   0.48700867   -5.9928647    1439.1812    0.0251482  0.023795614          305 
 4770000   0.48203306   -5.9886556    1440.8006  0.025171219  0.023788752          556 
 4771000   0.49670276   -5.9842901    1442.4394  0.025194567  0.023781905          578 
 4772000   0.49361862   -5.9811232    1443.7816  0.025212728  0.023775071          519 
 4773000   0.48977258    -5.990483    1440.9531  0.025158061  0.023768247          586 
 4774000   0.49951349    -5.980283    1440.0299  0.025136676  0.023761408          572 
 4775000   0.49666436    -5.994646    1440.6636  0.025142471  0.023754574          559 
 4776000   0.48711283    -6.003435     1444.232   0.02519947  0.023747751          496 
 4777000   0.49151467    -6.001401    1440.1681    0.0251233  0.023740913          541 
 4778000   0.47844727   -5.9911617    1443.1641  0.025170295  0.023734098          631 
 4779000   0.48881733   -5.9823575    1440.6301  0.025120843  0.023727284          594 
 4780000   0.47717766   -5.9916509    1441.4516  0.025129909  0.023720462          684 
 4781000   0.47524494   -5.9831783    1440.1605  0.025102149  0.023713645          569 
 4782000   0.49241233    -6.000586    1442.8276  0.025143379  0.023706824          652 
 4783000   0.48554879   -5.9929478    1440.5009  0.025097583  0.023700008          464 
 4784000    0.4715086   -6.0007347    1438.1336  0.025051101  0.023693189          637 
 4785000   0.47563192   -6.0012744    1439.6882   0.02507294  0.023686358          694 
 4786000   0.49347186   -6.0293131    1440.7301  0.025085843  0.023679527          770 
 4787000   0.48938297   -6.0027967    1441.1955  0.025088705  0.023672699          747 
 4788000   0.48299574   -5.9734228    1438.2903    0.0250329  0.023665872          777 
 4789000   0.47687747   -5.9989271    1440.7002  0.025069607  0.023659055          688 
 4790000   0.48826967   -5.9948941    1436.7095  0.024994946  0.023652243          370 
 4791000   0.49531874   -5.9919977    1441.4719  0.025072564  0.023645434          696 
 4792000   0.48803305   -6.0058854    1440.2523  0.025046123  0.023638613          701 
 4793000   0.49078639   -5.9880427    1441.7568  0.025067056  0.023631799          718 
 4794000   0.49027473   -6.0003333    1439.4022  0.025020898  0.023624999          701 
 4795000   0.47188733   -5.9964519     1441.651  0.025054761  0.023618197          677 
 4796000   0.48801834   -6.0106937    1443.0043  0.025073053   0.02361138          824 
 4797000   0.48816368   -5.9929445    1440.1578  0.025018377  0.023604563          752 
 4798000   0.47904571   -5.9879841    1436.4028  0.024947943  0.023597757          732 
 4799000   0.48711643   -6.0006986      1439.08  0.024989235  0.023590949          796 
 4800000   0.48632124   -6.0015355    1439.9372   0.02499891  0.023584142          731 
 4801000   0.48185094   -5.9878289    1438.7321  0.024972785  0.023577342          764 
 4802000   0.48802045   -5.9999042    1441.9916  0.025024149  0.023570551          658 
 4803000   0.48707029   -6.0129424    1441.1751  0.025004772  0.023563753          644 
 4804000   0.48867498   -5.9916676    1440.2212  0.024983022  0.023556961          783 
 4805000    0.4879662   -6.0013266    1442.5143  0.025017591   0.02355017          620 
 4806000   0.47850967   -6.0078514    1438.8377  0.024948636  0.023543378          750 
 4807000   0.48346286   -6.0158823    1436.0837  0.024895702  0.023536585          692 
 4808000   0.48552821   -6.0096034    1441.5712  0.024985636  0.023529799          690 
 4809000   0.47995922   -5.9969141    1439.2154  0.024939617  0.023523017          785 
 4810000   0.48233061   -6.0050138    1440.2603  0.024952534  0.023516248          693 
 4811000   0.47279551   -5.9955998    1440.2632  0.024947398   0.02350948          686 
 4812000   0.48737401   -6.0091617    1441.9199  0.024970905  0.023502714          674 
 4813000   0.46736206    -5.995264    1437.1488  0.024883109  0.023495943          675 
 4814000   0.48716633    -5.993855    1436.5665  0.024867859  0.023489166          755 
 4815000    0.4720041   -5.9972971    1439.6723  0.024916448   0.02348239          596 
 4816000   0.47190128   -6.0110329    1438.1195  0.024884405  0.023475623          776 
 4817000   0.47313804   -5.9927909    1442.8587  0.024961226   0.02346886          674 
 4818000   0.47424905   -6.0036122    1443.6493  0.024969719  0.023462103          681 
 4819000   0.47065986   -5.9951723    1441.7035  0.024930891   0.02345536          718 
 4820000   0.48570645   -5.9949255    1441.3196   0.02491908  0.023448605          780 
 4821000   0.47790463   -6.0260547    1438.1857  0.024859741  0.023441833          785 
 4822000   0.47891151   -6.0113546     1439.227  0.024872581  0.023435066          767 
 4823000   0.47601905   -6.0216212    1441.7185  0.024910472  0.023428309          752 
 4824000   0.48281173   -6.0203504    1439.8755  0.024873471  0.023421543          756 
 4825000   0.48356912   -6.0130478    1439.2397  0.024857335  0.023414779          638 
 4826000   0.46953817    -6.010666    1437.5097  0.024822311  0.023408013          689 
 4827000   0.48063047   -6.0051253    1436.5088  0.024799889  0.023401256          788 
 4828000   0.47820409   -6.0140033    1442.8453  0.024904124  0.023394506          711 
 4829000   0.48730698   -6.0173514    1438.6945  0.024827337  0.023387753          754 
 4830000   0.47598404   -6.0202635     1440.098  0.024846411  0.023381011          701 
 4831000    0.4780424   -6.0068967    1443.0545  0.024892267  0.023374287          658 
 4832000   0.47157451   -6.0037949    1440.8017  0.024848263  0.023367554          573 
 4833000   0.48538909   -6.0150965    1438.7271  0.024807351  0.023360819          687 
 4834000   0.47996336   -6.0194499    1437.3473  0.024778433  0.023354087          750 
 4835000   0.48719261   -5.9997726    1441.6058  0.024846704  0.023347348          684 
 4836000   0.47732948   -6.0167191     1437.398  0.024769058  0.023340621          727 
 4837000   0.48526549   -6.0319683    1436.5996  0.024750183  0.023333889          728 
 4838000   0.47502477   -6.0122397    1438.9857  0.024786166  0.023327154          633 
 4839000   0.48465612   -6.0234658    1438.6635  0.024775497  0.023320427          757 
 4840000   0.47118316   -6.0134913    1439.2436  0.024780365  0.023313698          797 
 4841000   0.47095135   -6.0311016    1438.9664  0.024770474  0.023306959          768 
 4842000   0.46837762   -6.0041064    1436.6385  0.024725295  0.023300223          782 
 4843000   0.47798701   -6.0269545    1439.1843  0.024763994  0.023293511          659 
 4844000   0.47649893   -6.0206772    1438.8556  0.024753227  0.023286791          795 
 4845000   0.48701136   -6.0285716    1438.0678  0.024734569   0.02328006          817 
 4846000   0.47257736   -6.0216413    1438.7411  0.024741043  0.023273339          830 
 4847000   0.47774155    -6.023455    1442.8147  0.024805975  0.023266621          813 
 4848000   0.46985549   -6.0134568    1439.4995  0.024743872  0.023259919          782 
 4849000    0.4828468   -6.0192049    1441.4719  0.024772665  0.023253215          822 
 4850000   0.47657762   -6.0241108    1438.6779  0.024719552  0.023246488          799 
 4851000   0.47616242   -6.0334633    1436.7473   0.02468129  0.023239757          809 
 4852000   0.48382458   -6.0216673    1436.6604  0.024674712  0.023233022          745 
 4853000    0.4745797   -6.0205342    1437.4221  0.024682707  0.023226304          840 
 4854000   0.47419973   -6.0290694    1436.6443  0.024664267  0.023219582          885 
 4855000   0.46972987   -6.0012902    1439.6027  0.024709967  0.023212864          815 
 4856000   0.48140583   -6.0263744      1440.62  0.024722337  0.023206165          921 
 4857000   0.46519099   -6.0148047    1435.8577  0.024635538  0.023199454          890 
 4858000    0.4868334   -6.0426906     1439.867  0.024699242  0.023192757          859 
 4859000   0.46793283    -6.039059    1437.6784  0.024656624  0.023186049          866 
 4860000   0.46978868   -6.0258156    1438.0485  0.024657896  0.023179359          867 
 4861000   0.46383246   -6.0308027    1436.3315  0.024623389  0.023172666          846 
 4862000   0.47061339   -6.0343289    1436.7677  0.024625801  0.023165975          829 
 4863000   0.47515563   -6.0282116    1441.5418  0.024702546  0.023159283          806 
 4864000   0.48281776   -6.0236339    1440.5252  0.024680051  0.023152602          802 
 4865000   0.47655463   -6.0431382    1438.3486  0.024637695  0.023145917          937 
 4866000    0.4703939   -6.0400782    1437.6599  0.024620838  0.023139245          934 
 4867000   0.47785063   -6.0348286     1439.419  0.024645897  0.023132557          887 
 4868000   0.46580302   -6.0348389      1440.06  0.024651808  0.023125885          968 
 4869000   0.47818238   -6.0168918    1439.4517  0.024636333  0.023119215          944 
 4870000   0.48038037   -6.0374412    1435.9927  0.024572086  0.023112541          878 
 4871000    0.4705224   -6.0381759    1439.1521  0.024621092  0.023105851          939 
 4872000   0.47197834   -6.0415355    1437.9134  0.024594852  0.023099171          873 
 4873000   0.47620405   -6.0355566    1440.3858  0.024632085  0.023092492          995 
 4874000    0.4712343   -6.0569504     1436.087  0.024553532  0.023085803         1000 
 4875000   0.46152596   -6.0405387    1438.1883  0.024584415  0.023079126          961 
 4876000   0.46916658   -6.0376028    1440.1909  0.024613599  0.023072444          867 
 4877000   0.47311476   -6.0472843    1436.0321  0.024537491  0.023065771          960 
 4878000   0.46402699   -6.0277464     1436.489  0.024540265  0.023059107          852 
 4879000   0.47544523   -6.0234176    1438.9845  0.024577859  0.023052436          933 
 4880000   0.46268006   -6.0546937    1436.0811  0.024523243  0.023045776          962 
 4881000   0.46599402    -6.049563    1436.5126  0.024525586  0.023039106          981 
 4882000   0.47278542   -6.0186815    1437.8976  0.024544203  0.023032447          836 
 4883000   0.47355248   -6.0469767    1439.4359   0.02456543  0.023025787          917 
 4884000   0.47439355    -6.035469    1438.0314  0.024536436  0.023019132          978 
 4885000   0.46166047   -6.0413252    1436.9598  0.024513132  0.023012467          922 
 4886000   0.46421216   -6.0401848     1436.021  0.024492103  0.023005801          923 
 4887000   0.46633364   -6.0481974    1437.4525  0.024511501  0.022999139         1076 
 4888000   0.47330309   -6.0260607    1438.3596  0.024521952  0.022992489          895 
 4889000   0.46179038   -6.0408075    1437.0226  0.024494146  0.022985831          927 
 4890000    0.4713672   -6.0375016    1436.8985  0.024487022  0.022979181          961 
 4891000   0.48093691   -6.0338059    1437.5678   0.02449342  0.022972539          989 
 4892000   0.47200634    -6.035381    1435.0346  0.024445261    0.0229659          902 
 4893000   0.45976245   -6.0473689    1435.4303  0.024447005  0.022959261          949 
 4894000   0.47399873   -6.0481844    1437.8543  0.024483283  0.022952617          990 
 4895000   0.45910417   -6.0487124    1435.3231   0.02443519  0.022945965         1015 
 4896000   0.46559259   -6.0506153     1436.669  0.024453109  0.022939312          959 
 4897000   0.46301143   -6.0550101    1435.5382  0.024428872  0.022932671          998 
 4898000   0.46723614   -6.0655505    1436.9529  0.024447954  0.022926029         1083 
 4899000   0.47067292   -6.0346646    1436.5506  0.024436119  0.022919379          966 
 4900000   0.48304356   -6.0501053    1437.3783  0.024445208  0.022912732         1023 
 4901000    0.4688624   -6.0427305    1434.5028  0.024391328  0.022906093          990 
 4902000   0.47067925   -6.0573411    1435.1788  0.024397845  0.022899467          993 
 4903000   0.47063641   -6.0538543    1436.5462   0.02441611  0.022892823          959 
 4904000    0.4721308   -6.0420294    1434.5595   0.02437737  0.022886175         1008 
 4905000   0.46945736   -6.0488512     1434.451  0.024370558  0.022879538          942 
 4906000   0.47519251   -6.0457974    1434.9912  0.024374766  0.022872904          922 
 4907000   0.46317275   -6.0401327     1434.835  0.024367145  0.022866281          987 
 4908000   0.46310929   -6.0587377    1434.4625  0.024355856  0.022859658         1034 
 4909000   0.46640198    -6.036734    1439.5044  0.024436484  0.022853033         1000 
 4910000   0.46715017   -6.0497749    1437.8149  0.024402833  0.022846416          894 
 4911000   0.47880174    -6.043962    1436.1034  0.024368821  0.022839807          999 
 4912000   0.46146943   -6.0561745    1435.3105  0.024350409  0.022833186         1111 
 4913000   0.46563372   -6.0463272    1435.4807   0.02434834  0.022826561         1004 
 4914000   0.46672621   -6.0549648    1434.1782  0.024321296  0.022819941          935 
 4915000   0.45320768   -6.0421063    1432.3581  0.024285488  0.022813312          929 
 4916000   0.47073447    -6.057334    1434.7821  0.024321639  0.022806692          913 
 4917000   0.46737342   -6.0565838    1434.2769   0.02430813  0.022800067         1067 
 4918000   0.47052844   -6.0443403    1433.5253  0.024290452  0.022793446          966 
 4919000   0.47269705   -6.0478523    1435.7893  0.024323868  0.022786837          959 
 4920000    0.4567927   -6.0458173    1433.9362  0.024287538   0.02278023          938 
 4921000   0.47021367   -6.0585362    1435.0021  0.024300652   0.02277362         1012 
 4922000   0.45613532   -6.0536932    1436.9613  0.024328885  0.022767014          999 
 4923000   0.46507501   -6.0630552    1437.3797  0.024331027  0.022760414          948 
 4924000   0.46679578   -6.0419306    1437.8706  0.024334392  0.022753809         1056 
 4925000   0.46253932   -6.0691458    1438.1037  0.024333397  0.022747198         1083 
 4926000   0.46862191   -6.0552457    1435.2425  0.024280053   0.02274059         1121 
 4927000   0.45673259   -6.0684312    1432.0955  0.024221897   0.02273398         1160 
 4928000   0.46810523   -6.0801809    1435.9162  0.024281591  0.022727372         1147 
 4929000   0.46371556   -6.0468991    1432.6027  0.024220645  0.022720763         1178 
 4930000   0.46825471   -6.0648743    1435.2515  0.024260505  0.022714162         1111 
 4931000    0.4635969   -6.0668649    1434.7374  0.024246898   0.02270757         1179 
 4932000    0.4571415   -6.0516324     1432.913  0.024211156  0.022700979         1186 
 4933000   0.46384029   -6.0650808    1436.8356  0.024272512  0.022694385         1159 
 4934000   0.45384348   -6.0702719    1433.5571   0.02421222  0.022687792         1162 
 4935000   0.46615393   -6.0487721    1433.0745  0.024199164  0.022681196         1076 
 4936000   0.46401441   -6.0683145    1434.5417  0.024219032  0.022674597         1246 
 4937000   0.46391301   -6.0656647     1436.043  0.024239467  0.022667998         1153 
 4938000   0.45856987   -6.0624636    1436.6009  0.024243973  0.022661398         1199 
 4939000   0.45753644   -6.0715479    1435.5424  0.024221206  0.022654805         1223 
 4940000   0.45185601   -6.0763116    1432.3292  0.024162098   0.02264821         1235 
 4941000   0.45405307   -6.0712264    1430.7288  0.024130216  0.022641614         1189 
 4942000   0.46068578   -6.0490069    1434.8005  0.024193991  0.022635028         1181 
 4943000   0.45470231   -6.0618753    1434.7291  0.024187893  0.022628438         1248 
 4944000   0.45580988    -6.078715    1434.0872  0.024172182  0.022621853         1244 
 4945000   0.45878365    -6.071214    1435.1872  0.024185831  0.022615276         1257 
 4946000   0.46963938   -6.0771832      1433.91  0.024159422  0.022608694         1269 
 4947000   0.46581769   -6.0827281    1435.5247  0.024181739  0.022602118         1272 
 4948000   0.47461385   -6.0569919    1434.8187  0.024164961  0.022595544         1192 
 4949000    0.4618217   -6.0776854    1432.6544  0.024123634  0.022588981         1224 
 4950000   0.46592005   -6.0781153    1435.7549  0.024170958  0.022582406         1182 
 4951000    0.4623969   -6.0606892    1432.8801  0.024117688   0.02257583         1235 
 4952000   0.46856612   -6.0657756     1433.093  0.024116401   0.02256926         1347 
 4953000   0.44039992   -6.0647979    1433.2016  0.024113359  0.022562687         1345 
 4954000   0.45679036   -6.0744656     1434.147  0.024124395  0.022556113         1359 
 4955000   0.46039343   -6.0818018    1436.1445   0.02415312  0.022549535         1264 
 4956000   0.45503991   -6.0729509    1430.7319  0.024057236  0.022542964         1386 
 4957000   0.46356111   -6.0829726    1431.8563  0.024071285  0.022536386         1362 
 4958000   0.47003326   -6.0903912    1433.8326  0.024099646  0.022529817         1375 
 4959000   0.46194814   -6.0793641    1431.2628  0.024051603  0.022523247         1293 
 4960000   0.46447177   -6.0622536     1431.771  0.024055292  0.022516685         1316 
 4961000   0.47111006   -6.0616406    1432.5513   0.02406355  0.022510127         1286 
 4962000   0.46432952   -6.0841538    1433.9329  0.024081904  0.022503576         1395 
 4963000   0.45403892   -6.0802544    1434.8019  0.024091643  0.022497023         1339 
 4964000   0.45706249   -6.0656852    1433.8232   0.02407036   0.02249047         1276 
 4965000   0.45122609    -6.069848    1432.0176  0.024035207  0.022483914         1354 
 4966000   0.46331345   -6.0587756    1434.1887    0.0240668   0.02247736         1352 
 4967000   0.45474004   -6.0791059    1431.6281  0.024018994  0.022470814         1333 
 4968000   0.46487362   -6.0748636    1432.2804  0.024025101  0.022464275         1293 
 4969000   0.45499169   -6.0859852    1431.7827  0.024011918  0.022457732         1171 
 4970000    0.4597799   -6.0866896    1432.7551  0.024023392  0.022451188         1246 
 4971000   0.45188621   -6.0764054    1432.2094  0.024009411  0.022444643         1226 
 4972000   0.44278594   -6.0867717    1431.8241  0.023998125  0.022438103         1144 
 4973000    0.4528853     -6.07237    1431.1806  0.023982516  0.022431568         1258 
 4974000    0.4545678   -6.0796332    1434.4084  0.024031772   0.02242503         1207 
 4975000   0.44940478    -6.096242    1433.4066  0.024010161  0.022418496         1280 
 4976000   0.46063525   -6.0856511    1433.7601  0.024011256  0.022411963         1259 
 4977000   0.45466932    -6.078377     1433.175  0.023996634  0.022405434         1196 
 4978000   0.46897925   -6.0718109    1431.8499  0.023969631  0.022398909         1162 
 4979000   0.45790538   -6.0757207    1430.6251  0.023944318  0.022392391         1260 
 4980000   0.45964548   -6.0691564    1431.0878  0.023947252  0.022385863         1337 
 4981000   0.46090976   -6.0694463    1431.2944  0.023945901  0.022379348         1331 
 4982000   0.45067543   -6.0783921    1433.8318  0.023983538  0.022372825         1223 
 4983000   0.45851884   -6.0832453    1432.7376  0.023960426  0.022366308         1239 
 4984000   0.45920098   -6.0901058    1429.9021  0.023908208  0.022359788         1323 
 4985000   0.45222839   -6.0854729     1434.189  0.023975075  0.022353268         1246 
 4986000   0.44402362   -6.0668947    1430.5531  0.023909499  0.022346765         1190 
 4987000   0.45652516   -6.0737769    1432.1358  0.023931151   0.02234026         1271 
 4988000   0.46258154   -6.0888852      1432.59  0.023933941  0.022333755         1305 
 4989000   0.45281564   -6.0692234    1433.7449  0.023948434   0.02232725         1282 
 4990000   0.44877305   -6.0939111    1433.6028  0.023941263  0.022320747         1323 
 4991000   0.44895853   -6.0928775    1430.8716  0.023890864  0.022314242         1352 
 4992000   0.44870819   -6.0796039    1433.6837  0.023933022  0.022307733         1370 
 4993000   0.45396549   -6.0680472     1429.997  0.023866697  0.022301231         1303 
 4994000    0.4547487   -6.0844551    1430.8062   0.02387542  0.022294735         1344 
 4995000   0.44783348   -6.0874076    1433.3267  0.023912692   0.02228825         1322 
 4996000   0.44495724   -6.0881862    1431.8512  0.023883293  0.022281749         1256 
 4997000   0.45425063   -6.0733137    1433.3056  0.023902769   0.02227525         1342 
 4998000   0.45833843   -6.0634127    1432.3906  0.023882729  0.022268755         1389 
 4999000   0.45712884   -6.0935622     1431.325  0.023860188  0.022262264         1280 
 5000000   0.45907267   -6.0865819    1432.8936  0.023881561  0.022255771         1267 
 5001000   0.45651022   -6.0921611    1433.2997  0.023883551  0.022249278         1279 
 5002000   0.44895006   -6.0654845    1435.8038  0.023920495  0.022242794         1281 
 5003000    0.4514831   -6.0890996    1430.5573  0.023828325    0.0222363         1341 
 5004000   0.45082384   -6.0891015      1429.27  0.023802126  0.022229814         1314 
 5005000     0.448944   -6.0760549    1430.5594  0.023818838  0.022223329         1426 
 5006000   0.45857655   -6.0882598    1432.4894  0.023846208  0.022216844         1455 
 5007000   0.44017977   -6.0951201    1433.7026  0.023861638  0.022210356         1387 
 5008000   0.44584645   -6.0903413    1431.5943  0.023821791  0.022203877         1367 
 5009000   0.45765763   -6.0990693    1431.9918  0.023823648  0.022197402         1386 
 5010000   0.45077598   -6.1061564     1432.314  0.023824251  0.022190926         1352 
 5011000    0.4474615   -6.0962082    1431.4341  0.023804864  0.022184446         1391 
 5012000   0.44425657   -6.1003016    1430.7892  0.023789392  0.022177979         1371 
Loop time of 12797 on 48 procs for 5000000 steps with 4000 atoms

Performance: 67515.790 tau/day, 390.716 timesteps/s
99.4% CPU use with 48 MPI tasks x no OpenMP threads

MPI task timing breakdown:
Section |  min time  |  avg time  |  max time  |%varavg| %total
---------------------------------------------------------------
Pair    | 917.31     | 973.9      | 1034       | 102.2 |  7.61
Neigh   | 85.819     | 89.71      | 93.674     |  21.8 |  0.70
Comm    | 818.95     | 883.68     | 944.04     | 112.0 |  6.91
Output  | 14.8       | 14.804     | 14.895     |   0.3 |  0.12
Modify  | 10693      | 10718      | 10751      |  11.4 | 83.75
Other   |            | 117        |            |       |  0.91

Nlocal:        83.3333 ave          89 max          77 min
Histogram: 2 1 3 9 5 12 3 5 5 3
Nghost:        2363.79 ave        2389 max        2347 min
Histogram: 3 9 7 6 4 10 4 4 0 1
Neighs:        16165.3 ave       18425 max       14322 min
Histogram: 2 11 6 5 5 1 5 6 3 4
FullNghs:      32385.3 ave       34660 max       28393 min
Histogram: 1 0 2 5 8 4 9 4 10 5

Total # of neighbors = 1554493
Ave neighs/atom = 388.62325
Neighbor list builds = 268949
Dangerous builds = 0

#clear
#
#next RN
#
#jump SELF
Total wall time: 3:33:21
