
units lj                  # Use reduced LJ style units
atom_style atomic         # Uncharged point particles
atom_modify map hash      # Needed for indexing of clusters etc
                          # Used to be able to find where atoms are in relation to each other.

lattice fcc 1.0 spacing 1 1 1
Lattice spacing in x,y,z = 1.5874011 1.5874011 1.5874011
region box block 0 10 0 10 0 10 units lattice
create_box 2 box
Created orthogonal box = (0.0000000 0.0000000 0.0000000) to (15.874011 15.874011 15.874011)
  3 by 4 by 4 MPI processor grid
create_atoms 1 box
Created 4000 atoms
  using lattice units in orthogonal box = (0.0000000 0.0000000 0.0000000) to (15.874011 15.874011 15.874011)
  create_atoms CPU = 0.002 seconds
set type 1 type/fraction 2 0.53 78393
Setting atom values ...
  2126 settings made for type/fraction
mass 1 1.0
mass 2 1.0
pair_style lj/cut  3.5
pair_modify tail  yes
pair_coeff 1  1  1.0  1.0   # Intearaction between 1 and 1 set with epsilon = 1 and sigma = 1
pair_coeff 1  2  1.5  0.8
pair_coeff 2  2  0.5  0.88

write_data data.0
System init for write_data ...
Neighbor list info ...
  update every 1 steps, delay 10 steps, check yes
  max neighbors/atom: 2000, page size: 100000
  master list distance cutoff = 3.8
  ghost atom cutoff = 3.8
  binsize = 1.9, bins = 9 9 9
  1 neighbor lists, perpetual/occasional/extra = 1 0 0
  (1) pair lj/cut, perpetual
      attributes: half, newton on
      pair build: half/bin/atomonly/newton
      stencil: half/bin/3d
      bin: standard
WARNING: Not all mixed pair coeffs generated from mixing. Use write_data with 'pair ij' option to store all pair coeffs. (../write_data.cpp:312)


#############################
#   M E L T   S Y S T E M   #
#############################

velocity all create 2.4 9580093 mom yes dist gaussian # Assign velocities
                                                    # Temperature 2.4, random number seed, zero linear momentum
                                                                                # Gaussian distribution

timestep 0.002   # simulation timestep
thermo 1000       # output thermodynamic data every 1000 steps bf 100

# Define a fix  in this case with index 1 applied to all
# particles in the simulation. This fix is for simulations
# in the anisotropic NPT ensemble. Note that we use the MTK
# correction.
fix 1 all npt temp 2.4 2.4 0.1 iso 5.68 5.68 0.5 mtk yes tchain 5 pchain 5 # Use NPT ensemble
                                                                         # Set temperature and pressure and damping
                                                                         # Numbers of thermostats in chain and in barostat
run 10000          # run for 10000 steps
Per MPI rank memory allocation (min/avg/max) = 3.642 | 3.644 | 3.648 Mbytes
Step Temp E_pair E_mol TotEng Press Volume 
       0          2.4   -5.1225569            0   -1.5234569   -4.1795691         4000 
    1000    2.4549758   -4.8186614            0   -1.1371183    5.4686781    3673.8787 
    2000    2.4701726   -4.8374008            0   -1.1330682    5.6486132    3640.2496 
    3000    2.3578193    -4.806452            0   -1.2706073    5.5858789    3656.5856 
    4000    2.3950797   -4.7749083            0   -1.1831869    5.4128626    3695.3367 
    5000    2.3869721   -4.8403814            0   -1.2608183    5.5753281    3635.1717 
    6000    2.3954511   -4.7609364            0    -1.168658    5.8467698    3660.2135 
    7000    2.3910173   -4.7517277            0   -1.1660984    5.3164822    3705.7317 
    8000    2.4207315     -4.80846            0   -1.1782705    5.3917615    3682.6621 
    9000    2.4075774    -4.841806            0   -1.2313428    5.5274359      3653.62 
   10000    2.3894211   -4.8249061            0   -1.2416704    5.6364899    3648.5602 
Loop time of 2.6422 on 48 procs for 10000 steps with 4000 atoms

Performance: 654001.051 tau/day, 3784.728 timesteps/s
99.6% CPU use with 48 MPI tasks x no OpenMP threads

MPI task timing breakdown:
Section |  min time  |  avg time  |  max time  |%varavg| %total
---------------------------------------------------------------
Pair    | 1.1905     | 1.2632     | 1.3804     |   3.3 | 47.81
Neigh   | 0.21732    | 0.2236     | 0.24743    |   1.2 |  8.46
Comm    | 0.73975    | 0.89531    | 0.97794    |   4.6 | 33.89
Output  | 0.00024357 | 0.00024934 | 0.00031484 |   0.0 |  0.01
Modify  | 0.21136    | 0.24432    | 0.26748    |   2.4 |  9.25
Other   |            | 0.01553    |            |       |  0.59

Nlocal:        83.3333 ave          95 max          73 min
Histogram: 1 0 4 11 9 18 2 1 1 1
Nghost:        1750.67 ave        1776 max        1728 min
Histogram: 3 6 5 9 2 7 5 4 5 2
Neighs:        10464.8 ave       11921 max        8892 min
Histogram: 1 0 2 6 13 12 8 3 2 1

Total # of neighbors = 502312
Ave neighs/atom = 125.57800
Neighbor list builds = 908
Dangerous builds = 212

# Equilibrate just above the melting temperature to avoid step fn in T

fix 1 all npt temp 1.25 1.25 0.1 iso 5.68 5.68 0.5 mtk yes tchain 5 pchain 5
run 2000
Per MPI rank memory allocation (min/avg/max) = 3.644 | 3.646 | 3.649 Mbytes
Step Temp E_pair E_mol TotEng Press Volume 
   10000    2.3894211   -4.8249061            0   -1.2416704    5.6364899    3648.5602 
   11000    1.2476687   -6.8904482            0    -5.019413     5.621177    2844.8284 
   12000    1.2371252   -6.9588952            0   -5.1036713    5.6720669    2824.3272 
Loop time of 0.658285 on 48 procs for 2000 steps with 4000 atoms

Performance: 525000.885 tau/day, 3038.200 timesteps/s
99.6% CPU use with 48 MPI tasks x no OpenMP threads

MPI task timing breakdown:
Section |  min time  |  avg time  |  max time  |%varavg| %total
---------------------------------------------------------------
Pair    | 0.29542    | 0.32004    | 0.3696     |   2.6 | 48.62
Neigh   | 0.040555   | 0.043362   | 0.050882   |   0.9 |  6.59
Comm    | 0.18816    | 0.24598    | 0.27629    |   3.4 | 37.37
Output  | 5.639e-05  | 5.7801e-05 | 7.0816e-05 |   0.0 |  0.01
Modify  | 0.039937   | 0.043951   | 0.047372   |   1.0 |  6.68
Other   |            | 0.004894   |            |       |  0.74

Nlocal:        83.3333 ave          91 max          77 min
Histogram: 2 2 12 7 5 8 2 7 1 2
Nghost:        2069.77 ave        2094 max        2052 min
Histogram: 5 5 6 10 4 4 7 3 3 1
Neighs:        13519.9 ave       15074 max       11930 min
Histogram: 2 4 4 6 6 7 11 4 0 4

Total # of neighbors = 648956
Ave neighs/atom = 162.23900
Neighbor list builds = 143
Dangerous builds = 11

#############################
# L I N E A R  Q U E N C H  #
#############################

# Define solid atoms. This closely follows ten Wolde  Ruiz-Montero and Frenkel  Faraday Discuss  1996  104  93-110
# Compute components of the per-atom q6 vector
compute q6 all orientorder/atom degrees 1 6 components 6 nnn NULL cutoff 1.3 # compute the Q6 parameter.
                                                                             # Use all neighbours within 1.3 unit cell.

# get number of connections
compute coord_number all coord/atom orientorder q6 0.5

# An atom is solid if it has 8 or more connections (of a possible 14)
variable is_solid atom c_coord_number>=8
group solid dynamic all var is_solid    # Must be dynamic to update
dynamic group solid defined

# do clustering
compute cluster solid cluster/atom 1.3 # Create a cluster where all atoms within are solid and max 1.3 units from another member

# define chunks one chunk per cluster
compute clus_chunks solid chunk/atom c_cluster nchunk every compress yes  # Says which atoms are in which chunk

# count the size of each chunk
compute size_chunks solid property/chunk clus_chunks count


# Find the maximum entry in the vector of chunk sizes
variable max_n equal max(c_size_chunks)


# Thermo style which includes this variable
# thermo_style custom step temp pe vol v_max_n

thermo ${N}  # Print the thermo information every 100 steps
thermo 1000  

# Reset the npt fix at a lower temperature (below freezing)
fix 1  all npt temp  ${temp} ${temp}  0.1  iso  5.68  5.68  0.5  mtk yes tchain  5  pchain  5
fix 1  all npt temp  0.45 ${temp}  0.1  iso  5.68  5.68  0.5  mtk yes tchain  5  pchain  5
fix 1  all npt temp  0.45 0.45  0.1  iso  5.68  5.68  0.5  mtk yes tchain  5  pchain  5

dump dmp2 all dcd ${N} traj.dcd
dump dmp2 all dcd 1000 traj.dcd


compute msd all msd com yes
variable twopoint equal c_msd[4]/6/(step*dt+1.0e-6)
fix 9 all vector 10 c_msd[4]
variable fit equal slope(f_9)/6/(10*dt)
thermo_style custom step temp pe c_msd[4] v_twopoint v_fit v_max_n

fix 1 all npt temp 1.25 ${temp} 0.1 iso 5.68 5.68 0.5 mtk yes tchain 5 pchain 5
fix 1 all npt temp 1.25 0.45 0.1 iso 5.68 5.68 0.5 mtk yes tchain 5 pchain 5
run 5000000 # 5000000  # Run for this many steps
Neighbor list info ...
  update every 1 steps, delay 10 steps, check yes
  max neighbors/atom: 2000, page size: 100000
  master list distance cutoff = 3.8
  ghost atom cutoff = 3.8
  binsize = 1.9, bins = 8 8 8
  4 neighbor lists, perpetual/occasional/extra = 1 3 0
  (1) pair lj/cut, perpetual
      attributes: half, newton on
      pair build: half/bin/atomonly/newton
      stencil: half/bin/3d
      bin: standard
  (2) compute orientorder/atom, occasional
      attributes: full, newton on
      pair build: full/bin/atomonly
      stencil: full/bin/3d
      bin: standard
  (3) compute coord/atom, occasional
      attributes: full, newton on
      pair build: full/bin/atomonly
      stencil: full/bin/3d
      bin: standard
  (4) compute cluster/atom, occasional
      attributes: full, newton on
      pair build: full/bin/atomonly
      stencil: full/bin/3d
      bin: standard
Per MPI rank memory allocation (min/avg/max) = 9.840 | 9.846 | 9.851 Mbytes
Step Temp PotEng c_msd[4] v_twopoint v_fit v_max_n 
   12000    1.2371252   -6.9588952 2.0796346e-30 1.4441906e-32 8.3333333e+20            4 
   13000    1.2500927   -7.0173686   0.46105055 0.0029554521  0.037673954            1 
   14000    1.2570443   -6.9946921   0.88978285 0.0052963263  0.035975486            1 
   15000    1.2417005   -7.0267884    1.2795402 0.0071085565   0.03476763            3 
   16000    1.2535163   -7.0541213    1.7080543  0.008896116   0.03460868            2 
   17000    1.2697106     -7.00882    2.1282515  0.010432605  0.034522916            4 
   18000     1.240688   -7.0053512    2.5301584  0.011713696  0.034535833            3 
   19000    1.2596807   -7.0403456    2.9111293  0.012768111  0.034357709            4 
   20000    1.2571343   -7.0299594    3.2812983  0.013672076  0.034088657            1 
   21000    1.2433278   -7.0311339    3.6971334  0.014671164  0.033739441            4 
   22000    1.2450846   -7.0213846    4.0794863  0.015452599  0.033600697            1 
   23000    1.2528786   -7.0136744    4.4112627  0.015982835   0.03330301            2 
   24000    1.2664757   -6.9414576    4.7618997  0.016534374  0.032953512            2 
   25000    1.2193022   -7.0227954    5.2117414  0.017372471  0.032744836            3 
   26000    1.2414297    -7.035336    5.6340465  0.018057841  0.032806183            2 
   27000    1.2566104   -6.9797194    6.0276247  0.018603779  0.032827988            3 
   28000    1.2320413   -7.0175933    6.4389778  0.019163624  0.032842852            1 
   29000    1.2622937   -7.0667316    6.8034811  0.019550233  0.032895522            3 
   30000    1.2478933   -7.0823402     7.144474  0.019845761  0.032883675            1 
   31000    1.2533181    -7.009718    7.6204974  0.020485208   0.03288055            2 
   32000    1.2505245   -7.0822544    8.0061744  0.020849412  0.032923998            1 
   33000     1.265547   -7.0396854     8.392207  0.021192442  0.032932805            2 
   34000    1.2258453   -6.9797273    8.8916149  0.021793173  0.032980173            2 
   35000    1.2722037   -7.0081643    9.2909769  0.022121373  0.033034265            1 
   36000    1.2644351   -7.0341188    9.7463521     0.022561  0.033139568            1 
   37000    1.2441632   -7.0440877    10.088806  0.022722535  0.033224785            2 
   38000    1.2751061   -7.0189199    10.395173  0.022796431  0.033234662            2 
   39000    1.2324362   -7.0676414    10.844158  0.023171277  0.033242328            1 
   40000    1.2513113   -7.0243869    11.363954  0.023674904  0.033276541            2 
   41000    1.2438184   -7.0466219    11.705819  0.023792314  0.033310807            3 
   42000    1.2487796   -7.0174876    12.127747  0.024062991  0.033330393            1 
   43000    1.2624295   -7.0298423     12.60042  0.024419419  0.033357385            1 
   44000    1.2397277   -7.0236761    12.857158  0.024350679  0.033381662            1 
   45000     1.256326   -7.0457877    13.271704   0.02457723  0.033391252            3 
   46000    1.2234944   -7.0428573    13.734831  0.024881939  0.033400991            2 
   47000    1.2375313   -7.0084422    14.052362  0.024915535  0.033393731            2 
   48000    1.2534879   -7.0250948    14.380504  0.024966153  0.033362444            1 
   49000    1.2497297   -7.0820119    14.808956  0.025185299  0.033343864            2 
   50000    1.2761328   -7.0515424    15.216098  0.025360162  0.033337224            2 
   51000    1.2584924   -7.0290318    15.741897  0.025722053  0.033338894            3 
   52000     1.247138   -7.0396375    16.009878  0.025656856  0.033348917            3 
   53000    1.2346392   -6.9926824     16.53878  0.026004371  0.033349812            3 
   54000    1.2578086   -7.0069367    17.004021  0.026240773  0.033384484            2 
   55000    1.2643748   -7.0708287    17.459266  0.026453434  0.033429579            3 
   56000    1.2267133   -7.0442493    17.608808  0.026203583  0.033435153            6 
   57000     1.234491   -7.0269352    18.210212  0.026623116  0.033440587            1 
   58000    1.2596709   -7.0240495    18.662489   0.02681392  0.033459088            2 
   59000    1.2431294   -7.0405873    18.957925   0.02677673  0.033478042            2 
   60000    1.2467105   -7.0763148    19.315086  0.026826508  0.033479085            3 
   61000    1.2768818   -7.0700576    19.783202  0.027026232  0.033477823            2 
   62000    1.2460088   -7.0587624    20.099587  0.027015573  0.033486774            4 
   63000     1.249695   -7.0132993     20.54173    0.0271716  0.033480606            5 
   64000    1.2423656    -7.015544    20.978256  0.027315437  0.033479452            1 
   65000    1.2373166   -7.0420867    21.329464  0.027345466  0.033483498            4 
   66000     1.226289   -7.0472864    21.794434  0.027518224  0.033495181            1 
   67000    1.2427516   -7.0127454    22.114329  0.027505384  0.033493937            2 
   68000    1.2361165   -7.0671802    22.513912  0.027590579  0.033493004            3 
   69000    1.2420656   -6.9879544    22.886318  0.027640481  0.033489256            2 
   70000    1.2373381    -7.056444    23.418957   0.02787971  0.033489911            2 
   71000    1.2574333   -7.0913304    23.876952  0.028024591  0.033503251            4 
   72000    1.2202312   -7.0610603    24.105872  0.027900314   0.03352036            2 
   73000    1.2591525     -7.03037    24.621396  0.028106616  0.033523544            3 
   74000     1.236628   -7.0151098    24.783065  0.027908857  0.033505617            1 
   75000    1.2442076   -7.0633308    25.327895  0.028142105  0.033488165            1 
   76000    1.2316035   -7.0344228    25.633256   0.02810664  0.033483529            2 
   77000    1.2556211   -7.0729527    25.986728  0.028124164  0.033468775            1 
   78000      1.23925   -7.0208857    26.574155  0.028391191  0.033465428            1 
   79000    1.2553092   -7.0318628    26.926386   0.02840336  0.033460865            1 
   80000    1.2644831   -7.0569627    27.091972  0.028220804  0.033439826            1 
   81000    1.2339182   -7.0573266    27.420395  0.028210282  0.033416718            2 
   82000    1.2231115   -7.0699138    27.820517  0.028272883  0.033396825            1 
   83000    1.2212956   -7.0510352    28.220336   0.02833367  0.033372397            3 
   84000    1.2607359   -7.0509467    28.814743  0.028586054  0.033358671            1 
   85000    1.2146656   -7.0497896    29.096261  0.028525746  0.033343726            2 
   86000    1.2395081    -7.052637    29.391724  0.028480353  0.033322652            2 
   87000    1.2362168    -7.078378    29.802301  0.028546265  0.033303845            3 
   88000    1.2436844   -7.0560529    30.107616     0.028511  0.033270474            2 
   89000    1.2562326   -7.0458338    30.458337  0.028519042  0.033244338            2 
   90000    1.2627693   -7.0458139    30.947091  0.028654714  0.033223198            2 
   91000    1.2333359   -7.0724887    31.173156  0.028546846  0.033192988            3 
   92000    1.2208851   -7.0202041    31.750574  0.028759577  0.033166409            2 
   93000    1.2439023   -7.0283924    32.310925  0.028952442  0.033154615            2 
   94000    1.2093696   -7.0948196    32.602672  0.028903078  0.033146347            4 
   95000    1.2575309   -7.0184683     33.21343  0.029134587  0.033140024            1 
   96000    1.2430715   -7.0567595    33.612966  0.029177922  0.033145488            2 
   97000    1.2374794   -7.0902274    33.983315  0.029195288  0.033148964            4 
   98000    1.2145755   -7.0434951    34.395582  0.029247943  0.033147843            1 
   99000    1.2541998   -7.0458112    34.705796  0.029213633  0.033144396            1 
  100000    1.2278207   -7.0728951    34.982242  0.029151868  0.033136416            4 
  101000    1.2124586   -7.0764148    35.427145  0.029230317  0.033129467            1 
  102000    1.2338196   -7.0454847    35.747843  0.029205754  0.033119678            2 
  103000    1.2252273   -7.0360734    36.316755  0.029382488  0.033114776            2 
  104000     1.246107   -7.0106849    36.804588  0.029490856  0.033117255            3 
  105000    1.2471377   -7.0420426    37.232164  0.029549336  0.033119566            4 
  106000    1.2628821   -7.0471064    37.801686  0.029718306   0.03312824            1 
  107000    1.2233347   -7.0643154    38.061726  0.029643088  0.033135865            2 
  108000    1.2213541   -7.0370259    38.463725    0.0296788  0.033145691            2 
  109000    1.2492558   -7.1209276    38.856324   0.02970667  0.033148919            2 
  110000    1.2339913   -7.0282833    39.245653  0.029731555  0.033155461            2 
  111000    1.2560535   -7.0751062    39.574177  0.029710343   0.03315663            1 
  112000    1.2286772   -7.0535934    39.984992  0.029750738    0.0331553            1 
  113000    1.2248891   -7.1059322    40.322708   0.02973651   0.03315492            1 
  114000    1.2195256   -7.0700196    40.772727  0.029804625  0.033159402            2 
  115000    1.2092149    -7.047124    41.272081  0.029907305  0.033162673            3 
  116000    1.2144239   -7.1191944    41.391151  0.029735022  0.033165453            1 
  117000    1.2166159   -7.0104072    42.043621  0.029945599  0.033164756            4 
  118000    1.2330096   -7.0238042    42.454831  0.029982225  0.033170664            2 
  119000    1.2404423   -7.0666824    42.724032   0.02991879  0.033174307            2 
  120000    1.2133361   -7.0451875    43.376874  0.030122829  0.033179779            2 
  121000    1.2068525   -7.0463405    43.556497  0.029997588  0.033183828            2 
  122000    1.2416085    -7.055921    44.096445  0.030120523  0.033194642            2 
  123000     1.217637   -7.0652783     44.61871  0.030229479  0.033208422            1 
  124000    1.2460794   -7.0908944    44.837824  0.030132946  0.033218134            3 
  125000    1.2470819   -7.0599243    45.332167  0.030221444  0.033223833            3 
  126000    1.2264874   -7.0641702    45.651478  0.030192776  0.033230262            1 
  127000    1.2289327   -7.0278542    46.406815  0.030450666  0.033235891            3 
  128000    1.2362684   -7.0867407    46.511301  0.030280795  0.033242459            2 
  129000    1.2218316   -7.0343882    46.780501  0.030219962  0.033244622            4 
  130000    1.2157901   -7.0447591    47.174825  0.030240273  0.033242633            1 
  131000    1.2200249   -7.0690932    47.309663  0.030095205  0.033240533            3 
  132000    1.2234822   -7.1083405    47.700869  0.030114185  0.033235733            3 
  133000     1.236118   -7.0365419    48.279533  0.030250334  0.033230268            2 
  134000    1.1937695   -7.0528755    48.495116  0.030158654  0.033224251            5 
  135000    1.2074135    -7.033408    48.866311   0.03016439  0.033215069            1 
  136000    1.2222502   -7.0397788    49.171932   0.03012986   0.03320799            2 
  137000    1.2120312    -7.080726      49.6063  0.030174148  0.033197965            1 
  138000    1.2266392   -7.0820106    49.843988  0.030099026  0.033186576            2 
  139000    1.2210094   -7.0437651    50.248939  0.030125263  0.033173222            2 
  140000     1.249092   -7.0654487    50.578718  0.030106379  0.033157866            2 
  141000     1.240741   -7.0941709    50.919457  0.030094242  0.033146079            2 
  142000    1.2204497   -7.1052115    51.362228  0.030142152  0.033135128            3 
  143000    1.2197959   -7.0662384    52.039268  0.030325913  0.033125481            1 
  144000    1.2444524   -7.0738836    52.445731  0.030350539  0.033121426            1 
  145000    1.2329942   -7.0902158    52.607516  0.030234204  0.033111427            2 
  146000    1.2259574   -7.0069744    53.136268   0.03032892  0.033100323            2 
  147000    1.2453856   -7.1181783     53.35723  0.030247863  0.033094101            2 
  148000    1.2301473   -7.0721783    53.859605  0.030326354  0.033084673            1 
  149000     1.241578   -7.1202577    53.985972  0.030193497  0.033073719            2 
  150000    1.2020656   -7.1105177    54.361689  0.030200938  0.033061893            4 
  151000    1.2246218   -7.0692656    55.088862  0.030402242   0.03305178            3 
  152000    1.2489422   -7.1116691    55.231454  0.030280402  0.033041266            2 
  153000    1.2246005   -7.0942713    55.677576  0.030325477  0.033029428            4 
  154000    1.2370884   -7.0981642    55.846318  0.030219869  0.033016105            1 
  155000    1.2497014   -7.0553616    56.742223  0.030506571  0.033004883            4 
  156000    1.2217494   -7.0816945    56.945189  0.030419439  0.033000406            4 
  157000    1.2256262   -7.0766474    57.420668  0.030478061  0.032991012            1 
  158000     1.286634   -7.0830172    57.431155  0.030290693  0.032980369            2 
  159000     1.230358   -7.0779191    57.851242  0.030320357  0.032968202            2 
  160000    1.2594402   -7.0919577    58.191751  0.030308203  0.032954302            2 
  161000    1.2076185   -7.0713279    58.441691  0.030249322   0.03293792            2 
  162000     1.238895   -7.0709577    58.960586  0.030329519  0.032924554            2 
  163000    1.1998413   -7.1233062     59.02798  0.030177904  0.032908705            2 
  164000    1.2476374   -7.0516434    59.348602   0.03015681  0.032889637            4 
  165000    1.2096994   -7.0531003    59.728736  0.030166028  0.032870677            3 
  166000     1.211489   -7.0890847    60.146541  0.030194047  0.032851126            3 
  167000    1.2511485   -7.0839731    60.382433  0.030130955  0.032831971            3 
  168000    1.2304066   -7.0944405    60.569647  0.030044468  0.032810037            2 
  169000    1.2199393   -7.0752923    60.914506  0.030036738  0.032784976            2 
  170000    1.2147789   -7.0875956    61.085682  0.029943961  0.032759535            1 
  171000    1.2363281   -7.1171162    61.235363  0.029841795  0.032731423            2 
  172000    1.2052967   -7.0747098    61.851053  0.029966595  0.032705702            2 
  173000     1.207178   -7.0604105    62.470045  0.030091544  0.032680456            1 
  174000    1.2339922   -7.0506538    62.872031  0.030111126  0.032656708            2 
  175000     1.234282   -7.0968752    63.071601  0.030034096  0.032632278            2 
  176000    1.1994769   -7.0356309    63.636462  0.030130901  0.032609028            1 
  177000    1.1993396   -7.1001658    63.756977  0.030017409  0.032587468            2 
  178000    1.2344534   -7.0963744    63.883184  0.029907858  0.032563107            7 
  179000    1.2250035   -7.0909877    64.394591   0.02997886  0.032538554            1 
  180000    1.2619267   -7.0808288     64.64462  0.029928065  0.032514749            1 
  181000    1.2603167   -7.0735963    65.180284  0.030009339    0.0324909            1 
  182000    1.2330477   -7.0701978    65.555686   0.03001634  0.032467446            2 
  183000    1.2172735    -7.104045    66.030485  0.030068527    0.0324444            7 
  184000    1.2192269   -7.1056619    66.006985  0.029894468   0.03242213            1 
  185000    1.2163954   -7.0897032    66.763091  0.030073464  0.032401762            3 
  186000     1.245776   -7.0699707    67.350224  0.030174831  0.032384729            1 
  187000    1.2324873   -7.1401051    67.345913  0.030011548  0.032367677            2 
  188000     1.208453   -7.1354109    67.638699  0.029981693  0.032348421            2 
  189000    1.2294953   -7.1025255     68.20349  0.030072086  0.032328738            2 
  190000    1.1975035   -7.0503851    68.737049  0.030147829  0.032311653            1 
  191000    1.2007506    -7.101181     69.05825  0.030130127  0.032295626            3 
  192000     1.230163   -7.0538548    69.589844  0.030203925  0.032281722            3 
  193000    1.2366911   -7.1086216    70.039907  0.030241756  0.032270328            3 
  194000    1.2157721   -7.0478909    70.610758  0.030331081  0.032261205            2 
  195000    1.2451031   -7.1027252    70.787931  0.030251252  0.032250792            3 
  196000    1.2111247   -7.0724112    71.131747   0.03024309  0.032242707            2 
  197000    1.2156113   -7.1329586    71.395563  0.030201169  0.032232085            1 
  198000    1.2006277   -7.1368227    71.844645  0.030237645   0.03222195            1 
  199000    1.2126835   -7.1124936    72.494902  0.030357999  0.032213034            4 
  200000    1.2165119   -7.1051758    72.669424  0.030278927  0.032203051            3 
  201000    1.2359431   -7.1025608    73.331028  0.030402582  0.032197477            3 
  202000    1.2368607   -7.1078654    74.007486  0.030531141  0.032193465            4 
  203000    1.1897333   -7.1028202    73.976583  0.030368056  0.032186415            3 
  204000    1.2319014   -7.0942142    74.266601  0.030337664  0.032179763            2 
  205000    1.2068305   -7.0963568    74.555997  0.030307316  0.032170786            2 
  206000    1.2233626   -7.1102116    75.060615  0.030364327   0.03216321            1 
  207000    1.2314017   -7.0868366    75.362602  0.030339212  0.032153231            1 
  208000     1.228698   -7.1052097     75.83869  0.030384091  0.032144276            2 
  209000    1.1934477   -7.0631904    76.244804   0.03040064  0.032137166            2 
  210000    1.2032124   -7.0892296    76.578701  0.030388373  0.032128332            2 
  211000    1.2329312   -7.1111578    76.877758  0.030362464  0.032118505            3 
  212000    1.1945228   -7.0987457    77.272359  0.030374355  0.032109574            2 
  213000    1.2028026   -7.0916457    77.773896  0.030427972  0.032100713            2 
  214000    1.2200992   -7.1094643    77.947859  0.030353528  0.032093846            2 
  215000    1.2255468   -7.0943036    78.714123   0.03050935   0.03208878            2 
  216000    1.2184014   -7.1340992    78.437411  0.030261347  0.032080759            2 
  217000    1.2302268   -7.0648621    78.899404   0.03029931  0.032071228            3 
  218000    1.2253809   -7.1201497    79.612924  0.030433075   0.03206301            2 
  219000    1.1604171   -7.1075047    80.080445  0.030472011  0.032055643            3 
  220000    1.2240153   -7.0161548    80.642733   0.03054649  0.032051734            4 
  221000    1.2101463   -7.1043923    80.690454  0.030426265  0.032047092            2 
  222000    1.2002619   -7.1065478    81.311416  0.030522303  0.032042378            1 
  223000    1.2142524   -7.1231113    81.951378  0.030624581  0.032037674            1 
  224000    1.2187271   -7.1347595    81.746691  0.030411715  0.032033401            2 
  225000    1.2271433   -7.0624932    82.516244  0.030561572  0.032028283            3 
  226000    1.2181048   -7.0613247    82.723067  0.030502606   0.03202368            4 
  227000    1.2195258   -7.0900946    83.321881  0.030588062  0.032019568            1 
  228000    1.2045058   -7.1189894    83.464351  0.030505976   0.03201441            3 
  229000    1.2067922   -7.1185264    83.916779  0.030537401  0.032009085            3 
  230000    1.2023985   -7.0928465    84.352865  0.030562632  0.032004671            2 
  231000    1.2183611   -7.0980017    84.318244  0.030417837  0.031998558            1 
  232000    1.2029635   -7.1398955    84.892542  0.030493011   0.03199195            3 
  233000    1.2241675    -7.065831    85.417519    0.0305499  0.031986338            4 
  234000    1.2272701   -7.0858051    85.377529  0.030405103  0.031980238            4 
  235000     1.225992   -7.1018553    85.993072  0.030493997  0.031973677            2 
  236000    1.2210976   -7.1049801    86.236734  0.030450824  0.031966495            4 
  237000    1.2200348   -7.0644402    86.842082   0.03053519  0.031961638            3 
  238000    1.2132439   -7.0999178    87.260901  0.030553537  0.031957366            2 
  239000      1.19719   -7.0815408    87.547584  0.030525657  0.031952349            2 
  240000    1.2161545   -7.1343162     87.76188  0.030472875  0.031947885            3 
  241000     1.202525   -7.1556522    88.357475  0.030552377   0.03194054            2 
  242000    1.2204217   -7.0804445    88.420441   0.03044781  0.031934818            1 
  243000    1.2022881   -7.1249365    88.902877  0.030487955  0.031929034            2 
  244000    1.2130125   -7.0893453    89.356616   0.03051797  0.031922931            1 
  245000    1.1819652   -7.1223396    89.295857   0.03037274  0.031916061            3 
  246000    1.2069869   -7.1252495    89.645412  0.030367687  0.031910058            3 
  247000    1.2275608   -7.1251836    90.139216  0.030411341  0.031902029            5 
  248000    1.2147905   -7.1305611    91.056104  0.030596809  0.031898901            2 
  249000    1.2062897   -7.1829031    90.878129  0.030414367  0.031894386            2 
  250000    1.1839526   -7.0976913    91.570267  0.030523422  0.031889738            3 
  251000    1.2343635     -7.08091    92.378372   0.03067011  0.031887136            3 
  252000     1.212719   -7.0664997    93.082825  0.030781357   0.03188679            2 
  253000    1.1861053   -7.0859747    93.401711  0.030764727  0.031884558            6 
  254000    1.2305016   -7.1025726    93.565701  0.030697408  0.031882515            2 
  255000    1.2241198   -7.1512551    93.759626  0.030640401  0.031880173            3 
  256000    1.2172131   -7.1536818    93.574868  0.030460569  0.031876356            2 
  257000    1.2086536   -7.1628296    94.063804  0.030500585  0.031870125            1 
  258000    1.2265431   -7.1414976    94.608863  0.030558418  0.031865104            1 
  259000    1.2328408   -7.1781132    94.645764  0.030452305  0.031860641            3 
  260000    1.2080139   -7.1012268    95.583325  0.030635681  0.031856591            1 
  261000     1.210893   -7.1057237    95.667231  0.030545093  0.031852506            1 
  262000     1.192813   -7.1119129    95.790189  0.030467617  0.031847082            3 
  263000     1.191446   -7.1823076     96.30283  0.030514205  0.031841524            7 
  264000    1.1884532   -7.1380365    96.698956   0.03052366  0.031837872            1 
  265000    1.1976526   -7.1474573    97.084367  0.030529675   0.03183301            1 
  266000    1.2150779   -7.1534792    97.345235  0.030496627   0.03182858            4 
  267000    1.2404461   -7.1098979    98.062591  0.030606302  0.031823124            2 
  268000      1.20332   -7.1176578    97.739249  0.030391557  0.031816899            1 
  269000    1.2322698    -7.139447    98.129237  0.030399392  0.031810424            3 
  270000    1.2162458   -7.1179135    98.922853  0.030531745  0.031806102            3 
  271000    1.2103108   -7.1212301    99.488221  0.030592934  0.031803254            2 
  272000    1.2100447   -7.1088429    99.844843  0.030589719  0.031798649            5 
  273000    1.2349996   -7.1320437    99.988381  0.030521484  0.031792395            4 
  274000    1.2197052    -7.162082    99.963203  0.030402434  0.031786675            2 
  275000    1.2096994   -7.1155839    100.64701  0.030499093  0.031779441            3 
  276000    1.1961236   -7.1495014     100.6443  0.030387772  0.031771789            3 
  277000    1.2094854   -7.1213449    101.28931  0.030472114  0.031764553            1 
  278000    1.1776961   -7.0761569    101.90572  0.030547277  0.031757097            2 
  279000    1.2275098   -7.1209725    101.72747  0.030384547  0.031749232            6 
  280000    1.2204217   -7.1147975    102.19677  0.030415706  0.031740427            1 
  281000     1.193395   -7.1285087    102.35925  0.030355648  0.031733057            1 
  282000    1.2014478   -7.1462191    102.77639  0.030371273  0.031725032            1 
  283000    1.2062625   -7.1536317    102.73933  0.030253043  0.031716288            2 
  284000    1.1779987   -7.1424464    103.63818  0.030410263  0.031708374            4 
  285000    1.2226519   -7.0793826    104.07856  0.030432326   0.03170017            2 
  286000    1.2351217   -7.0923989    104.11455  0.030336407  0.031691075            1 
  287000     1.215189   -7.1311567    104.30164   0.03028503  0.031682739            5 
  288000    1.2152918   -7.1183562    104.79361  0.030322225  0.031673717            1 
  289000    1.2187615    -7.153195      104.751  0.030205018  0.031663483            2 
  290000    1.2013774   -7.1509817    105.47314  0.030308375  0.031653975            2 
  291000     1.186517    -7.114074    106.04193  0.030367104   0.03164539            2 
  292000    1.2181596    -7.106927    106.75376  0.030466256  0.031639335            4 
  293000    1.1621203   -7.1108237    106.76497  0.030365463  0.031631978            2 
  294000    1.1979501   -7.1669091    106.42033  0.030164493  0.031622339            4 
  295000    1.1859985   -7.1532609    107.02032  0.030231729  0.031612709            2 
  296000    1.1919531   -7.1481694    107.18474  0.030175884  0.031601678            3 
  297000    1.1931658   -7.1643479    107.37516  0.030127711  0.031589537            5 
  298000       1.1817   -7.1546471    108.15008  0.030243311  0.031579346            2 
  299000    1.2109282   -7.1212465    108.25474  0.030171331  0.031569145            1 
  300000    1.2066024   -7.1537696    108.72001  0.030200003  0.031559166            1 
  301000    1.2243666    -7.132593    109.28878  0.030257137  0.031549522            1 
  302000    1.2281861   -7.1823349    108.97939  0.030071576  0.031539637            3 
  303000    1.1896779   -7.1140174    110.05791  0.030268953  0.031528765            1 
  304000    1.2226425   -7.1800806    109.73518  0.030080917    0.0315197            2 
  305000     1.207837   -7.1361547    110.19087  0.030106796  0.031509202            2 
  306000    1.1993277   -7.1270301    110.64979  0.030133386  0.031498365            2 
  307000    1.1841518   -7.1175441    111.34721  0.030224541  0.031489088            2 
  308000    1.1997545   -7.1784182    111.39197  0.030138521  0.031478024            3 
  309000    1.2293538   -7.1503428    111.94227  0.030189393  0.031466653            2 
  310000    1.2009411   -7.1587619    111.95789  0.030096206  0.031455857            3 
  311000    1.1884083   -7.1636087     112.0081  0.030012889  0.031444397            2 
  312000     1.198018   -7.1414672    112.30928  0.029997138  0.031433132            2 
  313000    1.2257639    -7.127577    112.70876  0.030007657  0.031420539            1 
  314000    1.2097567   -7.1501054    112.93146  0.029971195  0.031407813            1 
  315000    1.2132308    -7.150661    113.39398  0.029998407  0.031395506            2 
  316000    1.2185449   -7.1402884    114.19076  0.030113597  0.031383647            1 
  317000    1.1846071   -7.1535131    114.32468  0.030053805  0.031372587            3 
  318000    1.1831419   -7.1477663    114.45475  0.029993383  0.031361014            4 
  319000    1.2273747    -7.118947    114.68361  0.029959145  0.031348259            1 
  320000    1.1842825   -7.1534902    114.68955  0.029867071  0.031335072            2 
  321000    1.1721511   -7.1452028    115.40545  0.029959879  0.031322881            2 
  322000    1.1939408    -7.152495    115.58427  0.029913114  0.031310987            5 
  323000    1.2052064   -7.1433577    116.10441  0.029954698  0.031297586            2 
  324000    1.2044269   -7.1680061    116.05649   0.02984992  0.031285136            2 
  325000    1.1904707   -7.1524565    116.01833  0.029748289  0.031271492            5 
  326000    1.1847934   -7.0936369    117.22548  0.029965613  0.031257806            3 
  327000    1.2228756   -7.1618769    116.66759  0.029731802  0.031244114            2 
  328000    1.2113312   -7.1408574      117.472  0.029845529   0.03122963            2 
  329000    1.2241334   -7.1343365    117.92327  0.029869117  0.031215951            2 
  330000     1.180312   -7.1035898    118.26026  0.029863702  0.031202261            2 
  331000    1.2060309   -7.1188484    118.96077  0.029949841  0.031188989            4 
  332000    1.1875273   -7.1613628    118.41208  0.029721906  0.031175669            3 
  333000    1.2140132   -7.1109811    119.10412  0.029805835  0.031161303            2 
  334000    1.2176176   -7.1470244    119.29829  0.029765042  0.031146755            1 
  335000    1.1742983   -7.1508706    119.32416  0.029682627  0.031132872            6 
  336000    1.2093423   -7.1344047    120.29291  0.029834552  0.031118906            4 
  337000     1.192523   -7.2100406    119.93778  0.029658204  0.031104776            2 
  338000    1.2061488    -7.126922    120.62652  0.029740267  0.031090234            1 
  339000    1.2230472   -7.2016902     120.2305  0.029555186  0.031075878            3 
  340000    1.1907328   -7.1411632    121.19562  0.029704809  0.031061524            1 
  341000    1.2147681   -7.1592019    121.73191  0.029748757  0.031047822            4 
  342000    1.1807347   -7.1402051    122.27307  0.029793632  0.031035438            5 
  343000    1.1796741   -7.1345356    122.32701  0.029719875  0.031022889            2 
  344000    1.1724988   -7.1183739    123.18184  0.029840563   0.03101119            3 
  345000    1.1854207   -7.1521751    123.59392  0.029853604  0.031000825            3 
  346000     1.212905   -7.1549925    123.88514  0.029837462  0.030989517            2 
  347000    1.2031165   -7.1400594    124.46618  0.029891012  0.030978334            5 
  348000    1.2069526   -7.1612097    124.23347  0.029749394  0.030965221            1 
  349000    1.1788077   -7.1410517     124.5024  0.029728367  0.030952375            2 
  350000    1.2074194   -7.1777132     124.7602  0.029704811  0.030939841            2 
  351000    1.2135607   -7.1510227    124.92933  0.029660335  0.030926445            2 
  352000    1.1955348   -7.1026977    125.49639  0.029710319  0.030913542            1 
  353000    1.2212401   -7.1155877     125.6835  0.029670325  0.030900485            1 
  354000    1.2054061   -7.1376939    125.54844  0.029554719  0.030886219            2 
  355000    1.2111191   -7.1989868    125.66218  0.029498165  0.030871736            2 
  356000    1.2046556    -7.212953    126.21358  0.029544377  0.030858002            3 
  357000    1.2037379   -7.1149286     126.6105  0.029554271  0.030844059            2 
  358000    1.1793076    -7.143134    127.00275  0.029563023  0.030830733            2 
  359000    1.2099057   -7.1330171    127.52078  0.029600925  0.030816862            2 
  360000    1.1971207   -7.1683003    127.32923   0.02947436  0.030802892            2 
  361000    1.1983068   -7.2056375     127.4047  0.029410133  0.030788216            1 
  362000    1.1889451   -7.1904289    128.27818  0.029529967  0.030773132            3 
  363000    1.1947634   -7.1515226    128.43432  0.029484463  0.030758991            1 
  364000    1.1726516    -7.154437    128.98652  0.029529881  0.030745068            2 
  365000    1.1989788   -7.1597314    129.57169  0.029582577   0.03073167            4 
  366000    1.1593747   -7.2172101    129.08391   0.02939069  0.030717796            2 
  367000    1.2070299   -7.1848841     129.4035  0.029383175  0.030703078            2 
  368000    1.1784051    -7.160166    129.90373  0.029416605  0.030689329            2 
  369000    1.1824688   -7.1715557    130.10118  0.029381477  0.030675292            2 
  370000    1.2082289   -7.1734594    130.26752  0.029339532  0.030659384            2 
  371000    1.1831301    -7.203457    130.33147  0.029274814  0.030643952            2 
  372000    1.2109483   -7.1663752    130.87003  0.029316762   0.03062849            2 
  373000    1.1785083   -7.1625517    131.19875  0.029311606  0.030614058            3 
  374000    1.1920755   -7.2168116     130.9966  0.029188191  0.030598535            1 
  375000     1.213703   -7.1843937    131.52285    0.0292273  0.030581428            4 
  376000    1.2006512   -7.1700899    132.04259  0.029264759  0.030565387            2 
  377000    1.1750158   -7.1623491    132.92237  0.029381602  0.030550218            1 
  378000     1.206201   -7.1430997    133.47429  0.029425549  0.030536419            4 
  379000    1.1962066   -7.1793691    133.19186   0.02928581  0.030521891            5 
  380000    1.2032448   -7.1821019    133.52531  0.029281867  0.030507329            1 
  381000     1.195215   -7.2001124    133.56953  0.029214683  0.030493444            5 
  382000    1.1717589   -7.1686721    134.29128  0.029295655  0.030478539            3 
  383000    1.1767213   -7.1886762    134.38645  0.029239872  0.030464069            1 
  384000    1.2052605   -7.1387573    135.11017  0.029320783  0.030449974            4 
  385000    1.2111883   -7.1600786    135.45892  0.029320112  0.030436413            5 
  386000    1.1983187   -7.2050309    135.32122  0.029214427  0.030422788            2 
  387000    1.2076099   -7.2230996    135.44626  0.029165862  0.030408778            2 
  388000    1.1928557   -7.1487395    136.51159    0.0293195  0.030394226            3 
  389000    1.2005702   -7.1874443    136.49755  0.029241121  0.030381437            2 
  390000    1.2014825   -7.1714621    136.95571   0.02926404  0.030369192            3 
  391000    1.1772155   -7.1308132    138.12657   0.02943874  0.030358068            1 
  392000     1.190968   -7.1781689     138.3297  0.029406823  0.030347482            2 
  393000     1.199445   -7.1681205    138.77862  0.029427188  0.030336664            3 
  394000    1.2014291   -7.2240663     138.6687  0.029329251  0.030325915            2 
  395000    1.1971512   -7.1974364    138.90281  0.029304391  0.030314747            2 
  396000    1.1934881   -7.2421754    139.52658  0.029361654  0.030303141            2 
  397000    1.1996617   -7.1091557    140.69952  0.029533904  0.030292643            2 
  398000    1.1898555   -7.1652799    140.52153   0.02942243  0.030283448            5 
  399000    1.1823971   -7.1970798    140.58748  0.029362465  0.030272791            3 
  400000    1.1876721   -7.2074696    140.61568  0.029294933  0.030262619            6 
  401000     1.220958   -7.1984347    141.04796  0.029311712  0.030252506            2 
  402000    1.1704364    -7.207766    141.31747  0.029294667  0.030242224            1 
  403000    1.1732999   -7.2006876    141.45799  0.029251031  0.030231052            3 
  404000    1.1880947   -7.1820739    142.05993  0.029302791  0.030219433            2 
  405000    1.1770247   -7.1495391    142.48116  0.029317111  0.030208255            1 
  406000    1.1628002   -7.1612049     143.0245  0.029356425  0.030197386            2 
  407000     1.215049   -7.2338315    143.10457   0.02930069   0.03018675            7 
  408000    1.1953832   -7.1890381    143.35511  0.029280046  0.030175736            5 
  409000     1.189395   -7.1704653    143.27908  0.029192967  0.030165014            1 
  410000    1.1855637   -7.2143244    143.58626  0.029184199  0.030154584            2 
  411000    1.1544923   -7.1508789    144.19145  0.029235898   0.03014328            2 
  412000    1.1966791   -7.2010145    144.68858  0.029265489  0.030132955            3 
  413000    1.1867777   -7.1605519    144.40033  0.029136467  0.030122489            4 
  414000     1.199324   -7.1804482    145.21693   0.02923046  0.030111906            2 
  415000    1.1901626   -7.1891361    145.70523  0.029258077  0.030100341            1 
  416000    1.1755782   -7.1498462    145.57692  0.029162043  0.030089721            1 
  417000    1.2008318   -7.1340013    146.17394  0.029211418  0.030078718            2 
  418000    1.1724013   -7.1923562    146.34671  0.029175979  0.030067671            4 
  419000    1.1873959   -7.1727437    146.71856  0.029180302  0.030056829            3 
  420000    1.1866239   -7.1764742    147.17728  0.029201842  0.030046305            1 
  421000    1.2019228   -7.1979281    147.86324  0.029268259  0.030036202            2 
  422000    1.1733966   -7.1519002    148.02543  0.029230929  0.030025492            3 
  423000    1.1886417   -7.2100841    148.10108   0.02917673  0.030014958            1 
  424000    1.1897678    -7.192548    148.51096  0.029188474  0.030004499            2 
  425000    1.2073355   -7.1616064    148.67046   0.02915107  0.029994232            1 
  426000    1.1832304   -7.2233685    148.67569  0.029083664  0.029984105            3 
  427000     1.172183   -7.2082833    149.41421  0.029159681  0.029973265            3 
  428000    1.1996703   -7.2085825    149.67329  0.029141995  0.029962288            2 
  429000    1.1953951   -7.2375427    149.49601  0.029039629  0.029951149            3 
  430000    1.1764254   -7.1784216    150.21138  0.029110732  0.029939808            3 
  431000    1.1894016   -7.1895272    150.26871  0.029054276  0.029928143            3 
  432000    1.1972409   -7.2094088    150.18548  0.028970965  0.029916514            3 
  433000    1.1548636   -7.1549604    151.21171  0.029101561  0.029905155            4 
  434000    1.1663573    -7.223394    150.73392  0.028942765  0.029894012            3 
  435000    1.1854566   -7.1814602    151.67229  0.029055995   0.02988261            3 
  436000    1.1851565   -7.1772825    152.25578  0.029100876  0.029871739            2 
  437000    1.1729173   -7.1873826    151.92137  0.028970514  0.029860957            6 
  438000    1.1830605   -7.2000565    152.11013  0.028940283  0.029849323            1 
  439000    1.1813869   -7.2448909    151.96686  0.028847164  0.029837981            3 
  440000    1.1466637   -7.1767698    153.20026  0.029015201  0.029827314            2 
  441000    1.1797339   -7.1858556    153.19946  0.028949256   0.02981642            3 
  442000    1.1718407   -7.1773555    153.90965  0.029017656  0.029805948            5 
  443000    1.2035007   -7.1978154    153.57912  0.028889978  0.029794775            3 
  444000    1.2006784   -7.2185806    153.94426  0.028893442  0.029782179            2 
  445000    1.1736966   -7.2269087    153.81088  0.028803536  0.029770719            2 
  446000    1.1549317   -7.1723689    154.98034  0.028957463  0.029758824            4 
  447000    1.1634074   -7.1726816    154.64423  0.028830021  0.029746978            2 
  448000    1.2016019   -7.1954193     155.4596  0.028917337  0.029735979            3 
  449000    1.1720494   -7.1750109    155.95987  0.028945782  0.029725017            5 
  450000    1.1683622   -7.1813939    155.54223  0.028804117  0.029714369            2 
  451000    1.2182217   -7.1974832    155.67086  0.028764018  0.029703377            2 
  452000    1.1821612   -7.2390316    156.81348   0.02891104  0.029691685            3 
  453000    1.1811166   -7.2047951    157.25682  0.028928775  0.029680983            2 
  454000    1.1795044   -7.2283873    157.59148  0.028926483  0.029670113            4 
  455000    1.1965743   -7.2198314    157.90181  0.028919746  0.029659943            3 
  456000    1.1679366   -7.1867056    158.28116   0.02892565  0.029649733            2 
  457000    1.1788708   -7.1913363    158.86933  0.028969608  0.029639599            1 
  458000    1.1588413   -7.1982792    159.14987  0.028957399  0.029630134            3 
  459000    1.1564555   -7.1972351    159.07944  0.028881526  0.029620405            3 
  460000     1.198887   -7.2415271    159.49217  0.028893509   0.02961045            2 
  461000    1.1683129   -7.1988235    159.91029  0.028906415  0.029601025            3 
  462000    1.1955142   -7.2052302    160.17594  0.028891764   0.02959181            2 
  463000    1.1645198   -7.1799128    160.74402  0.028931608  0.029581865            1 
  464000    1.1618419   -7.2507077    160.11273  0.028755879  0.029572585            2 
  465000    1.1693717   -7.1781902    161.43113  0.028930309  0.029563397            2 
  466000     1.164543   -7.1662406     162.3471  0.029032028  0.029554843            4 
  467000    1.1876483   -7.1869917    162.91044  0.029070385  0.029546528            3 
  468000    1.1776577   -7.1177881    162.62997  0.028958329  0.029538855            1 
  469000    1.1826663   -7.2268828    162.71128   0.02891103  0.029531108            2 
  470000    1.1840712   -7.1609552    163.34403  0.028961707  0.029523315            2 
  471000    1.1729929   -7.2169666    163.56062  0.028938539  0.029515084            2 
  472000    1.1753451   -7.1702022    164.13198  0.028978103  0.029506868            2 
  473000    1.1901638   -7.2075004    164.06297  0.028904682  0.029499566            2 
  474000     1.178774   -7.1921101    164.31125  0.028887351  0.029492051            1 
  475000    1.1843101   -7.2389502    164.69777  0.028894345   0.02948455            2 
  476000    1.1543273   -7.2436499    165.12672  0.028908739  0.029476945            2 
  477000    1.1772023   -7.2284944    165.60198  0.028931164   0.02946985            4 
  478000    1.1629259   -7.1987411    166.39194  0.029008358  0.029462954            4 
  479000    1.1673648   -7.2109306    166.38864  0.028947224  0.029456273            1 
  480000    1.1946948   -7.2264425    166.84128  0.028965499  0.029449606            3 
  481000     1.157677   -7.2457074    167.09604  0.028949417  0.029442718            3 
  482000    1.1597239   -7.2145112    168.02616  0.029050167  0.029436054            3 
  483000    1.1648997   -7.2172073    168.19344  0.029018882  0.029429451            3 
  484000    1.1555793   -7.2348437    168.41274  0.028996685  0.029422989            2 
  485000    1.1648825   -7.2064476    168.82805  0.029008256   0.02941661            2 
  486000    1.1687129   -7.2312175    168.66576  0.028920741   0.02941044            2 
  487000    1.1893877   -7.1887585    169.48927  0.029002271  0.029403899            2 
  488000    1.1588589   -7.2382553    169.32702  0.028915133  0.029397295            3 
  489000    1.1638663   -7.2107095    170.00514  0.028971564  0.029390726            3 
  490000    1.1720074   -7.2458688    169.91493  0.028897097  0.029383899            4 
  491000    1.1834299   -7.2117143    170.90079  0.029005566  0.029377751           10 
  492000    1.1680967   -7.1952612    170.93791  0.028952899  0.029371504            2 
  493000    1.1824726   -7.2866984      170.645  0.028844658  0.029364606            2 
  494000    1.1728484   -7.1577284    172.34587  0.029073189  0.029359132            2 
  495000    1.1579212   -7.2306357    172.11849  0.028976176  0.029353413            2 
  496000    1.1642312   -7.2484072    172.49025  0.028980216  0.029347213            2 
  497000    1.1662988    -7.197689    173.27682  0.029053793  0.029341297            4 
  498000    1.1544799   -7.2374824    172.77722  0.028911851  0.029335459            2 
  499000    1.1585141   -7.2214388    173.26094  0.028934693  0.029328998           13 
  500000    1.1932297   -7.2371238     174.3602  0.029060034  0.029323438            3 
  501000    1.1603976   -7.2171665    174.26648   0.02898644  0.029317677            2 
  502000    1.1806068   -7.2153204    174.35327  0.028943105  0.029311763            1 
  503000    1.1612441   -7.2219867    174.81722  0.028962429  0.029305408            2 
  504000    1.1708063   -7.2388985    174.62728  0.028873559  0.029299509            3 
  505000    1.1742092   -7.2560534    174.49157  0.028793988  0.029293075            5 
  506000    1.1751554   -7.2107588     175.7177  0.028939014   0.02928658            4 
  507000    1.1750453    -7.234381    175.15892  0.028790093  0.029279558            3 
  508000    1.1734013   -7.2101999    175.88627  0.028852735  0.029272339            1 
  509000    1.1789095   -7.2563834     176.1684   0.02884224  0.029265338            1 
  510000    1.1862732   -7.2456679    176.47148  0.028835209  0.029258827            3 
  511000    1.1754768   -7.2342085    176.47146  0.028778776  0.029251753            2 
  512000    1.1679121    -7.252034    176.56182  0.028737276  0.029244546            2 
  513000    1.1992948   -7.1971825    177.46086  0.028827301   0.02923739            2 
  514000    1.1571582   -7.2866838    176.33458  0.028588616  0.029229986            2 
  515000    1.1885179   -7.2250997    176.72445  0.028596189  0.029221306            7 
  516000    1.1562377   -7.2130981    177.64992  0.028690232  0.029213151            4 
  517000    1.1909461   -7.2266402    177.54617  0.028618016  0.029205059            5 
  518000    1.1586699    -7.251042    177.86065   0.02861336  0.029196746            3 
  519000     1.165968   -7.2366404    177.85474   0.02855728  0.029187835            2 
  520000    1.1598814   -7.2030968    178.38757  0.028587752  0.029179515            2 
  521000    1.1663868   -7.1946899    178.98357   0.02862821   0.02917113            2 
  522000    1.1394432   -7.2663419    178.42421  0.028484069  0.029162422            7 
  523000    1.1467005   -7.2429296    179.19374  0.028552222  0.029152918            5 
  524000    1.1615917   -7.2506311    178.99002  0.028465333  0.029143318            2 
  525000    1.1811255   -7.2272056    179.48234  0.028489261  0.029133884            2 
  526000    1.1435372   -7.2359423    179.52939  0.028442552  0.029124492            2 
  527000      1.16565   -7.2173231    180.36019  0.028519954  0.029114939            3 
  528000    1.1732519   -7.2326192      180.745  0.028526673  0.029105821            4 
  529000    1.1836289   -7.2539338    180.56243  0.028443987  0.029096161            3 
  530000    1.1826827   -7.2519039    180.74195  0.028418545  0.029085973            4 
  531000    1.1733878    -7.233931    180.54684  0.028334407  0.029075414            1 
  532000    1.1533084   -7.2248357     180.5244  0.028277631  0.029064844            5 
  533000    1.2029601   -7.2209259    181.49493  0.028376317  0.029054834            3 
  534000    1.1695066   -7.2271171    182.00027  0.028402039  0.029044824            4 
  535000    1.1562561   -7.2140988    182.22842   0.02838449  0.029035034            2 
  536000    1.1698145   -7.2134441    182.63942  0.028395433  0.029025427            2 
  537000     1.163994   -7.2576194     182.1372  0.028264618  0.029015282            3 
  538000    1.1688425   -7.2267818     183.0806  0.028358209  0.029005145            2 
  539000    1.1629619   -7.2441467    183.72052  0.028404533  0.028995329            4 
  540000    1.1335886   -7.2541766     184.0655   0.02840517  0.028985299            3 
  541000    1.1665461   -7.2961868    182.86124  0.028167166  0.028974982            3 
  542000    1.1646205   -7.2295842    183.99536   0.02828957   0.02896501            2 
  543000    1.1343842   -7.1975353    184.94935  0.028383879  0.028955701            3 
  544000    1.1544131   -7.2498465    184.42108  0.028250778  0.028945613            5 
  545000    1.1440486   -7.2233186    184.71051  0.028243197   0.02893575            4 
  546000    1.1727992    -7.205687    185.22155  0.028269467  0.028925401            5 
  547000    1.1734295    -7.243607    185.32331   0.02823329  0.028915381            2 
  548000     1.197838   -7.2345316    185.27146  0.028173884  0.028904722            3 
  549000     1.190845   -7.2173888    185.61479   0.02817468  0.028894332            3 
  550000    1.1618012    -7.271983    186.02587  0.028185738  0.028884148            4 
  551000    1.1531339   -7.2542051    186.73678  0.028242103   0.02887385            3 
  552000    1.1491006   -7.2460394    186.84011  0.028206538  0.028863628            1 
  553000    1.1609433   -7.2803509    186.77911   0.02814634  0.028853712            5 
  554000    1.1434967   -7.2298148    188.11268  0.028296131  0.028844434            3 
  555000    1.1570716   -7.2473671    188.50168  0.028303555  0.028835912            1 
  556000    1.1864215   -7.2692341      189.028  0.028331534  0.028826696            3 
  557000    1.1860898   -7.2274909    189.20125  0.028306591  0.028817807            2 
  558000    1.1734126   -7.2671011    189.22346  0.028259179  0.028808894            3 
  559000    1.1928848   -7.2370249    189.31789  0.028222703  0.028799587            1 
  560000    1.1960958   -7.2410143    189.47506  0.028195694  0.028789711            4 
  561000    1.1916688     -7.20572    190.23786  0.028258743  0.028780049            3 
  562000    1.1423582   -7.1951341    190.45634  0.028240857  0.028770707            3 
  563000    1.1727918     -7.21028    191.01608  0.028273546  0.028761312            1 
  564000    1.1718876    -7.201375     191.3703  0.028275754  0.028751986            1 
  565000    1.1711033   -7.2110252    191.33854  0.028221023  0.028742561            3 
  566000    1.1421739   -7.2297298    191.82412  0.028242656  0.028733478            3 
  567000    1.1714701   -7.2527632    191.97493   0.02821501  0.028724206            3 
  568000    1.1459484   -7.2154207    191.72374  0.028128483  0.028714982            2 
  569000    1.1689372   -7.2786924     191.0974  0.027987317  0.028705458            5 
  570000    1.1885719   -7.2596618    191.92061  0.028058569  0.028696197            2 
  571000    1.1500417   -7.2603322     192.1572  0.028043958  0.028686588            4 
  572000    1.1526901   -7.2602131    192.85602  0.028096739  0.028677074            3 
  573000     1.153471   -7.2487698    193.07211  0.028079131  0.028667602            2 
  574000    1.1784632   -7.2459711    193.54773  0.028099264  0.028657819            2 
  575000    1.1783448   -7.2795692    193.32829  0.028018593  0.028648159            2 
  576000    1.1728185   -7.2267363    193.88185  0.028050036  0.028638618            8 
  577000    1.1493476   -7.2751466    194.26879  0.028057307  0.028629134            3 
  578000    1.1486997   -7.2431009    195.04718  0.028120989  0.028619958            3 
  579000    1.1539543   -7.2623395    195.39893  0.028123046  0.028610579            3 
  580000    1.1772851    -7.280645    195.40202  0.028075003    0.0286016            2 
  581000    1.1527147   -7.2312257    195.68952  0.028067918  0.028592766            2 
  582000    1.1944078   -7.2015595    197.09625  0.028221113  0.028584352            2 
  583000    1.1800178    -7.263973    196.48663  0.028085568  0.028575841            4 
  584000     1.153697   -7.2070795    197.14157  0.028130932  0.028567038            3 
  585000    1.1530938    -7.236106    197.41577  0.028121905  0.028558818            3 
  586000     1.166948   -7.2431531    197.71511  0.028116483  0.028550305            1 
  587000    1.1595713   -7.2882029    197.54954   0.02804508  0.028541192            3 
  588000    1.1710693   -7.2052706    198.37246  0.028114011   0.02853268            2 
  589000    1.1738771   -7.2372556    198.03348  0.028018319  0.028524713            2 
  590000    1.1357375   -7.2366527    199.12562  0.028125087  0.028516765            1 
  591000    1.1654415    -7.226118    199.01628  0.028062081  0.028508726            3 
  592000    1.1616744   -7.2743692    200.26114  0.028189913  0.028500804            7 
  593000    1.1390838   -7.3015846    200.13641  0.028124847  0.028493373            3 
  594000    1.1486876   -7.2588396    200.16953  0.028082145  0.028485806            3 
  595000    1.1619065   -7.3058779    199.22914  0.027903241  0.028477748            1 
  596000    1.1591441   -7.2481899      201.423  0.028163172  0.028469548            3 
  597000    1.1565802   -7.2144166    201.97845   0.02819353  0.028462397            3 
  598000    1.1713538   -7.2517198    202.00957  0.028150721   0.02845539            3 
  599000    1.1638229   -7.2654581    202.03607  0.028107411  0.028448364            2 
  600000    1.1315874   -7.3083348    202.42147  0.028114093  0.028441017            2 
  601000    1.1676518    -7.275383    202.95096  0.028140732  0.028433433            1 
  602000    1.1605168   -7.3149971    202.77624  0.028069801  0.028426215            4 
  603000    1.1538231   -7.2232981    203.70228  0.028151227  0.028419747            2 
  604000    1.1505304   -7.2980601    204.10708  0.028160469  0.028413273            2 
  605000    1.1393967   -7.2723011     204.4762  0.028164766   0.02840721            2 
  606000    1.1461757   -7.2930726    204.37684  0.028104625  0.028400694            2 
  607000    1.1275898   -7.2801282    205.61992  0.028228984  0.028395023            3 
  608000    1.1644455   -7.2518708    206.65861  0.028324919  0.028389793            5 
  609000    1.1458652   -7.2320065    206.68055  0.028281411  0.028384758            3 
  610000    1.1611524   -7.2312765    206.98161  0.028276176  0.028379767            4 
  611000    1.1544619    -7.250214    207.03891  0.028237713   0.02837522            3 
  612000    1.1608202   -7.2287179    207.71262  0.028283309  0.028370769            2 
  613000     1.162632    -7.289423    208.06156  0.028284606  0.028366046            2 
  614000     1.140522   -7.2175142     209.1066  0.028380374   0.02836129            2 
  615000    1.1391224   -7.2553963    208.21728  0.028213723  0.028356885            2 
  616000    1.1496591   -7.2543152    209.33106  0.028318595  0.028351739            3 
  617000    1.1552856   -7.3077563    209.55245    0.0283026  0.028347011            4 
  618000     1.163455   -7.2697837    209.87378  0.028300132  0.028341862            4 
  619000    1.1358239   -7.2885466    210.04605  0.028277605  0.028337383            4 
  620000    1.1664484   -7.2697487    210.11386   0.02824111  0.028332664            2 
  621000    1.1692728   -7.3074783    209.83843  0.028158673   0.02832723            2 
  622000    1.1648459   -7.2931529    209.62907  0.028085352  0.028321698            3 
  623000    1.1718964   -7.3012433    210.82228  0.028199877   0.02831627            4 
  624000    1.1701328   -7.3201491    210.20359  0.028072061  0.028310532            3 
  625000    1.1587935   -7.2641719    211.64082  0.028218776  0.028305049            3 
  626000    1.1743846   -7.2519099    211.71828   0.02818401  0.028299602            2 
  627000    1.1467287   -7.2328946    211.68678  0.028134873  0.028294509            3 
  628000      1.12275   -7.3059398    211.53272  0.028069628  0.028289346            1 
  629000    1.1617808   -7.2561098    212.65153  0.028173228  0.028283352            4 
  630000    1.1587828   -7.2657858     211.8095   0.02801713   0.02827803            7 
  631000    1.1416112   -7.3075337    212.19974  0.028024266  0.028272056            5 
  632000    1.1466184   -7.2877693      212.805  0.028059731  0.028265788            1 
  633000    1.1154685   -7.2749206    212.89231  0.028026897  0.028260023            1 
  634000    1.1452797   -7.2995609    213.71192  0.028090421  0.028254252            3 
  635000    1.1604636   -7.2791088    213.46211    0.0280134  0.028248273            1 
  636000    1.1658797   -7.2535832    213.67132  0.027996766  0.028242698            3 
  637000    1.1594078    -7.286767    213.25221  0.027897987  0.028237005            3 
  638000      1.12312   -7.2549025    215.27713  0.028118748   0.02823145            5 
  639000    1.1664448   -7.2583161    215.75833  0.028137497  0.028226164            1 
  640000    1.1547739   -7.2878672    215.91571  0.028114024  0.028221038            3 
  641000    1.1776959   -7.2406937    216.34707  0.028126244  0.028215462            2 
  642000     1.153888   -7.2985795    216.13826   0.02805533  0.028209821            2 
  643000    1.1532703   -7.2876177    216.06598  0.028002331  0.028204212            2 
  644000    1.1548776   -7.2631906    216.35504  0.027996253  0.028198238            1 
  645000    1.1243731   -7.2883207    216.12337  0.027922916  0.028192351            2 
  646000    1.1446413   -7.3045707    216.58725  0.027939532  0.028186363            2 
  647000    1.1463402   -7.2513655    217.65743  0.028034187  0.028180848            9 
  648000    1.1593408    -7.259112    217.83215  0.028013394  0.028174973            2 
  649000    1.1439605   -7.3460491    216.88021  0.027847998   0.02816905            1 
  650000    1.1654607   -7.3410816    217.90486   0.02793652  0.028162983            2 
  651000    1.1702996   -7.2916305    219.05647  0.028041022  0.028156919            2 
  652000    1.1455799   -7.2927821    219.09598  0.028003065  0.028151011            7 
  653000    1.1307979   -7.2878298    219.03971  0.027953001  0.028144935            4 
  654000     1.131454   -7.2711916    219.66304  0.027989684  0.028139138            3 
  655000    1.1488697   -7.2558296    219.81712  0.027966555  0.028133341            1 
  656000     1.132977   -7.2695525    219.87568  0.027931361  0.028127567            2 
  657000    1.1528978   -7.2761793    220.30362  0.027943128  0.028121892            4 
  658000    1.1409918   -7.2681718    220.67923  0.027948231  0.028115901            2 
  659000    1.1362736   -7.2617555    220.66698  0.027904272  0.028109933            2 
  660000    1.1614068   -7.3224403    220.42178  0.027831033  0.028103843            7 
  661000     1.137931    -7.312196    220.46062  0.027793825  0.028097412            1 
  662000    1.1599931   -7.2709692    221.42678  0.027873462  0.028091135            2 
  663000    1.1616627   -7.3257052    220.61195  0.027729003  0.028084828            2 
  664000    1.1551325    -7.288652    221.85568  0.027843333  0.028078305            2 
  665000    1.1219204   -7.3318896    221.68811  0.027780465  0.028071299            1 
  666000    1.1546235   -7.3044066    222.09474  0.027789632  0.028064653            3 
  667000    1.1500766   -7.3267667    222.26231  0.027768905  0.028057823            4 
  668000    1.1368624   -7.3252496    222.62563  0.027772659  0.028051005            1 
  669000    1.1639129   -7.2742475    223.60254  0.027852832  0.028044727            2 
  670000    1.1408841   -7.2729476    223.62515  0.027814073  0.028038675            4 
  671000    1.1372194   -7.2639644     223.9951  0.027818567  0.028032756            3 
  672000    1.1622831   -7.3023826    225.04979   0.02790796  0.028026969            6 
  673000    1.1577663   -7.2819762    225.76733  0.027955341  0.028021159            4 
  674000    1.1343551   -7.3172354    223.83491  0.027674939  0.028015133            3 
  675000    1.1343172   -7.3061645    225.88105   0.02788655  0.028009068            5 
  676000    1.1661241   -7.2785143    226.09569  0.027871757  0.028003345            1 
  677000    1.1361269   -7.2636012    226.83126   0.02792113  0.027997882            3 
  678000    1.1459519   -7.3036452    226.38181  0.027824707  0.027992448            5 
  679000    1.1412053   -7.3199498    226.91147  0.027848732  0.027986362            3 
  680000    1.1344216   -7.2958214    226.75429  0.027788515  0.027980457            1 
  681000    1.1063191   -7.2743825    228.05231  0.027906547  0.027974849            2 
  682000    1.1513479   -7.3191729    227.45254  0.027792344  0.027969539            6 
  683000    1.1362328   -7.3126746    227.36247  0.027740663  0.027963884            2 
  684000    1.1330989   -7.2879563     228.0413  0.027782809  0.027957652            1 
  685000     1.123538   -7.2905734    228.74183  0.027827473  0.027952072            1 
  686000    1.1427199   -7.3359398      227.935  0.027688897  0.027946399            2 
  687000    1.1339922   -7.3255955    228.46654  0.027713069  0.027940641            2 
  688000    1.1471086   -7.2739705    229.89035  0.027845246  0.027934761            2 
  689000    1.1337482   -7.2961895    229.65294  0.027776117  0.027928992            1 
  690000    1.1372134   -7.3237919    229.17674  0.027678351  0.027923072            2 
  691000    1.1356651   -7.2853066    229.89018  0.027724334  0.027917253            3 
  692000    1.1483093   -7.2742643    231.37872  0.027863526  0.027911652            2 
  693000     1.121569    -7.287371    232.10405   0.02791054  0.027906851            2 
  694000    1.1529351   -7.3516178    230.72695  0.027704965    0.0279015            4 
  695000    1.1047416   -7.3058899    231.32657  0.027736999  0.027896012            5 
  696000    1.1419844   -7.3222818    231.03427   0.02766215   0.02789039            1 
  697000    1.1161021   -7.2830011    232.18623   0.02776019  0.027884399            2 
  698000    1.1344127   -7.2987656    232.27839  0.027731422  0.027879023            2 
  699000    1.1370801   -7.2946287    232.07933  0.027668018  0.027873117            4 
  700000    1.1383368   -7.2861302    232.76052  0.027709585  0.027867175            3 
  701000    1.1357986   -7.2832812     232.8139  0.027676402  0.027861527            2 
  702000    1.1565256   -7.2677017    233.39209  0.027705614  0.027855759            1 
  703000    1.1580177   -7.3207296    233.01126   0.02762106   0.02784956            2 
  704000    1.1137779   -7.2807238    234.24932  0.027728376  0.027843744            2 
  705000    1.1420198    -7.297251    233.91239  0.027649218  0.027837572            2 
  706000    1.1584022   -7.3214758    233.93093  0.027612244  0.027831535            1 
  707000    1.1316243   -7.2986389     234.3746  0.027625484  0.027825119            2 
  708000     1.113871   -7.3003288    234.48663   0.02759965  0.027818633            6 
  709000    1.1344499   -7.3051374     234.9277  0.027612564  0.027812276            2 
  710000    1.1436175    -7.293578    235.07194  0.027590603  0.027805745            2 
  711000    1.1478067   -7.2916069    235.50949  0.027603081  0.027798946            1 
  712000    1.1184497   -7.3010152    234.55683  0.027452813  0.027791801            3 
  713000    1.1523888   -7.2743374    235.42857  0.027516195  0.027784604            2 
  714000    1.1429534   -7.3065015    235.60111  0.027497795  0.027777591            5 
  715000    1.1322418   -7.3257809    235.58794  0.027457802  0.027770294            2 
  716000    1.1347032   -7.3395642    235.60679  0.027421646  0.027763188            2 
  717000    1.1117761   -7.3167745    236.38121  0.027473409  0.027756234            2 
  718000    1.1453701   -7.3306994    237.09008  0.027517419  0.027749974            2 
  719000       1.1295     -7.32085    236.85819  0.027452271   0.02774375            5 
  720000    1.1087754   -7.3269444    238.21693  0.027571404  0.027737479            2 
  721000    1.1116874   -7.3167645    238.70603  0.027589694  0.027731457            2 
  722000    1.1625375   -7.3314209    237.86243  0.027454112  0.027725558            2 
  723000    1.1410586   -7.3096483    239.00677  0.027548037  0.027719171            9 
  724000    1.1264063   -7.2926304    239.47857  0.027564292  0.027713273            3 
  725000    1.1165348   -7.3456727    239.12037    0.0274851  0.027707255            5 
  726000    1.1427573   -7.3732896    238.72503  0.027401863  0.027700757            1 
  727000    1.1572016   -7.3465554    239.68895  0.027474662   0.02769426            3 
  728000    1.1338746   -7.2701955    241.08251  0.027596441  0.027687863            3 
  729000    1.1368386   -7.3005031    240.93761  0.027542022  0.027682256            6 
  730000    1.1212004   -7.3458679    240.37889  0.027440513  0.027675931            2 
  731000    1.1418151   -7.3397338    240.55289   0.02742281  0.027669542            5 
  732000    1.1166034   -7.3499039    240.88024  0.027422613  0.027663131            3 
  733000    1.1442144   -7.3145553    241.25948  0.027428317  0.027656754            2 
  734000    1.1659446   -7.3232582    241.59252   0.02742876  0.027650397            6 
  735000     1.148871   -7.3161119    242.32105  0.027474042  0.027644021            5 
  736000    1.1357728   -7.3179307    241.76701  0.027373982   0.02763722            2 
  737000    1.1349225   -7.3376385    241.75183  0.027335123  0.027630341            5 
  738000     1.137505   -7.2892227    243.20895  0.027462618  0.027623543            4 
  739000    1.1276833   -7.3325509    242.73972  0.027372545  0.027616983            4 
  740000    1.1405165   -7.3457614    243.29487  0.027398071  0.027610141            1 
  741000    1.1248747   -7.2798758    243.83363  0.027421686  0.027603815            9 
  742000    1.1375176    -7.300952    243.35737  0.027331241  0.027597379            1 
  743000    1.1502387   -7.3472594    243.11141   0.02726687  0.027590421            3 
  744000    1.1322106   -7.3543994    243.47676  0.027271142  0.027583803            2 
  745000    1.1230653   -7.2695662    245.21227  0.027428665  0.027577462            4 
  746000     1.128606   -7.2961839    245.07261  0.027376297  0.027571197            4 
  747000    1.1498219   -7.3413287    244.72839  0.027301249  0.027564539            3 
  748000    1.1197076   -7.3189415    244.91334  0.027285354  0.027557661            3 
  749000    1.1360829    -7.371977    244.29651  0.027180298  0.027550671            2 
  750000    1.1221226   -7.3417551    245.02676  0.027225196  0.027543317            5 
  751000    1.1345272   -7.3542439    245.10873  0.027198039  0.027536017            3 
  752000    1.1167876   -7.3024027    246.12913  0.027274948  0.027529141            3 
  753000    1.1362113   -7.3411539    245.93579  0.027217329  0.027522243            1 
  754000    1.1174293   -7.2907348    247.02792  0.027301936  0.027514969            4 
  755000    1.1029812   -7.3029348    246.52061   0.02720978  0.027507585            1 
  756000    1.1229015   -7.3193255    246.05637  0.027122616  0.027499746            2 
  757000    1.1493193   -7.2957996    247.13697  0.027205743  0.027492419            2 
  758000    1.1157758     -7.31158    246.87019  0.027140522  0.027484908            2 
  759000    1.1597943   -7.3114901    247.36329  0.027158904  0.027477091            1 
  760000    1.1488007    -7.317377    246.63544  0.027043359  0.027469266            2 
  761000    1.1555627   -7.3307301    248.13899   0.02717247  0.027461343            3 
  762000    1.1497873   -7.3049114    247.29083  0.027044054  0.027453601            2 
  763000    1.1490146   -7.3725608    247.14538  0.026992723  0.027445423            6 
  764000    1.1343604   -7.3393086    247.45412  0.026991069   0.02743747            3 
  765000    1.1318086   -7.3616118    248.31255  0.027049298  0.027429588            1 
  766000     1.100054   -7.3157956    248.98093  0.027086698  0.027421931            4 
  767000    1.1332333   -7.3275001    248.65123  0.027015562  0.027414318            2 
  768000    1.1454823   -7.3266583    249.58638  0.027081856  0.027406541            2 
  769000    1.1321015   -7.3731233     249.2961  0.027015182  0.027398959            7 
  770000    1.1153707   -7.3861701    249.94109  0.027049902  0.027391165            6 
  771000    1.1160468   -7.3346145    250.96186  0.027125147  0.027383607            5 
  772000    1.1264427   -7.3664035    250.22465  0.027010432   0.02737633            5 
  773000    1.1248943   -7.3041466    250.52986  0.027008393  0.027368858            3 
  774000    1.1248483   -7.3574962    250.99835   0.02702394  0.027361054            3 
  775000    1.1142409   -7.3459853    250.32098  0.026916234  0.027353196            2 
  776000    1.1409129   -7.3670339    251.02949  0.026957635   0.02734546            2 
  777000    1.1297101   -7.3751745     251.2797  0.026949774  0.027337618            1 
  778000    1.1536917   -7.3151318    252.65059  0.027061974  0.027329949            4 
  779000    1.1230235   -7.3276699    252.59068  0.027020826  0.027322394            2 
  780000     1.125245   -7.3443134    252.18655  0.026943008  0.027314763            2 
  781000    1.1539981   -7.3312597    252.41308   0.02693268  0.027306935            2 
  782000    1.1483404   -7.3449488    252.46593  0.026903871  0.027298953            3 
  783000    1.1192826   -7.3378312    252.96204  0.026922312  0.027290977            2 
  784000    1.1728889    -7.390734    252.50544  0.026839439  0.027282716            3 
  785000     1.150821   -7.3628285    252.31698  0.026785242  0.027274538            3 
  786000    1.1343745   -7.3517595    253.50672  0.026877303  0.027266512            2 
  787000    1.1303963   -7.3407023    253.57653  0.026850543  0.027258165            3 
  788000    1.1261252   -7.3393914    254.35003  0.026898269  0.027249958            2 
  789000    1.1273656   -7.3048166    254.53731  0.026883958  0.027241823            2 
  790000    1.0983976   -7.2882847    254.65751  0.026862606  0.027233738            2 
  791000    1.1219727   -7.3877495    254.81459  0.026845195  0.027225312            5 
  792000    1.1178177   -7.3519083    255.79044  0.026913977  0.027217293            4 
  793000    1.1234568   -7.3555242    254.84098  0.026780262  0.027209218            3 
  794000    1.1278074   -7.3296968    255.40932  0.026806184  0.027201201            5 
  795000    1.1202571   -7.3699652    255.23384  0.026754071  0.027192972            1 
  796000    1.1279054   -7.3072386    255.79213  0.026778908  0.027184689            5 
  797000    1.1088466   -7.3405752    255.22799  0.026686323   0.02717645            3 
  798000     1.125027   -7.3559025    256.80789  0.026817866  0.027168237            2 
  799000    1.1365125   -7.3891699    256.87243  0.026791034  0.027159951            3 
  800000    1.1247941   -7.4120418    256.00637  0.026667331  0.027151554            1 
  801000     1.136379   -7.3714859    257.02017   0.02673951  0.027143244            3 
  802000    1.1366185   -7.3239575    257.84334  0.026791701  0.027135323            2 
  803000    1.1429159   -7.3927597    258.04266  0.026779022  0.027127439            2 
  804000     1.108169   -7.3397417    258.81475  0.026825741   0.02711943            3 
  805000    1.1176704   -7.3813872    258.45496  0.026755172  0.027111798            3 
  806000    1.1062413    -7.365181    259.02146  0.026780548  0.027104139            3 
  807000    1.1141813   -7.3865152     259.6114  0.026808282  0.027096403            8 
  808000    1.1127932   -7.3465158    260.03987  0.026819293  0.027088818            3 
  809000    1.1110592   -7.3712001    260.51534   0.02683512  0.027081403            1 
  810000    1.1223108   -7.3700058    259.80332  0.026728737   0.02707398            6 
  811000    1.1086565    -7.341415    261.22927    0.0268423  0.027066808            3 
  812000    1.1590983   -7.3479373     262.0833   0.02689689   0.02705999            3 
  813000    1.1353512   -7.3608914    261.44553  0.026798435  0.027053014            3 
  814000    1.1218009   -7.3153506    262.47396  0.026870799   0.02704613            2 
  815000    1.1181471   -7.3722394    262.39838  0.026830101  0.027039171            1 
  816000    1.1688709   -7.4086828     261.9177  0.026748131   0.02703233            2 
  817000    1.0852202   -7.3719246    263.00658  0.026826457  0.027025297            1 
  818000    1.1331267   -7.3763301    263.10349  0.026803534  0.027018242            9 
  819000    1.1208225   -7.3602525    262.77204  0.026737081  0.027011333            3 
  820000    1.1575291   -7.3234532    264.27367   0.02685708  0.027004353            1 
  821000    1.0978181   -7.3377285    263.57373  0.026753322  0.026997595            4 
  822000    1.1328263   -7.3638446    263.83609  0.026747373  0.026990613            3 
  823000    1.1122792    -7.392872    263.16634  0.026647057  0.026983636            6 
  824000    1.1033103   -7.3689032    263.97125  0.026696122  0.026976461            4 
  825000    1.1330859   -7.3335707    264.00373  0.026667044  0.026969543            2 
  826000    1.0917005   -7.3581989    264.88835  0.026724006  0.026962382            2 
  827000    1.1238594   -7.3677989    264.95181  0.026698086  0.026955371            3 
  828000    1.1093027    -7.370318    265.58544  0.026729614  0.026948287            3 
  829000    1.1287752   -7.3453567    265.68522  0.026707401  0.026941069            3 
  830000    1.1185409   -7.3298172    266.81201  0.026788355  0.026934417            3 
  831000     1.128735    -7.371205    266.43416  0.026718227  0.026927204            2 
  832000    1.1424184   -7.3634678    265.97836  0.026640461  0.026920061            3 
  833000    1.1192354   -7.3610084    266.39946  0.026650607   0.02691268            3 
  834000     1.105937   -7.3842864    266.61334  0.026640022   0.02690517            4 
  835000    1.1311868   -7.4005347    265.87869  0.026534799  0.026897823            9 
  836000    1.1352834   -7.3955531    267.55174   0.02666983  0.026890584            4 
  837000    1.1010687   -7.3840262    267.27408  0.026610323  0.026883491            3 
  838000    1.1122026   -7.3759653     267.3546  0.026586575  0.026876126            3 
  839000    1.1225065   -7.3958108    267.57283  0.026576562  0.026868772            5 
  840000    1.1323761   -7.3685577    268.06517  0.026593766  0.026861846            3 
  841000    1.1007147   -7.3698207    268.77604  0.026632584  0.026854845            3 
  842000    1.1130514   -7.3274976    269.42697  0.026665377  0.026847908            4 
  843000    1.1117119   -7.4044055    268.22631  0.026515056  0.026840854            2 
  844000    1.1095587   -7.3760701    268.86625  0.026546825  0.026833671            4 
  845000    1.0892005    -7.372868    269.21822   0.02655012   0.02682646            1 
  846000    1.0979448   -7.3994069    270.23237  0.026618633  0.026819438            2 
  847000    1.1344117   -7.3799006    269.71684  0.026536486  0.026812401            3 
  848000    1.1110531   -7.3273151    271.54723  0.026685066  0.026805747            1 
  849000    1.1064486     -7.37365    270.55209  0.026555957   0.02679909            2 
  850000    1.1155794   -7.3729367    271.55965  0.026623495  0.026792085            1 
  851000    1.1000208   -7.3909511    271.34525  0.026571215  0.026785157            6 
  852000    1.1194915   -7.3680752     270.8573  0.026492302  0.026777927            3 
  853000    1.1093195   -7.3661319    270.92638  0.026467993  0.026770773            4 
  854000     1.120874   -7.3487432    272.48714    0.0265893  0.026763512            3 
  855000     1.104727   -7.3531647    271.93465  0.026504352  0.026756332            8 
  856000    1.1473464    -7.377326    272.03552  0.026483209  0.026748836            3 
  857000    1.1241123   -7.3558171    272.08845  0.026457454   0.02674138            5 
  858000    1.0990171   -7.3616995    272.17897  0.026435409  0.026734086            1 
  859000    1.1083009    -7.382246    273.24015  0.026507582  0.026726512            1 
  860000    1.0882626   -7.3499669    273.12807  0.026465898  0.026719265            3 
  861000    1.1256003   -7.3499152    272.68211  0.026391997  0.026711883            3 
  862000    1.1052524    -7.380591    273.30797  0.026421885   0.02670471            3 
  863000    1.1355597   -7.3316253    274.62119  0.026518076  0.026697347            3 
  864000    1.1086826   -7.3648822    273.87985   0.02641588  0.026689845            4 
  865000    1.1125509   -7.3808345    274.37919  0.026433448   0.02668214            6 
  866000    1.1169599   -7.4121964    273.67367  0.026335034  0.026674498            3 
  867000    1.1178511   -7.4048528    273.64943  0.026302329  0.026666794            3 
  868000    1.0797284   -7.3790257    274.12607  0.026317787  0.026658918            3 
  869000    1.0914716   -7.4026513    274.48568  0.026321987  0.026651028            2 
  870000    1.1041529   -7.3696874    275.50202  0.026389083   0.02664327            1 
  871000     1.115535   -7.3272205    275.66727  0.026374595  0.026635545            3 
  872000    1.1070316   -7.3472399    275.52449  0.026330704  0.026627918            1 
  873000    1.1246437   -7.4186782     273.9279  0.026148139  0.026620151            3 
  874000    1.1102791   -7.3473702    276.21422  0.026336215  0.026612146            3 
  875000    1.0977311   -7.3993123    276.24807   0.02630934  0.026604146            3 
  876000    1.1279384   -7.4265799    275.77249  0.026234065  0.026595877            4 
  877000    1.1483443   -7.3463473    276.21513  0.026246211  0.026587939            4 
  878000    1.1290069   -7.4300639    274.58783  0.026061867  0.026579709            2 
  879000    1.1286639   -7.3887951    277.35442  0.026294503  0.026571568            4 
  880000    1.0966964   -7.3514647    277.82148  0.026308853  0.026563464            2 
  881000    1.1270019   -7.3577631    277.51833  0.026250315  0.026555492            2 
  882000    1.1061867   -7.3837047    277.93544  0.026259962  0.026547903            2 
  883000    1.1097389   -7.3738816    278.21881  0.026256966   0.02654019            5 
  884000    1.1123096   -7.3666452     278.3928  0.026243665  0.026532426            5 
  885000     1.111805   -7.3712053    278.57618  0.026231279    0.0265245            1 
  886000    1.0844963   -7.3846274    277.83546  0.026132003  0.026516625            1 
  887000    1.1144855   -7.4357667    278.19039  0.026135888  0.026508915            3 
  888000    1.1004492   -7.3915897    278.89419  0.026172503  0.026501238            1 
  889000    1.1160466   -7.3651372    280.56375  0.026299564  0.026493638            3 
  890000    1.1076485   -7.3821534    280.21158  0.026237039  0.026486125            1 
  891000    1.1094369    -7.368798    280.63849  0.026247521  0.026478404            5 
  892000    1.0922542   -7.3760874    279.65489  0.026126204  0.026471024            4 
  893000    1.1339637   -7.3670758    280.67045  0.026191718  0.026463223            4 
  894000      1.08745   -7.3715505    280.42461  0.026139505  0.026455361            4 
  895000    1.1070557   -7.4312123    279.50531  0.026024703  0.026447467            5 
  896000    1.1207628   -7.4141124    280.66689  0.026103691  0.026439351            3 
  897000    1.1213753   -7.3878031    280.87499  0.026093923  0.026431424            4 
  898000    1.1189962   -7.3609591    281.90775  0.026160705  0.026423545            4 
  899000    1.1183058   -7.3987449    282.27152  0.026165324  0.026416077            2 
  900000    1.1059626   -7.4430356    281.89242   0.02610115  0.026408375            3 
  901000    1.1165391   -7.3991192     282.9934  0.026174011  0.026400799            2 
  902000    1.1278373   -7.4160572    282.71371  0.026119153  0.026393339            4 
  903000    1.1470877   -7.3992139     283.4439  0.026157614  0.026385763            2 
  904000    1.0936958   -7.4121918    283.06295  0.026093561  0.026378319            5 
  905000    1.0979307   -7.4138312    284.43377  0.026190955  0.026370776            4 
  906000    1.0899097   -7.3968358     283.0902  0.026038466  0.026363195            3 
  907000    1.0945894   -7.4026171    284.38597  0.026128811  0.026355594            3 
  908000     1.093122   -7.3791539     285.1387  0.026169117  0.026348229            3 
  909000    1.1308716   -7.3974222    284.98173  0.026125938  0.026340729            2 
  910000    1.1202369   -7.3464883    286.18586  0.026207496  0.026333484            1 
  911000      1.10383   -7.4117168    284.12516  0.025990227  0.026325836            1 
  912000    1.1023719   -7.4002194    284.67344  0.026011827  0.026318156            1 
  913000    1.1145421   -7.3774464    284.93267  0.026006998  0.026310451            5 
  914000      1.11017    -7.365616    285.48172  0.026028603  0.026302371            4 
  915000    1.0929708   -7.3659963     285.7719  0.026026585  0.026294505            2 
  916000    1.0942127   -7.3859085    286.63171  0.026076393  0.026286978            1 
  917000    1.1234884   -7.4384903    286.17568  0.026006514  0.026279519            3 
  918000    1.0745143   -7.3814935    286.43482  0.026001709  0.026271827            2 
  919000    1.0946174   -7.3947539    286.41529  0.025971644  0.026264032            3 
  920000     1.111004   -7.3796027    286.87813  0.025985338  0.026256122            1 
  921000     1.100188   -7.4130432    285.46983  0.025829699  0.026248251            2 
  922000    1.1121094   -7.4249852    286.77411  0.025919569  0.026240268            1 
  923000    1.0978628   -7.3942887    287.01337  0.025913088  0.026232411            3 
  924000    1.1018947   -7.4043623    286.34023  0.025824335  0.026224321            2 
  925000    1.1316147   -7.4283088    287.45637   0.02589697  0.026216234            2 
  926000    1.0927909   -7.4094992    286.83949  0.025813489  0.026208285            3 
  927000    1.1049701   -7.3857985    287.84044  0.025875624  0.026200376            5 
  928000    1.1075524   -7.3673986      289.085  0.025959501   0.02619266            2 
  929000    1.1283318   -7.4192877    288.23139  0.025854987  0.026184754            3 
  930000    1.1134308   -7.4129854    288.70517  0.025869639   0.02617646            2 
  931000    1.0954335    -7.420273    287.56703  0.025739978  0.026168175            3 
  932000    1.1299274    -7.423596    288.13188  0.025762865   0.02615966            2 
  933000    1.1144468   -7.4189886    289.80184  0.025884409  0.026151443            7 
  934000    1.1092109   -7.4409749    288.97842  0.025783228  0.026143302            3 
  935000    1.0832764   -7.3997926    290.18773  0.025863434  0.026135216            2 
  936000    1.1071176   -7.4089524    289.50903  0.025775376  0.026127224            2 
  937000    1.1245695    -7.390875    290.39004  0.025826222  0.026119395            7 
  938000    1.0811571   -7.3859398    290.68713  0.025825082  0.026111314            4 
  939000    1.1330857   -7.3989184    290.46534  0.025777897   0.02610338            2 
  940000    1.0800957    -7.375069    291.62146  0.025852966  0.026095601            2 
  941000    1.1039253   -7.3574111    292.66418  0.025917834  0.026087998            2 
  942000    1.0922912   -7.4299407     291.3099  0.025770515  0.026080197            5 
  943000    1.0988775    -7.393872    292.29086  0.025829875  0.026072402            3 
  944000    1.0966231   -7.4234409    291.48861  0.025731692  0.026064902            3 
  945000    1.1010451   -7.3718275    292.87068  0.025826339  0.026057192            1 
  946000    1.1135279   -7.3900512    293.00481  0.025810853  0.026049727            2 
  947000    1.0661795   -7.4565978    292.52795  0.025741636  0.026042173            4 
  948000    1.1013835   -7.3670287    293.27643  0.025780277  0.026035063            2 
  949000    1.0910139   -7.3696911    294.80568  0.025887397  0.026028203            1 
  950000    1.1317979   -7.3964765    294.44203  0.025828248  0.026020891            2 
  951000    1.0891847   -7.4130365    293.53641  0.025721732  0.026013663            4 
  952000     1.093681   -7.4365455     293.7695  0.025715117  0.026006411            7 
  953000    1.1100824   -7.4480461    294.17461  0.025723558   0.02599903            2 
  954000    1.1191171   -7.4357969    294.81037  0.025752129  0.025991614            3 
  955000    1.0986427   -7.4357057     295.1983  0.025759014  0.025984235            1 
  956000    1.0799874   -7.3986961    295.41886  0.025751296  0.025976943            3 
  957000    1.0977455   -7.4138691     295.6681   0.02574609  0.025969772            3 
  958000    1.1052031   -7.4130359    295.99332  0.025747505  0.025962532            3 
  959000    1.1005061    -7.461476    296.01659  0.025722679  0.025955403            4 
  960000    1.1065555   -7.4303286    297.42982   0.02581856  0.025948295            1 
  961000    1.1124969   -7.4216167    297.84963  0.025828098  0.025941257            7 
  962000     1.094505   -7.4277083    297.89005  0.025804751  0.025934451            2 
  963000     1.104602   -7.4210942    298.10957  0.025796951  0.025927791            2 
  964000     1.076395    -7.393845    298.02876  0.025763205  0.025921124            2 
  965000    1.0809036   -7.4234488    299.00075  0.025820445  0.025914497            3 
  966000     1.108083   -7.3733066    298.97838  0.025791786  0.025907801            4 
  967000    1.1058709   -7.3837496    299.56095  0.025815318  0.025901093            1 
  968000    1.0928689   -7.3954647    299.15252  0.025753488  0.025894306            7 
  969000    1.0968365   -7.4035648     299.4921  0.025756115  0.025887686            2 
  970000    1.0838817   -7.4056754    300.20421   0.02579074  0.025881021            3 
  971000    1.1063327   -7.3899265    300.25162  0.025768248   0.02587438            2 
  972000    1.0798156   -7.4005897    299.70825  0.025695152  0.025867652            7 
  973000    1.0888013   -7.4229789    300.91444  0.025772048  0.025860757            3 
  974000    1.0615408   -7.4588313    300.74634  0.025731206  0.025854001            2 
  975000    1.0949567   -7.4752886    300.61271  0.025693394  0.025847191            2 
  976000    1.1141936   -7.4381949    301.18023  0.025715525  0.025840213            5 
  977000    1.1007881   -7.4254767    301.26842  0.025696726   0.02583347            2 
  978000    1.0684139   -7.4511398    300.84352  0.025634246  0.025826653            4 
  979000    1.0876549   -7.4056581    301.34152  0.025650453  0.025819931            2 
  980000    1.0999132   -7.4175363    302.45384  0.025718864  0.025813205            3 
  981000    1.0909883   -7.4413338    302.40887  0.025688827  0.025806186            2 
  982000    1.0921281    -7.403876    301.76289  0.025607849  0.025799458            2 
  983000    1.0975523   -7.4139062    303.25768  0.025708518  0.025792731            3 
  984000    1.0978761   -7.4312677    303.26164  0.025682727  0.025785972            3 
  985000    1.0980499   -7.4259409    303.56497  0.025682316  0.025779102            4 
  986000    1.1077001   -7.4568929    303.22128  0.025627221  0.025772275            2 
  987000     1.073436   -7.4508933     303.7159  0.025643017  0.025765485            3 
  988000    1.0595358   -7.4542972    303.40314  0.025590683  0.025758677            3 
  989000    1.1034198   -7.4354596    304.40081  0.025648872  0.025751931            3 
  990000    1.0872163   -7.3985629    305.41387  0.025708238  0.025745391            3 
  991000    1.0945166   -7.4472401    304.61788  0.025615361  0.025738793            2 
  992000    1.0851472   -7.4268783     305.7199  0.025682115  0.025732259            5 
  993000    1.0945443   -7.4261362    306.25563  0.025701211  0.025725754            3 
  994000    1.1049781   -7.4339102    305.74067  0.025632182  0.025719163            4 
  995000    1.0896098   -7.4025693    305.91651  0.025621148  0.025712486            3 
  996000    1.0726773    -7.405809    306.99382  0.025685561  0.025705906            2 
  997000    1.0813629   -7.4267954    306.73832  0.025638442  0.025699341            1 
  998000    1.0992499   -7.4354498    305.95641  0.025547462  0.025692656            4 
  999000    1.0901084   -7.4894395    306.69139  0.025583199  0.025685925            2 
 1000000    1.0786225   -7.4490278     306.8215  0.025568458  0.025679121            4 
 1001000    1.0840671   -7.4442042    306.30176  0.025499647  0.025672382            3 
 1002000    1.0942458    -7.480438    306.98111  0.025530698  0.025665589            3 
 1003000     1.114959   -7.4630172    307.21813  0.025524936  0.025659097            2 
 1004000    1.0971235   -7.4188856    307.76009  0.025544496  0.025652384            4 
 1005000    1.0865364   -7.4322453    308.04032  0.025542315  0.025645735            1 
 1006000    1.0668235   -7.4888226    306.54817  0.025393321  0.025638973            3 
 1007000    1.0925845   -7.4449844    308.69062  0.025545401  0.025632101            3 
 1008000    1.0763229   -7.4722253    308.37558  0.025494013  0.025625201            3 
 1009000    1.0936697   -7.4482611    308.10812  0.025446657  0.025618443            3 
 1010000    1.1042291   -7.3980346    309.61022  0.025545398  0.025611623            2 
 1011000    1.0942276    -7.432539    309.63171  0.025521902  0.025604899            3 
 1012000    1.0713985   -7.4651763    309.59512  0.025493669  0.025598177            2 
 1013000    1.0936383   -7.4044949     309.3559  0.025448824  0.025591612            2 
 1014000    1.0799065   -7.4055079    311.18531  0.025574072  0.025585334            1 
 1015000    1.0786105   -7.4252978    310.38948  0.025483537  0.025578958            3 
 1016000    1.0853529   -7.4321241     310.3494  0.025455167  0.025572229            4 
 1017000    1.0522767   -7.4590039    310.10393  0.025410024  0.025565495            3 
 1018000    1.0829265   -7.3972976    311.73604  0.025518667  0.025558679            1 
 1019000     1.084523   -7.4416568     311.9001  0.025507042  0.025551953            4 
 1020000    1.0947686   -7.4276164     311.1462  0.025420442  0.025545079            6 
 1021000    1.1218618    -7.444184    311.16075  0.025396731  0.025538168            8 
 1022000    1.0872148   -7.4796581    310.79954  0.025342428  0.025531192            3 
 1023000    1.1153187   -7.4401332    311.82388  0.025401098   0.02552404            3 
 1024000    1.0940249   -7.4478112    311.80709  0.025374926    0.0255169            3 
 1025000    1.0853881     -7.46913    310.61288  0.025253079  0.025509685            3 
 1026000    1.0708146   -7.4735056    311.64745  0.025312496  0.025502549            4 
 1027000    1.0797991   -7.4158673    312.00627  0.025316965  0.025495458            2 
 1028000     1.095439   -7.4661067    311.84463  0.025279234  0.025488306            3 
 1029000    1.0794936   -7.4100869    313.09622  0.025356026  0.025481312            1 
 1030000    1.1057494   -7.4690453    312.89871   0.02531543  0.025474146            2 
 1031000    1.0946125    -7.406029    313.09324  0.025306599   0.02546705            5 
 1032000    1.1069803   -7.4225428    312.81187  0.025259356  0.025459944            3 
 1033000    1.0934606   -7.4283151    313.88985  0.025321866   0.02545294            1 
 1034000    1.1125243   -7.4286701     313.4274  0.025260106  0.025445833            2 
 1035000    1.0783352    -7.439595    313.49411  0.025241072  0.025438635            3 
 1036000    1.1113126   -7.4532553    313.60244  0.025225422  0.025431295            3 
 1037000    1.0699629   -7.4098106    315.48705  0.025352544  0.025424115            6 
 1038000    1.0847471   -7.4067207    314.89657  0.025280714  0.025416846            5 
 1039000     1.088002   -7.4862716    313.25605  0.025124803    0.0254096            3 
 1040000    1.0560016   -7.4534154    314.87295  0.025230204  0.025402581            5 
 1041000    1.0773417   -7.4539631     315.5672  0.025261543  0.025395563            2 
 1042000    1.0745781   -7.4661528    315.62207  0.025241688  0.025388529            2 
 1043000    1.0821271   -7.4461167    316.47457    0.0252856  0.025381656            2 
 1044000    1.0916258   -7.4799127    315.68272  0.025198174  0.025374859            1 
 1045000    1.1031624   -7.4371914    315.88047   0.02518983  0.025367875            3 
 1046000    1.1028071   -7.4858275    315.54852  0.025139302  0.025360761            2 
 1047000    1.0820736   -7.4830051    316.20734  0.025167728  0.025353625            2 
 1048000    1.0977205   -7.4401642    317.24988  0.025226613  0.025346646            2 
 1049000    1.0822774   -7.4534557    315.96421   0.02510043  0.025339622            2 
 1050000    1.0810318   -7.4684964     317.9933  0.025237563   0.02533247            3 
 1051000    1.0625344   -7.5172278    316.58442  0.025101841  0.025325325            6 
 1052000     1.081755   -7.4743712    316.75216  0.025091268  0.025317998            2 
 1053000    1.0742875   -7.4242656    318.20927  0.025182754  0.025310877            2 
 1054000    1.0886138   -7.4839435    316.31799  0.025009328  0.025303718            5 
 1055000    1.0723373   -7.4357203    318.14508  0.025129943  0.025296266            2 
 1056000    1.0790685   -7.4581855    317.45296  0.025051527  0.025288759            3 
 1057000    1.0881155   -7.4743591    317.78189   0.02505376  0.025281229            7 
 1058000    1.0874971   -7.4609062    317.96997  0.025044894   0.02527399            2 
 1059000    1.0780084   -7.4101841    319.44133  0.025137027  0.025266992            3 
 1060000    1.0959726   -7.4612606    317.76993  0.024981913  0.025259946            2 
 1061000    1.0792634   -7.4664381    318.51686  0.025017033  0.025252561            2 
 1062000    1.0702395   -7.4902294     319.6384  0.025081482  0.025245187            3 
 1063000    1.0758631   -7.4964483    318.93202  0.025002511  0.025238039            6 
 1064000    1.0905047   -7.4730798     321.0886  0.025147916  0.025230894            2 
 1065000    1.0525139   -7.4818432    320.18526   0.02505362  0.025224004            2 
 1066000    1.0713879   -7.4984713      319.646  0.024987961  0.025216866            4 
 1067000    1.0558714   -7.4754551    320.26697   0.02501304  0.025209617            3 
 1068000    1.0646035   -7.4716967    321.06343  0.025051766  0.025202514            5 
 1069000    1.0727132   -7.4854613    321.49237  0.025061769  0.025195265            3 
 1070000    1.0814042   -7.4655475    322.26744   0.02509871  0.025188272            5 
 1071000    1.0915184   -7.4812168    321.85921  0.025043511  0.025181365            5 
 1072000     1.066297   -7.4399163    322.75258  0.025089597  0.025174646            6 
 1073000    1.1025068   -7.4626155    323.28385  0.025107475  0.025167861            3 
 1074000    1.0646617   -7.4690118    322.94506   0.02505781   0.02516108            3 
 1075000    1.1009534   -7.4831456    322.01324  0.024962267  0.025154197            7 
 1076000    1.0676153   -7.4562646    322.45159  0.024973016  0.025147509            1 
 1077000    1.0805773   -7.4845766    323.30896  0.025016168   0.02514078            2 
 1078000    1.0962443   -7.4887467    324.06018  0.025051034  0.025134082            4 
 1079000    1.0563559   -7.4739888    324.05243  0.025027219  0.025127305            2 
 1080000    1.0854297   -7.4342262    324.76216  0.025058808  0.025120757            3 
 1081000    1.0792853   -7.4595627    325.05873   0.02505849  0.025114056            6 
 1082000    1.0837321   -7.5230648    324.44101  0.024987755  0.025107328            3 
 1083000    1.0940748   -7.4788674    325.31424  0.025031874  0.025100666            8 
 1084000     1.080574   -7.4967981    326.24962   0.02508069  0.025093975            2 
 1085000    1.0824137     -7.45127    326.43777  0.025072026  0.025087262            5 
 1086000    1.0524816   -7.5215327    324.63375  0.024910509  0.025080418            3 
 1087000    1.0706883   -7.4662698    326.31738  0.025016665  0.025073619            6 
 1088000    1.0967385   -7.4501384    326.72325  0.025024758  0.025066921            1 
 1089000    1.0774144   -7.4741139    326.30939  0.024970109  0.025060348            4 
 1090000    1.0707088   -7.5108042    325.36656  0.024875119  0.025053507            1 
 1091000    1.0947019   -7.4634627    326.77264  0.024959719  0.025046501            5 
 1092000     1.076123   -7.4593038    327.03511  0.024956892  0.025039704            3 
 1093000    1.0701948   -7.4960365    326.38616  0.024884581  0.025032877            3 
 1094000    1.0802881   -7.4851657    327.21526  0.024924989  0.025026018            3 
 1095000    1.0796724   -7.4902207    327.14512  0.024896889  0.025019084            1 
 1096000    1.0823049   -7.4777522    327.35441  0.024890086  0.025012141            3 
 1097000    1.0633619   -7.4876884    327.08634  0.024847033  0.025005042            3 
 1098000    1.0940007   -7.4705742    327.23346  0.024835569   0.02499802            8 
 1099000    1.0749879   -7.4718807    327.17524  0.024808556  0.024990978            5 
 1100000    1.0727279   -7.4814507    328.21508  0.024864779  0.024983942            1 
 1101000    1.0868382   -7.4935226     328.4584  0.024860611  0.024977007            5 
 1102000    1.0655204   -7.4531932    328.57922  0.024847189  0.024969981            2 
 1103000    1.0514764   -7.5025625    327.87084  0.024771142  0.024962911            3 
 1104000    1.0775448   -7.4982249    328.71415   0.02481236  0.024955688            2 
 1105000     1.079394   -7.4719866    328.76544  0.024793774  0.024948605           10 
 1106000    1.0946428   -7.4896249    329.27391  0.024809668  0.024941379            5 
 1107000    1.0796463    -7.483899     328.9183  0.024760486  0.024934395            4 
 1108000    1.0703619   -7.4418422    330.25194  0.024838443  0.024927515            4 
 1109000    1.0791088   -7.4773613    329.87967  0.024788073  0.024920515            4 
 1110000     1.042378   -7.5521852    329.44926  0.024733428  0.024913549            5 
 1111000     1.054672   -7.5082801    329.99371  0.024752003  0.024906486            3 
 1112000    1.0680933   -7.4914014    330.19211  0.024744612  0.024899523            3 
 1113000    1.0729216   -7.4977441    330.77466  0.024765997  0.024892436            2 
 1114000    1.0943076   -7.4824927    331.31951  0.024784524  0.024885417            5 
 1115000    1.0580458   -7.5018639    331.31408  0.024761889  0.024878266            6 
 1116000    1.0611102   -7.5078798    330.10557   0.02464946  0.024871179            2 
 1117000     1.064413   -7.5042521    331.16271   0.02470626  0.024864185            3 
 1118000    1.0797675   -7.4864218    331.26405  0.024691715  0.024857072            3 
 1119000     1.072912   -7.4572591     331.7719   0.02470747  0.024850049            3 
 1120000    1.0966324      -7.5046    331.63375   0.02467513  0.024842853            5 
 1121000    1.0606493   -7.4910438    332.14703  0.024691275  0.024835681            3 
 1122000    1.0821631    -7.518713    331.67153  0.024633952  0.024828552            7 
 1123000    1.0678237    -7.477948    332.79979   0.02469574  0.024821392            3 
 1124000    1.0684498   -7.4980667    332.27092  0.024634558  0.024814324            2 
 1125000     1.077931   -7.4501406    333.17253  0.024679447  0.024807256            2 
 1126000    1.0648658   -7.5015963    332.92954  0.024639545  0.024800218            3 
 1127000    1.0625792   -7.4677485    332.48409  0.024584745  0.024792985            4 
 1128000    1.0755024   -7.4430004    332.92673  0.024595651  0.024785631            4 
 1129000    1.0618621   -7.4310613    334.11986  0.024661932  0.024778586            2 
 1130000    1.0969621   -7.4595885    334.67228  0.024680847  0.024771699            3 
 1131000    1.0614054   -7.4697662    334.23128  0.024626531  0.024764741            3 
 1132000    1.0586485   -7.4840632    334.36724  0.024614785  0.024757537            7 
 1133000    1.0719488    -7.481761    334.45913  0.024599818  0.024750237            2 
 1134000    1.0568055   -7.4931976     334.5614  0.024585641  0.024742836            4 
 1135000    1.0637753    -7.494212    333.41317  0.024479675  0.024735348            6 
 1136000    1.0777191   -7.4773067    334.35219  0.024527009  0.024727869            3 
 1137000    1.0587499   -7.5415603    333.65327  0.024454212  0.024720366            4 
 1138000    1.0669694   -7.5255284    333.60049  0.024428859   0.02471289            4 
 1139000    1.0699495      -7.4917     334.5729  0.024478555  0.024705421            3 
 1140000     1.073263   -7.4652602    335.54308  0.024528003  0.024697929            2 
 1141000    1.0536176   -7.4908744    334.62041  0.024439118  0.024690294            4 
 1142000    1.1039501    -7.480672    335.50713  0.024482423  0.024682665            2 
 1143000    1.0835336    -7.469696    336.17551  0.024509734  0.024675129            3 
 1144000    1.0655168   -7.4666501    335.84033  0.024463894  0.024667581            5 
 1145000    1.0483184   -7.4628989    335.66177  0.024429532  0.024660093            3 
 1146000    1.0677585   -7.5189403    336.20904   0.02444801  0.024652497            7 
 1147000    1.0880201   -7.4806166    335.45801  0.024372131  0.024645013            3 
 1148000    1.0809949   -7.4790061    338.11936  0.024544088  0.024637332            3 
 1149000    1.0865919   -7.4825521    336.89672  0.024434053  0.024629615            6 
 1150000    1.0870346    -7.521548    337.01007   0.02442102  0.024622046            2 
 1151000    1.0755132   -7.5336477     335.3691  0.024280995  0.024614331            1 
 1152000    1.0703969   -7.5318524    335.44973   0.02426575  0.024606476            5 
 1153000    1.0720363   -7.4601292    337.21364  0.024372191  0.024598738            4 
 1154000    1.0831148   -7.4778964    336.88087  0.024327042  0.024591085            3 
 1155000    1.0653535   -7.4715484    338.25462  0.024405095  0.024583337            3 
 1156000    1.0815501   -7.4963166    337.26947  0.024312966  0.024575601            3 
 1157000    1.0914876   -7.4746488    337.75069  0.024326613  0.024567912            2 
 1158000    1.0594565   -7.4738098    337.79405  0.024308726   0.02456022            4 
 1159000    1.0781715   -7.4814318    338.04407  0.024305728  0.024552559            3 
 1160000    1.0619427   -7.5027073    338.16436  0.024293416  0.024544966            2 
 1161000    1.0609727   -7.4608403     338.1472   0.02427126  0.024537352            3 
 1162000    1.0506802   -7.4610937      338.634  0.024285284  0.024530022            4 
 1163000    1.0422275   -7.5325764    338.45309   0.02425144  0.024522337            2 
 1164000    1.0712214   -7.5282741    338.16777  0.024210178  0.024514634            2 
 1165000    1.0474712   -7.5531871    338.30022  0.024198871  0.024506898            2 
 1166000    1.0618837   -7.5020943    339.94719  0.024295825  0.024499293            2 
 1167000    1.0622072   -7.4931753    340.95905  0.024347261   0.02449187            2 
 1168000    1.0778669   -7.5349045    339.33682  0.024210675  0.024484416            1 
 1169000    1.0585043   -7.5479712    339.99159   0.02423664  0.024476744            4 
 1170000    1.0771457   -7.5109094     339.9729  0.024214594  0.024468933            2 
 1171000    1.0599898   -7.4882155    340.47857  0.024229901  0.024461264           10 
 1172000    1.0583126   -7.5306867    339.85307  0.024164752  0.024453758            3 
 1173000    1.0725136   -7.5276587    340.51454  0.024191144  0.024446067            4 
 1174000    1.0473901   -7.5096068    340.92877  0.024199941  0.024438323            2 
 1175000    1.0630618   -7.5084779    341.33603  0.024208229  0.024430674            2 
 1176000    1.0681206   -7.5135428    341.62401  0.024208051  0.024422906            4 
 1177000    1.0710105   -7.5145934    340.11902  0.024080928   0.02441503            2 
 1178000    1.0728321   -7.4707683    341.20777  0.024137505   0.02440725            3 
 1179000    1.0683956   -7.5604493    340.63905  0.024076834  0.024399411            3 
 1180000    1.0849246   -7.4799666    341.12351  0.024090644  0.024391554            2 
 1181000    1.0213474   -7.5139047     341.1189  0.024069919  0.024383678            5 
 1182000    1.0729394   -7.5301306    340.75456  0.024023869  0.024375506            3 
 1183000    1.0446784   -7.5095646     341.7586  0.024074288  0.024367553            7 
 1184000    1.0504748   -7.5236221    342.44334  0.024102149  0.024359518            3 
 1185000    1.0451778   -7.5207157    342.42371  0.024080429  0.024351645            3 
 1186000    1.0442819   -7.5203235    342.55627   0.02406944  0.024343789            4 
 1187000    1.0565015   -7.4941068    343.48502  0.024114366  0.024335906            2 
 1188000    1.0406943   -7.5150306    343.22406  0.024075762  0.024327872            3 
 1189000    1.0494967   -7.5684952    342.33401  0.023993132  0.024319925            3 
 1190000    1.0542415   -7.5138815    341.80887  0.023936195  0.024311924            4 
 1191000     1.065213   -7.5408734    343.06983  0.024004326  0.024303953            5 
 1192000     1.105737   -7.5237238    342.44213  0.023940305  0.024296025            4 
 1193000    1.0904633   -7.4903871    343.65092  0.024004675  0.024288068            3 
 1194000    1.0453102    -7.481512    344.75448  0.024061591   0.02428018            3 
 1195000    1.0642158   -7.5100156    344.46401    0.0240212  0.024272473            3 
 1196000    1.0668866   -7.5380459    342.80406  0.023885456  0.024264568            4 
 1197000    1.0809893   -7.5243459    343.91146  0.023942597   0.02425657            2 
 1198000    1.0803277   -7.5040037    345.10481  0.024005621  0.024248717            2 
 1199000    1.0445165   -7.5359238    344.37869  0.023935133  0.024240879            3 
 1200000    1.0888086   -7.4650533    344.90467  0.023951713   0.02423286            4 
 1201000    1.0568018   -7.5248863    344.65206  0.023914242  0.024224864            5 
 1202000    1.0440856   -7.5320969    343.89825  0.023842086  0.024216482            2 
 1203000     1.076026   -7.5176327    345.17148  0.023910466  0.024208144            1 
 1204000    1.0546882   -7.4943489    344.94012  0.023874593  0.024200065            2 
 1205000    1.0531827   -7.5536412     344.1549  0.023800477  0.024191946            6 
 1206000    1.0707302   -7.5088297    345.37044  0.023864735  0.024183807            3 
 1207000    1.0517264   -7.4924296    346.48437   0.02392187  0.024175802            8 
 1208000    1.0581292   -7.5201668    345.95924  0.023865842  0.024167669            3 
 1209000     1.061273   -7.5507017    346.91295  0.023911838  0.024159624            1 
 1210000     1.078454   -7.5306304    347.37087  0.023923613  0.024151699            4 
 1211000    1.0448302   -7.5176844    346.89786  0.023871309  0.024143993            7 
 1212000    1.0485704   -7.4969725    347.89595  0.023920238  0.024136319            3 
 1213000    1.0471391   -7.4857646     347.4717  0.023871373   0.02412857            4 
 1214000    1.0341678   -7.5355478    347.47367  0.023851845  0.024120879            3 
 1215000    1.0810479   -7.5257315    348.44455  0.023898803  0.024113119            3 
 1216000    1.0402568   -7.5614181    347.08528  0.023785998  0.024105291            2 
 1217000    1.0479406    -7.497531    348.59853  0.023870072  0.024097504            2 
 1218000    1.0553365   -7.5040059    350.15775  0.023957153  0.024089967            5 
 1219000    1.0439655   -7.5199163    349.11085  0.023865932  0.024082211            2 
 1220000     1.046199    -7.529903    348.01083  0.023771232  0.024074342            4 
 1221000    1.0480236   -7.5634401     348.1687  0.023762538  0.024066602            4 
 1222000    1.0538195   -7.5268468    349.12962  0.023808621  0.024058918            9 
 1223000    1.0522948   -7.5497636    348.69254  0.023759372  0.024051091            5 
 1224000    1.0714042   -7.4951414    349.85651  0.023819207   0.02404329            4 
 1225000    1.0676359   -7.5162067    349.85096  0.023799385  0.024035532            3 
 1226000    1.0499185   -7.5325196     350.1772  0.023802148  0.024027752            2 
 1227000    1.0396959    -7.548222    349.43772  0.023732526  0.024019945            3 
 1228000    1.0601961   -7.5125121    351.03004  0.023821256  0.024012327            4 
 1229000    1.0550524   -7.5121105    351.47693  0.023832176  0.024004657            3 
 1230000    1.0700329    -7.560928    351.04311  0.023783409  0.023996876           16 
 1231000    1.0651098   -7.5792399    351.02917  0.023763144  0.023989079            4 
 1232000    1.0481718   -7.5147107    350.57089  0.023712858  0.023981508            4 
 1233000      1.04169   -7.5507276    350.97081  0.023720655  0.023974001            6 
 1234000    1.0859533   -7.5001934    351.96261   0.02376841    0.0239663            6 
 1235000    1.0614178   -7.4883531    352.62865  0.023794106  0.023958741            5 
 1236000    1.0646842    -7.589077    351.59169  0.023704942  0.023951073            2 
 1237000    1.0535971   -7.5590357    352.06716   0.02371781  0.023943378            2 
 1238000    1.0479854   -7.5415738    352.82823  0.023749881  0.023935631            3 
 1239000    1.0440847   -7.5572536    352.35299  0.023698748  0.023927959            2 
 1240000    1.0367425   -7.5310264    352.77844  0.023708228  0.023920325            4 
 1241000    1.0319382   -7.5568675    352.95534  0.023701003  0.023912692            7 
 1242000    1.0462538   -7.5144995     353.9495  0.023748625  0.023905133            3 
 1243000    1.0844297   -7.5758482    353.78899  0.023718758   0.02389744            2 
 1244000    1.0490334   -7.5598681     353.7583  0.023697635  0.023889735            2 
 1245000    1.0594672   -7.5579731    353.71899   0.02367597  0.023882085            6 
 1246000    1.0491188   -7.5386679    355.08429  0.023748281  0.023874594            4 
 1247000    1.0437088   -7.5045834    354.43712  0.023685987  0.023867032            2 
 1248000    1.0411076   -7.5007292    355.18692  0.023717075  0.023859569            4 
 1249000    1.0589269   -7.5829871    353.93004  0.023614227  0.023851867            3 
 1250000    1.0493349   -7.5445591    354.25635   0.02361709  0.023844262            6 
 1251000    1.0431771   -7.5554021     354.5477  0.023617619  0.023836644            6 
 1252000    1.0610196   -7.5335439     355.0512  0.023632268  0.023829055            3 
 1253000    1.0566433   -7.5462426      355.185  0.023622307  0.023821397            1 
 1254000    1.0512594   -7.5072755    355.72659   0.02363946  0.023813761            1 
 1255000    1.0476708   -7.5519666    356.09831  0.023645306  0.023806245            3 
 1256000    1.0564454    -7.563185    355.59671    0.0235932  0.023798669            2 
 1257000    1.0526214   -7.5478268    355.56944  0.023572622  0.023791056            1 
 1258000    1.0610813   -7.5946926    356.46047  0.023612909   0.02378342            2 
 1259000    1.0459418   -7.5974749     355.1267  0.023505871  0.023775675            3 
 1260000    1.0553922   -7.5353549    355.41661  0.023506389  0.023767936            3 
 1261000    1.0642998   -7.5669893    355.92491   0.02352134  0.023760227            2 
 1262000    1.0545196     -7.55744     355.9669  0.023505474   0.02375262            5 
 1263000    1.0457092   -7.5714499    357.08415   0.02356058  0.023744989            2 
 1264000    1.0374206   -7.5084526    357.49864  0.023569267  0.023737382            3 
 1265000    1.0313163   -7.5507057     356.0825  0.023457345  0.023729679            2 
 1266000    1.0600239   -7.5373063    356.56202   0.02347038   0.02372201            7 
 1267000     1.054314   -7.5215548    356.70004  0.023460934  0.023714328            4 
 1268000    1.0527552   -7.5903912    356.41582  0.023423752  0.023706599            3 
 1269000    1.0452947   -7.5896857    356.02985  0.023379948  0.023698653            4 
 1270000    1.0550738   -7.5363631    358.76114  0.023540757  0.023690789            4 
 1271000    1.0532057   -7.5761786    356.48969  0.023373308   0.02368293            4 
 1272000    1.0598787    -7.579575    357.45795  0.023418367  0.023675067            5 
 1273000    1.0477703    -7.550461    358.84408   0.02349071  0.023667155            4 
 1274000    1.0431787   -7.4953818    358.26652  0.023434492  0.023659375            4 
 1275000    1.0544653   -7.5610538    357.49367  0.023365599  0.023651712            5 
 1276000    1.0625886   -7.5712727    358.64254  0.023422318  0.023643919            1 
 1277000     1.019437   -7.5616435      359.005   0.02342763  0.023636053            3 
 1278000    1.0461818   -7.5542304    359.01459  0.023409924  0.023628247            2 
 1279000    1.0493044   -7.5408064     359.0888  0.023396455  0.023620516            2 
 1280000    1.0236956   -7.5372466     358.5667  0.023344186  0.023612873            4 
 1281000     1.089465    -7.559392    358.54808  0.023324751  0.023605058            6 
 1282000    1.0552725   -7.5794444      360.078  0.023406006  0.023597253            2 
 1283000    1.0283823    -7.575754    359.75817   0.02336699  0.023589541            5 
 1284000    1.0419294   -7.5659292    358.98809  0.023298812  0.023581707            4 
 1285000      1.05703   -7.4978755    360.65909  0.023389046  0.023574001            4 
 1286000    1.0422645   -7.5430026    360.36382  0.023351725  0.023566156            4 
 1287000    1.0448271   -7.5613189    361.14238  0.023383993  0.023558463            4 
 1288000    1.0413809     -7.54466    361.29167  0.023375496  0.023550861            6 
 1289000    1.0444595   -7.5198488    361.21431   0.02335236  0.023543251            6 
 1290000    1.0614803   -7.5868986    359.53665  0.023225881  0.023535522            5 
 1291000    1.0535262   -7.5699613    360.58283  0.023275421  0.023527679            5 
 1292000    1.0367106    -7.614415    360.71513   0.02326594  0.023519947            3 
 1293000    1.0739237   -7.5570103    360.36056  0.023225094  0.023512155            3 
 1294000    1.0332127    -7.518359    362.48683  0.023344077  0.023504525            5 
 1295000    1.0159743   -7.5852299    360.97808  0.023228963   0.02349691            5 
 1296000    1.0436869   -7.5503465    361.71376  0.023258343  0.023489134            6 
 1297000    1.0527478     -7.55766    362.17736  0.023270198  0.023481294            3 
 1298000    1.0530661   -7.5482554    361.62769  0.023216981  0.023473395            6 
 1299000    1.0294807    -7.585843    362.81215  0.023275093  0.023465428            4 
 1300000     1.032321   -7.6038268    360.53501  0.023111218  0.023457496            3 
 1301000    1.0281748    -7.562614    362.32581  0.023208161  0.023449545            3 
 1302000    1.0278667   -7.5684264    362.13202  0.023177933  0.023441569            2 
 1303000    1.0408898    -7.574384    362.40891  0.023177853  0.023433686            2 
 1304000    1.0183904   -7.6036349     361.5999  0.023108378  0.023425774            4 
 1305000    1.0431952   -7.5792083     362.2286  0.023130817  0.023417858            6 
 1306000    1.0662726   -7.5914957    362.83592  0.023151858  0.023409809            3 
 1307000    1.0647379   -7.5888035      362.135  0.023089454  0.023401802            3 
 1308000    1.0498318   -7.5803618    363.86656   0.02318212  0.023393848            4 
 1309000    1.0305675   -7.5985316    363.62539  0.023149057  0.023385891            6 
 1310000      1.03055   -7.5894128    362.69966  0.023072497  0.023377947            4 
 1311000    1.0237654   -7.5845297    363.28398   0.02309204  0.023370062            4 
 1312000    1.0601341   -7.5885117    364.32758  0.023140726  0.023362149            9 
 1313000    1.0376958   -7.5983772    362.64419   0.02301626  0.023354256            6 
 1314000    1.0568469    -7.558813    363.39503  0.023046362  0.023346349            7 
 1315000    1.0342317   -7.5871173    364.32218  0.023087591  0.023338399            3 
 1316000    1.0491584   -7.6138611    363.99029   0.02304903  0.023330476            3 
 1317000    1.0081399   -7.6053843    364.60388  0.023070355  0.023322526            3 
 1318000    1.0451335   -7.5856952    365.16569  0.023088372  0.023314643            3 
 1319000    1.0476083   -7.5966716    364.60193  0.023035249  0.023306758            5 
 1320000    1.0420026   -7.5717285    365.58932  0.023080134  0.023298829            5 
 1321000    1.0236624   -7.5462425    367.03668  0.023153967  0.023291003            5 
 1322000    1.0278227   -7.5466648    365.23751   0.02302304  0.023283143            2 
 1323000    1.0350854   -7.5691527    366.33404  0.023074707  0.023275301            5 
 1324000    1.0286922   -7.5915697    365.89106  0.023029397   0.02326754            2 
 1325000    1.0333971   -7.5833548    365.68599  0.022999119  0.023259608            2 
 1326000    1.0213367   -7.5250042    366.78977  0.023051142  0.023251802            1 
 1327000    1.0417217   -7.5151943    366.89595  0.023040439  0.023244069            2 
 1328000   0.99896095   -7.6090275    365.97156  0.022965083  0.023236274            5 
 1329000    1.0431449    -7.562183    366.11521   0.02295681   0.02322838            4 
 1330000    1.0391515   -7.6228106    366.80125  0.022982534  0.023220535            5 
 1331000    1.0469566   -7.6115508    365.80193  0.022902701  0.023212604            3 
 1332000     1.041475   -7.5836794    366.44868  0.022925968  0.023204699            4 
 1333000    1.0354967   -7.5936031    367.96018  0.023003262  0.023196898            6 
 1334000    1.0595777   -7.6297077    369.23172   0.02306545   0.02318914            4 
 1335000    1.0539396   -7.5826522     369.1532  0.023043271  0.023181577           10 
 1336000    1.0459846   -7.6233131    368.39205  0.022978546  0.023174018            4 
 1337000    1.0333788   -7.5616155    369.95455  0.023058748  0.023166463            2 
 1338000    1.0489162   -7.5836635    368.91145  0.022976548  0.023158924            3 
 1339000    1.0185095   -7.6078245    369.51778  0.022997123  0.023151361            5 
 1340000    1.0310488    -7.589956    368.83812  0.022937694   0.02314371            2 
 1341000    1.0402959   -7.5764084    369.69216  0.022973662   0.02313614            4 
 1342000    1.0380262    -7.657172    367.84589  0.022841896  0.023128396            3 
 1343000     1.010098   -7.6169649    369.04869  0.022899522  0.023120549            7 
 1344000    1.0241286   -7.6489102    367.83325  0.022807121  0.023112736            4 
 1345000    1.0455565   -7.6330524    369.93799   0.02292057  0.023104952            6 
 1346000    1.0395997   -7.5924882    369.99124  0.022906838  0.023097358            4 
 1347000    1.0219573   -7.6078179    370.60749  0.022927956  0.023089713            7 
 1348000    1.0704378   -7.5952237    370.07622  0.022878104  0.023082027            2 
 1349000    1.0384981   -7.6235949    369.88551  0.022849364  0.023074437            2 
 1350000    1.0194253    -7.593461    370.06675  0.022843627   0.02306676            2 
 1351000    1.0224608   -7.5986842    370.26539   0.02283897   0.02305904            4 
 1352000    1.0273233   -7.6196305    370.58331  0.022841674  0.023051281            2 
 1353000    1.0269612   -7.5617706    371.54244  0.022883866  0.023043732            3 
 1354000    1.0382692   -7.5361047    373.00812  0.022957171  0.023036094            3 
 1355000    1.0371543    -7.615846    372.02367  0.022879684  0.023028482            5 
 1356000    1.0551923   -7.6307699    371.67287  0.022841253  0.023020885            6 
 1357000    1.0660182   -7.5530128    373.20312  0.022918393  0.023013263            3 
 1358000    1.0186768   -7.6521818    370.53541  0.022737813  0.023005525            5 
 1359000    1.0380612   -7.6187536     372.1944  0.022822811  0.022997756            2 
 1360000    1.0459273   -7.5571288    374.05127  0.022919808  0.022990219            3 
 1361000    1.0405858   -7.5593443    372.78787  0.022825611  0.022982741            1 
 1362000    1.0397684   -7.6076304    372.18224  0.022771797  0.022975147            5 
 1363000    1.0369089   -7.6164411    372.99825   0.02280498  0.022967596            4 
 1364000    1.0070736   -7.6226923    372.57875  0.022762631  0.022960003            9 
 1365000    1.0334979   -7.5580763    373.84389  0.022823192  0.022952391            2 
 1366000    1.0270452   -7.6375946    371.72986  0.022677517  0.022944729            2 
 1367000    1.0225879   -7.5885024    373.00363  0.022738578  0.022936997            5 
 1368000    1.0295647   -7.6088305    373.09416  0.022727471  0.022929239            5 
 1369000    1.0333861   -7.6478348     373.2295  0.022719108  0.022921484            4 
 1370000    1.0352225   -7.6270106    373.66337  0.022728916  0.022913793            5 
 1371000    1.0333236   -7.6084109    374.90785   0.02278798  0.022906122            5 
 1372000    1.0548501   -7.6469375    372.93104  0.022651302  0.022898551            3 
 1373000     1.015176   -7.6066616    375.84309  0.022811549  0.022891089            4 
 1374000    1.0397683   -7.6146225     375.8254  0.022793874  0.022883873            3 
 1375000     1.024975   -7.5632814    375.63338   0.02276566  0.022876541            3 
 1376000    1.0460549   -7.5833337    375.44126  0.022737479  0.022869256            1 
 1377000    1.0314009   -7.6096401    375.85341   0.02274591  0.022861859            2 
 1378000    1.0068768   -7.6071301    376.10999  0.022744919  0.022854534            3 
 1379000    1.0303091   -7.6272963    374.75061  0.022646278  0.022847073            2 
 1380000    1.0476859    -7.613146     375.8015  0.022693327  0.022839676            3 
 1381000    1.0362259   -7.6151406    376.78683  0.022736352  0.022832181            6 
 1382000    1.0125046   -7.5875308    376.21222  0.022685252  0.022824897            5 
 1383000    1.0315324    -7.577413     376.4211  0.022681436  0.022817446            3 
 1384000     1.015192   -7.6057737    375.69338   0.02262123  0.022809926            3 
 1385000    1.0238844   -7.5778344    377.68347  0.022724637  0.022802439            3 
 1386000    1.0165483   -7.6214036    375.23575  0.022561072   0.02279495            2 
 1387000    1.0134715   -7.5822064    376.10724  0.022597167  0.022787271            4 
 1388000    1.0207794   -7.6028449    377.18395   0.02264553   0.02277975            6 
 1389000    1.0481913   -7.5997154    378.15931  0.022687744   0.02277223            7 
 1390000    1.0386467   -7.5683839    377.51598  0.022632852  0.022764758            6 
 1391000    1.0738492   -7.5643979     377.6018  0.022621723  0.022757429            1 
 1392000    1.0504256   -7.6301779    377.50636  0.022599758  0.022749959            2 
 1393000    1.0512028   -7.6582162    376.80518  0.022541588  0.022742336            1 
 1394000    1.0316801   -7.6474972    376.04576  0.022480019   0.02273467            4 
 1395000    1.0470954   -7.6476725    377.35829  0.022542311     0.022727            4 
 1396000    1.0256525   -7.6122659    378.13252  0.022572381  0.022719492            5 
 1397000     1.025154   -7.5549245    379.20735  0.022620338    0.0227121            3 
 1398000     1.020617   -7.6247948    379.06909  0.022595916  0.022704729            6 
 1399000    1.0126829   -7.5873506    378.62469  0.022553293  0.022697278            9 
 1400000    1.0254556    -7.621016     378.6544  0.022538953  0.022689829            2 
 1401000    1.0277248   -7.5789636    380.23727  0.022617016  0.022682256            2 
 1402000    1.0172549   -7.6295579    378.40888  0.022492206  0.022674811            3 
 1403000    1.0512248   -7.6086651    379.65304  0.022550073  0.022667344            2 
 1404000    1.0281589   -7.5949045    380.53535  0.022586381  0.022659896            4 
 1405000    1.0409165   -7.6634987    378.09035  0.022425288  0.022652469            3 
 1406000    1.0457234   -7.6509725    379.35103  0.022484058  0.022644852            8 
 1407000    1.0342813   -7.6372959    380.30552  0.022524611  0.022637236            3 
 1408000    1.0311845   -7.5987324    380.60548  0.022526366  0.022629782            3 
 1409000    1.0218571   -7.6057075    380.26918  0.022490488  0.022622214            4 
 1410000    1.0251983   -7.5878089      379.692  0.022440426  0.022614731            4 
 1411000    1.0333184   -7.6212779    380.33156  0.022462294  0.022607201            6 
 1412000    1.0189773   -7.6383053    380.53423  0.022458347  0.022599745            2 
 1413000    1.0220467   -7.6227201    380.25798  0.022426161  0.022592219            3 
 1414000    1.0235146   -7.6068677    381.44269  0.022480121  0.022584832            4 
 1415000    1.0207961   -7.6205743    381.17981  0.022448752  0.022577469            4 
 1416000    1.0432263   -7.6238622    380.66703  0.022402721  0.022569951            7 
 1417000   0.99675466   -7.6032023    381.61006   0.02244237  0.022562574            5 
 1418000    1.0155011   -7.6314041     381.9819  0.022448396  0.022555117            5 
 1419000    1.0085354   -7.6210592    381.46234  0.022402064  0.022547581            3 
 1420000    1.0098967   -7.6466979    380.20671    0.0223126   0.02254005            5 
 1421000    1.0352679   -7.6162482    381.99621  0.022401842  0.022532671            2 
 1422000     1.021636   -7.6152398    381.82985  0.022376339  0.022525258            3 
 1423000    1.0262515   -7.6322273    382.37413  0.022392488  0.022517904            3 
 1424000    1.0418361   -7.6496329    381.19213  0.022307592  0.022510454            2 
 1425000     1.021482   -7.6360695    382.96843  0.022395815  0.022502906            2 
 1426000    1.0008149    -7.603191    382.66985  0.022362661  0.022495502            3 
 1427000     1.037853   -7.6210477    382.50973  0.022337639  0.022488077            5 
 1428000    1.0310405   -7.6212885    383.82864  0.022398964  0.022480631            4 
 1429000    1.0152126    -7.641468    381.20282  0.022230162  0.022473047            5 
 1430000    1.0059262   -7.6184422     383.0956  0.022324919  0.022465421            4 
 1431000    1.0223971   -7.6076215    383.22315  0.022316745  0.022457831            9 
 1432000    1.0096987   -7.6254097    384.14405  0.022354752  0.022450196            2 
 1433000    1.0202545   -7.6215185    383.47123  0.022300025  0.022442669            3 
 1434000     1.013789   -7.5954419     384.1409   0.02232339  0.022435161            3 
 1435000   0.98835218   -7.6331686    383.73921  0.022284507  0.022427775            2 
 1436000    1.0324476   -7.6318266    383.43049  0.022251073  0.022420248            7 
 1437000      1.04016    -7.661194    383.32504  0.022229473  0.022412699            2 
 1438000    1.0212346   -7.6497106    384.91855   0.02230636   0.02240512            4 
 1439000    1.0249651   -7.6948851    382.97822  0.022178493  0.022397501            8 
 1440000    1.0480204   -7.6485972    383.58324  0.022198104  0.022389952            3 
 1441000    1.0216464   -7.6618282     384.1101  0.022213168  0.022382402            3 
 1442000    1.0150393   -7.6434725    384.06576  0.022195201  0.022374823            5 
 1443000    1.0225687   -7.6792041     384.0216   0.02217727  0.022367237            5 
 1444000    1.0233575   -7.6050436    386.47153  0.022303297  0.022359775            2 
 1445000    1.0157894   -7.6340909     384.7969  0.022191286  0.022352458            5 
 1446000   0.99985408    -7.714506    385.07195  0.022191791  0.022344997            6 
 1447000    1.0015353   -7.6649163    385.52657  0.022202636  0.022337541            9 
 1448000    1.0140681   -7.6571685    386.42819  0.022239191  0.022330093            7 
 1449000    1.0232995   -7.6127002    386.60554  0.022234043  0.022322722            3 
 1450000    1.0052257   -7.6684512    386.48773  0.022211938  0.022315382            3 
 1451000    1.0025902   -7.6133461    387.80882  0.022272503  0.022308092            2 
 1452000    1.0249984   -7.6562778    386.30343  0.022170766  0.022300792           13 
 1453000    1.0120453   -7.6633033    386.82131  0.022185209  0.022293379            4 
 1454000    1.0023591   -7.6789424     386.4184  0.022146859  0.022285905            1 
 1455000    1.0210739   -7.6581927    385.97131  0.022106031  0.022278449            4 
 1456000    1.0157036   -7.6516673    386.88502  0.022143144  0.022271004            3 
 1457000    1.0244862   -7.6411521    387.81469  0.022181119   0.02226355            3 
 1458000     1.022694   -7.6925021    386.61189  0.022097159  0.022256044            3 
 1459000   0.98188688   -7.6568836    387.06722  0.022108021  0.022248543            3 
 1460000    1.0237895   -7.6489984     387.4837  0.022116649  0.022241054            2 
 1461000    1.0098855   -7.6313884    387.67955  0.022112683  0.022233599            4 
 1462000    1.0132507   -7.6755207    385.68764   0.02198402  0.022226073            2 
 1463000    1.0213202   -7.6561125    387.55382  0.022075292  0.022218531            2 
 1464000    1.0072221    -7.614344    388.01337  0.022086371  0.022210932            3 
 1465000    1.0225485   -7.6020839    389.20926  0.022139321  0.022203529            2 
 1466000    1.0239467   -7.6218896    389.06274   0.02211589  0.022196152            7 
 1467000    1.0100007   -7.6602154    388.35627  0.022060683   0.02218884            8 
 1468000    1.0286889   -7.6444263    389.68005  0.022120802   0.02218142            4 
 1469000   0.98472077   -7.6516189    389.63751   0.02210333  0.022174128            4 
 1470000    1.0178153   -7.6564707     388.2099  0.022007364  0.022166657            3 
 1471000   0.99226002    -7.628539    389.57229  0.022069584  0.022159234            4 
 1472000    1.0329402   -7.6625493    389.23804  0.022035668  0.022151896            3 
 1473000    1.0400982   -7.6324424    390.35541  0.022083922  0.022144444            4 
 1474000    1.0282296   -7.6362238    388.43859  0.021960571   0.02213704            6 
 1475000    1.0215499   -7.6698318    388.85577  0.021969253  0.022129472            3 
 1476000    1.0395514    -7.641312     390.2353  0.022032255  0.022121924            5 
 1477000   0.99958029    -7.608493     390.7524  0.022046513  0.022114562            3 
 1478000   0.99985048   -7.6393007    390.37333  0.022010224  0.022107161            6 
 1479000    1.0226753   -7.6507338     391.4249  0.022054592  0.022099785            5 
 1480000    1.0193506   -7.6331841     391.6445  0.022052055  0.022092509            3 
 1481000    1.0154835   -7.6649807     390.6244  0.021979766  0.022085095            4 
 1482000    1.0411502   -7.6725236    390.76887  0.021973058  0.022077697            5 
 1483000   0.99869224   -7.6470496    391.25491  0.021985554  0.022070288            6 
 1484000    1.0124267     -7.65807    392.01349  0.022013336  0.022062968            6 
 1485000    1.0229999   -7.6614968    391.20877  0.021953354  0.022055554            5 
 1486000    1.0101305   -7.6422259    391.33729  0.021945788  0.022048102            4 
 1487000   0.99863446   -7.6733456    390.95311    0.0219095  0.022040684            4 
 1488000    1.0033937   -7.6549659    391.11832  0.021904028   0.02203324            4 
 1489000    1.0171709   -7.6070878    392.46574  0.021964727  0.022025888            4 
 1490000    1.0146192   -7.6436922    391.89902   0.02191829  0.022018472            5 
 1491000    0.9947213   -7.6542475     391.6389  0.021889051  0.022011106            2 
 1492000    1.0158098   -7.6583655    392.20355  0.021905917  0.022003729            5 
 1493000    1.0054186   -7.6350992    392.77048  0.021922889  0.021996363            3 
 1494000    1.0221473   -7.6268252    392.92891  0.021917052  0.021989156            5 
 1495000   0.99552988   -7.6525794    392.45261  0.021875842  0.021981805            4 
 1496000    1.0198116   -7.6554383    393.25321  0.021905816  0.021974535            2 
 1497000    1.0347937    -7.682866    392.79024  0.021865411   0.02196706            9 
 1498000    1.0172361   -7.6998069    391.77278  0.021794214  0.021959635            5 
 1499000    0.9965081   -7.6749267    392.95234  0.021845249  0.021952281            4 
 1500000    1.0130977   -7.6573865    393.14504  0.021841391  0.021944824            4 
 1501000   0.98295986   -7.6873117    393.39988  0.021840988  0.021937316            3 
 1502000    1.0040677   -7.6590064    392.33946  0.021767613  0.021929744            9 
 1503000    1.0491688   -7.6943352    392.16833  0.021743642  0.021922352            6 
 1504000    1.0007411   -7.6820213     393.6957  0.021813813  0.021914975            4 
 1505000    1.0289952   -7.6606129    393.88285  0.021809682  0.021907547            3 
 1506000     1.013893   -7.6366107    394.58666  0.021834145  0.021900179            3 
 1507000    1.0127772    -7.632824    395.14826  0.021850711  0.021892954            3 
 1508000      1.01712   -7.6732471    394.43218   0.02179665  0.021885728            4 
 1509000     1.017052   -7.7187359    393.33352  0.021721533  0.021878384            4 
 1510000    1.0146908   -7.7198336    393.20618   0.02170012  0.021870937            4 
 1511000     1.027708   -7.6661435    394.96847  0.021782951  0.021863606            3 
 1512000   0.99499574   -7.6769902    394.34872  0.021734387  0.021856318            3 
 1513000     1.004499   -7.6668247    394.70989  0.021739915  0.021848966            5 
 1514000   0.99119709   -7.6714018    395.26876  0.021756316  0.021841643            2 
 1515000   0.99926346   -7.6696792    395.47685  0.021753402  0.021834359            4 
 1516000   0.98808797   -7.6668144    395.26834  0.021727591  0.021826986            5 
 1517000   0.99428761   -7.6904186    395.78378  0.021741583  0.021819624            6 
 1518000    1.0131152   -7.6662624    396.25468  0.021753111  0.021812284            2 
 1519000    1.0034166   -7.6971245    395.12264  0.021676686  0.021804975            4 
 1520000    1.0343594   -7.6641999    395.08324  0.021660265  0.021797543            4 
 1521000    0.9819378   -7.6400357    396.63625  0.021731112  0.021790053            5 
 1522000     1.024238   -7.6552771    397.02461  0.021738097  0.021782713            3 
 1523000    1.0047328   -7.6802853    396.20895  0.021679194  0.021775404            2 
 1524000    1.0162063   -7.6667039    395.53445  0.021628087  0.021768068            3 
 1525000    1.0228882   -7.6666629    396.84285  0.021685402  0.021760765            8 
 1526000    1.0053457   -7.6775417    397.09725  0.021685083  0.021753306            4 
 1527000    1.0180392   -7.6854162    397.36413  0.021685447  0.021745949            4 
 1528000    1.0137931   -7.6512602    396.61388  0.021630338  0.021738489            3 
 1529000   0.99212758   -7.6749487    396.99499  0.021636962  0.021731023            2 
 1530000    1.0065912   -7.6891191    395.74403  0.021554686  0.021723568            2 
 1531000   0.98816218   -7.6933978    395.37083  0.021520293  0.021716129            4 
 1532000    1.0252258   -7.6975397    395.83455   0.02153147  0.021708589            7 
 1533000    1.0016289   -7.6978446    396.49932  0.021553562  0.021701027            4 
 1534000    1.0230132   -7.6856149    395.67804  0.021494896  0.021693431            7 
 1535000    1.0161655   -7.7002569    396.71126  0.021536985  0.021685832            4 
 1536000   0.99447678   -7.6820645    397.05607   0.02154167   0.02167822            2 
 1537000    1.0143634   -7.6720478    398.46744  0.021604177  0.021670646            6 
 1538000    1.0061848   -7.6928709    396.97749    0.0215094  0.021663048            6 
 1539000   0.99366502   -7.6796806    397.28135  0.021511877  0.021655399            8 
 1540000   0.99597575   -7.6774171    396.47101  0.021454059  0.021647843            2 
 1541000    1.0143593   -7.6590058    398.12704  0.021529691  0.021640341            3 
 1542000   0.99937952   -7.6639419    397.69549  0.021492406  0.021632854            6 
 1543000    1.0089437   -7.6967603    397.05891  0.021444098  0.021625337            5 
 1544000     1.010098   -7.6566706    399.42886  0.021558121  0.021617919            6 
 1545000   0.98583252   -7.6759519    397.90358  0.021461898  0.021610526            2 
 1546000   0.97067103   -7.7136497     397.3003  0.021415497  0.021602903            8 
 1547000     1.000515   -7.6426719    398.41362  0.021461626  0.021595309            4 
 1548000    1.0211423   -7.7376717    396.77017   0.02135929   0.02158768            2 
 1549000    1.0032282   -7.6971356    398.38795  0.021432534  0.021579896            4 
 1550000   0.98970895   -7.6856094    398.29608  0.021413768  0.021572163           10 
 1551000      1.01171   -7.6884909    397.35779  0.021349548  0.021564511            3 
 1552000    1.0005918   -7.6894283    398.70196  0.021407966  0.021556887            1 
 1553000    0.9900934   -7.6813347    399.12088   0.02141666  0.021549216            5 
 1554000    1.0088191    -7.694087    398.29813  0.021358759  0.021541645            3 
 1555000    1.0046966   -7.6706577    399.52494  0.021410768  0.021534004            7 
 1556000   0.99543519   -7.7197655     398.5746  0.021346112  0.021526378            4 
 1557000    1.0288991   -7.6889915    400.30003   0.02142475  0.021518759            4 
 1558000   0.99978127   -7.6647741    399.13672  0.021348776  0.021511151            5 
 1559000   0.98221057    -7.684129    399.68036  0.021364142  0.021503492            3 
 1560000    1.0045367   -7.6598021    399.32062   0.02133123  0.021495951            3 
 1561000    1.0127494   -7.6573811    400.54497  0.021382926  0.021488444            3 
 1562000    0.9976016   -7.6970022     399.8529  0.021332314  0.021481016            3 
 1563000    1.0025124   -7.6962999    400.60742  0.021358894  0.021473475            2 
 1564000    1.0115451    -7.689654    401.87467   0.02141276  0.021466065            3 
 1565000    0.9741701   -7.7039237    400.64854  0.021333788  0.021458565            5 
 1566000    1.0208699   -7.6857303    401.27073  0.021353274  0.021451126           10 
 1567000    1.0272502   -7.6944897    401.27564  0.021339908  0.021443667            4 
 1568000    1.0081359   -7.7159546    401.03349  0.021313429  0.021436213            3 
 1569000    1.0228251   -7.7068632    401.17813  0.021307527  0.021428701            3 
 1570000    1.0115475   -7.7258991    400.16821  0.021240351  0.021421162            5 
 1571000   0.98512582   -7.7342016    401.21625  0.021282424  0.021413646            4 
 1572000     1.016136   -7.7232082    401.01289  0.021258105   0.02140613            5 
 1573000    1.0003703   -7.6798603    401.77737   0.02128509  0.021398638            5 
 1574000   0.99775848   -7.6878631    402.38176  0.021303566  0.021391199            8 
 1575000    0.9598922   -7.6626239    403.66188  0.021357771  0.021383935            3 
 1576000    1.0197014   -7.7009513    401.64361    0.0212375  0.021376586            8 
 1577000    1.0097666   -7.7204381    401.57983  0.021220663  0.021369044            4 
 1578000   0.99555339   -7.7438937     401.5968  0.021208112  0.021361476            3 
 1579000    1.0001711   -7.7285552    402.51913  0.021243357  0.021353852            4 
 1580000   0.98409801   -7.7382354    401.34023  0.021167734  0.021346339            7 
 1581000   0.98712933   -7.7216235    402.31874  0.021205921  0.021338929           12 
 1582000   0.96701418   -7.7329211    402.45791  0.021199848   0.02133143            4 
 1583000    1.0047018   -7.7324417    402.96042  0.021212909  0.021323906            5 
 1584000   0.99443381   -7.7199725    404.18005  0.021263681  0.021316431            4 
 1585000   0.98126997   -7.7244214    403.57853   0.02121864  0.021309064            2 
 1586000   0.99247522   -7.6887606    403.42855  0.021197381  0.021301691            3 
 1587000    1.0004484   -7.6897862    404.33401  0.021231569  0.021294248            4 
 1588000    1.0088834   -7.6588119    404.14864  0.021208472  0.021286833            8 
 1589000   0.98185947   -7.6784829    404.18114  0.021196829  0.021279487            3 
 1590000    1.0127054   -7.7421763    403.23547  0.021133935  0.021272033            6 
 1591000    1.0012051   -7.7092169    404.65513   0.02119501  0.021264636            3 
 1592000    1.0053003   -7.7204439    404.01378  0.021148125  0.021257255            3 
 1593000   0.99126829   -7.6979236    403.74909  0.021121003  0.021249799           17 
 1594000   0.99301637   -7.7345241    403.94302  0.021117891  0.021242348            2 
 1595000   0.99385983   -7.7403864    403.69295  0.021091586  0.021234791            1 
 1596000   0.99473643   -7.7076811    404.87593  0.021140138  0.021227231            3 
 1597000    1.0026269    -7.729857    404.32919  0.021098371  0.021219681            5 
 1598000   0.98387886   -7.7281973    403.74202  0.021054548  0.021212033            2 
 1599000    1.0179849   -7.7250193    403.48935  0.021028213  0.021204454            8 
 1600000    1.0007403   -7.7284316    404.20051   0.02105211  0.021196913            8 
 1601000    1.0013533   -7.7113533    405.13466  0.021087584  0.021189328            7 
 1602000   0.98087239   -7.7029695    405.19033  0.021077317  0.021181866            5 
 1603000    0.9942181   -7.6892279    404.31536  0.021018681  0.021174469            6 
 1604000    1.0015321   -7.7469618    405.21834  0.021052491   0.02116703            3 
 1605000     1.015641   -7.7104507    406.11945   0.02108616  0.021159538            3 
 1606000   0.96957677   -7.7234182    406.15332  0.021074789  0.021152128            5 
 1607000   0.98447882   -7.7278413     405.0869  0.021006373  0.021144671            5 
 1608000   0.99543315   -7.7341725    404.85397  0.020981238  0.021137052            4 
 1609000    0.9978912   -7.7382066    404.84039  0.020967495  0.021129458            3 
 1610000   0.99627354   -7.7053028    405.13798  0.020969875   0.02112192            5 
 1611000    1.0015851   -7.7034464    407.87393  0.021098382  0.021114402            4 
 1612000   0.99096038   -7.7136694     404.8323  0.020928055  0.021106837            5 
 1613000   0.98600304   -7.6866258    406.40187   0.02099617  0.021099249            5 
 1614000     1.010505   -7.6962573     405.6724  0.020945498  0.021091683            3 
 1615000   0.98131187   -7.6905337    405.45294  0.020921205  0.021084074            3 
 1616000   0.99180436   -7.6976041    406.93145  0.020984501  0.021076526            8 
 1617000   0.99452827   -7.6783057    407.85668  0.021019206  0.021069097            8 
 1618000   0.96900288   -7.7480466    407.27527  0.020976271  0.021061634            4 
 1619000   0.97880518   -7.7244266    406.75795  0.020936687  0.021054191            4 
 1620000   0.98231552   -7.7204881    408.14144   0.02099493  0.021046754            2 
 1621000   0.99788858   -7.7320884    408.04146  0.020976839  0.021039362            7 
 1622000   0.97760048    -7.743886    406.31675  0.020875295  0.021031933            6 
 1623000   0.96901996   -7.7223001    408.43706  0.020971301  0.021024561            5 
 1624000   0.99858748   -7.7127801    407.44043  0.020907247  0.021017128            6 
 1625000   0.98095437   -7.7026784    408.21424  0.020934063  0.021009646            7 
 1626000    1.0061914    -7.700271    407.94232  0.020907253  0.021002292            4 
 1627000   0.99699066   -7.7056777    408.09881  0.020902418  0.020994895            2 
 1628000   0.99485974   -7.7857649    406.73337  0.020819685  0.020987431            3 
 1629000    1.0085358   -7.7326958    408.83952  0.020914647  0.020979938            3 
 1630000   0.99008342   -7.7074037    409.15507  0.020917948  0.020972514            4 
 1631000   0.99938603   -7.7270218    408.54941  0.020874178  0.020965175            4 
 1632000   0.99642582   -7.7329692     407.9082  0.020828646  0.020957741            3 
 1633000   0.99438221   -7.7448708    408.20639  0.020831108  0.020950281            3 
 1634000   0.97147069   -7.7615088    407.44467  0.020779512  0.020942823            7 
 1635000   0.99220852   -7.7110191    409.09633  0.020850985  0.020935357            5 
 1636000   0.97436879   -7.7160229    409.96462  0.020882468  0.020927989            3 
 1637000   0.99692087   -7.7232051    409.96086  0.020869521  0.020920648            3 
 1638000   0.99778069   -7.7286067    410.03885  0.020860747  0.020913326            4 
 1639000   0.98909836   -7.7288466    409.18247  0.020804478  0.020905828            2 
 1640000   0.99282032   -7.7317373    410.48082  0.020857765  0.020898456            4 
 1641000   0.98044354   -7.7565451    407.58275  0.020697885  0.020891037            6 
 1642000   0.98969115   -7.7346178    409.59058  0.020787179  0.020883598            2 
 1643000    0.9891608   -7.7170418    409.45513  0.020767657  0.020876196            3 
 1644000     1.005336   -7.7259789    410.01863  0.020783588   0.02086879            4 
 1645000   0.99389518    -7.714927    410.35135  0.020787809  0.020861449            5 
 1646000   0.98849414   -7.7455266    409.78548  0.020746531  0.020853941            3 
 1647000    1.0054902   -7.7324777    410.01519  0.020745557  0.020846483            3 
 1648000   0.97206582   -7.7457587    409.76188   0.02072016  0.020838975            3 
 1649000   0.97302518   -7.7645315    409.44624  0.020691643  0.020831521            3 
 1650000   0.99482496   -7.7651742    408.95875  0.020654482  0.020824023            3 
 1651000   0.97500564   -7.7321325    410.62852  0.020726253  0.020816538            6 
 1652000   0.99539072   -7.7527389    410.16359  0.020690254  0.020809171            4 
 1653000    1.0054232   -7.7351728    411.85904   0.02076321  0.020801736            4 
 1654000   0.99147563   -7.7599825    411.07829  0.020711321  0.020794373            3 
 1655000   0.98507969   -7.7510428    410.55053  0.020672232  0.020787042            3 
 1656000   0.97767046   -7.7513611    413.14953  0.020790536  0.020779677            3 
 1657000   0.97804576    -7.687473    412.38341  0.020739459  0.020772373            6 
 1658000   0.98520228   -7.7151157    411.61838  0.020688499  0.020765112            1 
 1659000    0.9987828   -7.7125547     411.8276  0.020686538  0.020757859            4 
 1660000   0.98825616   -7.7209581    412.10765  0.020688135  0.020750641            5 
 1661000    0.9830978   -7.7604182    411.70818  0.020655638  0.020743325            3 
 1662000   0.99231714   -7.7505968     412.6596  0.020690915  0.020736061            4 
 1663000    0.9619639   -7.7769961    411.80005    0.0206354  0.020728836            4 
 1664000   0.99259262   -7.7570226    411.90262  0.020628136  0.020721507            6 
 1665000   0.97498781   -7.7418396     411.9838   0.02061981  0.020714205            8 
 1666000   0.98722881   -7.7549327    412.32782  0.020624641  0.020706899            2 
 1667000   0.98509417   -7.8066271    411.69323  0.020580546  0.020699412            3 
 1668000    1.0085674   -7.7946765    412.11656  0.020589357  0.020692005            2 
 1669000    0.9778127   -7.7530739    413.36069   0.02063914  0.020684695            7 
 1670000   0.98716407   -7.7522526    412.20385  0.020569054  0.020677484            3 
 1671000   0.98218766   -7.7222677      414.313  0.020661929  0.020670288            2 
 1672000   0.99819896   -7.7523687    414.18431  0.020643157  0.020663124            7 
 1673000    0.9971871   -7.7266987    413.55979   0.02059971  0.020655925            2 
 1674000   0.98775121   -7.7276572    415.48201  0.020683095   0.02064882            3 
 1675000   0.98727855   -7.7418662    414.97113   0.02064533  0.020641726            4 
 1676000   0.98774171   -7.7347796    414.04007  0.020586718  0.020634461            2 
 1677000   0.98532231   -7.7777657    414.18449  0.020581618  0.020627242            1 
 1678000   0.99856336   -7.7838015     413.7231  0.020546439  0.020620039            2 
 1679000   0.97097976   -7.7062237     415.6603  0.020630351  0.020612927            3 
 1680000   0.98676314   -7.7131243    415.36182  0.020603265  0.020605709            3 
 1681000   0.97488984   -7.7505695    413.78951  0.020513063  0.020598424            3 
 1682000   0.98655868   -7.7098486    414.89199  0.020555489  0.020591181            8 
 1683000    1.0082887   -7.7122497    414.63043  0.020530324  0.020584032            8 
 1684000   0.98861884   -7.7651042    414.32606  0.020503071  0.020576852            4 
 1685000    1.0016674   -7.7603241    415.53043  0.020550467  0.020569604            6 
 1686000   0.97200544   -7.7788695    414.95431  0.020509802  0.020562382            5 
 1687000   0.99379403    -7.758477    415.53411  0.020526285  0.020555146            5 
 1688000   0.98352721   -7.7787606    415.28853  0.020502001   0.02054794            5 
 1689000     1.007854   -7.7790091    415.67497  0.020508929  0.020540659            6 
 1690000   0.95435353   -7.7633678    415.17531  0.020472155  0.020533383            4 
 1691000    0.9855828   -7.7530162    415.64688  0.020483288  0.020526066            7 
 1692000   0.98051361   -7.7349322    417.11308  0.020543394  0.020518924            2 
 1693000   0.98944226   -7.7304631    416.25639  0.020489092  0.020511863            4 
 1694000   0.97730559   -7.7761156    415.31531  0.020430702  0.020504783            3 
 1695000   0.99742655   -7.7466168    416.42816  0.020473361  0.020497552           20 
 1696000   0.97896395   -7.7711385     416.2839  0.020454201  0.020490358            3 
 1697000   0.97920978   -7.7310376    417.52808  0.020503245  0.020483273            4 
 1698000   0.98755054   -7.7016851    419.17862  0.020572174  0.020476266            6 
 1699000   0.97139626   -7.7638605    417.49887  0.020477676   0.02046927            4 
 1700000   0.95628621   -7.7218918    416.75444  0.020429139  0.020462208            3 
 1701000   0.97505382   -7.7945656    416.26247  0.020393027  0.020455095            6 
 1702000   0.97594746   -7.7644782    417.81093  0.020456861   0.02044795            5 
 1703000   0.96716481   -7.7956963    416.47543  0.020379499  0.020440766            8 
 1704000   0.97968307   -7.7645462     417.7006  0.020427455  0.020433629            6 
 1705000    1.0024944   -7.7944182    418.03413  0.020431776   0.02042645            6 
 1706000   0.98564769   -7.7751583    417.79003  0.020407876  0.020419299            3 
 1707000   0.96940137   -7.7459317    418.07693  0.020409926  0.020412171            4 
 1708000   0.96594041   -7.7686894     417.9011  0.020389398  0.020405053            6 
 1709000   0.98915887   -7.7431273    418.12726  0.020388495  0.020397983            3 
 1710000   0.97946677   -7.7274994     419.5247  0.020444674  0.020391043            7 
 1711000   0.98951347   -7.7664053    418.00176   0.02035855  0.020384061            4 
 1712000   0.97352028   -7.7771831     418.6401  0.020377731  0.020377067            3 
 1713000   0.96016196   -7.7372727    418.79287  0.020373267    0.0203701            3 
 1714000   0.96690078   -7.7340575    419.48961  0.020395255  0.020363078            2 
 1715000   0.96756838   -7.7613307    419.35586  0.020376864  0.020356061            4 
 1716000   0.97460989   -7.7555211    418.98138  0.020346804  0.020349061            6 
 1717000   0.98863917   -7.7386816    420.37634  0.020402657   0.02034207            4 
 1718000   0.96986209   -7.7674908    419.91161  0.020368239  0.020335097            4 
 1719000   0.96650579   -7.7614055    420.17602  0.020369208  0.020328108            7 
 1720000   0.96068762   -7.7538524    418.77233  0.020289357  0.020321135           15 
 1721000   0.97183875   -7.7652162    420.84982  0.020378163  0.020314138            4 
 1722000   0.96957856     -7.70633    421.61221  0.020403224  0.020307203            5 
 1723000   0.98085054   -7.7357474    420.00919  0.020313852  0.020300224            3 
 1724000     1.000805   -7.7833324    420.48346  0.020324993  0.020293261            5 
 1725000   0.97376961   -7.7638698     420.9236  0.020334473   0.02028632            4 
 1726000   0.96769595   -7.7442435    422.27272  0.020387829  0.020279386            7 
 1727000   0.99719118   -7.7454726    421.25568  0.020326948  0.020272496            4 
 1728000    0.9670361   -7.7686271    421.02785  0.020304198  0.020265574            5 
 1729000   0.97551959    -7.752896    421.50428  0.020315417  0.020258581            3 
 1730000     0.984113   -7.7752008    420.91877  0.020275471  0.020251586            4 
 1731000   0.95812213   -7.7616705    421.76752  0.020304618  0.020244588            3 
 1732000   0.97619776   -7.7754993    420.89924  0.020251118  0.020237585            9 
 1733000   0.97918018   -7.7627591     420.7906  0.020234208  0.020230566            3 
 1734000   0.98152326   -7.7352013    423.15529  0.020336183  0.020223592            5 
 1735000   0.96843786   -7.7790139     420.6656   0.02020488  0.020216636            4 
 1736000   0.96273872   -7.7725122    421.22754  0.020220216  0.020209589            3 
 1737000   0.96407823   -7.7517758    420.72885   0.02018465  0.020202522            3 
 1738000   0.96941796   -7.7425129    422.07909  0.020237778  0.020195488            6 
 1739000   0.97612514   -7.7531931    421.34062  0.020190752  0.020188424            4 
 1740000   0.96870453   -7.7616549     422.1298  0.020216944  0.020181271            3 
 1741000   0.97298783    -7.755446    421.35272  0.020168137  0.020174157            3 
 1742000    0.9979975   -7.7402849    423.27206  0.020248376  0.020167062            3 
 1743000   0.97135573   -7.7595614    421.62793  0.020158153  0.020160004            4 
 1744000   0.98223381   -7.7383791    421.73894  0.020151899  0.020152932            6 
 1745000    0.9669679   -7.7614522     421.6103  0.020134207  0.020145794            3 
 1746000   0.97097832   -7.7426554    421.19362  0.020102788  0.020138606            5 
 1747000   0.99364356   -7.7408684    422.15771  0.020137269  0.020131451            2 
 1748000   0.96975778   -7.7937122    421.64147  0.020101138  0.020124314            9 
 1749000   0.96820596   -7.7719045     421.6039  0.020087855  0.020117174            4 
 1750000   0.96053063   -7.7458702    422.47522  0.020117867  0.020110048            4 
 1751000   0.96126083   -7.7561621    422.75903  0.020119885  0.020102942            6 
 1752000   0.97201327   -7.7777743    422.77261  0.020109047  0.020095753            6 
 1753000   0.97739538   -7.7909741    421.61052  0.020042333  0.020088626            2 
 1754000   0.96675984   -7.7370005    422.88057  0.020091247  0.020081537            3 
 1755000     0.955658   -7.7639997    422.24264  0.020049508   0.02007441            7 
 1756000   0.98578532    -7.778397    423.47968  0.020096796  0.020067302            3 
 1757000   0.97036235   -7.7763882    423.50528  0.020086572   0.02006023           15 
 1758000   0.97358172    -7.752947    423.40175  0.020070238  0.020053137            4 
 1759000   0.96847126   -7.7629655     423.2788  0.020053003  0.020046029            3 
 1760000   0.98846346   -7.7673396    422.96731  0.020026861  0.020038904            3 
 1761000   0.97384811   -7.7951158    422.07343  0.019973189  0.020031795           11 
 1762000   0.96939206   -7.7891139     422.9837  0.020004905  0.020024664            7 
 1763000   0.96392362   -7.8099934    423.06725  0.019997507  0.020017584            4 
 1764000   0.98774569   -7.8031615    422.54385  0.019961444   0.02001049            3 
 1765000   0.95614059   -7.8003227    423.95137   0.02001659  0.020003358            2 
 1766000   0.97740377   -7.7526377    424.76274  0.020043542  0.019996217            3 
 1767000   0.95307727   -7.7734839    424.40086  0.020015132  0.019989186            6 
 1768000   0.97378965   -7.7871006    423.56952  0.019964627  0.019982152            4 
 1769000   0.96434649     -7.77844    424.37087   0.01999109  0.019975085           16 
 1770000   0.97125812   -7.7954125    424.52783  0.019987186  0.019967986            8 
 1771000   0.94963729   -7.7822417    424.20467  0.019960694  0.019960922            5 
 1772000   0.96648813   -7.7592084    425.03472  0.019988465  0.019953815           10 
 1773000   0.98616081   -7.7663797    424.79862  0.019966094   0.01994676            4 
 1774000   0.95456303   -7.8019167    423.94946   0.01991495  0.019939665            5 
 1775000   0.95985527   -7.8112282    424.46313  0.019927847   0.01993253            2 
 1776000   0.95460493   -7.8088411    424.55717  0.019921039   0.01992539           14 
 1777000    0.9545409   -7.8046557    425.62243  0.019959784  0.019918236            8 
 1778000   0.95025587   -7.8101247    424.71161  0.019905869  0.019911144            2 
 1779000   0.95673729   -7.7937145    424.80077  0.019898856  0.019904026            5 
 1780000   0.95255226   -7.7661114    425.21114  0.019906888  0.019896948            5 
 1781000   0.97706799   -7.7917741    426.04566  0.019934759   0.01988989            3 
 1782000   0.94375482   -7.7973611    425.99048  0.019920992   0.01988278            4 
 1783000   0.99014508   -7.7864888    425.81366  0.019901555  0.019875737            5 
 1784000   0.94414185   -7.7867168    424.79806  0.019842959  0.019868664            5 
 1785000   0.98365878   -7.8076546    425.27829  0.019854262  0.019861614            8 
 1786000   0.99549627   -7.8045436    427.44486  0.019944236  0.019854584            4 
 1787000   0.98427254   -7.7785947     426.6488  0.019895952  0.019847624            5 
 1788000   0.95934841   -7.7626433    427.70182  0.019933903  0.019840647            3 
 1789000   0.95988079   -7.8013344    426.62261   0.01987249  0.019833643            6 
 1790000   0.94263898   -7.8051103    426.47423   0.01985448  0.019826692            3 
 1791000   0.97335766   -7.8015362    427.40699  0.019886794  0.019819774            2 
 1792000   0.95696635   -7.7511656    427.39233  0.019875016  0.019812895            5 
 1793000   0.96215637   -7.7641845    428.43894  0.019912574  0.019806025           19 
 1794000   0.94916816   -7.8100675    427.34754  0.019850778  0.019799138            5 
 1795000   0.97989024   -7.7671594    427.88909   0.01986486  0.019792242            3 
 1796000   0.96195123   -7.7960761    427.48969  0.019835268  0.019785344            4 
 1797000   0.95811263   -7.7977599    428.44289  0.019868433  0.019778531            4 
 1798000   0.95244331   -7.7511069    429.02331  0.019884284   0.01977167            3 
 1799000   0.96687684   -7.8371049    428.68707  0.019857656  0.019764709            4 
 1800000   0.98495013   -7.7610299    428.94638  0.019858629  0.019757845            2 
 1801000   0.96668088   -7.7754331    429.80753  0.019887448  0.019751138            7 
 1802000   0.95475558   -7.7740941    428.64451  0.019822628  0.019744344            5 
 1803000   0.97004753   -7.7913666    428.86892  0.019822006  0.019737526            2 
 1804000   0.96177998   -7.7861732     428.5571  0.019796614  0.019730664            4 
 1805000   0.96927948   -7.8069621    428.05414  0.019762426  0.019723799            3 
 1806000   0.93968471    -7.822022    429.55079  0.019820542  0.019716871           13 
 1807000   0.96784063   -7.8068297    429.06221  0.019787042  0.019709929            3 
 1808000   0.97713991   -7.7945655    429.09682  0.019777692  0.019703055            2 
 1809000   0.93187743   -7.7926528    429.05654  0.019764904  0.019696178            2 
 1810000   0.96964134   -7.7655288     429.7398  0.019785442  0.019689252           10 
 1811000   0.97349534   -7.8161015    428.98962  0.019739997  0.019682353            3 
 1812000   0.96064253   -7.8124217    427.86114  0.019677205  0.019675463            8 
 1813000   0.96533495   -7.7935747    429.47159  0.019740375   0.01966853            3 
 1814000   0.95012838   -7.7730047    429.28095  0.019720735   0.01966162            4 
 1815000   0.94349321   -7.7846406    429.69662  0.019728954  0.019654683            4 
 1816000   0.98893371   -7.8081294    429.04895   0.01968837  0.019647762            2 
 1817000   0.97687134   -7.8001615    429.01053  0.019675772  0.019640798            7 
 1818000   0.95522136   -7.8137091     428.5354   0.01964317  0.019633854            7 
 1819000   0.97120697   -7.8171722    430.18935  0.019708143  0.019626859            4 
 1820000   0.96422031   -7.8249953    428.09746  0.019601532  0.019619867            8 
 1821000    0.9444046   -7.8285458     428.2487  0.019597689  0.019612789            6 
 1822000   0.95222379   -7.8173373    428.67534  0.019606446  0.019605777            3 
 1823000   0.97095985   -7.8242973    428.51159  0.019588206  0.019598715           10 
 1824000   0.95295007   -7.8286698    429.05448   0.01960227  0.019591611            7 
 1825000     0.972377   -7.8272849    429.19146  0.019597783  0.019584497            6 
 1826000   0.96282438   -7.8433065    428.22014  0.019542723  0.019577393            7 
 1827000   0.96727833    -7.839715    430.85261  0.019652099  0.019570297            6 
 1828000   0.94271274   -7.8065641    429.82273  0.019594399  0.019563199            2 
 1829000   0.94993813   -7.8231136    430.12828  0.019597607  0.019556076            3 
 1830000   0.95812901   -7.8191917    430.48241  0.019603024  0.019549014            4 
 1831000   0.95984609   -7.8187525    429.26663  0.019536985  0.019541996           21 
 1832000    0.9426098   -7.8173175    431.18646  0.019613649  0.019535032           21 
 1833000   0.95320958   -7.8093131    429.89292  0.019544141  0.019528057           14 
 1834000   0.95604718   -7.8406233    430.05248  0.019540734  0.019521002            9 
 1835000   0.95110686   -7.8220324    429.49732  0.019504874  0.019513975            4 
 1836000    0.9793497   -7.8395656     429.7604  0.019506191  0.019506948           13 
 1837000   0.96545594   -7.8648838     429.9735   0.01950524  0.019499895            6 
 1838000    0.9481117   -7.7702248    431.87856  0.019581001  0.019492911            7 
 1839000   0.95146609   -7.8261122    431.06245  0.019533372  0.019485988            9 
 1840000    0.9351458   -7.8386808    430.56934  0.019500423  0.019479072            9 
 1841000   0.98052029   -7.8506963     430.6976  0.019495637  0.019472079            5 
 1842000   0.95184558   -7.8362009    431.39558   0.01951663  0.019465122            4 
 1843000   0.96118871   -7.8242911    432.30898   0.01954734  0.019458188            6 
 1844000   0.96366812   -7.8122282    431.06577  0.019480557   0.01945129            7 
 1845000   0.94653494    -7.787855    432.92831  0.019554124    0.0194445            9 
 1846000   0.94094821      -7.7918    431.69179  0.019487712  0.019437673            3 
 1847000   0.95976207   -7.8270733    432.03075  0.019492454  0.019430891            2 
 1848000   0.94120121   -7.8222219    432.93544  0.019522702  0.019424078            4 
 1849000   0.96012136    -7.835957    432.13081  0.019475879  0.019417199            4 
 1850000    0.9466457   -7.8297977    432.54894  0.019484187  0.019410346            7 
 1851000   0.95982529   -7.8466129     432.7592  0.019483126  0.019403509            6 
 1852000   0.95591446   -7.8366145    431.52361  0.019417009  0.019396533            9 
 1853000    0.9556773   -7.8509651    432.30431   0.01944164  0.019389552            3 
 1854000     0.961419   -7.8254542    434.30402  0.019521037  0.019382717            3 
 1855000   0.96304487   -7.8357184    432.60131  0.019434021  0.019375887            2 
 1856000   0.95823828   -7.7820765    434.53979  0.019510587   0.01936907            5 
 1857000   0.94153862   -7.8316838    434.09462  0.019480103  0.019362287           11 
 1858000   0.94988487   -7.8285452    433.10444  0.019425208  0.019355553            5 
 1859000   0.95977669    -7.801304    435.38535  0.019517005  0.019348838            2 
 1860000   0.96458761    -7.810709    434.31266  0.019458453  0.019342053           16 
 1861000   0.94309586   -7.8283197    434.89088  0.019473888  0.019335289            5 
 1862000   0.96375699   -7.8152662    434.56601  0.019448891  0.019328538            3 
 1863000   0.94775717   -7.8322855    434.67812  0.019443466  0.019321866            4 
 1864000    0.9424518    -7.848952     433.5531  0.019382739  0.019315125           11 
 1865000   0.95642481   -7.8130138    434.41696  0.019410946  0.019308428           13 
 1866000   0.93861349   -7.8161351     435.0373  0.019428247  0.019301728            6 
 1867000   0.94295745   -7.8782872    433.74753  0.019360272  0.019294982            3 
 1868000   0.96163901   -7.8707846    435.18447  0.019414011  0.019288251            7 
 1869000   0.93864001   -7.8630397    434.59988  0.019377558  0.019281513            5 
 1870000    0.9573518   -7.8607567    434.90223   0.01938067  0.019274794            2 
 1871000   0.95918478   -7.8801405    435.76051  0.019408538  0.019268096           15 
 1872000   0.96778527   -7.8764763    434.19136  0.019328319  0.019261399            6 
 1873000   0.96009414   -7.8352004    435.99609  0.019398296  0.019254799            3 
 1874000   0.94555662   -7.8001125    437.23011  0.019442819  0.019248165            4 
 1875000   0.96135168   -7.8959304    435.28032  0.019345792  0.019241456            2 
 1876000   0.97346112   -7.8376759    437.40441  0.019429833  0.019234754            3 
 1877000   0.95817895   -7.8044751    436.77395  0.019391491  0.019228139            6 
 1878000   0.93955125    -7.791083    436.57253  0.019372228  0.019221484           12 
 1879000    0.9418551   -7.8137897    436.00131  0.019336585  0.019214841            5 
 1880000   0.94897951   -7.8607003    435.67409  0.019311795  0.019208231            7 
 1881000   0.96462873   -7.8259209    436.93783  0.019357515  0.019201613            9 
 1882000   0.94328189   -7.8672853    436.82848  0.019342388  0.019195024            6 
 1883000   0.96745237    -7.860258    436.48307  0.019316829  0.019188381            4 
 1884000   0.93620696   -7.8534553    436.06024  0.019287873  0.019181742            5 
 1885000   0.95033836   -7.8612473    436.70418  0.019306109  0.019175072            6 
 1886000   0.97404827   -7.8326919    437.11025  0.019313815  0.019168417            6 
 1887000   0.94925856   -7.8709925    436.16637  0.019261896  0.019161731            4 
 1888000   0.93009478     -7.84951    436.85247  0.019281977  0.019155041            5 
 1889000   0.95203056    -7.859211    437.31087  0.019291992  0.019148351            3 
 1890000   0.93582164   -7.8282494    437.32068  0.019282217  0.019141732            7 
 1891000    0.9411723   -7.8663305    436.68717  0.019244102  0.019135097            6 
 1892000   0.95374351   -7.8400549    437.35846  0.019263498  0.019128471            3 
 1893000   0.94995907   -7.8592308     438.0179  0.019282352  0.019121857            2 
 1894000   0.93820882    -7.815847       438.87  0.019309662  0.019115261            4 
 1895000   0.95813073   -7.8683923     437.2432  0.019227933  0.019108726            7 
 1896000   0.95412273   -7.8399186    439.06037   0.01929766  0.019102232            7 
 1897000   0.96762417   -7.8586603    437.30274  0.019210277  0.019095621            5 
 1898000   0.93468929   -7.7892822    439.77616  0.019308753  0.019089073            5 
 1899000   0.95673629   -7.8054073    439.37747  0.019281089  0.019082524            2 
 1900000   0.95894033   -7.8088843    438.53722  0.019234088  0.019075995            3 
 1901000   0.97613865   -7.8556882    439.11977  0.019249508  0.019069397            2 
 1902000   0.94278982   -7.8428778    437.72536  0.019178293  0.019062767            4 
 1903000   0.95260986   -7.8401078    438.80559  0.019215519  0.019056162            9 
 1904000   0.97029504   -7.8518436    438.58281  0.019195676  0.019049616            3 
 1905000    0.9592254   -7.8201862    439.07683   0.01920721  0.019043053            9 
 1906000   0.95012739   -7.8576284    439.80804  0.019229103  0.019036488            4 
 1907000    0.9797805   -7.8281199    438.77767  0.019173994  0.019029948            8 
 1908000   0.95371144   -7.8357802    439.79564  0.019208405  0.019023409            3 
 1909000   0.96077573   -7.8270475    439.75977  0.019196777  0.019016829            4 
 1910000   0.96323534    -7.837328    438.64507  0.019138092  0.019010249            4 
 1911000   0.94521833   -7.8350667    440.48484  0.019208304   0.01900371            3 
 1912000   0.96179275   -7.8516943    439.38635  0.019150381   0.01899713            3 
 1913000   0.94928557   -7.8206569    439.30091  0.019136649  0.018990576            5 
 1914000   0.96442581   -7.8274569    439.78411  0.019147689   0.01898403            2 
 1915000   0.93413518   -7.8450603    440.14311  0.019153312  0.018977467            4 
 1916000   0.95507091   -7.8353217    440.75801   0.01917006  0.018970945            9 
 1917000   0.96032149   -7.8139975    440.77543  0.019160817  0.018964427            8 
 1918000   0.91247584   -7.8346553    440.85289  0.019154192   0.01895795            9 
 1919000   0.94178877   -7.8484809    441.11712  0.019155685  0.018951429            4 
 1920000   0.92516396   -7.8876665    440.12884  0.019102814  0.018944898            4 
 1921000   0.91012848   -7.8475493    442.29542  0.019186857  0.018938378            6 
 1922000   0.95048151   -7.8346662    441.91204  0.019160251  0.018931914            3 
 1923000   0.95358045   -7.8433743    441.36752  0.019126691   0.01892542            3 
 1924000   0.96099441   -7.8035406    442.10336  0.019148621  0.018918981            3 
 1925000   0.96376923   -7.8662311     442.2148  0.019143498  0.018912547            5 
 1926000   0.92786607   -7.8966099    441.24104  0.019091426  0.018906074            3 
 1927000   0.93467631   -7.8490232    441.46726  0.019091302  0.018899581            3 
 1928000   0.95135072   -7.8506173    441.84099  0.019097553  0.018893086            2 
 1929000    0.9334236   -7.8642602    441.31733  0.019065031  0.018886541            9 
 1930000    0.9461812   -7.8463919    442.08079  0.019088117  0.018880011            2 
 1931000   0.93236198   -7.8576706    441.85053  0.019068295  0.018873458           12 
 1932000   0.95407387   -7.8973542    442.26453  0.019076282  0.018866929            5 
 1933000   0.93728474   -7.8372262    442.71107  0.019085664  0.018860455           18 
 1934000   0.94979714   -7.8808816    440.84652  0.018995455  0.018853993            9 
 1935000   0.95504581   -7.8887565    442.08168  0.019038832  0.018847513            4 
 1936000    0.9421304   -7.8472254    441.94642  0.019023176  0.018841046            6 
 1937000   0.95116912   -7.8876318    441.18351  0.018980533  0.018834569            7 
 1938000   0.94312352   -7.8792361    442.67479  0.019034863  0.018828122           12 
 1939000    0.9274037   -7.8828613    442.02365  0.018997062  0.018821596            7 
 1940000   0.92073024   -7.8443571     442.7893  0.019020159  0.018815154            4 
 1941000   0.94669959   -7.8684674     442.4737   0.01899681  0.018808634            4 
 1942000   0.95219353     -7.84867    443.33142  0.019023834   0.01880213            3 
 1943000   0.93791662   -7.8755154    442.89354  0.018995263  0.018795601            5 
 1944000   0.92835437    -7.887097    442.01851  0.018947981  0.018789083            7 
 1945000   0.92613117   -7.8654294    443.04154  0.018982071  0.018782564           10 
 1946000   0.93124389   -7.8885089    442.80537  0.018962203  0.018776049            3 
 1947000   0.92281954    -7.854258    442.15833   0.01892477  0.018769556            5 
 1948000   0.92156975   -7.8572385    443.00397  0.018951231  0.018763091            2 
 1949000   0.92784625   -7.9015685    442.16161  0.018905491  0.018756653            5 
 1950000   0.93820075   -7.8643886    443.31196  0.018944956   0.01875017            6 
 1951000   0.91641011    -7.870099    441.44428  0.018855471  0.018743659            4 
 1952000   0.93592566   -7.8896577     443.4518  0.018931515  0.018737126            3 
 1953000   0.93507951    -7.841838    443.36297  0.018918031  0.018730611           18 
 1954000   0.93200067   -7.8774303    443.69661  0.018922578  0.018724169            5 
 1955000   0.92190826   -7.8724654     442.6084  0.018866513  0.018717701            5 
 1956000   0.93397239   -7.8904744    443.05889   0.01887606  0.018711248            8 
 1957000   0.93552587    -7.858493    445.07634  0.018952323    0.0187047            6 
 1958000   0.94624693   -7.8934293    443.10381  0.018858691  0.018698268            3 
 1959000   0.94100477   -7.8603518    444.22017  0.018896553  0.018691824            6 
 1960000   0.93710485   -7.8458972    446.00684  0.018962876  0.018685396            7 
 1961000   0.91642333   -7.8795565    445.10057  0.018914694  0.018678991            3 
 1962000   0.95850302   -7.8581868    444.79487  0.018892069   0.01867265            6 
 1963000   0.96291856   -7.8817755    445.63558  0.018918135  0.018666297           11 
 1964000    0.9314032   -7.8885872    444.68493  0.018868166   0.01865995            6 
 1965000   0.95143078   -7.8661471    445.71465  0.018902233  0.018653544            4 
 1966000   0.93184855   -7.9098722    445.08298  0.018865844   0.01864719            4 
 1967000   0.93492447   -7.8997515    445.37529  0.018868636  0.018640812            5 
 1968000   0.93906021   -7.8609056    445.75329  0.018875055  0.018634423            5 
 1969000   0.95156388   -7.8632937    445.20883  0.018842426  0.018628089            3 
 1970000   0.93827751   -7.8413824    445.71259  0.018854171  0.018621792            8 
 1971000   0.93262126   -7.8764428    445.89446  0.018852294   0.01861542            6 
 1972000    0.9312127   -7.8564083    445.62023  0.018831146   0.01860911            4 
 1973000   0.91794792   -7.8725273     446.2004  0.018846106  0.018602782            4 
 1974000   0.94779822    -7.880647    445.58963  0.018810775  0.018596459            9 
 1975000   0.95089984   -7.9215093     444.9973  0.018776258  0.018590144            2 
 1976000   0.93388172   -7.9039901    445.98239  0.018808299  0.018583798            5 
 1977000   0.93152199    -7.889659    446.26758  0.018810807  0.018577437            5 
 1978000   0.93135472   -7.8710603    447.50069  0.018853248  0.018571139            9 
 1979000   0.93446279   -7.8601087    446.59977  0.018805785  0.018564819            8 
 1980000   0.93181378   -7.8729206    446.47468  0.018791022  0.018558412            2 
 1981000   0.94015041   -7.8745431    445.07727  0.018722752  0.018551955            4 
 1982000    0.9260302   -7.9053977     445.6366  0.018736823  0.018545529            9 
 1983000   0.94113531   -7.8287378    447.07441  0.018787797   0.01853912            3 
 1984000   0.92958476   -7.8534652    446.38107  0.018749205  0.018532756            3 
 1985000   0.93574725   -7.8711948    446.49222  0.018744426  0.018526401            2 
 1986000   0.92745138   -7.8868502    445.98832  0.018713844  0.018519979           10 
 1987000   0.93740463   -7.8655903    446.28968  0.018717064  0.018513571            4 
 1988000   0.94162039   -7.9061705    446.81688  0.018729748  0.018507136            2 
 1989000   0.93307826   -7.8613131    447.05251  0.018730204  0.018500738            2 
 1990000   0.93325531   -7.8637428    448.42484  0.018778259  0.018494405            2 
 1991000   0.91171445   -7.8695202    447.41985  0.018726764  0.018488085            5 
 1992000    0.9015918   -7.8521306    447.70207   0.01872917  0.018481811            5 
 1993000   0.94317369   -7.8763592    447.99937  0.018732203  0.018475478            4 
 1994000   0.94221956   -7.8936895    447.28853  0.018693102   0.01846914            5 
 1995000   0.93938641    -7.876348    447.24241  0.018681805  0.018462849            5 
 1996000   0.93256935   -7.8692784    448.85913  0.018739944  0.018456507            5 
 1997000   0.93192483   -7.8778604    446.42963  0.018629179  0.018450177            4 
 1998000   0.92049214   -7.8994002    447.26717  0.018654787  0.018443809            4 
 1999000   0.94298824   -7.8997296     447.5926  0.018659021  0.018437432            3 
 2000000   0.94336097   -7.8765196    448.49079  0.018687116  0.018431086            5 
 2001000    0.9218586   -7.8618214     447.5509  0.018638635  0.018424745           16 
 2002000   0.94774371   -7.9065782    446.87552  0.018601212  0.018418389            5 
 2003000   0.96291761   -7.8297986    449.15169  0.018686624  0.018412059            5 
 2004000   0.91400443   -7.8912286    449.07345  0.018674046  0.018405781           13 
 2005000    0.9100693   -7.9031503    448.23904  0.018630051  0.018399463           10 
 2006000   0.94084991   -7.8880874    447.95992  0.018609169  0.018393153           10 
 2007000   0.93453095   -7.8996518    448.55873   0.01862476  0.018386877            4 
 2008000   0.91318842   -7.8517848    448.73014  0.018622599  0.018380615            5 
 2009000   0.92681369   -7.8584835    450.36212  0.018681024  0.018374337            4 
 2010000   0.93740549   -7.8403957    450.40772   0.01867362  0.018368106            2 
 2011000   0.93814811   -7.9308333    448.81954  0.018598522   0.01836182            4 
 2012000   0.92572036   -7.9231526    448.88207  0.018591868  0.018355509            8 
 2013000   0.94055809   -7.8793437    449.81199  0.018621129  0.018349192            9 
 2014000   0.94765432   -7.8429616    450.59139  0.018644132   0.01834294            5 
 2015000   0.90575785   -7.8760187    449.69908  0.018597977  0.018336681           11 
 2016000   0.94403944   -7.8935325    449.64422  0.018586484  0.018330442            5 
 2017000   0.92816628   -7.9320969    449.22868  0.018560101   0.01832417            5 
 2018000   0.92160015   -7.9184535    449.64172   0.01856796  0.018317927            5 
 2019000   0.95855691   -7.9061386    450.35126  0.018588049  0.018311655            4 
 2020000   0.93718564   -7.9230219    449.02939  0.018524315  0.018305408            4 
 2021000   0.93251548   -7.9209405     451.0717  0.018599361  0.018299124            8 
 2022000   0.93493109   -7.9051111    450.21802  0.018554979  0.018292945            6 
 2023000   0.92625696    -7.930437    449.53305  0.018517591  0.018286661            4 
 2024000   0.90388494   -7.9006687    450.31384   0.01854059  0.018280402            6 
 2025000   0.94272329   -7.9094414     449.4303  0.018495074  0.018274158            3 
 2026000   0.90836662   -7.9126443     450.1257  0.018514549  0.018267874            3 
 2027000   0.92295935   -7.9146013    450.09304  0.018504072  0.018261621            7 
 2028000   0.93475959   -7.8647648    451.15953  0.018538771  0.018255411            5 
 2029000   0.89564151   -7.9176077    451.00859  0.018523435  0.018249197            4 
 2030000   0.94405928   -7.8613431    452.57038  0.018578423  0.018243013           14 
 2031000   0.92729739   -7.9039529    451.39324  0.018520977  0.018236809            4 
 2032000   0.92698139   -7.9185007    450.93112   0.01849291  0.018230636            4 
 2033000    0.9227126   -7.9357454     451.1466  0.018492646  0.018224427           18 
 2034000   0.93481711   -7.9312194    451.13309  0.018483001  0.018218238           12 
 2035000   0.93206077   -7.9268455    451.37556  0.018483848  0.018211986            8 
 2036000   0.92142943    -7.896396    451.13949  0.018465107  0.018205736            4 
 2037000   0.91894202    -7.918395    451.71153  0.018479444  0.018199481            4 
 2038000   0.91741067   -7.9126846     451.7949  0.018473786   0.01819329            6 
 2039000   0.94116636    -7.949591    450.25957  0.018401977  0.018187079            9 
 2040000   0.93754448    -7.930548    450.71316  0.018411485  0.018180889           21 
 2041000   0.92721644   -7.9210859    452.13456    0.0184605  0.018174647            7 
 2042000    0.9285215   -7.9144653    451.45335   0.01842366  0.018168454           13 
 2043000    0.9290525   -7.9484309    450.27467  0.018366564  0.018162258           23 
 2044000   0.90651783   -7.9022187    452.74843  0.018458433  0.018156034            9 
 2045000   0.92571344   -7.8675698    453.08518  0.018463129  0.018149902           22 
 2046000   0.94248311   -7.9313982    452.29797  0.018422042  0.018143795            6 
 2047000   0.92265159   -7.9073526    452.99089  0.018441251  0.018137703            7 
 2048000   0.94567126    -7.885093    453.86505  0.018467816  0.018131583           14 
 2049000   0.91974323   -7.8940284    452.81001  0.018415894   0.01812541           12 
 2050000   0.92472343   -7.9265239    453.23798  0.018424308  0.018119197            7 
 2051000   0.93126146   -7.8973334    453.33726  0.018419359  0.018113024            8 
 2052000   0.90745767   -7.9579227    452.38268  0.018371616  0.018106836            5 
 2053000   0.92618271    -7.932787    453.00726   0.01838802  0.018100618           12 
 2054000   0.90434537   -7.9089715     453.2246  0.018387885  0.018094438            6 
 2055000   0.91002627    -7.946304    452.54748  0.018351479  0.018088279            9 
 2056000   0.92796367   -7.9364835    453.13293  0.018366283  0.018082114           15 
 2057000   0.93079674   -7.8949307    453.71055  0.018380755   0.01807594            6 
 2058000   0.90084669   -7.9154411     453.4474  0.018361168  0.018069846            7 
 2059000   0.93366776   -7.8778487    454.01295   0.01837514  0.018063726            4 
 2060000   0.91245279   -7.8970308    453.78732  0.018357092  0.018057611            8 
 2061000   0.90877072   -7.9100033    453.24712  0.018326343  0.018051474           11 
 2062000    0.9057002   -7.9055472    455.19632   0.01839623  0.018045314            4 
 2063000   0.92115402   -7.8961415    454.59698  0.018363103  0.018039156            5 
 2064000   0.90832594   -7.9652856    452.50716   0.01826983  0.018033012            3 
 2065000   0.94067476   -7.9228293    454.72888  0.018350641  0.018026865            4 
 2066000   0.91246274   -7.8923329     454.4533  0.018330643  0.018020787            6 
 2067000   0.93351968   -7.9307926    454.68077  0.018330945  0.018014659            5 
 2068000   0.94431171   -7.9301876    453.63381  0.018279892  0.018008591            2 
 2069000   0.91508083   -7.9248177    455.16536  0.018332743  0.018002524            2 
 2070000   0.92263482   -7.9125072    455.34071  0.018330946  0.017996468            4 
 2071000   0.92003396   -7.9179215    455.02105  0.018309233  0.017990392           22 
 2072000   0.90082944   -7.9078985    454.84169  0.018293183  0.017984296            7 
 2073000   0.94626123   -7.9165963    453.84957  0.018244475  0.017978193           16 
 2074000   0.92058997   -7.8915447    454.73416  0.018271221  0.017972102            5 
 2075000   0.91646563   -7.9552189    454.26991  0.018243772  0.017965976            7 
 2076000   0.90901714   -7.9283361    454.15667  0.018230438  0.017959839            8 
 2077000   0.92103296   -7.9490081    454.84664  0.018249344  0.017953692            7 
 2078000   0.94189811   -7.9198361     454.5323  0.018227955  0.017947558            1 
 2079000   0.91508855   -7.8998682    456.21482  0.018286629  0.017941411            5 
 2080000   0.91683262   -7.9010143    455.83876  0.018262771  0.017935278            9 
 2081000   0.93174284   -7.9041246    455.62183  0.018245308  0.017929195            6 
 2082000   0.93135045    -7.954235    455.14916  0.018217626  0.017923086           13 
 2083000   0.89885232   -7.9350499    454.86347   0.01819745  0.017916876            5 
 2084000   0.92934256   -7.9610121     455.4536  0.018212316  0.017910671            2 
 2085000   0.91242135   -7.9539015    455.48847  0.018204975  0.017904503            5 
 2086000   0.92375404   -7.9368804    456.05437  0.018218855  0.017898333            7 
 2087000   0.91594863   -7.9568551    455.38375  0.018183347  0.017892205            3 
 2088000   0.91178273   -7.9469669    454.87588  0.018154369  0.017886052            7 
 2089000   0.91764351   -7.9478495    455.88737  0.018186029  0.017879924           10 
 2090000   0.93892263   -7.9237091    456.77463  0.018212704  0.017873847            2 
 2091000   0.92650915   -7.9539934     456.4925  0.018192751  0.017867811            3 
 2092000    0.8957466   -7.9230463    456.99876  0.018204221  0.017861733            7 
 2093000   0.92380299   -7.9901553    456.45627  0.018173924   0.01785564            7 
 2094000   0.91623056   -7.9334826    456.55557  0.018169196  0.017849532           11 
 2095000   0.89887355   -7.9675384    456.19067  0.018146009  0.017843408            9 
 2096000   0.91468749   -7.9437931    455.98829  0.018129305   0.01783728           13 
 2097000   0.93152337   -7.9516555    455.71181  0.018109673  0.017831153           16 
 2098000   0.92261422   -7.9232764     457.7791  0.018183155  0.017825044           13 
 2099000   0.90820303   -7.9493076    457.03046   0.01814477  0.017818966            7 
 2100000   0.92291887   -7.9445815    456.99866  0.018134868  0.017812912            4 
 2101000   0.91226164   -7.9516515     456.3794  0.018101674  0.017806864            3 
 2102000   0.90680864    -7.961166    454.98835  0.018037914   0.01780076           10 
 2103000   0.91213963   -7.9427265     457.0118  0.018109518  0.017794656            6 
 2104000   0.90250513   -7.9146868    458.03225  0.018141328  0.017788614            8 
 2105000   0.90349655    -7.904252    458.27878  0.018142469  0.017782603           10 
 2106000   0.91628635   -7.9177507    457.28035  0.018094348  0.017776601           10 
 2107000   0.92240421   -7.9733193    456.80363  0.018066905   0.01777054            7 
 2108000   0.91443624   -7.9226285    457.62001  0.018090608  0.017764458            4 
 2109000    0.9106785   -7.9629985    456.41152  0.018034278  0.017758347            3 
 2110000   0.92775309   -7.9621104     456.7966   0.01804094  0.017752263           10 
 2111000   0.92488394   -7.9556862    457.53038   0.01806136  0.017746165            6 
 2112000   0.92195052   -7.9213779     457.8161  0.018064082  0.017740057            4 
 2113000   0.92395479   -7.9583839    456.91215  0.018019883  0.017733939            8 
 2114000    0.8901874   -7.9652933     456.5353  0.017996504  0.017727785            8 
 2115000   0.90820323   -7.9456387    457.84805  0.018039718   0.01772168            5 
 2116000   0.90160779   -7.9568385    458.02515  0.018038167  0.017715597            7 
 2117000   0.89989136   -7.9543381    457.30351  0.018001241   0.01770949            4 
 2118000    0.9152626   -7.9422385    458.94953  0.018057504  0.017703433           10 
 2119000   0.91596268    -7.975144     457.3063   0.01798436  0.017697391           13 
 2120000   0.90873341   -7.9720952    457.37179  0.017978451  0.017691313            2 
 2121000   0.90821394   -7.9083184    458.65739  0.018020485  0.017685261            5 
 2122000   0.89064335   -7.9046171    460.11011  0.018069043  0.017679275            3 
 2123000   0.93825771   -7.9468942    458.73006  0.018006361  0.017673258            8 
 2124000   0.87837701   -7.9179975    459.09034  0.018012019  0.017667283            3 
 2125000   0.90810157   -7.9254712    459.74337  0.018029152   0.01766127            3 
 2126000   0.92220242   -7.9329728    458.18428  0.017959559  0.017655232            9 
 2127000   0.89790479     -7.94774    458.29317  0.017955382  0.017649168            8 
 2128000   0.91891733   -7.9270229    459.69409  0.018001805  0.017643099            6 
 2129000    0.8942843   -7.9590993     457.8162  0.017919845  0.017637046            5 
 2130000   0.90037358   -7.9620369    458.08492  0.017921945  0.017630918            7 
 2131000   0.90601017   -7.9423169    458.48616  0.017929226  0.017624789           14 
 2132000   0.91266956   -7.9639508    458.54581  0.017923147  0.017618672            5 
 2133000   0.91126917    -7.913689    458.94265  0.017930249   0.01761255           14 
 2134000   0.92429716   -7.9590419    457.36594  0.017860276  0.017606406            7 
 2135000   0.89799265    -8.012173    457.85161  0.017870867  0.017600247            8 
 2136000   0.91374981    -7.951638    458.09089  0.017871836  0.017594078            4 
 2137000   0.90590043    -7.967996    457.90344  0.017856163  0.017587971            6 
 2138000   0.93182279   -7.9607564    458.17702  0.017858475   0.01758184            6 
 2139000   0.92753029    -7.965653     458.9339  0.017879613  0.017575714            3 
 2140000   0.90107291   -7.9267351     457.5906  0.017818949  0.017569564            8 
 2141000   0.91960011   -7.9458442    459.48598  0.017884399  0.017563407            5 
 2142000   0.91753073   -7.9752908    458.90969  0.017853629  0.017557293            4 
 2143000    0.9005916   -7.9398391    459.69431  0.017875809  0.017551181            4 
 2144000   0.91383342   -7.9496861    459.73156   0.01786892  0.017545073            5 
 2145000   0.89450233   -7.9904445    457.70317  0.017781786  0.017538903            9 
 2146000   0.90511249   -7.9908415    459.01131  0.017824297  0.017532758            8 
 2147000   0.92800586   -7.9437162    459.05427  0.017817663  0.017526614            4 
 2148000    0.9321222    -7.945929    459.69572  0.017834254  0.017520531            8 
 2149000   0.90388236   -7.9435115    460.26017  0.017847843  0.017514405            9 
 2150000   0.90527885   -7.9431585    459.87581  0.017824644  0.017508303            8 
 2151000   0.91727794   -7.9530562    459.48646  0.017801273  0.017502217           16 
 2152000   0.92891918   -7.9675588    460.05792   0.01781513  0.017496105            8 
 2153000    0.9171718     -8.00275     458.4501  0.017744624  0.017490006            3 
 2154000   0.90973095   -7.9872602    458.41477  0.017735019  0.017483894           10 
 2155000     0.908517   -8.0033864    458.91034  0.017745953  0.017477741            7 
 2156000   0.90204825   -8.0404515    457.34779  0.017677326  0.017471567            7 
 2157000   0.90207484   -7.9741827    459.52935  0.017753413  0.017465386            5 
 2158000   0.91525607   -7.9917341    459.90305  0.017759617  0.017459239            4 
 2159000   0.92813458   -7.9687368    460.12593  0.017759994  0.017453128           11 
 2160000   0.90434428   -8.0015051    458.62225   0.01769376  0.017446997            4 
 2161000   0.88902042   -7.9853636    460.10059   0.01774258  0.017440926            4 
 2162000   0.90689341   -7.9882989    461.44182  0.017786071  0.017434805            9 
 2163000   0.90027273    -7.976116    460.69818  0.017749198  0.017428717            5 
 2164000   0.90722463   -7.9595087    460.33738  0.017727102  0.017422606            3 
 2165000   0.89929749   -7.9664168    461.28028  0.017755207  0.017416538            4 
 2166000   0.91776267   -7.9795912    460.90786  0.017732682  0.017410485            8 
 2167000   0.90931826   -7.9999449     459.2552  0.017660945  0.017404371            4 
 2168000   0.88822504     -7.99599    460.08176   0.01768457  0.017398242           14 
 2169000   0.92925949    -8.008013    460.11841  0.017677824  0.017392103            7 
 2170000   0.89355862   -8.0052144    459.96496  0.017663785  0.017385982            4 
 2171000   0.91648531   -7.9975146    459.61457  0.017642199  0.017379862            5 
 2172000   0.89050291   -7.9716529    461.12889  0.017692177  0.017373766            9 
 2173000    0.9119329   -7.9644342    461.02699  0.017680127   0.01736765            8 
 2174000   0.93394708   -7.9565635    461.57071  0.017692836  0.017361575            6 
 2175000   0.90302769   -7.9794802    460.71188  0.017651796  0.017355511            6 
 2176000   0.90862635   -7.9936792    460.81379  0.017647587  0.017349398            8 
 2177000   0.91151306   -7.9885906    460.64699  0.017633095  0.017343236            6 
 2178000   0.88640425   -8.0023692     460.5156  0.017619972  0.017337087            7 
 2179000   0.91822448   -7.9859102    459.58209  0.017576185  0.017330927           19 
 2180000   0.91096269   -7.9957357    460.45062  0.017601324  0.017324786           16 
 2181000   0.91197084   -7.9792837    460.82653  0.017607616   0.01731865           17 
 2182000   0.91560433   -7.9705865    460.48475  0.017586494  0.017312507            9 
 2183000   0.91023242   -7.9844035    460.56214  0.017581392  0.017306361            9 
 2184000   0.90987463   -7.9968912    460.08945  0.017555306  0.017300222           18 
 2185000   0.89952176   -7.9878882    460.67263  0.017569513   0.01729407           12 
 2186000   0.89153908   -8.0168675    459.97063  0.017534715  0.017287875           17 
 2187000   0.89074131   -7.9987055    460.51607   0.01754748  0.017281738           10 
 2188000   0.90210946   -7.9759546    461.72556  0.017585526  0.017275653            8 
 2189000   0.86702658   -7.9418016    463.35585  0.017639556  0.017269623           10 
 2190000   0.88640561   -7.9602768    462.19752  0.017587425  0.017263655            6 
 2191000   0.92154754   -7.9424823    462.25058  0.017581416  0.017257639            4 
 2192000   0.92045041   -7.9767141    461.72378  0.017553368  0.017251623            5 
 2193000   0.88070044   -7.9804793    461.82631   0.01754926  0.017245585           11 
 2194000   0.90921804   -7.9801375    463.01139  0.017586273  0.017239598           11 
 2195000   0.87966396   -7.9753347    462.05216  0.017541844  0.017233604            6 
 2196000   0.88485554   -7.9652392    461.90615  0.017528315  0.017227612            4 
 2197000   0.88982907   -7.9687124    462.90372  0.017558175   0.01722156            5 
 2198000   0.89032283   -7.9834388    462.10391  0.017519863  0.017215524            5 
 2199000    0.9086849   -7.9848588    461.59378  0.017492564  0.017209459           12 
 2200000    0.8792651    -7.961604    463.06493  0.017540338   0.01720339            3 
 2201000   0.90903544   -7.9967139    462.15725  0.017498003  0.017197331            5 
 2202000   0.88609598    -8.037047    460.37979  0.017422789  0.017191208            8 
 2203000   0.91531986   -7.9957362     462.2976  0.017487426  0.017185102            5 
 2204000   0.89856896    -7.995702    462.78256  0.017497828  0.017179003           16 
 2205000   0.90318322   -7.9977115    461.54263  0.017443032  0.017172849           11 
 2206000   0.90186552    -7.990707    462.63625  0.017476437  0.017166776            4 
 2207000    0.8882324   -7.9972856    461.89729  0.017440616   0.01716065           10 
 2208000   0.91229197   -7.9904282    462.76254  0.017465374  0.017154604            3 
 2209000   0.88481682   -8.0126583    462.16395  0.017434886  0.017148558            3 
 2210000   0.90377899   -7.9742321    463.07687  0.017461421  0.017142479            3 
 2211000   0.90127591   -8.0035427    462.00826  0.017413247  0.017136414           20 
 2212000   0.89311411   -8.0280238    462.31641  0.017416984  0.017130336            8 
 2213000   0.90106025   -7.9849174      460.945  0.017357471  0.017124241            7 
 2214000   0.89975963   -8.0101166    462.36108  0.017402931  0.017118166            8 
 2215000   0.87761741    -8.020834    462.15794  0.017387432  0.017112046           14 
 2216000   0.89130826    -8.015751    462.43878  0.017390146  0.017105929            9 
 2217000   0.91003689   -8.0048907    462.56309  0.017386975  0.017099809           25 
 2218000   0.89419163   -8.0200424    463.31298  0.017407311   0.01709372            8 
 2219000   0.88665237   -8.0035393    463.87297  0.017420496   0.01708766           12 
 2220000   0.91734226    -7.989754    463.03063   0.01738103  0.017081609            9 
 2221000   0.91084398   -8.0133133    463.45157  0.017388998  0.017075548            6 
 2222000   0.90512297   -7.9824536    463.99779  0.017401657  0.017069512            5 
 2223000   0.91245608   -7.9987761    462.27067  0.017329085   0.01706349            6 
 2224000   0.88408983   -7.9880982     463.5938  0.017370871  0.017057409            6 
 2225000   0.91291283   -7.9592867    463.59714  0.017363189  0.017051361            3 
 2226000   0.87536315   -7.9893477    463.32218  0.017345095  0.017045357           15 
 2227000   0.89199529   -8.0241666    463.00059  0.017325273  0.017039319            6 
 2228000   0.89309401   -7.9986404    463.99673  0.017354755  0.017033262            4 
 2229000   0.88811739   -7.9714369    463.56109  0.017330682  0.017027232            6 
 2230000   0.89201385   -7.9788923    463.14951   0.01730753  0.017021228            6 
 2231000   0.88431726   -8.0214016    464.08132  0.017334578  0.017015247            4 
 2232000   0.89785301   -7.9912017    463.91861  0.017320737  0.017009227           11 
 2233000   0.91642855    -7.998229    465.18144  0.017360108  0.017003214            8 
 2234000   0.90193584   -8.0006441    464.92303  0.017342698  0.016997195            3 
 2235000   0.87771308   -7.9749884    464.80358  0.017330484  0.016991242            5 
 2236000   0.90700926   -8.0218491    464.85838  0.017324776  0.016985245            8 
 2237000   0.88188722   -8.0348471    464.10107   0.01728882   0.01697919            4 
 2238000   0.88738372   -8.0583337    463.85997  0.017272117  0.016973134            4 
 2239000   0.89187587   -8.0112009    465.82284  0.017337459  0.016967118            9 
 2240000   0.89299226   -8.0177015    465.51525  0.017318276  0.016961124            8 
 2241000   0.88328341   -7.9986723    464.74428  0.017281879  0.016955143            5 
 2242000   0.87421212   -8.0141779    464.30421  0.017257813  0.016949183            6 
 2243000   0.90245736   -7.9794479    465.51976   0.01729528  0.016943257            7 
 2244000   0.89472656   -8.0197091    466.54535  0.017325659  0.016937309           12 
 2245000   0.89937477   -8.0409439    464.33545  0.017235911  0.016931368           11 
 2246000   0.87907877   -8.0093966    466.58571  0.017311729  0.016925433            4 
 2247000   0.89152794   -8.0355132    464.54496   0.01722834  0.016919485           10 
 2248000   0.89559345   -8.0400186    464.68738  0.017225956  0.016913504            8 
 2249000   0.90057615   -8.0233382     465.3375  0.017242386  0.016907592           12 
 2250000    0.8987501   -8.0341599    465.72568  0.017249099  0.016901651           10 
 2251000   0.86824519   -8.0120124    465.38927  0.017228982   0.01689574            8 
 2252000   0.86912643   -7.9939279    466.38962  0.017258349  0.016889872            4 
 2253000   0.89071413   -7.9947622    467.26458  0.017283051  0.016883994           10 
 2254000   0.89772631   -8.0471875    465.72345  0.017218406  0.016878073           14 
 2255000   0.89181938   -8.0301704    465.94033  0.017218785  0.016872137            5 
 2256000   0.89059816   -8.0036068     466.6156  0.017236096  0.016866201            9 
 2257000   0.88243521   -8.0198818    465.42781  0.017184604  0.016860254            8 
 2258000   0.91593354   -8.0291709      465.491  0.017179325  0.016854342            6 
 2259000   0.88249397    -7.977926    467.00591  0.017227605  0.016848451            7 
 2260000   0.92466676   -8.0457334    464.90574  0.017142542  0.016842529            7 
 2261000   0.88510618   -7.9879026    466.41493  0.017190584  0.016836551            8 
 2262000   0.88464563   -8.0367051    464.68309  0.017119182  0.016830543           20 
 2263000   0.89963981   -8.0370907    465.69808  0.017148994  0.016824538            6 
 2264000    0.8900199   -8.0277244    464.37471  0.017092709  0.016818523           14 
 2265000    0.8904294   -8.0072995    465.64312  0.017131829  0.016812524            6 
 2266000   0.88475558   -8.0235057    466.47627  0.017154909  0.016806542           12 
 2267000   0.89840273   -8.0264029    465.27014  0.017103005  0.016800505           16 
 2268000   0.90303994   -7.9934115    465.93685  0.017119961  0.016794518           14 
 2269000   0.87244764   -7.9938438    467.19019  0.017158447   0.01678856            9 
 2270000   0.89175341   -8.0321374    465.79933  0.017099829  0.016782613           14 
 2271000    0.8892279     -7.99621    465.97875  0.017098882  0.016776647           11 
 2272000   0.85689714   -8.0098704    466.89253  0.017124873  0.016770708           13 
 2273000   0.92200846   -8.0217346    466.62726  0.017107613    0.0167648           14 
 2274000   0.86935904    -7.973166    466.97588  0.017112866  0.016758906            3 
 2275000   0.90196038   -8.0344527    466.02314  0.017070445  0.016752996           12 
 2276000   0.88478237   -8.0566227    466.99349  0.017098473  0.016747012            4 
 2277000   0.91684414   -8.0548265    465.49418  0.017036092  0.016741051            8 
 2278000   0.88955447   -8.0019592    467.15579  0.017089398  0.016735092            8 
 2279000   0.89398221   -8.0509043    466.44329  0.017055846  0.016729132           11 
 2280000   0.89106444   -8.0215676    466.62709  0.017055084   0.01672318            4 
 2281000   0.87839435   -8.0004325     467.0618  0.017063488  0.016717237            7 
 2282000   0.87835214   -8.0212891    467.18805  0.017060621  0.016711255            6 
 2283000   0.88545465   -8.0081329    467.90731  0.017079403    0.0167053           10 
 2284000   0.89634778    -8.064675    466.52021  0.017021315  0.016699382            8 
 2285000   0.89061787   -8.0187774    467.09508  0.017034832  0.016693427            4 
 2286000   0.88395033   -8.0569231    466.58762  0.017008881  0.016687477            9 
 2287000   0.87381248   -8.0101557    466.88409  0.017012246  0.016681516            5 
 2288000   0.87415174    -8.043774    466.86856  0.017004245  0.016675533            8 
 2289000   0.89973027   -8.0095349    467.18539  0.017008351  0.016669569            5 
 2290000   0.88562185   -8.0745192    466.66164  0.016981864   0.01666361            8 
 2291000   0.86965185   -8.0559967     466.6299  0.016973298  0.016657594            4 
 2292000   0.90033956   -8.0375443    466.69532  0.016968271   0.01665159            4 
 2293000   0.90244833   -8.0470753    467.34055   0.01698432  0.016645569           11 
 2294000   0.89131972   -8.0531927    465.82634   0.01692191  0.016639528           16 
 2295000    0.8604381   -8.0551056    466.17087  0.016927047  0.016633488           23 
 2296000   0.89615344   -8.0495025    467.20704  0.016957282  0.016627485            6 
 2297000   0.90971047   -8.0284194    466.99401  0.016942171  0.016621482            9 
 2298000   0.88420948   -8.0337389    466.85861  0.016929889  0.016615512            4 
 2299000   0.90596636   -8.0715292    467.04738  0.016929367  0.016609525            7 
 2300000   0.89135542   -8.0301061    467.40622  0.016935008  0.016603562            5 
 2301000   0.90866476   -8.0361535    467.71228  0.016938733  0.016597612            7 
 2302000   0.87312095   -8.0522094    466.97686  0.016904752  0.016591603            8 
 2303000   0.88350274   -8.0401023    466.97632  0.016897392   0.01658563            5 
 2304000   0.88816608   -8.0639277    466.66748  0.016878888  0.016579645           10 
 2305000   0.88025551   -8.0442682    466.87769  0.016879164  0.016573698            5 
 2306000   0.88681678   -8.0259238    467.17186  0.016882475  0.016567718            8 
 2307000    0.8675532   -8.0144357    468.11641  0.016909276  0.016561734            7 
 2308000   0.89962349   -8.0199393    468.54784  0.016917528  0.016555828            8 
 2309000    0.8890038   -8.0507377    468.63545  0.016913362  0.016549933            8 
 2310000   0.88655293   -8.0195519    468.39046  0.016897203  0.016544071            2 
 2311000   0.89159136   -8.0428791    467.77533   0.01686771  0.016538151            6 
 2312000   0.89283102   -8.0270017    467.89956  0.016864892   0.01653223            3 
 2313000   0.87074319   -8.0464725    467.86482  0.016856349  0.016526305            9 
 2314000   0.87632584   -8.0289206    466.77891  0.016809958  0.016520337            3 
 2315000   0.87643913   -8.0547981    468.20313  0.016853964    0.0165144            4 
 2316000   0.89332348    -8.023937    469.45523   0.01689174  0.016508512           10 
 2317000   0.89115732   -8.0517728    468.11549  0.016836264  0.016502598            9 
 2318000   0.87341639   -8.0769991     467.9374  0.016822599  0.016496631            5 
 2319000   0.89069763   -8.0499079    467.92504    0.0168149  0.016490664            3 
 2320000   0.86012523   -8.0561004     468.4151  0.016825255  0.016484699            4 
 2321000   0.88092191   -8.0260309    469.69573  0.016863986   0.01647876           10 
 2322000   0.89902809   -8.0359327    470.19443  0.016874621  0.016472897            5 
 2323000   0.86994439   -8.0172153    469.51994  0.016843161  0.016467025            9 
 2324000    0.8776439   -8.0313347    469.76895  0.016844842  0.016461116            8 
 2325000   0.89401509   -8.0417106    468.68117  0.016798608  0.016455199            6 
 2326000   0.85731752   -8.0206419    469.88433  0.016834492   0.01644931            5 
 2327000   0.89693106   -8.0643934    468.96778  0.016794434  0.016443423            8 
 2328000   0.87804052   -8.0774628    469.20523   0.01679572  0.016437495            6 
 2329000   0.86376272   -8.0625735    468.23853  0.016753919  0.016431583            4 
 2330000   0.87287246   -8.0642422    469.33127  0.016785811  0.016425737            4 
 2331000   0.87143602   -8.0282548    469.51372  0.016785132  0.016419883           10 
 2332000   0.86835989   -8.0447007    468.11763  0.016728046  0.016414045            6 
 2333000   0.87298804   -8.0279063    470.00666   0.01678835  0.016408167            7 
 2334000   0.87063414   -8.0420359    470.15095  0.016786309  0.016402321            5 
 2335000   0.88692343   -8.0568774    469.34283  0.016750279  0.016396433           12 
 2336000   0.88894806   -8.0691075    468.51462  0.016713564  0.016390552            7 
 2337000   0.88120843   -8.0428417    470.46601  0.016775995  0.016384697            7 
 2338000   0.86790752   -8.0489209    470.72598  0.016778086  0.016378809           11 
 2339000   0.88612162   -8.0549522    468.76528  0.016701058   0.01637293           16 
 2340000   0.87630825   -8.0458906     470.5906  0.016758924  0.016367101            9 
 2341000    0.8676513   -8.0695618    469.67237  0.016719079   0.01636126           16 
 2342000    0.8737794   -8.1042082    467.87257    0.0166479  0.016355373           10 
 2343000   0.88945722   -8.0755088    470.21858  0.016724235  0.016349457            4 
 2344000   0.87622391    -8.064888    468.43417  0.016653661   0.01634359            5 
 2345000   0.86661376   -8.0775567    469.80674  0.016695336  0.016337653            7 
 2346000   0.86449104   -8.0812011    470.23421  0.016703403  0.016331768            6 
 2347000   0.86214418   -8.0727856    470.95057  0.016721722  0.016325868            9 
 2348000   0.85779463   -8.0648374    470.28943  0.016691135  0.016319973            5 
 2349000   0.87278439   -8.0911368    469.34277  0.016650446  0.016314061           11 
 2350000   0.84476801    -8.048612    470.99001  0.016701773  0.016308205           13 
 2351000   0.88100217   -8.0699111     468.4414  0.016604332  0.016302325           20 
 2352000    0.8786676   -8.0496154    470.24083  0.016661027  0.016296437           27 
 2353000   0.87795724   -8.0467629    469.74463  0.016636373  0.016290578            6 
 2354000   0.87878023   -8.0654685    469.95988  0.016636926  0.016284708           15 
 2355000   0.88956784   -8.1209284     469.4524  0.016611904    0.0162788           15 
 2356000   0.88106015   -8.1251248    470.10808  0.016628045  0.016272892           25 
 2357000   0.86154753   -8.1044525    469.98091  0.016616494  0.016266971           34 
 2358000   0.88402456   -8.1027146    470.38592   0.01662376  0.016261059           11 
 2359000   0.89616777   -8.0398175    471.49348  0.016655838  0.016255183            8 
 2360000   0.87550554   -8.0317023    472.05751  0.016668698  0.016249356            6 
 2361000    0.8645185   -8.0927134    470.40232  0.016603216  0.016243491            6 
 2362000    0.8826639   -8.0886071    471.18243   0.01662371   0.01623766           13 
 2363000   0.87678104   -8.0583271    470.95029  0.016608488  0.016231798           10 
 2364000    0.8766308   -8.1311983    469.29374  0.016543068  0.016225906            7 
 2365000   0.85106823   -8.0769659    469.50371  0.016543471  0.016219987            6 
 2366000   0.87875642   -8.0730648    471.03323   0.01659035  0.016214104           42 
 2367000   0.87447058   -8.0827194    470.27045  0.016556487  0.016208245            9 
 2368000   0.88105953   -8.0637475    470.85823   0.01657018  0.016202388           21 
 2369000   0.86119088   -8.0777507    470.45512  0.016549005  0.016196511           18 
 2370000   0.88178448   -8.0967665    471.73063  0.016586872  0.016190657           15 
 2371000   0.86210013   -8.0769817    471.65311  0.016577151  0.016184812            9 
 2372000   0.86071814   -8.0450089    471.62492  0.016569172  0.016178992           10 
 2373000   0.85676209   -8.0960754    470.69831   0.01652965  0.016173153           12 
 2374000   0.86237323   -8.0579531    470.57223  0.016518261  0.016167286            8 
 2375000   0.86282823   -8.0630343    469.98043  0.016490542  0.016161415           16 
 2376000   0.87537612   -8.0994752     470.0545  0.016486199  0.016155517            9 
 2377000   0.87238894   -8.0552121     469.9564  0.016475824  0.016149604            7 
 2378000   0.86460256   -8.0989263    471.73048  0.016531065  0.016143731           16 
 2379000   0.89750792   -8.0944666    470.51485  0.016481535  0.016137838           16 
 2380000   0.87144868   -8.1045667    471.35019  0.016503858  0.016131957           11 
 2381000   0.86546559   -8.0797976    471.11591  0.016488727  0.016126044           15 
 2382000   0.88501333   -8.0720949    471.47663  0.016494424  0.016120178            5 
 2383000   0.87785639   -8.1352529    469.57829  0.016421118  0.016114279            9 
 2384000   0.86024585   -8.0955891    471.27869  0.016473668  0.016108323            9 
 2385000   0.88422362   -8.1100886    470.65463  0.016444956   0.01610241           25 
 2386000   0.86548973   -8.0947536    470.87372  0.016445715  0.016096483           22 
 2387000   0.85210953   -8.0679407    470.93429   0.01644094  0.016090592           25 
 2388000   0.86374043   -8.0625235     471.8838   0.01646719  0.016084686           18 
 2389000   0.86561572   -8.1053407    469.70132  0.016384168  0.016078814           34 
 2390000   0.86915219    -8.073391    472.33694   0.01646921  0.016072945           22 
 2391000   0.87651253   -8.0701585    471.28682  0.016425722  0.016067066           28 
 2392000   0.86566677   -8.0714763    470.38075  0.016387289  0.016061207           20 
 2393000    0.8641911   -8.1027714    470.51964  0.016385278  0.016055326           20 
 2394000   0.85699896   -8.0978221    470.89048  0.016391342  0.016049439           19 
 2395000   0.87199527   -8.0897433    470.79016  0.016381008  0.016043505           15 
 2396000   0.87328235   -8.1101932    471.11631  0.016385514    0.0160376            7 
 2397000   0.86255002   -8.0945046    470.23856  0.016348163  0.016031655           18 
 2398000   0.86509965   -8.0767019    471.08325  0.016370699  0.016025744           18 
 2399000   0.86445771   -8.0995086    471.70112  0.016385338  0.016019869            8 
 2400000   0.87918732   -8.0788231    470.75292  0.016345587  0.016013997           14 
 2401000   0.86700836   -8.0966311    471.29904  0.016357734  0.016008104           19 
 2402000   0.86965456   -8.0838912    471.13038  0.016345073  0.016002193           15 
 2403000   0.86526272   -8.1060037    471.14567  0.016338801  0.015996341           11 
 2404000   0.88175722   -8.1283241     471.4231  0.016341622  0.015990465           33 
 2405000   0.85508316   -8.1225629    470.87671  0.016315894  0.015984554           14 
 2406000   0.88797064   -8.1004155    469.60112  0.016264932  0.015978644            9 
 2407000   0.85500659   -8.0800774    472.74187  0.016366911  0.015972789            4 
 2408000   0.86788115   -8.1156468    472.05443  0.016336324  0.015966904           17 
 2409000   0.86412098   -8.0966419    470.74264  0.016284165  0.015961021            8 
 2410000   0.85344666   -8.1234487    471.52066   0.01630431  0.015955139            7 
 2411000   0.85235294    -8.092275     471.6071  0.016300536  0.015949293           11 
 2412000   0.88280397    -8.078706     472.7745  0.016334111  0.015943504           31 
 2413000   0.87373772   -8.1160685    472.78998  0.016327876  0.015937652            8 
 2414000   0.86466328   -8.1129211     472.0324   0.01629496  0.015931827           11 
 2415000    0.8662759   -8.1186815    470.23786  0.016226289   0.01592598            8 
 2416000   0.86586361   -8.1111262    471.27358  0.016255297  0.015920129           11 
 2417000    0.8803612   -8.0883565    471.81554  0.016267258  0.015914272            9 
 2418000    0.8828033   -8.1077843    472.02637  0.016267796  0.015908413           19 
 2419000   0.86436536   -8.0946781    473.79902  0.016322138  0.015902582           28 
 2420000   0.87305613   -8.1323216    471.61591  0.016240217  0.015896748           11 
 2421000   0.86804264   -8.0857058    473.29735  0.016291386  0.015890934           11 
 2422000   0.86422399   -8.0821218    472.40944   0.01625411  0.015885149            3 
 2423000    0.8675092   -8.1268839    472.35071  0.016245381   0.01587934           13 
 2424000   0.86033156   -8.1451191    471.72436  0.016217146    0.0158735            4 
 2425000   0.84822665   -8.1248921    472.22372  0.016227619  0.015867667           21 
 2426000   0.86445227   -8.1071502    472.31177  0.016223955  0.015861819           24 
 2427000   0.87188186   -8.0936586    472.66526  0.016229407  0.015855995            5 
 2428000    0.8752344   -8.1460434    471.79843  0.016192972  0.015850168           23 
 2429000   0.85953643   -8.1232516    473.44216  0.016242698  0.015844351           22 
 2430000   0.84319307   -8.0861866    472.61704  0.016207717  0.015838567           23 
 2431000   0.88125195     -8.03863    474.16983  0.016254279  0.015832798           18 
 2432000   0.85404969   -8.0763008    472.66707  0.016196103  0.015827035           15 
 2433000   0.85383915   -8.1078769    472.79477   0.01619382  0.015821263           34 
 2434000   0.83719321   -8.0983931    473.25783  0.016203021  0.015815453           31 
 2435000   0.85989735    -8.112717    473.08401  0.016190418   0.01580965           35 
 2436000   0.86323633   -8.1277439    473.18321  0.016187165  0.015803831           23 
 2437000   0.87318526   -8.0982251    473.69327  0.016197964  0.015798057           35 
 2438000   0.85597605   -8.0965603    473.64479  0.016189663   0.01579227           30 
 2439000   0.84920376   -8.1279351    473.30623  0.016171458  0.015786462           13 
 2440000   0.85965788   -8.1343876    473.23642  0.016162446  0.015780676           55 
 2441000   0.86991528   -8.1068706    473.78261  0.016174471  0.015774872           54 
 2442000   0.85790883   -8.1134602    474.08444  0.016178148   0.01576911           57 
 2443000   0.87153345   -8.1397517    473.66798   0.01615732  0.015763358          101 
 2444000   0.86292286   -8.1465987    473.48094  0.016144331  0.015757574           95 
 2445000   0.87625337   -8.1393803    472.04471  0.016088777  0.015751788          110 
 2446000   0.86743977   -8.1445167    473.54499  0.016133313  0.015745999          149 
 2447000   0.86163543   -8.1515811    473.10402  0.016111702  0.015740212          129 
 2448000   0.85479214   -8.1276314    473.91969  0.016132887  0.015734447          146 
 2449000   0.85954429   -8.1228711    474.04177  0.016130454  0.015728665          134 
 2450000   0.85063076   -8.1660424    474.10612  0.016126058  0.015722897          160 
 2451000   0.85517931   -8.1536469    472.81116  0.016075451  0.015717111          177 
 2452000   0.84588573   -8.1770842    472.99014  0.016074977  0.015711316          237 
 2453000   0.85175941   -8.1742064     473.5912  0.016088844  0.015705507          195 
 2454000    0.8630029   -8.1503408     474.9163  0.016127286  0.015699703          227 
 2455000   0.87697378   -8.1574524    472.82613  0.016049767  0.015693885          276 
 2456000   0.83554103   -8.1756448    473.65482   0.01607135  0.015688056          271 
 2457000   0.89289379   -8.2162043     471.1865  0.015981091   0.01568217          285 
 2458000   0.86359206   -8.2036151    473.06721  0.016038351  0.015676327          305 
 2459000   0.86399863   -8.1794092    472.90551  0.016026349    0.0156705          322 
 2460000   0.86147658   -8.2169273    472.87306  0.016018735  0.015664674          365 
 2461000   0.87004171   -8.2053226    473.39289  0.016029828  0.015658839          397 
 2462000   0.84927385   -8.1829996    472.20085   0.01598297     0.015653          391 
 2463000   0.86495169    -8.222178    473.19716  0.016010189   0.01564712          424 
 2464000   0.85451034   -8.2356511    471.51235  0.015946711  0.015641195          443 
 2465000   0.84749075   -8.2140697    472.54771  0.015975244  0.015635274          414 
 2466000   0.87761966   -8.1991391    472.09131  0.015953343  0.015629397          462 
 2467000   0.84984983   -8.2141265    472.29984   0.01595392  0.015623535          477 
 2468000   0.83064638   -8.1895923    474.26407  0.016013779  0.015617654          491 
 2469000   0.84238718   -8.2390678    472.09358  0.015934035  0.015611788          514 
 2470000   0.87577458   -8.2113131    472.86347  0.015953558  0.015605913          518 
 2471000   0.85583337   -8.2462586    471.70609   0.01590807  0.015599999          570 
 2472000   0.84782151   -8.2375716    471.59224  0.015897797  0.015594068          579 
 2473000   0.85053466   -8.2259085    472.04104  0.015906491  0.015588125          565 
 2474000   0.85807416   -8.2206273    473.62979  0.015953577  0.015582179          574 
 2475000   0.87940053   -8.2298255    472.38445    0.0159052  0.015576268          617 
 2476000   0.84770984    -8.230377     472.3343  0.015897089  0.015570354          654 
 2477000   0.85571644   -8.2457095    472.66364  0.015901751  0.015564476          661 
 2478000     0.850173   -8.2589921     473.1705  0.015912379  0.015558547          715 
 2479000   0.83303768   -8.2381391    471.93714    0.0158645  0.015552607          671 
 2480000   0.87102115   -8.2906923    472.08437   0.01586305  0.015546656          734 
 2481000    0.8537013   -8.2934186    471.15116  0.015825311  0.015540725          709 
 2482000   0.85111263   -8.2638131    472.01685  0.015848001  0.015534774          751 
 2483000   0.86336465   -8.2895385    471.10711  0.015811086  0.015528782          808 
 2484000   0.85916247   -8.3071875    471.67728  0.015823849  0.015522787          858 
 2485000   0.85019768   -8.3389654    471.07678  0.015797343   0.01551677          891 
 2486000   0.84553716   -8.3297634    471.22636  0.015796003  0.015510757          997 
 2487000    0.8503446   -8.3164612    470.40011  0.015761966  0.015504732          962 
 2488000    0.8627516   -8.3254386    470.97899   0.01577502   0.01549868          959 
 2489000   0.85675288   -8.3724821    470.38994   0.01574896  0.015492625         1091 
 2490000   0.86946194   -8.3525755    469.89941  0.015726218  0.015486515         1107 
 2491000   0.82860596   -8.3606985    470.17835  0.015729237  0.015480443         1097 
 2492000   0.83773107   -8.4013295    468.94887  0.015681811  0.015474337         1190 
 2493000   0.86112105   -8.4087744    469.72409  0.015701434  0.015468176         1230 
 2494000   0.86326476    -8.398732    469.54105  0.015689022  0.015462024         1272 
 2495000    0.8480312   -8.4212765    468.08298  0.015634034  0.015455832         1371 
 2496000   0.86495417   -8.4190312    469.33835  0.015669683  0.015449659         1392 
 2497000   0.85107146   -8.4475876    468.50022  0.015635436  0.015443458         1417 
 2498000   0.85240305   -8.4469067    467.52057  0.015596496  0.015437249         1493 
 2499000   0.84608258    -8.440589     469.1425  0.015644341  0.015431003         1481 
 2500000   0.84959104   -8.4986308    468.10603  0.015603534  0.015424725         1589 
 2501000   0.84639053   -8.5026656     467.8582  0.015589038  0.015418415         1612 
 2502000   0.84285707   -8.4775882    468.66979  0.015609839  0.015412121         1587 
 2503000    0.8563676   -8.4893961    467.71844  0.015571928  0.015405792         1625 
 2504000    0.8323832   -8.4903511    468.30855  0.015585348  0.015399485         1744 
 2505000   0.85492858   -8.5084502    468.34856  0.015580458  0.015393184         1667 
 2506000   0.85357125   -8.5293587    467.52875  0.015546979  0.015386846         1693 
 2507000   0.85506637   -8.5079145    466.67478  0.015512391  0.015380512         1684 
 2508000   0.82950787   -8.5279491    466.86252  0.015512444   0.01537416         1784 
 2509000   0.84743999   -8.5313315    467.00154  0.015510879  0.015367821         1748 
 2510000   0.85839636   -8.5268449    467.23271  0.015512374  0.015361462         1869 
 2511000   0.84924584   -8.5163788    466.58788  0.015484796  0.015355082         1803 
 2512000   0.84402549   -8.5605359    466.18312  0.015465204  0.015348673         1877 
 2513000   0.85817986   -8.5619875    465.55211  0.015438126   0.01534224         1906 
 2514000   0.83458046   -8.5722868    465.44422  0.015428408  0.015335788         1901 
 2515000   0.85762988   -8.5984727    466.30231  0.015450706  0.015329327         2027 
 2516000   0.85697131   -8.5840323     466.1932  0.015440951  0.015322857         2053 
 2517000    0.8427557    -8.582737    465.42523   0.01540939  0.015316378         2156 
 2518000   0.85065655   -8.5980705    464.51935  0.015373291  0.015309882         2183 
 2519000   0.83783933   -8.6020259    464.92661  0.015380661  0.015303379         2217 
 2520000   0.84807388    -8.641405    464.67388    0.0153662  0.015296861         2294 
 2521000   0.85104086   -8.6431388    463.97599  0.015337035  0.015290314         2297 
 2522000   0.84005753   -8.6623375    463.93628  0.015329642  0.015283758         2367 
 2523000   0.84499772   -8.6769014    463.07813  0.015295222  0.015277186         2370 
 2524000   0.82491902    -8.704131    463.62302  0.015307152   0.01527059         2481 
 2525000   0.85248966    -8.731738    463.12872  0.015284776  0.015263952         2556 
 2526000   0.84050137   -8.7449293     463.1846  0.015280569  0.015257271         2645 
 2527000   0.85066844   -8.7751993    462.39138  0.015248364  0.015250554         2703 
 2528000   0.82812452   -8.7729943    461.73158  0.015220582  0.015243845         2799 
 2529000   0.83761397   -8.7869932    461.23155  0.015198087   0.01523712         2787 
 2530000   0.82403338   -8.7982004    462.58759  0.015236746  0.015230378         2844 
 2531000    0.8517364   -8.7834786    461.74318  0.015202923  0.015223629         2895 
 2532000   0.85165195      -8.8203    460.28291  0.015148858   0.01521686         2931 
 2533000   0.84071365   -8.8325571    461.23965  0.015174353  0.015210086         3029 
 2534000   0.83979732   -8.8319906    460.48825  0.015143655   0.01520327         3039 
 2535000   0.85178312   -8.8196572    461.12365  0.015158568  0.015196435         2992 
 2536000   0.83863248    -8.857732    459.89484  0.015112212  0.015189591         3089 
 2537000     0.832916   -8.8426728    460.76706  0.015134906  0.015182735         3027 
 2538000   0.87255575   -8.8748923    459.65275  0.015092355  0.015175873         3145 
 2539000   0.85767252   -8.8877357    460.49997  0.015114217  0.015168994         3184 
 2540000   0.84976816   -8.8582539    459.09517  0.015062177  0.015162113         3240 
 2541000   0.84240052   -8.8818682     459.3599  0.015064932  0.015155231         3221 
 2542000   0.83986738   -8.8776431    460.97335  0.015111898  0.015148351         3229 
 2543000   0.83935715   -8.8764586     460.1764   0.01507984  0.015141469         3189 
 2544000   0.84341638   -8.9241451    459.78186  0.015060989  0.015134575         3275 
 2545000    0.8443925   -8.9554473    457.93193  0.014994497  0.015127673         3312 
 2546000    0.8422077   -8.8932771    459.87848   0.01505232  0.015120747         3221 
 2547000   0.86640907   -8.9228669    460.39105  0.015063181   0.01511381         3307 
 2548000   0.83062898   -8.9205696    459.64697  0.015032933  0.015106887         3313 
 2549000   0.85298396   -8.9162131    458.66679  0.014994991  0.015099947         3319 
 2550000    0.8307164   -8.9362711    458.17169  0.014972931  0.015093003         3402 
 2551000   0.83459969   -8.9034507    459.98565  0.015026318  0.015086062         3328 
 2552000   0.83700675   -8.9558089    458.62695  0.014976063  0.015079138         3348 
 2553000   0.84388121   -8.9343254     458.8501  0.014977481  0.015072204         3434 
 2554000   0.83584547   -8.9788088    458.22008   0.01495106  0.015065245         3436 
 2555000   0.85619487   -9.0017786    458.88256  0.014966815  0.015058278         3516 
 2556000   0.83048162   -8.9521253    460.11763  0.015001227  0.015051313         3511 
 2557000   0.84529077   -8.9904297     457.7058  0.014916758  0.015044358         3526 
 2558000   0.83207742   -8.9697887    458.13355  0.014924862  0.015037386         3561 
 2559000    0.8223632    -8.983159    458.64817  0.014935788  0.015030397         3534 
 2560000   0.84917373   -9.0106692    458.11709  0.014912666  0.015023405         3538 
 2561000   0.83971872   -8.9843736    457.83852  0.014897778  0.015016423         3537 
 2562000   0.83204047   -8.9926357    458.20165  0.014903775  0.015009426         3543 
 2563000   0.82453652   -8.9930797    457.42713  0.014872777   0.01500243         3598 
 2564000    0.8369835   -9.0086631    457.21178  0.014859977  0.014995425         3615 
 2565000    0.8364894   -9.0056318    456.60459  0.014834457  0.014988405         3646 
 2566000   0.83283654   -9.0151088    457.45271   0.01485622    0.0149814         3645 
 2567000   0.83861728   -9.0272728    457.39879  0.014848682  0.014974394         3663 
 2568000   0.84275351   -8.9743807    457.75888  0.014854585  0.014967387         3666 
 2569000   0.83263521   -9.0043741    457.19635  0.014830555  0.014960374         3680 
 2570000    0.8222906   -9.0234038    456.66716  0.014807625  0.014953365         3667 
 2571000   0.83514983   -9.0192571    456.73515  0.014804069  0.014946353         3795 
 2572000    0.8392983   -9.0000299     457.4574  0.014821715  0.014939323         3734 
 2573000   0.84716808   -9.0161622    457.17683  0.014806867  0.014932286         3721 
 2574000   0.84268441   -9.0219402     456.9564  0.014793978  0.014925241         3740 
 2575000   0.83094867   -9.0341001    456.01157  0.014757656  0.014918204         3770 
 2576000   0.84683245   -9.0589849    456.30496  0.014761418  0.014911179         3760 
 2577000   0.84082005   -9.0448834    455.47457  0.014728838  0.014904131         3746 
 2578000   0.83051273   -9.0540897    457.39274  0.014785129  0.014897094         3719 
 2579000   0.84679122    -9.046273    456.82664  0.014761104  0.014890063         3756 
 2580000   0.82921622   -9.0261946    456.63783  0.014749284  0.014883025         3751 
 2581000   0.83418422   -9.0589035     456.5654  0.014741231  0.014876001         3743 
 2582000   0.86532394   -9.0404579    456.47227  0.014732516  0.014868961         3745 
 2583000   0.84203255   -9.0915717    456.03684  0.014712764   0.01486191         3757 
 2584000   0.84245374   -9.0575039    456.35863  0.014717448  0.014854851         3771 
 2585000   0.81941828   -9.0459151    455.60551  0.014687476  0.014847799         3778 
 2586000    0.8314231   -9.0795722    456.47145  0.014709701  0.014840735         3785 
 2587000    0.8204446   -9.0609841    455.77314  0.014681521   0.01483367         3792 
 2588000   0.82301387   -9.0931862    455.93549  0.014681076    0.0148266         3824 
 2589000   0.86643562   -9.0825369    456.16124  0.014682671  0.014819542         3766 
 2590000   0.83972792   -9.0861071    454.49228  0.014623304  0.014812481         3800 
 2591000   0.83500539    -9.023765     455.4266   0.01464771  0.014805411         3752 
 2592000   0.83651403   -9.1055096    455.84418  0.014655484  0.014798355         3772 
 2593000   0.84355205   -9.0504426     455.5417  0.014640111  0.014791296         3773 
 2594000   0.85184673   -9.0424413    455.42353  0.014630671  0.014784248         3778 
 2595000   0.84359131   -9.0653495    456.11698  0.014647302  0.014777189         3766 
 2596000   0.84770301   -9.0702982    455.93082  0.014635684  0.014770137         3772 
 2597000   0.83082998   -9.0658199    456.19926  0.014638662  0.014763095         3758 
 2598000   0.82503031   -9.0648723     455.9732  0.014625776  0.014756048         3827 
 2599000   0.84032342   -9.0814061    456.41288  0.014634247  0.014748996         3769 
 2600000   0.84645111   -9.0890481    456.01213  0.014615774  0.014741957         3823 
 2601000   0.83137394   -9.0643519    455.54199  0.014595091  0.014734919         3805 
 2602000   0.83412526   -9.0814516    455.79782  0.014597676   0.01472788         3810 
 2603000   0.84530467   -9.0627392    454.69304  0.014556699  0.014720849         3803 
 2604000   0.83551032   -9.0861795    455.81219  0.014586924  0.014713817         3768 
 2605000    0.8558806   -9.0721362    455.81938  0.014581554  0.014706793         3794 
 2606000   0.83952096   -9.0738309    455.50348  0.014565857  0.014699768         3800 
 2607000   0.82738776   -9.0954908    455.08367   0.01454685  0.014692732         3805 
 2608000   0.84336365   -9.0790676    456.00043  0.014570566  0.014685709         3766 
 2609000   0.83312298   -9.0916618    455.45768  0.014547645  0.014678685         3811 
 2610000   0.85341599   -9.0969511     455.7729  0.014552136   0.01467166         3809 
 2611000   0.82345304   -9.0678862    455.10495  0.014525244  0.014664644         3811 
 2612000   0.83432063   -9.0950683    454.92016  0.014513788  0.014657644         3798 
 2613000   0.83301182    -9.090526    455.85822   0.01453815  0.014650645         3780 
 2614000   0.84891261   -9.0814293    456.33617  0.014547825  0.014643637         3862 
 2615000   0.82910821   -9.0611734    455.55564  0.014517388  0.014636638         3794 
 2616000   0.81148217   -9.0731357    456.56014  0.014543837  0.014629644         3794 
 2617000   0.85354021   -9.0708177    455.34014  0.014499431  0.014622643         3808 
 2618000   0.83681654   -9.0676011    455.30457  0.014492761  0.014615655         3807 
 2619000   0.82462286   -9.0746136     455.8165  0.014503516  0.014608664         3800 
 2620000   0.82564671   -9.1025835    454.98214  0.014471442  0.014601669         3817 
 2621000   0.81730895   -9.0915181    455.80193  0.014491986  0.014594679         3819 
 2622000   0.83201487   -9.0833183    455.28059  0.014469889   0.01458769         3795 
 2623000    0.8317385   -9.0853659    455.25814  0.014463659  0.014580705         3834 
 2624000   0.81000912   -9.0857177    455.65031  0.014470602  0.014573719         3806 
 2625000   0.82329109   -9.0942265    454.71456  0.014435383  0.014566709         3855 
 2626000   0.81158462   -9.1050149    454.87989  0.014435132  0.014559714         3814 
 2627000   0.85370545   -9.0992281    454.72374  0.014424684  0.014552724         3811 
 2628000   0.83851086   -9.1109982    455.70791  0.014450403  0.014545734         3841 
 2629000   0.84296723   -9.1061706    454.29648  0.014400167  0.014538736         3822 
 2630000   0.83881878   -9.1015444    455.35877  0.014428351  0.014531753         3826 
 2631000   0.84258944    -9.123478    455.04609  0.014412964  0.014524772         3838 
 2632000   0.83745045   -9.0920732    456.21798  0.014444591  0.014517782         3826 
 2633000   0.83853146   -9.1407591    455.47659  0.014415641  0.014510784         3859 
 2634000   0.81321887   -9.1118386    454.14701  0.014368103  0.014503801         3816 
 2635000   0.83913488   -9.0886883    454.91092   0.01438681  0.014496817         3827 
 2636000   0.82782348    -9.115507    454.72828  0.014375578  0.014489842         3862 
 2637000   0.83510586   -9.1392188    455.62222  0.014398376  0.014482853         3821 
 2638000   0.82078866   -9.1109383    455.76196  0.014397333   0.01447587         3852 
 2639000    0.8354147   -9.1141453    454.48412  0.014351526  0.014468894         3852 
 2640000   0.82527633   -9.1350098    454.03324  0.014331857  0.014461916         3836 
 2641000   0.84985772   -9.1218552    454.86428  0.014352653  0.014454945         3870 
 2642000   0.81390042   -9.0858591    454.92488  0.014349132   0.01444798         3819 
 2643000   0.83310265   -9.1322018    454.56943  0.014332496  0.014441006         3841 
 2644000   0.81475117   -9.1368127     454.4794  0.014324237  0.014434036         3856 
 2645000   0.82187073   -9.1300289    455.44251  0.014349165  0.014427069         3835 
 2646000   0.82287629   -9.1334788    454.67767  0.014319655  0.014420121         3839 
 2647000   0.82777881   -9.1286671    455.65408  0.014344984  0.014413156         3869 
 2648000   0.83187675   -9.1076751    454.94798  0.014317346  0.014406209         3847 
 2649000   0.84174513   -9.1329121    453.69767  0.014272608  0.014399259         3877 
 2650000   0.83630508   -9.1247398    454.54316   0.01429381  0.014392314         3858 
 2651000    0.8427362   -9.1063615      454.627  0.014291054  0.014385377         3845 
 2652000   0.84590947   -9.1165957    454.44486  0.014279941   0.01437844         3846 
 2653000   0.81817047   -9.1410276    455.27019  0.014300483  0.014371499         3868 
 2654000   0.79582198   -9.1149052    454.52875  0.014271814   0.01436456         3842 
 2655000   0.82930199   -9.1290059    454.19641  0.014256008   0.01435762         3836 
 2656000   0.84251263   -9.1044583    454.80088  0.014269606  0.014350689         3862 
 2657000   0.81191293   -9.1543785     453.4625  0.014222259  0.014343746         3855 
 2658000   0.84617297    -9.104642    454.90166  0.014262028  0.014336825         3837 
 2659000   0.82994218   -9.1268868    454.28006  0.014237184  0.014329907         3843 
 2660000    0.8094008   -9.1284588    454.12561  0.014226993  0.014322979         3837 
 2661000   0.83447139   -9.1428584    454.36215  0.014229054  0.014316048         3846 
 2662000   0.83256158   -9.1404331    454.35959  0.014223628  0.014309125         3837 
 2663000    0.8258609   -9.1322312    454.97686  0.014237604   0.01430221         3862 
 2664000    0.8231487   -9.1285262    453.80659  0.014195652  0.014295292         3855 
 2665000   0.84967259   -9.1375678    454.21262  0.014203021  0.014288376         3851 
 2666000   0.84023647   -9.1236705    454.47156  0.014205788  0.014281459         3869 
 2667000   0.81968187   -9.1347788    454.14931  0.014190392  0.014274551         3892 
 2668000   0.82969709   -9.1306683    454.73147  0.014203257  0.014267644         3846 
 2669000   0.81482325   -9.1154412     454.9891  0.014205979  0.014260741         3863 
 2670000   0.82867648   -9.1340006    454.01964  0.014170401  0.014253837         3867 
 2671000   0.83612612   -9.1035441    454.99804  0.014195621  0.014246936         3859 
 2672000   0.82234613    -9.141075    454.61307  0.014178302  0.014240042         3870 
 2673000   0.83660169   -9.1447447    454.69717  0.014175619  0.014233161         3856 
 2674000   0.82353924   -9.1447103    453.68013  0.014138623  0.014226274         3873 
 2675000   0.81322585    -9.131029    454.17009  0.014148601  0.014219388         3896 
 2676000   0.83658236   -9.1073111    455.10774  0.014172513  0.014212512         3865 
 2677000   0.81992299   -9.1458073    454.23365  0.014140009   0.01420563         3879 
 2678000   0.83436748   -9.1281967    454.16075  0.014132461  0.014198747         3885 
 2679000   0.84396164   -9.1321036    453.86143  0.014117874  0.014191877         3902 
 2680000   0.81863269    -9.122418    454.10486  0.014120176     0.014185         3839 
 2681000   0.83468633   -9.1423411    454.83259  0.014137529  0.014178123         3894 
 2682000   0.84140526   -9.1423878    453.31728  0.014085175  0.014171251         3872 
 2683000   0.82611062    -9.126627    454.00791  0.014101376  0.014164385         3882 
 2684000   0.81922756   -9.1462886    454.68564  0.014117165  0.014157524         3893 
 2685000   0.81200413    -9.125845    454.23994  0.014098074  0.014150657         3905 
 2686000   0.79492904   -9.1644037    454.24715  0.014093049  0.014143806         3860 
 2687000   0.82159374   -9.1291472    453.85816   0.01407574  0.014136952         3917 
 2688000   0.83187769   -9.1255046    454.07221  0.014077139  0.014130105         3865 
 2689000   0.83965646   -9.1737784    453.57704  0.014056559   0.01412325         3894 
 2690000   0.82386234   -9.1494633    454.26472  0.014072637  0.014116401         3879 
 2691000   0.81938972   -9.1598681    453.95664  0.014057867   0.01410955         3889 
 2692000   0.82700837   -9.1496452    453.95214  0.014052505  0.014102712         3902 
 2693000    0.8098897   -9.1551937    454.32959  0.014058968  0.014095875         3874 
 2694000   0.82873738   -9.1591834    454.38615  0.014055498   0.01408905         3879 
 2695000      0.82201   -9.1652923     453.6829  0.014028537   0.01408222         3889 
 2696000   0.81142128   -9.1374251    454.35404  0.014044079  0.014075397         3887 
 2697000   0.81733818   -9.1400107    454.26705  0.014036184  0.014068558         3848 
 2698000   0.82169595    -9.192816    453.90543  0.014019812  0.014061731         3884 
 2699000   0.83005014   -9.1487605    453.89169  0.014014193  0.014054903         3896 
 2700000   0.82107448   -9.1596618    453.87802  0.014008581  0.014048084         3888 
 2701000   0.81855507   -9.1435125    453.79934  0.014000967  0.014041258         3901 
 2702000   0.81564691   -9.1506918    453.68864  0.013992371  0.014034432         3887 
 2703000    0.8172793   -9.1700302    454.08091  0.013999288  0.014027609         3905 
 2704000   0.81382394   -9.1546245    455.32484  0.014032447  0.014020792         3883 
 2705000   0.83593488   -9.1573694    454.46227  0.014000686  0.014013979         3901 
 2706000   0.83613419   -9.1722268    453.31139   0.01396007   0.01400716         3896 
 2707000   0.83769411    -9.169761    453.22771  0.013952337  0.014000359         3898 
 2708000   0.81624849   -9.1617901    453.75324  0.013963357  0.013993557         3872 
 2709000   0.81344161   -9.1782764    454.19747  0.013971868  0.013986761         3898 
 2710000   0.81141849   -9.1791517    453.84073  0.013955742  0.013979959         3892 
 2711000   0.80228274   -9.1820482    453.45333  0.013938686  0.013973161         3880 
 2712000   0.80304382   -9.1501975    454.33411  0.013960611  0.013966357         3902 
 2713000   0.79974209   -9.1685115    453.70571  0.013936162  0.013959547         3919 
 2714000   0.81571675   -9.1843883    453.30013  0.013918574  0.013952754         3897 
 2715000   0.83577345   -9.1861757    452.88432  0.013900685   0.01394596         3909 
 2716000   0.79230769    -9.159309     453.6711  0.013919707  0.013939178         3912 
 2717000   0.82219751   -9.1705392    454.01319  0.013925076  0.013932393         3901 
 2718000    0.8227355   -9.1934213    453.00173  0.013888942  0.013925604         3906 
 2719000   0.81785185   -9.1828005    454.36338  0.013925567  0.013918837         3898 
 2720000   0.82589416   -9.1672288    454.86239  0.013935735  0.013912071         3905 
 2721000   0.81688597   -9.1485261    454.11072  0.013907593  0.013905294         3886 
 2722000   0.84704184    -9.181694    453.81088  0.013893304  0.013898525         3885 
 2723000   0.83633599   -9.1773147    453.82278  0.013888566   0.01389176         3884 
 2724000   0.82873089   -9.1835664    453.45863  0.013872327  0.013884992         3917 
 2725000   0.81532948   -9.1537651    454.13151  0.013887814  0.013878216         3925 
 2726000   0.80944474   -9.2142946    453.21847  0.013854808  0.013871454         3906 
 2727000   0.80377272   -9.1886385    452.76718  0.013835936  0.013864698         3900 
 2728000   0.80555235   -9.1760284     452.9719  0.013837118   0.01385793         3929 
 2729000   0.82236753   -9.1937099     453.3377  0.013843218  0.013851172         3890 
 2730000   0.81517362   -9.1673196    453.89927  0.013855289  0.013844414         3909 
 2731000   0.81661075    -9.178551    453.03881   0.01382396  0.013837661         3904 
 2732000   0.81525887   -9.1974748    453.72788  0.013839918  0.013830903         3913 
 2733000    0.7971653   -9.2315455    453.02588  0.013813449  0.013824155         3906 
 2734000   0.81436276   -9.2117592    452.59756  0.013795341  0.013817405         3892 
 2735000   0.81431651   -9.1744367    453.89479  0.013829823  0.013810666         3908 
 2736000   0.82086612   -9.1883154    453.11977  0.013801163  0.013803923         3908 
 2737000   0.82589998   -9.1835841    453.24497  0.013799932  0.013797194         3911 
 2738000   0.82281821   -9.2105487    453.45336  0.013801234  0.013790449         3925 
 2739000   0.80054973   -9.1924135    451.93397  0.013749969  0.013783715         3910 
 2740000   0.80688468   -9.1951577    453.42485  0.013790293  0.013776984         3928 
 2741000   0.83663785   -9.2063118    453.50577  0.013787722  0.013770254         3926 
 2742000   0.83261851   -9.2008881    452.58878  0.013754826   0.01376353         3933 
 2743000   0.81291544   -9.2169819    453.33074  0.013772352  0.013756805         3935 
 2744000   0.81493121   -9.1689156    453.09682  0.013760229  0.013750098         3937 
 2745000   0.82836802   -9.1917553    453.03198  0.013753248  0.013743388         3923 
 2746000   0.80144569   -9.1685675    453.47724  0.013761752  0.013736672         3921 
 2747000   0.80420045   -9.2235797    453.01081  0.013742592   0.01372996         3920 
 2748000   0.82218367   -9.2049143    452.89726  0.013734148  0.013723255         3931 
 2749000   0.80542635   -9.1995137    453.64729  0.013751888  0.013716546         3939 
 2750000    0.8256081   -9.1965636    453.49434  0.013742253  0.013709844         3946 
 2751000   0.81789676   -9.2073422    453.10977  0.013725608  0.013703153         3928 
 2752000   0.81160826   -9.1834016    453.23031  0.013724271  0.013696451         3918 
 2753000   0.82359862   -9.1891142    452.39588  0.013694027  0.013689752         3929 
 2754000   0.80279491   -9.1882552    453.58667  0.013725087   0.01368306         3932 
 2755000   0.79208208   -9.2554897    452.74954  0.013694784  0.013676365         3941 
 2756000   0.81043704   -9.1803139    452.49262  0.013682046  0.013669673         3933 
 2757000    0.8022213    -9.178694    453.59274  0.013710336  0.013662988         3946 
 2758000   0.80485409   -9.1867427    452.51935  0.013672932  0.013656296         3939 
 2759000   0.80764954   -9.2148765    453.00405  0.013682616  0.013649609         3936 
 2760000    0.8190192    -9.227934    452.54782  0.013663883  0.013642919         3921 
 2761000   0.81929464   -9.2232303    452.74713   0.01366495  0.013636242         3927 
 2762000   0.81866258   -9.2018046    453.42974  0.013680598  0.013629561         3928 
 2763000   0.80328813   -9.1978202    454.39783  0.013704845  0.013622894         3923 
 2764000   0.81826101   -9.2037896    452.76152  0.013650552  0.013616221         3933 
 2765000   0.80984152   -9.2212305    451.73168  0.013614577  0.013609557         3931 
 2766000   0.81268279   -9.2107977    452.88767  0.013644483  0.013602894         3924 
 2767000   0.82497329   -9.1944809    453.57622  0.013660288  0.013596235         3914 
 2768000   0.80454945    -9.208351    452.20824  0.013614169  0.013589587         3939 
 2769000   0.80844445   -9.2127273    452.53475  0.013619079  0.013582941         3943 
 2770000   0.81013374    -9.235473    453.10244  0.013631241  0.013576291         3945 
 2771000   0.79790125   -9.1952821    452.45327  0.013606799  0.013569653         3936 
 2772000   0.80872498   -9.1897664     453.5451  0.013634713  0.013563015         3915 
 2773000   0.78364057   -9.2128088    452.38062  0.013594802  0.013556374         3932 
 2774000   0.81688676    -9.210315    452.71403  0.013599917  0.013549741         3939 
 2775000   0.81517115   -9.1667015    452.98255   0.01360308  0.013543104         3930 
 2776000   0.80792516    -9.211809    452.29491  0.013577537  0.013536472         3952 
 2777000   0.79900951   -9.1994151    454.06383   0.01362573  0.013529846         3940 
 2778000   0.81696169    -9.214862    452.66805  0.013578955  0.013523222         3927 
 2779000   0.80005187   -9.2207809    451.61838  0.013542593  0.013516602         3933 
 2780000   0.80466141   -9.2164361    452.77605  0.013572424  0.013509984         3941 
 2781000   0.82012847   -9.2029295    452.69968  0.013565255  0.013503386         3930 
 2782000   0.83085486   -9.2370341     452.4234  0.013552103  0.013496773         3928 
 2783000   0.80562732   -9.2126642    451.80751  0.013528791  0.013490164         3932 
 2784000    0.8135191   -9.2016916    452.53935  0.013545838  0.013483557         3930 
 2785000   0.81284111   -9.2254568    452.07992  0.013527227  0.013476953         3948 
 2786000   0.80066435   -9.2302155    452.48625  0.013534525  0.013470351         3919 
 2787000   0.80848103   -9.2224069    453.18757  0.013550639  0.013463756         3929 
 2788000   0.81463769   -9.2272047    453.01807  0.013540712  0.013457156         3927 
 2789000   0.80731314   -9.2358613    451.91445  0.013502882  0.013450568         3952 
 2790000   0.80941063   -9.2191774    452.10976  0.013503876  0.013443982         3944 
 2791000   0.80775307   -9.2076924    452.78997  0.013519347  0.013437397         3951 
 2792000   0.79792806    -9.220518    451.66815  0.013481022  0.013430817         3936 
 2793000   0.80663144   -9.2331441    453.10695  0.013519124  0.013424235         3939 
 2794000   0.77864093   -9.2314558    452.52433  0.013496908  0.013417657         3955 
 2795000    0.8111153   -9.2101732    452.59469  0.013494177   0.01341108         3933 
 2796000   0.79634505   -9.2473446    453.01409  0.013501851  0.013404509         3941 
 2797000   0.80338606   -9.2268704    452.17098  0.013471904  0.013397944         3954 
 2798000   0.79209595   -9.2469496      452.282  0.013470395  0.013391377         3934 
 2799000   0.82232189   -9.2100266    452.22554  0.013463902  0.013384821         3947 
 2800000    0.8054324   -9.2292253    452.59804   0.01347018  0.013378262         3930 
 2801000    0.7824653   -9.2303114    452.72582  0.013469172  0.013371707         3929 
 2802000   0.79449836   -9.2239339    451.62861  0.013431734  0.013365159         3941 
 2803000   0.78936088   -9.1995298    453.44948  0.013481076  0.013358619         3923 
 2804000   0.76649222   -9.2269668    452.57544  0.013450292  0.013352082         3937 
 2805000   0.80738705    -9.187673    453.22039  0.013464658  0.013345535         3943 
 2806000   0.79180233    -9.210322    452.41319  0.013435887  0.013338996         3937 
 2807000   0.79219166   -9.2327733    452.43976  0.013431889  0.013332465         3934 
 2808000   0.79060642   -9.2432206    452.59533  0.013431723  0.013325934         3944 
 2809000   0.78871346   -9.2510022     452.2059  0.013415388  0.013319402         3945 
 2810000   0.80170834   -9.2139434    452.33669  0.013414493  0.013312882         3926 
 2811000   0.80139961   -9.2248123    452.82502  0.013424197  0.013306364         3941 
 2812000   0.80799127   -9.2223822    452.29182  0.013403622  0.013299843         3933 
 2813000   0.80106153   -9.2085576    453.18484  0.013425312  0.013293325         3922 
 2814000   0.79953066   -9.2468697    452.28198  0.013393804   0.01328681         3947 
 2815000   0.79432498   -9.2204375    452.64825  0.013399889  0.013280299         3936 
 2816000   0.79463081   -9.2106142    453.36552  0.013416356  0.013273805         3933 
 2817000   0.81099536   -9.2225695    453.40897  0.013412879  0.013267314         3932 
 2818000   0.79685001   -9.2250775    452.51163  0.013381584   0.01326083         3950 
 2819000   0.80227762   -9.2233891    452.09468  0.013364511  0.013254338         3943 
 2820000    0.8041873   -9.2325205    451.74982  0.013349581  0.013247843         3928 
 2821000   0.79548952   -9.2296155    452.84214  0.013377116  0.013241369         3938 
 2822000   0.79969932   -9.2168337    452.61094  0.013365549  0.013234886         3950 
 2823000    0.7877096   -9.2042054    452.92183  0.013369991  0.013228401         3926 
 2824000   0.81274328   -9.2415181    452.66248  0.013357604  0.013221924         3943 
 2825000   0.79234069   -9.2319554    452.10805  0.013336521  0.013215457         3943 
 2826000   0.80105048   -9.2347829    452.26489  0.013336426  0.013208994         3940 
 2827000   0.79669473    -9.227588    452.94837  0.013351856  0.013202528         3930 
 2828000   0.78833396   -9.2233838    452.98387  0.013348181  0.013196069         3937 
 2829000   0.80723948   -9.2348622    452.59069  0.013331881  0.013189608         3946 
 2830000   0.78509623   -9.2224672    452.38038  0.013320977  0.013183148         3950 
 2831000   0.79619151   -9.2468354    451.43287  0.013288381  0.013176689         3967 
 2832000    0.8014975   -9.2056021    453.56776  0.013346509  0.013170232         3943 
 2833000    0.8020806   -9.2413085    452.42105  0.013308067  0.013163796         3943 
 2834000    0.8105662   -9.2371711    453.00144  0.013320438   0.01315735         3931 
 2835000   0.80264296   -9.2315981    451.71413  0.013277899   0.01315091         3956 
 2836000   0.80108423   -9.2506436     452.8535  0.013306697   0.01314447         3929 
 2837000   0.78346015   -9.2531901    452.32737  0.013286552  0.013138027         3936 
 2838000   0.78706162   -9.2436078    452.47495  0.013286204  0.013131594         3942 
 2839000   0.78634063   -9.2138128      451.741   0.01325998  0.013125176         3934 
 2840000   0.80797787   -9.2434859    452.65962  0.013282266   0.01311875         3940 
 2841000   0.79959851   -9.2213532    451.84907  0.013253815  0.013112322         3938 
 2842000   0.80275577    -9.228399    451.80835  0.013247958  0.013105902         3929 
 2843000   0.81418646   -9.2395583    451.65631  0.013238841  0.013099485         3954 
 2844000   0.79130371   -9.2398062    452.59011  0.013261548  0.013093078         3947 
 2845000   0.79215172   -9.2733209    452.15753  0.013244216  0.013086665         3956 
 2846000   0.80660366   -9.2400809    451.79462  0.013228936  0.013080259         3935 
 2847000   0.79557733   -9.2417563    452.31029  0.013239383  0.013073868         3931 
 2848000   0.80057786   -9.2300815    452.34029  0.013235613  0.013067472         3933 
 2849000   0.80487861   -9.2603579    451.69184     0.013212  0.013061081         3952 
 2850000    0.7962347   -9.2564998     452.0816   0.01321876  0.013054694         3944 
 2851000   0.81436932   -9.2311538    452.21964  0.013218158  0.013048315         3938 
 2852000   0.80745364   -9.2322272    450.94545  0.013176293  0.013041934         3929 
 2853000   0.79045136   -9.2368206    451.63644  0.013191858  0.013035551         3942 
 2854000   0.79206005   -9.2439861    451.72018   0.01318968  0.013029182         3937 
 2855000   0.79046015   -9.2646031    451.57517  0.013180828  0.013022814         3948 
 2856000    0.8044868   -9.2518468    451.91489  0.013186125  0.013016444         3937 
 2857000   0.79169838   -9.2532493    452.30397  0.013192859  0.013010082         3941 
 2858000   0.79761337   -9.2479286    451.89155  0.013176217  0.013003721         3951 
 2859000   0.80825325   -9.2415255    452.99197  0.013203683  0.012997361         3931 
 2860000   0.79043436   -9.2536021     452.0909  0.013172812  0.012991007         3946 
 2861000   0.79387086   -9.2533755     452.9773  0.013194026  0.012984663         3946 
 2862000    0.7851082   -9.2256022    453.18347  0.013195419  0.012978318         3952 
 2863000    0.8108145   -9.2242808    453.52458  0.013200739  0.012971972         3935 
 2864000   0.78502081   -9.2398458    451.82828  0.013146773  0.012965636         3944 
 2865000   0.81197813    -9.239219    452.05033  0.013148643  0.012959304         3931 
 2866000   0.81598918   -9.2259187    451.74579    0.0131352  0.012952974         3952 
 2867000   0.77425091   -9.2525169    452.15044   0.01314238  0.012946648         3960 
 2868000   0.78178781   -9.2410978    452.17603  0.013138541  0.012940315         3941 
 2869000   0.79921642   -9.2146376    452.43362  0.013141444  0.012933994         3943 
 2870000    0.7921265   -9.2421328    450.64223   0.01308485  0.012927683         3947 
 2871000   0.78954686    -9.223353    452.63254  0.013138063  0.012921367         3946 
 2872000   0.77598662   -9.2471874    452.94519   0.01314256  0.012915059         3932 
 2873000   0.79449883   -9.2148785    452.57362  0.013127208  0.012908754         3932 
 2874000   0.78529147   -9.2508959    452.25688  0.013113456  0.012902451         3946 
 2875000   0.78400685   -9.2625222    452.03895  0.013102578  0.012896157         3941 
 2876000   0.79728596   -9.2535037    450.85464  0.013063707  0.012889857         3946 
 2877000   0.79252751   -9.2354963    451.95514  0.013091042  0.012883555         3947 
 2878000   0.77312807   -9.2259322    451.98664  0.013087406  0.012877255         3946 
 2879000   0.78649836   -9.2393057    451.27297  0.013062202  0.012870967         3949 
 2880000   0.79046793   -9.2561117    452.46496  0.013092157  0.012864683         3955 
 2881000   0.79023771   -9.2611389    451.25083  0.013052494  0.012858399         3952 
 2882000   0.77348405   -9.2561674    452.16107  0.013074285  0.012852121         3941 
 2883000   0.80288588   -9.2458259      452.066  0.013067002  0.012845843         3945 
 2884000   0.78610795   -9.2416767    451.13761  0.013035645  0.012839569         3946 
 2885000    0.7949597   -9.2355649    451.52784  0.013042399  0.012833304         3939 
 2886000   0.78200928   -9.2386692     452.6694  0.013070842  0.012827037         3941 
 2887000   0.79719506   -9.2034155    452.36202  0.013057442  0.012820775         3938 
 2888000   0.78747907   -9.2691695    451.46272  0.013026971  0.012814513         3954 
 2889000   0.78697895   -9.2817599    450.88567  0.013005817   0.01280825         3963 
 2890000   0.81506976   -9.2520121    452.25907  0.013040919  0.012801996         3956 
 2891000   0.78960416   -9.2583444    452.46806  0.013042432  0.012795737         3953 
 2892000    0.7831536   -9.2520254    452.30923  0.013033346  0.012789474         3962 
 2893000   0.78966912   -9.2469923    452.60898  0.013037475  0.012783218         3923 
 2894000   0.78647738   -9.2484772    451.76091  0.013008549  0.012776977         3946 
 2895000   0.79539162   -9.2581846    450.80772  0.012976618  0.012770734         3947 
 2896000   0.79314981   -9.2800405    450.61358  0.012966551  0.012764492         3948 
 2897000   0.79777323   -9.2684788     451.3795  0.012984107  0.012758262         3938 
 2898000   0.79748022   -9.2456473    451.27902  0.012976737  0.012752035         3949 
 2899000   0.78309367   -9.2510054    452.02976  0.012993842  0.012745805         3946 
 2900000   0.80668071   -9.2816721    451.65554  0.012978607  0.012739586         3959 
 2901000   0.77096841   -9.2710248    451.78553  0.012977868  0.012733369         3951 
 2902000   0.79213452   -9.2355734    451.12152  0.012954328  0.012727154         3928 
 2903000   0.78571209   -9.2379351    451.52432  0.012961428   0.01272094         3932 
 2904000   0.79017438   -9.2952577    450.66528  0.012932314  0.012714726         3936 
 2905000   0.80366053   -9.2590698    451.56688  0.012953726  0.012708521         3950 
 2906000   0.78870893   -9.2666341    451.89231    0.0129586  0.012702323         3952 
 2907000   0.79999136   -9.2670161    451.26745   0.01293623  0.012696121         3961 
 2908000   0.78782075   -9.2597249    451.13367  0.012927948   0.01268992         3945 
 2909000   0.80064989   -9.2686262     451.2767  0.012927601  0.012683724         3954 
 2910000   0.79540784   -9.2801506     451.6105  0.012932718  0.012677532         3949 
 2911000   0.79186411   -9.2749246    451.96853  0.012938524   0.01267134         3951 
 2912000   0.78255157   -9.2798489     451.6974  0.012926322  0.012665153         3947 
 2913000   0.78664246   -9.2552318    451.31331  0.012910897  0.012658975         3940 
 2914000   0.76261608   -9.2541838    451.60045  0.012914678  0.012652807         3943 
 2915000   0.79849464   -9.2625745    451.47418  0.012906638  0.012646637         3945 
 2916000   0.79038231   -9.2574299     451.7257  0.012909399   0.01264047         3945 
 2917000   0.79350879   -9.2698997    450.85416  0.012880075  0.012634307         3959 
 2918000   0.79954139     -9.24848    451.48273  0.012893612   0.01262814         3941 
 2919000   0.79749325   -9.2550888    452.46409  0.012917212  0.012621986         3953 
 2920000   0.79362208   -9.2648674    450.98501  0.012870577  0.012615827         3936 
 2921000   0.77369722   -9.2716239    452.55154  0.012910862  0.012609669         3946 
 2922000   0.77592063   -9.2647708    451.36161  0.012872508  0.012603521         3955 
 2923000   0.79695181   -9.2514404    451.37376   0.01286845  0.012597372         3941 
 2924000   0.79676552   -9.2735442     451.5764  0.012869824  0.012591224         3938 
 2925000   0.79377403   -9.2586297    451.72882  0.012869767  0.012585086         3956 
 2926000   0.78771625   -9.2649556    451.60311  0.012861788  0.012578951         3948 
 2927000   0.78561852   -9.2747097    451.47856  0.012853848  0.012572815         3947 
 2928000   0.78697402   -9.2710558     451.7371  0.012856816  0.012566676         3954 
 2929000   0.78864599   -9.2590388    451.44073  0.012843995   0.01256055         3966 
 2930000   0.78170206   -9.2785726    451.19676  0.012832672  0.012554423         3956 
 2931000   0.78108429   -9.2433164    452.77166  0.012873071  0.012548308         3959 
 2932000   0.78413557   -9.2772129    451.63553   0.01283639  0.012542189         3953 
 2933000   0.77101168    -9.267681     452.1276  0.012845994  0.012536079         3957 
 2934000   0.77071266   -9.2844566    451.39308  0.012820753  0.012529966         3964 
 2935000    0.7843488   -9.2641781    452.13234  0.012837375  0.012523853         3951 
 2936000   0.78818595   -9.2651849    451.67532  0.012820031  0.012517751         3958 
 2937000   0.77389057   -9.2639151    451.24783  0.012803536  0.012511659         3952 
 2938000   0.78757754   -9.2878486    451.80779  0.012815061  0.012505563         3949 
 2939000   0.78560078   -9.2613146    452.08297  0.012818503  0.012499473         3959 
 2940000   0.77628449   -9.2947276    451.17282  0.012788345   0.01249339         3948 
 2941000   0.78754891   -9.2561398    451.92445  0.012805294  0.012487299         3945 
 2942000   0.76673592   -9.2411062    452.46401  0.012816225  0.012481218         3945 
 2943000   0.77359851    -9.285535    450.84137  0.012765924  0.012475149         3951 
 2944000    0.7904986   -9.2853305    451.81485  0.012789143   0.01246907         3954 
 2945000   0.77662844     -9.28521    451.42383  0.012773736  0.012463006         3929 
 2946000   0.77581535   -9.2730802     451.9401  0.012784004  0.012456937         3952 
 2947000   0.76405991   -9.2785692    451.99527  0.012781226  0.012450876         3946 
 2948000   0.78204259    -9.246378    451.71381  0.012768934  0.012444819         3949 
 2949000   0.78262482   -9.2886227    450.84474  0.012740046  0.012438764         3949 
 2950000   0.78611812   -9.2645046    450.94396   0.01273853  0.012432713         3960 
 2951000   0.78534591   -9.2957535    450.37664  0.012718193  0.012426664         3948 
 2952000   0.77447412   -9.2972789    451.49342   0.01274541  0.012420613         3954 
 2953000   0.76299414   -9.2987346    450.77213   0.01272074  0.012414571         3967 
 2954000   0.78363837   -9.2736917    451.15064  0.012727111  0.012408529         3970 
 2955000   0.76819702   -9.2548012    452.74367  0.012767729  0.012402499         3946 
 2956000   0.79222854   -9.2726482    452.05764   0.01274407  0.012396469         3953 
 2957000   0.78627427   -9.2793625    451.17593  0.012714912  0.012390435         3939 
 2958000   0.78918981    -9.258366    452.05492  0.012735376  0.012384407         3943 
 2959000   0.77994266   -9.2806131    451.35628  0.012711397  0.012378384         3962 
 2960000   0.78415446   -9.2878272    451.03982  0.012698193  0.012372354         3938 
 2961000    0.7762311   -9.2785961    452.33927  0.012730476  0.012366325         3960 
 2962000   0.76870968   -9.2470747     450.7747   0.01268216  0.012360309         3960 
 2963000   0.77438568   -9.2856953    451.64428  0.012702337  0.012354295         3954 
 2964000   0.78423556   -9.2943175    450.94697  0.012678446  0.012348285         3957 
 2965000   0.78834206   -9.2667443    451.24805  0.012682632  0.012342281         3971 
 2966000   0.78609134   -9.3003882    451.54272  0.012686635   0.01233628         3952 
 2967000   0.77360706   -9.2764891    451.32562  0.012676262  0.012330287         3954 
 2968000   0.78022611   -9.2994111     451.3757  0.012673397  0.012324294         3954 
 2969000   0.77782143   -9.2815858    450.58992  0.012647073  0.012318309         3944 
 2970000    0.7786917   -9.2678879    450.83552  0.012649706  0.012312326         3934 
 2971000   0.77240575    -9.228819    452.34577  0.012687809  0.012306344         3940 
 2972000   0.76783559   -9.2775597    451.87444  0.012670324  0.012300365         3971 
 2973000   0.76632722   -9.2792996    451.00209   0.01264161  0.012294395         3957 
 2974000   0.79168481   -9.2846731    451.54955    0.0126527  0.012288419         3955 
 2975000   0.77036262   -9.2422128    452.14948  0.012665251   0.01228245         3938 
 2976000   0.77322203    -9.272105    450.89583  0.012625891  0.012276479         3962 
 2977000    0.7640207   -9.2893674    451.93511  0.012650742  0.012270527         3966 
 2978000   0.75922089   -9.2969119    450.91568  0.012617967  0.012264569         3961 
 2979000   0.77418471   -9.2927629    451.95084  0.012642689  0.012258608         3960 
 2980000   0.77301307   -9.2934013    451.09521  0.012614519  0.012252651         3947 
 2981000   0.77571632   -9.2816353     451.3785  0.012618207  0.012246701         3941 
 2982000   0.77843572    -9.267924    451.50331  0.012617463  0.012240759         3954 
 2983000    0.7658674   -9.2783839    450.76992  0.012592745   0.01223482         3945 
 2984000   0.77433797    -9.292383    451.36573  0.012605165  0.012228882         3935 
 2985000   0.79600478   -9.2866195     452.0325  0.012619556  0.012222949         3947 
 2986000   0.78358825    -9.281341    452.45298  0.012627065  0.012217015         3945 
 2987000   0.76856773   -9.2740422    451.54958  0.012597634  0.012211087         3953 
 2988000   0.77617663   -9.2705157    451.53035  0.012592881  0.012205163         3954 
 2989000   0.77130562   -9.2991426    450.47855  0.012559344  0.012199247         3952 
 2990000   0.76901478   -9.2907444    451.28623  0.012577654  0.012193332         3945 
 2991000   0.74241903   -9.2761964    450.94437  0.012563924  0.012187408         3955 
 2992000   0.79197367   -9.2794306    451.12028  0.012564625  0.012181496         3957 
 2993000   0.77971883   -9.2639562    451.64766   0.01257511  0.012175582         3932 
 2994000   0.75661766   -9.2896035     451.6107  0.012569881  0.012169673         3943 
 2995000   0.76513979   -9.2794999    451.16354  0.012553243  0.012163768         3947 
 2996000    0.7711831   -9.2852016    451.16285  0.012549034  0.012157865         3957 
 2997000   0.77477927   -9.2880281    451.16993  0.012545043  0.012151958         3937 
 2998000    0.7665354   -9.2992942    451.74428  0.012556823  0.012146061         3961 
 2999000   0.76433645   -9.2563691    451.37884  0.012542482  0.012140167         3950 
 3000000    0.7656402   -9.2868616    450.05175  0.012501437  0.012134277         3940 
 3001000    0.7795949   -9.2584612    450.73455  0.012516232  0.012128393         3956 
 3002000   0.75937356   -9.3031186     451.1641  0.012523987  0.012122512         3951 
 3003000   0.77378874   -9.2801993    451.59286  0.012531714  0.012116631         3950 
 3004000   0.76487869   -9.2836628    452.27272  0.012546402  0.012110749         3946 
 3005000   0.77174379   -9.2983704    451.30316   0.01251534  0.012104872         3938 
 3006000   0.75444685   -9.2769565    450.89598  0.012499889  0.012099004         3950 
 3007000   0.77588962   -9.2890512    451.82935  0.012521598   0.01209314         3949 
 3008000    0.7625447   -9.2987685    451.54104  0.012509448  0.012087277         3951 
 3009000   0.75782034   -9.2673002    451.09834   0.01249303  0.012081415         3957 
 3010000   0.77338367   -9.2900429    450.74836  0.012479191  0.012075556         3933 
 3011000   0.78058045   -9.2960982     450.3679  0.012464516  0.012069704         3957 
 3012000   0.77419403   -9.3017237    451.13022  0.012481469  0.012063864         3948 
 3013000   0.77765104   -9.2839018    451.71425   0.01249348  0.012058023         3945 
 3014000   0.76552188   -9.2983406    450.44934  0.012454361  0.012052179         3946 
 3015000   0.76794607   -9.2802056    450.64307  0.012455585  0.012046348         3941 
 3016000    0.7710254   -9.3038136    451.40829  0.012472599  0.012040506         3959 
 3017000   0.75790157   -9.3200184     450.2926  0.012437648  0.012034668         3937 
 3018000   0.76478317   -9.3038848     450.6124  0.012442357  0.012028839         3963 
 3019000   0.77496796   -9.2826152    450.40856  0.012432609  0.012023011         3935 
 3020000    0.7566282   -9.2921722    450.42457  0.012428934  0.012017191         3956 
 3021000   0.76828341   -9.2821372    450.91525  0.012438355  0.012011367         3954 
 3022000   0.76586976    -9.287553    451.07914  0.012438759  0.012005548         3955 
 3023000   0.76556943   -9.3057567    450.00073  0.012404916  0.011999732         3949 
 3024000   0.77100941   -9.3261961    450.78968  0.012422555  0.011993921         3950 
 3025000   0.77895269    -9.296895    451.53459  0.012438969  0.011988117         3949 
 3026000   0.75955941    -9.324339    450.48134  0.012405853  0.011982302         3955 
 3027000   0.76582157   -9.3268678    451.57382  0.012431831  0.011976496         3948 
 3028000   0.75634399   -9.2861997    451.03168  0.012412805  0.011970697         3936 
 3029000   0.76710754   -9.3029765     450.8034  0.012402427  0.011964891         3951 
 3030000   0.76452854   -9.2833869    450.51305  0.012390348  0.011959102         3955 
 3031000   0.77824648   -9.3036143     451.1102  0.012402678  0.011953304         3940 
 3032000   0.75164057   -9.3136168    450.43584  0.012380053  0.011947509         3940 
 3033000   0.76933073   -9.3040182    451.42338  0.012403104  0.011941731         3955 
 3034000   0.78793552   -9.2986248    450.71679  0.012379609  0.011935951         3953 
 3035000   0.77410857   -9.2992366    449.84498  0.012351592  0.011930173         3961 
 3036000   0.77072455   -9.3129501    450.54754  0.012366808  0.011924403         3960 
 3037000   0.77629594   -9.2888584    451.27919  0.012382812  0.011918635         3942 
 3038000   0.77426497    -9.300408    450.74248  0.012364014  0.011912866         3955 
 3039000   0.76782668   -9.3142165    450.04471  0.012340812   0.01190711         3965 
 3040000   0.75620108   -9.2985683    450.82726  0.012358203  0.011901355         3957 
 3041000   0.75505409   -9.3029023    450.31487  0.012340098  0.011895597         3927 
 3042000   0.78181793   -9.2960151    451.07595  0.012356891  0.011889851         3941 
 3043000   0.75809286   -9.2824645    450.90473  0.012348141  0.011884104         3945 
 3044000   0.77575949   -9.2988254     450.8798  0.012343402  0.011878356         3967 
 3045000   0.75993124    -9.299034    450.47164  0.012328178  0.011872619         3945 
 3046000   0.77517341   -9.3202182    450.08026  0.012313424  0.011866877         3956 
 3047000   0.76663389   -9.2845719    450.15803  0.012311509  0.011861141         3942 
 3048000   0.77180726   -9.3021577    450.71306  0.012322645  0.011855406         3955 
 3049000   0.77439848   -9.3146702    450.75592  0.012319775  0.011849671         3935 
 3050000   0.76798228   -9.3134562    450.27214  0.012302518  0.011843946         3955 
 3051000   0.77576484   -9.3325615    450.31145  0.012299559  0.011838226         3952 
 3052000   0.77508076   -9.2995239    451.81787  0.012336661  0.011832511         3948 
 3053000   0.75823419   -9.3154811    450.69855  0.012302068  0.011826789         3940 
 3054000   0.76526865   -9.3050865    450.53935  0.012293696  0.011821078         3956 
 3055000   0.76453218   -9.3134171    451.62498  0.012319285  0.011815376         3941 
 3056000   0.78115764   -9.3006985    451.53894  0.012312907  0.011809675         3948 
 3057000   0.75524532   -9.3156995    450.43187  0.012278701  0.011803976         3957 
 3058000   0.77958152   -9.3327516    450.58096  0.012278749  0.011798277         3961 
 3059000   0.77150739   -9.3108211    451.29483  0.012294182  0.011792579         3954 
 3060000    0.7768672   -9.2930988    450.98746  0.012281794  0.011786885         3957 
 3061000   0.77594829   -9.3026761    451.53587  0.012292711  0.011781199         3963 
 3062000   0.78605009   -9.3083192    451.11181  0.012277156  0.011775516         3957 
 3063000   0.78030581   -9.3224126      451.109  0.012273071  0.011769837         3954 
 3064000   0.74540964   -9.3090437    451.36673  0.012276075  0.011764156         3949 
 3065000   0.75911942   -9.2996876     450.4666  0.012247596  0.011758475         3960 
 3066000   0.76586575   -9.3027897    451.01327   0.01225846  0.011752802         3964 
 3067000   0.76546153   -9.2944723     451.7854  0.012275443  0.011747131         3959 
 3068000   0.77587067    -9.313602    450.53601  0.012237506  0.011741463         3949 
 3069000   0.77605071   -9.3139364    450.49387  0.012232374  0.011735795         3952 
 3070000   0.76289577   -9.3094776    451.20831  0.012247783  0.011730133         3956 
 3071000   0.75326871     -9.31373    450.41917  0.012222381  0.011724467         3948 
 3072000   0.74151165   -9.3236107    450.40174  0.012217929  0.011718808         3953 
 3073000   0.76650283   -9.2963963    450.76362  0.012223767  0.011713151         3933 
 3074000   0.77299339   -9.3019121    450.50314  0.012212729  0.011707508         3958 
 3075000   0.75103318   -9.3129709    450.49284  0.012208478  0.011701863         3955 
 3076000   0.75556385   -9.3170424    449.87922  0.012187885  0.011696221         3949 
 3077000   0.74902914   -9.3195391    450.35938  0.012196928  0.011690584         3956 
 3078000   0.77674595    -9.308534    450.77755  0.012204287  0.011684947         3954 
 3079000   0.74725911   -9.3112113    450.76506  0.012199985  0.011679308         3951 
 3080000   0.75557148   -9.3189637     450.6569  0.012193098  0.011673678         3943 
 3081000   0.74480602   -9.3274373    450.61419  0.012187985  0.011668045         3956 
 3082000   0.75599143   -9.3238656    450.92282  0.012192376  0.011662417         3956 
 3083000   0.75454867    -9.323751    450.30395  0.012171693  0.011656794         3947 
 3084000    0.7589366   -9.3253834    451.02801  0.012187311   0.01165117         3958 
 3085000   0.75733472   -9.3317966    450.55013  0.012170452  0.011645559         3946 
 3086000   0.75944954   -9.3234558    450.92045  0.012176508  0.011639945         3957 
 3087000   0.77611945   -9.3209632    450.81642  0.012169755   0.01163434         3963 
 3088000   0.75459736   -9.3312664    450.05763  0.012145338  0.011628734         3950 
 3089000   0.78643838   -9.2944575    450.53351  0.012154244  0.011623133         3956 
 3090000   0.76211023   -9.3220666    450.00753  0.012136125   0.01161754         3946 
 3091000   0.75184108   -9.3274531    450.39143  0.012142549  0.011611943         3955 
 3092000   0.75785145    -9.336303    450.78025  0.012149101  0.011606354         3946 
 3093000   0.74853314    -9.293367    451.78034  0.012172118  0.011600768         3951 
 3094000   0.74096091   -9.2981912    450.25646   0.01212714  0.011595184         3961 
 3095000    0.7588906   -9.3181306    449.95652  0.012115146  0.011589602         3959 
 3096000     0.750457    -9.336745    449.94113  0.012110819  0.011584022         3953 
 3097000   0.74905142   -9.3140266    449.60431  0.012097845  0.011578442         3952 
 3098000   0.76645333   -9.3238853    450.22748  0.012110702  0.011572867         3944 
 3099000   0.76263364   -9.2959548     450.6914   0.01211927    0.0115673         3947 
 3100000   0.76851152   -9.3139091     450.5482  0.012111511  0.011561737         3958 
 3101000   0.73737872   -9.3353861    450.44891  0.012104937  0.011556175         3952 
 3102000   0.74456401   -9.3347639     450.5871  0.012104747  0.011550614         3959 
 3103000   0.75097692   -9.3537154    450.45869  0.012097397  0.011545056         3954 
 3104000   0.75090149   -9.3236336    450.47166  0.012093848    0.0115395         3970 
 3105000   0.75277671   -9.3181506    450.21031  0.012082939  0.011533949         3954 
 3106000   0.75578024   -9.3201644    450.33639  0.012082432  0.011528406         3946 
 3107000   0.76101148   -9.3431345    450.61846  0.012086108  0.011522864         3956 
 3108000   0.74845455   -9.3451687    450.55851  0.012080612   0.01151733         3933 
 3109000   0.77723261   -9.3312374    449.84084   0.01205749  0.011511796         3957 
 3110000   0.75651545   -9.3556563    448.48144  0.012017188  0.011506255         3944 
 3111000   0.76170607   -9.3173403    450.36502  0.012063779  0.011500717         3958 
 3112000   0.74909798   -9.3275023    451.33795  0.012085956  0.011495183         3952 
 3113000    0.7568219   -9.3063154    449.75484  0.012039695  0.011489655         3960 
 3114000    0.7362076    -9.331106    450.17506  0.012047074  0.011484128         3954 
 3115000   0.75274828   -9.3364003    449.96166  0.012037498  0.011478611         3956 
 3116000   0.76167549   -9.3151839    449.86712  0.012031106  0.011473092         3949 
 3117000   0.74213982   -9.3197131    450.45995  0.012043096  0.011467574         3947 
 3118000   0.74210912   -9.3280707    450.18041  0.012031762  0.011462069         3946 
 3119000   0.75936168   -9.3488922    450.47761  0.012035845   0.01145657         3976 
 3120000   0.73827144    -9.322211    450.60972  0.012035516  0.011451069         3964 
 3121000   0.75711125   -9.3117444    451.15152  0.012046126  0.011445572         3952 
 3122000   0.74214043   -9.3429216    450.52752  0.012025612  0.011440076         3949 
 3123000   0.73836004   -9.3286482    450.10535  0.012010496  0.011434585         3964 
 3124000    0.7399928   -9.3455553    450.37184   0.01201376  0.011429094         3946 
 3125000   0.76637191   -9.3294321    450.26013  0.012006937  0.011423605         3953 
 3126000   0.73929202   -9.3360923    450.42295  0.012007436  0.011418118         3959 
 3127000   0.74380353   -9.3479766    450.03453  0.011993245  0.011412633         3948 
 3128000   0.74534619   -9.3301651    449.84839  0.011984452  0.011407157         3942 
 3129000   0.76428839   -9.3284128    449.98039  0.011984137  0.011401684         3961 
 3130000   0.75178202   -9.3466334    450.35585  0.011990305  0.011396218         3946 
 3131000   0.74994404   -9.3196761    451.00139  0.012003657  0.011390748         3948 
 3132000   0.76568441   -9.3271114    450.31005  0.011981429   0.01138528         3954 
 3133000   0.74497661   -9.3287272    449.15043  0.011946761  0.011379817         3957 
 3134000   0.75254282   -9.3289872    450.94415  0.011990644  0.011374359         3943 
 3135000   0.74441886   -9.3305762    450.46035  0.011973959  0.011368895         3962 
 3136000   0.74356092   -9.3389104    448.81121  0.011926318  0.011363451         3972 
 3137000    0.7633732   -9.3340103    450.89799  0.011977951  0.011358001         3954 
 3138000   0.74459893   -9.3139762     450.4732  0.011962853  0.011352558         3939 
 3139000   0.76813606    -9.339533    450.15124  0.011950495  0.011347114         3940 
 3140000   0.75716828   -9.3673604    450.19852  0.011947944  0.011341673         3957 
 3141000   0.74307796   -9.3278236    451.24089  0.011971795  0.011336236         3946 
 3142000   0.75067845   -9.3231811    450.15941  0.011939301  0.011330804         3951 
 3143000   0.76669816   -9.3448212    449.86187  0.011927614  0.011325373         3962 
 3144000   0.74363178   -9.3391126    449.82291  0.011922787  0.011319934         3949 
 3145000    0.7480497   -9.3322291    450.17888  0.011928428   0.01131451         3954 
 3146000   0.74366029   -9.3223277    450.09528  0.011922422  0.011309095         3946 
 3147000   0.75494225   -9.3209787    450.20528  0.011921546  0.011303675         3959 
 3148000   0.75381924   -9.3302139    450.50821  0.011925779  0.011298258         3959 
 3149000   0.74004675   -9.3383204    449.99325  0.011908364  0.011292844         3947 
 3150000   0.74965183   -9.3222454     450.7847  0.011925521   0.01128744         3965 
 3151000   0.75250079   -9.3346152    451.13901  0.011931107  0.011282033         3943 
 3152000   0.75690035   -9.3236677    450.55133  0.011911784  0.011276632         3965 
 3153000   0.74306739   -9.3391398    449.90667  0.011890968  0.011271229         3949 
 3154000   0.74165193   -9.3409984    449.36475   0.01187288  0.011265832         3960 
 3155000   0.76698975   -9.3242436    449.38887  0.011869754  0.011260444         3959 
 3156000   0.74563321   -9.3491009     450.4533  0.011894099  0.011255057         3941 
 3157000   0.75387026   -9.3242486    450.24669  0.011884877  0.011249671         3931 
 3158000   0.73873715   -9.3205041    451.14366  0.011904783  0.011244287         3952 
 3159000   0.74395198   -9.3586815     450.1228  0.011874085  0.011238914         3948 
 3160000   0.74760008   -9.3388348    450.19815  0.011872314  0.011233539         3940 
 3161000   0.74411049   -9.3247552    450.57038  0.011878371  0.011228169         3944 
 3162000   0.74584438   -9.3262587    450.53595  0.011873707  0.011222802         3952 
 3163000   0.74376635   -9.3188485    451.03019  0.011882975  0.011217435         3949 
 3164000   0.74242734   -9.3369403     449.7497  0.011845493  0.011212074         3957 
 3165000   0.74545605   -9.3384075     449.6816  0.011839958  0.011206713         3954 
 3166000   0.75896956   -9.3428424    450.02738  0.011845319  0.011201361         3950 
 3167000   0.72462563    -9.342172    450.44952  0.011852687  0.011196008         3960 
 3168000   0.75257215   -9.3528421    449.51131  0.011824266  0.011190655         3957 
 3169000   0.75381357   -9.3471047    449.04135  0.011808177  0.011185308         3950 
 3170000   0.74249465   -9.3081524    450.56783   0.01184458  0.011179965         3935 
 3171000   0.74072306    -9.369347    449.51456  0.011813165  0.011174625         3959 
 3172000   0.75943209   -9.3453769    449.88957  0.011819293  0.011169291         3954 
 3173000    0.7555541   -9.3336067    449.68294  0.011810141  0.011163959         3961 
 3174000   0.72737213   -9.3471684    449.39312  0.011798811  0.011158626         3958 
 3175000   0.74180292   -9.3380412    450.42582    0.0118222  0.011153295         3965 
 3176000   0.73859254   -9.3447514     449.8212  0.011802613  0.011147969         3951 
 3177000   0.75010324   -9.3528088    448.85635   0.01177359  0.011142644         3953 
 3178000   0.75701405   -9.3513002      450.268  0.011806902  0.011137326         3954 
 3179000   0.74233167   -9.3516933    449.71614  0.011788721  0.011132007         3962 
 3180000   0.75193687   -9.3167277    450.06921  0.011794266    0.0111267         3951 
 3181000    0.7494118   -9.3375199     450.0434  0.011789883  0.011121392         3962 
 3182000   0.73271768   -9.3460988    449.87672  0.011781812  0.011116093         3954 
 3183000   0.74085649   -9.3445179    449.06377  0.011756827  0.011110791         3953 
 3184000   0.73263588   -9.3380769    450.44875  0.011789383  0.011105496         3952 
 3185000   0.72407404   -9.3418741    449.55935  0.011762411  0.011100199         3950 
 3186000   0.73978341   -9.3633709    449.69688  0.011762316  0.011094902         3949 
 3187000   0.73959826   -9.3498033     450.0876  0.011768842  0.011089612         3946 
 3188000   0.73788712   -9.3470626    450.38353  0.011772886   0.01108432         3956 
 3189000   0.75434709   -9.3467911    449.79433  0.011753798  0.011079041         3950 
 3190000   0.75564551   -9.3258029    450.10175  0.011758144  0.011073755         3962 
 3191000   0.72464827   -9.3373094    449.97232  0.011751079  0.011068481         3951 
 3192000   0.73039859   -9.3337823     449.9425  0.011746619  0.011063203         3951 
 3193000    0.7603326   -9.3171011    450.24894  0.011750938  0.011057935         3959 
 3194000   0.72443543   -9.3654175    449.13449  0.011718182  0.011052667         3971 
 3195000   0.72733285   -9.3595541     449.9946  0.011736948  0.011047402         3953 
 3196000   0.75229594   -9.3486684    450.03297  0.011734276  0.011042137         3956 
 3197000    0.7430058   -9.3634887    449.97988  0.011729222  0.011036873         3964 
 3198000   0.74676313   -9.3538659    450.33762  0.011734877  0.011031619         3966 
 3199000   0.75549492   -9.3407035    450.07104  0.011724264  0.011026363         3959 
 3200000   0.73604853   -9.3430902    449.18094   0.01169742  0.011021109         3949 
 3201000   0.73949719   -9.3446677    449.15843   0.01169318  0.011015868         3962 
 3202000   0.75741895   -9.3594412    450.06019  0.011712997   0.01101062         3966 
 3203000   0.73461554   -9.3864282    449.28705  0.011689225  0.011005377         3966 
 3204000   0.73845388   -9.3610362    449.33826  0.011686909  0.011000141         3962 
 3205000   0.74416462   -9.3546004    450.17099  0.011704914  0.010994904         3953 
 3206000   0.73384619   -9.3578667    449.46647  0.011682951   0.01098967         3956 
 3207000   0.74287198   -9.3431104    449.91679  0.011691009  0.010984438         3944 
 3208000   0.73555622   -9.3451621    449.88705  0.011686592  0.010979213         3958 
 3209000    0.7336915   -9.3678052    449.62438  0.011676129  0.010973986         3965 
 3210000   0.74078498   -9.3606144    449.95712   0.01168113  0.010968769         3960 
 3211000    0.7437483   -9.3354279    450.42821  0.011689718  0.010963555         3965 
 3212000   0.73382741   -9.3404328     450.3303  0.011683538  0.010958344         3954 
 3213000   0.71678088   -9.3575916     449.2722  0.011652459  0.010953134         3952 
 3214000   0.74838046   -9.3714599    450.04838  0.011668958  0.010947925         3951 
 3215000   0.72284839   -9.3583647    450.03788  0.011665057  0.010942716         3953 
 3216000    0.7391272   -9.3460918      449.417  0.011645341  0.010937511         3954 
 3217000    0.7448328   -9.3493224     449.1549  0.011634932  0.010932309         3959 
 3218000   0.74167281   -9.3811674    449.09391  0.011629737  0.010927118         3961 
 3219000    0.7430421   -9.3454892    449.61635  0.011639649   0.01092193         3947 
 3220000   0.73777987   -9.3743191    449.57855  0.011635056  0.010916741         3956 
 3221000    0.7478691   -9.3632227    448.87002  0.011613112  0.010911559         3952 
 3222000   0.73864004   -9.3588465    449.51399  0.011626164  0.010906378         3968 
 3223000   0.74270052   -9.3750651    449.05648  0.011610727  0.010901196         3958 
 3224000   0.73049051     -9.33665    449.98789  0.011631201  0.010896018         3960 
 3225000   0.73543098   -9.3760323    449.55819  0.011616491  0.010890839         3957 
 3226000   0.73707341   -9.3509243    449.34781  0.011607455   0.01088567         3947 
 3227000   0.72686373   -9.3654634    449.55156   0.01160912  0.010880503         3959 
 3228000   0.75146915   -9.3884706    449.19063  0.011596206  0.010875339         3957 
 3229000   0.73872144   -9.3477123    449.23485  0.011593756  0.010870177         3959 
 3230000   0.73217952   -9.3598101     449.5616  0.011598596  0.010865021         3960 
 3231000   0.72999887   -9.3504014    450.13278  0.011609739  0.010859872         3961 
 3232000   0.75699244   -9.3432969    449.56438  0.011591491  0.010854722         3962 
 3233000   0.73984523   -9.3793097    449.71982  0.011591912  0.010849581         3960 
 3234000   0.72647238   -9.3644197    449.16935  0.011574143  0.010844431         3963 
 3235000   0.73952763    -9.351228     450.2218  0.011597676  0.010839289         3957 
 3236000   0.73205109    -9.377572    449.47259  0.011574799  0.010834148         3963 
 3237000   0.72468765   -9.3679982    448.91358  0.011556832  0.010829014         3947 
 3238000   0.74891073   -9.3506447    449.26228  0.011562237  0.010823881         3954 
 3239000   0.74746944   -9.3615761    449.34002  0.011560667  0.010818747         3972 
 3240000   0.72299795   -9.3560239    449.26226  0.011555099  0.010813625         3960 
 3241000   0.73771901   -9.3425373    450.36618  0.011579918  0.010808507         3956 
 3242000   0.73947454   -9.3479605    450.79656  0.011587409  0.010803389         3945 
 3243000   0.75795101   -9.3520367    450.08517  0.011565556  0.010798274         3969 
 3244000   0.73061053    -9.347481    450.21241  0.011565259  0.010793163         3932 
 3245000   0.72134532   -9.3772243    449.63416  0.011546845  0.010788048         3963 
 3246000   0.73788227   -9.3662388    448.78757  0.011521554   0.01078294         3959 
 3247000    0.7450343   -9.3716592    449.39372  0.011533562  0.010777837         3954 
 3248000   0.72512522   -9.3830604    450.46908  0.011557602  0.010772736         3950 
 3249000   0.73296316   -9.3560468     450.4786  0.011554289  0.010767637         3952 
 3250000   0.71805606   -9.3687335    449.55247  0.011526986  0.010762544         3963 
 3251000   0.74005368   -9.3605967    449.66544  0.011526337  0.010757449         3950 
 3252000   0.72860068    -9.354476    449.75853  0.011525178   0.01075236         3951 
 3253000   0.73137596   -9.3671338    449.11763  0.011505217  0.010747278         3961 
 3254000   0.72574528   -9.3691542     449.1853  0.011503414  0.010742197         3956 
 3255000   0.74080388   -9.3577341    449.98999  0.011520481  0.010737119         3951 
 3256000   0.72655568   -9.3821564    450.00317   0.01151728   0.01073204         3955 
 3257000   0.71197568   -9.3778983    450.25033  0.011520068  0.010726965         3951 
 3258000   0.72809304   -9.3604564    449.46295  0.011496392   0.01072189         3943 
 3259000   0.71432242    -9.365616    448.65397  0.011472179  0.010716816         3963 
 3260000   0.71719586   -9.3545077     448.4689  0.011463929  0.010711754         3966 
 3261000   0.72424291   -9.3803139    448.13933  0.011451991  0.010706691         3959 
 3262000     0.749518   -9.3838386    449.89467  0.011493324  0.010701633         3955 
 3263000   0.72959428   -9.3871365    448.21985  0.011447029  0.010696576         3956 
 3264000   0.73442993   -9.3733943    449.42716  0.011474345  0.010691528         3969 
 3265000    0.7175738   -9.3570392    449.31686  0.011468016  0.010686484         3944 
 3266000   0.73238162    -9.355221    449.88207  0.011478926  0.010681443         3950 
 3267000   0.70970658   -9.3621215    449.17207  0.011457302  0.010676405         3953 
 3268000   0.73578773   -9.3362495    450.07636  0.011476855  0.010671366         3937 
 3269000    0.7416495   -9.3538098    449.50979  0.011458902  0.010666325         3958 
 3270000   0.71875795   -9.3907617    448.85097  0.011438608  0.010661289         3957 
 3271000   0.72705175   -9.3723277    449.50813  0.011451853  0.010656253         3951 
 3272000   0.72499791   -9.3652647    449.69547  0.011453124  0.010651224         3947 
 3273000   0.74532876   -9.3561585    449.33795  0.011440522  0.010646195         3950 
 3274000   0.72859653   -9.3705229    449.15237  0.011432304  0.010641167         3973 
 3275000   0.72246515   -9.3582324    449.73284  0.011443584   0.01063615         3952 
 3276000   0.72186204   -9.3815791    449.55135  0.011435474  0.010631126         3965 
 3277000   0.72961694   -9.3509521    449.84301  0.011439401  0.010626115         3961 
 3278000   0.72570908   -9.3875743    449.74871  0.011433514  0.010621108         3954 
 3279000   0.73389621    -9.384563    448.30861  0.011393428  0.010616098         3976 
 3280000   0.71447063   -9.3354711    449.75974  0.011426823  0.010611088         3951 
 3281000   0.73665735   -9.3453209    449.65573  0.011420698   0.01060609         3955 
 3282000   0.72212255   -9.3670118    449.74619  0.011419515  0.010601089         3960 
 3283000   0.72716503   -9.3636787    449.46439  0.011408884  0.010596091         3955 
 3284000   0.73413309   -9.3857658    449.19439  0.011398558  0.010591099         3952 
 3285000   0.72793327   -9.3601834    449.90903  0.011413217   0.01058611         3940 
 3286000   0.72341781   -9.3579188    449.18053  0.011391269  0.010581126         3954 
 3287000   0.73980373   -9.3604306    449.97494  0.011407944  0.010576146         3949 
 3288000   0.72809877   -9.3805023     449.1409  0.011383336  0.010571162         3957 
 3289000   0.71808123   -9.3823237     449.3057   0.01138405  0.010566186         3967 
 3290000   0.74641862   -9.3802076    449.14762  0.011376586   0.01056121         3961 
 3291000   0.71512091   -9.3719512    449.36006  0.011378508   0.01055624         3962 
 3292000   0.72577786   -9.3780429    449.20628  0.011371159  0.010551274         3949 
 3293000   0.72479687   -9.3848779    448.80645  0.011357588  0.010546309         3954 
 3294000   0.72046152   -9.3600698    450.11564  0.011387261  0.010541345         3951 
 3295000   0.73336966   -9.3865582    449.43138  0.011366499  0.010536384         3955 
 3296000   0.71753285   -9.3721291    449.23022  0.011357965  0.010531427         3960 
 3297000   0.73021351   -9.3871763     449.5152  0.011361723  0.010526472         3960 
 3298000   0.71348719   -9.3680827    449.41402  0.011355721   0.01052152         3965 
 3299000   0.73526513   -9.3527147    449.77059  0.011361286  0.010516571         3949 
 3300000   0.72712909   -9.3719366    449.85642  0.011360011  0.010511626         3958 
 3301000   0.71659064   -9.3389774    449.36855  0.011344253  0.010506686         3956 
 3302000   0.73674946   -9.3775854      449.135  0.011334923  0.010501745         3962 
 3303000   0.73109956   -9.3784986    449.72548  0.011346389  0.010496811         3963 
 3304000   0.73204079   -9.3557543    449.55596  0.011338679  0.010491874         3947 
 3305000   0.71117689   -9.3934777    449.32458  0.011329415  0.010486944         3960 
 3306000   0.73173979   -9.3707558    449.83131  0.011338761  0.010482017         3959 
 3307000   0.72721015   -9.3777171    450.22754  0.011345316  0.010477096         3959 
 3308000   0.72472649   -9.3852044    449.24537  0.011317144  0.010472178         3966 
 3309000   0.73431155   -9.3871522    448.31175  0.011290212  0.010467253         3966 
 3310000   0.71836788   -9.3693491    448.40065   0.01128904  0.010462341         3949 
 3311000   0.71478339   -9.3767578    449.41977   0.01131128  0.010457426         3972 
 3312000   0.71332829   -9.3916572    448.73038  0.011290519  0.010452513         3957 
 3313000   0.72112281   -9.3832084    448.42247  0.011279366  0.010447603         3962 
 3314000   0.73002498   -9.3814268    448.80156  0.011285495  0.010442703         3961 
 3315000   0.72144554   -9.3890577    448.83335   0.01128289  0.010437798         3956 
 3316000   0.70633681    -9.384811    449.92537   0.01130693  0.010432905         3961 
 3317000   0.71890958   -9.3868372    449.49708  0.011292762  0.010428008         3959 
 3318000   0.71544857   -9.3859396     449.7874  0.011296649  0.010423113         3962 
 3319000   0.71841653   -9.3660114    449.50706  0.011286207   0.01041822         3964 
 3320000   0.71068064   -9.3942253    448.92304  0.011268149  0.010413328         3953 
 3321000   0.70982183    -9.343743    449.39729  0.011276656  0.010408442         3948 
 3322000   0.72141341   -9.3657545    449.03087   0.01126407  0.010403557         3959 
 3323000   0.70186123   -9.4099344    448.99955  0.011259894  0.010398677         3956 
 3324000   0.72008552   -9.3765118    448.47023  0.011243237  0.010393794         3949 
 3325000   0.72427477   -9.4059416    448.70663   0.01124578  0.010388924         3950 
 3326000   0.72411443   -9.3718318    449.34607   0.01125842  0.010384053         3951 
 3327000   0.71493356   -9.3633251    448.88194  0.011243411  0.010379188         3953 
 3328000   0.71390351   -9.3760988     449.0343  0.011243848  0.010374325         3953 
 3329000   0.72052719   -9.3776281    449.75802  0.011258587  0.010369465         3953 
 3330000    0.7174941   -9.3732698    449.19138  0.011241026  0.010364609         3968 
 3331000   0.72253007   -9.3677613    449.30289  0.011240441  0.010359752         3964 
 3332000    0.7229231   -9.3977006    448.84569  0.011225633  0.010354897         3961 
 3333000   0.71526559   -9.4043052    448.08089  0.011203143  0.010350045         3964 
 3334000   0.71125045   -9.3960361    448.33266  0.011206075  0.010345192         3956 
 3335000   0.70274134   -9.3758117    449.03701  0.011220315  0.010340346         3957 
 3336000   0.70549554    -9.402676    449.57272  0.011230334  0.010335508         3941 
 3337000   0.70972584   -9.3864578    449.27325   0.01121949  0.010330667         3953 
 3338000   0.71674197   -9.3865204    448.67227  0.011201125   0.01032583         3962 
 3339000   0.71490287   -9.3909478    448.43525  0.011191855  0.010320994         3968 
 3340000   0.71024497    -9.379321    449.51231  0.011215377  0.010316158         3955 
 3341000   0.72968201   -9.3859112    449.11723  0.011202166  0.010311329         3945 
 3342000   0.71645541   -9.3758822    449.18365   0.01120047  0.010306506         3953 
 3343000   0.71344154   -9.3637934    449.36053  0.011201529  0.010301683         3946 
 3344000   0.73518986   -9.3884371    448.80975  0.011184454  0.010296862         3963 
 3345000   0.72935072   -9.3754919    449.93161  0.011209059  0.010292044         3958 
 3346000   0.71288037   -9.3993709    448.93687  0.011180934  0.010287232         3958 
 3347000   0.72741616   -9.3809133    448.64469  0.011170319  0.010282426         3959 
 3348000   0.70902212    -9.404043    449.31979  0.011183786  0.010277621         3963 
 3349000   0.70775339   -9.3668361    449.14204  0.011176024  0.010272816         3964 
 3350000   0.71185681   -9.3719105    449.51611  0.011181993  0.010268016         3966 
 3351000   0.72407637   -9.3830533     449.3666  0.011174938  0.010263218         3960 
 3352000   0.70319249   -9.3921077    448.95793  0.011161444  0.010258422         3973 
 3353000   0.70240449   -9.3741932    448.98197  0.011158713  0.010253628         3963 
 3354000   0.71468862   -9.3818565    449.83751  0.011176643  0.010248839         3945 
 3355000   0.70391144   -9.3915647    448.85484  0.011148903  0.010244053         3961 
 3356000   0.71512742   -9.3977718    449.29201  0.011156436  0.010239269         3968 
 3357000   0.70959228   -9.3782398    449.26766  0.011152509  0.010234486         3958 
 3358000   0.69231956   -9.3812322    448.68054  0.011134617  0.010229711         3951 
 3359000   0.70838788   -9.3959105    448.45615  0.011125736  0.010224938         3945 
 3360000   0.72597108   -9.3727057    449.20363  0.011140963  0.010220161         3963 
 3361000   0.71276344   -9.3765914    449.39892   0.01114249  0.010215393         3935 
 3362000   0.71982754   -9.3727702    449.18792  0.011133946  0.010210625         3967 
 3363000    0.7097793   -9.4137519    448.07657  0.011103097   0.01020586         3961 
 3364000   0.70824037   -9.3861986    449.59365  0.011137377  0.010201102         3946 
 3365000   0.70674588   -9.3912029    449.14855  0.011123045   0.01019634         3962 
 3366000   0.71329211   -9.3685576    449.41273  0.011126281   0.01019159         3955 
 3367000   0.71096127   -9.3747583    448.90075  0.011110305  0.010186835         3954 
 3368000   0.71773066   -9.4069528    448.68707  0.011101719  0.010182088         3961 
 3369000   0.70563646   -9.4020318    448.86526  0.011102831  0.010177335         3967 
 3370000   0.71315092    -9.391313    449.13048  0.011106095  0.010172593         3951 
 3371000   0.72022357   -9.3989598    448.61278  0.011090002  0.010167854         3948 
 3372000     0.712836   -9.3955524    448.37325  0.011080794  0.010163114         3963 
 3373000   0.71260836   -9.3578661    449.66296  0.011109372  0.010158384         3965 
 3374000    0.7168276    -9.388601    448.81318  0.011085091  0.010153652         3951 
 3375000   0.72317496   -9.4189957    447.86264  0.011058337  0.010148925         3953 
 3376000   0.69274325   -9.3987258    449.16622  0.011087239  0.010144201         3957 
 3377000   0.72677007    -9.396489    448.25526  0.011061476  0.010139476         3943 
 3378000   0.71516864   -9.3766711    448.92384  0.011074695  0.010134757         3957 
 3379000   0.73399772   -9.4114799    448.48548  0.011060607  0.010130039         3938 
 3380000   0.70275984   -9.3842991    449.19467  0.011074819   0.01012532         3967 
 3381000   0.70509479   -9.4050648    448.95553   0.01106565   0.01012061         3973 
 3382000   0.73014865   -9.4078552    449.74192  0.011081754  0.010115901         3959 
 3383000   0.71315396   -9.3732366    449.25456  0.011066473  0.010111195         3956 
 3384000   0.70420196   -9.3900632    449.74012  0.011075161  0.010106491         3955 
 3385000   0.70886189   -9.4002299    448.92451   0.01105181  0.010101784         3960 
 3386000    0.7087331   -9.3907146    448.89971  0.011047935  0.010097085         3959 
 3387000   0.70231836   -9.4004689    448.99736  0.011047076  0.010092397         3961 
 3388000   0.71300306   -9.3976969    449.45471  0.011055065  0.010087707         3957 
 3389000    0.7148821   -9.4019263    448.81173  0.011035992   0.01008301         3968 
 3390000   0.69774891   -9.3993479    448.58208  0.011027091  0.010078327         3952 
 3391000   0.71782305   -9.3968018    448.75381   0.01102806  0.010073646         3952 
 3392000   0.71560944   -9.3917291    447.93256  0.011004632  0.010068966         3971 
 3393000    0.7204834   -9.3863901    448.00312  0.011003122  0.010064288         3958 
 3394000   0.70352441   -9.4076916    448.89308  0.011021731  0.010059614         3963 
 3395000   0.71500021   -9.3972229    448.83643  0.011017094  0.010054942         3969 
 3396000   0.71584733   -9.4207093     449.3209  0.011025739  0.010050273         3957 
 3397000   0.71022353   -9.3966751    448.58551  0.011004453  0.010045601         3956 
 3398000   0.70253727   -9.3978725    448.12979  0.010990038  0.010040936         3964 
 3399000   0.69522192   -9.4068773     448.0274  0.010984294  0.010036271         3966 
 3400000   0.69732152   -9.3916631    449.87706  0.011026399  0.010031614         3948 
 3401000   0.70858853   -9.4136586    448.66784  0.010993527  0.010026956         3966 
 3402000   0.72028652   -9.3853516    448.39302  0.010983564  0.010022299         3949 
 3403000   0.70258463   -9.3849425    448.93889  0.010993704  0.010017646         3946 
 3404000   0.70574674   -9.4018877    448.52293  0.010980291  0.010012993         3947 
 3405000   0.69757347   -9.4294869    448.18793  0.010968868  0.010008345         3947 
 3406000   0.70431241    -9.416537    448.72814  0.010978864  0.010003697         3963 
 3407000   0.69414518   -9.3650776    449.33201  0.010990412 0.0099990555         3954 
 3408000   0.70479112   -9.3963485    448.58575  0.010968939  0.009994422         3961 
 3409000   0.69941947   -9.3997293    448.81329  0.010971284 0.0099897894         3961 
 3410000    0.7046167   -9.3948127    447.69052  0.010940629 0.0099851599         3935 
 3411000   0.70270538   -9.4215081    448.99963  0.010969404 0.0099805318         3954 
 3412000   0.69803825    -9.415232    448.19989  0.010946656 0.0099759005         3929 
 3413000   0.71438909   -9.4106139    449.04812   0.01096416 0.0099712764         3961 
 3414000   0.72643585   -9.3983505    448.13691  0.010938706 0.0099666496         3958 
 3415000   0.70827682   -9.3910612    449.35687  0.010965273 0.0099620284         3958 
 3416000   0.71742799   -9.4143984    448.44248  0.010939756 0.0099574079         3942 
 3417000   0.69900935   -9.4160393    448.58762  0.010940094 0.0099527909         3965 
 3418000   0.69076839   -9.4061534     449.1283  0.010950075 0.0099481782         3958 
 3419000   0.72161746   -9.4192051    448.46592  0.010930728 0.0099435728         3955 
 3420000   0.71510783   -9.3926081    448.63131  0.010931562 0.0099389667         3965 
 3421000   0.70117813   -9.4328835    448.90521  0.010935039  0.009934362         3970 
 3422000   0.71424564    -9.403526    448.01969  0.010910279 0.0099297569         3949 
 3423000   0.69644736   -9.4218268    447.89923  0.010904159   0.00992516         3959 
 3424000   0.70063835   -9.3958878    448.04962  0.010904634 0.0099205631         3956 
 3425000   0.70474387   -9.4364156    447.95381   0.01089912 0.0099159722         3965 
 3426000   0.68873543   -9.3996671    448.17123  0.010901227 0.0099113785         3961 
 3427000   0.70945968    -9.426754    448.49163  0.010905837 0.0099067895         3962 
 3428000   0.71002875   -9.4035118    448.83322  0.010910959 0.0099022002         3953 
 3429000   0.69877024   -9.4177335    447.50116  0.010875405 0.0098976142         3961 
 3430000   0.70206064   -9.4018253    448.17356  0.010888571 0.0098930286         3961 
 3431000   0.70408175   -9.4063892    448.53587  0.010894197 0.0098884432         3940 
 3432000   0.71253488   -9.4194642    448.46869  0.010889391 0.0098838659         3964 
 3433000   0.70274683   -9.3946199    449.61196  0.010913971 0.0098792916         3955 
 3434000   0.71250421   -9.4061066    448.18673  0.010876207 0.0098747223         3973 
 3435000   0.70255913   -9.3704071    449.22017  0.010898112 0.0098701556         3939 
 3436000   0.70391431   -9.4191016    448.21619  0.010870591 0.0098655927         3953 
 3437000   0.68088506   -9.4105198    448.90492  0.010884127 0.0098610337         3959 
 3438000    0.7063462   -9.4036764    448.42897  0.010869424 0.0098564711         3962 
 3439000   0.69405792    -9.431799    447.95345  0.010854741 0.0098519112         3970 
 3440000    0.7100041   -9.4231903    448.09563   0.01085503 0.0098473516         3956 
 3441000   0.70300071   -9.4255086    448.65583  0.010865442 0.0098427996         3963 
 3442000   0.70945807   -9.4167669    448.49588  0.010858413 0.0098382481         3959 
 3443000   0.70183384   -9.3967707    448.92358  0.010865611  0.009833698         3938 
 3444000   0.70179666   -9.4135363    447.56688  0.010829628 0.0098291557         3969 
 3445000   0.70109313   -9.4117755    448.33329  0.010845024 0.0098246112         3951 
 3446000   0.69534411   -9.3978378    448.21476   0.01083901   0.00982007         3944 
 3447000   0.69354476   -9.4265079    449.06049  0.010856312 0.0098155341         3959 
 3448000   0.69706487    -9.384691    448.53386  0.010840436 0.0098110001         3953 
 3449000   0.69270149    -9.409035    448.53731  0.010837376 0.0098064677         3959 
 3450000   0.68757676   -9.4133479    448.28671  0.010828181 0.0098019402         3952 
 3451000    0.6939833   -9.4148614    448.53075  0.010830937 0.0097974127         3958 
 3452000   0.70941053    -9.389852    449.12466  0.010842136 0.0097928957         3957 
 3453000   0.71416822   -9.4168796      448.271  0.010818395 0.0097883735         3956 
 3454000   0.69026576   -9.4292547    448.04064  0.010809705 0.0097838539         3954 
 3455000    0.6905688   -9.4064827    447.87583  0.010802601 0.0097793366         3957 
 3456000   0.69466984   -9.4026552    449.56422  0.010840187 0.0097748226         3966 
 3457000   0.70744712   -9.4096188    448.86417  0.010820176 0.0097703137         3958 
 3458000   0.71559218   -9.4478633      448.768  0.010814729 0.0097658112         3961 
 3459000   0.68981331   -9.4192556    448.83626  0.010813247 0.0097613013         3953 
 3460000    0.6831151   -9.4304676    448.22813  0.010795475 0.0097567975         3946 
 3461000   0.69309362   -9.4127689    448.09939  0.010789256 0.0097522967         3962 
 3462000   0.69779701   -9.4049666    448.70647  0.010800753 0.0097478007         3961 
 3463000   0.69527965   -9.4063851    448.03553  0.010781488 0.0097433047         3950 
 3464000   0.70752606   -9.4314362    448.18632  0.010782004 0.0097388087         3959 
 3465000   0.69737025   -9.3933113    448.67692  0.010790691 0.0097343178         3962 
 3466000   0.71268178   -9.4191906    447.61974  0.010762159 0.0097298248         3966 
 3467000   0.69917583   -9.4347914    448.59504  0.010782498  0.009725344         3951 
 3468000   0.68476806   -9.4074342    448.19402  0.010769753 0.0097208609         3968 
 3469000   0.69655969   -9.4075636    448.50571  0.010774135 0.0097163805         3964 
 3470000   0.69639211   -9.4445738    448.67461  0.010775087 0.0097119045         3968 
 3471000   0.70207162   -9.4261499    448.60401  0.010770287 0.0097074261         3959 
 3472000   0.69917899    -9.401841    449.11778  0.010779517 0.0097029536         3953 
 3473000   0.69283242    -9.415475    447.89676  0.010747115 0.0096984876         3968 
 3474000   0.70988027   -9.4019017    447.96175   0.01074558  0.009694018         3958 
 3475000   0.69610248   -9.4183172    449.29042  0.010774351 0.0096895557         3961 
 3476000   0.70550489   -9.4330893    447.83788  0.010736428 0.0096850942         3958 
 3477000   0.69824377   -9.4160421    447.53485  0.010726077   0.00968063         3965 
 3478000   0.69579966   -9.4376311    448.79658  0.010753225  0.009676171         3956 
 3479000   0.71747779   -9.4248545    449.50659  0.010767141 0.0096717198         3961 
 3480000    0.6930206   -9.4074384    448.22219   0.01073329 0.0096672699         3960 
 3481000   0.68546711   -9.4379957    447.86196  0.010721583 0.0096628157         3960 
 3482000   0.69628414   -9.4278635     448.0588  0.010723215 0.0096583698         3964 
 3483000   0.69460656   -9.4354183    448.24862  0.010724677  0.009653925         3948 
 3484000    0.6921708   -9.4274672    448.24162  0.010721432 0.0096494835         3965 
 3485000   0.71175041   -9.4333841    448.33223  0.010720522 0.0096450453         3955 
 3486000   0.70576598   -9.4372191    448.03635  0.010710374 0.0096406098         3961 
 3487000   0.69321889    -9.425041    447.97086  0.010705737 0.0096361754         3967 
 3488000   0.66445934   -9.4465635    447.73791  0.010697102 0.0096317381         3959 
 3489000   0.70293593   -9.4492873    448.22496  0.010705669 0.0096273074         3956 
 3490000   0.68694716   -9.4297286    448.23277  0.010702788 0.0096228763         3957 
 3491000   0.69551258    -9.425656    448.14261   0.01069757 0.0096184531         3971 
 3492000   0.70111153   -9.4331923    447.66393  0.010683083  0.009614037         3963 
 3493000   0.69230651   -9.4551448    447.92102  0.010686159  0.009609614         3968 
 3494000   0.69326235   -9.4332434    448.47711  0.010696363 0.0096051969         3963 
 3495000   0.70997127   -9.4346912    447.91581  0.010679919 0.0096007794         3954 
 3496000    0.6798474   -9.4240368    447.50526  0.010667078 0.0095963677         3963 
 3497000   0.70391889   -9.4334374    447.45821  0.010662907 0.0095919586         3958 
 3498000   0.69914789   -9.4373758    447.80899  0.010668215 0.0095875476         3966 
 3499000   0.68669069   -9.4540361    447.75356  0.010663846 0.0095831417         3959 
 3500000   0.69824971   -9.4180993    447.89491  0.010664165 0.0095787394         3960 
 3501000   0.67632713   -9.4385366    447.54057  0.010652684 0.0095743408         3958 
 3502000   0.69746799   -9.4189364    448.45505  0.010671403 0.0095699409         3971 
 3503000    0.6747385   -9.4205421    448.37832  0.010666532 0.0095655493         3965 
 3504000   0.69999865   -9.4478413    447.95058  0.010653315 0.0095611577         3970 
 3505000   0.69777584   -9.4308716    446.82784  0.010623582 0.0095567709         3963 
 3506000    0.6938082   -9.4448105    447.58547  0.010638559 0.0095523909         3953 
 3507000   0.67744089   -9.4235279    447.72556  0.010638855 0.0095480109         3964 
 3508000   0.67871791   -9.4351787    447.90361  0.010640052 0.0095436322         3959 
 3509000   0.69411952   -9.4349208    447.70705  0.010632351 0.0095392564         3963 
 3510000   0.70031729   -9.4455197    447.33642  0.010620523 0.0095348797         3962 
 3511000   0.69824643   -9.4482931    448.17295  0.010637353 0.0095305067         3950 
 3512000   0.67389258   -9.4426328    447.29151  0.010613409 0.0095261373         3960 
 3513000   0.69340096   -9.4437479    447.27432   0.01060998 0.0095217695         3964 
 3514000   0.68561286   -9.4578119     448.0274   0.01062482 0.0095174027         3963 
 3515000    0.6923569   -9.4282134    448.82388   0.01064068 0.0095130427         3961 
 3516000   0.68159495   -9.4529103     447.6947  0.010610891 0.0095086826         3965 
 3517000   0.68510854   -9.4259697    447.96461  0.010614269  0.009504326         3967 
 3518000   0.69350503   -9.4436222    448.10439  0.010614563 0.0094999708         3959 
 3519000   0.69947634   -9.4472856    447.06741   0.01058699 0.0094956212         3949 
 3520000   0.69372549   -9.4266769    447.94006  0.010604642 0.0094912727         3955 
 3521000   0.68562213   -9.4370719    448.02688  0.010603685  0.009486922         3958 
 3522000   0.70163558   -9.4171799    447.98271  0.010599629 0.0094825814         3952 
 3523000    0.6828697   -9.4398506    446.94811  0.010572148 0.0094782442         3954 
 3524000   0.67576547   -9.4328029    447.91979  0.010592125 0.0094739065         3950 
 3525000   0.68148051   -9.4580379    448.78818   0.01060965 0.0094695781         3958 
 3526000   0.69150979   -9.4243047    448.58944  0.010601944 0.0094652449         3971 
 3527000   0.69512082   -9.4170755    448.59839  0.010599149 0.0094609172         3964 
 3528000   0.68765106   -9.4367217    448.10344  0.010584454 0.0094565912         3966 
 3529000   0.69206199   -9.4348681    447.57187  0.010568902 0.0094522615         3959 
 3530000   0.67950544   -9.4469013    447.36518  0.010561029 0.0094479401         3952 
 3531000   0.67658034   -9.4299161    447.96694   0.01057224 0.0094436162         3966 
 3532000   0.68679361   -9.4347491    447.80149  0.010565343 0.0094392968         3955 
 3533000   0.68469804   -9.4307445    448.54612  0.010579916 0.0094349837         3958 
 3534000    0.6854903   -9.4269282    447.64855  0.010555757 0.0094306717         3973 
 3535000   0.66641801   -9.4505455    447.45123   0.01054812 0.0094263623         3958 
 3536000   0.68361768   -9.4450848    447.82978  0.010554058 0.0094220546         3959 
 3537000   0.68606598   -9.4483428     448.1214  0.010557945 0.0094177462         3973 
 3538000   0.68401987   -9.4387479    448.06822  0.010553708 0.0094134435         3967 
 3539000   0.67354932   -9.4339069    448.36673  0.010557755  0.009409144         3953 
 3540000   0.68445397   -9.4365887    447.74741  0.010540193 0.0094048477         3964 
 3541000   0.68079924   -9.4332512    447.39393  0.010528898 0.0094005498         3955 
 3542000   0.70684279   -9.4408524    447.26884  0.010522982 0.0093962568         3958 
 3543000   0.69117948   -9.4399171    446.71137    0.0105069 0.0093919667         3965 
 3544000   0.66876896   -9.4623222    447.04273  0.010511727 0.0093876777         3966 
 3545000   0.67298997   -9.4478711    447.71878  0.010524654 0.0093833924         3962 
 3546000   0.68331477   -9.4380924    448.38833  0.010537421 0.0093791097         3968 
 3547000   0.69084298   -9.4316674    448.82155  0.010544628 0.0093748319         3971 
 3548000   0.67977742   -9.4395493    447.77205  0.010517006 0.0093705593         3945 
 3549000   0.69385273   -9.4244932    448.33877   0.01052735 0.0093662883         3966 
 3550000   0.69528648    -9.449623    448.58809  0.010530237 0.0093620177         3953 
 3551000   0.68462926   -9.4316507    447.08788  0.010492065 0.0093577517         3962 
 3552000   0.69225511   -9.4264893     447.6432   0.01050214 0.0093534834         3962 
 3553000   0.67906202   -9.4645956    448.19195  0.010512054 0.0093492171         3959 
 3554000   0.69636424   -9.4297981    448.17109  0.010508607 0.0093449565         3970 
 3555000   0.67997463   -9.4508096    447.69145  0.010494408 0.0093406936         3960 
 3556000   0.69725132   -9.4357618     447.9519   0.01049756 0.0093364355         3959 
 3557000   0.66480056   -9.4564335    447.60481  0.010486478 0.0093321834         3955 
 3558000   0.68442199   -9.4435145    448.68756   0.01050889 0.0093279312         3948 
 3559000   0.67810951   -9.4412923    447.39092  0.010475576 0.0093236799         3968 
 3560000   0.70059654   -9.4302045    448.44815  0.010497382  0.009319437         3946 
 3561000   0.69022879   -9.4463255    448.08342  0.010485899 0.0093151968         3958 
 3562000   0.67066069   -9.4421665    447.85057  0.010477507 0.0093109566         3963 
 3563000   0.68325976   -9.4298534    447.76954  0.010472671  0.009306717         3965 
 3564000   0.67096936   -9.4346995    448.43129  0.010485206 0.0093024826         3964 
 3565000   0.68092208   -9.4535051    447.94234  0.010470836 0.0092982519         3961 
 3566000    0.6899312   -9.4515644    447.81297  0.010464876 0.0092940173         3952 
 3567000    0.6825673   -9.4566534    447.19764  0.010447567 0.0092897874         3960 
 3568000   0.69120918   -9.4354685    447.78547  0.010458368 0.0092855646         3956 
 3569000   0.67222264   -9.4314275    447.53874  0.010449676 0.0092813435         3962 
 3570000   0.68245849   -9.4455398    447.67323  0.010449889 0.0092771281         3954 
 3571000   0.67160563   -9.4295988    447.63174  0.010445994 0.0092729066         3947 
 3572000   0.68521104   -9.4335667    447.26753  0.010434573 0.0092686898         3973 
 3573000   0.68674808   -9.4408469    447.19181  0.010429887 0.0092644774         3958 
 3574000    0.6691874   -9.4427544    446.87483  0.010419577  0.009260267         3958 
 3575000   0.67620275   -9.4452911    447.62082  0.010434052 0.0092560573         3951 
 3576000   0.69681021   -9.4742194    447.04916  0.010417812  0.009251851         3970 
 3577000   0.67461197   -9.4543566     447.5807  0.010427283 0.0092476484         3951 
 3578000   0.67840813    -9.460942    446.91813  0.010408937 0.0092434474         3962 
 3579000   0.67417467   -9.4593988    447.39898  0.010417225 0.0092392468         3952 
 3580000   0.67859558   -9.4494401    447.58195  0.010418574 0.0092350529         3961 
 3581000   0.66236771   -9.4478173    447.78444  0.010420377 0.0092308578         3955 
 3582000   0.69669147   -9.4545795     447.8049  0.010417944 0.0092266686         3961 
 3583000   0.68467852   -9.4555032    448.58486  0.010433177 0.0092224808         3966 
 3584000   0.67560723   -9.4795362    447.01076  0.010393665 0.0092182916         3968 
 3585000   0.67486515   -9.4553409    447.70216  0.010406838 0.0092141059         3961 
 3586000   0.67398853   -9.4537756    447.43601  0.010397751 0.0092099246         3957 
 3587000    0.6720651   -9.4543753    447.90546  0.010405758 0.0092057459         3954 
 3588000   0.67153615   -9.4608303    446.96598  0.010381038  0.009201569         3963 
 3589000   0.69374265    -9.454074    447.09412  0.010381121 0.0091973968         3964 
 3590000    0.6815249    -9.460162    447.98405  0.010398887 0.0091932261         3945 
 3591000   0.67018999   -9.4674628    447.72596  0.010390002 0.0091890582         3962 
 3592000   0.67281541   -9.4634599    447.52452  0.010382436 0.0091848891         3973 
 3593000   0.68660307   -9.4803905    447.08716  0.010369402  0.009180728         3966 
 3594000   0.68721639   -9.4472584    446.56125  0.010354323 0.0091765641         3956 
 3595000   0.67393798   -9.4674084    447.62493  0.010376099 0.0091724018         3943 
 3596000   0.66168662   -9.4429448    447.62163  0.010373137 0.0091682462         3949 
 3597000   0.67384947   -9.4567616    447.14115  0.010359122 0.0091640937         3949 
 3598000   0.67176317   -9.4583839    447.45758  0.010363572 0.0091599486         3944 
 3599000   0.67130121   -9.4422293    447.83682  0.010369473 0.0091558015         3961 
 3600000   0.68659463   -9.4446031    447.44672  0.010357563 0.0091516539         3966 
 3601000   0.67929398   -9.4460385    447.41829  0.010354029 0.0091475101         3967 
 3602000    0.6741862   -9.4528895    447.38273  0.010350332 0.0091433682         3950 
 3603000   0.67927557   -9.4365211    447.67866  0.010354303 0.0091392335         3974 
 3604000   0.68524225   -9.4577914     447.3602  0.010344067 0.0091350973         3967 
 3605000   0.65966969   -9.4342689    448.11802  0.010358715 0.0091309643         3961 
 3606000   0.66694815   -9.4578342    448.03967  0.010354032 0.0091268345         3959 
 3607000   0.66519346   -9.4391165    447.58123   0.01034057 0.0091227057         3957 
 3608000   0.66979384   -9.4676405     446.8911  0.010321764 0.0091185764         3961 
 3609000   0.67418832   -9.4770083    446.90362  0.010319193 0.0091144555         3962 
 3610000   0.68142688   -9.4643103    447.90638  0.010339483  0.009110333         3954 
 3611000    0.6764571    -9.451172     448.3569  0.010347016 0.0091062118         3959 
 3612000   0.66171863   -9.4831232    447.53872  0.010325275 0.0091020922         3964 
 3613000    0.6702393   -9.4817361    447.63968  0.010324746 0.0090979761         3967 
 3614000   0.67454442    -9.464403    447.07589  0.010308889 0.0090938662         3962 
 3615000   0.67108979   -9.4707653    447.29347  0.010311053 0.0090897533         3959 
 3616000   0.67269668   -9.4809993    447.27541  0.010307785 0.0090856487         3971 
 3617000   0.68251676     -9.47554    446.57776  0.010288862 0.0090815437         3958 
 3618000   0.67517516   -9.4577881    447.72322  0.010312402 0.0090774409         3964 
 3619000   0.67494558   -9.4506017    447.54452  0.010305437 0.0090733375         3955 
 3620000   0.66919994    -9.450286    447.67852  0.010305675 0.0090692401         3953 
 3621000   0.66154935   -9.4749768     447.3455  0.010295165 0.0090651455         3968 
 3622000   0.66328392   -9.4627562    448.22647  0.010312591 0.0090610574         3965 
 3623000   0.67721699   -9.4637827    447.37458   0.01029015 0.0090569711         3970 
 3624000   0.67028292   -9.4725208    446.81022  0.010274334  0.009052886         3959 
 3625000   0.68345276   -9.4466062    447.77371  0.010293648 0.0090488035         3953 
 3626000    0.6676459   -9.4647344    448.14884  0.010299431 0.0090447204         3961 
 3627000   0.66689499   -9.4531676    447.63376  0.010284757 0.0090406432         3957 
 3628000   0.69530016   -9.4604366    446.96621  0.010266589 0.0090365678         3967 
 3629000   0.66874176   -9.4775023    447.17288  0.010268505 0.0090324917         3961 
 3630000   0.66782426    -9.477297    447.62363  0.010276024 0.0090284243         3965 
 3631000   0.69253797   -9.4497472    447.72609  0.010275546  0.009024351         3960 
 3632000   0.67379293   -9.4623292    446.89205   0.01025358 0.0090202846         3964 
 3633000   0.67282319   -9.4586423    446.51672  0.010242149 0.0090162201         3967 
 3634000   0.68971921   -9.4619561    447.27824  0.010256793 0.0090121599         3965 
 3635000   0.68385633   -9.4764328    447.00278  0.010247657 0.0090081026         3960 
 3636000    0.6617868   -9.4769222    447.05841  0.010246113 0.0090040449         3954 
 3637000   0.67117042   -9.4750304    446.85037  0.010238529 0.0089999891         3956 
 3638000   0.67626089   -9.4494104    447.23062  0.010244425  0.008995937         3967 
 3639000   0.67538411   -9.4695791    447.26552  0.010242409 0.0089918867         3962 
 3640000   0.66900923   -9.4717313    446.84836  0.010230045  0.008987839         3956 
 3641000   0.67028325   -9.4584198    447.37928  0.010239387 0.0089837942         3965 
 3642000   0.66674906   -9.4684718    447.01322  0.010228199 0.0089797501         3966 
 3643000   0.65354113   -9.4510991    447.75689  0.010242403 0.0089757125         3959 
 3644000   0.66118129   -9.4724752    447.44743  0.010232515 0.0089716761         3947 
 3645000   0.67300156   -9.4661242    447.91312  0.010240355 0.0089676394         3959 
 3646000   0.67911666    -9.459424    447.32046     0.010224 0.0089636043         3959 
 3647000    0.6765728   -9.4691293    446.99825  0.010213834 0.0089595714         3965 
 3648000    0.6755105   -9.4683333    447.79897  0.010229326 0.0089555404         3958 
 3649000   0.66229903   -9.4967347    446.46966  0.010196165 0.0089515086         3966 
 3650000   0.66075906    -9.457593    446.73312  0.010199386  0.008947485         3960 
 3651000    0.6654333   -9.4279628    448.14908  0.010228912 0.0089434628         3966 
 3652000   0.68078991   -9.4916965    447.87428   0.01021984 0.0089394431         3970 
 3653000   0.66638009    -9.489487      446.483  0.010185304 0.0089354287         3957 
 3654000    0.6732339   -9.4633898    446.82128  0.010190232 0.0089314103         3966 
 3655000   0.67621863   -9.4546277    447.62101  0.010205677 0.0089274007         3959 
 3656000   0.66918305   -9.4905601    446.86079  0.010185558 0.0089233882         3970 
 3657000   0.65996095   -9.4564136    447.84985   0.01020531 0.0089193803         3954 
 3658000     0.662043   -9.4557772     447.6002  0.010196833 0.0089153728         3959 
 3659000   0.65888948   -9.4685637    446.64238  0.010172232 0.0089113693         3970 
 3660000   0.65332305   -9.4728682    447.75035   0.01019468 0.0089073691         3970 
 3661000   0.65096779   -9.4754957    446.47852  0.010162945 0.0089033708         3963 
 3662000   0.65501658   -9.4624374    446.80508  0.010167602 0.0088993766         3968 
 3663000   0.66722227   -9.4472117    446.94652  0.010168043 0.0088953833         3969 
 3664000   0.67159464   -9.4564936    446.60696  0.010157546 0.0088913907         3967 
 3665000   0.66200428   -9.4645052    447.06723  0.010165239  0.008887401         3965 
 3666000   0.65785379   -9.4605435    447.20151  0.010165519 0.0088834137         3959 
 3667000   0.66076609   -9.4862749    446.78913  0.010153375 0.0088794281         3967 
 3668000   0.66764181   -9.4613337    447.47057  0.010166089 0.0088754404         3960 
 3669000   0.66351149   -9.4836971    447.65609  0.010167532 0.0088714585         3963 
 3670000   0.64705203   -9.4925199    447.02877  0.010150517 0.0088674804         3960 
 3671000   0.66011936   -9.4751283    446.55384  0.010136971 0.0088635037         3976 
 3672000   0.65330951   -9.4681614    447.17207  0.010148241 0.0088595335         3951 
 3673000   0.66208938    -9.475197    446.85304  0.010138239 0.0088555645         3956 
 3674000   0.67179389   -9.4582597    447.07573  0.010140531 0.0088515988         3969 
 3675000   0.66810879   -9.4722089    447.21171  0.010140855 0.0088476343         3954 
 3676000   0.64923755   -9.4892888    447.43753  0.010143216 0.0088436672         3954 
 3677000   0.66637243   -9.4872472    447.08448  0.010132456 0.0088397031         3966 
 3678000   0.67563399   -9.4788797    445.90923  0.010103073 0.0088357438         3974 
 3679000   0.66490971   -9.4716477    446.60086  0.010115993 0.0088317904         3947 
 3680000   0.67753651    -9.477971    447.12553  0.010125125  0.008827836         3953 
 3681000    0.6544952   -9.4883317    447.37364  0.010127991 0.0088238863         3964 
 3682000   0.67129355   -9.4882253    446.83989  0.010113161 0.0088199351         3964 
 3683000   0.66828075   -9.4789606    447.25226  0.010119745 0.0088159851         3954 
 3684000   0.66981525   -9.4834345    446.32913  0.010096117 0.0088120351         3971 
 3685000   0.66834607   -9.4813916    446.58936  0.010099262 0.0088080945         3970 
 3686000   0.66224124   -9.4817187    447.13532  0.010108865  0.008804152         3967 
 3687000   0.65270367   -9.4657958    447.67132  0.010118238 0.0088002123         3971 
 3688000   0.65684901   -9.4646433    448.00994  0.010123146 0.0087962773         3950 
 3689000   0.66076304   -9.4935487    446.59415  0.010088419 0.0087923455         3961 
 3690000   0.67625905   -9.4892392    446.35004  0.010080173 0.0087884145         3969 
 3691000   0.66768051   -9.4822805    447.00359  0.010092197 0.0087844879         3967 
 3692000   0.66846161   -9.4886592    446.95893  0.010088455 0.0087805607         3957 
 3693000   0.66114579   -9.4953691    446.17842  0.010068111 0.0087766366         3956 
 3694000   0.66173337   -9.4871164    447.05685  0.010085202 0.0087727148         3973 
 3695000   0.67656108   -9.4661522    446.62053  0.010072633 0.0087687943         3965 
 3696000    0.6653722   -9.4831019    446.92077  0.010076677 0.0087648817         3961 
 3697000   0.66602753    -9.478672      447.395  0.010084641 0.0087609687         3964 
 3698000   0.65797931   -9.4858843    447.22211  0.010078018 0.0087570582         3969 
 3699000   0.66611445   -9.4817007    446.49818  0.010058984 0.0087531487         3957 
 3700000   0.66649175   -9.4846219     446.5015   0.01005634 0.0087492417         3970 
 3701000   0.64911532   -9.4864357    446.57752  0.010055335 0.0087453392         3963 
 3702000   0.65295399   -9.4900907     447.0627   0.01006354 0.0087414381         3962 
 3703000   0.66582467    -9.476704    447.16861  0.010063206 0.0087375417         3963 
 3704000   0.65146728   -9.4757476    446.70588  0.010050078 0.0087336478         3954 
 3705000   0.67733228   -9.4809572    447.27782   0.01006023  0.008729751         3958 
 3706000   0.66136022   -9.4861607    447.51867  0.010062931 0.0087258608         3960 
 3707000   0.65229814   -9.4871119    446.83019   0.01004474 0.0087219694         3961 
 3708000   0.66254787   -9.4668997    447.77679  0.010063304 0.0087180787         3971 
 3709000   0.65981676   -9.4607885    447.31114  0.010050129 0.0087141951         3955 
 3710000   0.64515517   -9.4670456    447.46298  0.010050831 0.0087103186         3962 
 3711000   0.65574268   -9.4894099    446.29269  0.010021843 0.0087064345         3960 
 3712000   0.65327575   -9.4754912    446.95095   0.01003392 0.0087025529         3966 
 3713000   0.66055297      -9.4946     445.8541  0.010006601 0.0086986755         3967 
 3714000   0.65236489   -9.4771338    446.60611   0.01002078    0.0086948         3959 
 3715000   0.65196696   -9.4817779    446.60609  0.010018082 0.0086909311         3964 
 3716000   0.64871917   -9.4942748    446.81944   0.01002017 0.0086870597         3961 
 3717000   0.66852294   -9.4915965     446.1434  0.010002318 0.0086831893         3960 
 3718000   0.66008276   -9.4942384    446.56153     0.010009  0.008679325         3965 
 3719000   0.66114031    -9.491059    446.41809  0.010003094 0.0086754627         3972 
 3720000   0.64913218   -9.4904652    446.24935 0.0099966253 0.0086716024         3960 
 3721000   0.65005304   -9.4901124    446.80457  0.010006373 0.0086677466         3958 
 3722000   0.66890277   -9.4679746    447.40914  0.010017221 0.0086638915         3962 
 3723000   0.66498232   -9.4725815    446.05429 0.0099842038 0.0086600398         3969 
 3724000   0.65856195   -9.4820233    446.68447 0.0099956244 0.0086561867         3962 
 3725000   0.65563175    -9.474275    447.30236  0.010006764 0.0086523372         3961 
 3726000   0.66048017   -9.5016274    447.06679 0.0099988099  0.008648491         3957 
 3727000   0.64482267   -9.4811789    446.21033 0.0099769772 0.0086446502         3963 
 3728000   0.66485734   -9.5047787    446.39966 0.0099785332  0.008640806         3961 
 3729000   0.66475975   -9.4898772    446.87166 0.0099864051 0.0086369637         3970 
 3730000   0.65566956   -9.4543715    447.53671 0.0099985859 0.0086331261         3958 
 3731000   0.64896411   -9.4843044    447.08464  0.009985809 0.0086292884         3955 
 3732000   0.65732565   -9.4897229    447.43032  0.009990852 0.0086254554         3962 
 3733000   0.65280913    -9.512878    446.17401 0.0099601306 0.0086216211         3964 
 3734000     0.658647   -9.4975905     446.3352 0.0099610605 0.0086177912         3967 
 3735000   0.65018869    -9.496202    446.38019 0.0099593973  0.008613967         3953 
 3736000   0.65771109   -9.4993626    447.25641 0.0099762762 0.0086101449         3951 
 3737000   0.65722782   -9.4915426    446.76465 0.0099626405 0.0086063195         3965 
 3738000   0.66452612   -9.4995141    446.94726 0.0099640462 0.0086024994         3947 
 3739000   0.65288792   -9.5039889    446.65275 0.0099548174  0.008598681         3964 
 3740000   0.65195122   -9.4943628    446.86984 0.0099569929 0.0085948647         3968 
 3741000   0.66181794   -9.4866695    446.85927 0.0099540958 0.0085910477         3959 
 3742000   0.64914977   -9.5014593    447.58998 0.0099677084 0.0085872391         3966 
 3743000   0.65875638   -9.4852121     446.5663 0.0099422544 0.0085834325         3962 
 3744000   0.66726389   -9.4870895    447.21642 0.0099540692  0.008579628         3970 
 3745000     0.663756   -9.4839957    446.33807 0.0099318662 0.0085758215         3966 
 3746000   0.65161585   -9.4918727    446.44972 0.0099316988 0.0085720166         3963 
 3747000   0.66062827   -9.4965125     446.5252 0.0099307269 0.0085682179         3961 
 3748000   0.66517002   -9.4881585    447.40373 0.0099476106 0.0085644188         3958 
 3749000   0.64879576   -9.4939561     447.4531 0.0099460546 0.0085606252         3960 
 3750000   0.65361154   -9.4940796    446.71472 0.0099269937  0.008556832         3966 
 3751000   0.64947228   -9.4972767    446.66987 0.0099233508 0.0085530438         3967 
 3752000   0.65787052   -9.4913967    447.18143  0.009932068 0.0085492551         3964 
 3753000   0.65289097   -9.4875311    446.17748 0.0099071295 0.0085454704         3968 
 3754000   0.64703061   -9.5023511    446.59934 0.0099138549 0.0085416851         3967 
 3755000   0.64949901   -9.4765916    446.17109 0.0099017108 0.0085379026         3968 
 3756000   0.65161916   -9.5042688    446.38404 0.0099037992 0.0085341227         3966 
 3757000   0.64411126   -9.4924232    446.68521 0.0099078433 0.0085303471         3963 
 3758000   0.63920942   -9.4869764    446.33239 0.0098973832 0.0085265717         3954 
 3759000   0.65765736   -9.4792172    446.44039 0.0098971443 0.0085228046         3961 
 3760000    0.6523962   -9.4915699    446.57196 0.0098974283 0.0085190317         3970 
 3761000   0.65035242   -9.4959987    446.37514 0.0098904355 0.0085152619         3964 
 3762000   0.64396807   -9.4846916    446.34695 0.0098871821 0.0085114958         3967 
 3763000   0.66875794   -9.5114612     446.3931 0.0098855766 0.0085077324         3961 
 3764000   0.65525987   -9.5071519    446.14778 0.0098775191   0.00850397         3962 
 3765000   0.64517744   -9.5071591    446.72277 0.0098876222 0.0085002103         3957 
 3766000   0.65242364   -9.5175948    446.13144 0.0098719119 0.0084964513         3952 
 3767000   0.64113439   -9.5029232     446.5441   0.00987842 0.0084926934         3953 
 3768000   0.64654497   -9.4997579    447.02254 0.0098863795 0.0084889395         3959 
 3769000   0.63853275   -9.4794403    447.05329 0.0098844364 0.0084851885         3960 
 3770000   0.64443303   -9.5068267    446.33501 0.0098659374 0.0084814357         3959 
 3771000   0.65385538   -9.4912906    446.65771 0.0098704523 0.0084776874         3962 
 3772000    0.6497689   -9.4914426    446.62522 0.0098671178 0.0084739414         3958 
 3773000   0.64374218   -9.4946536    446.30069 0.0098573348 0.0084701987         3965 
 3774000   0.63538487   -9.4939708    446.72261 0.0098640392 0.0084664559         3955 
 3775000   0.64374832   -9.5077119    446.45825 0.0098555906 0.0084627192         3953 
 3776000   0.65799633    -9.509671    446.90437  0.009862826 0.0084589842         3962 
 3777000   0.63925996   -9.4941539    447.44621 0.0098721694 0.0084552473         3968 
 3778000   0.65165067   -9.5119859     446.2283 0.0098426924 0.0084515172         3959 
 3779000    0.6439432   -9.4821741    446.51323 0.0098463709 0.0084477855         3964 
 3780000   0.64657429   -9.5096242    446.63703 0.0098464953  0.008444058         3956 
 3781000   0.65422581   -9.5075709    446.56669 0.0098423408 0.0084403312         3959 
 3782000   0.65559812   -9.5115133    446.46869 0.0098375791 0.0084366106         3968 
 3783000   0.65960582   -9.5024993    446.56039 0.0098369986 0.0084328868         3952 
 3784000   0.63937328   -9.4774057    445.78277 0.0098172738  0.008429165         3957 
 3785000   0.63647883   -9.5052413    446.27157 0.0098254419  0.008425448         3979 
 3786000   0.64522514   -9.5150326    445.66626 0.0098095233  0.008421733         3961 
 3787000   0.64890094    -9.489743    446.93091 0.0098347617 0.0084180198         3953 
 3788000   0.63572241   -9.4997689    447.01937 0.0098341114 0.0084143105         3956 
 3789000   0.64812604   -9.4810179    446.86627 0.0098281489 0.0084106021         3948 
 3790000   0.64808264   -9.4989378    445.41698 0.0097936891 0.0084068976         3965 
 3791000   0.63073428   -9.5064872    445.87386 0.0098011489 0.0084031919         3961 
 3792000   0.63833052   -9.5179055    446.49785 0.0098122769 0.0083994889         3961 
 3793000   0.62896155   -9.5005635    446.43929 0.0098084033 0.0083957877         3963 
 3794000   0.64080035   -9.5019477    446.29068  0.009802554 0.0083920896         3970 
 3795000   0.64237161   -9.5159142    446.71148 0.0098092112 0.0083883958         3959 
 3796000   0.64918855   -9.4941519    446.58449 0.0098038394 0.0083847015         3970 
 3797000   0.62389648   -9.4767221    446.71937 0.0098042175 0.0083810135         3946 
 3798000   0.63461236   -9.5013329    446.89836 0.0098055634 0.0083773224         3962 
 3799000   0.64703312   -9.4914395    446.69309 0.0097984797 0.0083736349         3964 
 3800000   0.63411791   -9.4945145    446.87149 0.0097998134 0.0083699495         3970 
 3801000   0.63474329   -9.5295445     445.6601 0.0097706767 0.0083662645         3953 
 3802000   0.64912138   -9.5092939    445.60804 0.0097669656  0.008362585         3958 
 3803000   0.63933238    -9.493631    446.34633 0.0097805752 0.0083589081         3957 
 3804000    0.6553529   -9.5116038    446.85835 0.0097892208 0.0083552321         3958 
 3805000   0.63705557   -9.5056582     447.0276 0.0097903549 0.0083515613         3958 
 3806000   0.64964575   -9.5159733    446.15897 0.0097687636 0.0083478882         3963 
 3807000   0.64981919    -9.523407     445.8839 0.0097601764 0.0083442183         3961 
 3808000   0.63879344   -9.5071262    446.52913 0.0097717335 0.0083405521         3956 
 3809000   0.64537456   -9.5160838    446.89415 0.0097771539   0.00833689         3968 
 3810000   0.64044142    -9.478053    446.52317 0.0097664735 0.0083332289         3955 
 3811000   0.64318401   -9.5005032    446.75332 0.0097689433 0.0083295678         3967 
 3812000   0.64287314   -9.5085025    446.93408 0.0097703323 0.0083259079         3967 
 3813000   0.62516469   -9.5065144    446.32007 0.0097543506  0.008322254         3968 
 3814000   0.64632711   -9.5099766    446.80428 0.0097623727 0.0083185995         3968 
 3815000    0.6577628   -9.4957386    446.69191 0.0097573593 0.0083149514         3965 
 3816000    0.6321955   -9.5083606    445.97884 0.0097392305 0.0083113028         3960 
 3817000   0.63367709   -9.5128377    446.78572 0.0097542948 0.0083076539         3966 
 3818000   0.64812557   -9.5183137    446.30107 0.0097411618 0.0083040095         3968 
 3819000   0.62376504    -9.512328    446.33406 0.0097393309 0.0083003653         3970 
 3820000   0.63636817    -9.520826    446.94588 0.0097501283 0.0082967261         3961 
 3821000   0.65995103   -9.4902245    446.28969 0.0097332654 0.0082930898         3949 
 3822000   0.63626953   -9.5036438    446.57026 0.0097368362  0.008289452         3963 
 3823000   0.63859795   -9.5314615    446.16405 0.0097254349 0.0082858188         3963 
 3824000   0.63434661   -9.4940155    446.64632 0.0097334014 0.0082821843         3972 
 3825000   0.64006553   -9.4952473    446.67897 0.0097315679 0.0082785502         3968 
 3826000    0.6433377    -9.500184    445.39071  0.009700965 0.0082749231         3959 
 3827000   0.64472573   -9.5099665    446.40985 0.0097206221 0.0082712979         3961 
 3828000   0.64589706   -9.5045839    446.33923 0.0097165454 0.0082676744         3958 
 3829000   0.62771389   -9.5005579    446.80434 0.0097241304 0.0082640524         3957 
 3830000   0.64670918   -9.5296412    446.66296 0.0097185153  0.008260434         3970 
 3831000   0.64453177   -9.5282279    446.41193 0.0097105178 0.0082568174         3964 
 3832000   0.62958384   -9.5218413    446.46099 0.0097090507 0.0082532042         3951 
 3833000   0.63765966   -9.5165756     446.0829 0.0096982977 0.0082495928         3969 
 3834000   0.64320449   -9.5200504    446.31147 0.0097007363 0.0082459784         3957 
 3835000   0.64411598   -9.5069862    446.41738 0.0097005081 0.0082423683         3964 
 3836000   0.64043622   -9.5112985    445.97132  0.009688289 0.0082387604         3956 
 3837000    0.6390519   -9.5305824    445.65519 0.0096788981 0.0082351492         3965 
 3838000   0.63090191   -9.5048166    446.11577 0.0096863768 0.0082315433         3956 
 3839000   0.64411136   -9.5102759    446.48903 0.0096919559 0.0082279397         3957 
 3840000   0.63328783   -9.5081419     446.7547 0.0096951974 0.0082243393         3966 
 3841000   0.62782006   -9.5270709    446.71929 0.0096919051 0.0082207432         3951 
 3842000    0.6314898   -9.5168257    446.15316 0.0096771032 0.0082171438         3962 
 3843000   0.63873303   -9.5525771    446.13959 0.0096742907 0.0082135494         3963 
 3844000   0.63249641   -9.5193838    446.08856 0.0096706677  0.008209958         3950 
 3845000   0.63289652   -9.5036693    445.62357 0.0096580748 0.0082063689         3965 
 3846000   0.62173539   -9.5118095    446.23546 0.0096688216 0.0082027827         3963 
 3847000   0.63313612   -9.5151765    446.38768 0.0096696059 0.0081991966         3968 
 3848000   0.63840151   -9.5057843    445.96974 0.0096580419 0.0081956117         3965 
 3849000   0.62475804   -9.5017925    445.49442 0.0096452417 0.0081920346         3956 
 3850000   0.63503572   -9.5188794    446.10111 0.0096558682 0.0081884566         3961 
 3851000   0.63065886   -9.5283699    447.05159 0.0096739287 0.0081848797         3969 
 3852000   0.63998233   -9.5138586    445.92142 0.0096469674 0.0081813087         3963 
 3853000   0.64495805   -9.5233244    445.70383 0.0096397576 0.0081777373         3961 
 3854000   0.63928483   -9.5262082    446.04997 0.0096447408 0.0081741695         3963 
 3855000   0.63126774   -9.5184449    446.43448 0.0096505508 0.0081705992         3963 
 3856000   0.61060922   -9.5068089    446.66479 0.0096530253 0.0081670337         3946 
 3857000    0.6240375   -9.5055554    446.50545 0.0096470799  0.008163469         3960 
 3858000   0.65042285   -9.5063374    447.06795 0.0096567296 0.0081599073         3965 
 3859000   0.64595463   -9.5369936     445.9877 0.0096308997 0.0081563488         3961 
 3860000    0.6331628   -9.5240938    446.32611 0.0096357105 0.0081527936         3959 
 3861000   0.63448794   -9.5251105    445.28097 0.0096106571 0.0081492402         3967 
 3862000   0.62804427   -9.5303272    445.80102 0.0096193901 0.0081456852         3971 
 3863000    0.6419346   -9.4946577    446.93573 0.0096413781 0.0081421323         3962 
 3864000   0.63070952   -9.5050937    445.22024 0.0096018857 0.0081385835         3957 
 3865000   0.62610621   -9.5060107    445.74597 0.0096107368 0.0081350345         3963 
 3866000   0.63650962   -9.5110895       445.94 0.0096124331 0.0081314859         3965 
 3867000   0.63267076   -9.5332075    447.01357 0.0096330827 0.0081279409         3953 
 3868000   0.61727015    -9.516162    445.95556 0.0096077982 0.0081243999         3968 
 3869000    0.6365009   -9.5365705     445.7639 0.0096011868 0.0081208596         3945 
 3870000   0.63712365   -9.5127083    446.36117 0.0096115669 0.0081173234         3956 
 3871000   0.62688093   -9.5147539    445.86954 0.0095985005 0.0081137864         3970 
 3872000   0.62822228    -9.529947    446.50856 0.0096097744 0.0081102515         3964 
 3873000   0.64339429   -9.5351801    446.63887 0.0096100971 0.0081067173         3964 
 3874000   0.63018654   -9.5431509    446.08555  0.009595714 0.0081031844         3961 
 3875000   0.62354733   -9.4978383    446.24787 0.0095967284 0.0080996569         3962 
 3876000   0.63273568   -9.5011564    445.76748 0.0095839241   0.00809613         3961 
 3877000   0.63599645   -9.5453783    446.56298 0.0095985509  0.008092603         3968 
 3878000   0.63363674   -9.5358785    446.22612 0.0095888371 0.0080890821         3961 
 3879000   0.62740276   -9.5304679    445.23296 0.0095650289 0.0080855642         3961 
 3880000   0.62838223   -9.5216785    446.30145 0.0095855123 0.0080820478         3965 
 3881000   0.62843395   -9.5428113    445.95042  0.009575505 0.0080785318         3961 
 3882000   0.61768528   -9.5397049    446.53866  0.009585666 0.0080750141         3964 
 3883000   0.63954323   -9.5473053    446.23885 0.0095767631  0.008071504         3957 
 3884000   0.62620683   -9.5223148    446.02891  0.009569793 0.0080679931         3959 
 3885000   0.62658995   -9.5259312    446.40908 0.0095754843 0.0080644832         3945 
 3886000   0.63266182   -9.5304764    445.93898 0.0095629392 0.0080609797         3958 
 3887000   0.63610936   -9.5184602    445.11908 0.0095429012 0.0080574771         3957 
 3888000   0.63363553   -9.5352287    445.67421  0.009552345 0.0080539727         3969 
 3889000   0.62873038   -9.5439503    446.56619 0.0095690022 0.0080504748         3963 
 3890000   0.62861231   -9.5223432    445.76335 0.0095493435 0.0080469797         3967 
 3891000   0.61862355   -9.5350964     445.9693    0.0095513 0.0080434838         3956 
 3892000   0.63457839   -9.5178455    446.42259 0.0095585516 0.0080399887         3961 
 3893000   0.62634531   -9.5469719    445.96778 0.0095463605 0.0080364982         3948 
 3894000   0.63008874   -9.5320755    446.31965 0.0095514392 0.0080330093         3969 
 3895000   0.61365654   -9.5239222    445.80859 0.0095380529 0.0080295221         3956 
 3896000   0.63590335   -9.5230706    446.12269 0.0095423231 0.0080260363         3964 
 3897000   0.62936938   -9.5380646    445.54442 0.0095275089 0.0080225534         3965 
 3898000   0.62599558   -9.5115277    446.21681 0.0095394392  0.008019073         3954 
 3899000    0.6322505   -9.5082754     446.1656 0.0095358982 0.0080155915         3955 
 3900000   0.64491397   -9.5259049     445.5544 0.0095203932 0.0080121143         3952 
 3901000   0.63484282   -9.5396414    445.92526  0.009525875 0.0080086396         3966 
 3902000   0.61379577   -9.5427611    445.57221 0.0095158939 0.0080051666         3956 
 3903000   0.62518742    -9.535994    445.15613 0.0095045718 0.0080016939         3960 
 3904000   0.62142771   -9.5192933    445.24113 0.0095039516 0.0079982279         3961 
 3905000   0.65018067   -9.5496446    446.67213 0.0095320558 0.0079947619         3953 
 3906000   0.63995826   -9.5326404    446.12076 0.0095178521 0.0079912953         3963 
 3907000   0.64173319   -9.5365296    446.19927 0.0095170906 0.0079878296         3960 
 3908000   0.63116399   -9.5607785    445.26946 0.0094948281 0.0079843668         3967 
 3909000   0.62438242   -9.5245162    445.92872 0.0095064534 0.0079809038         3959 
 3910000   0.62125182   -9.5530444    445.80134 0.0095013074 0.0079774461         3970 
 3911000   0.63282525   -9.5324122    446.41547 0.0095119635 0.0079739894         3962 
 3912000   0.62571545   -9.5727928    445.28545 0.0094854603 0.0079705319         3977 
 3913000   0.63983506   -9.5333774    445.88767 0.0094958615 0.0079670783         3966 
 3914000   0.61548709   -9.5304014    445.83329 0.0094922775 0.0079636315         3962 
 3915000   0.61570736   -9.5474935    445.03954 0.0094729574 0.0079601846         3959 
 3916000   0.63566593   -9.5328743    445.69289 0.0094844419   0.00795674         3966 
 3917000   0.63552806   -9.5318635    445.85077 0.0094853794 0.0079532959         3958 
 3918000   0.63883923    -9.518956    445.90816 0.0094841789 0.0079498525         3964 
 3919000   0.62242867   -9.5537441    445.88089 0.0094811791 0.0079464083         3958 
 3920000   0.62317791   -9.5469629    445.76805 0.0094763617 0.0079429699         3951 
 3921000   0.62068219   -9.5295647    446.06196 0.0094801912 0.0079395318         3962 
 3922000   0.62691371   -9.5112673    446.38997 0.0094847436 0.0079360966         3963 
 3923000   0.62968407   -9.5205496    445.49579 0.0094633313 0.0079326646         3963 
 3924000   0.62819814   -9.5395023    445.74472 0.0094662062 0.0079292313         3969 
 3925000      0.62913    -9.567181    445.36503 0.0094557332  0.007925802         3967 
 3926000   0.61687801   -9.5490348    445.73855 0.0094612531 0.0079223754         3962 
 3927000   0.61876337   -9.5186687    445.80387 0.0094602299 0.0079189502         3962 
 3928000   0.63016341   -9.5189453    446.12009 0.0094645301 0.0079155309         3954 
 3929000   0.62267137   -9.5290683    445.55276 0.0094500882 0.0079121078         3962 
 3930000   0.62251553   -9.5411454    446.01049 0.0094573895 0.0079086873         3966 
 3931000   0.62326576   -9.5401013    445.43926 0.0094428741   0.00790527         3967 
 3932000   0.62526739   -9.5328958    446.07912 0.0094540336 0.0079018571         3966 
 3933000   0.61718411   -9.5141622    446.41565 0.0094587603 0.0078984447         3960 
 3934000   0.63547714   -9.5334614    445.59916 0.0094390602 0.0078950346         3960 
 3935000   0.63465886   -9.5460284    445.30053 0.0094303374 0.0078916252         3965 
 3936000   0.62119456   -9.5273888    445.86286 0.0094398471 0.0078882183         3952 
 3937000   0.61916744   -9.5467074    444.97134 0.0094185788 0.0078848123         3964 
 3938000    0.6098693   -9.5310141    445.10813 0.0094190817 0.0078814069         3968 
 3939000   0.62044557   -9.5581334    445.58811  0.009426845 0.0078780036         3967 
 3940000   0.62757898   -9.5401775    445.06654  0.009413421 0.0078746031         3960 
 3941000   0.62546586   -9.5208718    445.61325 0.0094225926 0.0078712043         3950 
 3942000   0.63298434   -9.5492219    445.30765  0.009413742 0.0078678082         3959 
 3943000   0.61894399   -9.5231854     445.6845 0.0094193191 0.0078644143         3956 
 3944000   0.61527689   -9.5442466    445.76243 0.0094185773 0.0078610225         3954 
 3945000   0.61855238   -9.5546379    445.30075 0.0094064375 0.0078576319         3966 
 3946000   0.61783965   -9.5467595    445.45162 0.0094072399 0.0078542426         3961 
 3947000   0.61266533   -9.5655616    445.71152 0.0094103438 0.0078508537         3968 
 3948000   0.62175283   -9.5398407    445.72893 0.0094083277 0.0078474702         3962 
 3949000   0.61526125   -9.5290841    445.08403 0.0093923363 0.0078440871         3964 
 3950000   0.63729742   -9.5261393    445.26898 0.0093938604 0.0078407078         3951 
 3951000   0.61234738   -9.5347291    445.44523 0.0093952002 0.0078373285         3953 
 3952000   0.61640751   -9.5422349    444.84509  0.009380168 0.0078339521         3962 
 3953000   0.61942174   -9.5509758    446.16166 0.0094055498 0.0078305803         3958 
 3954000   0.62362137   -9.5588838    445.74009 0.0093942861 0.0078272073         3965 
 3955000   0.61950743   -9.5379423    445.22355 0.0093810273 0.0078238358         3960 
 3956000   0.62517396   -9.5349326    445.61104 0.0093868184 0.0078204678         3965 
 3957000   0.62191956   -9.5362842    446.11208 0.0093949979 0.0078171008         3959 
 3958000   0.61369432   -9.5558013     445.7871 0.0093857819  0.007813735         3963 
 3959000   0.63071978   -9.5403825     446.0992 0.0093899807 0.0078103719         3968 
 3960000   0.60541233   -9.5440936      445.188 0.0093684344 0.0078070123         3959 
 3961000   0.62261588   -9.5609637    445.17467 0.0093657887 0.0078036552         3969 
 3962000   0.62341759   -9.5498859      444.924 0.0093581525 0.0078002978         3974 
 3963000   0.61614686   -9.5503169    445.63706 0.0093707853 0.0077969443         3961 
 3964000   0.59917557    -9.542347    445.53896  0.009366359 0.0077935926         3949 
 3965000   0.63022525     -9.55065    446.09536 0.0093756906 0.0077902436         3971 
 3966000   0.60864864   -9.5438354    445.88125 0.0093688278 0.0077868966         3955 
 3967000    0.6090389   -9.5367595    445.56907 0.0093599083 0.0077835509         3964 
 3968000   0.62422012   -9.5482038    445.76227 0.0093616069 0.0077802055         3956 
 3969000   0.61076474   -9.5272588    446.34053 0.0093713893 0.0077768636         3961 
 3970000   0.61710909   -9.5326403    445.26285 0.0093464074 0.0077735209         3960 
 3971000   0.62249984   -9.5403121    445.67433  0.009352689 0.0077701829         3972 
 3972000     0.610992   -9.5417529    445.81837 0.0093533561 0.0077668441         3963 
 3973000   0.61875372   -9.5561623    444.95804 0.0093329565 0.0077635081         3958 
 3974000   0.61702121   -9.5426171     445.5203 0.0093423985 0.0077601759         3958 
 3975000   0.62257777   -9.5417701     445.1487 0.0093322579 0.0077568419         3949 
 3976000   0.60762404   -9.5291779    445.44649 0.0093361521 0.0077535119         3967 
 3977000    0.6238347   -9.5267639    445.17573 0.0093281312 0.0077501834         3967 
 3978000   0.61925984   -9.5475162    445.74384 0.0093376873 0.0077468571         3969 
 3979000   0.60051926   -9.5365103    445.57837  0.009331875 0.0077435327         3959 
 3980000   0.61483307   -9.5392497    445.92103 0.0093367049 0.0077402096         3963 
 3981000   0.61087226   -9.5391526     445.6378 0.0093284309 0.0077368904         3964 
 3982000   0.61125522   -9.5443074    445.09726 0.0093147761 0.0077335718         3960 
 3983000   0.62233473   -9.5492387    445.48542 0.0093205585 0.0077302528         3967 
 3984000   0.62704176    -9.550742    444.89856 0.0093059438 0.0077269369         3950 
 3985000   0.61683943   -9.5636166    445.90911 0.0093247409 0.0077236243         3965 
 3986000   0.61093444   -9.5569352    445.49935 0.0093138349 0.0077203142         3961 
 3987000   0.62437387   -9.5511907    445.22046 0.0093056696 0.0077170043         3960 
 3988000   0.61117845   -9.5476799    445.40723 0.0093072389 0.0077136962         3964 
 3989000    0.6134453   -9.5542223    444.48269 0.0092855913 0.0077103879         3961 
 3990000   0.60720236   -9.5674343    445.01189 0.0092943168 0.0077070835         3969 
 3991000   0.61321838   -9.5398146    446.09084 0.0093145169 0.0077037831         3973 
 3992000   0.59896419   -9.5636237    445.27243 0.0092950991 0.0077004842         3955 
 3993000   0.62100871   -9.5660671    445.04648 0.0092880558 0.0076971855         3962 
 3994000   0.61624372   -9.5650636    445.64047 0.0092981237 0.0076938916         3967 
 3995000   0.61838041   -9.5601679    444.96915  0.009281793 0.0076905977         3971 
 3996000   0.62067497   -9.5317333     445.9544 0.0093000167 0.0076873049         3974 
 3997000   0.61940043   -9.5496848    445.58328 0.0092899525 0.0076840162         3950 
 3998000   0.62441568    -9.555674    445.05218 0.0092765586 0.0076807262         3971 
 3999000   0.61680676   -9.5456222    445.32647 0.0092799548 0.0076774409         3963 
 4000000   0.60946348   -9.5352436     445.5615 0.0092825313 0.0076741584         3968 
 4001000   0.59864433   -9.5446607    445.58956 0.0092807956 0.0076708786         3967 
 4002000   0.60910498    -9.551508    446.02206 0.0092874825 0.0076675989         3967 
 4003000   0.61000662   -9.5600407    445.58772 0.0092761205 0.0076643247         3960 
 4004000   0.60600126    -9.541235    445.66897 0.0092754948 0.0076610458         3966 
 4005000   0.59830356   -9.5360838    445.65352 0.0092728573 0.0076577689         3968 
 4006000   0.60418261   -9.5563846    445.19675 0.0092610407 0.0076544974         3960 
 4007000   0.61007794   -9.5665637    445.32142 0.0092613222 0.0076512272         3966 
 4008000   0.61094308   -9.5573495    445.39329 0.0092605059 0.0076479595         3968 
 4009000   0.60107711   -9.5576054    445.05408 0.0092511449 0.0076446926         3964 
 4010000   0.60526045   -9.5747468    444.84767 0.0092445483 0.0076414278         3973 
 4011000   0.61819261   -9.5350359    445.26002 0.0092508107 0.0076381649         3972 
 4012000   0.61628356   -9.5704417    445.27681 0.0092488536 0.0076349005         3966 
 4013000   0.60833472   -9.5552017    445.06723 0.0092421968 0.0076316392         3965 
 4014000   0.61324186   -9.5508209     444.8471 0.0092353243 0.0076283814         3963 
 4015000   0.62058224   -9.5520202    445.52562 0.0092471072 0.0076251261         3962 
 4016000   0.61742521   -9.5470582    444.76432 0.0092290072 0.0076218714         3969 
 4017000   0.60267222   -9.5515761    445.29068 0.0092376293 0.0076186168         3966 
 4018000   0.60939301   -9.5577074    445.50087 0.0092396896 0.0076153635         3954 
 4019000   0.60748578   -9.5667574    444.76149 0.0092220597 0.0076121121         3964 
 4020000   0.61146931   -9.5829279    445.33774  0.009231711 0.0076088666         3968 
 4021000   0.60590513   -9.5483354    445.23252 0.0092272345 0.0076056204         3955 
 4022000   0.61202863   -9.5413462    445.44186 0.0092292776  0.007602377         3964 
 4023000   0.61081944   -9.5639263    445.03388 0.0092185326 0.0075991358         3962 
 4024000   0.59515811   -9.5660243    445.22556 0.0092202112 0.0075958922         3968 
 4025000   0.59882434   -9.5611924    445.56474 0.0092249429 0.0075926536         3963 
 4026000   0.61365881   -9.5714286    445.07152 0.0092124424 0.0075894174         3971 
 4027000   0.61603211   -9.5507056    445.26936 0.0092142488 0.0075861834         3968 
 4028000   0.60659536   -9.5533809    444.32226 0.0091923672  0.007582949         3966 
 4029000   0.60389813   -9.5551764    445.01046   0.00920432 0.0075797199         3967 
 4030000   0.61343163   -9.5514326    445.35482 0.0092091567 0.0075764882         3967 
 4031000   0.60597218   -9.5740341    444.27675  0.009184585 0.0075732629         3968 
 4032000   0.60777635   -9.5768864    444.48193 0.0091865477  0.007570037         3966 
 4033000   0.60707711   -9.5592986    445.25685 0.0092002821 0.0075668138         3963 
 4034000   0.61518751   -9.5547798     444.8161 0.0091888965 0.0075635933         3962 
 4035000   0.61626462   -9.5695898    445.74954 0.0092058972 0.0075603741         3961 
 4036000   0.60779411   -9.5486905    445.41318 0.0091966713 0.0075571577         3953 
 4037000   0.59339625   -9.5500082    445.44178 0.0091949834 0.0075539436         3966 
 4038000    0.6074816   -9.5736886    444.99723  0.009183532 0.0075507289         3956 
 4039000     0.597658   -9.5614196    445.52793 0.0091922078 0.0075475165         3951 
 4040000   0.61396218   -9.5775234    444.89551 0.0091768877 0.0075443068         3962 
 4041000   0.60711596   -9.5599532    444.97587 0.0091762738 0.0075410971         3959 
 4042000   0.59958955   -9.5613308    444.70144 0.0091683456 0.0075378901         3963 
 4043000   0.61288683   -9.5483328    444.60207 0.0091640298 0.0075346851         3964 
 4044000   0.61651973   -9.5675826    444.71009 0.0091639897 0.0075314812         3963 
 4045000   0.61772935   -9.5697764    445.05027 0.0091687323 0.0075282794         3961 
 4046000   0.60753172   -9.5513966    445.32528 0.0091721306 0.0075250801         3967 
 4047000   0.59875372   -9.5752768    445.16602 0.0091665847 0.0075218832         3966 
 4048000   0.59226609   -9.5830756    445.18283 0.0091646662 0.0075186893         3965 
 4049000   0.60490211   -9.5630872    444.93773 0.0091573583  0.007515494         3967 
 4050000   0.61369402   -9.5491544    445.26786 0.0091618902  0.007512301         3967 
 4051000   0.60028947   -9.5662427    445.23647 0.0091589828 0.0075091132         3967 
 4052000    0.6170485   -9.5853497    444.79809 0.0091477067  0.007505924         3964 
 4053000   0.60192184   -9.5583195    445.99668 0.0091700938 0.0075027366         3965 
 4054000   0.60488738   -9.5425423    445.42448 0.0091560698 0.0074995543         3965 
 4055000   0.61206406   -9.5625221    445.53236 0.0091560287 0.0074963729         3963 
 4056000   0.59770662   -9.5918478    444.51491 0.0091328672 0.0074931921         3968 
 4057000   0.60020152   -9.5711706    445.40658 0.0091489315 0.0074900122         3958 
 4058000    0.6112357   -9.5692274    445.31159 0.0091447263 0.0074868332         3971 
 4059000   0.60553673    -9.553092    445.30271 0.0091422909 0.0074836561         3965 
 4060000   0.61196267   -9.5512789    444.75518  0.009128801 0.0074804835         3954 
 4061000   0.60408106   -9.5708478    445.03588 0.0091323131 0.0074773118         3975 
 4062000   0.61204938   -9.5615096    444.96687 0.0091286491 0.0074741412         3966 
 4063000   0.60695573   -9.5495485    445.07947 0.0091287117 0.0074709717         3971 
 4064000   0.60677917   -9.5806774    445.26806 0.0091303325 0.0074678029         3970 
 4065000   0.59280699   -9.5786185    445.32082 0.0091291682 0.0074646397         3970 
 4066000   0.59293073   -9.5442122     444.7161  0.009114529 0.0074614756         3964 
 4067000    0.5966354   -9.5709425     444.6854 0.0091116589 0.0074583159         3966 
 4068000   0.60765768   -9.5645606    444.96779 0.0091152038 0.0074551534         3965 
 4069000   0.57294198   -9.5613453    444.94428 0.0091124822 0.0074519962         3971 
 4070000   0.59693047   -9.5680036    445.48742 0.0091213641 0.0074488371         3973 
 4071000    0.5996791   -9.5494711    445.29009 0.0091150842 0.0074456787         3967 
 4072000   0.60573036   -9.5817477    444.91312 0.0091051311  0.007442526         3964 
 4073000   0.59652155    -9.570205     444.7571 0.0090997033 0.0074393745         3958 
 4074000   0.59911601   -9.5682505    445.49173 0.0091124965 0.0074362261         3962 
 4075000   0.60620326   -9.5654899    444.41242 0.0090881886 0.0074330785         3970 
 4076000   0.61092183   -9.5544636    445.03842 0.0090987574  0.007429934         3956 
 4077000   0.59006985   -9.5891899    445.11623  0.009098116  0.007426792         3966 
 4078000   0.59442859   -9.5647814    445.45722  0.009102853  0.007423647         3960 
 4079000   0.59844801   -9.5655378    445.08151 0.0090929457  0.007420507         3971 
 4080000   0.59684151   -9.5795483     445.0056 0.0090891667 0.0074173674         3958 
 4081000   0.61389707    -9.572625    444.78787 0.0090824935 0.0074142293         3962 
 4082000   0.59278191   -9.5728372    444.75668 0.0090796316 0.0074110955         3964 
 4083000   0.59870546   -9.5673523    445.01317 0.0090826428 0.0074079647         3963 
 4084000   0.60506905   -9.5649609    445.15899 0.0090833943 0.0074048361         3972 
 4085000   0.60602549   -9.5802279     444.5615 0.0090689821 0.0074017066         3972 
 4086000   0.59988695   -9.5700076    444.87872 0.0090732323 0.0073985787         3968 
 4087000   0.59075035   -9.5745709     444.5749 0.0090648173 0.0073954549         3969 
 4088000   0.60270999    -9.562729    444.50985 0.0090612739   0.00739233         3970 
 4089000   0.60351201   -9.5734723    445.23763 0.0090738899 0.0073892087         3959 
 4090000   0.59311063   -9.5613941    445.57283  0.009078501 0.0073860871         3970 
 4091000   0.59153388   -9.5696585    444.95281 0.0090636522 0.0073829647         3964 
 4092000    0.6015679   -9.5736236    445.15873 0.0090656307 0.0073798455         3968 
 4093000   0.59564647   -9.5845348    445.33969 0.0090671001 0.0073767302         3969 
 4094000   0.60324614   -9.5701752    444.28282 0.0090433728 0.0073736194         3964 
 4095000   0.60123001   -9.5923347    444.98296 0.0090554123  0.007370507         3952 
 4096000   0.59537223    -9.578194    444.61357 0.0090456862 0.0073673944         3970 
 4097000   0.59713496   -9.5821595    444.44381 0.0090400254 0.0073642863         3969 
 4098000   0.61025292   -9.5743733    444.69067 0.0090428395 0.0073611793         3971 
 4099000   0.59404242   -9.5636829    444.87914 0.0090444649 0.0073580755         3964 
 4100000    0.6028778   -9.5824548    444.43691 0.0090332704 0.0073549727         3969 
 4101000   0.59070755   -9.5705115    444.60293 0.0090344414 0.0073518709         3959 
 4102000   0.59310554   -9.5922895    444.90395 0.0090383543 0.0073487706         3972 
 4103000   0.59710344   -9.5937924    444.87266 0.0090355159 0.0073456733         3966 
 4104000   0.59766586   -9.5527798    444.81621  0.009032168 0.0073425745         3967 
 4105000   0.58655028   -9.5729823    445.22068 0.0090381786 0.0073394814         3970 
 4106000   0.60659198   -9.5537059    444.57299 0.0090228323 0.0073363902         3968 
 4107000   0.59140988    -9.585546    444.51857 0.0090195312 0.0073333011         3959 
 4108000    0.5893134   -9.5680602      445.142 0.0090299822 0.0073302119         3960 
 4109000   0.59974612   -9.5878683     445.4996 0.0090350369 0.0073271239         3966 
 4110000   0.58924973   -9.6099173    444.63228 0.0090152531 0.0073240371         3975 
 4111000   0.58591576   -9.5918736    444.97087 0.0090199237 0.0073209522         3965 
 4112000   0.60420103   -9.5751794    445.33532 0.0090251158 0.0073178701         3972 
 4113000   0.58154797   -9.5819726    444.94747 0.0090150635 0.0073147911         3961 
 4114000   0.58635817   -9.6022748    444.28882 0.0089995305 0.0073117124         3970 
 4115000   0.58368732   -9.5829455    445.13044 0.0090143871 0.0073086365         3965 
 4116000   0.58905922   -9.5831781     444.5407 0.0090002572 0.0073055615         3966 
 4117000   0.61013137   -9.6091173    443.98312 0.0089867849 0.0073024887         3972 
 4118000   0.59493243   -9.5721506    444.51096 0.0089952841 0.0072994205         3964 
 4119000   0.58445144   -9.5697665    445.42992 0.0090116921  0.007296351         3957 
 4120000   0.60049686   -9.5781691    445.22968 0.0090054547 0.0072932833         3967 
 4121000   0.59595019   -9.5729234    443.99685 0.0089783396 0.0072902182         3960 
 4122000   0.58837066   -9.5779375    445.33306 0.0090031753 0.0072871548         3956 
 4123000   0.58160129   -9.5853299    444.61093  0.008986396 0.0072840912         3966 
 4124000   0.58957849   -9.5873563    444.60344 0.0089840657 0.0072810297         3978 
 4125000   0.59647535   -9.5894942    444.31648 0.0089760905 0.0072779693         3975 
 4126000   0.58002883   -9.5751298    445.33005 0.0089943862 0.0072749092         3960 
 4127000   0.59233202   -9.5935988    444.37175 0.0089728566 0.0072718547         3963 
 4128000   0.58130346   -9.5792382    444.68787 0.0089770645 0.0072688001         3973 
 4129000   0.59335365   -9.5896766    444.48235 0.0089707426 0.0072657464         3964 
 4130000   0.59608439   -9.5884564    444.70642 0.0089730916 0.0072626967         3964 
 4131000   0.59667785   -9.6062395    444.73443 0.0089714845  0.007259647         3963 
 4132000    0.5935431    -9.570064     445.6206 0.0089871854 0.0072566003         3966 
 4133000   0.59080957   -9.5866155    444.10899 0.0089545324 0.0072535564         3969 
 4134000   0.58597303   -9.5985207    444.58432 0.0089619481 0.0072505116         3968 
 4135000   0.60057256   -9.6008748    443.91943 0.0089463811 0.0072474679         3962 
 4136000   0.58554769   -9.5724114    444.82129 0.0089623889 0.0072444269         3970 
 4137000   0.58247609   -9.5932308    445.00044 0.0089638313 0.0072413883         3973 
 4138000   0.57588811   -9.5564617    444.42472 0.0089500708 0.0072383538         3952 
 4139000   0.58874745   -9.5647159    445.23006  0.008964123 0.0072353199         3963 
 4140000   0.59376741   -9.5941489    444.51234 0.0089475108 0.0072322881         3956 
 4141000   0.59014102   -9.6000713    445.01238 0.0089554129  0.007229258         3958 
 4142000   0.59657618   -9.5876509    444.22207 0.0089373505 0.0072262249         3968 
 4143000   0.58373355    -9.600937    444.44661 0.0089397097 0.0072231984         3958 
 4144000   0.59524278   -9.5877312    444.13389 0.0089312638 0.0072201697         3968 
 4145000   0.58030968   -9.5931866    444.23127 0.0089310669 0.0072171438         3964 
 4146000   0.58302541    -9.581674    444.98494 0.0089440613 0.0072141186         3968 
 4147000   0.58098819   -9.5861012    444.15256 0.0089251781 0.0072110939         3964 
 4148000   0.59023504   -9.5970979    444.02769 0.0089205177 0.0072080736         3959 
 4149000   0.58853301   -9.5913243     444.7055 0.0089319817 0.0072050551         3967 
 4150000   0.59334932   -9.5915564    444.91421 0.0089340203 0.0072020365         3953 
 4151000   0.58953373   -9.6053183    443.98835  0.008913281 0.0071990181         3962 
 4152000    0.5834981   -9.5988443    443.86619 0.0089086824 0.0071960035         3965 
 4153000   0.58302144   -9.5973306    444.19591 0.0089131533 0.0071929903         3969 
 4154000   0.58793882   -9.6170945    444.72422 0.0089216061  0.007189979         3967 
 4155000   0.59460971   -9.5979981    444.21701 0.0089092861 0.0071869699         3964 
 4156000   0.58299838   -9.5971223    444.54861 0.0089137915 0.0071839622         3965 
 4157000    0.5930312   -9.5970732    444.52797 0.0089112335 0.0071809538         3959 
 4158000   0.58710743   -9.5853243    444.94805 0.0089175095   0.00717795         3961 
 4159000   0.59064966   -9.5956935     444.6993  0.008910381 0.0071749452         3961 
 4160000   0.59291048   -9.5864027    445.34144 0.0089211026 0.0071719453         3973 
 4161000   0.58828193   -9.5957447    443.89465 0.0088899833 0.0071689437         3967 
 4162000   0.57917795   -9.5926648    444.05841 0.0088911263 0.0071659467         3954 
 4163000    0.5867185   -9.5809654    444.87748 0.0089053863 0.0071629512         3959 
 4164000   0.57666273   -9.6048261    444.38533 0.0088933983 0.0071599581         3961 
 4165000   0.58960493   -9.5985857    444.25567 0.0088886688 0.0071569668         3967 
 4166000   0.58579876   -9.5857287    443.57819 0.0088729834 0.0071539781         3970 
 4167000   0.58439805   -9.6083699    444.63567 0.0088920021 0.0071509874         3968 
 4168000   0.58860405   -9.6206652    443.82085 0.0088735774 0.0071479991         3971 
 4169000   0.59062238   -9.5923064    444.51306 0.0088852855 0.0071450144         3963 
 4170000    0.5690456   -9.6074612      444.317 0.0088792367 0.0071420292         3967 
 4171000   0.56855378   -9.5948399    443.85516 0.0088678806 0.0071390464         3965 
 4172000   0.58936492   -9.5918951    444.68673 0.0088823653 0.0071360666         3963 
 4173000    0.5903324   -9.5944401    443.72264 0.0088609841 0.0071330893         3972 
 4174000   0.58829341   -9.5893373    443.79966 0.0088603989 0.0071301116         3965 
 4175000    0.5806912   -9.5946163     444.7837 0.0088779182 0.0071271371         3972 
 4176000   0.56955511     -9.60471    444.28193 0.0088657793 0.0071241604         3967 
 4177000   0.59269326   -9.5904434    444.28429 0.0088637038 0.0071211895         3962 
 4178000   0.60085457   -9.5880732    444.93328 0.0088745269 0.0071182224         3965 
 4179000   0.59099627   -9.5952641    444.18138 0.0088574097  0.007115255         3963 
 4180000   0.57013915   -9.5933195    444.01697  0.008852013 0.0071122885         3963 
 4181000   0.59344114   -9.5950079    444.72708 0.0088640493 0.0071093233         3961 
 4182000   0.58554687   -9.6038739    444.22019 0.0088518291 0.0071063599         3961 
 4183000   0.57934255   -9.5991684    443.86644 0.0088426655 0.0071034011         3963 
 4184000   0.57860561   -9.5985904    444.52148 0.0088535987  0.007100442         3972 
 4185000   0.57603989    -9.608933    444.91124  0.008859244 0.0070974849         3970 
 4186000   0.58755458   -9.5988633    444.02457 0.0088394762 0.0070945291         3963 
 4187000   0.58817281   -9.5836103    443.31008 0.0088231447 0.0070915758         3965 
 4188000   0.58421987   -9.5831625     444.5026 0.0088447668 0.0070886251         3960 
 4189000   0.58276771   -9.5923237    444.76035 0.0088477829 0.0070856752         3958 
 4190000   0.58989011   -9.6135427    443.53847 0.0088213698 0.0070827268         3959 
 4191000   0.58234862    -9.594182    444.18001 0.0088320212 0.0070797792         3972 
 4192000   0.57723438   -9.6062618    444.43038 0.0088348915 0.0070768351         3968 
 4193000   0.59062369   -9.6037402    443.71739 0.0088186142 0.0070738911         3968 
 4194000   0.58810249   -9.5768363    444.18484 0.0088257996 0.0070709481         3973 
 4195000   0.58069916   -9.6071973     444.7552 0.0088350258 0.0070680079         3950 
 4196000   0.58568921   -9.6240496    444.37063 0.0088252827 0.0070650697         3974 
 4197000   0.58419459   -9.6066541    443.85903 0.0088130218 0.0070621351         3968 
 4198000   0.58507839   -9.5940263    444.40189 0.0088216986 0.0070591977         3959 
 4199000   0.58702959   -9.5960505    444.06847 0.0088129806 0.0070562636         3956 
 4200000   0.57115761    -9.594514    444.42256 0.0088179079 0.0070533301         3965 
 4201000   0.57458361   -9.5773207    444.36619 0.0088146908 0.0070504002         3962 
 4202000   0.57791767   -9.5968464    444.75551 0.0088203139 0.0070474691         3964 
 4203000    0.5839411   -9.6165072    444.02728 0.0088037767 0.0070445412         3966 
 4204000   0.57159599   -9.6236509    444.14965 0.0088041081 0.0070416158         3966 
 4205000   0.57564141   -9.6046177    444.17612  0.008802539 0.0070386916         3968 
 4206000   0.57927293   -9.6193798    444.11551 0.0087992454 0.0070357677         3971 
 4207000   0.60231792   -9.6287451    443.95394 0.0087939532  0.007032844         3969 
 4208000   0.59094007   -9.6094441    443.58181  0.008784494 0.0070299235         3964 
 4209000   0.59075574   -9.6144219    444.30047 0.0087966356 0.0070270036         3973 
 4210000   0.57901477   -9.6204993    444.22834 0.0087931184 0.0070240876         3964 
 4211000   0.57804933   -9.6083761    443.66037 0.0087797905 0.0070211731         3964 
 4212000   0.58178613    -9.616578    444.59983 0.0087962929 0.0070182594         3974 
 4213000   0.56389901    -9.606532    444.80613 0.0087982857  0.007015347         3966 
 4214000   0.58933594   -9.5832925    444.99102 0.0087998541 0.0070124371         3958 
 4215000   0.58189129   -9.5996293    443.98943 0.0087779642 0.0070095269         3956 
 4216000   0.58832408    -9.595243    444.64212 0.0087887832 0.0070066182         3968 
 4217000   0.56731644   -9.6205325    444.01402  0.008774287 0.0070037129         3968 
 4218000    0.5770965   -9.6096001    443.69718 0.0087659472 0.0070008079         3967 
 4219000   0.58086248   -9.6267051    444.07904 0.0087714119 0.0069979073         3969 
 4220000   0.58472423   -9.5976337    444.67233 0.0087810493 0.0069950072         3961 
 4221000   0.57281492   -9.6119865    444.04789 0.0087666408 0.0069921077         3968 
 4222000   0.57480105     -9.62889    444.09183 0.0087654316 0.0069892088         3970 
 4223000   0.56399964   -9.6279146    443.94807 0.0087605193 0.0069863122         3972 
 4224000   0.58083208   -9.6054935    443.74542 0.0087544472 0.0069834187         3969 
 4225000   0.58771882   -9.6124654    443.98335  0.008757068 0.0069805264         3965 
 4226000   0.58216906    -9.614429    444.12057 0.0087577016 0.0069776358         3964 
 4227000   0.57184954   -9.6023738    443.64156 0.0087461864 0.0069747469         3967 
 4228000   0.58023752   -9.6123029    444.28279 0.0087567563 0.0069718606         3963 
 4229000    0.5747393   -9.6227344    443.82097 0.0087455854 0.0069689764         3975 
 4230000   0.57527054   -9.6139755    444.48594 0.0087566183  0.006966093         3961 
 4231000   0.58450433   -9.6130238    444.25671 0.0087500337 0.0069632127         3968 
 4232000   0.57198792   -9.6127935    444.06499 0.0087441909 0.0069603314         3963 
 4233000   0.57038232   -9.6299353    443.99432 0.0087407338 0.0069574542         3970 
 4234000   0.57273611   -9.6119956    444.67529 0.0087520722 0.0069545789         3967 
 4235000   0.57283783   -9.5998207    444.74412 0.0087513602 0.0069517035         3964 
 4236000   0.57866163   -9.5982392    444.22451 0.0087390721 0.0069488297         3962 
 4237000   0.57287806   -9.6072478    443.80984 0.0087288537 0.0069459575         3956 
 4238000   0.56828301    -9.613611    444.27641 0.0087359684 0.0069430886         3977 
 4239000   0.58016993   -9.6059682    444.47033 0.0087377197 0.0069402212         3952 
 4240000   0.57053062   -9.6166646    443.89341 0.0087243201 0.0069373527         3966 
 4241000   0.56463022   -9.6100607    443.93879 0.0087231547 0.0069344881         3974 
 4242000   0.57971074   -9.5958407    443.57011 0.0087138558 0.0069316238         3966 
 4243000   0.58135559    -9.616278    444.23816 0.0087249226 0.0069287619         3971 
 4244000   0.56856859   -9.6071919    444.31813 0.0087244371 0.0069259011         3963 
 4245000    0.5757053   -9.6236387    444.12485 0.0087185875 0.0069230413         3965 
 4246000   0.57576477   -9.6185025    443.82797 0.0087107075 0.0069201833         3969 
 4247000   0.58608322   -9.6173317    443.73319 0.0087067968 0.0069173285         3967 
 4248000    0.5682918   -9.6211032    443.71689 0.0087044275 0.0069144749         3964 
 4249000   0.57903927   -9.6232581    444.20696 0.0087119902 0.0069116213         3970 
 4250000    0.5762281   -9.6026055    443.67993 0.0086996065 0.0069087703         3962 
 4251000   0.57635419   -9.6114648    443.21809 0.0086885064 0.0069059201         3968 
 4252000   0.55543102   -9.6304781    443.44028 0.0086908177 0.0069030698         3970 
 4253000   0.55525973   -9.6195443    443.87442 0.0086972808 0.0069002219         3969 
 4254000   0.57093062   -9.6007817     443.5462 0.0086888065 0.0068973759         3966 
 4255000   0.57287727   -9.6384023    443.67851 0.0086893558  0.006894531         3966 
 4256000     0.571618   -9.6108494    443.44025 0.0086826491 0.0068916873         3965 
 4257000   0.56817893   -9.6248082    443.50774 0.0086819306 0.0068888466         3974 
 4258000   0.56526577   -9.6285311    444.26876 0.0086947855 0.0068860082         3970 
 4259000   0.56399871   -9.6152972     444.2131 0.0086916549 0.0068831713         3972 
 4260000   0.57987667   -9.6159655    444.25775  0.008690488 0.0068803353         3969 
 4261000   0.57034869   -9.6137932    444.00193 0.0086834454 0.0068775016         3968 
 4262000   0.56895204   -9.6220969    444.22358 0.0086857418 0.0068746687         3972 
 4263000   0.56871794   -9.6350409    444.03008 0.0086799219 0.0068718364         3962 
 4264000   0.57117369   -9.6277509    443.96234 0.0086765624 0.0068690064         3971 
 4265000   0.55844765   -9.5915886    444.76125 0.0086901377 0.0068661787         3973 
 4266000   0.57325267    -9.621648    443.82052 0.0086697242 0.0068633526         3968 
 4267000   0.57124951   -9.6218944    444.74383 0.0086857243 0.0068605273         3968 
 4268000   0.58582459    -9.613355    444.70335  0.008682899 0.0068577034         3965 
 4269000   0.55923938    -9.614345    444.28495 0.0086726976 0.0068548806         3964 
 4270000   0.56386384   -9.6286402    443.98337 0.0086647808 0.0068520604         3964 
 4271000   0.57143194   -9.6095501    444.58469 0.0086744846 0.0068492408         3971 
 4272000   0.56425543   -9.6107269    444.33932 0.0086676677 0.0068464248         3960 
 4273000   0.56827845   -9.6022059    443.33844 0.0086461199 0.0068436061         3971 
 4274000   0.57317861   -9.6423274    443.92992 0.0086556295 0.0068407919         3965 
 4275000   0.56742717   -9.6264721    443.89385 0.0086529016 0.0068379783         3968 
 4276000   0.56295843   -9.6273417    444.29395 0.0086586754 0.0068351671         3977 
 4277000   0.56290251   -9.6436901    443.24691 0.0086362503 0.0068323559         3963 
 4278000   0.56683725   -9.6313134    443.54292 0.0086399978 0.0068295465         3969 
 4279000   0.55914652   -9.6070566    443.54646 0.0086380475 0.0068267409         3967 
 4280000   0.56977555   -9.6274844    443.62827 0.0086376222 0.0068239345         3974 
 4281000   0.57407255   -9.6167828    443.79483 0.0086388467   0.00682113         3968 
 4282000   0.56619501   -9.6206996    443.89774 0.0086388319 0.0068183285         3953 
 4283000    0.5689418   -9.6356017    443.26747  0.008624552 0.0068155283         3968 
 4284000   0.56567408   -9.6297777     443.7718 0.0086323491 0.0068127298         3976 
 4285000   0.56996516   -9.6112477    443.52911 0.0086256147 0.0068099316         3965 
 4286000   0.57230949    -9.609939    443.48514 0.0086227474 0.0068071346         3970 
 4287000   0.56579834   -9.6160652    443.98986 0.0086305469 0.0068043395         3963 
 4288000    0.5472015    -9.637394    443.54731 0.0086199338 0.0068015451         3968 
 4289000   0.55990009   -9.6279978     444.1125 0.0086289053 0.0067987524         3956 
 4290000   0.56164802   -9.6218464    444.42926 0.0086330469 0.0067959631         3963 
 4291000   0.56627169   -9.6109473    443.83667 0.0086195268 0.0067931738         3968 
 4292000   0.55977278   -9.6385742    444.39988 0.0086284538 0.0067903855         3973 
 4293000   0.56353558   -9.6212397    443.77061 0.0086142288 0.0067875999         3964 
 4294000   0.55978351   -9.6272575    443.66729 0.0086102176 0.0067848193         3958 
 4295000   0.55378907   -9.6067104    443.18602 0.0085988751 0.0067820369         3966 
 4296000    0.5548983   -9.6105205    444.34965 0.0086194454 0.0067792559         3960 
 4297000   0.56291344   -9.6083078    444.01619 0.0086109726 0.0067764752         3965 
 4298000   0.55246352   -9.6188634    444.20866 0.0086127008 0.0067736962         3965 
 4299000   0.56430127   -9.6237478    443.94513  0.008605589 0.0067709202         3967 
 4300000   0.56553706   -9.6229933    443.86125 0.0086019623 0.0067681452         3969 
 4301000   0.55678555   -9.6281169    443.92184 0.0086011362 0.0067653719         3971 
 4302000   0.55585588   -9.6272309     443.7195 0.0085952174    0.0067626         3964 
 4303000   0.57093573   -9.6278792    443.35033 0.0085860704 0.0067598293         3966 
 4304000   0.58014966   -9.6313914    443.71801 0.0085911944 0.0067570618         3970 
 4305000   0.57066568   -9.6167286    444.42803 0.0086029429 0.0067542967         3963 
 4306000   0.57643507    -9.620497    443.33795 0.0085798489 0.0067515312         3962 
 4307000   0.55144808   -9.6280001    443.33421 0.0085777844 0.0067487672         3964 
 4308000   0.56805155   -9.6476052     443.4453 0.0085779421 0.0067460059         3971 
 4309000   0.54405599   -9.6126467    443.93948 0.0085855086 0.0067432416         3970 
 4310000   0.56859836   -9.6342479    443.21083 0.0085694283  0.006740481         3971 
 4311000   0.56041795   -9.6244816    443.91247 0.0085810034 0.0067377228         3955 
 4312000   0.55564316   -9.6429442    443.69423 0.0085747957 0.0067349688         3970 
 4313000   0.55174007   -9.6201712    443.80538 0.0085749551 0.0067322133         3968 
 4314000   0.55919623   -9.6320891    444.19214 0.0085804386  0.006729462         3971 
 4315000   0.55452062   -9.6395482    443.49843 0.0085650528 0.0067267097         3965 
 4316000   0.57149259   -9.6338774    443.77942 0.0085684936 0.0067239584         3961 
 4317000   0.56327794   -9.6310399    443.26862 0.0085566484 0.0067212083         3963 
 4318000   0.55735626   -9.6103342    443.90726  0.008566992 0.0067184617         3960 
 4319000   0.57192068   -9.6288303    442.99414 0.0085473901 0.0067157161         3973 
 4320000   0.55158123    -9.627902    443.76998 0.0085603777 0.0067129687         3973 
 4321000     0.557246    -9.629198    443.59189 0.0085549621 0.0067102278         3972 
 4322000   0.55188758   -9.6163958    443.04787 0.0085424933  0.006707486         3949 
 4323000   0.56380453   -9.6282778     443.0531 0.0085406179 0.0067047458         3971 
 4324000   0.56000515   -9.6263379     443.3356 0.0085440873 0.0067020066         3971 
 4325000   0.56166631   -9.6287033    443.94019 0.0085537608 0.0066992682         3968 
 4326000   0.55652981   -9.6182256    443.50757 0.0085434499 0.0066965306         3959 
 4327000   0.56334012   -9.6303035    444.09746 0.0085528361 0.0066937993         3962 
 4328000   0.56004435   -9.6313529    443.63266 0.0085419104 0.0066910673         3960 
 4329000   0.56697505    -9.656428    443.48406 0.0085370768 0.0066883347         3969 
 4330000   0.56482258   -9.6358381    443.14606 0.0085286001 0.0066856066         3977 
 4331000   0.55699537   -9.6451959    443.59138 0.0085351994 0.0066828781         3962 
 4332000   0.55916675   -9.6204031    443.95307 0.0085401869 0.0066801507         3972 
 4333000   0.56326544   -9.6351415    443.68129 0.0085329889 0.0066774264         3966 
 4334000   0.55897803    -9.628638    444.47554 0.0085462917 0.0066747038         3965 
 4335000    0.5630589   -9.6330864    443.03643 0.0085166557 0.0066719824         3962 
 4336000   0.55466776   -9.6412151    443.90054 0.0085312989 0.0066692629         3968 
 4337000   0.56471832   -9.6262578    443.44801 0.0085206366 0.0066665449         3962 
 4338000   0.55471391     -9.62319    443.31535 0.0085161241 0.0066638282         3980 
 4339000   0.54721525    -9.645485    443.52904 0.0085182653 0.0066611145         3970 
 4340000   0.55857246   -9.6381634    442.83909 0.0085030547 0.0066583992         3968 
 4341000   0.55027863   -9.6095373    444.55662 0.0085340671 0.0066556856         3970 
 4342000   0.54572736   -9.6181387    443.27992 0.0085075987 0.0066529741         3965 
 4343000   0.55559498   -9.6356157    443.39055 0.0085077625 0.0066502645         3974 
 4344000   0.56358752    -9.623157    443.73372 0.0085123873  0.006647557         3965 
 4345000    0.5695192    -9.629785     443.7127  0.008510025  0.006644849         3968 
 4346000    0.5593967   -9.6394958    443.92117 0.0085120641  0.006642142         3970 
 4347000   0.55122043    -9.629049    443.53934 0.0085027862 0.0066394365         3965 
 4348000   0.56097559   -9.6341137    443.21638 0.0084946408 0.0066367351         3969 
 4349000   0.53935404   -9.6362099    443.26822 0.0084936809 0.0066340357         3961 
 4350000   0.55022905   -9.6542225    443.18141 0.0084900652 0.0066313373         3962 
 4351000   0.55794468   -9.6273288    443.27332 0.0084898744 0.0066286374         3960 
 4352000   0.56306032   -9.6491001    444.18882 0.0085054538 0.0066259409         3971 
 4353000   0.55517533   -9.6519638    443.27084 0.0084859261 0.0066232438         3973 
 4354000   0.55537876   -9.6190025    443.77152   0.00849356 0.0066205497         3965 
 4355000   0.55308141   -9.6468358    442.96635 0.0084762026 0.0066178569         3973 
 4356000   0.55620384   -9.6400488    443.90488 0.0084922115  0.006615167         3973 
 4357000   0.56296509   -9.6403136    443.11258 0.0084751087 0.0066124763         3965 
 4358000   0.55340532   -9.6426959    443.03843 0.0084717461  0.006609788         3972 
 4359000   0.55836145    -9.625204    443.57134 0.0084799905 0.0066071015         3966 
 4360000   0.55293115   -9.6471473    444.02105 0.0084866408 0.0066044165         3967 
 4361000   0.54371119   -9.6435315    442.21253 0.0084501362 0.0066017336         3968 
 4362000   0.55591494   -9.6281049    443.35882 0.0084700981 0.0065990496         3967 
 4363000   0.55239019   -9.6599796     443.2722 0.0084665024 0.0065963683         3977 
 4364000   0.55411698   -9.6443124    443.05893 0.0084604898  0.006593688         3970 
 4365000   0.55223394   -9.6244192    443.33161 0.0084637574 0.0065910105         3967 
 4366000   0.55414624   -9.6601308    443.54949 0.0084659774 0.0065883372         3971 
 4367000   0.54665893   -9.6254215    442.95225 0.0084526421 0.0065856642         3973 
 4368000    0.5557495   -9.6412377    444.24796 0.0084754266 0.0065829921         3967 
 4369000   0.56101223   -9.6441859    443.40716 0.0084574495 0.0065803196         3966 
 4370000   0.54654952   -9.6435523    443.41949 0.0084557493 0.0065776488         3969 
 4371000   0.55445914   -9.6273352    443.82821 0.0084616071 0.0065749809         3968 
 4372000   0.54427687    -9.643986    442.52813 0.0084348911 0.0065723148         3974 
 4373000   0.56120896   -9.6405611    443.03596 0.0084426397  0.006569647         3965 
 4374000   0.55905842   -9.6478796    443.48917 0.0084493441 0.0065669815         3966 
 4375000   0.56106495   -9.6426647     442.5465 0.0084294571 0.0065643166         3969 
 4376000    0.5582589   -9.6486183    442.72684  0.008430965 0.0065616564         3971 
 4377000   0.55139709   -9.6447662    442.92642 0.0084328388  0.006558997         3971 
 4378000   0.55222566   -9.6386726    443.92541 0.0084499278 0.0065563401         3959 
 4379000   0.55429783   -9.6595727    443.66768 0.0084430936 0.0065536823         3964 
 4380000    0.5494605   -9.6564748    443.85155 0.0084446641 0.0065510289         3955 
 4381000   0.55937133   -9.6488262    442.92309 0.0084250759 0.0065483757         3973 
 4382000   0.55232274   -9.6418597    442.64525 0.0084178695 0.0065457207         3969 
 4383000   0.54607164   -9.6429517    444.05475 0.0084427475 0.0065430711         3964 
 4384000   0.55322398   -9.6385464    443.32929 0.0084270318 0.0065404188         3969 
 4385000   0.55169003   -9.6470538    444.16227 0.0084409402 0.0065377693         3963 
 4386000   0.54840753   -9.6492312    443.82577 0.0084326222 0.0065351204         3960 
 4387000   0.55153126    -9.646567    443.33803 0.0084214351 0.0065324737         3980 
 4388000   0.55646817   -9.6499384    443.06898 0.0084144063 0.0065298283         3969 
 4389000   0.55220813   -9.6451811    443.65717  0.008423657 0.0065271859         3967 
 4390000   0.55082421    -9.653104    443.43817  0.008417581 0.0065245465         3966 
 4391000   0.54917836   -9.6494392    443.89662 0.0084243647  0.006521907         3961 
 4392000   0.56410894   -9.6386013    442.46009   0.00839519 0.0065192673         3961 
 4393000   0.55953919   -9.6371031    443.67235 0.0084162749 0.0065166317         3966 
 4394000   0.54536034    -9.655247     443.6805 0.0084145141 0.0065139973         3964 
 4395000   0.54292323   -9.6388455    442.42879 0.0083888659 0.0065113641         3965 
 4396000   0.55047079   -9.6491714    443.03245 0.0083984009 0.0065087313         3959 
 4397000   0.55611685   -9.6490635    442.91108 0.0083941908 0.0065060982         3974 
 4398000   0.54022494   -9.6608229    442.90663 0.0083921979  0.006503469         3965 
 4399000   0.54549325   -9.6464327    442.85396 0.0083892923 0.0065008421         3965 
 4400000   0.55956761   -9.6396758    443.21099 0.0083941476 0.0064982164         3976 
 4401000   0.55095771   -9.6418719    443.88924 0.0084050829 0.0064955917         3971 
 4402000   0.54533618   -9.6439346    443.30068 0.0083920317  0.006492969         3971 
 4403000    0.5565955   -9.6471596    443.28726 0.0083898717 0.0064903473         3970 
 4404000   0.55154367   -9.6515341    443.27865 0.0083878038 0.0064877265         3974 
 4405000   0.54209084   -9.6524929    442.50235 0.0083712137 0.0064851077         3974 
 4406000   0.54396757   -9.6527652    443.33582 0.0083850775 0.0064824929         3979 
 4407000   0.55802108   -9.6527799    443.10956 0.0083788965 0.0064798776         3965 
 4408000   0.53109212   -9.6638426    443.03837 0.0083756498 0.0064772612         3967 
 4409000   0.55075371   -9.6439087    442.87473 0.0083706572 0.0064746475         3970 
 4410000   0.53381964   -9.6447578    443.25854 0.0083760116  0.006472037         3960 
 4411000     0.543697    -9.666984     442.9057 0.0083674468 0.0064694252         3967 
 4412000   0.55340229   -9.6552713    443.20361 0.0083711773  0.006466815         3969 
 4413000   0.54261035   -9.6459985    442.95776 0.0083646379 0.0064642068         3973 
 4414000   0.53704734   -9.6594073    442.81604 0.0083600673 0.0064615992         3966 
 4415000   0.54474351   -9.6563576    442.95778 0.0083608489 0.0064589937         3972 
 4416000   0.54406008   -9.6524459    442.94855 0.0083587815  0.006456391         3961 
 4417000   0.54427937   -9.6625165    442.60242 0.0083503588 0.0064537888         3964 
 4418000   0.54597598   -9.6602989     443.3925 0.0083633715 0.0064511901         3975 
 4419000   0.54452291   -9.6488475    443.38556  0.008361348 0.0064485913         3974 
 4420000   0.54318578    -9.645275    443.56231 0.0083627887 0.0064459954         3971 
 4421000   0.55109968    -9.666825     443.2948 0.0083558547 0.0064433964         3964 
 4422000   0.53335198    -9.648813    443.74463 0.0083624421 0.0064407997         3975 
 4423000   0.53964822   -9.6455423    443.36694 0.0083534355 0.0064382044         3974 
 4424000   0.54523328    -9.645648    443.01228 0.0083448666 0.0064356111         3966 
 4425000   0.53542323   -9.6482064    443.36934  0.008349705  0.006433019         3970 
 4426000   0.55739098   -9.6634276    443.30681 0.0083466413 0.0064304298         3978 
 4427000    0.5486078    -9.665571    443.02407 0.0083394336 0.0064278408         3968 
 4428000   0.54768147   -9.6506392    442.62351 0.0083300119 0.0064252559         3971 
 4429000   0.55422251   -9.6479961    442.58766 0.0083274566  0.006422671         3972 
 4430000   0.54460999   -9.6516214    442.85367 0.0083305807 0.0064200874         3966 
 4431000   0.54170684   -9.6636097    442.84548 0.0083285466 0.0064175033         3979 
 4432000    0.5389888   -9.6515504    442.94374  0.008328515 0.0064149225         3972 
 4433000   0.54483179   -9.6346224    443.85473 0.0083437614 0.0064123432         3968 
 4434000   0.54367914   -9.6475251    442.64142 0.0083190764 0.0064097665         3975 
 4435000   0.53204983   -9.6648707    443.04578 0.0083247985 0.0064071885         3967 
 4436000   0.54687467   -9.6505269     443.0104 0.0083222572  0.006404612         3977 
 4437000   0.54426286   -9.6582737    442.65569 0.0083137196 0.0064020369         3969 
 4438000   0.53322284     -9.65755    443.00788 0.0083184595  0.006399464         3961 
 4439000   0.54015828   -9.6495554    442.74412  0.008311634 0.0063968903         3974 
 4440000   0.54259452   -9.6537173    443.34154 0.0083209749 0.0063943171         3972 
 4441000   0.53992022   -9.6686334    443.67795 0.0083254137  0.006391747         3972 
 4442000   0.54474895   -9.6627273    442.85145 0.0083080341 0.0063891779         3970 
 4443000   0.55073083   -9.6780845    442.73519 0.0083039836 0.0063866118         3968 
 4444000   0.54518743   -9.6759561    443.09043 0.0083087765 0.0063840469         3968 
 4445000   0.53721274   -9.6571236    443.16086 0.0083082276 0.0063814832         3977 
 4446000   0.54589624   -9.6680072    442.16105 0.0082876191 0.0063789221         3975 
 4447000   0.53329335   -9.6697678    442.62942 0.0082945323  0.006376361         3972 
 4448000   0.54924481   -9.6735411    443.53248 0.0083095863 0.0063738022         3972 
 4449000   0.53431839   -9.6628705    443.21419 0.0083017567 0.0063712433         3967 
 4450000   0.55498836   -9.6512758    442.70053 0.0082902721 0.0063686872         3968 
 4451000   0.53207704    -9.654141    443.41639 0.0083018122 0.0063661348         3974 
 4452000   0.53448264   -9.6629313    442.50317 0.0082828536 0.0063635797         3967 
 4453000   0.54615219    -9.652169     442.6005 0.0082828149 0.0063610284         3971 
 4454000   0.54180746   -9.6685489    442.89778 0.0082865173 0.0063584767         3966 
 4455000   0.53896035    -9.683479    442.61902  0.008279443 0.0063559273         3976 
 4456000    0.5577692   -9.6631312    442.53316 0.0082759792 0.0063533783         3968 
 4457000   0.52917949   -9.6626876     442.7066 0.0082773651 0.0063508319         3965 
 4458000   0.54095811   -9.6549818    442.98716  0.008280753 0.0063482862         3971 
 4459000   0.53479652     -9.66377    443.67262 0.0082917063 0.0063457403         3975 
 4460000   0.53288216   -9.6768671     442.2867 0.0082639517 0.0063431967         3971 
 4461000   0.52980326   -9.6585488    441.73274 0.0082517511 0.0063406546         3972 
 4462000   0.54768156   -9.6723407    443.14785 0.0082763306 0.0063381135         3971 
 4463000   0.53793294   -9.6613869    442.87369  0.008269357 0.0063355736         3979 
 4464000    0.5310871   -9.6566439    443.56192 0.0082803525 0.0063330374         3973 
 4465000   0.53219617    -9.663817    443.29139 0.0082734488 0.0063305003         3977 
 4466000   0.52478248   -9.6720261    442.64085 0.0082594576 0.0063279661         3971 
 4467000   0.54069789   -9.6768046    443.10671 0.0082662993 0.0063254341         3970 
 4468000   0.53111082   -9.6608241    443.60663 0.0082737734  0.006322904         3976 
 4469000   0.53931932   -9.6689874    442.78457  0.008256593 0.0063203751         3962 
 4470000   0.53219555   -9.6659825    443.49932 0.0082680709 0.0063178476         3972 
 4471000   0.54180739   -9.6681087    442.70089   0.00825134 0.0063153197         3967 
 4472000   0.53932987   -9.6700346    443.02293 0.0082554958 0.0063127933         3972 
 4473000   0.53048739   -9.6761988    442.56378 0.0082450961 0.0063102665         3970 
 4474000   0.54126756   -9.6686488    442.73306 0.0082464063 0.0063077429         3969 
 4475000   0.53645724   -9.6854907    442.11514 0.0082330566 0.0063052198         3973 
 4476000   0.52875823   -9.6638372     443.3805 0.0082547756 0.0063027016         3971 
 4477000     0.546056   -9.6850434    442.43288  0.008235293 0.0063001821         3976 
 4478000   0.52371328   -9.6680026     442.4956 0.0082346212 0.0062976636         3970 
 4479000   0.54075268   -9.6772617     442.7402 0.0082373335 0.0062951478         3968 
 4480000   0.52553295   -9.6824889    441.82771 0.0082185214 0.0062926306         3969 
 4481000   0.53412177   -9.6879116    442.66406 0.0082322409 0.0062901167         3971 
 4482000   0.52747036   -9.6616608    442.86938 0.0082342217 0.0062876056         3974 
 4483000   0.54607613   -9.6639448    443.33722 0.0082410816 0.0062850964         3965 
 4484000   0.52797416   -9.6728548    442.23022 0.0082186705 0.0062825893         3970 
 4485000    0.5332374   -9.6908156    442.39044  0.008219815 0.0062800807         3975 
 4486000   0.53904436   -9.6739065      443.435 0.0082373868  0.006277574         3981 
 4487000   0.54212829    -9.660801    442.86442 0.0082249539 0.0062750682         3977 
 4488000   0.54739747   -9.6640805    442.73689 0.0082207534 0.0062725645         3970 
 4489000   0.53551008   -9.6604708    443.38488 0.0082309512 0.0062700617         3970 
 4490000   0.53001273   -9.6824751    442.99177 0.0082218219 0.0062675599         3967 
 4491000   0.54088321   -9.6725434    442.37818 0.0082086057 0.0062650615         3968 
 4492000   0.54132587   -9.6636802    442.89836 0.0082164285 0.0062625623         3968 
 4493000   0.53646828   -9.6853248    443.40126 0.0082239271 0.0062600658         3979 
 4494000   0.53795391   -9.6836355    442.62905 0.0082077779 0.0062575699         3970 
 4495000   0.53739155   -9.6788632    442.66002 0.0082065262 0.0062550766         3972 
 4496000   0.54012795   -9.6717359    442.69447 0.0082053394 0.0062525841         3974 
 4497000   0.54366824   -9.6829869    443.10592 0.0082111393 0.0062500929         3971 
 4498000   0.53277495   -9.6888523    442.97359 0.0082068622 0.0062476038         3969 
 4499000   0.53413362   -9.6715274    442.36748 0.0081938112 0.0062451147         3973 
 4500000   0.53602473   -9.6742673    443.18666 0.0082071603 0.0062426264         3977 
 4501000   0.52341048   -9.6891052    441.95578  0.008182548 0.0062401381         3975 
 4502000   0.53018942    -9.678124    442.61661 0.0081929626 0.0062376527         3974 
 4503000   0.53806008   -9.6804164    442.30456 0.0081853683 0.0062351699         3965 
 4504000   0.52907276   -9.6683077     442.6427 0.0081898073 0.0062326886         3976 
 4505000   0.53026033   -9.6587236     442.5774 0.0081867813 0.0062302069         3974 
 4506000   0.51250272    -9.683823    442.64047 0.0081861309 0.0062277253         3977 
 4507000    0.5166231   -9.6842187    442.77022 0.0081867137 0.0062252463         3970 
 4508000   0.53074976   -9.6899028    442.43468 0.0081786949 0.0062227695         3974 
 4509000   0.52665369   -9.6868396    442.86511  0.008184836 0.0062202949         3969 
 4510000   0.53185701    -9.662955    441.98275 0.0081667176 0.0062178211         3974 
 4511000    0.5334051   -9.6861199    442.88152 0.0081815104 0.0062153494         3976 
 4512000   0.51741325   -9.6593244    442.66838 0.0081757605 0.0062128784         3968 
 4513000   0.52490173   -9.6756742    443.08806 0.0081816983 0.0062104085         3977 
 4514000   0.52331332   -9.6643593    442.56744 0.0081702748 0.0062079401         3976 
 4515000   0.53051742   -9.6731659    443.09235 0.0081781535 0.0062054718         3975 
 4516000   0.52909197   -9.6678674    442.64471 0.0081680822  0.006203004         3969 
 4517000   0.53825651   -9.6813765     443.1019 0.0081747084  0.006200538         3969 
 4518000   0.52871235   -9.6833782    442.40589 0.0081600614 0.0061980758         3972 
 4519000   0.52577646   -9.6794007    442.22229   0.00815487 0.0061956153         3976 
 4520000   0.53073766   -9.6891871    442.54032 0.0081589292 0.0061931532         3972 
 4521000   0.53462332    -9.682698    442.57906 0.0081578386 0.0061906937         3969 
 4522000   0.53656778   -9.6793874     442.9449 0.0081627763 0.0061882352         3974 
 4523000   0.52545389   -9.6790256    442.45106 0.0081518731  0.006185779         3977 
 4524000   0.52685853   -9.6801598    442.33674 0.0081479652 0.0061833229         3980 
 4525000   0.52877162   -9.6709095    441.96694 0.0081393544 0.0061808689         3968 
 4526000   0.52910337   -9.6555021    443.22533 0.0081607256 0.0061784165         3974 
 4527000   0.53297229   -9.6628852    442.52677 0.0081460637 0.0061759655         3975 
 4528000   0.53256142   -9.6863284    443.50908 0.0081623431 0.0061735148         3971 
 4529000   0.53842522   -9.6796027     442.2678 0.0081377014 0.0061710658         3964 
 4530000   0.52794614   -9.6712974    442.86241 0.0081468435 0.0061686193         3972 
 4531000   0.52627166   -9.6699119    442.71374 0.0081423111 0.0061661736         3978 
 4532000   0.53870674    -9.688688    442.74179 0.0081410303 0.0061637279         3967 
 4533000   0.50943561    -9.690724    443.44149 0.0081520975 0.0061612835         3974 
 4534000   0.53891539   -9.6924707    442.57637 0.0081343988  0.006158841         3969 
 4535000   0.53102759   -9.6718023    441.60354 0.0081147287 0.0061563997         3971 
 4536000   0.51750105   -9.6730487    442.73785 0.0081337788 0.0061539591         3969 
 4537000   0.52071368   -9.6617613    442.34355 0.0081247438 0.0061515209         3969 
 4538000   0.52861205   -9.6736196    443.10195 0.0081368802 0.0061490856         3978 
 4539000   0.51724231   -9.6750636    442.43756 0.0081228897 0.0061466519         3973 
 4540000   0.52103012   -9.6794561    442.51713  0.008122561  0.006144218         3970 
 4541000   0.52178035   -9.6870217    442.03641 0.0081119505 0.0061417842         3966 
 4542000    0.5355794   -9.6800301    442.84992 0.0081250903 0.0061393521         3965 
 4543000   0.52254499   -9.6756402    443.05421 0.0081270491 0.0061369225         3967 
 4544000   0.51902358   -9.7043702      442.011  0.008106129 0.0061344939         3976 
 4545000   0.52080018   -9.6957373    441.93338 0.0081029222 0.0061320658         3970 
 4546000   0.52668634   -9.7041182    442.36119  0.008108982 0.0061296394         3966 
 4547000   0.51637096   -9.6734911    442.55448 0.0081107412 0.0061272125         3970 
 4548000   0.52593308   -9.6902301    442.77487 0.0081129959 0.0061247874         3969 
 4549000   0.53442228   -9.6991692    442.79035 0.0081114961  0.006122364         3973 
 4550000   0.52546096   -9.6840477    442.61444 0.0081064916 0.0061199435         3970 
 4551000   0.51285767   -9.6831439     442.7243  0.008106722 0.0061175225         3976 
 4552000   0.51854246    -9.696579    442.81749 0.0081066471  0.006115104         3964 
 4553000   0.51679969   -9.6872521    442.20508 0.0080936576 0.0061126845         3978 
 4554000   0.52363321   -9.6994791    442.08747 0.0080897283 0.0061102666         3977 
 4555000   0.51923794   -9.7039859    442.40575 0.0080937751 0.0061078501         3962 
 4556000   0.51689995    -9.684945    442.45877 0.0080929685 0.0061054355         3974 
 4557000   0.51666614   -9.6881677    442.53732 0.0080926289 0.0061030233         3968 
 4558000    0.5246991   -9.6875362    441.97664 0.0080806026 0.0061006103         3974 
 4559000   0.52558673   -9.6886123    442.08082 0.0080807344  0.006098199         3970 
 4560000   0.52327396   -9.7048223     442.2199 0.0080815041 0.0060957883         3979 
 4561000   0.52079816   -9.7070467    442.87576 0.0080917153 0.0060933796         3967 
 4562000   0.52225397   -9.7104071    442.34807 0.0080803022 0.0060909702         3973 
 4563000   0.52442411   -9.7039804    442.01193 0.0080723926 0.0060885634         3970 
 4564000    0.5174798   -9.6825047    442.28503 0.0080756105 0.0060861585         3978 
 4565000   0.52235572   -9.7059966    442.37207 0.0080754302 0.0060837546         3981 
 4566000   0.51489363   -9.6854371    442.14896 0.0080695897 0.0060813522         3972 
 4567000   0.52101662   -9.6863846    442.75722 0.0080789216  0.006078952         3967 
 4568000   0.52136082   -9.6959692    442.01535 0.0080636192 0.0060765541         3972 
 4569000   0.52371969   -9.6958532    442.45971 0.0080699589 0.0060741552         3969 
 4570000   0.52965554   -9.6821364    442.22556 0.0080639234 0.0060717573         3977 
 4571000   0.52689178   -9.6962293    442.65075 0.0080699109   0.00606936         3971 
 4572000     0.523186   -9.7006101    442.32521 0.0080622123  0.006066966         3975 
 4573000   0.51081409   -9.7004671    442.12423 0.0080567867 0.0060645727         3971 
 4574000   0.51195393   -9.6790542    442.52455 0.0080623187 0.0060621819         3974 
 4575000   0.51446653    -9.700056     442.6437 0.0080627268   0.00605979         3974 
 4576000   0.51717872   -9.7110673    442.24037 0.0080536197    0.0060574         3968 
 4577000   0.52577727   -9.7086564    441.95404 0.0080466469 0.0060550111         3978 
 4578000   0.52498365   -9.6846428    442.02222 0.0080461305  0.006052625         3967 
 4579000   0.52839002   -9.6935488    442.36129  0.008050544 0.0060502404         3967 
 4580000   0.50088017   -9.6972211    442.11056 0.0080442242 0.0060478543         3970 
 4581000   0.53366667   -9.6937671    442.53968 0.0080502743 0.0060454717         3981 
 4582000   0.52483329   -9.7001583    442.69345  0.008051314 0.0060430897         3977 
 4583000   0.51578923   -9.6869514    442.55571 0.0080470526 0.0060407092         3974 
 4584000   0.52944738   -9.7002447     442.0569 0.0080362293 0.0060383296         3970 
 4585000   0.52747696   -9.7092076    442.64855   0.00804523 0.0060359502         3974 
 4586000   0.50118924   -9.7022205    441.77373 0.0080275791 0.0060335731         3973 
 4587000   0.53177771   -9.6969237    442.32334 0.0080358139 0.0060311985         3973 
 4588000   0.50799306   -9.6828631    442.72215 0.0080413062 0.0060288227         3979 
 4589000   0.51585486   -9.6948696    442.75118  0.008040081 0.0060264505         3965 
 4590000   0.51269896   -9.6936999    442.44788 0.0080328228 0.0060240786         3979 
 4591000   0.51531979   -9.7082251     442.3296 0.0080289262 0.0060217097         3980 
 4592000   0.51803952   -9.7201611    441.54431 0.0080129267  0.006019339         3970 
 4593000   0.51577189   -9.6948904    441.63795  0.008012881 0.0060169712         3975 
 4594000   0.51767556   -9.7007472    442.47307 0.0080262855  0.006014604         3974 
 4595000   0.51005163   -9.6971121    441.71819 0.0080108486 0.0060122374         3971 
 4596000   0.50783459   -9.6988399    441.85952 0.0080116681 0.0060098751         3969 
 4597000   0.51360877   -9.7031798    442.17373 0.0080156212 0.0060075129         3973 
 4598000   0.51464863   -9.7060758    442.30898 0.0080163291 0.0060051527         3974 
 4599000   0.51971384   -9.6871402    441.98466 0.0080087094 0.0060027929         3967 
 4600000   0.52193692   -9.7107704    442.28766 0.0080124577 0.0060004338         3971 
 4601000    0.5100056   -9.7111759    441.91419 0.0080039519 0.0059980765         3973 
 4602000   0.51826273   -9.7170508    442.24779 0.0080082535 0.0059957214         3967 
 4603000   0.52305757   -9.6797073    442.63835 0.0080135844 0.0059933666         3977 
 4604000   0.52955072   -9.6941488    443.15069 0.0080211173 0.0059910158         3971 
 4605000   0.51510862   -9.7078234    441.84459 0.0079957399 0.0059886642         3973 
 4606000   0.51696761    -9.693577    442.37737 0.0080036432 0.0059863131         3975 
 4607000   0.51893454   -9.7057689    442.18126 0.0079983587 0.0059839636         3975 
 4608000   0.50580419   -9.7190607    442.51693 0.0080026933 0.0059816138         3981 
 4609000   0.51354523   -9.6993541    442.06887 0.0079928559 0.0059792647         3977 
 4610000   0.51289566   -9.7089322    442.20334 0.0079935528 0.0059769191         3975 
 4611000   0.52017205   -9.6869745    441.87915 0.0079859602 0.0059745742         3975 
 4612000    0.5094818   -9.6995064    442.50555 0.0079955469 0.0059722307         3968 
 4613000   0.50815508   -9.7035689    441.88398 0.0079825852  0.005969887         3969 
 4614000   0.51481189   -9.7212201    441.81232 0.0079795607 0.0059675448         3976 
 4615000   0.51335658   -9.7103522    442.34916 0.0079875254 0.0059652028         3964 
 4616000   0.51482049   -9.7055096    441.85292 0.0079768364 0.0059628623         3972 
 4617000   0.50869122   -9.6993234    441.78221 0.0079738324 0.0059605257         3974 
 4618000   0.51418235   -9.7051616    442.44679 0.0079840983 0.0059581897         3974 
 4619000   0.49948576   -9.7052668    441.58214 0.0079667703 0.0059558544         3976 
 4620000   0.50960967   -9.7048932    442.44938 0.0079806886 0.0059535209         3979 
 4621000   0.49728149   -9.7086539    441.97137 0.0079703413  0.005951187         3977 
 4622000   0.51472802   -9.7177757    442.48147 0.0079778139  0.005948854         3979 
 4623000   0.50084739   -9.7077373     441.8039 0.0079638744 0.0059465222         3979 
 4624000   0.51877697   -9.6960043    441.72711 0.0079607683 0.0059441938         3968 
 4625000    0.5125088   -9.6939304    441.98474  0.007963689 0.0059418652         3975 
 4626000   0.50283378   -9.7105374    441.89425 0.0079603375 0.0059395367         3974 
 4627000    0.5104181   -9.7227027    442.00767 0.0079606597 0.0059372101         3977 
 4628000   0.50584495   -9.7206238    442.46683 0.0079672074 0.0059348866         3972 
 4629000   0.51275116   -9.7146845     442.9381 0.0079739702 0.0059325645         3979 
 4630000    0.5174365   -9.7130645    442.24562 0.0079597844 0.0059302437         3971 
 4631000   0.50663413   -9.7092773    442.09475 0.0079553507 0.0059279226         3971 
 4632000   0.51932034   -9.6943989    441.41402 0.0079413863 0.0059256023         3976 
 4633000   0.51807731   -9.7040724    442.18576 0.0079535534 0.0059232836         3975 
 4634000   0.51902781   -9.7144279     442.3409  0.007954627 0.0059209653         3974 
 4635000   0.50118956   -9.7034725    441.84227 0.0079439459 0.0059186494         3971 
 4636000   0.50607726   -9.7071577    441.24004  0.007931407  0.005916336         3973 
 4637000   0.51027937   -9.7006456    441.89833  0.007941527 0.0059140219         3975 
 4638000   0.49716085   -9.7091639    441.93311 0.0079404397 0.0059117102         3971 
 4639000   0.51502318   -9.7136978     442.0279 0.0079404308 0.0059093993         3966 
 4640000   0.51867976   -9.7201929    442.00084 0.0079382335 0.0059070897         3975 
 4641000    0.5127443   -9.6972883    440.87751 0.0079163526 0.0059047831         3979 
 4642000   0.51125338   -9.7042134     442.1275 0.0079370872 0.0059024757         3975 
 4643000   0.51848494   -9.7193148    441.60409 0.0079259833 0.0059001706         3980 
 4644000   0.51502023   -9.7183602     442.1777 0.0079345697 0.0058978654         3971 
 4645000   0.51093137   -9.7285199    442.07856 0.0079310829 0.0058955626         3974 
 4646000   0.50840949   -9.7178243    441.59836 0.0079207626 0.0058932601         3976 
 4647000   0.50719863   -9.7051298    442.29381 0.0079315295   0.00589096         3982 
 4648000   0.51744452   -9.7197375    442.66635 0.0079365023 0.0058886608         3977 
 4649000   0.51526174   -9.7060177    442.01915  0.007923194 0.0058863634         3975 
 4650000    0.5225732     -9.70989    442.33829 0.0079272095 0.0058840667         3972 
 4651000   0.52447003   -9.7068816    441.39038 0.0079085211 0.0058817721         3977 
 4652000   0.51620971   -9.7112013    441.20631 0.0079035237 0.0058794772         3974 
 4653000   0.50065686   -9.7321143    441.58237 0.0079085602 0.0058771833         3973 
 4654000   0.49897186   -9.7157294    442.07077 0.0079156061 0.0058748911         3971 
 4655000   0.50780484   -9.7019107    442.02333 0.0079130565 0.0058725983         3973 
 4656000   0.50197344   -9.7015438    441.95388 0.0079101138 0.0058703071         3974 
 4657000   0.51139634   -9.7008166    441.91541 0.0079077268 0.0058680189         3976 
 4658000   0.50309205   -9.7213948    442.06419  0.007908691  0.005865732         3974 
 4659000   0.49923023   -9.7147746    441.94351  0.007904835 0.0058634466         3969 
 4660000   0.51307507   -9.7170077    441.90094 0.0079023773 0.0058611596         3975 
 4661000   0.50160053   -9.7049827    442.77069 0.0079162321 0.0058588745         3978 
 4662000    0.5196249   -9.7168516    441.44613 0.0078908575  0.005856591         3969 
 4663000   0.50789999   -9.7322187    441.55525 0.0078911154 0.0058543088         3972 
 4664000   0.50502098   -9.7141553    441.77839 0.0078934103 0.0058520281         3971 
 4665000   0.50506709    -9.727029    441.43251 0.0078855397 0.0058497474         3971 
 4666000   0.50755215   -9.7279759    441.71498 0.0078888945 0.0058474706         3976 
 4667000      0.50645   -9.7217823    441.89467 0.0078904126 0.0058451961         3971 
 4668000   0.50979822   -9.7284775    442.19806 0.0078941385 0.0058429203         3970 
 4669000   0.50292482   -9.7172705    441.53096 0.0078805411 0.0058406472         3976 
 4670000   0.50634457   -9.7229727    441.86482 0.0078848112 0.0058383746         3975 
 4671000   0.50764533   -9.7250848    442.40127 0.0078926938 0.0058361024         3976 
 4672000   0.48254949     -9.71227    441.95246 0.0078829991 0.0058338306         3979 
 4673000    0.5075849   -9.7168786    441.54917 0.0078741203 0.0058315628         3977 
 4674000   0.50550237   -9.7183015    441.82336 0.0078773242 0.0058292948         3975 
 4675000   0.50055062   -9.7083391    442.01412 0.0078790396 0.0058270263         3971 
 4676000   0.50617147   -9.7228403    441.40273 0.0078664587 0.0058247607         3980 
 4677000   0.50552918   -9.7140288     441.8558 0.0078728495  0.005822497         3977 
 4678000   0.51182265   -9.7121037    442.11455 0.0078757758 0.0058202334         3970 
 4679000    0.5146416   -9.7252269    441.76446 0.0078678575  0.005817972         3972 
 4680000   0.49935609   -9.7228836    442.20108 0.0078739508 0.0058157114         3972 
 4681000   0.50592893   -9.6986235    441.63039  0.007862109 0.0058134534         3976 
 4682000   0.51485477   -9.7351003    441.49309 0.0078579862 0.0058111945         3971 
 4683000   0.49754033   -9.7373032    442.13987 0.0078678175 0.0058089357         3972 
 4684000   0.50638461   -9.7200681    441.80126 0.0078601135 0.0058066809         3971 
 4685000   0.50957202   -9.7037175    442.34331 0.0078680774 0.0058044256         3967 
 4686000   0.49425784   -9.7230995    441.61588 0.0078534621 0.0058021714         3976 
 4687000   0.50583412    -9.734017    441.77468 0.0078546099 0.0057999198         3978 
 4688000   0.50542001   -9.7015637    441.94411 0.0078559463 0.0057976686         3971 
 4689000   0.49052082   -9.7329488    440.92372 0.0078361364 0.0057954168         3974 
 4690000   0.50673607   -9.7461126    441.58313 0.0078461822 0.0057931671         3973 
 4691000   0.49750196    -9.713316    441.02732 0.0078346358 0.0057909183         3975 
 4692000   0.50955712   -9.7122771     441.7243 0.0078453449 0.0057886697         3970 
 4693000   0.50369163   -9.6976503    442.05817 0.0078496017 0.0057864262         3975 
 4694000   0.50024546   -9.7317033    440.96295 0.0078284858 0.0057841816         3974 
 4695000   0.49998047   -9.7262204    441.43214 0.0078351462 0.0057819368         3972 
 4696000   0.50497056   -9.7255077    441.25652 0.0078303614 0.0057796962         3980 
 4697000   0.48797579   -9.7335239    441.77047 0.0078378126 0.0057774548         3984 
 4698000   0.49872672   -9.7194628     441.4363 0.0078302167 0.0057752158         3974 
 4699000   0.49479873   -9.7095958    441.60828 0.0078316003 0.0057729766         3973 
 4700000   0.50599734   -9.7174303    441.78366 0.0078330437 0.0057707404         3969 
 4701000   0.51082019   -9.7230157    441.77154 0.0078311625 0.0057685053         3970 
 4702000   0.50254665   -9.7221072    441.81803  0.007830321   0.00576627         3979 
 4703000   0.49649703   -9.7154832    442.16186 0.0078347484 0.0057640361         3976 
 4704000   0.49752338    -9.735685    441.58393 0.0078228447 0.0057618026         3980 
 4705000   0.50013373   -9.7292244    441.52375  0.007820116  0.005759572         3976 
 4706000   0.49987667   -9.7176479    440.64217 0.0078028433 0.0057573427         3969 
 4707000   0.49874422   -9.7298932    441.70233 0.0078199548 0.0057551139         3977 
 4708000   0.49425996   -9.7228844     441.5624  0.007815817 0.0057528868         3972 
 4709000   0.49326677   -9.7329699    441.29253 0.0078093815 0.0057506611         3973 
 4710000   0.49392256    -9.721588     441.4233 0.0078100371 0.0057484342         3973 
 4711000   0.49880576   -9.7440125    441.07806 0.0078022724 0.0057462098         3973 
 4712000   0.50906315   -9.7277841    441.60954 0.0078100159 0.0057439852         3973 
 4713000   0.50608737   -9.7385241    441.48527 0.0078061615 0.0057417618         3971 
 4714000   0.49482987   -9.7311195    440.69543 0.0077905429 0.0057395392         3976 
 4715000   0.49819476   -9.7247595    441.96305 0.0078112946 0.0057373192         3977 
 4716000    0.4934086   -9.7142028    441.53936 0.0078021516 0.0057351012         3980 
 4717000   0.49243375   -9.7350535    441.60454  0.007801649 0.0057328828         3970 
 4718000    0.4970977    -9.711336    441.64212 0.0078006591 0.0057306669         3973 
 4719000   0.50275342   -9.7329207     442.3569 0.0078116286 0.0057284527         3970 
 4720000   0.49750072   -9.7244797     441.7784 0.0077997599 0.0057262391         3978 
 4721000   0.49866872   -9.7237426     441.4738  0.007792731  0.005724027         3974 
 4722000   0.48653448     -9.72378    441.85021 0.0077977236 0.0057218165         3960 
 4723000   0.50588955   -9.7348086    440.99983 0.0077810683 0.0057196065         3966 
 4724000   0.50931105   -9.7332277    442.03652 0.0077977088 0.0057173984         3978 
 4725000   0.49594952   -9.7318966    441.27225 0.0077825793 0.0057151908         3977 
 4726000   0.50034806   -9.7125445    441.72617 0.0077889366 0.0057129843         3976 
 4727000     0.496768   -9.7129026    441.25753 0.0077790271  0.005710779         3969 
 4728000   0.49520192   -9.7252269    441.80534 0.0077870372 0.0057085737         3979 
 4729000   0.48056845   -9.7289329    441.70629  0.007783645   0.00570637         3964 
 4730000   0.49688513   -9.7471135    442.02289 0.0077875773 0.0057041683         3973 
 4731000   0.48460714   -9.7312069    441.51239 0.0077769392 0.0057019688         3973 
 4732000   0.49686766   -9.7229415    441.43038 0.0077738514 0.0056997699         3968 
 4733000   0.48817707   -9.7325408    441.99008 0.0077820635 0.0056975711         3974 
 4734000   0.50187093   -9.7319781    441.45146 0.0077709383 0.0056953737         3975 
 4735000   0.48206807   -9.7253623    441.20079 0.0077648854 0.0056931761         3970 
 4736000   0.49358497     -9.72067    441.20463 0.0077633135 0.0056909797         3976 
 4737000   0.49370628   -9.7267676    441.51389 0.0077671152 0.0056887856         3971 
 4738000   0.48788048   -9.7259769    442.07592 0.0077753608 0.0056865913         3975 
 4739000   0.49821153   -9.7451867    441.55479 0.0077645564  0.005684398         3976 
 4740000   0.49426963   -9.7217028    441.43482 0.0077608091 0.0056822066         3972 
 4741000   0.49443581   -9.7236851     441.7622 0.0077649266 0.0056800173         3971 
 4742000   0.49484109   -9.7343986    441.25154 0.0077543149 0.0056778294         3976 
 4743000   0.50651737   -9.7372618    442.74562 0.0077789308  0.005675643         3973 
 4744000   0.48435933   -9.7287995    441.19686 0.0077500854 0.0056734564         3975 
 4745000    0.4953785    -9.741504    441.64629 0.0077563451  0.005671272         3978 
 4746000   0.49444693   -9.7160751    441.37523 0.0077499514 0.0056690871         3974 
 4747000   0.48549479   -9.7316519    441.96207 0.0077586207 0.0056669051         3975 
 4748000    0.4742535   -9.7382337    442.05412 0.0077586023 0.0056647213         3981 
 4749000   0.49020795   -9.7302104    441.16243 0.0077413214   0.00566254         3978 
 4750000   0.47699046   -9.7337844     441.4045 0.0077439386 0.0056603601         3976 
 4751000   0.48825305    -9.733623    441.41092 0.0077424213 0.0056581817         3977 
 4752000    0.4961817   -9.7436821    441.42289 0.0077410018 0.0056560028         3980 
 4753000   0.49349468   -9.7416775    442.03829 0.0077501629 0.0056538274         3977 
 4754000   0.48818303   -9.7405357    440.97921  0.007729968 0.0056516519         3973 
 4755000   0.49306282   -9.7225666     441.9785 0.0077458553 0.0056494786         3971 
 4756000   0.48554003   -9.7243563    441.15951 0.0077298765 0.0056473073         3970 
 4757000   0.49825743   -9.7357497    441.62954 0.0077364854 0.0056451366         3967 
 4758000   0.49631504   -9.7264911    441.82313 0.0077382502 0.0056429657         3967 
 4759000   0.48789663   -9.7564737    440.69917 0.0077169429 0.0056407965         3974 
 4760000   0.49487476   -9.7548617    441.16311 0.0077234437 0.0056386273         3966 
 4761000   0.49732897   -9.7362891    441.04653  0.007719781 0.0056364607         3976 
 4762000   0.47663335    -9.729637    441.86454 0.0077324748 0.0056342935         3972 
 4763000   0.48874327   -9.7349077    441.80147 0.0077297478 0.0056321275         3972 
 4764000   0.49017956   -9.7344602    441.05637 0.0077150918 0.0056299644         3981 
 4765000   0.49245889   -9.7423655    441.64493 0.0077237658 0.0056278032         3980 
 4766000   0.49629268   -9.7316668    441.53348 0.0077201965 0.0056256412         3977 
 4767000   0.49790445   -9.7510654    441.04425 0.0077100247  0.005623481         3970 
 4768000   0.49344916   -9.7488761    441.75417 0.0077208153 0.0056213239         3970 
 4769000   0.50161854   -9.7475321    441.18561 0.0077092613 0.0056191652         3975 
 4770000   0.47580636   -9.7465137    441.39596 0.0077113201 0.0056170082         3971 
 4771000   0.48795012   -9.7401779    441.60795 0.0077134064 0.0056148515         3975 
 4772000   0.49698784   -9.7470396     441.4811  0.007709575 0.0056126963         3973 
 4773000   0.48694615   -9.7402448    441.20109  0.007703071 0.0056105444         3974 
 4774000   0.48029972   -9.7409926    441.04493 0.0076987315 0.0056083913         3971 
 4775000    0.4937807   -9.7468038    440.85941 0.0076938814 0.0056062391         3979 
 4776000   0.48241289   -9.7371411    442.01686 0.0077124662 0.0056040901         3969 
 4777000    0.4911117    -9.731255      442.326 0.0077162444 0.0056019413         3978 
 4778000   0.48907352   -9.7529818    441.95699 0.0077081935 0.0055997946         3973 
 4779000   0.48786945   -9.7433675    441.02893 0.0076903977 0.0055976486         3974 
 4780000   0.50336378    -9.741083    441.34585  0.007694314 0.0055955021         3974 
 4781000   0.49725715   -9.7397405    441.24151 0.0076908859  0.005593359         3977 
 4782000   0.48736129   -9.7494749     441.5353 0.0076943973 0.0055912149         3981 
 4783000   0.47941895    -9.750667    441.11249 0.0076854222 0.0055890715         3979 
 4784000   0.50054403   -9.7233512    441.25319 0.0076862665 0.0055869309         3977 
 4785000   0.49353656   -9.7336939    441.29788 0.0076854386 0.0055847899         3971 
 4786000   0.49527483   -9.7318623    440.82854 0.0076756605 0.0055826511         3971 
 4787000   0.48397816   -9.7498844    441.92575 0.0076931577 0.0055805136         3975 
 4788000    0.4885764   -9.7472651    441.51862  0.007684465 0.0055783767         3971 
 4789000   0.48357541   -9.7463822    441.22225 0.0076777033 0.0055762412         3973 
 4790000    0.4885507   -9.7458935    441.18117 0.0076753858 0.0055741069         3970 
 4791000   0.48701606   -9.7503945    441.45792 0.0076785973 0.0055719751         3969 
 4792000   0.48330984   -9.7440491    441.07613 0.0076703557 0.0055698442         3970 
 4793000   0.48718873   -9.7364888    440.50768  0.007658872  0.005567712         3972 
 4794000   0.48757496    -9.747457    441.30337 0.0076711058 0.0055655814         3972 
 4795000   0.48410934   -9.7533736    441.69819 0.0076763676 0.0055634513         3980 
 4796000   0.47956842    -9.755298    441.45458 0.0076705342 0.0055613223         3972 
 4797000   0.47301797    -9.737411    440.12063 0.0076457617 0.0055591947         3973 
 4798000   0.48278436   -9.7632297    441.54839 0.0076689661 0.0055570699         3977 
 4799000   0.48591008   -9.7430838    440.86351 0.0076554753 0.0055549441         3977 
 4800000   0.47668502   -9.7424452     441.6931  0.007668283 0.0055528199         3977 
 4801000   0.49524022   -9.7522249    441.08243  0.007656086 0.0055506962         3974 
 4802000   0.48380126   -9.7293801    440.80511 0.0076496791 0.0055485756         3970 
 4803000   0.48143695   -9.7439994    440.80701 0.0076481193  0.005546456         3971 
 4804000   0.48132601   -9.7433855    440.97165 0.0076493832  0.005544336         3967 
 4805000    0.4937203   -9.7708447    441.44661 0.0076560285 0.0055422169         3972 
 4806000   0.48657598   -9.7514594    440.71079 0.0076416769 0.0055401007         3978 
 4807000   0.48193306   -9.7511969    441.19895 0.0076485498 0.0055379858         3980 
 4808000   0.48685509    -9.729783    441.40965 0.0076506109 0.0055358713         3979 
 4809000    0.4823533   -9.7466071    441.06387 0.0076430281 0.0055337574         3968 
 4810000   0.48134571   -9.7501522    440.64801 0.0076342344 0.0055316439         3979 
 4811000   0.47395594   -9.7550327    440.51242  0.007630299 0.0055295309         3972 
 4812000   0.48389905   -9.7461162    441.05844 0.0076381691 0.0055274196         3971 
 4813000   0.48649424    -9.746098    440.48724 0.0076266923 0.0055253106         3976 
 4814000   0.48859233   -9.7499393    440.87928 0.0076318945 0.0055232019         3979 
 4815000   0.47427423   -9.7369452    441.05444  0.007633341 0.0055210945         3978 
 4816000   0.49362567   -9.7490603    441.31623 0.0076362859  0.005518989         3979 
 4817000   0.49021739   -9.7322564    440.99112 0.0076290761 0.0055168835         3979 
 4818000   0.48751327   -9.7393843    441.35172 0.0076337298 0.0055147812         3970 
 4819000   0.48278937   -9.7422732    441.61174 0.0076366422 0.0055126806         3974 
 4820000   0.47695939   -9.7536221    441.52519 0.0076335614 0.0055105783         3979 
 4821000   0.48837809   -9.7520297    441.33011 0.0076286059 0.0055084775         3974 
 4822000   0.49097065   -9.7418353    440.58911  0.007614218 0.0055063787         3975 
 4823000   0.48597541   -9.7581302    440.81704 0.0076165775  0.005504281         3972 
 4824000   0.47933329   -9.7417624    441.03349 0.0076187378 0.0055021829         3975 
 4825000   0.48191498   -9.7576931    440.63503 0.0076102769  0.005500088         3970 
 4826000   0.48163692   -9.7508643    441.04407  0.007615763 0.0054979917         3968 
 4827000    0.4718007    -9.758736    440.82078 0.0076103304 0.0054958974         3978 
 4828000   0.48104594   -9.7570539    440.65959 0.0076059719 0.0054938029         3973 
 4829000   0.48955099   -9.7550978    440.94802 0.0076093742 0.0054917131         3977 
 4830000    0.4807175     -9.75436    440.82032 0.0076055955  0.005489623         3970 
 4831000   0.48576168   -9.7631111    440.89177 0.0076052538 0.0054875345         3971 
 4832000   0.47402018   -9.7511065    440.66521 0.0075997725 0.0054854471         3974 
 4833000   0.48291241    -9.750582    440.73022  0.007599321 0.0054833598         3974 
 4834000    0.4775702   -9.7467845    440.33872 0.0075909999 0.0054812736         3973 
 4835000   0.47315266   -9.7554786    441.00572 0.0076009258 0.0054791888         3968 
 4836000    0.4900273   -9.7597235    440.97075 0.0075987515 0.0054771056         3975 
 4837000   0.46782766    -9.745648    441.69268 0.0076096183 0.0054750234         3975 
 4838000   0.47584268   -9.7520601     441.0445 0.0075968806 0.0054729411         3980 
 4839000   0.47895119   -9.7535786    441.58297 0.0076045838 0.0054708607         3973 
 4840000   0.47887565   -9.7561001    440.74833  0.007588642  0.005468781         3962 
 4841000   0.47558706   -9.7656687    440.06247  0.007575268 0.0054667027         3978 
 4842000   0.48406649   -9.7490346    441.17481 0.0075928475 0.0054646245         3971 
 4843000   0.48327263   -9.7571454    441.39922 0.0075951412  0.005462548         3972 
 4844000   0.47695493   -9.7503273    441.11092 0.0075886135 0.0054604713         3965 
 4845000   0.47782353   -9.7525895    440.86844 0.0075828765 0.0054583956         3972 
 4846000    0.4721674    -9.750007    440.45018 0.0075741191 0.0054563219         3975 
 4847000   0.48966199   -9.7514013    440.73931 0.0075775275 0.0054542479         3978 
 4848000   0.46227848   -9.7456825    440.99866 0.0075804226 0.0054521773         3976 
 4849000    0.4807624    -9.747476    440.80213 0.0075754817 0.0054501073         3978 
 4850000    0.4719162   -9.7477557    441.30268 0.0075825203 0.0054480385         3968 
 4851000   0.47900469   -9.7693909    440.65211 0.0075697813 0.0054459702         3971 
 4852000   0.47592109   -9.7549677    440.99747 0.0075741527 0.0054439032         3977 
 4853000   0.46471401   -9.7619876     441.2095  0.007576233 0.0054418368         3972 
 4854000   0.46634201   -9.7524862    441.20367  0.007574572  0.005439773         3975 
 4855000   0.46758364   -9.7729564    440.57458 0.0075622139 0.0054377096         3977 
 4856000   0.48202203   -9.7535715    441.14245 0.0075704017 0.0054356472         3974 
 4857000   0.49022366   -9.7601527    440.23483 0.0075532708 0.0054335854         3973 
 4858000   0.47208702   -9.7603688    441.43237 0.0075722584 0.0054315256         3978 
 4859000   0.47992813   -9.7592708    440.46006 0.0075540245 0.0054294664         3973 
 4860000   0.46451754   -9.7423875    441.21833  0.007565472 0.0054274078         3976 
 4861000   0.47294059   -9.7466214    440.91787 0.0075587649 0.0054253496         3977 
 4862000   0.47431788   -9.7694281    440.50274 0.0075500949 0.0054232929         3981 
 4863000   0.46614189   -9.7630685    441.30331 0.0075622612 0.0054212381         3979 
 4864000   0.46798483   -9.7471716    440.87094 0.0075532987 0.0054191846         3972 
 4865000   0.46938152   -9.7658506    440.99527 0.0075538759 0.0054171318         3973 
 4866000    0.4751558   -9.7604863    440.96193 0.0075517525 0.0054150791         3972 
 4867000   0.47395846   -9.7509068    440.40357 0.0075406406  0.005413028         3976 
 4868000   0.47466865   -9.7747761     440.9244 0.0075480073 0.0054109772         3974 
 4869000   0.47628624    -9.758823     440.7841 0.0075440559 0.0054089272         3963 
 4870000   0.46844871    -9.754777    441.45682 0.0075540182 0.0054068796         3972 
 4871000   0.46798092   -9.7727123    440.86976 0.0075424239 0.0054048323         3972 
 4872000   0.47311802   -9.7661705    440.85041 0.0075405448 0.0054027861         3974 
 4873000   0.47933257    -9.755653    440.14777 0.0075269816 0.0054007415         3968 
 4874000   0.47436088   -9.7611724    441.31685 0.0075454256 0.0053986983         3977 
 4875000    0.4679059     -9.76404    440.62906 0.0075321207 0.0053966552         3974 
 4876000   0.47785814   -9.7839159    440.93683 0.0075358359 0.0053946149         3971 
 4877000   0.47715685   -9.7748907    440.76971 0.0075314351 0.0053925736         3972 
 4878000   0.46942185   -9.7602054    441.55536 0.0075433128 0.0053905343         3974 
 4879000   0.48041132   -9.7652614    440.74882  0.007527991 0.0053884947         3973 
 4880000   0.45842681   -9.7723814    441.11976 0.0075327828 0.0053864564         3979 
 4881000   0.47470427   -9.7630466    439.80253 0.0075087504 0.0053844203         3974 
 4882000   0.46654676   -9.7644409       440.87 0.0075254336 0.0053823833         3968 
 4883000   0.47896258   -9.7794753    440.42271  0.007516259 0.0053803479         3974 
 4884000   0.47571331   -9.7721489    440.37113 0.0075138399 0.0053783157         3972 
 4885000   0.46896865   -9.7694961     441.2555 0.0075273882  0.005376283         3972 
 4886000    0.4730053   -9.7569143    440.63574 0.0075152774 0.0053742508         3981 
 4887000   0.46430016   -9.7585947    440.75815 0.0075158268 0.0053722204         3977 
 4888000   0.46853868   -9.7722632    440.47494  0.007509461  0.005370191         3975 
 4889000   0.46491646   -9.7782667     440.5375 0.0075089913 0.0053681617         3973 
 4890000    0.4663106   -9.7607193    441.14317 0.0075177772  0.005366135         3968 
 4891000   0.47121543   -9.7772821    440.60113  0.007507005 0.0053641095         3975 
 4892000   0.46759718   -9.7485206     440.8312 0.0075093895 0.0053620842         3977 
 4893000   0.46768147   -9.7906517    440.74119 0.0075063219 0.0053600613         3978 
 4894000   0.47658508   -9.7567636    440.51425 0.0075009237 0.0053580374         3973 
 4895000   0.46861444    -9.751877    440.94579  0.007506738 0.0053560157         3973 
 4896000    0.4687197    -9.769941    440.87491 0.0075039984 0.0053539937         3971 
 4897000   0.46145074   -9.7626689    440.29399 0.0074925803 0.0053519739         3972 
 4898000   0.46245324   -9.7636687    440.66889 0.0074974291 0.0053499542         3970 
 4899000    0.4705935   -9.7577338    440.80545 0.0074982215 0.0053479355         3982 
 4900000   0.46792164   -9.7703961    440.79307 0.0074964808 0.0053459175         3974 
 4901000   0.46381873   -9.7748123    440.44254 0.0074889911 0.0053439013         3979 
 4902000   0.46776617   -9.7705698     441.0448 0.0074977017 0.0053418871         3975 
 4903000   0.47195322   -9.7717615    440.10573 0.0074802116 0.0053398728         3976 
 4904000   0.46911811   -9.7789159    440.42574 0.0074841242 0.0053378616         3977 
 4905000   0.46749451   -9.7676997    440.70073 0.0074872702 0.0053358498         3977 
 4906000   0.45552099   -9.7585323    440.54176  0.007483044  0.005333839         3975 
 4907000   0.47051815   -9.7702184    441.13633 0.0074916162 0.0053318289         3971 
 4908000   0.47895112   -9.7663656    440.17162 0.0074737099 0.0053298205         3976 
 4909000    0.4706221   -9.7814644    440.64611 0.0074802423 0.0053278134         3981 
 4910000   0.46823121   -9.7679537    440.44351 0.0074752802 0.0053258081         3981 
 4911000   0.47202901   -9.7771284     440.7251 0.0074785363 0.0053238018         3973 
 4912000   0.46208698   -9.7526439    440.59468 0.0074748011 0.0053217978         3970 
 4913000   0.45754184   -9.7714343    440.52297 0.0074720634 0.0053197948         3973 
 4914000   0.46244719   -9.7689022    440.81864 0.0074755569  0.005317792         3977 
 4915000   0.46251481   -9.7851133     440.2744 0.0074648085 0.0053157906         3976 
 4916000   0.46780461   -9.7774035    440.77005 0.0074716919 0.0053137895         3970 
 4917000    0.4688766   -9.7611932    440.22408 0.0074609193 0.0053117898         3978 
 4918000   0.45776083    -9.781168    440.48543 0.0074638307 0.0053097916         3975 
 4919000   0.46261321     -9.78293    440.12251  0.007456165 0.0053077933         3975 
 4920000   0.46144807   -9.7708215    440.71649 0.0074647101 0.0053057969         3980 
 4921000   0.45810911   -9.7718862    441.17625  0.007470979 0.0053038026         3968 
 4922000   0.47519553   -9.7823023     441.1398  0.007468844 0.0053018089         3982 
 4923000   0.45959453    -9.770324    440.61132  0.007458381  0.005299816         3983 
 4924000   0.46643346   -9.7682378    440.40193 0.0074533226 0.0052978247         3970 
 4925000   0.46895781   -9.7801063    440.16202 0.0074477499 0.0052958336         3968 
 4926000   0.46181729   -9.7727139    440.54058 0.0074526422 0.0052938434         3976 
 4927000   0.46211787   -9.7828608    440.63209 0.0074526772  0.005291854         3967 
 4928000   0.46085262     -9.77706     440.5398 0.0074496042 0.0052898663         3972 
 4929000   0.45563805      -9.7752    440.88163 0.0074538721 0.0052878797         3976 
 4930000   0.46436968   -9.7890013    440.29937 0.0074425181 0.0052858951         3975 
 4931000   0.47271531   -9.7785509    440.30702  0.007441138 0.0052839109         3976 
 4932000    0.4621365    -9.797479    440.98331 0.0074510562  0.005281927         3973 
 4933000   0.46769769   -9.7622078    440.18148 0.0074360004 0.0052799441         3978 
 4934000   0.46549419    -9.769619    440.40897 0.0074383355 0.0052779633         3969 
 4935000   0.46825651   -9.7722486     440.6841 0.0074414741 0.0052759817         3977 
 4936000   0.45802285    -9.784719     440.3589 0.0074344762 0.0052740014         3977 
 4937000   0.45882789   -9.7912236     441.1417 0.0074461836  0.005272022         3974 
 4938000   0.46591753     -9.78663    440.37871 0.0074317994 0.0052700451         3980 
 4939000   0.44596156   -9.7717386    440.51789 0.0074326431 0.0052680676         3980 
 4940000   0.46110182   -9.7773244    440.66271 0.0074335814 0.0052660915         3974 
 4941000   0.46470644   -9.7914333    440.87512 0.0074356595  0.005264116         3977 
 4942000   0.45772167    -9.775872    440.35712 0.0074254201 0.0052621425         3975 
 4943000   0.45330799   -9.7658003    440.59401 0.0074279117 0.0052601702         3980 
 4944000   0.46411126   -9.7764637    440.39993  0.007423138 0.0052581991         3984 
 4945000    0.4709022   -9.7734161    440.12333 0.0074169756 0.0052562284         3971 
 4946000   0.45777778   -9.7898032    440.32518 0.0074188768 0.0052542585         3972 
 4947000   0.47561634    -9.787948    440.69289 0.0074235714 0.0052522893         3978 
 4948000   0.47647131   -9.7765399    441.33211 0.0074328366 0.0052503219         3978 
 4949000   0.46421973   -9.7938323    440.40977  0.007415804 0.0052483549         3981 
 4950000   0.45432705   -9.7653597        440.7 0.0074191919 0.0052463904         3976 
 4951000   0.44726774   -9.7777224    440.08461 0.0074073354 0.0052444255         3973 
 4952000   0.46073101   -9.7801896    440.93249 0.0074201079  0.005242462         3974 
 4953000   0.46474287   -9.7855321    440.67724 0.0074143153 0.0052404996         3976 
 4954000   0.46998189   -9.7893515    439.75355 0.0073972808 0.0052385375         3977 
 4955000   0.46169653   -9.7657145    440.36962  0.007406149 0.0052365758         3973 
 4956000   0.45563774    -9.772257    440.60329 0.0074085838 0.0052346167         3972 
 4957000   0.46428852   -9.7875678    440.69628 0.0074086524 0.0052326592         3974 
 4958000   0.45825497   -9.7942671    440.88951 0.0074104059 0.0052307021         3977 
 4959000   0.46275647   -9.7839393    440.06744 0.0073950971 0.0052287442         3980 
 4960000   0.46005017   -9.7835487    440.56258 0.0074019251 0.0052267875         3980 
 4961000   0.45656319   -9.7813784      440.475 0.0073989619 0.0052248328         3977 
 4962000   0.45543129   -9.7784651    440.74566 0.0074020163   0.00522288         3978 
 4963000   0.46349538   -9.8048027    440.34293 0.0073937626  0.005220925         3979 
 4964000   0.46884732   -9.7876441    440.14054 0.0073888755  0.005218973         3973 
 4965000   0.46549506    -9.787852    439.74279 0.0073807114 0.0052170223         3974 
 4966000   0.45318826   -9.7741774    440.68096 0.0073949685  0.005215072         3974 
 4967000   0.45475998   -9.7894586    440.14155 0.0073844297 0.0052131241         3978 
 4968000   0.44613843   -9.7860153    440.81256 0.0073941989 0.0052111759         3970 
 4969000   0.45054427   -9.7897251    440.74034 0.0073914996 0.0052092309         3969 
 4970000   0.46690151   -9.7860463    440.12926 0.0073797663  0.005207285         3974 
 4971000   0.45886508   -9.7781487    440.16284 0.0073788447 0.0052053386         3971 
 4972000     0.455178   -9.7710585    440.76122 0.0073873898 0.0052033946         3972 
 4973000   0.45660059   -9.7957572     440.6551  0.007384126  0.005201451         3975 
 4974000   0.45525017   -9.7890581    439.85389  0.007369218 0.0051995072         3972 
 4975000   0.45449309   -9.7877208    440.76958  0.007383075 0.0051975659         3977 
 4976000   0.45730888   -9.7876307    439.92171  0.007367392 0.0051956258         3974 
 4977000   0.45453054   -9.7736211    440.72157 0.0073793043 0.0051936866         3975 
 4978000   0.45072714   -9.7870887    440.53296 0.0073746645  0.005191749         3975 
 4979000   0.46035434   -9.7958565     440.4159 0.0073712241 0.0051898119         3974 
 4980000   0.44857911   -9.7880026    440.02219 0.0073631558 0.0051878757         3976 
 4981000   0.45661043   -9.7825384    440.17994 0.0073643168 0.0051859407         3976 
 4982000   0.46674845    -9.783065    440.06088  0.007360847 0.0051840069         3974 
 4983000   0.45719146   -9.7824876    439.91914 0.0073569994 0.0051820731         3972 
 4984000    0.4618148   -9.7955687    440.37972 0.0073632243 0.0051801415         3973 
 4985000   0.44850722   -9.7868634    440.51359 0.0073639852 0.0051782099         3974 
 4986000   0.45317452   -9.7875032    439.86455 0.0073516605 0.0051762797         3982 
 4987000    0.4557134   -9.8005251     440.5563 0.0073617455 0.0051743505         3977 
 4988000   0.46090805   -9.8046526    440.31967 0.0073563163 0.0051724213         3977 
 4989000     0.457069   -9.7864929    440.39157 0.0073560427 0.0051704938         3971 
 4990000   0.45004263   -9.7749917    440.60505 0.0073581338 0.0051685679         3975 
 4991000   0.46202687   -9.7920558    440.33174 0.0073520961 0.0051666436         3977 
 4992000   0.44893477   -9.7990184    439.99457 0.0073449948 0.0051647193         3984 
 4993000    0.4518394   -9.7962419     440.4826  0.007351669 0.0051627951         3974 
 4994000   0.45178392   -9.7956699    440.11988 0.0073441443 0.0051608736         3972 
 4995000   0.44658777   -9.7930132    439.53059 0.0073328426 0.0051589513         3974 
 4996000   0.44757506   -9.8041798    440.42696 0.0073463265 0.0051570302         3973 
 4997000   0.45233281   -9.7835522    440.11688 0.0073396852 0.0051551098         3974 
 4998000   0.46310785   -9.7999507    439.83772  0.007333562 0.0051531922         3969 
 4999000   0.46025965   -9.7987321    440.81272 0.0073483484  0.005151275         3971 
 5000000   0.44927481   -9.7870666    440.25592 0.0073375987 0.0051493576         3977 
 5001000   0.44954446   -9.7773743    440.36815 0.0073380015 0.0051474412         3973 
 5002000   0.45834242   -9.7810785    440.28553  0.007335158 0.0051455262         3979 
 5003000    0.4588075   -9.7736633     440.2891 0.0073337514 0.0051436124         3977 
 5004000   0.46244842   -9.8126482    439.90693 0.0073259215 0.0051416994         3978 
 5005000   0.45845382   -9.8032141    439.88547 0.0073241004 0.0051397878         3976 
 5006000   0.44834679   -9.7972307    440.18394 0.0073276058 0.0051378783         3979 
 5007000   0.45535651   -9.7875542     439.8461 0.0073205195 0.0051359686         3981 
 5008000   0.44683711   -9.7827349     440.5425  0.007330646 0.0051340596         3976 
 5009000   0.44528333    -9.815319    439.91501 0.0073187431 0.0051321516         3983 
 5010000   0.44993753   -9.7831655    440.19876  0.007322002 0.0051302437         3982 
 5011000   0.45339998   -9.7953044    440.76207 0.0073299087 0.0051283386         3982 
 5012000   0.45067936   -9.7983763    440.07473 0.0073170181  0.005126434         3974 
Loop time of 13122.5 on 48 procs for 5000000 steps with 4000 atoms

Performance: 65841.305 tau/day, 381.026 timesteps/s
99.4% CPU use with 48 MPI tasks x no OpenMP threads

MPI task timing breakdown:
Section |  min time  |  avg time  |  max time  |%varavg| %total
---------------------------------------------------------------
Pair    | 973.44     | 1083.5     | 1228.2     | 180.8 |  8.26
Neigh   | 92.605     | 97.016     | 103.43     |  23.5 |  0.74
Comm    | 791.47     | 956.68     | 1082.9     | 208.7 |  7.29
Output  | 21.86      | 21.865     | 21.961     |   0.3 |  0.17
Modify  | 10803      | 10839      | 10889      |  19.8 | 82.60
Other   |            | 124.4      |            |       |  0.95

Nlocal:        83.3333 ave          91 max          76 min
Histogram: 3 0 5 5 14 3 11 2 4 1
Nghost:        2435.04 ave        2462 max        2413 min
Histogram: 4 6 3 6 8 8 3 6 2 2
Neighs:        16837.8 ave       20216 max       14758 min
Histogram: 6 5 10 7 6 2 6 3 2 1
FullNghs:      33674.4 ave       37849 max       30544 min
Histogram: 2 4 6 13 8 6 3 3 2 1

Total # of neighbors = 1616369
Ave neighs/atom = 404.09225
Neighbor list builds = 265883
Dangerous builds = 0

#clear
#
#next RN
#
#jump SELF
Total wall time: 3:38:45
