
units lj                  # Use reduced LJ style units
atom_style atomic         # Uncharged point particles
atom_modify map hash      # Needed for indexing of clusters etc
                          # Used to be able to find where atoms are in relation to each other.

lattice fcc 1.0 spacing 1 1 1
Lattice spacing in x,y,z = 1.5874011 1.5874011 1.5874011
region box block 0 10 0 10 0 10 units lattice
create_box 2 box
Created orthogonal box = (0.0000000 0.0000000 0.0000000) to (15.874011 15.874011 15.874011)
  3 by 4 by 4 MPI processor grid
create_atoms 1 box
Created 4000 atoms
  using lattice units in orthogonal box = (0.0000000 0.0000000 0.0000000) to (15.874011 15.874011 15.874011)
  create_atoms CPU = 0.003 seconds
set type 1 type/fraction 2 0.13 78393
Setting atom values ...
  541 settings made for type/fraction
mass 1 1.0
mass 2 1.0
pair_style lj/cut  3.5
pair_modify tail  yes
pair_coeff 1  1  1.0  1.0   # Intearaction between 1 and 1 set with epsilon = 1 and sigma = 1
pair_coeff 1  2  1.5  0.8
pair_coeff 2  2  0.5  0.88

write_data data.0
System init for write_data ...
Neighbor list info ...
  update every 1 steps, delay 10 steps, check yes
  max neighbors/atom: 2000, page size: 100000
  master list distance cutoff = 3.8
  ghost atom cutoff = 3.8
  binsize = 1.9, bins = 9 9 9
  1 neighbor lists, perpetual/occasional/extra = 1 0 0
  (1) pair lj/cut, perpetual
      attributes: half, newton on
      pair build: half/bin/atomonly/newton
      stencil: half/bin/3d
      bin: standard
WARNING: Not all mixed pair coeffs generated from mixing. Use write_data with 'pair ij' option to store all pair coeffs. (../write_data.cpp:312)


#############################
#   M E L T   S Y S T E M   #
#############################

velocity all create 2.4 3143649 mom yes dist gaussian # Assign velocities
                                                    # Temperature 2.4, random number seed, zero linear momentum
                                                                                # Gaussian distribution

timestep 0.002   # simulation timestep
thermo 1000       # output thermodynamic data every 1000 steps bf 100

# Define a fix  in this case with index 1 applied to all
# particles in the simulation. This fix is for simulations
# in the anisotropic NPT ensemble. Note that we use the MTK
# correction.
fix 1 all npt temp 2.4 2.4 0.1 iso 5.68 5.68 0.5 mtk yes tchain 5 pchain 5 # Use NPT ensemble
                                                                         # Set temperature and pressure and damping
                                                                         # Numbers of thermostats in chain and in barostat
run 10000          # run for 10000 steps
Per MPI rank memory allocation (min/avg/max) = 3.642 | 3.644 | 3.648 Mbytes
Step Temp E_pair E_mol TotEng Press Volume 
       0          2.4     -7.50335            0     -3.90425   -3.2182506         4000 
    1000    2.3800387   -4.6428895            0    -1.073724    5.6983642    4742.8201 
    2000    2.3991896   -4.6774891            0   -1.0796045    5.9573465    4698.3797 
    3000    2.3991567   -4.6493881            0   -1.0515527    5.8240672    4734.9879 
    4000    2.3982939   -4.6846944            0   -1.0881529    5.6900935    4724.7924 
    5000    2.4283466   -4.6641233            0   -1.0225141    5.7442689    4734.5362 
    6000    2.3836419   -4.7339107            0   -1.1593417    5.6273977    4699.5944 
    7000     2.420722   -4.6599205            0   -1.0297453    5.6978662    4738.0131 
    8000     2.385676    -4.659009            0   -1.0813897    5.5221198     4757.936 
    9000    2.4578757   -4.7296738            0   -1.0437819    5.3309002    4748.5004 
   10000    2.4157753   -4.7148545            0   -1.0920974    5.5917497    4721.6421 
Loop time of 2.19544 on 48 procs for 10000 steps with 4000 atoms

Performance: 787087.319 tau/day, 4554.903 timesteps/s
99.6% CPU use with 48 MPI tasks x no OpenMP threads

MPI task timing breakdown:
Section |  min time  |  avg time  |  max time  |%varavg| %total
---------------------------------------------------------------
Pair    | 0.92439    | 0.97326    | 1.0636     |   3.0 | 44.33
Neigh   | 0.1914     | 0.19938    | 0.22218    |   1.1 |  9.08
Comm    | 0.651      | 0.75288    | 0.83197    |   4.3 | 34.29
Output  | 0.00023982 | 0.00024548 | 0.00031561 |   0.0 |  0.01
Modify  | 0.21843    | 0.25533    | 0.29723    |   4.8 | 11.63
Other   |            | 0.01433    |            |       |  0.65

Nlocal:        83.3333 ave          91 max          71 min
Histogram: 1 0 1 3 3 12 8 10 7 3
Nghost:        1472.04 ave        1498 max        1447 min
Histogram: 4 3 6 7 3 4 9 7 2 3
Neighs:        8075.08 ave        9144 max        6521 min
Histogram: 1 0 1 4 7 14 5 10 4 2

Total # of neighbors = 387604
Ave neighs/atom = 96.901000
Neighbor list builds = 907
Dangerous builds = 223

# Equilibrate just above the melting temperature to avoid step fn in T

fix 1 all npt temp 1.25 1.25 0.1 iso 5.68 5.68 0.5 mtk yes tchain 5 pchain 5
run 2000
Per MPI rank memory allocation (min/avg/max) = 3.642 | 3.644 | 3.648 Mbytes
Step Temp E_pair E_mol TotEng Press Volume 
   10000    2.4157753   -4.7148545            0   -1.0920974    5.5917497    4721.6421 
   11000    1.2425932   -6.3212095            0   -4.4577857    5.4858793    3892.7049 
   12000    1.2347454   -6.2945044            0   -4.4428493    5.6125616    3888.6391 
Loop time of 0.486466 on 48 procs for 2000 steps with 4000 atoms

Performance: 710429.796 tau/day, 4111.284 timesteps/s
99.7% CPU use with 48 MPI tasks x no OpenMP threads

MPI task timing breakdown:
Section |  min time  |  avg time  |  max time  |%varavg| %total
---------------------------------------------------------------
Pair    | 0.20987    | 0.22915    | 0.26691    |   2.4 | 47.11
Neigh   | 0.031043   | 0.03351    | 0.040049   |   0.8 |  6.89
Comm    | 0.12822    | 0.17113    | 0.19523    |   3.0 | 35.18
Output  | 5.0216e-05 | 5.2591e-05 | 6.6657e-05 |   0.0 |  0.01
Modify  | 0.042569   | 0.048103   | 0.057281   |   1.8 |  9.89
Other   |            | 0.004519   |            |       |  0.93

Nlocal:        83.3333 ave          89 max          74 min
Histogram: 1 0 3 2 9 5 11 4 5 8
Nghost:        1671.50 ave        1697 max        1647 min
Histogram: 1 2 8 9 7 5 4 4 5 3
Neighs:        9810.62 ave       10732 max        8659 min
Histogram: 2 1 5 3 11 5 7 7 3 4

Total # of neighbors = 470910
Ave neighs/atom = 117.72750
Neighbor list builds = 142
Dangerous builds = 9

#############################
# L I N E A R  Q U E N C H  #
#############################

# Define solid atoms. This closely follows ten Wolde  Ruiz-Montero and Frenkel  Faraday Discuss  1996  104  93-110
# Compute components of the per-atom q6 vector
compute q6 all orientorder/atom degrees 1 6 components 6 nnn NULL cutoff 1.3 # compute the Q6 parameter.
                                                                             # Use all neighbours within 1.3 unit cell.

# get number of connections
compute coord_number all coord/atom orientorder q6 0.5

# An atom is solid if it has 8 or more connections (of a possible 14)
variable is_solid atom c_coord_number>=8
group solid dynamic all var is_solid    # Must be dynamic to update
dynamic group solid defined

# do clustering
compute cluster solid cluster/atom 1.3 # Create a cluster where all atoms within are solid and max 1.3 units from another member

# define chunks one chunk per cluster
compute clus_chunks solid chunk/atom c_cluster nchunk every compress yes  # Says which atoms are in which chunk

# count the size of each chunk
compute size_chunks solid property/chunk clus_chunks count


# Find the maximum entry in the vector of chunk sizes
variable max_n equal max(c_size_chunks)


# Thermo style which includes this variable
# thermo_style custom step temp pe vol v_max_n

thermo ${N}  # Print the thermo information every 100 steps
thermo 1000  

# Reset the npt fix at a lower temperature (below freezing)
fix 1  all npt temp  ${temp} ${temp}  0.1  iso  5.68  5.68  0.5  mtk yes tchain  5  pchain  5
fix 1  all npt temp  0.45 ${temp}  0.1  iso  5.68  5.68  0.5  mtk yes tchain  5  pchain  5
fix 1  all npt temp  0.45 0.45  0.1  iso  5.68  5.68  0.5  mtk yes tchain  5  pchain  5

dump dmp2 all dcd ${N} traj.dcd
dump dmp2 all dcd 1000 traj.dcd


compute msd all msd com yes
variable twopoint equal c_msd[4]/6/(step*dt+1.0e-6)
fix 9 all vector 10 c_msd[4]
variable fit equal slope(f_9)/6/(10*dt)
thermo_style custom step temp pe c_msd[4] v_twopoint v_fit v_max_n

fix 1 all npt temp 1.25 ${temp} 0.1 iso 5.68 5.68 0.5 mtk yes tchain 5 pchain 5
fix 1 all npt temp 1.25 0.45 0.1 iso 5.68 5.68 0.5 mtk yes tchain 5 pchain 5
run 5000000 # 5000000  # Run for this many steps
Neighbor list info ...
  update every 1 steps, delay 10 steps, check yes
  max neighbors/atom: 2000, page size: 100000
  master list distance cutoff = 3.8
  ghost atom cutoff = 3.8
  binsize = 1.9, bins = 9 9 9
  4 neighbor lists, perpetual/occasional/extra = 1 3 0
  (1) pair lj/cut, perpetual
      attributes: half, newton on
      pair build: half/bin/atomonly/newton
      stencil: half/bin/3d
      bin: standard
  (2) compute orientorder/atom, occasional
      attributes: full, newton on
      pair build: full/bin/atomonly
      stencil: full/bin/3d
      bin: standard
  (3) compute coord/atom, occasional
      attributes: full, newton on
      pair build: full/bin/atomonly
      stencil: full/bin/3d
      bin: standard
  (4) compute cluster/atom, occasional
      attributes: full, newton on
      pair build: full/bin/atomonly
      stencil: full/bin/3d
      bin: standard
Per MPI rank memory allocation (min/avg/max) = 9.756 | 9.762 | 9.768 Mbytes
Step Temp PotEng c_msd[4] v_twopoint v_fit v_max_n 
   12000    1.2347454   -6.2945044 4.2811481e-30 2.9730194e-32 8.3333333e+20            1 
   13000    1.2344517    -6.341439   0.54668126 0.0035043669   0.04460234            1 
   14000    1.2450455   -6.3277922    1.0748557 0.0063979504  0.044850995            2 
   15000     1.272225   -6.3221738    1.6233496 0.0090186086  0.044462037            2 
   16000     1.276942   -6.2798513    2.0573998  0.010715624  0.043492135            2 
   17000    1.2427463   -6.3423627    2.5257151  0.012380956  0.042026609            4 
   18000    1.2169667   -6.2641002    3.1065913  0.014382367  0.041913398            2 
   19000    1.2385756   -6.3079133    3.6027215   0.01580141   0.04212409            2 
   20000    1.2790768   -6.2997286     4.096117  0.017067154  0.042148723            2 
   21000    1.2591337   -6.3083779    4.6405759  0.018414983   0.04223071            3 
   22000    1.2325488   -6.2744675      5.16597  0.019568068  0.042409652            2 
   23000     1.248306   -6.3256371    5.6988702   0.02064808  0.042595858            2 
   24000    1.2386724   -6.3539645    6.2498272  0.021700789  0.042802474            2 
   25000    1.2257408   -6.3161009     6.753255   0.02251085  0.042950294            3 
   26000    1.2135236   -6.3337121    7.3961661   0.02370566  0.043180282            2 
   27000    1.2448918   -6.3352553    8.1024069  0.025007428  0.043677632            7 
   28000    1.2560261    -6.292907    8.7729342  0.026109923  0.044367486            4 
   29000    1.2753465   -6.3571463    9.2870394  0.026686894  0.044837952            2 
   30000    1.2292457   -6.2717885    9.8044184  0.027234495  0.045136001            1 
   31000    1.2367458   -6.3211367    10.230976  0.027502623  0.045279529            3 
   32000    1.2544094   -6.3381358    10.756108  0.028010696  0.045363766            2 
   33000    1.2833054   -6.3197666    11.281865  0.028489559  0.045359663            2 
   34000    1.2609642   -6.2984478    11.736688  0.028766391  0.045333521            2 
   35000    1.2638117   -6.3657824    12.352865  0.029411582  0.045248956            3 
   36000    1.2174444   -6.3106991    12.957291  0.029993729  0.045289009            2 
   37000    1.2479152   -6.2746209      13.4835  0.030368242  0.045306564            2 
   38000    1.2595328   -6.3327949    13.998399  0.030698243  0.045326496            1 
   39000    1.2420569   -6.2957155    14.393661  0.030755685  0.045285147            2 
   40000    1.2345864   -6.3826514    14.783778  0.030799537  0.045134558            5 
   41000    1.2504399   -6.3190246    15.409176  0.031319462  0.044972995            2 
   42000    1.2272523   -6.3170486    15.951523  0.031649846  0.044871595            3 
   43000    1.2392864   -6.3075984    16.611035  0.032191927  0.044846966            2 
   44000    1.2746876   -6.3020698    17.179219  0.032536399  0.044853903            3 
   45000    1.2603345   -6.3379177    17.755024  0.032879674  0.044861233            2 
   46000     1.225707   -6.3739713    18.214105  0.032996567  0.044880996            2 
   47000    1.2547682   -6.3423571    18.583371  0.032949238  0.044877603            1 
   48000     1.254827    -6.317827    19.110517  0.033177981  0.044837988            1 
   49000    1.2285633   -6.3693097    19.472214   0.03311601  0.044742134            5 
   50000    1.2216418   -6.3534564    19.844548  0.033074247  0.044598664            2 
   51000    1.2228949   -6.3072589    20.507613  0.033509171  0.044464034            3 
   52000    1.2119549   -6.3027959    20.995604  0.033646801  0.044365407            3 
   53000    1.2499917   -6.3189885    21.505872  0.033814263  0.044278283            1 
   54000    1.2618598   -6.3183931    21.880842  0.033766731  0.044185068            2 
   55000    1.2863237   -6.3166321    22.474482  0.034052245  0.044078678            4 
   56000    1.2377129   -6.2770755    23.032427  0.034274444  0.044003823            3 
   57000    1.2435356   -6.3234275    23.607766  0.034514277  0.043945569            2 
   58000    1.2634047   -6.2988193    24.198182  0.034767502   0.04391102            1 
   59000    1.2483541   -6.3374424    24.691896  0.034875558  0.043885394            1 
   60000    1.2453864   -6.3148741    25.386947  0.035259648  0.043882305            3 
   61000    1.2427829   -6.3299055     25.85136  0.035316065  0.043889961            3 
   62000    1.2800333   -6.3153856    26.266323  0.035304197  0.043866492            3 
   63000    1.2562866   -6.3035235    26.978155   0.03568539  0.043858654            1 
   64000    1.2438449   -6.3473329    27.584015  0.035916686  0.043869546            2 
   65000    1.2518744    -6.328826     28.16321  0.036106679  0.043901675            3 
   66000    1.2528405   -6.2999939     28.50222  0.035987651      0.04393            6 
   67000    1.2493493   -6.3354534    28.940554  0.035995714  0.043920088            4 
   68000    1.2140271    -6.335103    29.411353  0.036043325  0.043895613            2 
   69000    1.2639511   -6.3173284    29.860504   0.03606341  0.043854415            3 
   70000    1.2649905   -6.3054556    30.409687  0.036202008  0.043827114            2 
   71000    1.2482153   -6.3284657    30.863474  0.036224735   0.04380816            3 
   72000    1.2483043   -6.3529148    31.246566  0.036165006  0.043772339            7 
   73000     1.230823   -6.3529023     31.76117  0.036257043  0.043739776            2 
   74000    1.2415257   -6.3276102    32.417313  0.036505983  0.043706136            1 
   75000     1.263116   -6.3431512    33.018761  0.036687512  0.043675594            1 
   76000    1.2560447     -6.35806    33.354198  0.036572585  0.043648172            2 
   77000     1.226032   -6.2760285    34.023868  0.036822367  0.043627769            2 
   78000    1.2500076   -6.3009553     34.32634   0.03667344  0.043602096            2 
   79000    1.2310118   -6.2681504    34.815151  0.036724842  0.043561392            2 
   80000    1.2478884   -6.3804894    35.348629  0.036821488   0.04351936            2 
   81000    1.2721433   -6.3450773    35.959632  0.036995506  0.043491156            2 
   82000    1.2454089   -6.3821544    36.550902  0.037145225   0.04347709            6 
   83000    1.2471499   -6.3268588    37.198124  0.037347514  0.043477479            5 
   84000    1.2245439   -6.3036536    37.884962  0.037584287  0.043476848            2 
   85000     1.226792   -6.3453964    38.289959  0.037539175  0.043477186            2 
   86000    1.2329457   -6.3438243    38.834076  0.037629918  0.043480659            2 
   87000     1.239203   -6.3163422    39.201851  0.037549666  0.043469918            2 
   88000    1.2514152    -6.334215    39.653017  0.037550205  0.043461408            3 
   89000    1.2228992   -6.3144421    40.385901  0.037814514  0.043455919            2 
   90000      1.22293   -6.2935376    40.801464  0.037779133  0.043456063            3 
   91000    1.2338704   -6.3345747    41.462003  0.037968867  0.043456711            2 
   92000    1.2256787   -6.3021258    42.157456  0.038186101  0.043464098            4 
   93000    1.2651877    -6.350913    42.810352   0.03836053  0.043492207            1 
   94000    1.2450184   -6.3403763    43.298307  0.038385024  0.043526017            2 
   95000    1.2482741    -6.307601    44.076223  0.038663354  0.043562347            2 
   96000    1.2326141   -6.3544639     44.77232  0.038864861  0.043602256            3 
   97000    1.2444417   -6.3237846    45.385761  0.038991203  0.043647222            2 
   98000    1.1968357   -6.3500938    45.718816  0.038876544  0.043689224            3 
   99000    1.2368853    -6.312636    46.374773  0.039036004  0.043732458            3 
  100000    1.2350832   -6.3505946    46.717012  0.038930843  0.043774529            1 
  101000     1.235354   -6.3662781    47.629115  0.039297949  0.043814313            2 
  102000    1.2360506   -6.3582743    48.003803  0.039218793  0.043857063            1 
  103000    1.2574524   -6.3626417    48.371402  0.039135438  0.043896517            3 
  104000    1.2229389   -6.3214362    48.805181  0.039106716   0.04391476            2 
  105000    1.2425335   -6.3130939    49.042043  0.038922257  0.043924681            2 
  106000     1.233107   -6.3539981    49.413608  0.038847176  0.043922388            4 
  107000    1.2401156   -6.3267673    50.168732  0.039072221  0.043920355            3 
  108000    1.2449643   -6.3670782     50.83404  0.039223796  0.043921365            2 
  109000    1.2509024   -6.3368244    51.281235  0.039205837  0.043929779            2 
  110000    1.2299529    -6.338289    51.855528  0.039284491  0.043936172            2 
  111000    1.2419887   -6.3365183    52.404189  0.039342484  0.043944012            3 
  112000    1.2439761   -6.2929373    52.985429  0.039423682  0.043952401            2 
  113000    1.2449219   -6.3145076     53.36517  0.039354845  0.043958635            2 
  114000    1.2228499    -6.318784    54.146404  0.039580704  0.043963416            1 
  115000    1.2203201    -6.324972    54.338728  0.039375889  0.043966776            2 
  116000    1.2237168   -6.3417432    55.083916  0.039571779  0.043969609            2 
  117000    1.2329559    -6.355303    55.287968  0.039378895  0.043967253            2 
  118000    1.2099813   -6.3876401    55.474249  0.039176729  0.043961957            1 
  119000    1.2398856    -6.359759    55.957175  0.039185696  0.043945389            3 
  120000    1.2418532   -6.3518028    56.442388  0.039196102  0.043929248            4 
  121000     1.218288   -6.3842765    56.969617  0.039235273  0.043909696            2 
  122000    1.2107244   -6.3535777    57.182125  0.039058828    0.0438845            1 
  123000    1.2221875   -6.3805964    57.578293  0.039009684  0.043852757            4 
  124000    1.2157706   -6.3719466    58.024364  0.038994868  0.043822136            1 
  125000    1.2342513   -6.3308935     58.48508  0.038990053  0.043787453            1 
  126000    1.2498747   -6.3388328    58.965415   0.03899829  0.043754008            2 
  127000    1.2462039   -6.3374286    59.657073  0.039145061  0.043722981            2 
  128000    1.2332027   -6.3388027    60.251828   0.03922645  0.043696706            3 
  129000    1.2233077   -6.3648698    60.744017  0.039240321  0.043669774            2 
  130000    1.2472617   -6.3279952    61.320192  0.039307816  0.043644988            2 
  131000    1.2346193   -6.3989842     61.70814  0.039254542  0.043619313            2 
  132000    1.2336752   -6.3036007    62.647684  0.039550305  0.043600217            1 
  133000    1.2382012   -6.3694819     62.78673  0.039340056  0.043581319            4 
  134000    1.2211342   -6.3272489    63.769633  0.039657732  0.043565685            3 
  135000    1.2225694   -6.3668466    64.212224  0.039637175  0.043557636            3 
  136000    1.2146115   -6.3312962    64.676884  0.039630443   0.04354438            2 
  137000    1.2302813   -6.3288847    65.035018  0.039559014  0.043528906            3 
  138000    1.2055369   -6.3797845    65.449464  0.039522623  0.043511406            2 
  139000    1.2321838   -6.3418823      65.9349  0.039529316  0.043494249            4 
  140000     1.231373   -6.3476626    66.209689  0.039410529  0.043477966            2 
  141000    1.2627289   -6.3306813     66.98751  0.039590727  0.043457187            2 
  142000    1.2510749   -6.3560612    67.108745  0.039383066  0.043437211            2 
  143000    1.2465149   -6.3830609    67.945242  0.039595129  0.043416544            4 
  144000    1.2276167   -6.3403559    67.860707  0.039271242  0.043392859            2 
  145000    1.2097699   -6.2920006    68.425484  0.039324991  0.043365939            1 
  146000    1.2120097   -6.3725349    69.094701  0.039437615  0.043339613            2 
  147000    1.2302206   -6.3193225    69.415824  0.039351374  0.043315492            3 
  148000    1.2480713    -6.351675    70.160511  0.039504792  0.043289037            3 
  149000    1.2348721   -6.3409703    70.117695  0.039215713  0.043259573            3 
  150000    1.2349896   -6.3703671    71.080705  0.039489281  0.043232144            3 
  151000    1.2210116   -6.3342217    71.605982   0.03951765  0.043205742            2 
  152000    1.2313506   -6.3763459    71.594906  0.039251593  0.043176796            4 
  153000    1.2293681   -6.3013861    72.260611  0.039357631  0.043143755            3 
  154000    1.2268463   -6.3306204    72.679861  0.039328929  0.043110591            1 
  155000     1.242188   -6.3374738    73.132745   0.03931868  0.043081376            1 
  156000    1.2403661   -6.3612709    73.633586   0.03933418    0.0430504            4 
  157000    1.2430672   -6.3135301    74.316168  0.039445949  0.043019984            1 
  158000    1.2134576   -6.3753093    74.426849  0.039254667  0.042988384            2 
  159000    1.2178243   -6.3325526     75.10898  0.039365293  0.042957871            4 
  160000    1.2187539   -6.3583042    75.541026  0.039344284  0.042929699            2 
  161000     1.217635   -6.3749264    75.873738  0.039272121   0.04290132            3 
  162000    1.2099167   -6.3767267    76.598709  0.039402628  0.042875728            4 
  163000    1.2199867   -6.3338963    77.114682  0.039424684  0.042850637            1 
  164000    1.2194405   -6.3506386    77.811212  0.039538217  0.042827791            3 
  165000    1.2477997   -6.3831146    78.038894  0.039413583  0.042804604            2 
  166000    1.2585338   -6.3627125     78.69068  0.039503353  0.042784717            1 
  167000    1.2548818   -6.2961728    79.722603  0.039781738  0.042770695            4 
  168000    1.2386162   -6.3597509    79.936892  0.039651236  0.042758435            2 
  169000    1.2184659   -6.3535005    80.787264  0.039835929  0.042750045            2 
  170000    1.2349929     -6.31912    81.603065  0.040001502  0.042743878            1 
  171000    1.2565291   -6.3280735    81.422939  0.039679795  0.042734671            3 
  172000    1.2274224   -6.3783948    82.214368  0.039832542  0.042722755            4 
  173000    1.2179683   -6.3636489    82.575884  0.039776437  0.042708706            3 
  174000    1.2087957   -6.3363085    82.897637  0.039701933  0.042696758            1 
  175000    1.2314523   -6.3193041    83.817091    0.0399129  0.042689992            4 
  176000    1.2223417   -6.4072942    84.312039  0.039920473  0.042685279            2 
  177000    1.1832692   -6.3656328    85.190511  0.040108527  0.042682774            2 
  178000    1.2283337   -6.3676607    85.976545  0.040251191  0.042687063            1 
  179000    1.2221473   -6.3480769    86.356455  0.040203191  0.042690656            5 
  180000    1.2060636   -6.3712569    87.001341  0.040278398  0.042696331            2 
  181000    1.2317285   -6.3344336     87.22315  0.040157988  0.042697972            1 
  182000    1.2409842   -6.3858078     87.79694  0.040200064  0.042700709            2 
  183000    1.2186919   -6.3849924    88.656114  0.040371636  0.042705028            2 
  184000    1.2172683   -6.3837234    88.992032  0.040304362  0.042706535            3 
  185000    1.1760325    -6.379717    89.285942  0.040218893  0.042705075            2 
  186000    1.2297325   -6.3939599    89.741057  0.040206567   0.04270501            3 
  187000    1.2095173   -6.3679302    90.648837  0.040396095  0.042707841            1 
  188000    1.2043602   -6.3636416    91.040512  0.040354837  0.042711252            1 
  189000    1.2222828   -6.3610668    91.509672   0.04034818  0.042714513            1 
  190000    1.2274206   -6.3762128    92.404117  0.040528121  0.042719539            5 
  191000    1.2239693    -6.392853    92.613344  0.040407218  0.042724744            3 
  192000    1.1977773   -6.3432813    93.359059  0.040520425  0.042729626            2 
  193000    1.2162272   -6.3588983    93.604323  0.040416374  0.042736896            4 
  194000    1.2257119   -6.3763099    94.332262  0.040520731  0.042740088            2 
  195000    1.2523138   -6.3429748    94.999213  0.040597954  0.042744075            3 
  196000    1.2095717   -6.3877771    95.166226  0.040461831  0.042747672            4 
  197000    1.2407298   -6.3509389     95.93784  0.040582843  0.042751386            3 
  198000    1.2079312   -6.4396884     95.94169  0.040379499  0.042752788            3 
  199000    1.2236737   -6.3611639    96.850416  0.040557125  0.042753541            2 
  200000    1.2429894   -6.3552923    97.566382  0.040652659  0.042757641            3 
  201000    1.2068136   -6.3686204    98.095047  0.040669588  0.042762363            2 
  202000    1.2298169   -6.3544232    98.609356  0.040680427  0.042770371            2 
  203000    1.1898131   -6.3429601    99.561769  0.040871005  0.042783543            3 
  204000    1.2204856    -6.392194    99.819186  0.040775811  0.042792869            3 
  205000    1.2330027     -6.40442     100.4177  0.040820204  0.042801455            3 
  206000    1.2383955   -6.3337148     101.6206  0.041108655  0.042813607            3 
  207000    1.2265068   -6.3626666    102.16535  0.041129369  0.042829317            2 
  208000    1.2241981   -6.3578785    102.37142  0.041014192  0.042841554            4 
  209000    1.1912748   -6.3630892    102.96768  0.041055694  0.042854002            1 
  210000    1.2164887   -6.3782485    103.61233  0.041116003  0.042868249            1 
  211000    1.2283422   -6.3616334    104.36184  0.041217158  0.042884143            2 
  212000    1.2136745   -6.3815703     104.5773  0.041107428  0.042903013            4 
  213000    1.2258429   -6.3760433    105.57187   0.04130355  0.042920521            2 
  214000    1.2271973   -6.3762481    106.10833  0.041319444  0.042941077            1 
  215000     1.217494   -6.3487744    106.98081  0.041465428  0.042961044            5 
  216000    1.2179383   -6.3996729     107.5416  0.041489813  0.042985103            2 
  217000    1.2286784   -6.3966987    108.55274   0.04168692  0.043010415            3 
  218000    1.2190761   -6.3700945    109.14106  0.041720589  0.043036347            1 
  219000    1.2225785   -6.3416249    109.45815  0.041650743  0.043058154            2 
  220000    1.2151032   -6.3645866    109.93845  0.041643351  0.043082177            2 
  221000    1.2262063   -6.3461603    110.01043  0.041482064  0.043102538            3 
  222000    1.2332138   -6.3741422    110.52651  0.041488928  0.043120193            1 
  223000    1.2006794   -6.3567116    110.57979  0.041322791  0.043136209            3 
  224000    1.2562898    -6.354987    111.48724  0.041475907   0.04314997            2 
  225000    1.2232575   -6.3687588    112.23331  0.041567894  0.043165119            4 
  226000    1.2071219   -6.4176105    112.61645  0.041525241  0.043179661            4 
  227000    1.2123575   -6.3824283    113.34416  0.041609456  0.043196265            4 
  228000    1.2264757   -6.4170756    113.80159  0.041594148  0.043211015            6 
  229000    1.2023616    -6.362431    114.64228  0.041718444  0.043227398            2 
  230000    1.2317977    -6.371992     115.6062  0.041886303  0.043248184            1 
  231000    1.2164771   -6.4032183     116.0092  0.041850361  0.043269379            2 
  232000    1.2211478   -6.3849397    116.24431  0.041754423  0.043290239            1 
  233000    1.1862464   -6.3860742    116.85044  0.041792004  0.043310779            4 
  234000    1.2080922   -6.3579371     118.1466  0.042074998  0.043329921            3 
  235000    1.2236621   -6.3816879    118.10646  0.041881724  0.043350686            4 
  236000    1.2245653   -6.3889053    118.53351  0.041855052  0.043371817            1 
  237000    1.2371422   -6.3546079    119.21632  0.041918538  0.043390949            4 
  238000    1.2236163   -6.3780502    119.73202  0.041922975  0.043408941            3 
  239000    1.2129687   -6.4130444    120.20656  0.041913026  0.043426129            3 
  240000    1.1911595   -6.3754432    120.86786  0.041968006  0.043444856            1 
  241000    1.2599593   -6.3740745     121.0723  0.041864557  0.043461917            1 
  242000    1.1622696   -6.3460961    121.96467  0.041998854  0.043479703            1 
  243000    1.1878372   -6.3441887    122.54045  0.042023473   0.04349634            2 
  244000      1.21703   -6.3404159    122.71684  0.041911489   0.04351071            3 
  245000    1.2016433   -6.3521249    123.27049  0.041928738  0.043523082            3 
  246000    1.1921799   -6.3995423    124.30056  0.042107234  0.043538433            1 
  247000    1.1967992   -6.3895566     124.3084  0.041939406  0.043552446            2 
  248000    1.1991554   -6.3408793    125.36543  0.042125482  0.043566205            2 
  249000    1.2143525   -6.4102682    125.34523   0.04194954  0.043579087            3 
  250000    1.2287203   -6.3520039    126.00286  0.042000954  0.043592604            1 
  251000    1.2058545   -6.3767878    125.56071  0.041686823  0.043603334            2 
  252000    1.1882744   -6.3765786    126.57867  0.041858024  0.043612202            3 
  253000    1.2160431   -6.3955526    126.64857  0.041715604  0.043620974            3 
  254000     1.209227   -6.3321822    127.15562  0.041717724  0.043626773            2 
  255000    1.2141881    -6.412091    127.76241  0.041752423  0.043632292            2 
  256000    1.2016376   -6.4044216    128.12178  0.041706308  0.043635194            1 
  257000    1.2047414   -6.3569027     128.2451  0.041584013  0.043637888            1 
  258000    1.2221352   -6.4006136    128.79109  0.041599189  0.043640421            4 
  259000    1.1927952   -6.4317315    129.21964  0.041576461   0.04364074            1 
  260000    1.2006529   -6.3879266    129.41723  0.041479881   0.04363901            2 
  261000    1.2287113   -6.4063242    129.72704  0.041419871  0.043636535            5 
  262000    1.2093737   -6.3761749    130.30271  0.041444883  0.043635912            2 
  263000    1.2003317   -6.3292509    131.72648  0.041738429  0.043634389            3 
  264000    1.2060867    -6.353195    131.80303   0.04160449  0.043632646            2 
  265000    1.2020179   -6.4091586     131.9535  0.041494812   0.04362964            2 
  266000    1.2021754   -6.3992438    132.63036  0.041550866  0.043627554            2 
  267000     1.211499    -6.348792    133.32871  0.041613204  0.043623729            1 
  268000    1.2279289   -6.3447825    134.11912  0.041703706   0.04362224            4 
  269000    1.2148016   -6.4068187    134.12045  0.041549085  0.043620512            3 
  270000    1.2163722   -6.3432552    134.75072  0.041589727  0.043616879            2 
  271000    1.1990458   -6.3763304    135.14553  0.041557665  0.043612548            2 
  272000    1.2209349   -6.3733726    135.19579   0.04142028  0.043609702            3 
  273000    1.1877353   -6.4020592    136.25509  0.041591909  0.043605751            2 
  274000    1.1918094   -6.3472727    136.91674  0.041641344  0.043603681            1 
  275000    1.2048286   -6.3985889    137.13767  0.041556869  0.043601406            2 
  276000    1.2000945   -6.3741442    137.75957  0.041594072  0.043598345            3 
  277000    1.2235463   -6.3766287    137.33468  0.041316088  0.043594134            2 
  278000    1.1958434   -6.4029979    138.01003  0.041369912  0.043589065            4 
  279000     1.231859   -6.3967743    139.12958  0.041556028  0.043585028            2 
  280000    1.2081902   -6.4063228    139.75613  0.041594087  0.043581242            2 
  281000    1.1953139    -6.384681    139.90568  0.041490417  0.043576464            3 
  282000    1.1906747   -6.4005575    140.47609  0.041511846  0.043572219            2 
  283000    1.2127139   -6.3925475     140.8974  0.041489223  0.043568121            2 
  284000    1.2316014   -6.3796495    141.87262  0.041629289   0.04356548            4 
  285000    1.2133872   -6.3931371    142.50649  0.041668564  0.043564118            1 
  286000    1.1891806    -6.378528    143.02412  0.041673693  0.043564225            3 
  287000    1.2163279   -6.3799814    143.35231  0.041623784  0.043563197            3 
  288000    1.2261746   -6.3920112    143.70476  0.041581238  0.043562306            2 
  289000    1.2214555   -6.4183541    144.16021  0.041568689  0.043560322            2 
  290000    1.2081433   -6.4046003    144.86643  0.041628284  0.043558002            2 
  291000    1.2079693   -6.3627824    145.78686  0.041748813  0.043556371            2 
  292000    1.1840501   -6.4077307    144.74435  0.041308318  0.043552429            3 
  293000    1.1970146   -6.3950793    145.51038  0.041385205  0.043546016            4 
  294000    1.2302598   -6.3831686    146.62821  0.041561285  0.043539695            2 
  295000    1.2207274    -6.378966    146.92973  0.041505572  0.043532878            2 
  296000    1.1899847   -6.3493821    147.24242  0.041453383  0.043525441            4 
  297000    1.2216238   -6.3888553    147.88862  0.041495123  0.043517998            6 
  298000    1.1693308   -6.3825088    147.99174  0.041384714  0.043509115            2 
  299000    1.2058961    -6.436137    148.29078  0.041329648  0.043499967            4 
  300000     1.194915   -6.3837742    148.48965  0.041247124  0.043491089            1 
  301000    1.1868205   -6.3834042    149.13042  0.041287491  0.043480214            3 
  302000    1.1948966   -6.3983705    149.32087  0.041203331  0.043470428            1 
  303000    1.1893404    -6.379721    150.39684  0.041363266  0.043459911            4 
  304000     1.214152   -6.3821034     150.0295  0.041126506  0.043449939            2 
  305000    1.1973587   -6.3769078     151.2949  0.041337405  0.043438909            4 
  306000    1.2054538   -6.4015918    151.63202  0.041294122  0.043429715            2 
  307000    1.2093669   -6.3660383     152.1358  0.041296364  0.043419811            2 
  308000    1.2096191   -6.4119694    152.33092  0.041215076  0.043410564            1 
  309000    1.1936054   -6.4263883    152.83693  0.041218159  0.043399167            3 
  310000    1.2028682   -6.4327969    153.74161  0.041328389  0.043389882            2 
  311000    1.1813739   -6.4147579    154.04243  0.041276106  0.043381507            3 
  312000    1.1896932   -6.4120028     154.8802  0.041367576  0.043374361            2 
  313000    1.1987214   -6.3996269     154.8576  0.041229392  0.043365879            1 
  314000     1.213791   -6.4044402    154.82865  0.041090406  0.043357076            2 
  315000    1.1982789   -6.4330557    155.86717  0.041234702  0.043346924            5 
  316000    1.1972113   -6.3534596    157.19294  0.041453834  0.043338554            2 
  317000    1.1931442   -6.3947386    157.92433  0.041515334  0.043332032            3 
  318000    1.1781178   -6.3912912    158.18072   0.04145197  0.043325658            5 
  319000    1.2103468   -6.4051255    158.66127  0.041447562  0.043319775            4 
  320000    1.1915247   -6.3953202    159.96623  0.041657872  0.043315314            4 
  321000    1.1876418   -6.3838846    160.58949  0.041689899  0.043311568            3 
  322000    1.2194902   -6.4292632    160.56923  0.041555184   0.04330741            5 
  323000     1.209035    -6.417625    160.69343  0.041458574  0.043302151            3 
  324000    1.2141727   -6.4260357    161.46833   0.04152992  0.043296533            1 
  325000    1.1917546   -6.4314364    161.51049  0.041412947  0.043290356            2 
  326000    1.2123296   -6.3991803    162.29612  0.041486737  0.043285208            1 
  327000    1.2009987    -6.435422    162.35324  0.041374423  0.043278474            5 
  328000    1.2157548   -6.4341324    162.93637  0.041396435  0.043271912            2 
  329000    1.2125098    -6.423903    164.00613  0.041541573  0.043266204            4 
  330000    1.1817177   -6.4301552    164.03388  0.041422696  0.043261152            2 
  331000    1.1904687   -6.3826125    165.03557  0.041549741  0.043256451            3 
  332000     1.198984   -6.3881163    165.65335  0.041579655  0.043252587            2 
  333000    1.2003264   -6.3645085    166.83284  0.041749959  0.043250801            3 
  334000     1.199562   -6.4355135    166.85911  0.041631515  0.043250087            2 
  335000    1.2118873   -6.4114258    167.17357  0.041585466  0.043248524            3 
  336000    1.1909307   -6.4101296    167.93186  0.041649767  0.043245981            2 
  337000    1.1852973   -6.3909286    168.40115  0.041642222  0.043244354            1 
  338000    1.2309263   -6.3978925    168.72136  0.041597969  0.043241365            4 
  339000    1.1987089   -6.3866925    169.59367  0.041689694  0.043238562            4 
  340000    1.1964203   -6.3970634    169.56025  0.041558885  0.043235069            3 
  341000    1.1906481   -6.4281258    169.56959  0.041439293   0.04323093            2 
  342000    1.1942908   -6.3946753     170.7436  0.041604191  0.043225977            2 
  343000    1.2193765   -6.4120983    171.44837  0.041654122  0.043223519            2 
  344000    1.1606754   -6.3816358    171.79976  0.041618158  0.043220995            4 
  345000    1.2045246   -6.4079694    172.62008  0.041695671  0.043217078           11 
  346000     1.208243   -6.4322158      172.981   0.04166209   0.04321355            2 
  347000    1.2264555    -6.392955    173.68279  0.041710565  0.043210185            4 
  348000    1.2193874   -6.4161094    173.97648  0.041661034  0.043206701            2 
  349000    1.1907309   -6.4217842    174.06953  0.041563881  0.043202284            1 
  350000    1.1770908   -6.3703366    174.29266  0.041498251  0.043197242            3 
  351000    1.1972099   -6.4218318    174.82671  0.041506816   0.04319185            8 
  352000    1.1880405   -6.4105678    174.99974  0.041429863   0.04318654            3 
  353000    1.1870154   -6.4048616    176.28216   0.04161524  0.043182148            2 
  354000    1.2189331   -6.4275253    177.59609  0.041806988   0.04317868            1 
  355000    1.1855287   -6.4246197    177.20536  0.041597501   0.04317503            2 
  356000    1.2036684   -6.4402297    177.05944  0.041446499  0.043170542            1 
  357000    1.1895474   -6.4550559    177.37136  0.041403211  0.043164657            3 
  358000    1.1879962   -6.4054828    178.22949  0.041487311  0.043159118            4 
  359000    1.1854896   -6.3913262    178.71344  0.041484086  0.043153601            2 
  360000    1.1795131   -6.4001506    179.18805  0.041478716  0.043147305            2 
  361000    1.1896061   -6.4075266    179.24131  0.041376111  0.043139455            2 
  362000    1.1836497   -6.4257076    179.27492  0.041269548  0.043129563            4 
  363000    1.2020365   -6.4112615     179.2256  0.041144536  0.043120603            3 
  364000    1.1888314   -6.4321811    180.98934  0.041435288  0.043112206            3 
  365000    1.2068671   -6.4205467    181.11012  0.041349343  0.043104538            1 
  366000    1.2116373   -6.4277726    181.93625  0.041424465  0.043096333            2 
  367000    1.2094482   -6.3945513    182.54268  0.041449291  0.043088319            2 
  368000    1.1934922   -6.4067782    181.98728  0.041210887  0.043079949            2 
  369000    1.1918379   -6.4065813    182.99311  0.041326356  0.043070991            2 
  370000    1.1886901   -6.4102504    183.30187  0.041284205  0.043063528            2 
  371000    1.1732509   -6.3845178    183.79074  0.041282737  0.043055582            1 
  372000    1.1968255   -6.4088547    184.45797  0.041321229  0.043047361            1 
  373000    1.1949196   -6.4160471    185.12603  0.041359702   0.04303883            2 
  374000    1.2100152   -6.3844923    186.23047  0.041495203  0.043032039            3 
  375000    1.1863339   -6.3999904    186.25923   0.04139094  0.043024403            3 
  376000    1.1833043   -6.4389189    186.29191  0.041288101  0.043016192            2 
  377000    1.1856552   -6.4100005    186.07449  0.041130524  0.043007184            4 
  378000    1.1598183   -6.4037524    188.06053  0.041459553  0.042998512            1 
  379000    1.1882008   -6.4106568    188.23954  0.041389521  0.042990645            2 
  380000    1.2013667   -6.4138302    188.57888  0.041355016  0.042982062            2 
  381000    1.2027675   -6.4114723    188.75964   0.04128601  0.042974446            2 
  382000    1.1761257   -6.4053431    189.44543  0.041327537  0.042966444            3 
  383000    1.2016364   -6.3554163    190.58505  0.041467592   0.04295961            1 
  384000    1.2043999   -6.4231236    190.42858  0.041325646  0.042954405            2 
  385000    1.1968595   -6.4461427    191.13209  0.041370583  0.042948183            5 
  386000     1.194141   -6.4186082    190.85507  0.041203598  0.042940813            3 
  387000    1.1734466   -6.4402782     192.2461  0.041396662  0.042933955            2 
  388000    1.1778663   -6.4136892    192.64031  0.041374637  0.042927735            3 
  389000    1.1922263   -6.3967689    193.27264  0.041403737  0.042921466            3 
  390000     1.178003   -6.4096959    193.50652  0.041347548  0.042915278            3 
  391000    1.1866486   -6.4166433    193.89766  0.041325161  0.042909227            2 
  392000      1.18245   -6.3809609      195.205  0.041497662  0.042903885            2 
  393000    1.1607148   -6.4429767     194.6904  0.041282951  0.042898364            1 
  394000    1.1861128   -6.4385504    195.08209  0.041261016  0.042891252            3 
  395000    1.2118651   -6.4116621    195.99875  0.041349947  0.042884334            2 
  396000    1.1912839   -6.4260855    196.16347  0.041280192  0.042877548            2 
  397000     1.180567   -6.4575835    196.61515  0.041271022  0.042870603            4 
  398000    1.1658485   -6.4217506    197.83272  0.041422261  0.042865636            1 
  399000    1.1796779   -6.4290377    198.66946  0.041493205  0.042859906            3 
  400000    1.1961378   -6.4368119    198.50984  0.041356218  0.042854066            2 
  401000     1.211417   -6.3984189    199.09163  0.041373987  0.042847966            3 
  402000    1.1806159   -6.4030604    199.76897  0.041411477  0.042841843            3 
  403000    1.1918682   -6.4117254    200.36631   0.04143224  0.042836303            3 
  404000    1.2009847   -6.4269258    200.62408  0.041382854  0.042830666            3 
  405000    1.1940759   -6.4124373    200.99383  0.041356756  0.042824971            3 
  406000     1.175162   -6.4205098     202.1799  0.041498337  0.042819958            1 
  407000    1.2122709   -6.4658706     201.5804  0.041273628  0.042814705            3 
  408000    1.1842694    -6.391503     203.5593  0.041576655   0.04280892            4 
  409000    1.2155951   -6.4116485    203.26939  0.041415931  0.042805224            3 
  410000    1.1671743   -6.4408827    204.05127  0.041473836  0.042800272            3 
  411000    1.1767229   -6.4307651    204.10313   0.04138344  0.042794879            2 
  412000    1.1893645   -6.4201425     204.9705  0.041458434  0.042789862            3 
  413000    1.1869679   -6.3953236     205.8437  0.041534242  0.042785795            4 
  414000    1.1746596   -6.4357951    205.94606   0.04145452  0.042781463            2 
  415000    1.1796132   -6.4350121    206.22046  0.041409731  0.042776799            2 
  416000    1.1905604   -6.4569616    205.86986  0.041239956  0.042771884            1 
  417000     1.180577   -6.4537304    207.47266  0.041461363  0.042766036            3 
  418000     1.192254   -6.4701454    207.52127  0.041371863   0.04276012            2 
  419000    1.1766502   -6.4357374    208.88122  0.041543601  0.042755315            3 
  420000    1.1696535   -6.4430168    209.03422  0.041475043  0.042750549            2 
  421000    1.1849419   -6.4723867    208.47716  0.041266263  0.042745323            2 
  422000    1.1569061   -6.4189292    210.42584  0.041553286  0.042740793            2 
  423000    1.1791156   -6.4488404    210.90849  0.041550136  0.042737773            3 
  424000    1.1680848   -6.3859918    211.38313  0.041545427  0.042734788            2 
  425000    1.1700397   -6.3573095     212.9502  0.041754941  0.042733107            5 
  426000    1.1843495   -6.4233832    212.43515  0.041556173  0.042731349            2 
  427000    1.2020972    -6.439349    213.47029  0.041660869  0.042728991            3 
  428000    1.1945061   -6.4224217    213.16125  0.041503358  0.042725826            2 
  429000    1.1760569   -6.4507955    213.92113   0.04155422  0.042722937            3 
  430000     1.187764   -6.4515766    213.81865  0.041437722  0.042720116            5 
  431000    1.1592256   -6.4354249    214.88448  0.041547657  0.042717766            2 
  432000    1.1995457   -6.4623098    215.36605  0.041544377  0.042714201            6 
  433000     1.162013   -6.4609287    215.35058  0.041445454  0.042710536            2 
  434000    1.1897097   -6.4379008    216.13549  0.041500669  0.042706714            1 
  435000    1.2032231   -6.4423988    217.19982  0.041609162  0.042703255            3 
  436000    1.1792119   -6.4735586     217.1235  0.041499139  0.042700398            3 
  437000    1.2083514   -6.4977583    217.67369  0.041509094  0.042697114            3 
  438000    1.1819862   -6.4424344    218.22639   0.04151948  0.042693867            2 
  439000    1.1630134   -6.4331165    219.24721  0.041618681  0.042691361            2 
  440000    1.1744454   -6.4407957    219.71569   0.04161282  0.042690013            3 
  441000    1.1773962   -6.4437889    220.25437  0.041620251  0.042688785            2 
  442000    1.2139263   -6.4556581     221.1009  0.041685689  0.042687777            1 
  443000    1.1795001   -6.4574043    221.45584  0.041658361  0.042686733            2 
  444000    1.1702774   -6.4275106    222.01175  0.041668871  0.042685905            2 
  445000    1.2002688   -6.4493542    222.75893  0.041715155  0.042684324            1 
  446000    1.2022829    -6.435835    222.34052  0.041543446  0.042681846            2 
  447000    1.1797973   -6.4266514     222.8252  0.041540865  0.042679602            2 
  448000      1.17991   -6.3972609    222.76789   0.04143748  0.042676633            1 
  449000    1.1551606   -6.4796798    223.47746  0.041476886  0.042673684            1 
  450000    1.1939937   -6.4445624    224.74592  0.041619614  0.042670585            4 
  451000    1.1842771   -6.4799466    224.63148  0.041506186  0.042667451            2 
  452000    1.1944337   -6.4192078     225.0465  0.041490875  0.042664171            4 
  453000    1.2097403   -6.4162576    226.19504  0.041610567  0.042660888            4 
  454000    1.1901314   -6.4428041    225.88959  0.041462847  0.042656946            3 
  455000     1.173533   -6.4381816    226.42245  0.041469313  0.042652429            3 
  456000    1.1605196   -6.4375558    227.68168  0.041608495  0.042648795            3 
  457000    1.1717536   -6.4352061    227.72336  0.041525047  0.042645512            3 
  458000    1.1813345   -6.3950385    227.69731  0.041429642  0.042641661            2 
  459000    1.1881309   -6.4158647    228.03324  0.041400371  0.042637491            3 
  460000    1.1773675   -6.5101095    227.86293  0.041279517  0.042633111            2 
  461000    1.1862409   -6.4493398    228.92448  0.041381865  0.042628335            2 
  462000    1.1636558   -6.4243469    230.00922  0.041487955  0.042624007            2 
  463000     1.168048   -6.4420584    230.27808   0.04144674  0.042619818            2 
  464000    1.1594742   -6.4335377    230.72386  0.041437475  0.042614886            3 
  465000    1.1864562   -6.4199306    231.57298  0.041500535  0.042610418            2 
  466000    1.1866163    -6.464648    231.32771  0.041367617  0.042606476            4 
  467000    1.1551653   -6.4275668    231.96566  0.041392872  0.042602283            1 
  468000    1.1652064   -6.4112682    232.73343  0.041441138  0.042598179            3 
  469000    1.1809958   -6.4460018    232.81652  0.041367541  0.042593644            3 
  470000    1.1839339   -6.4443083    232.67749  0.041254873  0.042588549            4 
  471000    1.1708724   -6.4209275    233.98174  0.041398043  0.042583329            1 
  472000    1.1686462   -6.4437388    234.22702  0.041353641   0.04257812            3 
  473000    1.1825845   -6.4397978     234.4714  0.041309267  0.042573622            3 
  474000    1.1974033   -6.4373328    235.51949   0.04140638  0.042568543            2 
  475000    1.2022797   -6.4537843    235.71621  0.041353722  0.042563812            3 
  476000    1.1691797   -6.4511024    236.43656  0.041392955  0.042559537            1 
  477000    1.1498369   -6.4142967    238.07579  0.041592556  0.042555725            7 
  478000    1.1676164   -6.4079101    237.32687  0.041374978  0.042552075            1 
  479000    1.1788589    -6.443002    238.29852  0.041457641  0.042547785            3 
  480000    1.1769471    -6.448918    238.91338  0.041478018  0.042543144            2 
  481000    1.2096404   -6.4150895    239.17012  0.041436264  0.042538957            2 
  482000     1.197948   -6.3971917    239.77584   0.04145502  0.042534836            3 
  483000    1.1762638   -6.4802215    238.90157  0.041218352   0.04252982            2 
  484000    1.1685271   -6.4447819    240.49731  0.041407939  0.042524408            4 
  485000    1.1876726   -6.4401251    240.56503  0.041334197  0.042520004            3 
  486000    1.1733264   -6.4391026    241.80006  0.041460916  0.042515707            2 
  487000    1.1665468   -6.4185113    242.30474  0.041462139  0.042511254            3 
  488000    1.1812277   -6.4620592    241.90917  0.041309626  0.042506874            4 
  489000    1.1934484   -6.4672728    242.15959  0.041267824  0.042501834            3 
  490000    1.1810323   -6.4121396    244.04008  0.041503414  0.042496546            2 
  491000     1.154648   -6.4453009    243.23814   0.04128278  0.042490958            2 
  492000    1.1770767   -6.4526636    244.01718  0.041330823  0.042485342            2 
  493000    1.1802783   -6.4798163    243.62761  0.041181137   0.04247923            4 
  494000    1.1634818   -6.4220151    244.55167  0.041253655  0.042473287            1 
  495000    1.1701037   -6.4326492    245.89827  0.041397015   0.04246816            2 
  496000    1.1886976   -6.4585946    245.73519  0.041286155  0.042463188            2 
  497000    1.1792284   -6.4674135    246.75604  0.041374253  0.042458531            4 
  498000    1.1854499   -6.4015181    247.25577  0.041374794   0.04245379            2 
  499000    1.1867654   -6.4571716    248.20804  0.041450908   0.04244931            3 
  500000    1.1961588   -6.4790481     249.2059  0.041534316  0.042445719            4 
  501000    1.1664208   -6.4689598     248.3955  0.041316617   0.04244224            5 
  502000     1.166985    -6.443118    248.97738  0.041330906  0.042438859            2 
  503000    1.1709958   -6.4480319    249.62478  0.041355994  0.042434586            3 
  504000    1.1834144   -6.4717624    250.19832  0.041368769  0.042430618            4 
  505000    1.1772531    -6.440224    250.93987  0.041409219  0.042426391            1 
  506000     1.141834    -6.458582    251.30408  0.041387365  0.042422783            2 
  507000    1.1576091   -6.4737849    252.15382  0.041445402  0.042418613            4 
  508000    1.1628171   -6.4758624     252.5118   0.04142254  0.042414592            2 
  509000    1.1478773   -6.4567282    253.11697  0.041440237   0.04241081            1 
  510000    1.1621663   -6.4227085    253.96188   0.04149704  0.042407683            1 
  511000     1.162197   -6.4697004    254.10111  0.041438536  0.042404498            2 
  512000     1.162139   -6.4443683     254.3857  0.041403923  0.042400954            3 
  513000    1.1687717   -6.4743576    254.05269  0.041269117  0.042396799            2 
  514000    1.1618324   -6.4345875    255.87265  0.041483893   0.04239238            3 
  515000    1.2000701    -6.451665    255.22945  0.041299264  0.042388064            2 
  516000    1.1863983   -6.4473909    254.89106  0.041164577  0.042383075            2 
  517000    1.1727635   -6.4406375    255.74126  0.041221996  0.042378046            2 
  518000    1.1951074    -6.413995    256.92795  0.041333325  0.042372829            1 
  519000    1.1659826   -6.4550853    255.45791  0.041017647  0.042367221            2 
  520000    1.1376199   -6.4657035    256.27844  0.041070263  0.042360286            2 
  521000    1.1757461   -6.4348073    258.08309  0.041280085  0.042354253            4 
  522000    1.1983588   -6.4840912    257.49308  0.041106814  0.042348602            2 
  523000    1.1734478    -6.486295    257.37801  0.041009881  0.042342748            7 
  524000    1.1807332   -6.5024725    259.24025  0.041227775  0.042336831            1 
  525000    1.1696062   -6.4630591    259.28954  0.041157069  0.042331111            2 
  526000    1.1809015   -6.4526164    260.44044   0.04126116  0.042325409            2 
  527000    1.1580093   -6.4493673    260.25663  0.041153799  0.042320003            3 
  528000    1.1524585   -6.4164063    260.48542  0.041111966  0.042314482            2 
  529000    1.1695344   -6.4486662    260.56371  0.041046583  0.042309359            2 
  530000    1.1866843   -6.4814325    261.51449   0.04111863  0.042303594            3 
  531000    1.1830275   -6.4575064    262.19435   0.04114789  0.042297839            2 
  532000    1.1894165   -6.4643109    262.57132  0.041129593  0.042291951            6 
  533000    1.1813504   -6.4694326    262.75826  0.041081654  0.042285761            1 
  534000    1.1727405    -6.415678    262.45895  0.040958014  0.042278799            3 
  535000    1.1416237    -6.485384    263.59615   0.04105859  0.042271795            4 
  536000    1.1756811   -6.4716459    264.11025  0.041061917  0.042265408            2 
  537000    1.1560422   -6.4806437    264.41459   0.04103268  0.042258708            2 
  538000    1.1630593   -6.4666366    265.01929  0.041050075  0.042252288            3 
  539000    1.1535329   -6.4964275    265.31313  0.041019347  0.042244982            3 
  540000    1.1733138   -6.5051294    265.16998  0.040921292  0.042237471            3 
  541000    1.1717837   -6.4577603    266.61894  0.041068845  0.042230127            2 
  542000    1.1659764   -6.4427305     267.1686  0.041077583  0.042223314            4 
  543000    1.1512471   -6.4434676    266.33442  0.040873913  0.042215591            2 
  544000    1.1678614   -6.4439259    267.85877  0.041032287  0.042208032            4 
  545000    1.1915496   -6.4772335    268.21437  0.041011372  0.042200477            4 
  546000    1.1614741   -6.5012166    268.82285  0.041029128   0.04219269            1 
  547000    1.1682338   -6.4312175    269.36028  0.041035997  0.042186181            1 
  548000    1.1687685    -6.466463    268.54221  0.040836711  0.042178597            3 
  549000    1.1504744   -6.4814867    269.82443  0.040956956  0.042171434            2 
  550000    1.1686222   -6.4283443    270.04563  0.040916004  0.042163401            2 
  551000    1.1421473   -6.4219366    271.14239   0.04100762  0.042155897            3 
  552000    1.1650136   -6.4478862    271.55932  0.040996274  0.042148287            3 
  553000    1.1710728   -6.4728089    271.43969  0.040904113  0.042141073            2 
  554000    1.1694051   -6.4647261     272.7581  0.041028595  0.042133925            1 
  555000    1.1489819   -6.5017736    272.82393  0.040964553  0.042127506            5 
  556000    1.1560049   -6.4488506    273.58521  0.041004978  0.042120797            2 
  557000    1.1531247   -6.4802307    273.19543  0.040873044  0.042113664            2 
  558000    1.1699482   -6.4686514    273.81101  0.040891727   0.04210586            3 
  559000    1.1365789   -6.4397106    273.37841  0.040754087  0.042097785            2 
  560000    1.1791381   -6.3837361    274.00525  0.040774591   0.04208916            3 
  561000    1.1581428    -6.434058    273.54064  0.040632893  0.042080606            2 
  562000    1.1740486   -6.4642284    274.11796  0.040646198  0.042071261            2 
  563000     1.158633     -6.46789    275.39245  0.040762648  0.042062097            2 
  564000    1.1646073   -6.4551405    275.78778  0.040748785  0.042052225            3 
  565000    1.1582578   -6.4421188    275.93964  0.040699062  0.042043025            2 
  566000    1.2088675   -6.4465428    276.52666  0.040713584  0.042033242            5 
  567000    1.1772202   -6.4687028    276.52178   0.04064106   0.04202411            5 
  568000    1.1538745   -6.4629024    276.35049  0.040544379   0.04201478            2 
  569000    1.1663084    -6.464333    277.60256  0.040656497  0.042004888            4 
  570000    1.1729158   -6.4566986    278.61872  0.040733732   0.04199542            2 
  571000    1.1465667   -6.4942653     277.8525  0.040550569  0.041986662            1 
  572000    1.1517889   -6.5009588     278.8247  0.040621314  0.041977574            2 
  573000      1.15529   -6.4935495     279.1299  0.040594808  0.041967736            2 
  574000    1.1570304   -6.4337947    280.25242  0.040687053  0.041958068            5 
  575000    1.1529904    -6.457499    279.10536  0.040450052  0.041948102            2 
  576000     1.138617   -6.4851736    280.15291  0.040531382  0.041938215            2 
  577000    1.1656051   -6.4755253    281.12125   0.04060099  0.041928843            2 
  578000    1.1566172   -6.4854926    281.24206  0.040548163  0.041919609            1 
  579000    1.1720613   -6.4774531    280.97403  0.040439556  0.041909805            4 
  580000    1.1619816   -6.4396533    282.66857    0.0406133  0.041899785            3 
  581000    1.1642195   -6.4390732    282.39849   0.04050466  0.041889774            4 
  582000    1.1483086   -6.4444187    282.91188  0.040508574  0.041879145            2 
  583000    1.1546446   -6.4815144    282.54727  0.040386973   0.04186825            3 
  584000    1.1706778   -6.4822619     283.4062  0.040440382  0.041857944            2 
  585000    1.1554334    -6.479426    284.15609  0.040478076  0.041848141            2 
  586000    1.1307453   -6.4657551    284.90536  0.040515551  0.041838572            1 
  587000    1.1669874   -6.5178639    285.97049  0.040597742   0.04182964            2 
  588000    1.1388579    -6.508617    285.15737   0.04041346  0.041819806            5 
  589000    1.1556661   -6.4677303    285.79783   0.04043546  0.041810794            5 
  590000    1.1615351   -6.4705681    286.49446  0.040465319  0.041801254            2 
  591000    1.1542534   -6.4458299    287.39916  0.040524416  0.041792037            2 
  592000    1.1392026   -6.4734769    288.09697   0.04055419  0.041782812            1 
  593000    1.1400072   -6.4734342     289.2062  0.040641681  0.041774101            2 
  594000    1.1600214   -6.4619978     288.7676  0.040511729  0.041765872            4 
  595000    1.1532187   -6.4884824    289.63121  0.040564595  0.041756843            3 
  596000     1.137924   -6.5088012    288.91742   0.04039673  0.041747695            2 
  597000    1.1327671   -6.5253481    289.24703  0.040375075  0.041738238            3 
  598000    1.1655901   -6.5018903    290.09165  0.040425257  0.041728881            3 
  599000    1.1598145   -6.4650176    291.75754  0.040589529  0.041719774            2 
  600000    1.1388377   -6.4989202    290.75999  0.040383332  0.041711042            2 
  601000    1.1392263   -6.4729522    291.81763  0.040462789  0.041702209            3 
  602000    1.1375052   -6.4721451    293.34731  0.040607324  0.041693997            3 
  603000    1.1418037   -6.4872501     292.8412  0.040470039   0.04168489            2 
  604000    1.1500362   -6.5026351    293.03366  0.040429589  0.041676068            2 
  605000    1.1846309   -6.4912513    293.90115  0.040482253  0.041667324            2 
  606000    1.1829206   -6.4925304    294.44585  0.040490354  0.041658411            3 
  607000    1.1515882   -6.5036169    294.35276  0.040410867  0.041650019            3 
  608000    1.1479841   -6.5294509    295.27519  0.040470831  0.041641317            4 
  609000    1.1430638   -6.5224755    295.90405  0.040490429  0.041633557            2 
  610000    1.1573632   -6.4256678    295.85795  0.040417753  0.041625027            2 
  611000    1.1628977   -6.4808679    296.59157   0.04045166  0.041616882            2 
  612000    1.1603217   -6.5084448    296.41529   0.04036156  0.041608307            3 
  613000    1.1687502   -6.5214163    297.01332  0.040377015  0.041599476            2 
  614000    1.1336633   -6.5018448    297.58326  0.040388608  0.041590032            2 
  615000    1.1549468   -6.5062736     297.6517  0.040332209  0.041581457            2 
  616000    1.1784321   -6.5234495    298.29401  0.040353627  0.041572732            2 
  617000    1.1540947   -6.4995606    299.37277  0.040433924  0.041564987           10 
  618000    1.1844283   -6.5300885    299.26077  0.040353394  0.041556759            5 
  619000     1.123621    -6.493618    299.79837  0.040360578  0.041548626            4 
  620000    1.1728464   -6.5141057    301.35908  0.040505252  0.041540461            3 
  621000    1.1563846   -6.5008165    301.11986  0.040407925  0.041532005            1 
  622000    1.1737661    -6.438182    301.92771  0.040451194  0.041523591            3 
  623000    1.1316406   -6.4852051    302.67718  0.040486514   0.04151578            3 
  624000    1.1712336   -6.5047045    300.93032  0.040188344  0.041507247            1 
  625000    1.1454953   -6.4750568    302.29873  0.040306498  0.041498636            7 
  626000    1.1687464   -6.4854573    303.21334  0.040363863  0.041489995            4 
  627000    1.1698063   -6.4617441     303.7293  0.040368062  0.041481276            2 
  628000    1.1580377   -6.4696131    304.50916  0.040407267  0.041472631            4 
  629000    1.1910645   -6.5121575    303.94405  0.040268156  0.041463668            2 
  630000    1.1380228   -6.4833884    304.51294  0.040279489  0.041454167            2 
  631000    1.1548885   -6.4783542    303.95757  0.040142309  0.041444845            5 
  632000     1.148818   -6.4748776    305.36248   0.04026404  0.041434696            1 
  633000    1.1333236   -6.4878801    304.38959  0.040072352  0.041424677            3 
  634000    1.1811534   -6.4673782    305.19139  0.040114536  0.041414098            4 
  635000    1.1480323   -6.4894541    305.55109  0.040098569  0.041403575            2 
  636000    1.1823815   -6.5097489    305.87755  0.040078295  0.041392825            1 
  637000    1.1663491   -6.5051581    306.45106  0.040090405  0.041382406            4 
  638000    1.1548117   -6.4711504     308.9718  0.040356818  0.041372989            3 
  639000    1.1764039    -6.508471    307.63459  0.040119273  0.041363497            2 
  640000    1.1501687    -6.484477    309.01185  0.040235918  0.041353912            4 
  641000    1.1506364   -6.4962343     309.3938  0.040222803  0.041344611            3 
  642000    1.1429261   -6.4962913    309.72883  0.040203639  0.041335778            2 
  643000    1.1357403   -6.4376166    311.18636  0.040330011  0.041327111            2 
  644000    1.1754084   -6.4817436    310.52314  0.040181566  0.041318154            4 
  645000    1.1645707   -6.5046738    310.40471  0.040103968  0.041309267            4 
  646000    1.1443142   -6.4606084    312.35953  0.040294057  0.041300297            4 
  647000    1.1317908   -6.5093843    310.98099  0.040054224  0.041291647            3 
  648000     1.152638   -6.4988965    312.77807  0.040223517  0.041283222            1 
  649000    1.1556899     -6.49731    314.38944  0.040368444  0.041275396            2 
  650000    1.1348688   -6.4888714    314.57572  0.040330221  0.041267697            2 
  651000    1.1842649   -6.4754486    315.61056  0.040400737  0.041260469            4 
  652000    1.1349288   -6.4753568    315.35351  0.040305919  0.041252803            3 
  653000    1.1182231   -6.4924989    315.04796  0.040205201  0.041244852            3 
  654000    1.1358372   -6.5471926     315.0687  0.040146369  0.041236745            3 
  655000    1.1376829   -6.4966087    315.65695  0.040159917   0.04122872            3 
  656000     1.165825   -6.4951841    316.31942  0.040182853  0.041220454            2 
  657000    1.1693961    -6.476385    316.22191  0.040109324  0.041212098            2 
  658000    1.1433338   -6.4842294      317.179   0.04016958  0.041203771            2 
  659000    1.1688948   -6.4817715     317.1874  0.040109686  0.041195257            3 
  660000    1.1189733   -6.5143254    317.13714  0.040042568  0.041186414            2 
  661000    1.1466891   -6.5148628    317.59775  0.040040059  0.041177693            3 
  662000    1.1399934   -6.4725048    318.78974  0.040129625  0.041169062            2 
  663000    1.1694833   -6.4918625    318.35623  0.040014609  0.041160622            3 
  664000    1.0875762   -6.4745083    320.66687  0.040244336  0.041152081            3 
  665000    1.1409454   -6.5004447     320.1329  0.040116904  0.041143765            2 
  666000    1.1381109   -6.4904141    321.36726  0.040211118   0.04113616            4 
  667000    1.1448725   -6.4712501    320.60991   0.04005621  0.041128665            3 
  668000    1.1735176   -6.5028785    321.88393  0.040155181  0.041120563            3 
  669000    1.1373612   -6.4855779    321.68435  0.040070297  0.041112593            2 
  670000    1.1362696   -6.4601466    323.45239  0.040230397  0.041105095            4 
  671000    1.1370486   -6.4759352    322.16286  0.040010291   0.04109752            1 
  672000    1.1295239   -6.5063311    324.07436  0.040187792  0.041089736            2 
  673000    1.1275778   -6.4911145    324.86733  0.040226267  0.041082303            2 
  674000    1.1287239    -6.478707    324.56461  0.040129155  0.041074549            2 
  675000    1.1428421    -6.449119    325.80361  0.040222668  0.041066995            2 
  676000    1.1527436   -6.5255547    325.45506    0.0401202  0.041059731            9 
  677000    1.1480624   -6.4805977    325.92336  0.040118581  0.041052047            2 
  678000    1.1335861   -6.5484007    325.03527  0.039950255  0.041044358            2 
  679000     1.139799   -6.4781118    326.53586  0.040075584  0.041036619            2 
  680000    1.1533067   -6.4811682    326.70135   0.04003693  0.041028864            2 
  681000    1.1504895   -6.5144513    327.55922  0.040083115  0.041021044            3 
  682000    1.1113814   -6.5547624    326.96529  0.039951771  0.041012986            2 
  683000    1.1561559   -6.5221224    327.58031  0.039968315  0.041005059            3 
  684000    1.1487447   -6.4999073    328.42735  0.040013079  0.040997502            3 
  685000    1.1319209   -6.4782515    328.62958  0.039979268  0.040989159            1 
  686000    1.1485449   -6.5056069    329.19141  0.039989239  0.040980884            4 
  687000    1.1479362   -6.5007629    328.52462  0.039850148  0.040972158            2 
  688000    1.1453133   -6.4948811    331.07077  0.040100626  0.040963575            2 
  689000     1.133794   -6.5222501    329.38869   0.03983898  0.040955014            4 
  690000    1.1487838   -6.4691631    331.53197  0.040040093  0.040946095            2 
  691000    1.1648789   -6.5351366    329.73012  0.039764848  0.040937097            3 
  692000    1.1287507   -6.4996084    329.93095  0.039731569  0.040927977            4 
  693000     1.155804    -6.493917    331.25064   0.03983293   0.04091908            2 
  694000    1.1255983   -6.5124827    331.19187  0.039768476  0.040909953            3 
  695000    1.1451691   -6.5318011     331.3593   0.03973133  0.040900368            1 
  696000    1.1383421   -6.4971093    331.45378  0.039685558  0.040890875            5 
  697000    1.1412434   -6.5382606    331.98659  0.039692323  0.040881469            4 
  698000    1.1479022    -6.503035    332.98735  0.039754937  0.040871527            4 
  699000    1.1406302   -6.5109942    333.13649  0.039715843  0.040861893            4 
  700000    1.1582312   -6.5391867    332.78738  0.039617545  0.040852129            2 
  701000    1.1291482   -6.5297315    333.41099  0.039635163  0.040842288            7 
  702000    1.1439801   -6.5021425    334.99235  0.039766423  0.040832537            2 
  703000    1.1562863   -6.5331966    335.54003  0.039774778  0.040823297            3 
  704000    1.1363834   -6.4765139    336.34155  0.039813157   0.04081438            3 
  705000    1.1438238   -6.5253707    335.65214  0.039675193  0.040805353            2 
  706000     1.124951   -6.5205786    336.32641  0.039698585  0.040795939            4 
  707000    1.1377185   -6.5450965    337.11444  0.039735318  0.040786634            3 
  708000    1.1500731    -6.509242    336.70308  0.039630777  0.040777349            2 
  709000    1.1446069   -6.5326867    337.44433  0.039662003  0.040767971            4 
  710000     1.134994    -6.500177    338.07557  0.039680231  0.040758736            3 
  711000    1.1315747   -6.5086871    338.39411  0.039661757   0.04074938            3 
  712000    1.1476375   -6.5119434    338.49726  0.039618125  0.040739707            1 
  713000    1.1242774   -6.5217332    336.89589  0.039375397  0.040729838            3 
  714000    1.1382829   -6.4974985    338.82506  0.039545409  0.040720371            5 
  715000    1.1435946   -6.5133226    339.77417  0.039600719  0.040710971            2 
  716000    1.1612742   -6.5199872    339.83727  0.039552755  0.040701543            2 
  717000    1.1275972   -6.4966109    341.68644  0.039712511  0.040692644            3 
  718000    1.1220959   -6.5510343    340.33251  0.039500059  0.040683415            2 
  719000    1.1455174   -6.5329967    342.60241  0.039708207   0.04067429            6 
  720000    1.1463801   -6.5667974    342.27808  0.039615519  0.040664766            3 
  721000    1.1688462   -6.5129818    342.65535  0.039604178   0.04065561            2 
  722000    1.1301427   -6.5403306    342.89327  0.039576786  0.040646451            3 
  723000    1.1361967   -6.5141212    342.86617  0.039518922  0.040636834            2 
  724000    1.1392742   -6.5053433    345.15252    0.0397275   0.04062775            2 
  725000    1.1419133   -6.4833516    345.30274   0.03968997  0.040618648            3 
  726000    1.1320651   -6.5125256    345.21201  0.039624886  0.040609668            3 
  727000    1.1079807   -6.5088391    345.74572  0.039631559  0.040601113            2 
  728000    1.1274586   -6.4872074    346.53393  0.039667345   0.04059304            2 
  729000    1.1512073   -6.5281379    345.51199  0.039496112  0.040584595            4 
  730000    1.1386161   -6.5010055    347.98742  0.039724591  0.040576328            4 
  731000    1.1552624   -6.5238774    347.48459  0.039612927  0.040568002            4 
  732000    1.1402065    -6.537568    348.02595  0.039620441  0.040560011            6 
  733000    1.1606864    -6.536332    349.10518  0.039689083  0.040551977            3 
  734000    1.1517497   -6.5258377    349.05136  0.039628901  0.040543618            4 
  735000    1.1278549    -6.499697    349.39467  0.039613908  0.040535325            2 
  736000    1.1306247   -6.4864456    350.39962   0.03967387  0.040527402            2 
  737000    1.1599039   -6.5385671    349.91568  0.039565318  0.040519302            2 
  738000    1.1303964   -6.4934886    351.07955  0.039643128  0.040511123            2 
  739000    1.1183848   -6.5226221    351.13379  0.039595601  0.040502849            3 
  740000    1.1283077   -6.5267041    350.72542  0.039496106  0.040494424            5 
  741000    1.1422954   -6.5473325    350.39438  0.039405576  0.040485586            1 
  742000    1.1572801   -6.4875701    352.16441  0.039551259  0.040476593            1 
  743000     1.150577   -6.5348068     351.9509   0.03947408  0.040467859            3 
  744000    1.1254937   -6.5317183    352.47344  0.039479552  0.040459126            2 
  745000    1.1309608   -6.4950265    352.57591  0.039438022  0.040450539            2 
  746000    1.1129372    -6.510951    354.27857  0.039575354  0.040442016            3 
  747000    1.1393006   -6.5757696    351.99694  0.039267842  0.040432958            2 
  748000    1.1105903   -6.5326955     353.0564  0.039333378  0.040423997            6 
  749000    1.1602287   -6.5558884    353.54249  0.039334945  0.040414666            1 
  750000    1.1430382   -6.4867686    354.50033  0.039388926  0.040405286            5 
  751000     1.121438   -6.5301024    355.22936  0.039417372  0.040395925            4 
  752000    1.1543856   -6.5337912    354.95611  0.039334676  0.040386702            8 
  753000    1.1430018   -6.4624268    355.49475  0.039342048  0.040377544            3 
  754000    1.1322837   -6.5067762     356.1336  0.039360478  0.040368256            1 
  755000    1.1083654   -6.5429918    355.90991  0.039283654  0.040358893            2 
  756000    1.1389836   -6.5041901    356.48803  0.039295418   0.04034946            3 
  757000     1.105794   -6.5184071    357.39926   0.03934382   0.04034002            3 
  758000    1.1346361   -6.5220804    357.25004   0.03927551  0.040330323            3 
  759000    1.1479437   -6.5348987    357.27743  0.039226771  0.040320746            3 
  760000    1.1392978   -6.5093825    359.60543   0.03943042  0.040311504            3 
  761000    1.1269671   -6.5362622    358.25331  0.039230542  0.040302146            5 
  762000    1.1220551   -6.5401969    359.15497  0.039277665  0.040292827            1 
  763000    1.1002342   -6.4984575    360.10831  0.039330309  0.040283247            4 
  764000      1.12811    -6.547593    359.38062  0.039199457  0.040274116            3 
  765000    1.1514592    -6.550471    359.42828  0.039153407  0.040264503            7 
  766000    1.1492776   -6.5372905    360.41367  0.039209494  0.040254932            3 
  767000    1.1437391   -6.6000094    359.54234  0.039063705   0.04024492            2 
  768000    1.1359526   -6.4929445    360.42136  0.039108221   0.04023487            1 
  769000    1.1421169   -6.5399899    360.96534  0.039116314   0.04022478            5 
  770000    1.1075568   -6.5174509    361.69944  0.039144961   0.04021437            4 
  771000    1.1459418    -6.527591    361.58913  0.039082267  0.040204026            1 
  772000    1.1189547    -6.517352    361.70409  0.039044052  0.040193536            8 
  773000    1.1721388   -6.5349815    361.11448  0.038929978  0.040182912            4 
  774000    1.1272043   -6.5086551    362.54254  0.039033435  0.040172668            2 
  775000    1.0987071   -6.4877897    363.42711  0.039078184  0.040162454            3 
  776000    1.1406887   -6.5403991    362.94474  0.038976024  0.040152235            6 
  777000    1.1336907   -6.5251021    363.94123  0.039032736  0.040141922            3 
  778000    1.1217555   -6.5353771    363.55534  0.038941232  0.040131662            2 
  779000    1.1274169    -6.509698    364.27522  0.038968252  0.040121561            2 
  780000    1.1236067   -6.5093587    364.37559  0.038929016   0.04011118            2 
  781000    1.1354328    -6.587106    365.24067  0.038971476  0.040100138            2 
  782000    1.1357177   -6.5270727    365.08795  0.038905365  0.040089225            3 
  783000     1.120548   -6.5420993     365.3743  0.038886154  0.040078032            3 
  784000    1.1233335   -6.5427633    366.17744  0.038921922  0.040066289            4 
  785000    1.1494868   -6.5710764    365.03847   0.03875143  0.040054844            2 
  786000    1.1018226   -6.5220187    366.08706  0.038813302  0.040043178            4 
  787000    1.1012391   -6.5404116    366.63339  0.038821833  0.040032045            2 
  788000    1.1298366   -6.5439218    366.21549  0.038728372  0.040021088            9 
  789000    1.1084138   -6.5568752    369.36693  0.039012139   0.04001035            1 
  790000    1.1355919   -6.5537621    367.67445  0.038784225  0.039999843           10 
  791000    1.1291649   -6.5161273    369.55878   0.03893371  0.039989342            2 
  792000    1.1305521   -6.5416269    369.26422  0.038853559  0.039979162            3 
  793000    1.1081246   -6.5313953    369.82949  0.038863965  0.039968463            2 
  794000    1.1214816   -6.5387008    368.45805   0.03867108  0.039957775            4 
  795000     1.119766   -6.5666532    369.60709  0.038742881  0.039947053            3 
  796000    1.1439166   -6.5544763    370.07363  0.038743052  0.039936188            3 
  797000    1.1104339   -6.5445845    370.34781  0.038723109  0.039925396            5 
  798000    1.1244229    -6.523268    371.28243  0.038772183  0.039914869            2 
  799000    1.1086254   -6.5257033    371.32705  0.038728311  0.039904188            3 
  800000    1.1462232   -6.5331906    372.01333  0.038751389   0.03989336            3 
  801000    1.1319635   -6.5462984     372.4772  0.038751269  0.039882482            2 
  802000    1.1044326   -6.5146509    374.20865   0.03888286   0.03987196            3 
  803000    1.1417411   -6.5274474      372.621  0.038669676  0.039861152            3 
  804000    1.1092006   -6.5879905    373.40838   0.03870319  0.039850317            2 
  805000    1.1256818   -6.5582854    373.94302  0.038710458  0.039839437            2 
  806000    1.1383958   -6.5522664    374.41647   0.03871138  0.039828761            3 
  807000    1.1206966   -6.5375569     376.3749  0.038865644  0.039818295            3 
  808000     1.127905   -6.5503087    375.13513  0.038689679  0.039807986            1 
  809000    1.1504722   -6.5626416    374.27472  0.038553227  0.039797565            2 
  810000     1.112626   -6.5208732    375.83878  0.038666541  0.039786847            3 
  811000    1.1245485   -6.5483294    376.38134  0.038674613   0.03977633            2 
  812000    1.1267075   -6.5427494    376.08512  0.038596584  0.039765481            3 
  813000    1.1516888   -6.5385565     377.0334   0.03864631  0.039754779            2 
  814000    1.0991251    -6.536986    377.76143  0.038673366  0.039744357            1 
  815000    1.1477762   -6.5620571    378.36345   0.03868747  0.039734043            2 
  816000    1.1284171   -6.5436936    378.16225   0.03861951  0.039723551            4 
  817000    1.1112079   -6.5405081    378.54314  0.038611091  0.039712775            2 
  818000    1.1117423   -6.5433565    379.21435  0.038632268  0.039701947            6 
  819000    1.1268847   -6.5880097    378.43274   0.03850557  0.039691138            5 
  820000    1.1061333   -6.5530239    380.45315  0.038663938  0.039680154            2 
  821000    1.1310892   -6.5495303    379.72156  0.038542587  0.039669412            4 
  822000    1.1172004   -6.5614973    379.64448  0.038487883  0.039658589            2 
  823000    1.1275922   -6.5102409    381.10409  0.038588912  0.039647635            3 
  824000    1.1441309   -6.5144429    381.50851  0.038582981  0.039637035            3 
  825000    1.1262695   -6.5122229    383.11511  0.038698496  0.039626766            3 
  826000    1.1211833   -6.5763376    381.33089   0.03847164  0.039616307            2 
  827000    1.1402611   -6.5361255    382.20091  0.038512789  0.039605435            3 
  828000    1.1175781   -6.5670729    382.34686  0.038480964  0.039594598            5 
  829000     1.124223   -6.5323533    382.21677  0.038421468  0.039584165           10 
  830000    1.1049148   -6.5337447    382.99938  0.038453753  0.039573629            3 
  831000    1.1387814   -6.5282551    385.12744  0.038620882  0.039563341            3 
  832000      1.12483   -6.5503103    384.34576   0.03849617  0.039552963            3 
  833000    1.0956911   -6.5365861    383.74549  0.038389905  0.039542327            2 
  834000    1.1355528    -6.548629    385.80983  0.038550143  0.039531571            3 
  835000    1.1347965   -6.5779195     385.1557  0.038438693  0.039521019            9 
  836000    1.1128285     -6.59007    384.97433  0.038374634  0.039510189            1 
  837000    1.1123871   -6.5373217    385.26493  0.038357719  0.039499109            2 
  838000    1.1107524    -6.541353      387.181  0.038502486  0.039488278            4 
  839000    1.1210662   -6.5502225    386.43484  0.038382483  0.039477053            5 
  840000    1.1043247   -6.5966929    386.25781  0.038319227  0.039466428            5 
  841000    1.1098511   -6.5407114    385.87741   0.03823597  0.039455062            5 
  842000      1.11571    -6.552521    387.61793   0.03836282  0.039443712            2 
  843000    1.1336498   -6.5365804    387.05896  0.038262056  0.039432865            3 
  844000    1.1143936   -6.5859303    386.31225  0.038142995   0.03942133            3 
  845000    1.1089951   -6.5816766    387.86341  0.038250829  0.039409923            4 
  846000    1.1280342   -6.5709113    388.80312   0.03829818  0.039398996            4 
  847000    1.1129191   -6.5698019    388.69632  0.038242456  0.039387796            4 
  848000    1.1015194   -6.5275793     389.5718  0.038283393  0.039376542            3 
  849000    1.0892877   -6.5282772    390.11753  0.038291865  0.039365565            3 
  850000    1.1241044   -6.5309524    390.17192  0.038252149  0.039354488            3 
  851000    1.1005068   -6.5458059    392.13596  0.038399526  0.039343875            4 
  852000    1.1020515   -6.5347121    391.12802   0.03825587  0.039333387            2 
  853000    1.0885754   -6.5461993    392.00773  0.038296964  0.039322936            2 
  854000    1.1142952   -6.5180075    393.68001  0.038415301  0.039312437            2 
  855000    1.0988227   -6.5624634    392.69187  0.038274061  0.039301866            1 
  856000    1.1241134   -6.5681745    393.01943  0.038261237  0.039291097            3 
  857000    1.1185236   -6.5614858    393.29297   0.03824319  0.039280606            6 
  858000    1.1256176   -6.5947057    393.61486  0.038229881   0.03926991            4 
  859000    1.1044865   -6.5490586    393.33099  0.038157838  0.039258878            4 
  860000      1.10643   -6.5859513    393.59947  0.038139484   0.03924808            3 
  861000    1.1348098   -6.5188402     394.2839   0.03816143  0.039237604            6 
  862000    1.0945053   -6.5555765    394.75933  0.038163121  0.039226885            3 
  863000    1.1163203   -6.5571172    395.05572  0.038147521  0.039216226            6 
  864000    1.1033013   -6.5771114    396.11354  0.038205396  0.039205473            2 
  865000    1.1309285   -6.5704245    395.68791  0.038120223  0.039194702            1 
  866000    1.1120218   -6.5776469    397.52495  0.038252978  0.039184018            3 
  867000    1.1207668   -6.5485375    397.26906  0.038184262  0.039173412            3 
  868000    1.1188654    -6.533552    398.07497  0.038217643  0.039162823            4 
  869000    1.1185733   -6.5505713    397.87652  0.038154634  0.039152156            7 
  870000    1.1206031   -6.5613425     398.9338   0.03821205  0.039141204            2 
  871000    1.1361445   -6.5998896    397.65288  0.038045626  0.039130163            3 
  872000    1.0986064   -6.5623202    398.51186  0.038084085   0.03911949            3 
  873000    1.1020514   -6.5211598    399.05293  0.038092108  0.039108729            2 
  874000    1.1169014   -6.5462971    398.84748  0.038028936  0.039097779            2 
  875000    1.1194029   -6.5832996    398.14674  0.037918737  0.039086559            5 
  876000    1.1214471   -6.5564304    399.61877  0.038015484   0.03907532            2 
  877000    1.1230678    -6.560723    399.69155  0.037979052  0.039064151            3 
  878000    1.1148147   -6.5443343    400.26169  0.037989909  0.039052854            3 
  879000    1.1044314   -6.5784624    400.12054  0.037933308  0.039041587            4 
  880000    1.0951779   -6.5734917    401.52938  0.038023616  0.039030313            3 
  881000    1.1061383   -6.5788242    401.13746  0.037943385  0.039019162            2 
  882000    1.1376085   -6.5952711    400.35469  0.037826406  0.039007814            1 
  883000    1.1234131   -6.5584243    400.58287  0.037805103  0.038996057            3 
  884000    1.1228818   -6.5771729    401.66303  0.037864162  0.038984306            2 
  885000    1.0879064   -6.5639988    403.14242  0.037960679  0.038973191            5 
  886000    1.1180558   -6.5885948    402.35868  0.037844119  0.038961906            4 
  887000    1.0901261   -6.5497002    403.46602  0.037905489  0.038950552            3 
  888000    1.1110954   -6.5530564     404.2634  0.037937632  0.038939394            3 
  889000    1.1260677   -6.5634714    403.13294  0.037788989  0.038927916            4 
  890000     1.082606   -6.5817571    402.82012  0.037717239  0.038916181            4 
  891000    1.1144124   -6.5883984    404.26353  0.037809907  0.038904258            2 
  892000    1.0964853   -6.5934723    403.89208  0.037732818  0.038892719            3 
  893000    1.1227946   -6.5553942    405.84056  0.037872393  0.038881014            5 
  894000     1.080937   -6.5331321    405.70359  0.037817262  0.038869708            2 
  895000    1.1103889   -6.5711433    406.41598  0.037841339  0.038858744            1 
  896000    1.0799889   -6.5622478    405.89326  0.037750489  0.038847527            5 
  897000    1.0928418   -6.5667026    407.02502  0.037813547  0.038836166            4 
  898000    1.1315446   -6.5294206    407.65277  0.037829693  0.038825038            3 
  899000    1.0904689    -6.554669    407.50883   0.03777427  0.038813964            3 
  900000    1.1001337   -6.5740119    409.00043   0.03787041  0.038802904            3 
  901000    1.1198209   -6.5899423    408.19246   0.03775365  0.038791608            4 
  902000    1.1255555   -6.5494411    409.74663   0.03785538  0.038780641            5 
  903000    1.1112435    -6.579292    408.86945  0.037732507  0.038769964            3 
  904000    1.0982106   -6.5762189    408.94254  0.037697505  0.038759315            3 
  905000     1.115707   -6.5956705    409.65613  0.037721559  0.038748367            4 
  906000    1.0890394   -6.6013573    409.69226  0.037683247  0.038737227            2 
  907000     1.119806     -6.55776    411.19651  0.037779907  0.038726075            4 
  908000    1.0813241   -6.5685782    410.93698   0.03771448  0.038715321            3 
  909000    1.1082257   -6.5751216     409.7188  0.037561312  0.038704097            1 
  910000     1.073555   -6.5702088    410.68911  0.037608893  0.038692698            3 
  911000    1.1184272   -6.5676501    411.70647  0.037660672  0.038681674            3 
  912000    1.0880976    -6.558529    412.56327  0.037697668  0.038670631            6 
  913000    1.1322697   -6.5766907    413.04349  0.037700209  0.038659435            2 
  914000    1.0939957   -6.5527882    413.49456  0.037700087  0.038648649            3 
  915000    1.1126222   -6.5849874    412.91508  0.037606109  0.038637783            3 
  916000    1.0995895   -6.5606594    413.54915  0.037622739  0.038627047            2 
  917000    1.1014645   -6.5717802    414.99334  0.037712953  0.038616271            6 
  918000    1.0806012   -6.5407296    414.51377  0.037628338  0.038605401            4 
  919000    1.1353507   -6.5618371    414.29895  0.037567914  0.038594508            3 
  920000    1.1109022   -6.6017452    414.64621  0.037558534  0.038583668            4 
  921000    1.0832367   -6.5706069    415.89324  0.037630586  0.038572882            4 
  922000    1.0806139   -6.5575344    416.14775  0.037612776  0.038562334            2 
  923000    1.0995001   -6.6426376    415.94592  0.037553803  0.038551374            6 
  924000    1.1324097   -6.5734417    414.93582  0.037422061  0.038540159            2 
  925000    1.0867474    -6.589992    417.50981  0.037613496  0.038528984            6 
  926000    1.1091034   -6.5929263    418.27635  0.037641861  0.038518128            4 
  927000    1.1122231   -6.6019258    418.02916  0.037579033   0.03850699            4 
  928000    1.1053616   -6.5948649    418.27527  0.037560639  0.038495852            2 
  929000     1.093663   -6.5831822    418.06723  0.037501546   0.03848517            4 
  930000    1.0981562   -6.5891965    419.30512  0.037572144  0.038474229            3 
  931000    1.0857828   -6.5470426    419.81547  0.037577467  0.038463578            2 
  932000    1.0971309   -6.5637977    418.25094  0.037397258  0.038452728            3 
  933000     1.103924   -6.5812193    418.67606  0.037395146  0.038441628            4 
  934000    1.1073069   -6.5538538    419.20087  0.037401933  0.038430234            1 
  935000    1.0969802   -6.5857227    419.85462  0.037420198  0.038419121            2 
  936000    1.1056387   -6.5741822    419.53965  0.037352177  0.038407639            2 
  937000    1.1377159   -6.5828434    420.34891  0.037384286  0.038396178            4 
  938000     1.084853   -6.5955776    420.63925  0.037370225  0.038384622            2 
  939000    1.1201549   -6.5601892    420.55468  0.037322922  0.038373355            3 
  940000    1.1138811   -6.6151386    420.92272  0.037315844  0.038362257            2 
  941000    1.1050087   -6.5897618    421.98641  0.037370387  0.038350873            3 
  942000    1.1064337   -6.5851092    422.67134  0.037391307  0.038339604            2 
  943000    1.1110403   -6.6083472    421.25254  0.037226276  0.038328333            2 
  944000    1.0696725    -6.569667    424.69714   0.03749092  0.038317284            3 
  945000    1.1229909   -6.6127896    423.71134  0.037364315  0.038306321            5 
  946000    1.1023168   -6.5715168    423.99961  0.037350213  0.038295289            7 
  947000    1.1337064   -6.6044624     423.3899  0.037257119  0.038284462            3 
  948000    1.1153597   -6.5387334    425.48386  0.037401886  0.038273748            3 
  949000    1.1107614   -6.6177127    424.34861  0.037262786  0.038263152            3 
  950000    1.0816986   -6.5725528    425.62281  0.037335334  0.038252236            3 
  951000    1.0958451   -6.5869647    425.49432  0.037284816  0.038241504            2 
  952000    1.0916917   -6.5606364    426.79196  0.037359241  0.038230682            3 
  953000    1.1116624   -6.5896109    426.50557  0.037294995  0.038219819            2 
  954000    1.0985177   -6.5896805     427.6833  0.037358779  0.038209096            1 
  955000    1.1002201   -6.6119578     427.5891  0.037311439  0.038198208            2 
  956000    1.1052961   -6.5581344    426.56612   0.03718324  0.038187177            3 
  957000    1.1057619    -6.593221    427.83281  0.037254686  0.038176087            2 
  958000    1.0855558   -6.6207996    427.41362  0.037179333  0.038164887            4 
  959000    1.1045733   -6.6291497    425.94731  0.037013148  0.038153659            4 
  960000    1.0847073   -6.6126865    426.26601  0.037002257  0.038142403            4 
  961000    1.1110942   -6.5800837    429.61485  0.037254149  0.038131116            3 
  962000    1.1258479   -6.5919686    429.12651  0.037173121  0.038119776            3 
  963000    1.0923876   -6.5923701    430.28975  0.037235181  0.038108731            2 
  964000    1.1106279   -6.6100408    429.16821  0.037099603  0.038097569            1 
  965000    1.0987124   -6.5880027     429.3124   0.03707361   0.03808649            2 
  966000    1.1282714   -6.6133489    428.50741  0.036965788  0.038075144            2 
  967000    1.1050926   -6.5939134    429.98292  0.037054715  0.038063724            4 
  968000    1.1046504   -6.5875507    430.31719  0.037045212  0.038052277            2 
  969000    1.0693459   -6.6382297    430.91039  0.037057997  0.038040878            3 
  970000    1.0699942   -6.5744741    431.66215  0.037084377  0.038029841            2 
  971000    1.1004836   -6.5874254     432.5618  0.037123395  0.038018722            2 
  972000    1.0869337   -6.5861884    433.67561  0.037180694  0.038007863            1 
  973000    1.0935191   -6.6272274    432.06307  0.037004374  0.037996974            5 
  974000    1.0911879   -6.5530498    432.90425  0.037038351  0.037985709            3 
  975000    1.1008163   -6.6186439    433.53266  0.037054074  0.037974815            6 
  976000    1.0606957   -6.5771991    433.99976  0.037055991   0.03796384            2 
  977000    1.1156791   -6.5642575    434.68787  0.037076754  0.037953207            5 
  978000    1.0954057   -6.5707942     435.4353  0.037102531  0.037942408            1 
  979000    1.0955163   -6.5795345     435.2661   0.03705023  0.037931966            2 
  980000    1.1027063   -6.5849196    436.35608  0.037105109  0.037921748            3 
  981000    1.1253157   -6.5668306    436.51659   0.03708092  0.037911157            2 
  982000    1.0714248   -6.6061404    436.91439  0.037076917  0.037900656            3 
  983000    1.1034256   -6.5845891    437.10433  0.037055301  0.037890408            1 
  984000    1.1018449    -6.582941    439.03237  0.037180925   0.03788063            1 
  985000    1.0976772   -6.6108938     438.5155   0.03709945  0.037870591            2 
  986000    1.0702759   -6.6030326    440.37902  0.037219322   0.03786088            1 
  987000    1.0805858   -6.5976517    439.04949  0.037069359  0.037850535            4 
  988000    1.1093878   -6.6265408    438.05171  0.036947682  0.037840013            2 
  989000    1.0776061   -6.6166744    438.04778  0.036909991  0.037829692            4 
  990000    1.1076279   -6.5705798    440.48816  0.037078128  0.037819678            5 
  991000    1.0885376   -6.5950437    439.87329  0.036989008  0.037809471            4 
  992000    1.0810529   -6.6088632    441.00742  0.037046995  0.037799365            2 
  993000    1.0860461   -6.5948299    441.84308  0.037079815  0.037789246            3 
  994000    1.0886791   -6.6097911    441.56842  0.037019485  0.037779292            3 
  995000    1.0872583   -6.6295746    441.17364  0.036949216  0.037769005            4 
  996000    1.0843398   -6.5913616    442.40735   0.03701534  0.037758847            8 
  997000     1.097872   -6.6136949    441.11394  0.036870105  0.037748534            2 
  998000    1.0870141   -6.6279316    441.47653  0.036863438  0.037738101            2 
  999000    1.0997455   -6.5994909    442.98347  0.036952242    0.0377274            2 
 1000000    1.0787754   -6.5558787    443.69521  0.036974601  0.037716928            2 
 1001000     1.115946   -6.5765342    443.75579  0.036942707  0.037706524            1 
 1002000    1.0870545   -6.6290212    443.40334  0.036876525  0.037696041            2 
 1003000    1.0858226   -6.5864482    444.19409  0.036905458  0.037685483            4 
 1004000    1.1019132   -6.6089507     444.9633  0.036932545  0.037675406            4 
 1005000    1.1026311   -6.5980226    445.23747   0.03691853  0.037665438            3 
 1006000    1.0935771   -6.6148497    444.75119   0.03684155  0.037655166            2 
 1007000    1.0935139   -6.6231118    444.39323  0.036775342  0.037644864            2 
 1008000    1.0870166    -6.598773     445.9802  0.036870056  0.037634717            5 
 1009000     1.099671   -6.5981139    446.14895  0.036847452  0.037624711            1 
 1010000    1.0745579   -6.5991452    447.06453  0.036886513  0.037614597            2 
 1011000    1.1126258   -6.6021718    446.13996  0.036773818  0.037604433            2 
 1012000    1.1120631   -6.6109388    448.02723  0.036892888  0.037594335            4 
 1013000    1.0769496   -6.5894367    447.92078  0.036847712  0.037584307            7 
 1014000    1.0779645   -6.5754902    448.45532  0.036855302  0.037574249            5 
 1015000    1.0861045   -6.6136273     448.3804  0.036812841  0.037564233            6 
 1016000    1.0810707    -6.638903    449.33425  0.036854843  0.037554279            2 
 1017000     1.093889    -6.601765    450.15548  0.036885896  0.037544535            6 
 1018000     1.117997   -6.6441002    449.14363  0.036766833  0.037534789            6 
 1019000    1.1144252   -6.5671594    450.43423  0.036836296  0.037525038            3 
 1020000    1.0939584   -6.6263639    449.98047   0.03676311  0.037515249            2 
 1021000    1.1118798   -6.6046178    450.79961  0.036793961  0.037505197            2 
 1022000    1.1000297   -6.6189047    449.38816   0.03664287   0.03749495            1 
 1023000    1.0941371   -6.6211202    450.34867  0.036685294   0.03748493            3 
 1024000    1.1091093   -6.6376264    451.27346  0.036724728   0.03747474            2 
 1025000    1.0868511   -6.6047127    452.25308  0.036768543  0.037464684            3 
 1026000    1.1001742   -6.6034773    453.92801  0.036868747  0.037454486            3 
 1027000     1.074807    -6.570549    453.66382   0.03681141  0.037444732            4 
 1028000     1.093552   -6.6445728    452.15612  0.036653382  0.037434621            2 
 1029000    1.0836443   -6.5984863    452.62238  0.036655521   0.03742466            3 
 1030000    1.0655988   -6.5787393    453.44386  0.036686396  0.037414632            6 
 1031000    1.0648737   -6.6119887    454.07442   0.03670178   0.03740478            3 
 1032000    1.0724651    -6.574151    454.64301  0.036712129  0.037395021            4 
 1033000    1.0714295   -6.6227263     455.7615   0.03676682  0.037385321            3 
 1034000    1.0719645   -6.6379055     454.3596  0.036618279  0.037375531            6 
 1035000    1.0789701   -6.6144243    455.77069  0.036696513  0.037366066            3 
 1036000    1.0635487   -6.6029561    455.89814  0.036671344   0.03735662            3 
 1037000    1.0965845   -6.6227845    457.75265  0.036785008  0.037346949            3 
 1038000    1.1030914   -6.5934544    456.31607  0.036634238   0.03733729            2 
 1039000    1.0606845   -6.5881166    458.13373  0.036744765  0.037327552            5 
 1040000    1.0785249   -6.5702499    458.42579  0.036732836  0.037317881            4 
 1041000    1.0947496   -6.6444737    457.26718  0.036604801  0.037308129            2 
 1042000    1.1031638   -6.6557925    458.10399  0.036636595  0.037298131            5 
 1043000    1.0919108   -6.6260551    458.17096   0.03660682  0.037288493            4 
 1044000    1.0658797   -6.5910003    459.56123  0.036682729  0.037279078            4 
 1045000    1.0587446   -6.6165625    460.59322  0.036729922   0.03726976            3 
 1046000    1.0985947   -6.6025457    459.36323  0.036596816  0.037260323            5 
 1047000    1.0814499   -6.5964672    461.33715  0.036718971  0.037250767            4 
 1048000    1.1029982   -6.5866097    459.67524  0.036551784   0.03724126            3 
 1049000    1.0823587   -6.6439802    460.32746  0.036568752  0.037231482            2 
 1050000    1.0748496   -6.6539086    459.68516   0.03648295  0.037221468            3 
 1051000    1.0890362   -6.5996863    461.67245  0.036605808  0.037211746            2 
 1052000    1.0855363   -6.6294589    462.09012  0.036604097  0.037202226            2 
 1053000    1.0967144   -6.6411917     461.4943  0.036522183  0.037192593            2 
 1054000    1.0931809   -6.6153223    461.88625  0.036518521  0.037182979            6 
 1055000    1.0905117     -6.58248    461.82962  0.036479433  0.037173212            2 
 1056000    1.0876168    -6.593308    461.89145  0.036449767  0.037163581            2 
 1057000    1.0775457    -6.627355    462.29455  0.036447063   0.03715375            4 
 1058000    1.0667584   -6.6439216    462.99303   0.03646763  0.037143961            4 
 1059000    1.0928725    -6.650496    462.64932  0.036406148  0.037133942            2 
 1060000    1.0818711   -6.6028966     463.5938  0.036446053  0.037123968            3 
 1061000    1.0791386    -6.626538    462.56466  0.036330872  0.037113971            3 
 1062000    1.0890958   -6.6289769    462.90064  0.036323025  0.037103892            3 
 1063000    1.0996366   -6.6478951    463.63699  0.036346581  0.037093805            4 
 1064000    1.0521631   -6.6767101    462.82566  0.036248877  0.037083527            3 
 1065000     1.068678   -6.6027087    464.51525  0.036347046  0.037073332            4 
 1066000    1.0924104   -6.6018955    465.60796  0.036398371  0.037063369            3 
 1067000    1.0736517   -6.6135931    465.82865  0.036381494  0.037053354            3 
 1068000    1.0703444   -6.6096225    466.34109  0.036387413  0.037043527            3 
 1069000    1.1068409   -6.5760189    467.07982  0.036410962  0.037033646            3 
 1070000    1.0852718   -6.6275948    465.95615   0.03628942  0.037023768            3 
 1071000    1.0611709   -6.6133276    467.50696  0.036376203  0.037013828            2 
 1072000    1.0877668   -6.5880732    469.35444  0.036485886  0.037004083            3 
 1073000    1.1101136   -6.6367653    467.18171   0.03628314  0.036994245            2 
 1074000      1.09273   -6.6111273    466.52329  0.036198269  0.036983911            3 
 1075000    1.0620034   -6.6335825    467.29439  0.036224371  0.036973541            5 
 1076000    1.1045806   -6.6241295    467.14874  0.036179426  0.036963104            3 
 1077000     1.100924    -6.627156     467.2171  0.036151122  0.036952486            3 
 1078000    1.1053243   -6.6337853    467.13346  0.036111121  0.036941925            3 
 1079000    1.0844658   -6.6492275    467.49892  0.036105879  0.036931302            4 
 1080000    1.0758485   -6.6472061    468.61229  0.036158356   0.03692054            1 
 1081000    1.0981071   -6.6143502    470.39645  0.036262446  0.036909924            3 
 1082000    1.0809153   -6.6060895    467.78637  0.036027909  0.036899385            6 
 1083000    1.0475558    -6.589194    470.76051  0.036223493  0.036888887            4 
 1084000    1.0577649   -6.5841218    468.63613  0.036026763  0.036878427            6 
 1085000    1.0945878   -6.6322845    468.75307   0.03600254  0.036867707            3 
 1086000    1.0730043   -6.6032707    470.83298  0.036128988  0.036857046            2 
 1087000    1.0616348   -6.6121842    469.15553  0.035967152  0.036846296            3 
 1088000    1.0801966   -6.6276198    470.76773  0.036057577  0.036835689            5 
 1089000    1.0770483   -6.6306982    472.02773  0.036120886  0.036824988            3 
 1090000    1.0630876   -6.6259382    471.51699    0.0360487  0.036814718            3 
 1091000    1.0731768    -6.653197    471.18322  0.035990164  0.036804039            3 
 1092000    1.0590643    -6.611196    471.23689  0.035961301  0.036793759            3 
 1093000     1.072881   -6.6715129    471.74597  0.035967213  0.036783338            6 
 1094000    1.0537679   -6.6412084    473.15917  0.036041984  0.036772812            6 
 1095000    1.0891604   -6.6577102    470.61879  0.035815737  0.036761884            3 
 1096000    1.0620027   -6.6259964    472.04981  0.035891865  0.036750692            3 
 1097000    1.0778754   -6.6299639    472.86129  0.035920791  0.036739899            1 
 1098000     1.071486   -6.5921799    473.05984  0.035903145  0.036728915            4 
 1099000    1.0432422   -6.6726928     472.6884  0.035842312   0.03671768            2 
 1100000    1.0492649   -6.6248776    473.51521  0.035872365  0.036706562            4 
 1101000    1.0934958   -6.6240251    473.15029  0.035812163  0.036695514            1 
 1102000    1.0590593   -6.6181038    474.74911  0.035900568  0.036684415            4 
 1103000    1.0681997   -6.6282427    474.70653  0.035864803  0.036673703            2 
 1104000    1.0440465   -6.6557001    474.79837  0.035839249  0.036663001            3 
 1105000    1.0630946   -6.6295121    475.79995  0.035882349   0.03665219            1 
 1106000    1.1070148   -6.5807317     478.0237  0.036017458  0.036641736            2 
 1107000    1.0908039   -6.6228645    475.99666  0.035832329  0.036631261            3 
 1108000    1.0621835   -6.6046735    477.68607  0.035927051  0.036620712            3 
 1109000    1.0555736   -6.6327471    476.54242  0.035808718  0.036609959            3 
 1110000    1.0772117   -6.6298354    477.59174  0.035855235  0.036599177            3 
 1111000    1.0711337   -6.6627483    476.40357  0.035733841  0.036588422            3 
 1112000    1.0819086   -6.6686362    478.06948   0.03582655  0.036577604            2 
 1113000     1.073471   -6.6353946    477.65816  0.035763564  0.036567018            3 
 1114000    1.0724753   -6.6474581     478.8009  0.035816943  0.036556426            5 
 1115000    1.0842502   -6.6771757    476.98605  0.035649181   0.03654575            2 
 1116000    1.0936096   -6.6450597    478.94124  0.035763234  0.036534862            3 
 1117000    1.0596439   -6.6182549    478.49369  0.035697828  0.036524298            2 
 1118000    1.0594299   -6.6017003    481.25254  0.035871537  0.036513777            2 
 1119000    1.0619421   -6.6090369     480.7465  0.035801795  0.036503444            5 
 1120000    1.0830833   -6.6443364    482.32002  0.035886906  0.036493059            3 
 1121000    1.0700441    -6.621726    480.02553  0.035684324  0.036482587            1 
 1122000    1.0595854   -6.6622797    481.50874  0.035762681  0.036472234            2 
 1123000     1.076316   -6.6755005    482.61553  0.035812966   0.03646192            5 
 1124000    1.0657341   -6.6558294    481.38618   0.03568996  0.036451703            5 
 1125000    1.0892426   -6.6323418    483.27012  0.035797786  0.036441535            3 
 1126000    1.0828626   -6.6486574     482.7176  0.035725103  0.036431213            3 
 1127000    1.0796664     -6.66893    481.60818  0.035611371  0.036420826            3 
 1128000    1.0735465    -6.645305    483.30063  0.035704834  0.036410344            2 
 1129000     1.078973   -6.6655214    481.87687  0.035568118  0.036399859            3 
 1130000    1.0516895   -6.6448168    482.23316  0.035562918  0.036389187            3 
 1131000    1.0567149   -6.6230908    484.04984  0.035665329  0.036378504            2 
 1132000    1.0795348   -6.6657079    484.16751  0.035642485  0.036367994            4 
 1133000    1.0628245   -6.6206819    485.24277  0.035690113  0.036357515            8 
 1134000    1.0626963   -6.6096281    485.75436  0.035696235  0.036347239            3 
 1135000    1.0848532    -6.636864     484.6426  0.035583157  0.036336643            2 
 1136000    1.0625894   -6.6303328    486.18588  0.035665044  0.036326227            4 
 1137000    1.0580402   -6.6440009    485.28181  0.035567415  0.036315946            2 
 1138000     1.062263   -6.6333256    485.33437  0.035540009  0.036305406            3 
 1139000    1.0850647   -6.6473494     485.7897   0.03554212  0.036294911            3 
 1140000    1.0665868   -6.6482327    486.36894  0.035553285   0.03628461            6 
 1141000    1.0709494    -6.647919    487.32072  0.035591639  0.036274296            4 
 1142000    1.0553433   -6.6514889    486.56946  0.035505652  0.036263962            2 
 1143000    1.0646392   -6.6541529    486.48497  0.035468429  0.036253434            3 
 1144000    1.0603862   -6.6367178     487.9037   0.03554077  0.036242999            2 
 1145000     1.069314   -6.6364757    488.38296  0.035544611  0.036232648            4 
 1146000    1.0824881   -6.6372361     488.7839   0.03554275  0.036222421            6 
 1147000     1.081382   -6.6384745    488.13441  0.035464575  0.036212174            3 
 1148000    1.0593803   -6.6209656    488.94869  0.035492791  0.036201601            4 
 1149000    1.0825132   -6.6722041    489.61246  0.035510042  0.036191005            5 
 1150000    1.0929337   -6.6165586    489.94139  0.035502999  0.036180613            1 
 1151000    1.0621778   -6.6231793      491.404  0.035578048  0.036170376            4 
 1152000    1.0590328   -6.6436993    491.01233  0.035518832  0.036160224            2 
 1153000    1.0562394   -6.6230704    491.96793  0.035557093  0.036150087            4 
 1154000    1.0575866   -6.6739824     491.3038  0.035478322  0.036140027            5 
 1155000    1.0595816   -6.6430077    492.98082  0.035568602  0.036130087            3 
 1156000    1.0844058   -6.6614071    493.26473    0.0355583  0.036120076            2 
 1157000    1.0557081   -6.6664251    492.94117  0.035504261  0.036110041            3 
 1158000    1.0691672   -6.7001317    491.60148  0.035377194  0.036100027            2 
 1159000    1.0735287   -6.6644732    494.71222  0.035570335  0.036089986            3 
 1160000    1.0641193   -6.6698671    492.71116  0.035395916   0.03607987            4 
 1161000    1.0632681   -6.6903821    493.15664  0.035397405  0.036069694            4 
 1162000    1.0711227   -6.6501457     492.4152  0.035313769  0.036059268            3 
 1163000    1.0576117   -6.6899925    493.41379  0.035354958  0.036049083            3 
 1164000    1.0656556   -6.6414967    493.72588  0.035346927  0.036039008            4 
 1165000    1.0968125   -6.6424362    493.89062  0.035328371  0.036028863            4 
 1166000    1.0751217   -6.6630559    495.92736  0.035443637  0.036018832            4 
 1167000    1.0635942   -6.6946745    495.12031  0.035355635  0.036008997            3 
 1168000    1.0537465   -6.6389994    495.90753  0.035381531  0.035998985            3 
 1169000    1.0915851   -6.6243666     495.6882  0.035335629   0.03598918            2 
 1170000    1.0680773   -6.6578002    496.96085  0.035396072  0.035979092            5 
 1171000    1.0594941    -6.677843    496.71574  0.035348402  0.035969287            4 
 1172000    1.0651247   -6.6477717    497.97526  0.035407797  0.035959273            5 
 1173000    1.0771061   -6.6458806    497.94365  0.035375366  0.035949303            4 
 1174000     1.054816   -6.6769038    498.08673   0.03535539  0.035939434            7 
 1175000    1.0525182   -6.6674373    497.68269  0.035296645  0.035929366            3 
 1176000     1.062139   -6.6902689    496.05673  0.035151412  0.035919224            4 
 1177000    1.0760085   -6.6543711     499.6529  0.035376161  0.035909057            3 
 1178000     1.054709   -6.6376789    499.06893  0.035304819  0.035899007            2 
 1179000    1.0604334   -6.6317106    500.87943  0.035402844  0.035889352            3 
 1180000    1.0665611   -6.6481982    500.63284  0.035355427  0.035879564            2 
 1181000    1.0564765   -6.6496953    500.01059  0.035281583  0.035869874            2 
 1182000    1.0500503   -6.6789874    499.96004   0.03524817  0.035860095            4 
 1183000    1.0648209   -6.6639624     501.4959  0.035326564  0.035850315            3 
 1184000    1.0483752   -6.7056733    500.50385  0.035226904  0.035840685            3 
 1185000    1.0349161   -6.7070471    501.76736  0.035286031  0.035830917            3 
 1186000    1.0511136   -6.6654386    500.38441  0.035159107  0.035821012            3 
 1187000    1.0679192   -6.6310689    501.70471  0.035222179  0.035811027            5 
 1188000    1.0509859   -6.6574742    501.48233  0.035176931  0.035800995            2 
 1189000    1.0701662   -6.6830738    502.67549  0.035230971  0.035791165            2 
 1190000    1.0696158   -6.6807724    502.68882  0.035202298  0.035781156            3 
 1191000    1.0629845   -6.6330858    502.40853   0.03515313  0.035771092            2 
 1192000    1.0511099   -6.6922531    501.48344  0.035058965  0.035760783            3 
 1193000    1.0481325   -6.6634536    503.43288  0.035165751   0.03575046            4 
 1194000    1.0601724   -6.6875413    502.43614  0.035066732  0.035740107            5 
 1195000    1.0477212   -6.6358754    504.42694  0.035176216  0.035730035            3 
 1196000    1.0627526   -6.6385339    504.51173  0.035152712  0.035720277            3 
 1197000    1.0664619   -6.6403063    503.98219   0.03508648  0.035710365            2 
 1198000    1.0620318   -6.6728825    504.21359  0.035073288  0.035700589            4 
 1199000    1.0492425   -6.6340408    504.89995   0.03509174  0.035690664            1 
 1200000    1.0496347   -6.6776539     505.8765  0.035130312  0.035680784            3 
 1201000    1.0518293   -6.6652201     505.5582  0.035078976  0.035670856            3 
 1202000    1.0750436   -6.6698099    504.80638  0.034997669  0.035660906            3 
 1203000    1.0672036   -6.6638132    506.27183  0.035070091   0.03565066            5 
 1204000     1.081336   -6.6425645    506.21762   0.03503721  0.035640725            3 
 1205000    1.0545742   -6.6813967    507.55561  0.035100665  0.035631095            3 
 1206000    1.0306182   -6.6606717    506.69882  0.035012356  0.035621115           11 
 1207000    1.0595334   -6.6531033    509.58928  0.035182911  0.035611441            2 
 1208000    1.0710014   -6.6707854    509.10283  0.035120228  0.035601737            3 
 1209000    1.0618867   -6.6861962    508.86911  0.035075069  0.035592093            1 
 1210000    1.0722152   -6.6644732    509.39756  0.035082477  0.035582474            2 
 1211000    1.0505282   -6.6414835    508.54669  0.034994955  0.035573046            2 
 1212000    1.0618432   -6.7025448    509.96973  0.035063925  0.035563641            4 
 1213000    1.0539661   -6.6662152    511.93082  0.035169746  0.035554152            2 
 1214000    1.0774262    -6.694047    511.62567  0.035119829  0.035544707            4 
 1215000    1.0576872   -6.6452095    512.07064  0.035121443  0.035535396            6 
 1216000    1.0453998   -6.6800384       510.76  0.035002741  0.035525931            6 
 1217000    1.0557945   -6.6501956    513.57627  0.035166822   0.03551669            3 
 1218000    1.0653981   -6.6803048    513.66676  0.035144141  0.035507685            3 
 1219000    1.0473606    -6.684984    514.66367  0.035183461  0.035498773            4 
 1220000    1.0451772   -6.6977727    514.19551  0.035122644  0.035489936            2 
 1221000    1.0742639   -6.6711444    514.12666  0.035089179   0.03548111            3 
 1222000    1.0744171   -6.6564037    515.20765  0.035134183  0.035472431            4 
 1223000    1.0533319   -6.6995848    515.73854  0.035141629  0.035463681            2 
 1224000    1.0684447    -6.666666    515.13088  0.035071547  0.035455108            4 
 1225000    1.0670593   -6.6789582    516.56884  0.035140738  0.035446581            3 
 1226000    1.0520009   -6.6804454    516.89277  0.035134093  0.035438072            3 
 1227000    1.0618183   -6.6674309    517.35532  0.035136873  0.035429334            3 
 1228000    1.0695946   -6.6594633    518.33477  0.035174727  0.035420954            3 
 1229000    1.0615377    -6.697834    517.91736  0.035117803  0.035412434            2 
 1230000    1.0357922    -6.689665    519.15352  0.035173003  0.035404006            3 
 1231000    1.0456385    -6.646209    519.55727  0.035171762  0.035395482            4 
 1232000    1.0344195   -6.6829168    518.45214  0.035068462    0.0353871            2 
 1233000    1.0561184   -6.7062023    519.30048  0.035097356   0.03537859            3 
 1234000    1.0727741   -6.6999668    518.81355  0.035036031  0.035369938            3 
 1235000    1.0624991   -6.6839229    518.74495  0.035003033  0.035361238            2 
 1236000    1.0527821   -6.6743309     519.8842  0.035051524  0.035352784            2 
 1237000    1.0622566   -6.6668933    519.85954  0.035021526  0.035344195            4 
 1238000    1.0587827   -6.6560265     520.9513  0.035066727  0.035335541            3 
 1239000    1.0733746   -6.6487915     519.4708  0.034938849  0.035326868            3 
 1240000    1.0525812   -6.6933179    521.65108  0.035057196  0.035318209            3 
 1241000     1.048558   -6.6932165    520.18028  0.034930183  0.035309589            3 
 1242000    1.0386103   -6.6565257     522.1853  0.035036587  0.035301045            5 
 1243000    1.0573764   -6.6888147    520.98366   0.03492784  0.035292371            2 
 1244000    1.0518862   -6.6896168    522.76754  0.035019262  0.035283808            4 
 1245000    1.0568077   -6.6562931    523.08623  0.035012465  0.035275186            2 
 1246000    1.0496944   -6.6728267    523.36396   0.03500294  0.035266812            3 
 1247000    1.0379007   -6.7074595    523.53361  0.034986208   0.03525837            5 
 1248000    1.0309428   -6.6954718    525.28059  0.035074825  0.035249747            4 
 1249000    1.0442308    -6.731194    523.06004  0.034898588   0.03524112            7 
 1250000    1.0453572   -6.6681661    523.74269  0.034916179  0.035232485            4 
 1251000    1.0861595   -6.6820496    525.46964  0.035003306   0.03522395            3 
 1252000    1.0530917   -6.6616229    523.77436   0.03486251  0.035215411            2 
 1253000    1.0847849   -6.6497247    523.89881  0.034842964  0.035206782            2 
 1254000    1.0485816   -6.6806665    525.37144  0.034913041  0.035198193            4 
 1255000    1.0554826   -6.6254982    526.25651  0.034943991  0.035189529            3 
 1256000    1.0236034   -6.7184302    526.00243  0.034899312  0.035180931            5 
 1257000    1.0687296   -6.6878061    524.97725  0.034803584  0.035172188            2 
 1258000    1.0682176    -6.689143     526.3978  0.034870018  0.035163378            3 
 1259000    1.0640396   -6.6778423    524.47796  0.034715247  0.035154502           10 
 1260000    1.0447912   -6.7069368    524.60568  0.034696143  0.035145559            3 
 1261000    1.0482773   -6.6761792    527.33042  0.034848693  0.035136608            2 
 1262000    1.0608286    -6.688655    526.93145  0.034794734  0.035127563            3 
 1263000    1.0628426   -6.6998865    525.85505  0.034696164  0.035118523            2 
 1264000    1.0307137   -6.6757232    527.60947  0.034784379  0.035109623            3 
 1265000    1.0372281   -6.7109825    525.99196  0.034650327  0.035100584            3 
 1266000    1.0295147   -6.6871732    528.22528  0.034769963  0.035091671            4 
 1267000    1.0534301    -6.701928     529.1919  0.034806097  0.035082913            4 
 1268000    1.0497257    -6.675466    528.66245  0.034743852  0.035074046            7 
 1269000    1.0461711   -6.7031208    528.74985  0.034722213  0.035065307            4 
 1270000    1.0463533   -6.6770138     530.6286  0.034818149  0.035056538            3 
 1271000    1.0560354   -6.6878633    530.57454  0.034787211   0.03504798            5 
 1272000     1.048272   -6.6843888    529.92876  0.034717555  0.035039243            2 
 1273000    1.0495813   -6.6904158     530.4321  0.034723233  0.035030569            2 
 1274000    1.0499077   -6.7458714    530.06799  0.034672161   0.03502168            7 
 1275000    1.0593716   -6.6308008    531.11682  0.034713518  0.035013156            6 
 1276000     1.025638   -6.6905213    529.78512  0.034599342  0.035004496            4 
 1277000    1.0383184   -6.6724947    531.40529  0.034677975  0.034995864            3 
 1278000    1.0561231   -6.7021021    531.73889  0.034672593  0.034987236            4 
 1279000    1.0464095   -6.6914421    532.87847  0.034719734  0.034978442            2 
 1280000    1.0590511   -6.6618201    534.64179  0.034807408  0.034970012            3 
 1281000    1.0260311   -6.6808204    532.56047  0.034644839  0.034961439            2 
 1282000      1.06129   -6.6968267    531.81425  0.034569309  0.034952652            2 
 1283000    1.0460274   -6.6607585    532.90759  0.034613379  0.034943812            2 
 1284000    1.0460409   -6.6571707    532.81557   0.03458045  0.034935114            2 
 1285000    1.0377355   -6.6695794     535.9909  0.034759461  0.034926483            4 
 1286000     1.054376   -6.6993564    534.35611  0.034626497  0.034917697            6 
 1287000    1.0441234   -6.7024685    534.50762  0.034609403  0.034908836            3 
 1288000    1.0530957   -6.6934758    534.17356  0.034560919  0.034899958            4 
 1289000    1.0855227   -6.6819249    533.62017   0.03449833  0.034891168            2 
 1290000    1.0409473   -6.6338736    536.23725  0.034640649  0.034882518            2 
 1291000    1.0322688   -6.6717308    537.84222  0.034717417  0.034873924            2 
 1292000    1.0522956   -6.6955463    536.73586  0.034619186  0.034865251            6 
 1293000    1.0412749   -6.7207188    535.71474  0.034526601   0.03485654            4 
 1294000    1.0421856   -6.7007735    535.28492  0.034472239  0.034847695            3 
 1295000     1.037681   -6.7097203    535.65885  0.034469682  0.034838815            3 
 1296000    1.0476762   -6.6831315    535.60355  0.034439528  0.034829878            1 
 1297000    1.0660446    -6.672178    536.75691   0.03448708  0.034821016            3 
 1298000    1.0631339   -6.7334105    536.48665  0.034443159   0.03481206            7 
 1299000    1.0554463   -6.6921635    538.23433  0.034528761  0.034803237            2 
 1300000    1.0382286   -6.7102324    537.11143   0.03443022  0.034794422            4 
 1301000    1.0162673   -6.6915642    536.85436  0.034387289  0.034785426            3 
 1302000    1.0367302   -6.6880816    538.67396   0.03447734   0.03477664            4 
 1303000    1.0464133   -6.6874511    538.19406  0.034420188  0.034767945            5 
 1304000    1.0513004    -6.684039    538.04743  0.034384421  0.034759044            2 
 1305000    1.0238047    -6.648328    539.36257  0.034442055  0.034750278            2 
 1306000    1.0231626   -6.7176211    537.94569  0.034325273  0.034741207            4 
 1307000    1.0219543   -6.7203804    539.43708  0.034394101  0.034732402            4 
 1308000     1.027057   -6.7074252    539.59288  0.034377732  0.034723421            2 
 1309000    1.0440175   -6.6996566    539.45154  0.034342471  0.034714681            4 
 1310000    1.0283785   -6.6654967    543.00256  0.034542148   0.03470582            4 
 1311000    1.0362241   -6.7050007      541.787  0.034438533  0.034697135            8 
 1312000    1.0598834   -6.7094069    541.52188  0.034395445  0.034688413            5 
 1313000    1.0247064   -6.7168868    540.79823   0.03432332  0.034679594            4 
 1314000     1.044378   -6.7334398    541.50321  0.034341909  0.034670863            2 
 1315000    1.0412524   -6.6959458    542.23177  0.034361963  0.034662131            2 
 1316000    1.0414739   -6.7277641    540.33082  0.034215477  0.034653155            5 
 1317000    1.0417914   -6.7136678    540.72511  0.034214446  0.034644229            4 
 1318000    1.0335375   -6.7158317    541.89441  0.034262418  0.034635373            3 
 1319000    1.0271474   -6.6828244    545.09558   0.03443869  0.034626596            4 
 1320000    1.0190695   -6.6921013    545.53272  0.034440197  0.034617968            5 
 1321000    1.0147333   -6.7236222    545.53932  0.034414542  0.034609489            2 
 1322000    1.0530146   -6.7219142    545.16755  0.034365075  0.034600857            2 
 1323000    1.0179672   -6.7061638    542.43998  0.034167295   0.03459214            3 
 1324000    1.0443978   -6.7216738    543.06769  0.034180998  0.034583355            3 
 1325000    1.0482897   -6.6868277    544.50717  0.034245734  0.034574446            3 
 1326000    1.0331942   -6.7177018    545.54272  0.034284987  0.034565872            3 
 1327000    1.0607006   -6.7126346    546.05571  0.034291366  0.034557123            6 
 1328000    1.0257847    -6.672093    546.14435  0.034271107  0.034548481            3 
 1329000    1.0413771   -6.7415432    544.84532  0.034163865  0.034539789            3 
 1330000    1.0503549   -6.6876987    549.14675  0.034407691    0.0345311            4 
 1331000    1.0266393   -6.7170825    545.38332  0.034146213  0.034522493            3 
 1332000    1.0549813   -6.6878639    549.33632  0.034367888  0.034513875            3 
 1333000    1.0264625   -6.6834826    549.18777  0.034332819  0.034505339            2 
 1334000    1.0411918   -6.6777124     546.6402  0.034147939  0.034496789            4 
 1335000    1.0339442   -6.7112003    547.83533  0.034196962  0.034488067            4 
 1336000    1.0254077   -6.6757331     548.6771  0.034223871  0.034479288            4 
 1337000    1.0218261   -6.7016073    548.27066   0.03417294  0.034470705            5 
 1338000     1.045606   -6.7024594    548.76771  0.034178358  0.034462098            5 
 1339000    1.0489879   -6.7449829    548.82407   0.03415634  0.034453393            2 
 1340000    1.0477344   -6.6847869    549.71948  0.034186535  0.034444735            3 
 1341000    1.0207269   -6.6648442     550.9406  0.034236925  0.034435869            5 
 1342000    1.0200757   -6.7290119    549.49633   0.03412173  0.034427213            5 
 1343000    1.0640997   -6.6724537    551.06866  0.034193886  0.034418584            3 
 1344000    1.0404754   -6.7492267    551.79196  0.034213291  0.034409946            2 
 1345000    1.0591498   -6.7599115    548.30404   0.03397175  0.034401202            4 
 1346000    1.0208501   -6.7563308    548.96278  0.033987294  0.034392283            3 
 1347000    1.0430131   -6.7294561    550.48687  0.034056352  0.034383358            5 
 1348000    1.0355751   -6.7086089    550.71155  0.034044977  0.034374409            4 
 1349000    1.0587703    -6.737161    550.86263  0.034029073  0.034365618            2 
 1350000     1.024722   -6.7156065    550.62825  0.033989398  0.034357163            8 
 1351000    1.0400106   -6.6938307    551.75325  0.034033632  0.034348308            6 
 1352000    1.0389603   -6.7021988    551.32389  0.033981995  0.034339471            6 
 1353000    1.0484569   -6.7398027    551.44568   0.03396438  0.034330569            4 
 1354000    1.0251624   -6.7008076    552.66756  0.034014498  0.034321687            2 
 1355000    1.0454129   -6.7049176    553.89405  0.034064825  0.034312873            2 
 1356000    1.0299259    -6.713423    552.59223  0.033959699  0.034303942            8 
 1357000    1.0485626   -6.7110231    554.30178  0.034039657  0.034295026            5 
 1358000    1.0127235   -6.7192445    552.73972  0.033918736   0.03428611            4 
 1359000    1.0279004   -6.7120355    553.43718  0.033936545  0.034277147            9 
 1360000    1.0321941   -6.7175435    553.98511  0.033945166  0.034268167            3 
 1361000    1.0266144   -6.6979027    554.95439  0.033979573  0.034259291            3 
 1362000    1.0598961   -6.7188623     554.4322  0.033922675   0.03425043            6 
 1363000    1.0519673   -6.7396694    555.29683   0.03395065  0.034241714            5 
 1364000    1.0194756    -6.730594    556.65365  0.034008654  0.034233048            2 
 1365000    1.0421057   -6.7003823    557.32254  0.034024575  0.034224402            4 
 1366000    1.0140434   -6.6725471    557.55837  0.034014054  0.034215876            3 
 1367000    1.0382035   -6.7434025    554.51745  0.033803795  0.034207151            4 
 1368000    1.0367419   -6.6986272    557.47944  0.033959518  0.034198465            4 
 1369000    1.0197802   -6.6947885    557.66076  0.033945749  0.034189798            4 
 1370000    1.0497347   -6.7214288    558.29322  0.033959442  0.034181194            4 
 1371000    1.0362682   -6.7612669    556.84679  0.033846754  0.034172419            6 
 1372000    1.0387446   -6.7174588    556.38463  0.033794013  0.034163449            2 
 1373000    1.0350107   -6.7077903    557.16196  0.033816579   0.03415457            3 
 1374000    1.0241921   -6.7190972    559.12642  0.033911112  0.034145556            2 
 1375000     1.012889   -6.7055173    558.84861  0.033869613   0.03413657            2 
 1376000    1.0150674   -6.7144547     559.6777   0.03389521  0.034127692            3 
 1377000    1.0186355   -6.6959497    559.62696  0.033867524  0.034118775            5 
 1378000    1.0158562   -6.7259283    557.12876   0.03369187  0.034109735            3 
 1379000    1.0227918   -6.7238769    558.34126   0.03374071  0.034100735            4 
 1380000     1.028389   -6.7321949    557.54269  0.033668037  0.034091534            4 
 1381000     1.035346   -6.7265411    558.45584  0.033698759   0.03408229            2 
 1382000    1.0130114   -6.7193448    559.54712  0.033740178  0.034073129            2 
 1383000    1.0184643   -6.7108428    558.81222  0.033671501  0.034063967            3 
 1384000    1.0424472   -6.7445209    559.81972  0.033707835  0.034055068            3 
 1385000    1.0563139   -6.6913148    560.17258  0.033704728  0.034046154            2 
 1386000    1.0409617   -6.7234592    560.33751  0.033690326  0.034037179            2 
 1387000    1.0245241   -6.7411174    560.15493  0.033655067  0.034028136            7 
 1388000    1.0184482   -6.7394442    561.64393  0.033720217  0.034018911            4 
 1389000     1.037945   -6.7035958    560.24634  0.033612091  0.034009805            2 
 1390000     1.032573   -6.7229926    562.44444  0.033719691  0.034000869            2 
 1391000    1.0508285   -6.6986805    562.78933  0.033716111  0.033992027            3 
 1392000    1.0421728   -6.7192608    562.45357  0.033671789  0.033983224            3 
 1393000     1.007139   -6.7250261    563.51021  0.033710829  0.033974377            1 
 1394000    1.0154231   -6.7469715    563.06131  0.033659811  0.033965521            2 
 1395000    1.0290555   -6.7284883    563.04277  0.033634574  0.033956676            4 
 1396000    1.0280239   -6.7147344    563.70433  0.033649972  0.033947834            1 
 1397000    1.0387117    -6.699132    565.56514  0.033736885  0.033939023            2 
 1398000    1.0200103   -6.7486366    563.16193    0.0335695  0.033930193            2 
 1399000    1.0455115   -6.7458605    564.20256  0.033607491  0.033921315            4 
 1400000    1.0390688   -6.7299042     565.5471  0.033663518  0.033912559            5 
 1401000    1.0237966   -6.6903192    565.66185  0.033646315  0.033903665            2 
 1402000    1.0515377   -6.7285369     563.9583  0.033521059  0.033894858            5 
 1403000    1.0425882   -6.7408453    565.69721  0.033600452  0.033885981            2 
 1404000    1.0081065   -6.7401324     565.7758  0.033581185  0.033877219            3 
 1405000    1.0097622    -6.705727    566.99903  0.033629836  0.033868367            2 
 1406000    1.0243843    -6.694839    566.26344  0.033562318  0.033859442            8 
 1407000    1.0378151   -6.7286118    567.05455  0.033585321  0.033850642            3 
 1408000    1.0405579      -6.6858    566.75008  0.033543447  0.033841801            4 
 1409000   0.98539944   -6.7425462    566.78158  0.033521504  0.033832908            4 
 1410000    1.0243317   -6.7245514    567.29416  0.033528024  0.033824069            4 
 1411000    1.0107104   -6.6985668    567.85272   0.03353725  0.033815334            2 
 1412000    1.0137437   -6.7086306    567.60344  0.033498787  0.033806297            4 
 1413000    1.0477321   -6.7046641    568.27974  0.033514964  0.033797398            3 
 1414000    1.0129798   -6.7808865    567.51165  0.033445995   0.03378833            3 
 1415000    1.0122786   -6.7283455    567.64261  0.033430071  0.033779347            3 
 1416000    1.0340348   -6.7331461    569.25579    0.0335014  0.033770564            2 
 1417000    1.0145081    -6.746132    569.79021  0.033509187    0.0337617            3 
 1418000    1.0398765   -6.7140477    571.19204  0.033567938  0.033752864            3 
 1419000     1.010535   -6.7316942    568.66984  0.033396162  0.033744014            3 
 1420000    1.0065509   -6.7541399    567.32099  0.033293485   0.03373505            5 
 1421000    1.0384464   -6.7415944    569.86331  0.033419148  0.033726028            3 
 1422000    1.0199545   -6.7073382    569.83634  0.033394066  0.033717011            7 
 1423000    1.0181329   -6.7441132    569.23449  0.033335353  0.033707895            4 
 1424000    1.0222018     -6.71127     569.9448  0.033353511   0.03369892            2 
 1425000    1.0086382   -6.7097681    570.53431  0.033364579  0.033689964            8 
 1426000    1.0109188   -6.7597551    569.71112  0.033293076   0.03368098            7 
 1427000     1.040605   -6.6958146    572.51529  0.033433502  0.033671791            2 
 1428000    1.0199381    -6.761025    569.21673  0.033217597  0.033662588            3 
 1429000    1.0135824   -6.7459868    569.35605  0.033202475  0.033653403            3 
 1430000    1.0258339   -6.7478143    572.00137  0.033333413  0.033644362            4 
 1431000    1.0171853   -6.7288452    570.98629  0.033251007  0.033635269            3 
 1432000    1.0175464   -6.7153538    571.76155  0.033272902   0.03362616            6 
 1433000    1.0333684   -6.7398987    572.68063   0.03330313  0.033617112            5 
 1434000    1.0076337   -6.7511454    571.90337  0.033234738  0.033607989            4 
 1435000    1.0258802   -6.7347069    572.46248  0.033244046  0.033598771            4 
 1436000     1.037553   -6.7332188    572.91016  0.033246876  0.033589579            3 
 1437000     1.025172    -6.742265    573.33329  0.033248277  0.033580469            3 
 1438000    1.0408131   -6.7489125    573.94724  0.033260735  0.033571407            2 
 1439000    1.0215835     -6.73928    574.86382  0.033290701  0.033562372            4 
 1440000     1.018339   -6.7204976    573.92775  0.033213412  0.033553331            2 
 1441000    1.0181709   -6.7647611     573.7545  0.033180343  0.033544325            3 
 1442000     1.036205   -6.7551366    573.65033  0.033151313   0.03353514            4 
 1443000     1.030482   -6.7261362    573.71259  0.033131935  0.033526041            4 
 1444000    1.0221379   -6.7253412     573.7567  0.033111536  0.033516807            2 
 1445000    1.0264603   -6.7357863    574.17014  0.033112465  0.033507583            4 
 1446000    1.0070835   -6.7135723    576.13565  0.033202838  0.033498423            3 
 1447000    1.0321778   -6.7427565    575.19986     0.033126  0.033489202            2 
 1448000    1.0305506   -6.7287421    574.06431  0.033037771  0.033480059            3 
 1449000    1.0297454   -6.7216793    575.37677  0.033090451  0.033470777            2 
 1450000    1.0208609   -6.7374564    576.37532  0.033125018  0.033461516            5 
 1451000    1.0293859   -6.7597597    574.66064  0.033003712  0.033452218            3 
 1452000    1.0111772   -6.7357001    574.92884  0.032996375  0.033442825            3 
 1453000    1.0356697    -6.755215    576.25352   0.03304964  0.033433392            5 
 1454000    1.0210352    -6.748712    575.33146  0.032974063  0.033424085           11 
 1455000    1.0177761   -6.7339905    576.66851  0.033027979  0.033414855            8 
 1456000    1.0157237   -6.7202159    577.12603  0.033031481  0.033405591            2 
 1457000    1.0206271   -6.7426971    575.10355  0.032893133  0.033396365            1 
 1458000    1.0330563   -6.7248756    577.40805  0.033002289  0.033386977            2 
 1459000    1.0102572   -6.7590309    578.07858  0.033017968  0.033377542            3 
 1460000    1.0059537   -6.7346499    580.56187  0.033137093  0.033368109            3 
 1461000    1.0236358   -6.7516734    578.78153  0.033012864  0.033358827            3 
 1462000     1.000184   -6.7261286    579.20393   0.03301436  0.033349628            2 
 1463000    1.0127615    -6.719394     578.7957  0.032968541  0.033340205            3 
 1464000    1.0209766   -6.7162084    578.45092  0.032926395  0.033330728            3 
 1465000    1.0396043   -6.7249013    576.83149  0.032811803  0.033321289            2 
 1466000     1.019173   -6.7642878      576.874  0.032791837  0.033311931            6 
 1467000    1.0273493   -6.7594976    580.71131  0.032987464  0.033302423            4 
 1468000    1.0279978   -6.7158114    580.58882  0.032958039  0.033293051            2 
 1469000    1.0268468   -6.7636284    579.86144  0.032894341  0.033283802            2 
 1470000    1.0515263   -6.7714211    579.36987  0.032844097  0.033274476            5 
 1471000    1.0459227   -6.7214787    581.67167  0.032952168  0.033265162            8 
 1472000    1.0139241   -6.7704559    581.34002  0.032911007  0.033255908            4 
 1473000    1.0308018   -6.7110804    582.01345  0.032926762  0.033246706            3 
 1474000    1.0202566   -6.7443601     581.3566  0.032867289  0.033237555            8 
 1475000     1.030448   -6.7596749    581.05274  0.032827839  0.033228304            5 
 1476000    1.0121948   -6.7340923    583.17398   0.03292536  0.033219169            5 
 1477000    1.0131268   -6.7148199    582.87822  0.032886381  0.033210007            2 
 1478000    1.0073244   -6.7628262    584.93922  0.032980335   0.03320091            2 
 1479000    1.0232823    -6.763143    583.70699  0.032888607   0.03319168            5 
 1480000    1.0348093   -6.6985687    582.83876  0.032817498  0.033182461            2 
 1481000    1.0144124   -6.7195344    585.79612  0.032961744  0.033173439            3 
 1482000    1.0324389   -6.7714041    582.01185  0.032726712  0.033164502            3 
 1483000    1.0325312   -6.7554188    584.84066  0.032863602  0.033155275            2 
 1484000    1.0211927   -6.7336347    583.51171   0.03276683  0.033146083            2 
 1485000    1.0027944   -6.7383409    586.17134  0.032894014  0.033137068            3 
 1486000    1.0039014   -6.7875823     585.4219  0.032829851  0.033128103            2 
 1487000    1.0129468   -6.7185353    586.13223  0.032847581  0.033118911            4 
 1488000    1.0113546   -6.7746265    583.45122  0.032675359  0.033109775            3 
 1489000    1.0260421   -6.7509861    586.34585  0.032815416  0.033100729            3 
 1490000    1.0300273   -6.7418026    586.64487  0.032810116  0.033091812            3 
 1491000     1.005783   -6.7619544    586.02383    0.0327534   0.03308291            5 
 1492000    1.0044316   -6.7362887    589.01489  0.032898508  0.033074121            4 
 1493000     1.040406   -6.7654013    587.19177  0.032774714  0.033065221            3 
 1494000    1.0264828   -6.7159213    587.53243  0.032771778  0.033056436            3 
 1495000    1.0148704   -6.7366885    587.85035  0.032767578   0.03304764            7 
 1496000   0.99619759   -6.7624962    587.47207  0.032724603   0.03303898            4 
 1497000      1.01762   -6.7449654    588.34395  0.032751278  0.033030254            2 
 1498000    1.0039941   -6.7773913     588.9111  0.032760965  0.033021647            2 
 1499000    1.0301073   -6.7300872    589.74975  0.032785732  0.033012955            5 
 1500000   0.98726455   -6.7715175    590.32677  0.032795932  0.033004311            3 
 1501000    1.0228752   -6.7382308     590.4255  0.032779564  0.032995576            2 
 1502000    1.0200377   -6.7675741    590.04577  0.032736672  0.032986803            3 
 1503000    1.0084381   -6.7738065    588.89736  0.032651217  0.032977967            4 
 1504000    1.0162993   -6.7742127    587.68018  0.032562067  0.032968942            5 
 1505000    1.0115739   -6.7694872    591.52902  0.032753545  0.032959928            2 
 1506000    1.0141021    -6.733905      590.437   0.03267137  0.032950933            3 
 1507000    1.0232529   -6.7478263    590.26778  0.032640333  0.032941847            4 
 1508000    1.0309599    -6.765436    591.15054   0.03266747  0.032932959            3 
 1509000    1.0249782   -6.7747067    591.39983  0.032659589  0.032924111            2 
 1510000     1.014995   -6.7652744     588.9004  0.032500022  0.032915156            5 
 1511000    1.0067131   -6.7697648     589.2599   0.03249834  0.032906153            4 
 1512000   0.99986451   -6.7674498    591.29551  0.032589038  0.032897081            7 
 1513000   0.99569522   -6.8007287    590.65898   0.03253244  0.032888116            6 
 1514000    1.0291346   -6.7753353    592.20237  0.032595903  0.032879161            5 
 1515000    1.0102732   -6.7315271    593.07371  0.032622316  0.032870439            4 
 1516000    1.0182877    -6.781286    593.28175  0.032612234  0.032861729            3 
 1517000    1.0113211   -6.7747488    593.55127  0.032605541  0.032852836            3 
 1518000    1.0226379   -6.7419331    596.22001  0.032730567   0.03284421            3 
 1519000   0.97566815   -6.7591878    594.57595  0.032618825  0.032835531            6 
 1520000   0.99679069   -6.7802487    595.68741  0.032658301  0.032826928            6 
 1521000    1.0189849   -6.7221006    596.34032  0.032672601  0.032818499            2 
 1522000    1.0117993   -6.7507277     595.4956  0.032604884  0.032810102            5 
 1523000    1.0117555   -6.7270321    597.26403  0.032680238  0.032801547            2 
 1524000    1.0127339   -6.7690746    595.96686  0.032587864  0.032793061            2 
 1525000   0.99999154   -6.7469781     596.3704  0.032588546  0.032784633            5 
 1526000   0.99460834   -6.7527482     597.8504  0.032648012  0.032776151            5 
 1527000    1.0156008   -6.7688454    598.36839    0.0326549  0.032767705            3 
 1528000   0.96645052   -6.7715547    597.90877  0.032608463  0.032759325            3 
 1529000    1.0049783    -6.804295    597.85096  0.032583985  0.032750885            2 
 1530000   0.99339679   -6.7374074    597.45361  0.032541046  0.032742536            6 
 1531000    1.0089143   -6.7496099    599.04468  0.032606394   0.03273425            3 
 1532000    1.0052864   -6.7469941    596.94905  0.032471119   0.03272577            4 
 1533000    0.9966011   -6.7655722    599.58858  0.032593422  0.032717314            2 
 1534000   0.99951547   -6.7399751    601.22193  0.032660904  0.032709085            4 
 1535000   0.99629109   -6.8022603    598.90145  0.032513651  0.032700594            3 
 1536000    1.0207138   -6.7678286    599.04807  0.032500438  0.032692106            9 
 1537000   0.99549968     -6.74063    600.44568  0.032555069  0.032683756            4 
 1538000    1.0243509   -6.7636535    599.72739  0.032494982  0.032675356            6 
 1539000    1.0148842   -6.7448007    601.00259  0.032542917  0.032666995            2 
 1540000   0.98940233   -6.7294144    600.29538  0.032483516  0.032658629            3 
 1541000    1.0199422   -6.7545525    600.03613  0.032448417    0.0326504            4 
 1542000    1.0193878   -6.7681083    601.88068  0.032527058   0.03264208            4 
 1543000   0.98292915   -6.7614145    602.47818  0.032538247   0.03263381            4 
 1544000   0.96420981   -6.7795514    603.65436  0.032580654  0.032625679            3 
 1545000    0.9942887   -6.7702795    603.50642  0.032551587  0.032617579            3 
 1546000    1.0090605   -6.7837062    604.07718  0.032561297  0.032609345            4 
 1547000   0.99989434   -6.7673303    603.88589  0.032529944  0.032601195            3 
 1548000   0.98106799    -6.752968    602.21882  0.032419187  0.032592943            3 
 1549000   0.98764587   -6.7700271    605.16195  0.032556593  0.032584629            2 
 1550000   0.99336694   -6.7420198    601.99489  0.032365316  0.032576367            2 
 1551000    1.0032132   -6.7804538    605.05984  0.032509125  0.032568026            2 
 1552000    1.0080421   -6.8011313    604.16102  0.032439917  0.032559686            4 
 1553000    1.0073163   -6.7868719    603.05693  0.032359784  0.032551254            5 
 1554000   0.99126817   -6.7810338    603.28444   0.03235116  0.032542822            4 
 1555000   0.98582841   -6.7925667    603.35166  0.032333958  0.032534323            7 
 1556000   0.99012185   -6.7672705    603.04205  0.032296596  0.032525787           10 
 1557000    1.0296536   -6.7668056    604.22459  0.032339145  0.032517245            5 
 1558000    1.0269002   -6.7766019    603.80315  0.032295846  0.032508639            3 
 1559000    1.0158604   -6.7597339    604.09215  0.032290579  0.032500134            6 
 1560000   0.98575593   -6.7449001    606.34978   0.03239048   0.03249176            6 
 1561000   0.99071954   -6.7246399     606.4862  0.032377013  0.032483355            3 
 1562000    1.0046154   -6.7696938    606.25853  0.032344138  0.032474926            3 
 1563000   0.97111399   -6.8028913    606.33406  0.032327472  0.032466447            4 
 1564000    1.0229039    -6.738369    607.11554  0.032348441  0.032457918            5 
 1565000   0.99068094   -6.7383891    606.35654  0.032287355  0.032449313            3 
 1566000    1.0002591   -6.7781277    606.75994  0.032288205   0.03244082            4 
 1567000    1.0122678   -6.7540372    607.93431  0.032330053   0.03243217            5 
 1568000   0.99891425   -6.7785646    604.74287  0.032139821  0.032423557            2 
 1569000    1.0109716   -6.8003665    606.16525  0.032194883  0.032415005            4 
 1570000    1.0216312   -6.8070667    606.29423  0.032181222  0.032406369            4 
 1571000   0.98819585   -6.7868916     607.8157  0.032241444  0.032397763            1 
 1572000    1.0069621   -6.7943185    606.02563  0.032126041  0.032389094            2 
 1573000     1.006202   -6.7919408    608.55225  0.032239471  0.032380474            4 
 1574000    1.0058424   -6.7998355    607.68241  0.032172936  0.032371938            3 
 1575000   0.99375848    -6.806824    608.63854  0.032203098  0.032363284            3 
 1576000   0.99557778    -6.779157     608.1044   0.03215442  0.032354669            2 
 1577000   0.98525509   -6.7954389    607.75201  0.032115409  0.032346128            3 
 1578000   0.99339201   -6.8207539    608.75296  0.032147917  0.032337462            2 
 1579000    1.0006542   -6.8023556    608.30008  0.032103656  0.032328905            3 
 1580000   0.98952068     -6.79631    608.86388  0.032113074  0.032320363            4 
 1581000    1.0042242    -6.758239    609.70339  0.032137012  0.032311846            5 
 1582000   0.99314751   -6.7780743     610.0876  0.032136937  0.032303379            4 
 1583000   0.99681473   -6.7560902    610.56684  0.032141863   0.03229488            7 
 1584000   0.99354307   -6.7906922    611.17082  0.032153347  0.032286296            3 
 1585000    1.0172125   -6.7410058    612.17269  0.032185736  0.032277961            3 
 1586000   0.98173899   -6.8094932    611.64611  0.032137774  0.032269551            5 
 1587000   0.99678205   -6.8062512     610.1515  0.032039041  0.032261025            3 
 1588000   0.99292615    -6.799872    612.60477  0.032147606  0.032252568            6 
 1589000    1.0180311   -6.7744359    611.76889  0.032083537  0.032244179            3 
 1590000   0.99164737   -6.7621922    613.86093  0.032173005  0.032235849            4 
 1591000    1.0032682   -6.7753861    614.02051  0.032161141  0.032227544            3 
 1592000   0.99261347   -6.7598408    614.55581   0.03216896  0.032219227            4 
 1593000   0.99428129   -6.7485227    613.30465  0.032083315  0.032210997            2 
 1594000    1.0038498   -6.7760368    612.91507   0.03204282  0.032202703            5 
 1595000    1.0160273   -6.7788899      613.088  0.032031766  0.032194394            6 
 1596000    1.0123582   -6.7253425    614.90563  0.032106601  0.032186022            6 
 1597000   0.99039116   -6.7803924    614.93485  0.032088022   0.03217763            3 
 1598000   0.99050639    -6.821106     613.8088   0.03200922  0.032169275            6 
 1599000   0.98815125   -6.8054584    612.60945  0.031926697  0.032160878            5 
 1600000   0.98980132   -6.7834141    614.73479  0.032017437  0.032152339            3 
 1601000    1.0016352   -6.7950788    614.38833  0.031979405  0.032143932            2 
 1602000   0.99571169   -6.7856513    617.81773  0.032137834  0.032135517            4 
 1603000   0.99122554   -6.7884931    616.66963  0.032058101  0.032127228            4 
 1604000   0.99932887   -6.7951782    616.07161  0.032007045  0.032118878            7 
 1605000    1.0024295   -6.8063112    616.58245  0.032013627  0.032110534            6 
 1606000   0.99327672   -6.7659724     616.2499  0.031976437   0.03210216            2 
 1607000   0.98845422   -6.7839088    617.23113  0.032007422  0.032093785            2 
 1608000    1.0003088   -6.7971851    615.26176  0.031885456  0.032085425            4 
 1609000    1.0089445   -6.7900956    617.78823   0.03199649  0.032077093           12 
 1610000   0.98425247   -6.7718712    616.40979  0.031905269  0.032068732            3 
 1611000    0.9888786   -6.8116532    617.00513   0.03191626  0.032060366            6 
 1612000   0.97898755   -6.7849248    617.87595  0.031941478  0.032052051            3 
 1613000   0.97126472   -6.7530731    617.93387  0.031924668  0.032043729            3 
 1614000   0.99809461   -6.7928661    617.37262   0.03187591  0.032035289            3 
 1615000   0.99406867   -6.7850848    618.71424  0.031925399  0.032026873            5 
 1616000   0.99230515   -6.8123378     619.0275  0.031921798  0.032018583            2 
 1617000    1.0032866   -6.8149762    618.71102  0.031885746  0.032010259            4 
 1618000   0.98749475   -6.7940174    620.52165  0.031959294  0.032001962            7 
 1619000    1.0019286   -6.7927297     619.9235  0.031908766  0.031993886            6 
 1620000   0.98974118   -6.8178559    620.48444  0.031917924  0.031985702            4 
 1621000   0.98960274   -6.7965085    618.12319  0.031776845  0.031977409            5 
 1622000    1.0235889   -6.8079102    621.13246  0.031911861  0.031969206            2 
 1623000    0.9965752   -6.7766133    622.04911  0.031939264  0.031960951            2 
 1624000    1.0148667   -6.8168555    621.41979  0.031887305  0.031952759            3 
 1625000    1.0211683   -6.7977715    622.40268  0.031918086  0.031944555            7 
 1626000    0.9938484    -6.816677    621.35593   0.03184481  0.031936567            4 
 1627000   0.98398199   -6.8028099     622.2366  0.031870344  0.031928475            3 
 1628000   0.98287127    -6.792264    623.50161  0.031915521  0.031920354            4 
 1629000    1.0121587   -6.8245772    622.67132  0.031853454  0.031912144            3 
 1630000   0.99433463   -6.7916472     621.8607  0.031792469  0.031903826            4 
 1631000    0.9961955   -6.7906829     622.0996  0.031785183  0.031895522            3 
 1632000   0.97314877   -6.7881271    624.02263  0.031863901   0.03188742            4 
 1633000     1.009912   -6.8071624    623.86117  0.031836149  0.031879315            4 
 1634000   0.99006866   -6.7937414    623.81941  0.031814536  0.031871162            3 
 1635000   0.99810707   -6.8077078    625.02397  0.031856472  0.031862985            5 
 1636000   0.97911997   -6.8042193    623.47876   0.03175829  0.031854868           10 
 1637000   0.96826307    -6.802623    624.42806  0.031787215  0.031846784            2 
 1638000   0.99195009   -6.7936734    624.30375  0.031761485  0.031838625            4 
 1639000   0.97316127   -6.8541913    622.85961   0.03166868  0.031830379            3 
 1640000   0.99558308   -6.8076536    624.42735  0.031729032  0.031822185            6 
 1641000   0.99978634   -6.8351664     624.8606  0.031731698  0.031814167            3 
 1642000   0.98404843   -6.8311857    625.17289  0.031728222  0.031805957            7 
 1643000   0.99363862   -6.7843653    625.74925  0.031738144  0.031797791            3 
 1644000     1.010725   -6.8077365    627.50277  0.031807724  0.031789733            5 
 1645000    1.0241739   -6.7815871    626.05695  0.031715144  0.031781707            5 
 1646000   0.99748717   -6.8261371    625.48974   0.03166716  0.031773685            3 
 1647000   0.99928516   -6.8086297    628.01154  0.031775528  0.031765661            2 
 1648000   0.99909931   -6.7851821    628.18252  0.031764893  0.031757757            4 
 1649000   0.99000685   -6.8210984    626.17756  0.031644307  0.031749787            3 
 1650000    1.0234799   -6.8125999    628.18869  0.031726702  0.031741691            4 
 1651000   0.99597035   -6.8067426    628.13834  0.031704944  0.031733703            5 
 1652000   0.96549012   -6.7658339    628.76934  0.031717582  0.031725773            3 
 1653000    1.0152787   -6.7806221    631.21061  0.031821467  0.031717938            2 
 1654000   0.97961136   -6.8033452     629.3458  0.031708273  0.031709989            4 
 1655000   0.99285802   -6.7770731    629.01641  0.031672528  0.031702156            4 
 1656000   0.96296375   -6.7879729    630.50769  0.031728446  0.031694328            5 
 1657000    1.0151303   -6.8009129    630.56426  0.031712144  0.031686475            4 
 1658000   0.99252131   -6.8208376    630.37697  0.031683603   0.03167856            3 
 1659000   0.98697155   -6.7997069    631.46136  0.031718975  0.031670681            4 
 1660000   0.97653096   -6.7862203    629.72862  0.031612882  0.031662852            7 
 1661000   0.97057347   -6.8161315    631.73905  0.031694714  0.031655073            3 
 1662000   0.99578764   -6.7821423     633.9874  0.031788378  0.031647513            3 
 1663000   0.99609644   -6.8098586    631.77602   0.03165845  0.031639934            4 
 1664000   0.97990106   -6.8135088    631.32645   0.03161691  0.031632255            3 
 1665000   0.99367215   -6.7497287    633.34441  0.031698919   0.03162455            2 
 1666000   0.99065313   -6.8054128    633.13084   0.03166921  0.031616839            3 
 1667000   0.98784684   -6.8156671    634.34348  0.031710832  0.031609085            4 
 1668000    1.0004021    -6.823059    632.89621  0.031619515  0.031601274            2 
 1669000   0.99113993   -6.7919756    634.65931  0.031688602  0.031593515            7 
 1670000   0.95709018   -6.7933462     633.6198  0.031617754  0.031585745            2 
 1671000   0.98675637   -6.8026596    635.07263  0.031671286  0.031577959            5 
 1672000   0.98105379   -6.8082952    634.73243  0.031635388  0.031570212            5 
 1673000    1.0118425   -6.8090079    632.18713  0.031489695  0.031562409            3 
 1674000   0.97424701   -6.8195463    632.45049  0.031483995  0.031554648            3 
 1675000   0.97282878   -6.7887908     635.5811   0.03162095  0.031546927            2 
 1676000   0.98224522   -6.8269119    635.26812  0.031586522  0.031539169            5 
 1677000   0.97141823   -6.8241591    634.33408  0.031521272  0.031531312            4 
 1678000   0.97324291   -6.8124445    633.94772  0.031483299  0.031523367            3 
 1679000   0.96000125    -6.875361    634.27995  0.031481038  0.031515406            9 
 1680000     1.002874   -6.8554001    635.37467  0.031516601   0.03150736            4 
 1681000   0.96712199   -6.7797722    637.37541  0.031597036  0.031499414            3 
 1682000    0.9870117   -6.7825303    635.65864  0.031493195  0.031491566            4 
 1683000    1.0031042   -6.8239178    636.80362  0.031531175  0.031483661            7 
 1684000    0.9849626   -6.8075084    636.90675  0.031517555  0.031475853            5 
 1685000   0.99311815   -6.7997144    635.72101  0.031440208  0.031468077            4 
 1686000    0.9772524   -6.8191183    638.31375  0.031549711  0.031460439            7 
 1687000   0.96527541   -6.8169555    636.73338  0.031452943  0.031452708            7 
 1688000   0.97085902    -6.787088    639.52617  0.031572184  0.031445013            3 
 1689000   0.98573282   -6.8100373    638.38336  0.031497107  0.031437266            6 
 1690000   0.97986906     -6.82906     637.4801   0.03143393  0.031429423            4 
 1691000   0.98085888   -6.8084894    638.51195  0.031466191  0.031421586            4 
 1692000   0.99088756   -6.8115629    638.77926  0.031460759   0.03141376            5 
 1693000   0.98075044   -6.8148546    637.86517  0.031397183  0.031405998            5 
 1694000   0.97858339    -6.819676    638.14098  0.031392217  0.031398273            3 
 1695000   0.97190013   -6.8114886    639.29794  0.031430577  0.031390513            6 
 1696000   0.98684405   -6.8422334     636.9819  0.031298246  0.031382658            4 
 1697000   0.97665104   -6.8164385    638.42702  0.031350767  0.031374861            4 
 1698000   0.98254834   -6.8074557     638.7347  0.031347404  0.031366977            7 
 1699000   0.97040913   -6.8230678    640.48755  0.031414928  0.031359033            2 
 1700000   0.96425722   -6.8403078    638.66923  0.031307315  0.031351087            3 
 1701000   0.97982087   -6.8211825    640.89043  0.031397728  0.031343142            3 
 1702000   0.98450262   -6.8309246    640.07252  0.031339234  0.031335227            3 
 1703000   0.96932784   -6.8149823    639.82376  0.031308659  0.031327388           11 
 1704000   0.96200749   -6.7804238    641.64114  0.031379164  0.031319527            2 
 1705000   0.98657637   -6.8212421    640.55951  0.031307894  0.031311526            2 
 1706000   0.96964527   -6.8126864    641.27499  0.031324491  0.031303573            6 
 1707000   0.99538169   -6.8389047    639.73671  0.031231044  0.031295585            3 
 1708000   0.96253637   -6.7948379    642.97671  0.031370838  0.031287577            3 
 1709000    1.0038817    -6.827795    641.30363  0.031270901  0.031279811            3 
 1710000   0.97033625   -6.8082936    642.36423    0.0313043  0.031272002            3 
 1711000   0.98254008   -6.7989834    641.86727    0.0312618   0.03126414            3 
 1712000   0.99151396   -6.8337375    643.77318  0.031336311  0.031256267            3 
 1713000   0.98418582   -6.8159212    642.16185  0.031239631  0.031248388            3 
 1714000   0.97638561   -6.8284406    644.89196   0.03135414  0.031240617            6 
 1715000   0.98451448   -6.8148487    643.13681  0.031250574  0.031232796            4 
 1716000    0.9759769   -6.8482279    641.69817  0.031162499  0.031224827            3 
 1717000   0.96103204   -6.8270033    642.51323  0.031183907  0.031216924            5 
 1718000    0.9714456    -6.817434    643.54969  0.031216031  0.031209008            2 
 1719000   0.95506031   -6.8379621    643.86835  0.031213319  0.031201032            3 
 1720000   0.97620784   -6.8044617    642.68941  0.031138053  0.031193018            3 
 1721000   0.95769364   -6.7769739    644.70816   0.03121771  0.031184985            4 
 1722000   0.98629382   -6.8457639    643.79993   0.03115563   0.03117702            6 
 1723000   0.99967098   -6.8208188    643.76175  0.031135701  0.031169032            2 
 1724000   0.97651131   -6.8713982      643.439   0.03110204  0.031161058            5 
 1725000   0.97311436   -6.8060603    644.29796  0.031125505  0.031153084            5 
 1726000   0.95493926   -6.8655604    644.80644  0.031132022  0.031145134            3 
 1727000   0.99608683   -6.8375789     644.8133  0.031114327  0.031137201            3 
 1728000   0.98308674   -6.8156698    647.07788  0.031205531  0.031129293            3 
 1729000    0.9687286   -6.8385468    644.57542   0.03106687  0.031121499            2 
 1730000   0.99121712   -6.8406763    645.50412  0.031093647   0.03111351            4 
 1731000   0.99634136   -6.8068001    648.05178  0.031198333  0.031105587           15 
 1732000   0.97509817   -6.8190726     645.7187  0.031068067  0.031097629            2 
 1733000   0.97673983   -6.8358001    646.48515  0.031086995  0.031089638            4 
 1734000   0.97300213    -6.808405    645.96378  0.031044011  0.031081746            7 
 1735000   0.96565319   -6.7837556    647.75809    0.0311123  0.031073853            8 
 1736000   0.96471888   -6.8360264    646.28255  0.031023548  0.031065907            4 
 1737000   0.96202049   -6.8341591    647.33874  0.031056359  0.031057949            3 
 1738000   0.97421141   -6.8447599    646.14343  0.030981177  0.031049948            5 
 1739000   0.96624448   -6.8512011    648.72055  0.031086858  0.031041997            4 
 1740000   0.96651222   -6.8435893    648.90641  0.031077893  0.031034051            4 
 1741000    0.9689539   -6.8389628    648.95272  0.031062259  0.031026096            7 
 1742000   0.96489919   -6.8063419    648.29439  0.031012935  0.031018068            4 
 1743000   0.99485088   -6.8541082    647.39456  0.030952121  0.031010121            4 
 1744000   0.97827154   -6.8334404    648.36328  0.030980661  0.031002092            3 
 1745000   0.97986533   -6.8517586    649.41601  0.031013181  0.030994156           13 
 1746000   0.96608818   -6.8475799     648.0798  0.030931644  0.030986215            2 
 1747000    0.9478913   -6.8296022    649.05635   0.03096052  0.030978282            4 
 1748000   0.96279978   -6.8205604    649.75713  0.030976217  0.030970406            3 
 1749000   0.97516811   -6.8166636    650.52313  0.030995003  0.030962531            4 
 1750000   0.97420581   -6.8314313    649.13305  0.030911098  0.030954641            8 
 1751000   0.97488632   -6.8352107    650.41154   0.03095429  0.030946747            4 
 1752000   0.96057723   -6.8472963    649.61988  0.030898967  0.030938752            7 
 1753000   0.96701261   -6.8750774    649.75127  0.030887587  0.030930714            5 
 1754000    0.9887418   -6.8517883    650.29383  0.030895754  0.030922682            6 
 1755000   0.97691485   -6.8425755    651.66962  0.030943477  0.030914651            5 
 1756000   0.97278513   -6.8374419    650.58896  0.030874571  0.030906593            2 
 1757000   0.99361204   -6.8567747    650.77965  0.030866043  0.030898547            6 
 1758000   0.96413065   -6.8520041    651.28231  0.030872313  0.030890486            4 
 1759000   0.97386121   -6.8336555    651.21967  0.030851794  0.030882423            5 
 1760000   0.96726195   -6.8178504    651.75838  0.030859772  0.030874421            3 
 1761000   0.97684148   -6.8253148    652.60327  0.030882229  0.030866358            3 
 1762000   0.96644191   -6.8572202    649.59873  0.030722603  0.030858098            3 
 1763000   0.96353607   -6.8704471    651.07589     0.030775  0.030849881            4 
 1764000   0.99157602   -6.8450504    651.75966  0.030789855  0.030841857            7 
 1765000   0.99203915   -6.8577095    654.30633   0.03089265  0.030833804            2 
 1766000   0.97618113   -6.8300383    654.83855  0.030900271  0.030825817            4 
 1767000   0.96713054   -6.8276146    652.34884  0.030765367   0.03081775            3 
 1768000   0.98571788   -6.8332279     651.9161  0.030727569  0.030809611            4 
 1769000   0.95962645   -6.8194859    651.05536  0.030669652  0.030801504            5 
 1770000   0.98280606   -6.8535687    652.45472  0.030718207  0.030793366            2 
 1771000   0.96776368   -6.8666978    651.35358  0.030649048  0.030785226            4 
 1772000   0.96284835   -6.8429849    650.56061   0.03059446  0.030777041            3 
 1773000   0.94671531    -6.829765    653.72234   0.03072581   0.03076885            3 
 1774000   0.96931865   -6.8841592    653.12341  0.030680356  0.030760647            5 
 1775000   0.99812099   -6.8285939    654.84345  0.030743824  0.030752468            8 
 1776000   0.94467217     -6.85341    654.51563  0.030711131  0.030744377            6 
 1777000   0.95702825   -6.8627945    653.75962  0.030658395   0.03073624            7 
 1778000   0.98629302   -6.8647697    654.36602  0.030669573  0.030728149            8 
 1779000   0.94842009   -6.8220562    657.18258  0.030784269  0.030720036            6 
 1780000   0.96073064   -6.8203581    657.85026  0.030798233  0.030712043            6 
 1781000   0.98591662   -6.8300944    656.24282  0.030705728  0.030704107            5 
 1782000   0.98048231   -6.8081557    655.58395  0.030657686  0.030696098            3 
 1783000   0.96595563   -6.8262118    657.23362  0.030717593  0.030688059            4 
 1784000   0.94722496   -6.8329007    655.82178  0.030634426  0.030679991           13 
 1785000   0.96454887   -6.8464792    654.87507  0.030573066  0.030671879            2 
 1786000   0.94706936   -6.8999287    652.50273  0.030445256   0.03066369            6 
 1787000   0.96720936   -6.8291404    657.27196  0.030650623  0.030655422            4 
 1788000   0.96298492   -6.8621623    654.75059  0.030515967  0.030647289            3 
 1789000   0.95517605   -6.8514995    656.47204  0.030579096  0.030639121            4 
 1790000   0.98210938   -6.8207649    657.95357  0.030630985  0.030630987            3 
 1791000   0.97524526   -6.8297472    657.33304   0.03058501  0.030622836            2 
 1792000   0.96289352   -6.8753713    656.65736  0.030536521  0.030614637            7 
 1793000   0.97538162   -6.8381092    656.90118  0.030530823  0.030606397            4 
 1794000   0.98789457   -6.8198091     658.7825  0.030601194  0.030598209            3 
 1795000   0.95376325   -6.8371381    659.40988  0.030613272  0.030590028            3 
 1796000   0.96628671   -6.8489843    657.99973  0.030530797  0.030581836            6 
 1797000   0.96659938   -6.8547487    657.99499  0.030513587  0.030573615            6 
 1798000    0.9801101   -6.8746156    657.21092  0.030460276  0.030565363            9 
 1799000   0.95262592   -6.8675873     658.2944  0.030493533   0.03055724            4 
 1800000   0.96855324   -6.8581723    658.54425   0.03048816  0.030549034            7 
 1801000   0.98217913   -6.8725062    657.79489  0.030436558  0.030540924            3 
 1802000   0.97084811   -6.8128026    659.73827  0.030509539  0.030532783            6 
 1803000   0.96916132   -6.8654363    658.54911  0.030437655  0.030524537            6 
 1804000   0.94174414   -6.8635176    658.66827  0.030426287  0.030516228            7 
 1805000    0.9653751   -6.8570299    658.12481   0.03038434  0.030508109            3 
 1806000   0.95777119   -6.8516733    658.95297  0.030405729  0.030499906            2 
 1807000   0.95885552   -6.8653842     660.2966  0.030450867  0.030491661            8 
 1808000   0.96136877   -6.8692384    659.69746   0.03040641  0.030483432            2 
 1809000   0.95944402   -6.8511378    660.32062  0.030418307  0.030475206            8 
 1810000   0.98195564   -6.8623857    659.77911  0.030376571  0.030467002            3 
 1811000   0.94402048   -6.8793417    660.39627  0.030388196   0.03045894            3 
 1812000   0.95248441   -6.8515742    660.68101   0.03038452  0.030450781            5 
 1813000   0.95528559   -6.8679277     660.0586  0.030339152  0.030442701            4 
 1814000   0.96320043   -6.8492024    660.51277  0.030343291  0.030434674            5 
 1815000   0.95808197   -6.8550906    663.43492   0.03046074  0.030426693           12 
 1816000    0.9671403   -6.8210549    662.88295  0.030418638  0.030418771            7 
 1817000   0.94761579   -6.8353831    663.12436  0.030412968  0.030410788            3 
 1818000   0.94476368   -6.8215718     664.5347  0.030460887  0.030402796            3 
 1819000   0.95175071   -6.8577736     664.5424  0.030444493  0.030394791            7 
 1820000   0.95919499   -6.8753779    662.90698  0.030352884  0.030386752            6 
 1821000    0.9652921   -6.8667165    663.11621   0.03034579   0.03037867            4 
 1822000   0.94703868   -6.8246725    665.36909  0.030432176  0.030370693            3 
 1823000    0.9790371   -6.8518388    664.10069  0.030357501  0.030362763            3 
 1824000   0.96312823   -6.8846966    665.43326  0.030401739  0.030354841            3 
 1825000   0.96754161   -6.8981199    664.52241  0.030343489  0.030346954            4 
 1826000   0.96156244   -6.8805198    665.33439  0.030363928  0.030339026            6 
 1827000   0.95797598   -6.8884041    663.81197  0.030277868  0.030331072            2 
 1828000   0.96192988   -6.8638965    665.98135    0.0303602  0.030323192            5 
 1829000   0.94631717   -6.8695846    667.11389  0.030395202  0.030315342            5 
 1830000   0.95631805   -6.8734046    667.14987  0.030380231  0.030307515            3 
 1831000   0.96045889    -6.850563    666.31628    0.0303257   0.03029967            2 
 1832000   0.95420076   -6.9194527    665.31656  0.030263672  0.030291658           11 
 1833000   0.97743963   -6.8866075    665.06129  0.030235556  0.030283616            6 
 1834000   0.96014624   -6.8585881    667.80255  0.030343627  0.030275686            4 
 1835000   0.93927274   -6.8661057     668.2483  0.030347334  0.030267888            4 
 1836000   0.95080576   -6.8444744    669.49198  0.030387254  0.030260201            6 
 1837000   0.95148692   -6.8677857    666.78047  0.030247708  0.030252454            4 
 1838000   0.95188114   -6.8614759     667.6127  0.030268983  0.030244691            2 
 1839000   0.96138348   -6.8280678    669.34855  0.030331183  0.030236871            3 
 1840000   0.95024455   -6.8629057     667.2348  0.030218967  0.030229012            6 
 1841000   0.97744818   -6.8667618    667.78113  0.030227283  0.030221195            4 
 1842000   0.95753538   -6.8852928    669.70229  0.030297787  0.030213369            5 
 1843000   0.95401193   -6.8692823    669.69937  0.030281216  0.030205524            3 
 1844000   0.97610909    -6.840926    670.53042  0.030302351  0.030197704            3 
 1845000   0.96369715   -6.8780326    670.83114  0.030299509  0.030189979            3 
 1846000   0.95031107   -6.8492551    669.74006  0.030233842  0.030182218            3 
 1847000   0.97415461   -6.8903656    669.83838  0.030221908  0.030174447            2 
 1848000   0.92928213   -6.8689249    671.16269  0.030265273  0.030166713            4 
 1849000   0.94310375   -6.8546201    670.00767  0.030196848  0.030158895            4 
 1850000   0.96599224    -6.871798    670.41397  0.030198827  0.030151098            4 
 1851000   0.97841308     -6.90612     672.1088  0.030258815  0.030143162           13 
 1852000   0.92952445   -6.8448843    672.61569  0.030265285  0.030135396            5 
 1853000   0.95744773   -6.8650729    670.15754  0.030138403  0.030127664            3 
 1854000   0.91656104   -6.8732529    671.14713  0.030166627  0.030119817            2 
 1855000   0.97233115   -6.8696812    671.72637  0.030176387  0.030111868            3 
 1856000   0.96155033   -6.8887262    669.28143  0.030050351  0.030103928            8 
 1857000   0.96216131   -6.8900611    670.05986  0.030069102  0.030096034            5 
 1858000   0.95040571   -6.8717774    669.14566  0.030011915  0.030088115            4 
 1859000    0.9285028   -6.8649052    672.11465  0.030128862  0.030080186            3 
 1860000   0.96003479   -6.8830238    669.79528  0.030008749  0.030072217            4 
 1861000    0.9273436   -6.8992696    670.90193  0.030042179  0.030064277           15 
 1862000   0.94670476   -6.8739015    671.74828  0.030063922  0.030056357           11 
 1863000   0.96528205   -6.8745007    672.52436  0.030082499  0.030048347            7 
 1864000   0.95211928   -6.8876917    670.60302  0.029980464  0.030040382            6 
 1865000   0.94400658   -6.8502057    672.60102  0.030053665  0.030032435            2 
 1866000   0.94505021   -6.8447407    670.57191  0.029946941  0.030024398            5 
 1867000   0.92835918   -6.8631793     670.4821  0.029926892  0.030016386            2 
 1868000   0.97621605   -6.8849225    671.94147  0.029975976  0.030008507            6 
 1869000     0.946096   -6.8589442    674.73868  0.030084657  0.030000609            5 
 1870000   0.94564996   -6.8740375    673.52804  0.030014618  0.029992737            4 
 1871000   0.95073892   -6.8773617    672.91197  0.029971137  0.029984877            3 
 1872000   0.95931274   -6.8718927    674.61231  0.030030818  0.029977041            9 
 1873000   0.96377005   -6.8516683    674.20266  0.029996559  0.029969185            3 
 1874000   0.95851816   -6.8980865    674.16968  0.029979086  0.029961436            5 
 1875000   0.95631572   -6.8834378    675.14495  0.030006442  0.029953611            4 
 1876000    0.9518317   -6.8904079    675.06961  0.029987101  0.029945794            4 
 1877000   0.97092965   -6.8704989    676.56355  0.030037451  0.029938004            3 
 1878000   0.94431845   -6.8752437    676.15129  0.030003163  0.029930236            4 
 1879000   0.94909837   -6.9171672    676.22706  0.029990556  0.029922499            2 
 1880000    0.9474177   -6.8803496    675.38753   0.02993739  0.029914775            5 
 1881000   0.94394145   -6.8835024    675.58004  0.029930003  0.029906936            8 
 1882000   0.94002501     -6.87797     676.0127  0.029933258  0.029899106            5 
 1883000   0.96438249   -6.8614567    676.19186   0.02992529  0.029891292            2 
 1884000   0.94266589   -6.8977516    677.85799  0.029983103  0.029883482            3 
 1885000   0.94405378   -6.8937981    676.10338  0.029889628  0.029875592            3 
 1886000   0.94713982   -6.9186553    677.18453   0.02992155   0.02986769            6 
 1887000   0.94162557   -6.8782586    677.07407  0.029900816  0.029859699            4 
 1888000   0.94903174   -6.8970424    677.19603  0.029890361  0.029851767            6 
 1889000   0.95096138   -6.8898185    677.98008  0.029909127  0.029843907            6 
 1890000   0.91995041   -6.8831801    677.26094  0.029861593  0.029835963            5 
 1891000    0.9303746   -6.9042132    677.62329   0.02986177  0.029828058            9 
 1892000   0.93311441   -6.8777167    677.86057  0.029856438  0.029820136            9 
 1893000   0.94259434   -6.8800984    677.10958  0.029807606  0.029812259            4 
 1894000   0.95554213   -6.8732447    677.17816  0.029794886  0.029804421            3 
 1895000   0.95773728   -6.8724163    678.75488    0.0298485  0.029796575            5 
 1896000   0.93714745   -6.8696138    679.58403  0.029869199  0.029788703            6 
 1897000   0.95100523   -6.8806786    677.11687  0.029745074  0.029780926            5 
 1898000    0.9514477   -6.8764676    679.15277   0.02981879  0.029773093            4 
 1899000   0.96179881   -6.8870708     678.9209  0.029792913  0.029765278            3 
 1900000   0.93273474   -6.8784998    681.09545  0.029872608  0.029757465            4 
 1901000   0.95700589   -6.8697851    681.49269  0.029874307  0.029749698            7 
 1902000   0.94720277   -6.8752773    681.55425  0.029861297  0.029741969            4 
 1903000   0.96231226   -6.8905265    679.47853  0.029754709  0.029734143            7 
 1904000   0.92673798   -6.8504051    679.69756  0.029748668  0.029726315            6 
 1905000   0.95345071   -6.9025898    681.96446  0.029832216  0.029718541            3 
 1906000   0.95587531   -6.9021253    680.83729  0.029767283  0.029710725            3 
 1907000   0.94805435   -6.8749014    680.86461  0.029752867  0.029702903            5 
 1908000   0.95001165   -6.8709387    679.74281  0.029688278  0.029695123            6 
 1909000    0.9351288   -6.9179928    678.83738  0.029633202  0.029687133            7 
 1910000   0.96058627   -6.8967293    679.18944  0.029633047  0.029679141            4 
 1911000   0.94372167   -6.8877172    680.88795  0.029691608  0.029671098            6 
 1912000   0.95166269   -6.9017354    679.50852  0.029615957  0.029663149           10 
 1913000   0.94886535   -6.9111615    680.16426  0.029629041  0.029655257            4 
 1914000   0.93911801   -6.9286128    681.40309  0.029667498   0.02964735            7 
 1915000   0.95684419   -6.8984464    682.43047  0.029696713  0.029639529            4 
 1916000   0.94710055   -6.8871691    682.46529  0.029682728  0.029631684            4 
 1917000    0.9438398   -6.8872426    683.33048  0.029704855  0.029623913            4 
 1918000   0.93205206   -6.8867442    683.29742  0.029687931  0.029616188            3 
 1919000   0.94307061   -6.8956128     683.7193  0.029690781  0.029608484            4 
 1920000   0.94302373   -6.8836317    684.10158  0.029691909  0.029600769            3 
 1921000   0.94191696   -6.9350163    682.86506  0.029622812  0.029592922            6 
 1922000   0.94361673   -6.9235144    683.41235  0.029631128  0.029585006            5 
 1923000   0.92387574   -6.8941729    682.78212  0.029588409  0.029577168           10 
 1924000   0.92134015   -6.9239663    681.99212  0.029538813  0.029569404            7 
 1925000   0.96263966   -6.8891538    684.13267  0.029616133  0.029561581            5 
 1926000   0.94388128   -6.8842306    684.64321  0.029622846  0.029553816            5 
 1927000   0.94589367   -6.8923946    684.58798  0.029605085  0.029546114            3 
 1928000   0.95791279   -6.9236943    684.08137  0.029567832  0.029538367           10 
 1929000   0.95856257   -6.9233121    684.54127  0.029572372  0.029530589            4 
 1930000   0.93451815   -6.8978361    685.93312  0.029617147  0.029522859            7 
 1931000    0.9500354   -6.8954964    685.88376  0.029599679  0.029515175            8 
 1932000   0.94107783     -6.91591    684.12049  0.029508303  0.029507377            3 
 1933000   0.93471601   -6.9157332    685.46654  0.029551066  0.029499621            3 
 1934000   0.95484773   -6.8721487    685.92656  0.029555608  0.029491866            3 
 1935000   0.93736606    -6.897548    685.83197   0.02953626  0.029484066            2 
 1936000   0.92112534    -6.901191    684.81002  0.029477015  0.029476289            9 
 1937000   0.95656409   -6.8826248    686.27309  0.029524742  0.029468444            4 
 1938000   0.93436815   -6.9061873    686.13731  0.029503668  0.029460617            7 
 1939000   0.95424879   -6.9035623    684.67222  0.029425486  0.029452849            2 
 1940000   0.95871102   -6.8804139    687.12109  0.029515511  0.029445094            2 
 1941000   0.94642107   -6.9140101    686.09883  0.029456415  0.029437367            6 
 1942000   0.94455689   -6.8825497    687.52547  0.029502466  0.029429641            3 
 1943000   0.93834359   -6.8876624    687.64044  0.029492213  0.029421935            4 
 1944000   0.93392703   -6.9053757    685.31134  0.029377201  0.029414188            4 
 1945000   0.93993939   -6.9143262    685.48437   0.02936951  0.029406331            7 
 1946000   0.95481629   -6.9345813    686.38365  0.029392928  0.029398525            4 
 1947000   0.95337846   -6.8975481     688.4982  0.029468336  0.029390684            4 
 1948000    0.9427367   -6.8961603    687.21398  0.029398271  0.029382825            2 
 1949000   0.96302461    -6.901808    688.79774  0.029450904  0.029374982            3 
 1950000   0.94833828   -6.8710319    689.37783  0.029460591  0.029367203            5 
 1951000   0.96637142    -6.888549    689.13468  0.029435105  0.029359492            4 
 1952000   0.93777703   -6.9297707    689.12678  0.029419688  0.029351667            3 
 1953000   0.95675102   -6.9178645    687.29309  0.029326382  0.029343799            6 
 1954000   0.94617327   -6.9352646    689.29919  0.029396929  0.029335965            7 
 1955000    0.9349738   -6.9014258    689.48749  0.029389919  0.029328096            2 
 1956000   0.94219347   -6.9076968    686.71654   0.02925684  0.029320182            3 
 1957000   0.96113313   -6.9016364     689.4381   0.02935778  0.029312329            5 
 1958000   0.95281426   -6.9263807    686.83611  0.029232044  0.029304462            5 
 1959000   0.95769767   -6.9201309    688.00784  0.029266966  0.029296508            2 
 1960000   0.94649511   -6.8884515    689.87954  0.029331613  0.029288728            2 
 1961000   0.95295049   -6.8827117    690.78319  0.029355056  0.029280956            6 
 1962000   0.92383466   -6.9011529    692.14276  0.029397841  0.029273271            6 
 1963000   0.93465336   -6.8783613    691.16203  0.029341231  0.029265565            4 
 1964000   0.94066482   -6.8798771    691.66492  0.029347629  0.029257781            4 
 1965000   0.92947963   -6.9027098    693.21011  0.029398223  0.029250061            4 
 1966000    0.9487438   -6.9001917    691.11444   0.02929444  0.029242362            6 
 1967000   0.94298266   -6.8917405    691.92192  0.029313757   0.02923468            5 
 1968000   0.92046035   -6.8995863    692.49504   0.02932313  0.029227011            5 
 1969000   0.94873027   -6.9655682      692.701  0.029316955  0.029219387            3 
 1970000    0.9256411   -6.8916893      692.151  0.029278807  0.029211741            6 
 1971000   0.94767078   -6.9143844      694.602   0.02936758  0.029204073            5 
 1972000   0.95044902   -6.9136251    692.03013  0.029244005  0.029196382            4 
 1973000   0.94536959   -6.9178713     691.7457  0.029217169  0.029188707            5 
 1974000   0.96358796   -6.9359442    692.21277  0.029222086  0.029180985            5 
 1975000   0.93818735   -6.9318391    695.53021  0.029347266  0.029173349            3 
 1976000   0.93674496   -6.8965495    694.89396  0.029305582   0.02916564            5 
 1977000   0.90753825   -6.8992461    695.09723  0.029299327  0.029157981            2 
 1978000   0.94013713   -6.9294347    694.71509  0.029268415   0.02915029            4 
 1979000   0.93313435   -6.9121594    694.73656  0.029254529  0.029142593            8 
 1980000   0.95090527   -6.9495782    692.57047  0.029148589  0.029134834            2 
 1981000   0.92844795   -6.9144757    695.01857  0.029236857  0.029127132            5 
 1982000   0.92765926   -6.9202873    694.96223  0.029219737  0.029119465            4 
 1983000   0.92931428   -6.9283834     695.2307  0.029216284  0.029111819           10 
 1984000   0.93907927   -6.9000341    694.46146  0.029169248  0.029104161            7 
 1985000   0.95858913   -6.9190034    695.46339  0.029196616    0.0290966            8 
 1986000   0.92807009   -6.9016145    696.00631  0.029204696  0.029089028            6 
 1987000   0.94857856   -6.9178137    695.22971  0.029157428  0.029081454            7 
 1988000   0.92940323   -6.9156561    695.12125  0.029138214  0.029073906            5 
 1989000    0.9282253    -6.922899    695.04611  0.029120417   0.02906631            5 
 1990000   0.94403842   -6.8865448    698.91992  0.029268003  0.029058672            2 
 1991000   0.93799326   -6.8906184    697.07808  0.029176213  0.029051115           15 
 1992000   0.91713355   -6.9082863    697.77302  0.029190638  0.029043453            4 
 1993000   0.92298576   -6.9065302    696.71744  0.029131855  0.029035757            3 
 1994000   0.95493753   -6.9067142    697.59786  0.029154039  0.029028089            8 
 1995000   0.92547527   -6.9101505    696.38894  0.029088928  0.029020348            5 
 1996000   0.93389364    -6.893051    698.08281  0.029145074  0.029012651            4 
 1997000   0.92038748   -6.9382302    696.78601  0.029076365  0.029004978            3 
 1998000   0.92547236   -6.9332036    697.33026  0.029084512  0.028997265           11 
 1999000   0.90981211   -6.9189208    699.13977  0.029145397  0.028989641            5 
 2000000    0.9388205   -6.9087317    697.10157  0.029045899  0.028981965            4 
 2001000   0.92598567   -6.9044093    700.15182  0.029158413  0.028974415            4 
 2002000   0.93290563   -6.9376595    697.87017  0.029048875  0.028966793            5 
 2003000   0.92757802   -6.9486459    697.62605  0.029024216  0.028959091            6 
 2004000   0.93593142   -6.9056976    698.09102  0.029029068  0.028951388            6 
 2005000    0.9284142   -6.9230348    699.63156  0.029078619  0.028943809            2 
 2006000   0.93066938   -6.9535693      699.439  0.029056123  0.028936169            8 
 2007000   0.91995045   -6.9214303    700.41659  0.029082237  0.028928499            3 
 2008000   0.94293508   -6.8912976    702.22953  0.029142992  0.028920953            4 
 2009000   0.93676166   -6.9100835    700.55815  0.029059157  0.028913424            7 
 2010000   0.93173093   -6.9444017    700.48019  0.029041467  0.028905862            5 
 2011000   0.90651532   -6.9367532     701.5667   0.02907205  0.028898304            3 
 2012000   0.92059308   -6.9421265    700.53585  0.029014904  0.028890778            5 
 2013000   0.92199182   -6.9215513    701.93884  0.029058571  0.028883213            4 
 2014000   0.94780425   -6.9491845    700.80029  0.028997033  0.028875581            3 
 2015000   0.91747029   -6.9486495     698.0721  0.028869814  0.028867985            5 
 2016000   0.90092101    -6.908629    700.96325  0.028975002  0.028860332            5 
 2017000   0.93209107   -6.8987554    700.08969  0.028924545  0.028852712            4 
 2018000   0.91714109    -6.916894    701.36812  0.028963005  0.028845124            5 
 2019000   0.91419852   -6.9262839    700.55199  0.028914974   0.02883758            6 
 2020000   0.90987464   -6.9341651    702.41795  0.028977638  0.028830017            4 
 2021000   0.92811599     -6.91228     704.1393  0.029034277   0.02882258            6 
 2022000   0.92920367   -6.9225931    703.07278  0.028975964   0.02881512            5 
 2023000    0.9212214   -6.9189343    703.24575  0.028968765  0.028807635            4 
 2024000   0.92747167   -6.9267943    703.73916  0.028974768  0.028800006            5 
 2025000   0.92869882   -6.9232542    702.92743  0.028927055  0.028792437            4 
 2026000   0.93282024   -6.9307409    702.21288  0.028883386  0.028784883            5 
 2027000    0.9257908   -6.9102635    705.38706  0.028999632  0.028777332            9 
 2028000   0.90973939    -6.912453    705.77407  0.029001236  0.028769906            5 
 2029000   0.93049068   -6.9552974     704.0232  0.028915032  0.028762488            6 
 2030000   0.92761901   -6.9511995    704.45219  0.028918398  0.028754995            4 
 2031000   0.95934342   -6.9116096     704.0621  0.028888154  0.028747511            5 
 2032000   0.92980931   -6.9065465    706.60798  0.028978346  0.028740133            5 
 2033000   0.92313049   -6.8954405    704.59976  0.028881774  0.028732751            5 
 2034000   0.92165192   -6.9250907    705.23023  0.028893405  0.028725319            3 
 2035000   0.93467419   -6.9515453    704.97389   0.02886871  0.028717869            6 
 2036000   0.91168477   -6.9634195    704.44282  0.028832794  0.028710422            8 
 2037000   0.91305879   -6.9542001    706.05538  0.028884609  0.028702952            6 
 2038000   0.92353422   -6.9278899    705.77477  0.028858962  0.028695547            4 
 2039000   0.91316339   -6.9460338    705.88522  0.028849322  0.028688167            5 
 2040000   0.93745679   -6.9402285    706.12828   0.02884511  0.028680662            3 
 2041000   0.92340868   -6.9284272     706.6919  0.028853989  0.028673236            3 
 2042000   0.91665024   -6.9423176     707.0927  0.028856215  0.028665803            6 
 2043000   0.92539361   -6.9208413    707.66046   0.02886525  0.028658474            6 
 2044000   0.93435243   -6.8830842    706.75269  0.028814118   0.02865114            3 
 2045000   0.92326718   -6.9417961      707.818  0.028843439   0.02864381            8 
 2046000   0.92100987    -6.954191     707.8564  0.028830906   0.02863643            4 
 2047000   0.89935836   -6.9215707    709.13849  0.028869015  0.028629031            7 
 2048000   0.90548455   -6.9120203    709.36095  0.028863971  0.028621659            6 
 2049000   0.91836686   -6.9078453    708.25161  0.028804767  0.028614283            3 
 2050000   0.92706189    -6.957547    707.72729  0.028769402  0.028606796            5 
 2051000    0.9209194   -6.9242242    707.48079   0.02874536  0.028599419            2 
 2052000   0.94036891   -6.9589127    707.85498  0.028746547  0.028591961            3 
 2053000   0.90698391   -6.9278907    709.16798  0.028785841   0.02858443            5 
 2054000   0.92435015   -6.9266583    709.19876  0.028773075   0.02857697            4 
 2055000   0.94142672   -6.9569229    708.23657  0.028720056  0.028569541            5 
 2056000   0.91517665   -6.9480385    706.56762  0.028638441  0.028562054            5 
 2057000   0.92016732   -6.9381404    707.35059  0.028656238  0.028554515            5 
 2058000    0.9158554   -6.9577696    708.60924   0.02869328  0.028546952            6 
 2059000   0.92240687   -6.8911381    711.25413   0.02878639  0.028539508            5 
 2060000   0.92123229   -6.9449612     708.1837  0.028648208  0.028532065            5 
 2061000   0.89762638   -6.9451679    709.79443  0.028699435  0.028524599            6 
 2062000   0.91212201   -6.9507721    709.77756  0.028684835  0.028517174            5 
 2063000    0.9073376   -6.9340945    711.31209  0.028732917  0.028509793            5 
 2064000   0.91127767   -6.9247767    711.29181  0.028718177  0.028502441            6 
 2065000   0.91209038     -6.92728    712.04289   0.02873458  0.028495115            6 
 2066000   0.93415918    -6.957694    710.86315  0.028673086  0.028487711            6 
 2067000   0.91483368   -6.9095597    711.28639  0.028676277   0.02848045            2 
 2068000   0.91297382   -6.9426352    711.39392  0.028666744  0.028473199            2 
 2069000   0.90315722   -6.9486796      713.382  0.028732963  0.028465937            3 
 2070000   0.91611804   -6.9353617    710.46133  0.028601503   0.02845865            6 
 2071000   0.93298425   -6.9335506    711.12447  0.028614376  0.028451246            4 
 2072000   0.91342963    -6.941402    710.41331  0.028571964  0.028443877            8 
 2073000   0.92643575   -6.9077565    712.80433  0.028654299  0.028436529            6 
 2074000   0.92451921   -6.9345524    712.03977  0.028609763    0.0284292            3 
 2075000   0.91811564   -6.9433745    712.47906  0.028613617  0.028421748            2 
 2076000   0.90794622   -6.9148157    713.80318  0.028652986  0.028414313            3 
 2077000   0.92647853   -6.9248082    713.08006  0.028610178  0.028406944            3 
 2078000    0.9144597   -6.9383472    713.12061  0.028598035   0.02839957            6 
 2079000   0.92379407   -6.9326625      712.264  0.028549944  0.028392172            6 
 2080000   0.90689452   -6.9179206    713.86151  0.028600221  0.028384739            4 
 2081000   0.93186927   -6.9435168    711.54012  0.028493517  0.028377261            5 
 2082000   0.93830863   -6.9440566    711.45947  0.028476604  0.028369792            3 
 2083000   0.92661371   -6.9510341    711.73512  0.028473961  0.028362249            3 
 2084000    0.9381108    -6.941303    713.33391  0.028524229   0.02835486            4 
 2085000    0.9280269   -6.9086314    715.47079  0.028595955  0.028347518            3 
 2086000   0.91420858   -6.9475815    715.66189  0.028589881  0.028340264            9 
 2087000   0.92265728   -6.9025272    715.89328  0.028585421  0.028332965            5 
 2088000   0.91129123   -6.9346162    717.23756  0.028625382   0.02832566            2 
 2089000   0.90548872   -6.9450243    714.39117  0.028498132  0.028318331            4 
 2090000   0.91681926   -6.9538338      715.969  0.028547408  0.028311023            8 
 2091000    0.9004517    -6.948945    716.47578  0.028553953  0.028303742            3 
 2092000   0.89916918    -6.947893    716.75513  0.028551431  0.028296408            9 
 2093000   0.91908624   -6.9185076    717.82486  0.028580381  0.028289107            4 
 2094000   0.90100953    -6.929933    717.33033  0.028547052  0.028281887            6 
 2095000   0.89456926    -6.941037    715.12429  0.028445676  0.028274595            5 
 2096000   0.92889188   -6.9394008      715.784  0.028458333  0.028267224            4 
 2097000   0.93013028   -6.9347608    717.54581  0.028514775  0.028259888            5 
 2098000   0.92899971   -6.9526563    716.51167  0.028460108  0.028252667            2 
 2099000   0.91948969   -6.9255831    717.91239  0.028502159  0.028245375            8 
 2100000   0.91912344   -6.9584053     716.2615  0.028423075  0.028238077            8 
 2101000   0.91360852   -6.9473133    716.82016  0.028431706  0.028230783            3 
 2102000   0.90166713   -6.9808245     716.7764  0.028416444  0.028223465            7 
 2103000   0.90619337   -6.9486761    717.08915  0.028415325  0.028216125            6 
 2104000    0.9032569   -6.9792177    716.29396  0.028370325  0.028208789            6 
 2105000   0.92947361   -6.9267401    718.36636   0.02843889  0.028201455            5 
 2106000   0.91044828   -6.9369409    717.59537  0.028394879  0.028194093            5 
 2107000   0.89312042   -6.9220036    716.27699  0.028329259  0.028186698            3 
 2108000   0.91147769   -6.9784611    718.01308  0.028384451  0.028179358            7 
 2109000   0.90268854   -6.9553781    717.37757  0.028345882   0.02817198            3 
 2110000   0.91566538   -6.9301278    718.56263  0.028379251  0.028164563            6 
 2111000   0.91890216   -6.9943843    718.47653  0.028362409  0.028157197            4 
 2112000   0.90540302   -6.9517229    717.82161  0.028323138   0.02814978            3 
 2113000   0.90749475   -6.9466097    719.31282  0.028368545  0.028142428           14 
 2114000   0.92007236   -6.9689908    718.81742  0.028335597  0.028135157            9 
 2115000   0.91138023   -6.9545286    718.21308  0.028298388  0.028127873            4 
 2116000   0.92582037   -6.9155844    720.72693  0.028384016  0.028120612            3 
 2117000   0.88737496   -6.9607499    718.52723  0.028284019  0.028113261            5 
 2118000   0.89761527   -6.9673544    720.50522   0.02834849  0.028105887            5 
 2119000   0.93368034   -6.9645593    719.23316  0.028285086   0.02809848            5 
 2120000   0.91989415   -6.9616549     719.4812  0.028281494  0.028091148            2 
 2121000   0.87687042    -6.986353    719.99348  0.028288287  0.028083794            5 
 2122000   0.92077326   -6.9624236    717.13968  0.028162884  0.028076441            4 
 2123000    0.9033738   -6.9608964    718.31005  0.028195558  0.028069048            4 
 2124000   0.90719077   -6.9848186    719.53974   0.02823053  0.028061629            4 
 2125000   0.90407651   -6.9462754    720.98669  0.028273988  0.028054321            3 
 2126000     0.912922   -6.9482172    720.09402  0.028225698  0.028047002           10 
 2127000   0.92629624   -6.9398371    720.46245  0.028226863  0.028039651            4 
 2128000    0.9121282   -6.9887228    718.86147  0.028150903  0.028032253            5 
 2129000   0.91661924   -6.9338885    722.68466  0.028287328  0.028024861            3 
 2130000    0.8964962   -6.9489064    721.08951   0.02821164  0.028017501            4 
 2131000   0.92708999   -6.9785227    718.29262  0.028089028  0.028010132            3 
 2132000   0.90866524   -6.9394086    722.71747  0.028248807  0.028002761            2 
 2133000    0.9165081   -6.9674112     721.0093  0.028168827   0.02799544            5 
 2134000   0.91781607   -6.9381195     720.9145  0.028151925   0.02798809            6 
 2135000   0.90716712   -6.9839721    719.60824  0.028087753  0.027980646            4 
 2136000   0.90823505   -6.9926948    721.74548  0.028157985  0.027973224            8 
 2137000   0.91096431   -6.9471724    722.18267  0.028161857  0.027965822            2 
 2138000    0.9221938   -6.9850046     721.6109  0.028126399  0.027958463            5 
 2139000   0.90389463   -6.9726749    721.69616  0.028116572  0.027951047            5 
 2140000   0.91461639   -6.9699592    722.43509  0.028132208  0.027943576            4 
 2141000   0.90619718   -6.9774957    721.55844  0.028084946  0.027936139            7 
 2142000   0.91906414   -6.9613387    723.54521  0.028149129  0.027928726            6 
 2143000   0.90377617   -6.9747286       722.38  0.028090683  0.027921275            3 
 2144000   0.89871054   -6.9839657    721.85016  0.028056987  0.027913816           12 
 2145000   0.92081099   -6.9682576    721.52178  0.028031149  0.027906371            4 
 2146000   0.89765728   -6.9840831    721.45374  0.028015445  0.027898887            4 
 2147000   0.90718397   -6.9606308     722.1274  0.028028544  0.027891345            7 
 2148000   0.92518422   -6.9779687    721.56661  0.027993739  0.027883817            4 
 2149000   0.88288289    -6.979835    721.11956  0.027963377  0.027876227            3 
 2150000    0.9013769   -6.9415909    723.78076  0.028053518  0.027868704            7 
 2151000    0.8968026     -6.94972    721.57967  0.027955202  0.027861242            2 
 2152000   0.91327669   -7.0000001     720.9984  0.027919702  0.027853654            6 
 2153000   0.89641733   -6.9663631    723.05106  0.027986184   0.02784604            5 
 2154000   0.91299215   -6.9712869    722.76536  0.027962139  0.027838453            5 
 2155000   0.91003093   -6.9551228    721.38264  0.027895694  0.027830852            9 
 2156000   0.89527543   -6.9763338    724.29816  0.027995445  0.027823244            4 
 2157000   0.89977475   -6.9668891    723.26939  0.027942721  0.027815715            2 
 2158000     0.906764   -6.9497665    721.89073  0.027876534  0.027808126            5 
 2159000   0.90810144   -6.9791859    723.31365  0.027918544  0.027800584            5 
 2160000   0.92211278   -6.9953208    723.48374  0.027912181  0.027793097            2 
 2161000   0.89732846   -6.9837996      723.981   0.02791844  0.027785655            6 
 2162000   0.89452348   -6.9532982    725.72896  0.027972902  0.027778187            8 
 2163000   0.91288942   -6.9393521    725.34579  0.027945207  0.027770735            3 
 2164000   0.89223109   -6.9885642    726.85102  0.027990258  0.027763313            6 
 2165000   0.90205626   -6.9835787    726.50616  0.027964055  0.027755891            6 
 2166000   0.92377631   -6.9867173    725.18085  0.027900156  0.027748436            4 
 2167000   0.92022164   -6.9511337     725.4599  0.027898012  0.027740975            3 
 2168000   0.90514195   -6.9555184    726.84175  0.027938259  0.027733594            4 
 2169000    0.9031162    -6.984776    727.69033  0.027957981  0.027726175            3 
 2170000   0.91023621   -6.9831012    727.10074  0.027922455  0.027718666            7 
 2171000   0.92665427   -6.9510953    725.86595  0.027862197  0.027711207            5 
 2172000   0.87473812   -6.9862339    726.19214  0.027861884  0.027703701           12 
 2173000   0.90878935   -6.9807674    726.50845  0.027861192   0.02769628            3 
 2174000   0.91123839   -6.9892743    728.56064  0.027927041  0.027688855            5 
 2175000   0.90583234   -6.9463265    727.37089  0.027868616  0.027681478            5 
 2176000   0.90493896   -6.9397182    728.47307  0.027898019   0.02767409            5 
 2177000   0.91180077   -6.9952879    726.41981  0.027806607    0.0276666            4 
 2178000   0.90906676   -6.9728998    726.37098  0.027791972  0.027659096            8 
 2179000   0.89153541   -6.9596438     727.8772  0.027836821  0.027651652            4 
 2180000   0.90506655   -6.9653823    726.08484  0.027755537   0.02764418            6 
 2181000   0.90613911   -7.0146279    728.60267  0.027839014   0.02763667            7 
 2182000   0.89453444   -6.9729909    727.52787  0.027785208   0.02762915            8 
 2183000   0.90092922   -6.9872614    728.71561   0.02781782   0.02762168           10 
 2184000   0.91091534   -6.9854763    729.95109  0.027852224   0.02761421            2 
 2185000   0.88715511   -6.9806158    728.32923  0.027777621   0.02760676            5 
 2186000    0.9127521   -6.9662745    727.94371  0.027750218  0.027599264           11 
 2187000   0.89958619    -6.968996    729.28071  0.027788474  0.027591751            3 
 2188000   0.89155592   -6.9638092    726.70488  0.027677669  0.027584229            4 
 2189000   0.90276252   -6.9584502    727.28444  0.027687089  0.027576668            6 
 2190000   0.90412335   -6.9620812    727.07112  0.027666329  0.027569102            5 
 2191000   0.89951057   -6.9690741    728.05618  0.027691168  0.027561507            6 
 2192000   0.91091502   -6.9705593    726.66617  0.027625691  0.027553903            4 
 2193000   0.90883885   -7.0088154    727.53884  0.027646255  0.027546258            9 
 2194000   0.90143919   -6.9900531    727.20813  0.027621093  0.027538659            4 
 2195000   0.91237032   -6.9675039    727.61962  0.027624131  0.027531125            7 
 2196000   0.90701061   -6.9588696    728.16178  0.027632126  0.027523485            4 
 2197000   0.91266454   -6.9726184    728.43184  0.027629792  0.027515884            8 
 2198000    0.9138765   -6.9945203    726.20881   0.02753294  0.027508279            5 
 2199000      0.91232   -6.9622383    727.38251  0.027564897  0.027500678            8 
 2200000   0.89068761   -6.9797349    727.22562  0.027546425   0.02749309            4 
 2201000   0.90693265   -6.9768795    727.10588  0.027529376  0.027485367            5 
 2202000   0.91479564   -6.9601082    726.64812   0.02749955   0.02747765            8 
 2203000   0.88416473   -6.9896147    727.55499  0.027521372  0.027469943            4 
 2204000   0.89667024    -6.970584    729.23047  0.027572235  0.027462302            6 
 2205000   0.88017335   -6.9793746    727.03672  0.027476822  0.027454654            4 
 2206000   0.89403306   -6.9977404    728.38142  0.027515164   0.02744702            6 
 2207000   0.91106354   -6.9689846    730.51219  0.027583152  0.027439355            4 
 2208000   0.90555286   -6.9939493    728.06666  0.027478361  0.027431717            4 
 2209000    0.9062683   -7.0125636    728.95956  0.027499606  0.027424135            7 
 2210000   0.89882626    -6.960136    732.18401  0.027608749  0.027416612            8 
 2211000   0.89705827   -6.9844858    727.91765  0.027435461  0.027409017            2 
 2212000   0.88356441   -6.9722152    731.17253   0.02754568  0.027401468            3 
 2213000   0.89592995   -6.9803179    729.34258  0.027464323  0.027393891            2 
 2214000   0.90345118   -6.9819566    730.91771  0.027511206  0.027386253            5 
 2215000   0.90204924   -6.9919722    732.71002  0.027566216  0.027378669            3 
 2216000   0.87601627   -6.9662983    730.58426  0.027473837  0.027371166            4 
 2217000    0.8857915   -6.9576236    730.36821  0.027453323  0.027363667            7 
 2218000   0.89167247   -6.9841894    731.13551  0.027469774  0.027356169            4 
 2219000   0.89343244   -7.0155923    731.70679  0.027478849  0.027348618            3 
 2220000   0.90464023    -7.010135    730.85577  0.027434526  0.027341036            5 
 2221000   0.91781541   -6.9926805    730.62894  0.027413663  0.027333494           11 
 2222000   0.89295339   -6.9592622    731.28994  0.027426115   0.02732594            9 
 2223000    0.8941247   -6.9774625    731.80141  0.027432951  0.027318368            6 
 2224000   0.89064547   -6.9886175    733.98354  0.027502381    0.0273108            4 
 2225000   0.90574491   -6.9698381    733.37595  0.027467264   0.02730325            3 
 2226000   0.91782199     -7.00328    731.85578  0.027398015  0.027295731            5 
 2227000   0.90427036   -6.9865079    732.87851  0.027423983  0.027288187           11 
 2228000   0.87595833   -6.9732039    732.91488  0.027413034  0.027280608            4 
 2229000   0.89992703   -7.0102962    731.46866  0.027346667  0.027273085            6 
 2230000   0.88484519   -6.9684384    733.78049  0.027420795  0.027265541            2 
 2231000   0.88760933    -7.023045    733.30439  0.027390721  0.027257981            4 
 2232000   0.89884126   -6.9901845    732.40355  0.027344816  0.027250411            2 
 2233000   0.88602289   -6.9811083     732.8528  0.027349336   0.02724286            8 
 2234000   0.87066171   -7.0094493    733.61954  0.027365694  0.027235329            4 
 2235000   0.90464661    -7.015518    733.19348  0.027337565   0.02722778            4 
 2236000    0.9059083   -6.9720968    734.31802  0.027367249  0.027220244            5 
 2237000   0.88458438   -7.0123885    733.55521  0.027326599  0.027212679            6 
 2238000   0.87814536   -7.0016776    732.68605  0.027282025  0.027205096            5 
 2239000   0.88638229   -6.9931583     735.7786  0.027384941  0.027197497            5 
 2240000   0.89585704   -7.0073246    733.44832  0.027286024  0.027189959            3 
 2241000   0.89288999   -6.9989842    733.51845  0.027276456  0.027182377           10 
 2242000   0.90776634   -6.9801203    732.70825  0.027234175  0.027174779            5 
 2243000   0.89619115    -6.977733    734.00338  0.027270151  0.027167174            6 
 2244000   0.88606995   -7.0031511    736.18457  0.027338999  0.027159662            3 
 2245000   0.86683096   -6.9695925    734.42477  0.027261498  0.027152137            3 
 2246000   0.90586029   -6.9913299     737.1479  0.027350397   0.02714461            3 
 2247000   0.90886032   -6.9946278    734.37295  0.027235312  0.027137023            3 
 2248000   0.90361089   -7.0039702    735.13252  0.027251354  0.027129414            4 
 2249000   0.90883036   -7.0159179    735.94113  0.027269198  0.027121821            3 
 2250000   0.88614158   -7.0078048    736.29103  0.027270038  0.027114255            5 
 2251000   0.89129577    -7.008211     734.9877  0.027209673  0.027106678           12 
 2252000   0.89732677   -7.0270135    733.53073  0.027143677  0.027099067            7 
 2253000   0.90220216   -7.0182082    735.36531  0.027199486  0.027091469            5 
 2254000   0.88090188   -6.9931017    736.37003  0.027224565  0.027083889            5 
 2255000   0.89641664   -6.9713511    737.81104  0.027265744  0.027076372            6 
 2256000    0.9038938   -6.9863441     735.5708  0.027170907  0.027068851            3 
 2257000   0.90633275   -6.9770773    736.06827  0.027177236  0.027061366            6 
 2258000   0.88642881   -7.0007972    735.36386  0.027139204  0.027053844            5 
 2259000    0.8966629   -6.9868153    736.56832  0.027171621  0.027046417            5 
 2260000   0.89014385   -6.9853756    736.93218  0.027173015  0.027038954            7 
 2261000   0.87653157   -7.0043801    737.42379  0.027179117  0.027031489            7 
 2262000   0.88363399   -6.9959334    736.23284  0.027123226  0.027023992            3 
 2263000    0.8927848   -6.9673079     738.0098  0.027176675  0.027016485            2 
 2264000   0.88238114   -7.0028259     736.1621  0.027096662  0.027008977            7 
 2265000   0.88901076    -6.984272     736.8304  0.027109286  0.027001434            4 
 2266000   0.88860871   -7.0298072    737.76579  0.027131722  0.026993913            5 
 2267000   0.87425675   -6.9911625    737.06321  0.027093928  0.026986383            7 
 2268000   0.86373363   -7.0179339    737.09571  0.027083176  0.026978915            7 
 2269000   0.87471154   -7.0191429    738.95354  0.027139472  0.026971384            5 
 2270000   0.89813019   -7.0233445    737.60443  0.027077989  0.026963867            4 
 2271000   0.88600582   -7.0015813    739.94039  0.027151783  0.026956363            7 
 2272000   0.88917607   -7.0173963    737.54136   0.02705184  0.026948886            5 
 2273000   0.89718871   -6.9804546    739.89858  0.027126359  0.026941409            3 
 2274000    0.9018561   -6.9951361    736.84341   0.02700247   0.02693397            3 
 2275000   0.88813435    -6.994582    740.05342  0.027108184  0.026926511            3 
 2276000   0.86721015   -6.9946723    739.04892  0.027059495   0.02691899            8 
 2277000   0.88239098   -7.0003903    736.27699  0.026946164  0.026911421            4 
 2278000    0.9047085   -7.0387701    737.54335  0.026980661  0.026903851            5 
 2279000   0.89582119   -7.0052416    738.58231  0.027006813  0.026896288            3 
 2280000   0.91685277   -6.9860905      738.234  0.026982237  0.026888794            4 
 2281000   0.88433209   -6.9833657    742.25726  0.027117392  0.026881364            4 
 2282000   0.86679513   -7.0197781    741.00757  0.027059873  0.026873911            3 
 2283000   0.87442137   -7.0218461    738.11952  0.026942602  0.026866378            3 
 2284000   0.89969716   -7.0001617    740.95289  0.027034183  0.026858879            4 
 2285000   0.88786037   -7.0015345    739.62907  0.026974072   0.02685137            5 
 2286000   0.86068978   -7.0001679    741.14501  0.027017535  0.026843858            2 
 2287000   0.86112041   -6.9992725    740.16998  0.026970193  0.026836264            4 
 2288000   0.88796046   -7.0225184    740.95235  0.026986901  0.026828766            7 
 2289000   0.88273693   -6.9846372    741.46412  0.026993743  0.026821254            5 
 2290000   0.87456538    -6.980052    739.76808  0.026920236  0.026813768            4 
 2291000    0.8839741   -7.0532879    741.58724  0.026974656  0.026806226            4 
 2292000   0.86869199   -7.0350781    740.31337  0.026916571  0.026798657            4 
 2293000   0.89237099   -6.9956487    740.96731  0.026928598  0.026791079            2 
 2294000    0.8861325   -6.9928439    740.53565  0.026901179  0.026783561            4 
 2295000   0.88859869   -7.0227811    741.23711  0.026914928  0.026776079            3 
 2296000   0.88738485   -7.0046716    742.30341  0.026941907  0.026768537            5 
 2297000   0.87521342    -7.024333    740.13029  0.026851338  0.026760983            6 
 2298000   0.85987336   -7.0110014    743.55573  0.026963872  0.026753514            4 
 2299000   0.88102387   -7.0073778    743.16774  0.026938079  0.026746063            2 
 2300000   0.86571976   -6.9884883    741.33652  0.026860019  0.026738686            4 
 2301000   0.89471301   -7.0028784    741.48179  0.026853607  0.026731277            4 
 2302000   0.87145469   -6.9822554    742.02234   0.02686151  0.026723837            4 
 2303000   0.88558127    -7.019182    742.28386  0.026859309  0.026716358            8 
 2304000   0.88748433   -7.0486928    742.61962  0.026859795  0.026708881            9 
 2305000   0.87260251   -7.0070568    741.53597  0.026808965  0.026701356           11 
 2306000   0.88298842   -7.0103838    742.89291  0.026846376  0.026693872            4 
 2307000   0.86281499     -7.00572     744.2302  0.026883044  0.026686358           10 
 2308000   0.87818888   -7.0106245    742.82296  0.026820586  0.026678858            2 
 2309000   0.87343268   -6.9794033    743.42176  0.026830582  0.026671385            4 
 2310000   0.89291764   -7.0050955    741.34889  0.026744188  0.026663866            6 
 2311000   0.90242074   -7.0138352    742.38509   0.02676998  0.026656342            7 
 2312000   0.87766632     -7.02523    740.89926  0.026704847  0.026648801            3 
 2313000   0.87677565   -7.0454572    744.80945  0.026834178  0.026641313            4 
 2314000    0.8866219    -6.994062     742.7444  0.026748214  0.026633817            5 
 2315000   0.89652014   -7.0396733    744.68348  0.026806461  0.026626299            6 
 2316000   0.88049753   -7.0289388    743.66912  0.026758388  0.026618765            5 
 2317000   0.87805177   -7.0117695    745.52161  0.026813466   0.02661127            4 
 2318000   0.87526009   -7.0184151    743.69436  0.026736208  0.026603803            7 
 2319000   0.87705696   -7.0071572    744.07653  0.026738412  0.026596308            5 
 2320000    0.8664162    -7.028604    745.87645  0.026791539  0.026588849            9 
 2321000   0.89207778   -7.0176122    743.72829  0.026702868  0.026581367            5 
 2322000   0.88791903   -6.9867576    744.50929  0.026719397  0.026573875            3 
 2323000   0.87443809   -7.0209247    744.80626  0.026718549  0.026566461            6 
 2324000   0.87241561   -7.0206335     742.4989  0.026624315  0.026558952            8 
 2325000   0.86783249   -7.0198391    746.90444  0.026770768  0.026551469            6 
 2326000   0.88499116    -7.016136    744.11988  0.026659497  0.026543966            3 
 2327000   0.88094023   -7.0302497    744.14043  0.026648776   0.02653648            5 
 2328000   0.85949616   -7.0312418    743.72348  0.026622404  0.026528978           12 
 2329000    0.8925495   -7.0145484    744.86126  0.026651684  0.026521441            4 
 2330000   0.87578135   -7.0455515    745.75296  0.026672137  0.026513926            5 
 2331000    0.8774869   -7.0230675    746.10462  0.026673267  0.026506385           11 
 2332000   0.87496183   -7.0400463    745.25538  0.026631481  0.026498858            5 
 2333000   0.86728143   -7.0287036    746.34846   0.02665911  0.026491355            5 
 2334000   0.89215118   -7.0051632    744.60829  0.026585558  0.026483855            3 
 2335000   0.85736342   -7.0026604     742.8617  0.026511838  0.026476308            6 
 2336000   0.87062681   -7.0146194    744.48003   0.02655822  0.026468722            9 
 2337000   0.88903182   -7.0078553    745.70698  0.026590607  0.026461129            3 
 2338000    0.8479629   -6.9962256    745.28386  0.026564152   0.02645358            5 
 2339000   0.86852593   -7.0450161     743.9449  0.026505091  0.026445951            7 
 2340000   0.88577235   -7.0453977    746.80471  0.026595609  0.026438286            5 
 2341000   0.88411404   -7.0194897    747.39227  0.026605164  0.026430681            3 
 2342000   0.87938608   -7.0320685    745.33666  0.026520661  0.026423086            4 
 2343000   0.84999316   -6.9936881    746.77033  0.026560333  0.026415529            3 
 2344000   0.88079003   -7.0108842    746.98898  0.026556775  0.026407973            6 
 2345000   0.88036961   -7.0189007    746.17623  0.026516568  0.026400377            9 
 2346000   0.89129348   -7.0255479    747.02561  0.026535437  0.026392824            3 
 2347000   0.88700099   -7.0068059    747.48757  0.026540533  0.026385305            4 
 2348000   0.91163183   -7.0075096    746.03354  0.026477624  0.026377753            3 
 2349000   0.88788195   -7.0382756    745.90563  0.026461815  0.026370198            1 
 2350000   0.86946914   -7.0290629     746.1276  0.026458425   0.02636258            3 
 2351000    0.8794894   -7.0377528    745.29761  0.026417752  0.026355002            5 
 2352000   0.89533625   -7.0095334    745.35376  0.026408509  0.026347369            2 
 2353000   0.89095931   -7.0296236    746.56972   0.02644035  0.026339761            8 
 2354000   0.88431409   -7.0117644    747.18976  0.026451068  0.026332129            5 
 2355000   0.87122094   -7.0327817     745.5833   0.02638299  0.026324493            8 
 2356000   0.86547992   -7.0053506    746.18187  0.026392964  0.026316879            6 
 2357000   0.88802594   -7.0334643    748.32672  0.026457599  0.026309297            7 
 2358000   0.87734623   -7.0554026    745.92944  0.026361657   0.02630171            7 
 2359000   0.87559298   -7.0287083    750.19685  0.026501231  0.026294112            5 
 2360000   0.86770749   -7.0310086    745.08221    0.0263094  0.026286524            5 
 2361000   0.88502633   -7.0339129    747.73237  0.026391796  0.026278917            8 
 2362000   0.87689186   -7.0412749      747.701  0.026379516  0.026271269            7 
 2363000   0.87903444    -7.022214    747.37639  0.026356905  0.026263621            8 
 2364000   0.87252784   -7.0189129    749.08036  0.026405822  0.026256009           10 
 2365000   0.88790287   -7.0137791    747.47258  0.026338005  0.026248422            5 
 2366000   0.86653584    -7.061481    746.13714  0.026279837  0.026240763            4 
 2367000   0.87228397    -7.011328    749.07701  0.026372236  0.026233132            5 
 2368000   0.87286811   -7.0403328    747.97368  0.026322272   0.02622549            3 
 2369000   0.87514241   -7.0137943    747.16173  0.026282599  0.026217892            7 
 2370000   0.87868048   -7.0430421    751.07667  0.026409166  0.026210363            2 
 2371000   0.87771393   -7.0355968    749.04397  0.026326584  0.026202782            4 
 2372000   0.86901387   -7.0382788    748.99814  0.026313875  0.026195216            4 
 2373000   0.87076698   -7.0372435    748.50571  0.026285493  0.026187587            8 
 2374000   0.89086318   -7.0396439    748.70097  0.026281275  0.026179977            4 
 2375000   0.88502659   -7.0518806    748.05525  0.026247553  0.026172319            8 
 2376000   0.86036222    -7.047154    749.18744  0.026276215  0.026164708            5 
 2377000   0.89585157   -7.0372437    748.68887  0.026247682  0.026157189            5 
 2378000   0.86057494   -7.0439026    748.85692  0.026242533  0.026149615            6 
 2379000   0.87546345   -7.0167668    749.40767  0.026250794   0.02614201            3 
 2380000   0.86657735   -7.0352062    749.62055  0.026247218  0.026134414            4 
 2381000   0.88612879   -7.0169629    748.28956  0.026189611  0.026126783            9 
 2382000   0.84822593   -7.0498081    749.84617  0.026233073  0.026119156            4 
 2383000   0.86227143   -7.0438646    748.68483  0.026181453  0.026111571            2 
 2384000   0.85964184   -7.0227273    749.49114  0.026198656  0.026103968            3 
 2385000   0.88452192   -7.0229648    751.23188  0.026248493  0.026096418            2 
 2386000   0.87019157   -7.0244955     752.5518  0.026283592  0.026088868            6 
 2387000   0.87055173   -7.0132697    750.68336  0.026207351  0.026081294            7 
 2388000   0.85984774   -7.0487553     749.1549  0.026143038  0.026073719            4 
 2389000   0.86019519   -7.0145465    750.65124   0.02618429  0.026066191            5 
 2390000   0.90138811    -7.041666    750.86226  0.026180693  0.026058669            3 
 2391000   0.86348522   -7.1022743    748.57494  0.026090023  0.026051042            6 
 2392000   0.85239542   -7.0613337     750.2292  0.026136748  0.026043431            5 
 2393000   0.85985222   -7.0521526    752.72549  0.026212756  0.026035886            7 
 2394000   0.86660196   -7.0416358      750.482  0.026123712  0.026028274            4 
 2395000   0.87128488    -7.026572    750.58129  0.026116259  0.026020697            4 
 2396000   0.86382396    -7.021124    752.15212  0.026159993  0.026013154            8 
 2397000   0.88201218   -7.0201186    750.82528  0.026102951  0.026005651            6 
 2398000   0.86966778   -7.0598997    750.65377  0.026086105  0.025998093            4 
 2399000   0.85583733   -6.9744771    752.39903  0.026135856  0.025990573            4 
 2400000   0.87303685   -7.0388776    750.14439   0.02604668  0.025983056            2 
 2401000   0.86706642   -7.0363981    751.37134  0.026078417  0.025975459            7 
 2402000   0.88016506    -7.042072    751.30624  0.026065301  0.025967825            4 
 2403000   0.85643057   -7.0602317    750.48479  0.026025967  0.025960219            9 
 2404000   0.86994153   -7.0455709    750.45206  0.026014007  0.025952614            3 
 2405000   0.85178527   -7.0538924    750.94918  0.026020415  0.025944988            8 
 2406000   0.85011717   -7.0539042     751.6725  0.026034653  0.025937373            7 
 2407000   0.89888046   -7.0612041    751.60917  0.026021644  0.025929741            5 
 2408000   0.87772227   -7.0786264    752.25926  0.026033335  0.025922104            3 
 2409000   0.86793625   -7.0275849    751.58385  0.025999165  0.025914464            8 
 2410000   0.85415542   -7.0590417    753.59971  0.026058081  0.025906899            5 
 2411000   0.85339237   -7.0496612    752.33521  0.026003567  0.025899341            5 
 2412000   0.86813103   -7.0889041    752.21745  0.025988718  0.025891715            4 
 2413000   0.86659043   -7.0650801    749.64723  0.025889184   0.02588404            8 
 2414000   0.87238734   -7.0379681    752.51805  0.025977563  0.025876456            2 
 2415000   0.85873823   -7.0408147    750.98151  0.025913786  0.025868905            5 
 2416000   0.87213685   -7.0321042     753.3726  0.025985534  0.025861326            9 
 2417000   0.89135004   -7.0833216    752.87329  0.025957568  0.025853758            4 
 2418000   0.86414795   -7.0774306    751.70178  0.025906458   0.02584615           11 
 2419000   0.87522814   -7.0512216    754.03128  0.025975998  0.025838574            4 
 2420000   0.87251255   -7.0517488    754.70214  0.025988366     0.025831            7 
 2421000   0.86853276   -7.0626038    754.44574  0.025968806  0.025823431            9 
 2422000   0.84517196   -7.0540323    752.25421   0.02588268  0.025815836            6 
 2423000   0.86452657   -7.0569846    752.53251  0.025881569  0.025808243            8 
 2424000   0.87760634   -7.0544329     754.2198  0.025928898  0.025800685            5 
 2425000    0.8467707   -7.0378886    754.09695  0.025913985  0.025793171            9 
 2426000    0.8817415   -7.0283963    755.55733  0.025953467  0.025785709            3 
 2427000   0.87254467   -7.0722158    754.03765  0.025890594  0.025778176            7 
 2428000   0.86553368   -7.0700466    752.71083  0.025834391   0.02577066            4 
 2429000    0.8638853    -7.065244     753.5265  0.025851739  0.025763124            5 
 2430000   0.84677262   -7.0510847    756.05548  0.025927828  0.025755582            3 
 2431000   0.86211849   -7.0485314    756.29268  0.025925294  0.025748009            4 
 2432000   0.86734709   -7.0562118    755.85385  0.025899597  0.025740474           14 
 2433000   0.86166467   -7.0479952    755.85094  0.025888852   0.02573291            6 
 2434000    0.8660362   -7.0546255    753.30173  0.025790938   0.02572532            4 
 2435000   0.85471736   -7.0851941    755.08183  0.025841267  0.025717693            5 
 2436000    0.8603374   -7.0570721    756.30073  0.025872357  0.025710055            6 
 2437000   0.85002915   -7.0632757    753.76368  0.025774986  0.025702455            7 
 2438000   0.86880182   -7.0830915    756.45093  0.025856266  0.025694876            3 
 2439000   0.86639105    -7.062269    756.67256  0.025853238  0.025687309            5 
 2440000   0.86469186   -7.0267626    757.60356  0.025874438  0.025679767            2 
 2441000   0.85298544   -7.0393598    754.37481  0.025753612   0.02567221            7 
 2442000   0.85951152   -7.0306053    755.67141  0.025787313  0.025664594            5 
 2443000   0.86957984   -7.0705037    755.40221  0.025767574  0.025656959            6 
 2444000    0.8664051   -7.0294404     754.8087  0.025736794  0.025649295            5 
 2445000   0.88014942    -7.069358    753.37557  0.025677422  0.025641626           12 
 2446000   0.87172719   -7.0661796    755.44624  0.025737471  0.025634003            8 
 2447000   0.86506423   -7.0468565    756.21263  0.025753052  0.025626438           11 
 2448000   0.86593029   -7.0495593    755.06086  0.025703325  0.025618786           16 
 2449000   0.86727281   -7.0477321    754.80231  0.025684031  0.025611144            8 
 2450000   0.84103982   -7.0830691      755.898  0.025710816  0.025603515            4 
 2451000   0.85291272   -7.0704562    755.74539  0.025695138  0.025595847            7 
 2452000   0.84730449   -7.1011412    755.22075  0.025666828  0.025588167            4 
 2453000   0.83580432   -7.0789979    756.13905  0.025687561  0.025580516            5 
 2454000   0.86810114   -7.0737967    753.70344  0.025594385  0.025572898            9 
 2455000   0.85533485   -7.0749841    755.64522  0.025649872  0.025565229            4 
 2456000   0.84449655   -7.0623767    756.78954  0.025678255  0.025557611            5 
 2457000   0.86259037   -7.0769513    756.45958  0.025656613  0.025550077            4 
 2458000   0.85932582    -7.057097    755.05048  0.025598402  0.025542492            9 
 2459000   0.85753306   -7.0731915    758.46311  0.025703643  0.025534903            6 
 2460000   0.86207942    -7.033981     757.4805  0.025659909  0.025527421           10 
 2461000   0.86083436   -7.0043174    757.63776  0.025654807   0.02551997            5 
 2462000   0.88218717   -7.0295131    759.16574  0.025696105  0.025512561            2 
 2463000   0.86575285   -7.0602251    759.29494  0.025690044  0.025505143            6 
 2464000   0.86982935   -7.0301141    759.43746  0.025684438   0.02549773            4 
 2465000   0.86531026   -7.0667739    757.01052  0.025591972   0.02549029            5 
 2466000   0.87650606   -7.0806021    758.82247  0.025642825  0.025482852            5 
 2467000   0.85586794   -7.0789659    758.87203  0.025634105  0.025475378            4 
 2468000   0.85847595   -7.0681906    760.12594  0.025666057  0.025467941           11 
 2469000    0.8579235   -7.0634514    760.54555  0.025669824   0.02546055            7 
 2470000   0.86599718   -7.0304117    760.47181  0.025656944  0.025453156            3 
 2471000   0.86999381     -7.06888    761.27444  0.025673629  0.025445768           10 
 2472000   0.84590585   -7.0846135    758.92657  0.025584094  0.025438314            6 
 2473000   0.85397323   -7.1135631    757.34192   0.02552035  0.025430797            7 
 2474000   0.86277804   -7.0659759    759.29142  0.025575701  0.025423276            4 
 2475000   0.87425496   -7.0703308      759.197  0.025562189  0.025415821            3 
 2476000   0.85991223    -7.090904    757.72976  0.025502482  0.025408399            4 
 2477000   0.86414818   -7.0853731    759.03004  0.025535932  0.025400957            6 
 2478000   0.86337323   -7.0815454    760.05769  0.025560186  0.025393555            4 
 2479000   0.86408875   -7.0525515    761.09669  0.025584802   0.02538615            5 
 2480000   0.84199915   -7.0896262    758.94679  0.025502244  0.025378766            6 
 2481000   0.86713035    -7.079527    761.48219  0.025577126  0.025371371            6 
 2482000   0.84932395   -7.0846771    761.28373  0.025560157  0.025363981            7 
 2483000   0.84256063   -7.1294437    759.05489   0.02547506  0.025356588            3 
 2484000   0.85531083      -7.0924    761.84143  0.025558287  0.025349184            6 
 2485000   0.83848214   -7.0878093     761.0807  0.025522491   0.02534175            6 
 2486000   0.89606496   -7.0967823    760.79968  0.025502805  0.025334348            6 
 2487000    0.8549351   -7.0712773    761.77996  0.025525397  0.025326939            5 
 2488000   0.87226053   -7.0810475    761.04254  0.025490439  0.025319472            8 
 2489000   0.83361298   -7.0842042    760.64054  0.025466738  0.025312056            5 
 2490000   0.87317575   -7.0620733    762.27577  0.025511237   0.02530466            8 
 2491000    0.8590145   -7.0789011    761.67614  0.025480936  0.025297241            7 
 2492000   0.84533733   -7.0987687    762.30307  0.025491676  0.025289846            6 
 2493000   0.85959065   -7.0714839    761.18528  0.025444086  0.025282495            8 
 2494000   0.84587481   -7.1046524    762.57314  0.025480257  0.025275118           18 
 2495000   0.83217379   -7.1047024    762.48441  0.025467081  0.025267799            3 
 2496000     0.859855   -7.0699482    761.81812  0.025434633  0.025260447            3 
 2497000   0.84694299   -7.0817751    762.12152  0.025434572   0.02525311            4 
 2498000   0.84900019   -7.0887555    763.79484  0.025480212  0.025245795            4 
 2499000    0.8419421   -7.0642169    762.01616  0.025410703  0.025238469            5 
 2500000    0.8700303   -7.0690621    763.17695  0.025439232  0.025231156            6 
 2501000   0.85043983   -7.1132264    764.82769  0.025484063  0.025223803            4 
 2502000   0.84104515    -7.092435    762.80397  0.025406474  0.025216417            4 
 2503000    0.8600043    -7.079969    763.92107  0.025433516   0.02520908            2 
 2504000   0.83302442   -7.1072318    764.18947  0.025432291  0.025201783            3 
 2505000   0.85205347   -7.0815533    763.26357  0.025391336  0.025194488            3 
 2506000   0.85057012   -7.0773014    761.93382  0.025336985  0.025187168            4 
 2507000   0.86721848   -7.1161683     763.2529  0.025370725  0.025179834            6 
 2508000   0.83955761   -7.0803728    762.30439  0.025329093  0.025172518            6 
 2509000   0.84731923    -7.096098    765.42497  0.025422644   0.02516522            9 
 2510000   0.83795686   -7.0881703    764.70429  0.025388589  0.025157874           10 
 2511000   0.85711455   -7.0611751    764.58862  0.025374639  0.025150598           11 
 2512000   0.83940878   -7.0904954    765.93358  0.025409156  0.025143359            3 
 2513000   0.84321784   -7.0991408    763.37983   0.02531436  0.025136097           12 
 2514000   0.85266235   -7.1216323    765.04699  0.025359553  0.025128788            6 
 2515000     0.856585   -7.0741874    766.03701  0.025382273  0.025121543            8 
 2516000   0.83673964   -7.0655142    765.48417  0.025353874  0.025114365            5 
 2517000   0.82792329   -7.0840574    767.56111  0.025412565  0.025107172            6 
 2518000   0.83499038   -7.0833477    765.56847  0.025336526  0.025099985            9 
 2519000    0.8481456   -7.1036636    766.23709  0.025348587  0.025092773            5 
 2520000   0.84129912   -7.0542616     769.6009  0.025449765  0.025085605           15 
 2521000   0.85316219   -7.0767715    768.00689  0.025386979  0.025078466            5 
 2522000   0.84608042   -7.0851583    767.63376  0.025364584  0.025071287           10 
 2523000    0.8358235    -7.131545    764.56029  0.025253015  0.025064059            5 
 2524000   0.86763238    -7.081635    765.84161  0.025285315  0.025056819            3 
 2525000   0.83693249   -7.0882107    766.09782  0.025283757  0.025049594            5 
 2526000   0.86178761   -7.1016636    765.95369  0.025268992  0.025042312            6 
 2527000   0.83449405   -7.0900194    765.69707   0.02525053  0.025035046            6 
 2528000   0.85647161    -7.097269     768.1372  0.025320978  0.025027785            3 
 2529000   0.84707563   -7.0488791    766.59847  0.025260263  0.025020554            9 
 2530000     0.850556   -7.1116724    765.96718  0.025229485   0.02501331            4 
 2531000   0.84693095   -7.1256537    765.10513  0.025191134  0.025005954            4 
 2532000   0.85662978   -7.0949933    764.88881  0.025174066  0.024998659            8 
 2533000   0.85484284   -7.0672475    766.13134  0.025205005  0.024991406            4 
 2534000   0.84659762   -7.1069644    764.67367  0.025147122  0.024984093            5 
 2535000   0.83546442   -7.0975699    766.32539  0.025191499  0.024976769            3 
 2536000   0.84187962   -7.0900285    765.61065  0.025158079  0.024969503            5 
 2537000   0.83773983   -7.1198909    764.51815  0.025112277  0.024962187            9 
 2538000   0.84504623   -7.0928952    767.32814  0.025194646  0.024954888            6 
 2539000   0.83021261   -7.1016402    767.73791  0.025198172  0.024947629            5 
 2540000   0.82884533   -7.1228987    767.55547  0.025182266  0.024940318            8 
 2541000    0.8448715   -7.0947558    770.25385  0.025260851  0.024933039            7 
 2542000   0.83108513   -7.0790864    767.68283  0.025166628  0.024925798            4 
 2543000   0.84708946   -7.0968644    767.71852  0.025157901  0.024918517            5 
 2544000   0.85325974    -7.084567    767.44462   0.02513904  0.024911245           14 
 2545000   0.85491238    -7.116623       768.53  0.025164702  0.024904018            5 
 2546000   0.84285096   -7.1088036    768.97583  0.025169411  0.024896761            5 
 2547000   0.83673559    -7.087802    768.46218  0.025142723  0.024889472            5 
 2548000    0.8572924   -7.1184857     767.5328  0.025102459  0.024882206            7 
 2549000   0.84841508   -7.1102843    767.50323  0.025091645   0.02487493            7 
 2550000   0.83363446   -7.0964605    768.37213    0.0251102   0.02486769            4 
 2551000   0.84396515   -7.1257135    768.03702   0.02508941  0.024860412            7 
 2552000   0.83951927   -7.1028036    767.79803  0.025071775  0.024853131            9 
 2553000   0.84866842   -7.1050389    768.47186  0.025083949  0.024845866            5 
 2554000   0.83797582   -7.1052297    767.88509  0.025054982  0.024838601            4 
 2555000   0.83712005   -7.1256655    768.65381  0.025070248  0.024831258            4 
 2556000   0.83885581   -7.1034203     768.5755  0.025057887  0.024823924            3 
 2557000   0.85628808   -7.1217363    769.06743  0.025064119  0.024816677            6 
 2558000   0.83292515   -7.0951137    766.86906  0.024982703   0.02480943            9 
 2559000   0.84260258   -7.1059675    768.74437   0.02503401    0.0248022            5 
 2560000   0.85778445   -7.0994297    769.34513  0.025043787  0.024794964            5 
 2561000   0.84628211   -7.0774598    768.67078  0.025012065  0.024787712            6 
 2562000   0.84334174   -7.1112736    767.55388  0.024965973  0.024780442            2 
 2563000   0.82601963   -7.1365748    768.08932  0.024973642  0.024773165            5 
 2564000   0.86484716   -7.1207194    767.87034  0.024956784  0.024765847            7 
 2565000    0.8322057   -7.1217999    767.42059  0.024932443  0.024758562            4 
 2566000   0.84268979   -7.1132805    767.31475  0.024919289  0.024751289            5 
 2567000   0.82121764    -7.128159    769.53908  0.024981791  0.024744006            4 
 2568000   0.82815751   -7.0904719    769.50114  0.024970831  0.024736733            2 
 2569000   0.82216158   -7.1131997    768.83074  0.024939365  0.024729453            4 
 2570000   0.84254776   -7.1018512    770.96262  0.024998788  0.024722192            6 
 2571000   0.84908049   -7.0751339    770.71162  0.024980929  0.024715008            7 
 2572000   0.83647752   -7.1004819     771.1646  0.024985893  0.024707841            8 
 2573000   0.85120536    -7.101071     770.0059  0.024938655  0.024700598            8 
 2574000   0.82805561   -7.1070706    768.46641  0.024879125  0.024693407            8 
 2575000   0.83868947   -7.0956185     771.3233  0.024961919  0.024686167           13 
 2576000   0.83978277   -7.1035487    771.01322  0.024942198  0.024678993            5 
 2577000   0.83980631    -7.107809     771.5419  0.024949615  0.024671815            7 
 2578000   0.85088114   -7.1243096    770.19188  0.024896298  0.024664652            3 
 2579000   0.82789193   -7.1188106    769.79132  0.024873702  0.024657396            7 
 2580000   0.82496796   -7.1076455    768.89463  0.024835098  0.024650137            7 
 2581000   0.84085093   -7.1005703    771.50096  0.024909627  0.024642938            5 
 2582000   0.83688947   -7.1380285    769.93331  0.024849384  0.024635701            3 
 2583000   0.82077629   -7.1245297    770.92792  0.024871852  0.024628422            4 
 2584000   0.84037965   -7.1487077    769.32246  0.024810451  0.024621156            7 
 2585000    0.8454653   -7.1322728    770.49414  0.024838625  0.024613902           10 
 2586000   0.82666467    -7.097337    772.73551  0.024901247  0.024606751           10 
 2587000   0.84168574   -7.0842743    772.02328  0.024868679  0.024599561           15 
 2588000   0.84573998   -7.1103446    773.13751  0.024894948   0.02459239            6 
 2589000   0.82816006   -7.1090232    771.97483  0.024847909  0.024585228            6 
 2590000    0.8358979    -7.098659    771.74478  0.024830913  0.024578058            4 
 2591000   0.82560331   -7.1007713    773.81295  0.024887847  0.024570925            8 
 2592000    0.8577558   -7.1006841     774.4872  0.024899923  0.024563813            4 
 2593000   0.85710438    -7.106488    774.04421  0.024876083  0.024556724            6 
 2594000   0.85453623   -7.0809816    772.69246  0.024823068  0.024549612           12 
 2595000   0.86328084   -7.1312669    771.08309  0.024761821  0.024542502            8 
 2596000   0.80553381   -7.1469931    772.87394   0.02480977   0.02453531           12 
 2597000   0.82927613   -7.0845182    773.19654  0.024810568  0.024528147            8 
 2598000   0.83005908    -7.108247    772.24408  0.024770467  0.024520988           12 
 2599000   0.83429047   -7.0888209    774.19687   0.02482355  0.024513787            5 
 2600000   0.83991799   -7.1256545    772.86635  0.024771357   0.02450671            3 
 2601000   0.83033362   -7.1522624     772.8293  0.024760646  0.024499565            4 
 2602000   0.83038264   -7.0881936    772.88727  0.024752987  0.024492405            4 
 2603000    0.8375212   -7.1187135     773.8963  0.024775781  0.024485265           15 
 2604000   0.83084004   -7.1002079    774.05616  0.024771382  0.024478149            5 
 2605000   0.82234135   -7.1380726    774.11272  0.024763683  0.024471035            5 
 2606000   0.82121766    -7.124796     773.9573   0.02474921  0.024463877            6 
 2607000   0.82859229   -7.1173301    773.44763  0.024723425   0.02445669            7 
 2608000   0.83647139   -7.1177205    774.60397  0.024750894  0.024449579            3 
 2609000   0.84178783   -7.0926341    775.02764  0.024754939  0.024442439            6 
 2610000   0.84695016   -7.1332911    774.18392  0.024718516  0.024435298            7 
 2611000   0.82494108   -7.1286046    773.87999  0.024699348  0.024428181            5 
 2612000   0.84602429   -7.1280068    774.60833   0.02471313  0.024421035            4 
 2613000   0.84552805   -7.1031389    774.75018  0.024708196  0.024413965            4 
 2614000   0.83234005   -7.1196464    773.58343  0.024661548  0.024406903            6 
 2615000   0.84757955   -7.1457472    773.82752  0.024659895  0.024399816            3 
 2616000   0.83375656   -7.1251524    772.43866  0.024606226  0.024392705            5 
 2617000    0.8169556   -7.1189713    775.29541  0.024687792  0.024385588            8 
 2618000   0.85386242   -7.0838327    775.21397  0.024675769  0.024378518            8 
 2619000   0.84042317   -7.1259743    775.53473  0.024676554  0.024371498            5 
 2620000   0.81981377   -7.1288501      775.537  0.024667207  0.024364451            5 
 2621000    0.8330826   -7.1014345    779.20269  0.024774345  0.024357325           10 
 2622000   0.81538134   -7.1382397    775.44826  0.024645571  0.024350238            6 
 2623000   0.84187733   -7.1333764    776.28915  0.024662891  0.024343138            4 
 2624000   0.82328752   -7.0996721    777.55204  0.024693599  0.024336083            5 
 2625000    0.8443452   -7.1146751    778.28802  0.024707556  0.024329067            6 
 2626000   0.83113093   -7.1244547    776.66911  0.024646773   0.02432207            6 
 2627000   0.82447062   -7.1335699    778.69068  0.024701519  0.024315116            3 
 2628000   0.82748505   -7.1233883    779.03205  0.024702944  0.024308171           13 
 2629000   0.81747505    -7.145647    778.79105  0.024685909  0.024301186           14 
 2630000   0.81398438   -7.1496871    777.14175  0.024624263    0.0242942            5 
 2631000   0.82819204   -7.1164653    777.83241   0.02463678  0.024287232           10 
 2632000   0.82854314    -7.152735    777.10652  0.024604436   0.02428026            6 
 2633000   0.83655967   -7.1236131    780.59745  0.024705578  0.024273337            9 
 2634000   0.85200233   -7.1225598    777.27095  0.024590956  0.024266352           15 
 2635000    0.8224854    -7.133141    778.46217  0.024619297  0.024259331            5 
 2636000   0.83872888   -7.1381539    777.93287  0.024593224  0.024252306            5 
 2637000   0.81827361   -7.1108446    777.90086  0.024582886  0.024245329           13 
 2638000    0.8366068   -7.1223467    778.17407  0.024582198  0.024238376            7 
 2639000    0.8363615   -7.1266091    777.77955  0.024560425  0.024231408            6 
 2640000   0.81716821   -7.1206064    780.19076  0.024627233  0.024224475            3 
 2641000   0.82359428    -7.115822    780.71246   0.02463437  0.024217565            5 
 2642000   0.83672398   -7.1404475    779.58536  0.024589495  0.024210651            5 
 2643000   0.84635565   -7.1154216    780.30628  0.024602922   0.02420373            7 
 2644000   0.84006784   -7.1238383    779.35808  0.024563732  0.024196836            5 
 2645000   0.82766557    -7.127891    779.39802  0.024555703  0.024189929            8 
 2646000    0.8449778   -7.1386536    780.74042    0.0245887  0.024182998            8 
 2647000    0.8289289   -7.1684964    781.05309  0.024589255  0.024176098            7 
 2648000   0.81469992   -7.1430459    780.81143  0.024572364  0.024169229            8 
 2649000   0.83984052   -7.1240053    781.75092  0.024592643  0.024162367            3 
 2650000   0.83533526   -7.1009418     782.3883  0.024603406  0.024155566            5 
 2651000   0.81097687   -7.1328398    780.12976  0.024523128  0.024148741            6 
 2652000   0.81801218   -7.1293605    780.70717  0.024532025  0.024141887           11 
 2653000   0.82065464   -7.1302018    780.38744  0.024512735  0.024135086            5 
 2654000   0.81525242   -7.0980351    782.08673  0.024556855  0.024128257            5 
 2655000   0.83700555   -7.1246474    781.60903  0.024532612  0.024121513            6 
 2656000   0.81930558   -7.1131235    782.74403  0.024558987  0.024114762            7 
 2657000   0.82347622   -7.1285654    782.41862  0.024539538  0.024107963            6 
 2658000   0.83337111   -7.1232243    784.57781     0.024598  0.024101197           10 
 2659000   0.81710997    -7.126552    782.60134  0.024526807  0.024094424            6 
 2660000   0.81639736   -7.1313307    781.36601  0.024478885  0.024087613            4 
 2661000    0.8409743   -7.1031421    783.73979  0.024544025   0.02408083            6 
 2662000   0.83000957   -7.1459001    781.77068  0.024473162  0.024074042            5 
 2663000   0.81805992    -7.148257    781.79853  0.024464843  0.024067255            3 
 2664000   0.82189926   -7.1596755    784.45426  0.024538734  0.024060509            4 
 2665000   0.83009035   -7.1492586    784.02537  0.024516115  0.024053788            4 
 2666000   0.82260774   -7.1388622    782.42462  0.024456884  0.024047082            7 
 2667000   0.81685847   -7.1639764    783.80864  0.024490959  0.024040344            7 
 2668000   0.83883005   -7.1298759    782.66105  0.024445935  0.024033614            6 
 2669000   0.82670605   -7.1590278    786.26741  0.024549376  0.024026911            7 
 2670000   0.82635428   -7.1326661     783.2082    0.0244447  0.024020183            4 
 2671000   0.83513682   -7.1391471    783.13211  0.024433175  0.024013437            7 
 2672000   0.81099123   -7.1508149    783.83448  0.024445936  0.024006711            3 
 2673000   0.82554346    -7.109282    785.22795  0.024480233  0.024000029            5 
 2674000    0.8196952   -7.1430889    784.89981  0.024460852  0.023993346            5 
 2675000   0.83915537   -7.1283013    785.01743  0.024455372  0.023986657           12 
 2676000   0.82832482   -7.1241041    785.50026  0.024461269  0.023980005            6 
 2677000   0.82747439   -7.1327843    788.24886  0.024537693  0.023973336            7 
 2678000   0.83564934   -7.1634258    786.64392  0.024478589  0.023966712            5 
 2679000   0.83752962   -7.1375446    784.95797  0.024417008  0.023960079            9 
 2680000   0.81819514   -7.1504345    785.23403  0.024416481  0.023953435            5 
 2681000   0.84609486    -7.159606    787.90499  0.024490395  0.023946777            9 
 2682000   0.82648066   -7.1656015    785.02713  0.024391845  0.023940103            4 
 2683000   0.81380684   -7.1339552    788.36414    0.0244864  0.023933475            4 
 2684000   0.84382204   -7.1430654    785.20928  0.024379324  0.023926858            2 
 2685000   0.82442562   -7.1470154    786.34528  0.024405502  0.023920225            6 
 2686000   0.81889835    -7.115824    785.61797  0.024373851  0.023913614            3 
 2687000   0.83254424   -7.1402216    786.27122   0.02438504  0.023906984            4 
 2688000   0.81490841   -7.1340453    785.20905  0.024343039  0.023900302            6 
 2689000   0.83231884   -7.1398364    786.18301  0.024364169  0.023893612            6 
 2690000   0.80993357   -7.1566143    785.67767  0.024339457  0.023886878            3 
 2691000   0.82028594   -7.1285136    785.15971  0.024314372   0.02388019            5 
 2692000   0.83927648   -7.1447966    785.74149   0.02432335  0.023873492            3 
 2693000   0.81929295   -7.1507743    785.14736  0.024295933  0.023866786            4 
 2694000   0.81733685   -7.1424943    786.60578  0.024332027  0.023860091            2 
 2695000   0.81999468   -7.1672787    786.64524  0.024324219  0.023853371            4 
 2696000   0.82262661   -7.1624231    784.50035  0.024248898  0.023846613            5 
 2697000    0.8112228   -7.1399726    786.32129  0.024296171  0.023839861            5 
 2698000   0.82272491   -7.1391706    786.42189  0.024290273  0.023833153           10 
 2699000   0.81174823   -7.1651812    786.39118  0.024280325  0.023826416            5 
 2700000    0.8185731   -7.1425655    786.83815  0.024285128  0.023819721            4 
 2701000   0.82128665   -7.1369844    785.28262  0.024228144  0.023813015            7 
 2702000   0.80902381   -7.1414242    787.90964  0.024300199  0.023806311           12 
 2703000   0.81434089   -7.1595456    786.63613  0.024251946  0.023799644            3 
 2704000    0.8275284   -7.1483925    788.40206  0.024297401  0.023792956            7 
 2705000   0.81081704   -7.1194892    785.85352  0.024209905  0.023786296            4 
 2706000   0.83063488   -7.1449607    788.73375  0.024289657   0.02377961            4 
 2707000   0.81026973    -7.141924    787.24674  0.024234908   0.02377293            5 
 2708000   0.83040811   -7.1396473    785.40932  0.024169415  0.023766286            9 
 2709000   0.81043629   -7.1787101    787.10009  0.024212504   0.02375962            5 
 2710000   0.81592546   -7.1655566    787.99737  0.024231161  0.023752945            3 
 2711000   0.82150138   -7.1904666    786.87399  0.024187692  0.023746249            6 
 2712000   0.82079366   -7.1619535    786.08134  0.024154417  0.023739556           10 
 2713000   0.83627951   -7.1089307    789.77443  0.024258952  0.023732889            9 
 2714000    0.7894898   -7.1712194    787.36344  0.024175984   0.02372621           12 
 2715000   0.80165164   -7.1592559    790.03893    0.0242492  0.023719538            7 
 2716000   0.83616937   -7.1554362    787.85062  0.024173129  0.023712864           12 
 2717000    0.8260935   -7.1585975     787.2311  0.024145231  0.023706208            9 
 2718000   0.79835639   -7.1260835     788.4794   0.02417462  0.023699557           11 
 2719000   0.82045769   -7.1544543     787.6251  0.024139546  0.023692821            4 
 2720000   0.81544068    -7.171266    785.61918  0.024069215  0.023686085            8 
 2721000   0.80845661   -7.1538857    788.12428   0.02413709  0.023679366           13 
 2722000   0.82133175   -7.1679229    789.59375  0.024173211  0.023672656            7 
 2723000    0.8356085   -7.1748212    789.11184  0.024149585  0.023665937           13 
 2724000   0.84364582   -7.1549104    787.81475  0.024101039  0.023659214            6 
 2725000   0.80727264   -7.1604144     787.7659    0.0240907  0.023652519            5 
 2726000   0.80456242   -7.1679111    788.24472    0.0240965  0.023645813            5 
 2727000   0.78407933   -7.1932838    786.48365  0.024033848  0.023639111            5 
 2728000   0.81684712   -7.1789679    787.68849  0.024061843  0.023632385            6 
 2729000   0.81351071   -7.1419258    789.97091  0.024122722  0.023625664            8 
 2730000   0.79565171   -7.1561665    787.96403  0.024052626  0.023618944            6 
 2731000   0.82900867   -7.1592844    788.72114  0.024066921  0.023612224           11 
 2732000   0.80470458   -7.1637341     789.6823   0.02408743  0.023605516           11 
 2733000   0.82462938     -7.16377    790.00123  0.024088341  0.023598819           11 
 2734000     0.812845   -7.1495127    789.05844  0.024050794  0.023592134            5 
 2735000   0.79243388   -7.1876422    788.38208  0.024021392  0.023585449           13 
 2736000    0.7850379   -7.1799726    788.61371  0.024019667  0.023578719           11 
 2737000   0.81525771    -7.184096    789.62132   0.02404157  0.023572043            7 
 2738000   0.80367933   -7.1749089    790.77883  0.024068019  0.023565397            4 
 2739000    0.8053413   -7.1268503    789.63035   0.02402429  0.023558774            5 
 2740000   0.80916042   -7.1597033    790.49022  0.024041673  0.023552186            6 
 2741000   0.81601694   -7.1508523    788.18282  0.023962751  0.023545543            5 
 2742000   0.82074945   -7.1600067    790.76546  0.024032502  0.023538914            7 
 2743000   0.82526208   -7.1664159    790.30684  0.024009808  0.023532244            7 
 2744000   0.79997993   -7.1889968    789.50005  0.023976556  0.023525569            6 
 2745000   0.81803628   -7.2040156    789.95262  0.023981561  0.023518864           13 
 2746000   0.81600728   -7.1890889    789.69277  0.023964942  0.023512135            5 
 2747000   0.81795551   -7.1645636    791.09748  0.023998832  0.023505441            3 
 2748000   0.81577482   -7.1522076    790.27735  0.023965228  0.023498776            9 
 2749000   0.83435963    -7.168348    789.85911  0.023943831  0.023492133            8 
 2750000   0.83161839   -7.1485403    790.27038  0.023947587  0.023485474            5 
 2751000   0.82931378   -7.1779555    789.59071  0.023918294  0.023478844            5 
 2752000    0.8017592   -7.1538207    790.32981  0.023931983  0.023472216            4 
 2753000    0.7979325   -7.1641898    790.39925  0.023925392   0.02346557            4 
 2754000    0.8181054   -7.1740631    791.25559  0.023942616   0.02345891            5 
 2755000   0.82299828   -7.1873077    788.90555  0.023862842  0.023452236           10 
 2756000   0.82738046   -7.1804466    791.77681  0.023941002  0.023445551            9 
 2757000   0.80405239   -7.1712562    789.80623  0.023872755  0.023438864            7 
 2758000   0.82510601   -7.1399881     791.8805  0.023926774  0.023432178            7 
 2759000   0.80936965   -7.1720078    789.47902  0.023845567    0.0234255            3 
 2760000   0.79719145   -7.1487506    792.91647  0.023940715  0.023418843            5 
 2761000   0.81626847   -7.1841964    791.50301  0.023889382  0.023412191           25 
 2762000   0.82226083   -7.1772707    790.74791  0.023857951  0.023405514            8 
 2763000    0.8034988   -7.1994855    790.09992  0.023829772  0.023398823            4 
 2764000   0.81090792   -7.1777994    792.02021  0.023879046  0.023392192            7 
 2765000   0.81960044   -7.1976555    790.66897  0.023829686  0.023385567            7 
 2766000   0.80651266   -7.1739536    791.44181  0.023844354  0.023378919           11 
 2767000   0.81556704   -7.1751157    790.27062  0.023800465  0.023372272            5 
 2768000   0.80662388   -7.1957331    790.91845   0.02381137  0.023365634            5 
 2769000   0.81029103   -7.1376239    791.64422  0.023824612  0.023358999            4 
 2770000   0.78965246   -7.1633263     792.3774  0.023838069  0.023352361            5 
 2771000   0.79960147   -7.1797575    792.56493  0.023835106  0.023345723           15 
 2772000   0.80397099   -7.1649096    795.06811  0.023901759  0.023339093            8 
 2773000   0.80970662   -7.1991834    793.76231  0.023853898    0.0233325            6 
 2774000     0.804783   -7.1677059     792.2989  0.023801337   0.02332591            6 
 2775000   0.79867266   -7.1557394    791.18051  0.023759175  0.023319333           15 
 2776000   0.80644598   -7.1831108    793.45246  0.023818818  0.023312783            5 
 2777000   0.81947421   -7.1770371    793.14828  0.023801113  0.023306207            6 
 2778000   0.82782289   -7.1711995    791.33617  0.023738186  0.023299653            4 
 2779000   0.81749556   -7.1449849    794.53722  0.023825633  0.023293108            6 
 2780000   0.81847385    -7.148842    794.20035  0.023806965  0.023286551            8 
 2781000   0.80202377   -7.1847132    794.90519  0.023819525  0.023280032            6 
 2782000   0.81242942   -7.1791233    794.41011  0.023796133  0.023273462            8 
 2783000   0.81184334   -7.1520816    795.94505  0.023833544  0.023266922            6 
 2784000   0.80340805   -7.1743843     794.1809  0.023772177  0.023260382            6 
 2785000   0.81434949   -7.1521747    796.22345  0.023824759  0.023253882            8 
 2786000   0.80715606   -7.1777063    795.73555  0.023801614  0.023247366            6 
 2787000    0.7988776   -7.1737186    793.69438  0.023732041  0.023240852            4 
 2788000   0.81194851   -7.1831998    794.63157  0.023751541  0.023234335            3 
 2789000   0.80693796   -7.1854988    794.35677  0.023734814  0.023227808            8 
 2790000   0.80236262   -7.1703145    793.20914  0.023692029  0.023221269            6 
 2791000   0.80143398   -7.1675281     795.4829   0.02375143   0.02321473           11 
 2792000   0.80319348   -7.1818906    794.65221  0.023718129  0.023208142            7 
 2793000   0.79686132   -7.1921564    797.47718  0.023793925  0.023201559            4 
 2794000   0.80337833   -7.1995522    793.69392   0.02367257  0.023194988            9 
 2795000   0.81243687   -7.2137746    794.41009  0.023685453  0.023188418            6 
 2796000   0.79304483   -7.1947355    794.06105  0.023666579  0.023181824           12 
 2797000   0.81445584   -7.2017176    794.47375  0.023670413  0.023175208            7 
 2798000   0.80478122   -7.1891603    794.06376  0.023649743  0.023168633            5 
 2799000    0.7871751   -7.1857142    795.60832  0.023687279  0.023162085            6 
 2800000   0.77689297   -7.1638947    796.96988  0.023719342  0.023155583           15 
 2801000   0.80080546   -7.1958825     793.7001  0.023613593  0.023149054            4 
 2802000   0.81032132   -7.1746623    797.44227  0.023716461  0.023142537            6 
 2803000   0.78098669   -7.2005693    796.04915  0.023666582  0.023136013            7 
 2804000   0.81202953   -7.1409304    799.16097  0.023750623   0.02312951            3 
 2805000   0.80099686   -7.1708716     796.8985  0.023674941  0.023123048            7 
 2806000   0.81087976     -7.16686    797.28121  0.023677869  0.023116579            4 
 2807000   0.81125309   -7.1722417    799.17357  0.023725614   0.02311012            6 
 2808000   0.80787555   -7.1896751    797.30881  0.023661824  0.023103624            8 
 2809000   0.79332207   -7.1965045     797.5401  0.023660262  0.023097119            3 
 2810000   0.79175392   -7.1913207    797.95601  0.023664176  0.023090621           13 
 2811000   0.79317582   -7.1651612    796.55609  0.023614256   0.02308413            7 
 2812000    0.7852248   -7.1958441    796.99816  0.023618959   0.02307763           11 
 2813000    0.8103922   -7.1943384    797.71291  0.023631737  0.023071106            4 
 2814000   0.80185261   -7.1894061     798.2284  0.023638605  0.023064598            9 
 2815000   0.79035234   -7.1867153    796.24735  0.023571561  0.023058096            6 
 2816000    0.8083684   -7.2172987    796.46937  0.023569761  0.023051585            5 
 2817000   0.79788675   -7.2112881    798.32666  0.023616337  0.023045059            4 
 2818000    0.7855252   -7.2086633    797.72374  0.023590127  0.023038534           12 
 2819000   0.81075751   -7.1865581    797.10546  0.023563482  0.023032004            7 
 2820000   0.79576823   -7.1914094    796.28573  0.023530902  0.023025521           13 
 2821000   0.81984407   -7.2029192     796.6531  0.023533413  0.023019015            5 
 2822000   0.80452623   -7.2169393    796.75891  0.023528198    0.0230125           11 
 2823000   0.80180657   -7.2216696    797.73673  0.023548729  0.023005976            6 
 2824000   0.77533907   -7.2187253     796.8848   0.02351525  0.022999438            6 
 2825000   0.81433524   -7.1757385    797.99805  0.023539766  0.022992902            5 
 2826000   0.80782684   -7.2050649    798.13512  0.023535478  0.022986431            4 
 2827000   0.78645899   -7.2081771    796.07527  0.023466433  0.022979938            5 
 2828000   0.80459087   -7.2346964    796.79782  0.023479426  0.022973439            3 
 2829000   0.80930973   -7.1870197    800.37742  0.023576571  0.022966955            5 
 2830000   0.81143843   -7.1754265    798.69951  0.023518831  0.022960559            6 
 2831000   0.80686446   -7.2030774    801.28862  0.023586737  0.022954147            4 
 2832000   0.80405223   -7.2083275    801.28448  0.023578286  0.022947763            8 
 2833000   0.79446969   -7.1929081     798.9225  0.023500485  0.022941363            4 
 2834000   0.79923169   -7.2095857    797.79898  0.023459156  0.022934918            7 
 2835000   0.79915493   -7.1935929    799.17787  0.023491413  0.022928493            9 
 2836000   0.78953072   -7.1907469    799.43074   0.02349056  0.022922064            8 
 2837000   0.78150318   -7.1974284    801.76001  0.023550699  0.022915633            8 
 2838000   0.78906734   -7.1819691    799.89646  0.023487681  0.022909221            5 
 2839000   0.79738822   -7.2129238    800.72955  0.023503862  0.022902785            7 
 2840000   0.80245673   -7.1853835    799.13358  0.023448755  0.022896397            5 
 2841000   0.79638302   -7.1590089    800.32991  0.023475593  0.022890011            4 
 2842000   0.80766596   -7.1961359    799.47855  0.023442369   0.02288364            6 
 2843000   0.81773484   -7.2052486    801.66558  0.023498229  0.022877256            8 
 2844000   0.79069626   -7.2122027    801.21561  0.023476782  0.022870886            6 
 2845000   0.79046435   -7.1908829    800.11881  0.023436403  0.022864522            9 
 2846000   0.80715609   -7.2091458    800.55077  0.023440817  0.022858118            6 
 2847000   0.79752549   -7.2222143    801.99641  0.023474898   0.02285175            3 
 2848000   0.80207111   -7.2301613    799.06634  0.023380921  0.022845356           13 
 2849000   0.79121231   -7.2053467    799.59382  0.023388143  0.022838959            4 
 2850000   0.78719136   -7.2046324    802.79871  0.023473647  0.022832574            4 
 2851000   0.80384978   -7.2274276    800.03014  0.023384489  0.022826203            3 
 2852000   0.79997853   -7.2026258    802.37124  0.023444695  0.022819806            8 
 2853000   0.79795936   -7.2084866    802.25846  0.023433183  0.022813387           13 
 2854000   0.79120326   -7.1846809    800.86498  0.023384285  0.022806991           21 
 2855000   0.80686374   -7.1998609    799.03195  0.023322591  0.022800574            8 
 2856000   0.80586394   -7.2144626    798.60556  0.023301983  0.022794148            7 
 2857000   0.80538419   -7.1909784    802.42619  0.023405267  0.022787749            6 
 2858000   0.79547066   -7.2214817     801.5674  0.023372037  0.022781364           13 
 2859000   0.79723056   -7.1788474    802.18977  0.023382003  0.022775005           11 
 2860000   0.79965566   -7.2002102    802.04624  0.023369646   0.02276867            6 
 2861000   0.79535364   -7.1824835    801.55989  0.023347311  0.022762312            8 
 2862000   0.79798739   -7.2159604    797.82856  0.023230508  0.022755911            9 
 2863000   0.80877607   -7.2044571     801.2984   0.02332339  0.022749475            7 
 2864000   0.78264108   -7.1873885    802.30727  0.023344602  0.022743066           11 
 2865000   0.80382881   -7.2327351    801.01649  0.023298909  0.022736653            6 
 2866000   0.79849284   -7.2390843    800.64706  0.023280038   0.02273023            4 
 2867000   0.78493545   -7.2211738    800.20298   0.02325901  0.022723785            8 
 2868000   0.78948195   -7.2234778    802.40469  0.023314873  0.022717363            8 
 2869000   0.79160134   -7.1976201    802.17501  0.023300076  0.022710955            4 
 2870000   0.78232016   -7.1953267    801.88817  0.023283629  0.022704569            8 
 2871000    0.7755544   -7.2248099    802.19745  0.023284496  0.022698171            9 
 2872000   0.79389721   -7.2023953    802.27751  0.023278711   0.02269176            8 
 2873000   0.79962699   -7.1975594    801.49372  0.023247874  0.022685372            5 
 2874000   0.79134389   -7.2337348    801.45564  0.023238681  0.022678936            6 
 2875000   0.79759692   -7.1958203    803.26395  0.023283013   0.02267258            9 
 2876000   0.78987743   -7.2087165    802.25838  0.023245781  0.022666203           17 
 2877000    0.8027685   -7.2098232    803.01006  0.023259473  0.022659846           13 
 2878000   0.77610133   -7.2309469    803.10928  0.023254264  0.022653498            6 
 2879000   0.78807854   -7.2301544    803.98634  0.023271574  0.022647119           11 
 2880000    0.8017845   -7.2252029    803.00571  0.023235119  0.022640741            3 
 2881000   0.77624626   -7.2155754    802.06037   0.02319971  0.022634363            4 
 2882000   0.76365794    -7.205643    804.65167  0.023266588  0.022628004            5 
 2883000   0.79324301   -7.1943115    803.11247  0.023214027  0.022621657            3 
 2884000   0.79221962   -7.2122984    804.08874  0.023234187  0.022615339            5 
 2885000   0.78833319   -7.1877435    802.96893  0.023193788  0.022609019            6 
 2886000   0.78498563   -7.2108206    803.95545  0.023214237  0.022602698            7 
 2887000   0.78938237   -7.1873889    803.46491  0.023192036  0.022596378            5 
 2888000     0.780577   -7.2043046    804.09284  0.023202125  0.022590045            9 
 2889000   0.79104372   -7.2116351    801.88173  0.023130314  0.022583713            6 
 2890000   0.81365172   -7.2047269    804.17405   0.02318841  0.022577379            7 
 2891000   0.78722459   -7.2345982    805.00934  0.023204466  0.022571041            3 
 2892000   0.77980305     -7.19752    805.01325  0.023196555  0.022564731            6 
 2893000   0.78413993   -7.2270069    804.03821  0.023160451  0.022558381            9 
 2894000   0.77898887   -7.2209961    805.70275  0.023200379  0.022552028            6 
 2895000   0.78312764   -7.2142307    804.98124  0.023171596  0.022545702            5 
 2896000   0.78699198   -7.1914415    803.65097  0.023125316  0.022539379            5 
 2897000   0.77821274   -7.2079353    804.82874  0.023151212  0.022533054            7 
 2898000   0.78537958   -7.1913008    805.34382  0.023158035  0.022526737            5 
 2899000   0.77928306   -7.2089674    805.80716  0.023163366   0.02252046           11 
 2900000    0.7879256   -7.1712843    805.05761  0.023133839  0.022514184            6 
 2901000   0.78695236   -7.2205699    805.10674  0.023127276  0.022507941            6 
 2902000   0.78677261   -7.1991925    804.77216  0.023109699  0.022501683            6 
 2903000   0.79437119    -7.217219    804.40254  0.023091128  0.022495392            7 
 2904000   0.78923885   -7.2106412    805.72998  0.023121269   0.02248912            4 
 2905000   0.79175687   -7.2177518    807.43251  0.023162149  0.022482856           13 
 2906000   0.79159197   -7.2621805    804.28795  0.023064004  0.022476549            7 
 2907000   0.78240211   -7.2343752      804.702  0.023067939   0.02247024            7 
 2908000   0.77278473   -7.2569484    805.69991  0.023088604  0.022463911            9 
 2909000   0.77408894   -7.2563183    803.97778  0.023031333   0.02245759           12 
 2910000   0.78369173   -7.2170359    805.93475   0.02307946  0.022451306            5 
 2911000   0.77600461   -7.2343212    806.48361  0.023087244  0.022445041            9 
 2912000   0.77667577      -7.1886    806.98135   0.02309356  0.022438763            8 
 2913000   0.80312503   -7.2322287    805.19097  0.023034414  0.022432512            4 
 2914000   0.79284133    -7.215773     807.6356   0.02309642  0.022426261            4 
 2915000    0.7874243   -7.2405926    806.79689  0.023064519  0.022420018            7 
 2916000   0.79409259   -7.2606812     808.4907  0.023105016  0.022413774           13 
 2917000   0.77801415   -7.2524838    807.02201  0.023055137   0.02240754            4 
 2918000   0.78300015   -7.2220705    808.71944  0.023095712  0.022401345            7 
 2919000   0.79101848   -7.2236187    808.74442  0.023088513  0.022395168            6 
 2920000   0.80136315   -7.2552655    807.13127  0.023034568  0.022388974            8 
 2921000   0.79126092    -7.235947    806.97413  0.023022199  0.022382794            6 
 2922000   0.78917141   -7.2295006     806.0978  0.022989328  0.022376581           10 
 2923000   0.80530993   -7.2421072    808.86458  0.023060343  0.022370409            5 
 2924000   0.80304509   -7.2038784    809.73616  0.023077296  0.022364219            8 
 2925000   0.79454639   -7.2100942    810.18619  0.023082228  0.022358048            8 
 2926000    0.7637847   -7.2616643    808.46067  0.023025196  0.022351872            6 
 2927000   0.79011193   -7.2239683    808.83627  0.023028023  0.022345695            8 
 2928000   0.78232516    -7.219519    808.41471   0.02300816  0.022339485            8 
 2929000   0.79171105   -7.2225293    807.75081  0.022981416  0.022333308            6 
 2930000   0.77864352   -7.2095957    808.57745  0.022997083  0.022327145            5 
 2931000   0.78066127   -7.2154852    809.79682  0.023023906  0.022320992           10 
 2932000   0.79315659   -7.2080177    807.61277  0.022953978  0.022314802            8 
 2933000   0.77933781   -7.2362941    809.04624   0.02298688  0.022308626            4 
 2934000   0.78985084   -7.2228328    807.00437  0.022921051  0.022302403           10 
 2935000    0.7650888   -7.2202601    808.10775   0.02294457  0.022296197            4 
 2936000    0.7758295   -7.2464581    808.36151  0.022943958  0.022289962            4 
 2937000   0.77930913   -7.2592616    809.60196  0.022971341  0.022283711            7 
 2938000   0.79359492   -7.2401841    808.62034   0.02293568  0.022277456            6 
 2939000   0.76784382   -7.2464648    808.01553  0.022910727  0.022271226           19 
 2940000   0.79070671   -7.2340361    810.07816  0.022961399  0.022264987           12 
 2941000   0.77709749   -7.2486522    809.03227  0.022923956  0.022258766            6 
 2942000   0.78482831   -7.2160106    807.84288  0.022882474  0.022252547           15 
 2943000   0.78336628   -7.2622149    807.63422  0.022868791  0.022246328            7 
 2944000   0.77727817   -7.2350459    807.90826   0.02286878  0.022240082            8 
 2945000   0.77545883   -7.2280777    808.19711  0.022869188  0.022233855           13 
 2946000   0.78256162   -7.2338669    806.97543  0.022826868   0.02222761            9 
 2947000   0.78990339   -7.2453915    809.21317  0.022882399  0.022221389            5 
 2948000   0.79177175   -7.2484368    810.92407  0.022923001  0.022215178            6 
 2949000   0.78838986   -7.2183045    808.44798  0.022845258  0.022208986           12 
 2950000   0.78718982   -7.2391791    809.38138  0.022863881   0.02220275           26 
 2951000   0.77588073   -7.2455746    809.56102  0.022861206  0.022196522           19 
 2952000   0.77322199   -7.2530787    807.45335  0.022793963   0.02219031           11 
 2953000   0.77955675   -7.2523961    808.73321  0.022822362  0.022184092            5 
 2954000   0.77107481   -7.2612908    807.47058  0.022779017  0.022177864            8 
 2955000   0.76651335   -7.2054977     808.3541  0.022796224  0.022171633            9 
 2956000    0.7899407   -7.2644993    808.38794  0.022789466  0.022165389            7 
 2957000   0.77919411   -7.2301526    808.83098  0.022794245  0.022159132            9 
 2958000   0.79193863   -7.2490168    808.00466  0.022763259  0.022152893            7 
 2959000   0.79343567   -7.2594607    809.71358  0.022803694  0.022146654            6 
 2960000    0.7951109   -7.2487042    808.53192  0.022762723  0.022140393            7 
 2961000   0.77798424   -7.2107726    809.07784    0.0227704  0.022134147            9 
 2962000   0.76867336   -7.2436208    809.66108  0.022779121  0.022127894            4 
 2963000   0.79825753   -7.2540467    809.52845  0.022767703  0.022121592            5 
 2964000   0.78876029   -7.2484116    808.78344  0.022739076  0.022115309            7 
 2965000   0.77757964   -7.2579607    808.65451  0.022727783  0.022109021           12 
 2966000   0.76382449   -7.2489549    807.12041  0.022677018  0.022102753            5 
 2967000   0.78897168   -7.2513559    808.58825  0.022710601   0.02209648            9 
 2968000   0.76744559   -7.2208055    808.47305  0.022699715   0.02209024            5 
 2969000    0.7901683   -7.2524592    808.81434  0.022701649  0.022084004            6 
 2970000   0.74145299   -7.2295851    808.37937  0.022681801  0.022077758            6 
 2971000   0.77875584   -7.2559471    809.71048  0.022711502  0.022071531            6 
 2972000   0.79158102   -7.2455656    808.01571   0.02265634  0.022065275           16 
 2973000   0.78525029   -7.2381031    810.24419  0.022711184  0.022059015            8 
 2974000   0.75911867   -7.2528039    808.59201  0.022657252  0.022052768            4 
 2975000   0.78251252    -7.245273    808.78901  0.022655154  0.022046492            8 
 2976000   0.77560129   -7.2350359     809.8525  0.022677321  0.022040233            7 
 2977000   0.76181242   -7.2280147    807.63304  0.022607576  0.022033965           11 
 2978000   0.77035426    -7.221544    809.43557  0.022650424  0.022027707           12 
 2979000   0.79007708   -7.2653032    808.04701  0.022603978  0.022021425            9 
 2980000   0.76722789   -7.2213953    808.43277   0.02260718  0.022015116           10 
 2981000     0.769695   -7.2522078    807.09598  0.022562227  0.022008818           24 
 2982000   0.77224814    -7.246584    807.83507  0.022575315  0.022002489            8 
 2983000   0.77705477   -7.2553399    809.89729  0.022625357  0.021996159            3 
 2984000    0.7723578   -7.2445994    809.59213  0.022609253  0.021989842            9 
 2985000   0.78429674   -7.2682496    807.34363  0.022538906  0.021983533           10 
 2986000   0.76298406   -7.2636583    810.12595  0.022609007  0.021977245            7 
 2987000   0.78255577   -7.2467452    809.10443  0.022572939  0.021970971            5 
 2988000   0.75776271   -7.2417308    810.00105  0.022590391  0.021964706           11 
 2989000   0.77798217   -7.2527452    810.32848  0.022591962  0.021958415            9 
 2990000   0.78903049   -7.2670261     810.5789  0.022591385  0.021952138           15 
 2991000   0.78565382   -7.2775594    809.98104  0.022567175  0.021945865            7 
 2992000   0.77768662   -7.2770496    809.33006  0.022541501  0.021939604            5 
 2993000   0.76802782    -7.265427    810.30832  0.022561207  0.021933328           13 
 2994000    0.7715939   -7.2437515    811.51146  0.022587159   0.02192705           12 
 2995000   0.76620834   -7.2633586    810.77282  0.022559066  0.021920791           16 
 2996000   0.77985167    -7.269981    810.28051  0.022537842  0.021914504            8 
 2997000   0.77040931   -7.2562737    810.26412  0.022529867  0.021908231            7 
 2998000   0.77095158   -7.2382147    809.71626  0.022507123  0.021901958           16 
 2999000   0.75453053   -7.2611296    809.04793  0.022481047  0.021895683           18 
 3000000   0.77396742   -7.2264426     808.7702  0.022465839  0.021889421           14 
 3001000   0.76543944   -7.2489381    810.37788  0.022502996  0.021883169           12 
 3002000   0.78263951   -7.2557015    811.17993  0.022517764  0.021876919            6 
 3003000   0.76607799   -7.2483955    810.86283  0.022501466  0.021870644            5 
 3004000   0.75338206   -7.2467207    810.34342  0.022479567  0.021864365            5 
 3005000   0.77551952   -7.2461828    810.83077  0.022485601  0.021858089           10 
 3006000   0.76577759   -7.2553274    810.26573  0.022462457  0.021851792            7 
 3007000   0.78173828    -7.251127    809.84062  0.022443205  0.021845543            4 
 3008000   0.76732742   -7.2598174    808.48407  0.022398162  0.021839265            5 
 3009000   0.77583888   -7.2501346    811.96487  0.022487118  0.021832973            4 
 3010000   0.76431153   -7.2468372    812.75298  0.022501467    0.0218267            5 
 3011000   0.77035278    -7.266469    812.10965  0.022476189   0.02182046            5 
 3012000   0.76205056   -7.2689091    809.83757  0.022405864  0.021814198            7 
 3013000    0.7584016   -7.2741988    808.56669  0.022363278  0.021807907            8 
 3014000   0.78171703   -7.2718248    810.26122   0.02240271  0.021801607            6 
 3015000   0.75566695   -7.2212109    810.67381  0.022406684  0.021795349            3 
 3016000   0.77029511    -7.273692    810.79595  0.022402629  0.021789123            4 
 3017000   0.76874898   -7.2313013    812.05879  0.022430085  0.021782888            7 
 3018000   0.77592117    -7.268583    809.69889  0.022357491  0.021776651            8 
 3019000   0.76737354   -7.2530707    812.45496  0.022426161    0.0217704            8 
 3020000   0.77645126   -7.2672103    810.02765  0.022351756   0.02176416            9 
 3021000   0.75182921   -7.2741119    811.06918  0.022373088  0.021757882            7 
 3022000   0.77128645   -7.2664811    809.93718  0.022334469  0.021751599            7 
 3023000   0.75793473   -7.2744236    810.52069  0.022343166  0.021745317           16 
 3024000   0.78876604    -7.259717    810.80201   0.02234353  0.021739027            9 
 3025000   0.77566022   -7.2457187    812.65448  0.022387176  0.021732779            5 
 3026000   0.77728157   -7.2671799    810.97424  0.022333505  0.021726529           11 
 3027000   0.76373851   -7.2775888    809.78944   0.02229351  0.021720278            6 
 3028000   0.75589878   -7.2478245    810.62887  0.022309249  0.021714041            5 
 3029000   0.77891796   -7.2615145    811.25133  0.022319009  0.021707791            7 
 3030000   0.76814187   -7.2861879    811.38521  0.022315325  0.021701551           12 
 3031000   0.76780826    -7.243745    811.52985  0.022311939  0.021695303           12 
 3032000   0.76976354   -7.2842403    811.74386  0.022310462  0.021689056            6 
 3033000   0.76833144   -7.2487656    812.37238  0.022320375  0.021682804           14 
 3034000   0.75949499   -7.2603463    811.53339  0.022289974  0.021676542           30 
 3035000   0.78011793   -7.2652659    810.64981  0.022258369  0.021670286           11 
 3036000   0.77676585   -7.2910234    811.32527  0.022269578  0.021664019           13 
 3037000   0.77000612   -7.2477848    811.73091  0.022273376  0.021657785            6 
 3038000   0.76973171   -7.2655753    810.72739  0.022238517  0.021651575           10 
 3039000    0.7805358   -7.2711307    813.97932  0.022320372  0.021645366           10 
 3040000    0.7515288    -7.263367     810.5551  0.022219164  0.021639148           15 
 3041000   0.78352365   -7.2806587    812.45508  0.022263923  0.021632924            5 
 3042000   0.76851412   -7.2890594     811.6413  0.022234311  0.021626672            8 
 3043000   0.75664541   -7.2783781    811.94778  0.022235398  0.021620403           13 
 3044000   0.77935277   -7.2960757    811.53258  0.022216726  0.021614145            7 
 3045000   0.78452176   -7.3043954    811.61084  0.022211572  0.021607904            8 
 3046000   0.78854232   -7.2760837    812.93906  0.022240618  0.021601666            6 
 3047000   0.75705705   -7.2394733    811.92848   0.02220568  0.021595434            8 
 3048000   0.78259719   -7.2621793      810.913  0.022170631  0.021589209            6 
 3049000   0.75537881   -7.2936015    811.26774  0.022173055  0.021582964           13 
 3050000   0.77015374   -7.2745994    811.93238  0.022183945  0.021576702           15 
 3051000   0.75650992   -7.2715399    812.95786  0.022204683  0.021570449            4 
 3052000    0.7795199    -7.246511    813.94828  0.022224451  0.021564213            7 
 3053000   0.74860496   -7.2464429    814.01487  0.022218989  0.021557952            8 
 3054000   0.76185058   -7.2740013    812.08774  0.022159129   0.02155172            4 
 3055000   0.74980347   -7.2659835    813.63385  0.022194049  0.021545495            4 
 3056000   0.75919144   -7.2628148    812.08725  0.022144613  0.021539275            3 
 3057000   0.76864597   -7.2638819    812.61402  0.022151729  0.021533025            6 
 3058000   0.76343771   -7.2774526    811.21693  0.022106413  0.021526762            6 
 3059000   0.77740682   -7.2633908    811.99657  0.022120425  0.021520533            4 
 3060000   0.76707249   -7.2389881    812.69701  0.022132271  0.021514301            5 
 3061000   0.75638769    -7.257137    810.71808  0.022071166  0.021508048           13 
 3062000   0.74315204   -7.2782266    813.06384  0.022127799  0.021501812           14 
 3063000   0.75311002   -7.3000836    811.84383  0.022087383  0.021495551           12 
 3064000   0.76595927   -7.2528149    812.32882  0.022093364  0.021489293           17 
 3065000   0.74203342   -7.2447809    812.79096  0.022098721  0.021483058           14 
 3066000   0.77360033   -7.2686569    814.03514   0.02212533  0.021476793            8 
 3067000   0.76354804   -7.2981095    812.52868  0.022077184  0.021470517            5 
 3068000   0.76105113   -7.2648285    812.37657  0.022065856  0.021464232            7 
 3069000   0.76245616   -7.2759712    812.15651  0.022052691  0.021457936            7 
 3070000   0.75532159   -7.2936512    811.62621  0.022031113  0.021451643           10 
 3071000   0.75984021   -7.2941957    811.65371  0.022024686  0.021445339            8 
 3072000    0.7543962   -7.2899467    811.67634   0.02201813  0.021439078           13 
 3073000   0.75063949   -7.2848741    814.52981  0.022088345   0.02143279            6 
 3074000   0.77590621   -7.2929411    811.71246  0.022004784  0.021426494            6 
 3075000   0.76802269   -7.2747255    812.07232   0.02200738  0.021420205            7 
 3076000   0.74002097   -7.2717925    812.24782   0.02200498  0.021413935           13 
 3077000   0.74697567   -7.2808662    812.27829  0.021998654  0.021407676            7 
 3078000   0.74888285   -7.2922492    811.02738   0.02195764  0.021401419           13 
 3079000   0.75133459   -7.2730432    814.37105  0.022041005  0.021395147           17 
 3080000   0.75552831   -7.2702733    813.72888  0.022016474  0.021388907           10 
 3081000   0.74042233   -7.3034877    813.06288  0.021991315  0.021382639            8 
 3082000   0.76315438   -7.2774129    813.57947  0.021998147  0.021376364            6 
 3083000   0.75695666   -7.2965331    815.24755    0.0220361  0.021370107           11 
 3084000   0.76116521   -7.2968687     811.4543  0.021926456  0.021363873            5 
 3085000   0.74628456   -7.2746952    813.18984   0.02196623  0.021357617            4 
 3086000   0.76429263   -7.2755492    810.49377  0.021886308  0.021351349           10 
 3087000   0.75839157   -7.2709625    812.81271  0.021941818   0.02134506            8 
 3088000   0.74725664   -7.2917569    812.95626  0.021938587  0.021338794            4 
 3089000   0.76043537   -7.2900401     812.2067  0.021911263  0.021332519           21 
 3090000   0.76196214   -7.2680781    813.39088  0.021936108  0.021326262           15 
 3091000    0.7668949   -7.3036496    813.68899  0.021937048  0.021320007           10 
 3092000   0.77794586   -7.2999846    813.41946  0.021922689  0.021313756            7 
 3093000   0.75786147    -7.295931    812.95629  0.021903122  0.021307507            6 
 3094000   0.75133303   -7.2974244    813.03063  0.021898045  0.021301242           13 
 3095000   0.76620187   -7.2664497    813.38476  0.021900505  0.021294991            4 
 3096000   0.74902529   -7.2654354    814.23976  0.021916445  0.021288758            3 
 3097000   0.74651534   -7.2814146    812.80682  0.021870811  0.021282527            6 
 3098000   0.74897309   -7.2849712    814.08398  0.021898106  0.021276286            8 
 3099000   0.74910334   -7.2841394    812.27768  0.021842467  0.021270047            7 
 3100000   0.75655563   -7.2714604    814.45551  0.021893965  0.021263806            6 
 3101000   0.75223007    -7.284858    814.70727   0.02189367  0.021257589            7 
 3102000   0.74914829   -7.2895073     813.8408  0.021863336   0.02125135           11 
 3103000   0.75779824   -7.2856563    813.03446  0.021834635  0.021245119           10 
 3104000   0.75841093   -7.2372996    815.06062  0.021881997  0.021238926            8 
 3105000    0.7626673   -7.2624416    815.57078  0.021888641  0.021232744            7 
 3106000   0.74857713   -7.2967802    812.46843  0.021798359  0.021226553           11 
 3107000   0.78893091    -7.279417    814.11859  0.021835602   0.02122033            8 
 3108000   0.75590903   -7.2906649    814.94171  0.021850647  0.021214117            8 
 3109000   0.74560623   -7.2793994    814.53313  0.021832667  0.021207925            7 
 3110000    0.7453782   -7.3186482    813.85812   0.02180756  0.021201721           12 
 3111000   0.75748635   -7.2948529    814.51515  0.021818149  0.021195497            6 
 3112000   0.74914846   -7.2915951    813.08242  0.021772773  0.021189263            7 
 3113000   0.74251726   -7.2820143    813.09671  0.021766161  0.021183018            9 
 3114000   0.77259178   -7.2911258    814.27778  0.021790778  0.021176774            5 
 3115000   0.74365872    -7.300849    814.21317  0.021782054  0.021170558            7 
 3116000   0.75749492   -7.3171051    814.54278  0.021783878  0.021164336           16 
 3117000   0.77694841   -7.3086236    814.25195  0.021769114  0.021158105            5 
 3118000   0.73469268   -7.2973705    815.00763  0.021782329   0.02115191            6 
 3119000   0.75363887   -7.3009401    815.49089  0.021788257  0.021145739           15 
 3120000   0.76345319   -7.2871291    816.28906  0.021802592  0.021139576            8 
 3121000   0.75511486   -7.2962521    814.64998  0.021751842  0.021133415           21 
 3122000   0.75830737   -7.2889033    815.52134  0.021768133  0.021127237            5 
 3123000   0.74352387   -7.2754932    815.19256   0.02175239    0.0211211            6 
 3124000   0.75201332   -7.2799514    815.80387  0.021761734  0.021114948            6 
 3125000   0.75699271   -7.3005476    818.48455  0.021826255  0.021108785            6 
 3126000   0.76022029   -7.3026779     816.5367  0.021767346   0.02110264            5 
 3127000   0.75295142   -7.2772548    814.98487   0.02171903  0.021096487           13 
 3128000    0.7463952   -7.2892364    815.89229  0.021736261  0.021090333            7 
 3129000   0.75629473   -7.3129626    815.97312  0.021731467  0.021084133            9 
 3130000   0.74995624   -7.3032232    815.02691  0.021699332  0.021077958            4 
 3131000    0.7337605   -7.3019772    814.72371  0.021684332  0.021071768            9 
 3132000   0.75254902   -7.3335952    815.26069  0.021691696  0.021065552           21 
 3133000   0.74983914    -7.298146    815.68888  0.021696161  0.021059344            6 
 3134000   0.75191087   -7.3085872    815.63659  0.021687848   0.02105317            9 
 3135000   0.76585815   -7.3068428    814.87306  0.021660634  0.021047012           15 
 3136000    0.7534581   -7.3166872    815.66974  0.021674897   0.02104082           12 
 3137000   0.74410703   -7.3024675    814.65914  0.021641142  0.021034621           11 
 3138000   0.74845302   -7.2786814    813.66369   0.02160781  0.021028441            5 
 3139000     0.753823   -7.3172523    815.01072  0.021636687  0.021022225           10 
 3140000    0.7677046   -7.3129926    815.53807  0.021643792  0.021016013           10 
 3141000   0.74593542   -7.3265897    814.21359  0.021601761  0.021009794            9 
 3142000   0.74893215   -7.3017555    815.54948  0.021630317  0.021003586            6 
 3143000   0.74105657   -7.3267278    813.91732   0.02158016  0.020997355           12 
 3144000   0.72206758   -7.2985033    817.26779  0.021662102  0.020991161           12 
 3145000   0.73289657   -7.3016961    817.31332  0.021656421  0.020984981            9 
 3146000   0.73898615   -7.3102536    817.50463  0.021654605  0.020978797            7 
 3147000    0.7599937   -7.2909542    815.91822  0.021605715  0.020972631            8 
 3148000   0.74506123   -7.3146713    814.95032   0.02157323  0.020966488            7 
 3149000   0.75698297   -7.3024533    814.92816  0.021565792  0.020960337            7 
 3150000   0.73927313   -7.3216444    814.84481  0.021556741  0.020954173            6 
 3151000   0.73544856   -7.3298223    817.14843  0.021610823  0.020948029           10 
 3152000   0.76842582   -7.2955177    817.57811  0.021615327  0.020941896            5 
 3153000   0.73321629   -7.2814505    818.70776  0.021638327  0.020935755            9 
 3154000   0.74296718   -7.3037577    816.97565  0.021585702  0.020929626            9 
 3155000   0.74336087   -7.2909629    814.87733  0.021523437  0.020923521            7 
 3156000   0.75506197   -7.3136669    817.20341  0.021578037    0.0209174           13 
 3157000   0.74729851   -7.2709717     816.9806   0.02156532  0.020911271           15 
 3158000   0.75057513   -7.3100417    817.01209  0.021559323  0.020905148           11 
 3159000   0.73986565    -7.306864    817.14644  0.021556042  0.020899028           15 
 3160000   0.74819602   -7.3042022    817.66178  0.021562811  0.020892898           10 
 3161000   0.74321423   -7.3171437    817.64449  0.021555533  0.020886788           12 
 3162000   0.74785001   -7.3211302    817.76671  0.021551937  0.020880678            9 
 3163000   0.74831373   -7.3277331    817.78432  0.021545587  0.020874534           10 
 3164000    0.7277424   -7.2811026    817.45583  0.021530126  0.020868417           10 
 3165000   0.74348269   -7.3146751    815.49287   0.02147164  0.020862268           16 
 3166000   0.75566488   -7.2925342    818.05279  0.021532238  0.020856155           12 
 3167000   0.74851609   -7.2875459    818.11433  0.021527059  0.020850051            8 
 3168000   0.75104819   -7.3140677    818.25114  0.021523862  0.020843968           11 
 3169000   0.74645959   -7.3032978    818.11152  0.021513399  0.020837883           14 
 3170000   0.74743125   -7.2995087    819.60919  0.021545983  0.020831795            5 
 3171000   0.73319885   -7.2987792     817.9141  0.021494642  0.020825709            8 
 3172000   0.73958955   -7.2995685    818.91701  0.021514213  0.020819581            5 
 3173000   0.74214497   -7.3082714    818.69907  0.021501709  0.020813469            6 
 3174000    0.7394132   -7.3261209    816.41455  0.021434955  0.020807352            8 
 3175000   0.75195855   -7.3210693    816.35454  0.021426628  0.020801221            8 
 3176000   0.75846186   -7.2991213    817.50153  0.021449977  0.020795096           10 
 3177000   0.75258497   -7.2957545    818.77137  0.021476534  0.020788983            5 
 3178000    0.7374857   -7.3099888    817.98454  0.021449144  0.020782879            8 
 3179000   0.73704045   -7.2922242    817.37207  0.021426341  0.020776787            9 
 3180000   0.74251349   -7.3145024    817.40742   0.02142053  0.020770706            6 
 3181000   0.74310462   -7.3089122    817.10319  0.021405826  0.020764599            9 
 3182000   0.75641141   -7.3010773    817.41051  0.021407147  0.020758505            5 
 3183000   0.74214502   -7.3158632    817.26606   0.02139664  0.020752405            3 
 3184000   0.72788935   -7.2985612     819.4994  0.021448372  0.020746326            8 
 3185000   0.74245589   -7.3249153    817.58418  0.021391527  0.020740228            4 
 3186000   0.74286506   -7.3173325    818.71571   0.02141441  0.020734126            7 
 3187000   0.72370645   -7.3033697     817.1466  0.021366661  0.020728042            9 
 3188000   0.74480237   -7.3488033    817.92385  0.021380276  0.020721943           11 
 3189000   0.76067943   -7.3315331    817.95354  0.021374348  0.020715828            5 
 3190000   0.72856654   -7.3009388    817.67611    0.0213604  0.020709749            6 
 3191000   0.73653029   -7.3129172    819.09781  0.021390834  0.020703665            5 
 3192000   0.72593574   -7.3140372    817.98383   0.02135505  0.020697581           13 
 3193000   0.73482994   -7.3281508    815.77129  0.021290617  0.020691509            6 
 3194000   0.73052544   -7.3126029    819.60336  0.021383932  0.020685413            7 
 3195000   0.73926196   -7.3229027    818.44871  0.021347123  0.020679343           10 
 3196000   0.73362695   -7.2908786    818.96522  0.021353912  0.020673272            8 
 3197000   0.73857285   -7.3400883    818.37008  0.021331719  0.020667186            6 
 3198000   0.74388053   -7.3130213      818.377  0.021325229  0.020661085            6 
 3199000   0.73358449   -7.3067692    819.84225  0.021356732  0.020655006            8 
 3200000   0.73598778   -7.3266931    818.20716  0.021307478  0.020648923           14 
 3201000   0.74281326   -7.3265146    820.16454  0.021351779  0.020642862            8 
 3202000   0.75782922   -7.3351926     819.3536  0.021324006  0.020636792           14 
 3203000   0.75292529   -7.3095506    817.78671  0.021276582  0.020630727           19 
 3204000   0.73844894   -7.3256066    819.33123  0.021310113  0.020624678           19 
 3205000   0.73259421   -7.2884801    820.81811  0.021342125  0.020618607            6 
 3206000   0.74006467   -7.3351637    818.34765  0.021271253  0.020612561            7 
 3207000   0.75300417   -7.3198038    818.92268  0.021279562  0.020606493            4 
 3208000   0.73545515   -7.3206192    818.66875  0.021266333  0.020600404           10 
 3209000    0.7445268   -7.3021907    819.05054   0.02126962  0.020594304            8 
 3210000   0.74517723   -7.3097723    820.07742  0.021289653  0.020588218            8 
 3211000   0.73346214   -7.3205729    818.75728  0.021248761   0.02058213           17 
 3212000   0.74262805   -7.2991244    820.11696  0.021277422  0.020576046            9 
 3213000   0.73518689   -7.3309595    819.55136   0.02125613  0.020569985           10 
 3214000    0.7542843   -7.3119578    820.16234  0.021265358  0.020563942            6 
 3215000   0.75154857   -7.3012419    822.13289  0.021309821  0.020557907            6 
 3216000   0.74401934   -7.3379956    820.40647   0.02125846  0.020551854            8 
 3217000   0.73300768   -7.3359459    820.73557  0.021260376  0.020545797            7 
 3218000   0.72065777   -7.3297917    819.70669  0.021227126   0.02053973            8 
 3219000   0.75901044   -7.2891957    820.67114  0.021245499  0.020533694            5 
 3220000   0.76177244   -7.3118018    820.10764  0.021224318  0.020527661            6 
 3221000   0.74124613   -7.3123319    819.19818  0.021194199   0.02052162            5 
 3222000   0.72361143   -7.2916525    820.40949   0.02121895  0.020515611            6 
 3223000   0.73406647   -7.3099309     820.5588  0.021216227  0.020509595            9 
 3224000   0.72958371   -7.3322257    821.80653  0.021241898  0.020503567           10 
 3225000   0.74269965   -7.3526988    821.71789   0.02123302  0.020497521            9 
 3226000    0.7326268   -7.3325102    819.81783  0.021177357  0.020491433           11 
 3227000   0.73194593   -7.3387441    818.64263  0.021140446  0.020485352            5 
 3228000   0.72563608   -7.3325534    820.85984  0.021191136  0.020479296            5 
 3229000   0.71743405   -7.3433657    822.05096  0.021215313  0.020473262            5 
 3230000     0.732448   -7.3342749      819.835  0.021151574  0.020467218            8 
 3231000   0.74263892   -7.3580995     820.9344  0.021173383   0.02046116            5 
 3232000   0.72152353   -7.3610784    817.86138  0.021087597  0.020455097            6 
 3233000   0.72343222   -7.3737949    818.17869  0.021089254  0.020449007           13 
 3234000   0.74558681   -7.3557062    820.30768  0.021137592   0.02044295            8 
 3235000    0.7380729   -7.3494758    819.69256  0.021115213  0.020436886            5 
 3236000   0.73541795   -7.3392402    819.99977  0.021116599  0.020430843           18 
 3237000   0.73585582   -7.3625402    820.54922  0.021124221  0.020424796            9 
 3238000   0.72442057   -7.3319231    820.09683  0.021106054  0.020418748            8 
 3239000   0.73427993    -7.334465    821.94511  0.021147091  0.020412731            7 
 3240000   0.72222891   -7.3466122     820.8824   0.02111323  0.020406699            9 
 3241000   0.73617489   -7.3322919     821.6953  0.021127617  0.020400676           12 
 3242000   0.72874925   -7.3717466     818.0033    0.0210262  0.020394638           13 
 3243000   0.72381125   -7.3442597    819.21828  0.021050937  0.020388604           13 
 3244000   0.72505769   -7.3313083    820.91458  0.021088024  0.020382571            9 
 3245000   0.74029699    -7.353497     820.9806   0.02108322  0.020376558           10 
 3246000   0.74355435   -7.3216608    821.71359  0.021095543  0.020370521           13 
 3247000   0.73661631   -7.3303471    820.68139  0.021062555  0.020364521            6 
 3248000   0.73438922   -7.3145749    820.59884  0.021053952  0.020358515            7 
 3249000   0.73590143   -7.3529437    822.37202  0.021092952  0.020352512            9 
 3250000   0.72590777   -7.3507324    820.96857  0.021050476  0.020346514            8 
 3251000   0.72181673    -7.335597    821.00566  0.021044952  0.020340493           10 
 3252000   0.72823774   -7.3571957    819.30722  0.020994957  0.020334483            6 
 3253000   0.73079946   -7.3394508    820.97649  0.021031266  0.020328477           13 
 3254000   0.72550389   -7.3503467    821.25448  0.021031922  0.020322487           13 
 3255000   0.74899382   -7.3524456    822.23945  0.021050677  0.020316491            7 
 3256000   0.74374845   -7.3497422    821.92044  0.021036047  0.020310501           14 
 3257000   0.73197218   -7.3328467    822.86359   0.02105372  0.020304508            7 
 3258000   0.70492362   -7.3477675    818.94512  0.020947031    0.0202985            7 
 3259000   0.73262075   -7.3444985    821.60564  0.021008633    0.0202925            3 
 3260000   0.73162022   -7.3383902    820.72203  0.020979602  0.020286496            8 
 3261000   0.74550267   -7.3654013    821.84371  0.021001832  0.020280501           11 
 3262000    0.7437674   -7.3214613    819.54087  0.020936564  0.020274502            6 
 3263000    0.7195746    -7.348158    821.05661  0.020968858  0.020268504           11 
 3264000   0.73301988   -7.3389951    819.56284  0.020924296    0.0202625            8 
 3265000   0.73225511   -7.3510517    821.84084   0.02097603  0.020256519            4 
 3266000   0.73656254    -7.360643    821.06593  0.020949835  0.020250533            6 
 3267000   0.72726009   -7.3408852    820.15845  0.020920275  0.020244534            6 
 3268000    0.7233487   -7.3689254    820.27942  0.020916958  0.020238515           14 
 3269000   0.71896341   -7.3456239    822.80471  0.020974934  0.020232529            9 
 3270000   0.71802722   -7.3378632    820.57122  0.020911601  0.020226531            7 
 3271000   0.71542953    -7.350002    820.84725   0.02091224  0.020220548           10 
 3272000   0.72685534   -7.3641708      819.457  0.020870441  0.020214533           10 
 3273000   0.71266851   -7.3474019    819.92742  0.020876042  0.020208535            6 
 3274000   0.73146056   -7.3374188    822.86004   0.02094431  0.020202543            9 
 3275000   0.74039738   -7.3810871    820.29703  0.020872698  0.020196533            8 
 3276000   0.73135481   -7.3744266    823.67579  0.020952274  0.020190533           11 
 3277000   0.73896782   -7.3345432    823.04285  0.020929785  0.020184549           27 
 3278000   0.71924146   -7.3393276    824.20117  0.020952846  0.020178592           19 
 3279000   0.71964795   -7.3571028    821.98206  0.020890059  0.020172624            6 
 3280000   0.70950924    -7.328235    821.01667  0.020859163  0.020166662           15 
 3281000   0.72616825   -7.3787885    822.91648  0.020901059  0.020160687           10 
 3282000   0.72150832   -7.3345665    822.49245  0.020883924  0.020154712           10 
 3283000   0.74782518   -7.3536251    822.46705  0.020876918  0.020148725            5 
 3284000   0.74352619   -7.3385591    822.77741  0.020878436  0.020142743           21 
 3285000   0.72642823   -7.3903504    820.37989   0.02081126  0.020136774            6 
 3286000   0.72786631   -7.3553075    822.84514  0.020867446  0.020130774            6 
 3287000   0.72594298   -7.3426062    821.07603  0.020816247  0.020124784           10 
 3288000   0.74554547   -7.3441857    823.29769  0.020866223  0.020118814            3 
 3289000   0.73388969   -7.3522059     822.5984  0.020842161  0.020112862           15 
 3290000   0.72137425   -7.3453835    823.43928  0.020857125  0.020106879            6 
 3291000   0.71672525   -7.3435298    823.23322  0.020845569   0.02010091            4 
 3292000   0.74471165   -7.3519873    818.82087  0.020727543  0.020094956            7 
 3293000    0.7149974   -7.3278767    823.72287    0.0208453     0.020089            7 
 3294000   0.71761555   -7.3257107    822.18701  0.020800117  0.020083034            6 
 3295000   0.71223606   -7.3370764     822.7282  0.020807491  0.020077063           15 
 3296000   0.72836181   -7.3565457    821.00525  0.020757616  0.020071073           12 
 3297000   0.72580303   -7.3628895    821.63167  0.020767154  0.020065088            5 
 3298000   0.74151791   -7.3756832    821.54232  0.020758599  0.020059099            7 
 3299000   0.72327948   -7.3572021    821.39746  0.020748648   0.02005313           17 
 3300000   0.71843016   -7.3500803    823.98752  0.020807766  0.020047163            9 
 3301000    0.7208696   -7.3545366    823.24661  0.020782758  0.020041184            7 
 3302000   0.72383253    -7.378082    821.07806  0.020721736  0.020035199            4 
 3303000    0.7057138   -7.3643603    822.03795   0.02073968  0.020029223            9 
 3304000   0.74579626    -7.353193    821.74058  0.020725903  0.020023242           12 
 3305000   0.71480824   -7.3489394    821.62616  0.020716746  0.020017249            8 
 3306000   0.70434234   -7.3555131    820.33618  0.020677964   0.02001126            7 
 3307000   0.71050058   -7.3697582    821.98435  0.020713243   0.02000528            8 
 3308000   0.74489887   -7.3601587    820.53714  0.020670525  0.019999286           12 
 3309000   0.72614134   -7.3400153     821.8591   0.02069757  0.019993302            5 
 3310000   0.73093364   -7.3789323     820.9499  0.020668426  0.019987317            7 
 3311000   0.69748519   -7.3738191    820.90782  0.020661125  0.019981324            5 
 3312000   0.73083491   -7.3489997    822.24461  0.020688522   0.01997534            9 
 3313000   0.71819431   -7.3597559    821.31291  0.020658842  0.019969349           14 
 3314000   0.73632534   -7.3616901    822.78666  0.020689667   0.01996335           15 
 3315000   0.72395333   -7.3725986    821.60402  0.020653696  0.019957366            8 
 3316000   0.71917753   -7.3820366    822.44169  0.020668519  0.019951385           10 
 3317000   0.72689859   -7.3743344     823.0899  0.020678572  0.019945423            8 
 3318000   0.72139371   -7.3885502    823.01501  0.020670459  0.019939455           14 
 3319000   0.70873274   -7.3596897    821.81062  0.020633992  0.019933482           18 
 3320000   0.71422038   -7.3814245    824.41605  0.020693174  0.019927516            6 
 3321000   0.72129691   -7.3611315    821.95107   0.02062509  0.019921585            9 
 3322000   0.71576573   -7.3655485    822.69842  0.020637628  0.019915638            8 
 3323000   0.72252547   -7.3692801    823.55426   0.02065288   0.01990969            9 
 3324000   0.72226194   -7.3725579    824.17139  0.020662139  0.019903766            7 
 3325000   0.71385692   -7.3477743    823.55463  0.020640467  0.019897849            6 
 3326000   0.72015971   -7.3592618    823.69416  0.020637757  0.019891922            6 
 3327000   0.73484016    -7.380947    822.91383  0.020612009  0.019885966            4 
 3328000   0.71148225   -7.3781302    822.03211  0.020583737  0.019880043            5 
 3329000   0.71605414   -7.3717853    822.41915  0.020587242  0.019874099            7 
 3330000   0.71841847   -7.3470699    820.90112  0.020543071  0.019868158           11 
 3331000   0.71909656   -7.3672989    822.62717  0.020580085  0.019862208           11 
 3332000   0.70420249   -7.3833424    823.56644    0.0205974   0.01985627            5 
 3333000   0.71417067   -7.3855867    822.91543  0.020574943  0.019850318            8 
 3334000   0.71403041   -7.3819383    822.46179  0.020557433  0.019844381            9 
 3335000   0.71901951   -7.3798094    821.74898  0.020533458  0.019838421            6 
 3336000   0.70674969   -7.3768655    823.74055  0.020577052  0.019832475            9 
 3337000   0.72076399   -7.3606196    824.77114  0.020596622  0.019826546           13 
 3338000   0.71238486   -7.3913644     823.6523   0.02056252  0.019820627            7 
 3339000   0.72402375   -7.3874923    823.31312  0.020547897  0.019814729            9 
 3340000   0.71563653   -7.3631817    824.95234  0.020582643  0.019808834           10 
 3341000   0.71978448   -7.3636761    824.78905   0.02057241  0.019802947           11 
 3342000   0.71872933   -7.3817919     825.8139  0.020591809  0.019797058           12 
 3343000   0.71455702   -7.3736615    823.21765  0.020520931  0.019791143            8 
 3344000   0.71480698   -7.3702043    823.67365  0.020526158  0.019785227            9 
 3345000   0.72344016   -7.3960363    821.40562  0.020463518  0.019779304            8 
 3346000   0.71328145    -7.359686    823.01457  0.020497474  0.019773383            7 
 3347000   0.72501733   -7.4152999    823.83404  0.020511753  0.019767463           15 
 3348000   0.70919762   -7.3702593    822.23998  0.020465949  0.019761577            8 
 3349000   0.71147561   -7.3796679    824.65329  0.020519889  0.019755706           11 
 3350000   0.72059624   -7.3633643    824.92577  0.020520541   0.01974985           14 
 3351000   0.69260893   -7.3307679    826.50713  0.020553744  0.019744003           19 
 3352000    0.7102103   -7.3771683    825.68169  0.020527091  0.019738139            8 
 3353000    0.7255532    -7.387432    824.26673  0.020485802  0.019732277           11 
 3354000     0.733684   -7.3778476    825.09744  0.020500334  0.019726421           13 
 3355000   0.70837493   -7.3753609    826.70747  0.020534214  0.019720538            6 
 3356000   0.72463459    -7.393156     824.7338  0.020479087   0.01971468            4 
 3357000   0.71778076   -7.3873319    824.03164  0.020455557  0.019708815            9 
 3358000   0.72031089   -7.3645979    825.37506  0.020482804  0.019702951           10 
 3359000   0.70962093   -7.3778837    824.39393  0.020452365  0.019697069           18 
 3360000   0.71091591   -7.3718909    825.10756  0.020463977  0.019691216            9 
 3361000   0.71574951   -7.3719935    825.57974  0.020469596  0.019685355           11 
 3362000    0.7290636   -7.3672414    823.94458  0.020422977  0.019679511           23 
 3363000   0.70550806   -7.3569864    826.05834  0.020469282  0.019673692            6 
 3364000   0.70844906   -7.3606923    825.46867   0.02044859  0.019667864            6 
 3365000   0.70686539   -7.3962332      825.179  0.020435339  0.019662036            9 
 3366000   0.70574942   -7.3760497    825.65622  0.020441083  0.019656211            9 
 3367000    0.7145844   -7.3546596    825.95083  0.020442303  0.019650383           18 
 3368000   0.70400625    -7.386338    826.10192  0.020439972  0.019644584           11 
 3369000   0.71551454   -7.3517277    827.01914  0.020456593  0.019638795            5 
 3370000   0.72407055   -7.3533766    827.22495  0.020455612  0.019633015            9 
 3371000    0.7264419   -7.3692557     827.5229  0.020456909  0.019627239            9 
 3372000   0.71946022   -7.3620045    827.41301  0.020448127  0.019621462           14 
 3373000   0.72495841   -7.3933532    826.57113  0.020421265  0.019615641           14 
 3374000   0.71334567    -7.390817    825.94389  0.020399721  0.019609815           12 
 3375000   0.72430687   -7.4131288    826.13447  0.020398382  0.019603993            9 
 3376000    0.7064913   -7.4171489    825.30519   0.02037187  0.019598183            5 
 3377000   0.70517309   -7.4084078    826.65908  0.020399247  0.019592376            9 
 3378000   0.71323002   -7.4106262    825.07283  0.020354076  0.019586579           13 
 3379000   0.70567503   -7.3775093    825.90715  0.020368629   0.01958076            8 
 3380000   0.70317815    -7.393758    826.15732   0.02036877  0.019574949           21 
 3381000   0.70201931   -7.3928246    825.76978  0.020353194  0.019569146           14 
 3382000   0.71803113   -7.4180744    825.71064  0.020345719  0.019563342           10 
 3383000   0.71690006   -7.3834284    825.45998   0.02033353  0.019557526           18 
 3384000   0.71330121    -7.403852    826.21765  0.020346179  0.019551719           18 
 3385000   0.72722407   -7.4036026    827.58747  0.020373891   0.01954592           16 
 3386000   0.69931508    -7.401629    826.13485  0.020332124  0.019540117            9 
 3387000   0.69405014   -7.3996511    826.53334  0.020335925  0.019534319           10 
 3388000   0.70246723   -7.3929126    826.57906  0.020331047  0.019528513            5 
 3389000   0.72401299   -7.4182401    827.56378  0.020349262  0.019522706            5 
 3390000   0.71420013   -7.3743053    825.65738  0.020296396  0.019516914           12 
 3391000   0.71224706   -7.3929756     826.5398  0.020312096  0.019511122            9 
 3392000     0.732517   -7.3820509    827.86137  0.020338575  0.019505336           17 
 3393000   0.69627918   -7.3877638    824.67711  0.020254374  0.019499559            7 
 3394000   0.72194591   -7.3595214    827.16877  0.020309585  0.019493771           15 
 3395000   0.71667169   -7.3889363    827.36571  0.020308437  0.019487997            7 
 3396000   0.70247351   -7.3651422     826.8216  0.020289105  0.019482216            7 
 3397000   0.70191346   -7.3879686    829.73341  0.020354563   0.01947644           27 
 3398000   0.71104231   -7.3797276     827.8339  0.020301989  0.019470644           11 
 3399000   0.70352046   -7.3820656    826.20028  0.020255965  0.019464857            9 
 3400000   0.71156551   -7.4084864     825.4279  0.020231076  0.019459081            8 
 3401000   0.72231115   -7.3917166    824.93049   0.02021294   0.01945329            8 
 3402000   0.69506564   -7.3907696    826.43989  0.020243971   0.01944749            7 
 3403000   0.69478511   -7.4044551    825.87994   0.02022431   0.01944169           11 
 3404000   0.70537908   -7.4198554    826.62631  0.020236641   0.01943589           12 
 3405000   0.70423745   -7.4066322    827.41468  0.020249992  0.019430084            8 
 3406000   0.70732201   -7.4018777    825.94722  0.020208143  0.019424263           11 
 3407000   0.70157691   -7.4215197    826.53292  0.020216538   0.01941848           12 
 3408000   0.68898805   -7.4166188    825.95983  0.020196592   0.01941269           21 
 3409000    0.7037953   -7.4154585    828.83532  0.020260959  0.019406916           10 
 3410000   0.69898445   -7.4025038    826.84282  0.020206325  0.019401137            9 
 3411000   0.70276171   -7.4113303    826.58609  0.020194129  0.019395373            8 
 3412000   0.68788235   -7.4114244    826.45317  0.020184964  0.019389611           15 
 3413000   0.68910426   -7.3913288    827.16235  0.020196366  0.019383845           10 
 3414000   0.71536982   -7.4107308    826.92454  0.020184645  0.019378101           11 
 3415000   0.70113091   -7.3951805    827.90707   0.02020271  0.019372377            6 
 3416000   0.70767818   -7.3973739     828.0836  0.020201103   0.01936666           12 
 3417000   0.71174824    -7.413736    827.04322  0.020169818  0.019360937           14 
 3418000   0.69919523   -7.4085858    825.86875  0.020135283  0.019355213           15 
 3419000   0.72579017   -7.3744439    826.56365   0.02014633  0.019349508           22 
 3420000    0.6937221    -7.373254      828.427  0.020185843   0.01934379           28 
 3421000   0.68822267   -7.3928622    827.47523  0.020156758  0.019338086           11 
 3422000   0.69931355   -7.4226835    826.97569  0.020138703  0.019332347           20 
 3423000   0.69698497   -7.4166576    826.53505  0.020122092  0.019326633           14 
 3424000   0.70003818    -7.410154    827.27738  0.020134282   0.01932091           21 
 3425000   0.68433917   -7.4268163    826.87619  0.020118642  0.019315194            9 
 3426000   0.71649113    -7.388951    827.86699   0.02013687  0.019309481           10 
 3427000    0.7131435   -7.3956762    826.45343  0.020096621  0.019303749           18 
 3428000   0.69614718   -7.3897361    828.59201  0.020142746  0.019298023           10 
 3429000   0.71190924    -7.420136    828.31892  0.020130235  0.019292316           11 
 3430000   0.69866742   -7.4133029    828.11719  0.020119465  0.019286597           10 
 3431000   0.69223185   -7.3915306     829.0292  0.020135752  0.019280889           21 
 3432000   0.70874089    -7.403946    828.00847  0.020105101  0.019275183            8 
 3433000   0.70927551   -7.3889126    827.75499  0.020093091   0.01926949            9 
 3434000   0.70005291   -7.4183738    826.51045  0.020057039  0.019263788            7 
 3435000   0.69090948   -7.4141374    829.60253  0.020126214  0.019258073            9 
 3436000    0.6983724   -7.4075095    829.75012  0.020123936  0.019252388           10 
 3437000   0.68883192   -7.4128104    827.53863  0.020064461   0.01924669           10 
 3438000   0.69479232   -7.4164911    828.14097  0.020073225  0.019240979            8 
 3439000   0.69279161    -7.394618    828.08956  0.020066142  0.019235273           11 
 3440000   0.71630998   -7.4074479    829.07036  0.020084069  0.019229595           13 
 3441000   0.70373066    -7.415165    826.81152  0.020023528  0.019223894           16 
 3442000   0.68738484   -7.3868531    829.90514  0.020092609  0.019218197           21 
 3443000   0.70580308   -7.4034376    828.93555  0.020063306  0.019212499            8 
 3444000    0.7097454   -7.3768014    828.99244  0.020058857  0.019206827           10 
 3445000   0.68607568   -7.4096589    827.83343  0.020024998  0.019201147            8 
 3446000   0.68686066   -7.4174601     830.2846  0.020078463  0.019195485            6 
 3447000   0.70961319   -7.3796607    829.42831  0.020051937  0.019189827            7 
 3448000   0.69447875   -7.4354764    826.86169   0.01998409  0.019184142           15 
 3449000   0.70915579   -7.3794352     827.0827  0.019983635  0.019178442            9 
 3450000   0.72765128   -7.3992419    829.10864  0.020026779  0.019172752            9 
 3451000   0.69263372   -7.4110561    828.81359  0.020013851  0.019167059           13 
 3452000   0.70409608   -7.4033779    828.49682  0.020000406  0.019161368           25 
 3453000   0.69703715   -7.4325743    828.37487  0.019991671  0.019155667            9 
 3454000   0.69272979   -7.4205495    827.12359  0.019955694  0.019149962           15 
 3455000   0.68581092   -7.4024993    829.65355  0.020010939  0.019144268           12 
 3456000   0.69438014   -7.3989028    829.26512  0.019995783  0.019138574           16 
 3457000   0.69211148   -7.4027652    829.46526  0.019994824   0.01913288           10 
 3458000   0.69950019   -7.4279135    828.71536   0.01997097   0.01912718            6 
 3459000   0.69679438   -7.4061621    827.66468  0.019939883  0.019121464           11 
 3460000   0.69001084   -7.3987508    827.36975  0.019927017   0.01911575           16 
 3461000   0.70168387   -7.4244101    827.32708  0.019920232  0.019110051           15 
 3462000   0.68662148    -7.419401    827.92907  0.019928969  0.019104349           12 
 3463000    0.6816514   -7.3961144    825.88026  0.019873911  0.019098663            5 
 3464000   0.70153652   -7.4274355    829.14501  0.019946714  0.019092981            9 
 3465000   0.69631999    -7.418011    828.69317  0.019930091  0.019087293           10 
 3466000   0.69069137   -7.4336099     829.4179  0.019941765  0.019081612           11 
 3467000   0.71406804    -7.433922     828.5559  0.019915294  0.019075926           21 
 3468000   0.68868492   -7.4168606    828.59988  0.019910608  0.019070223           11 
 3469000    0.6908577   -7.4220522    827.74578  0.019884352  0.019064545           30 
 3470000   0.67763971   -7.4046591    828.08911  0.019886866  0.019058861           17 
 3471000   0.68630714    -7.394707    828.70391  0.019895897  0.019053163           33 
 3472000   0.68556391   -7.4304224    828.86894  0.019894128  0.019047476           10 
 3473000   0.69510545   -7.4170931    827.92211  0.019865681  0.019041775           34 
 3474000   0.69834876    -7.436486     828.0316  0.019862589  0.019036087           23 
 3475000   0.70129819   -7.4266407    828.40961  0.019865938  0.019030391            8 
 3476000   0.69339108   -7.4100379    827.82079  0.019846107  0.019024692            6 
 3477000   0.69753707   -7.4127989    828.46307  0.019855792  0.019019002           11 
 3478000   0.68839935   -7.4289158      827.752  0.019833046  0.019013305           10 
 3479000   0.70426557   -7.4104913    828.34541  0.019841559  0.019007628            7 
 3480000   0.68596328   -7.4027169    828.81646  0.019847138  0.019001939           11 
 3481000   0.70026582   -7.4111073    828.65617  0.019837599  0.018996252           14 
 3482000   0.71024789    -7.412038    829.03261  0.019840911   0.01899059           19 
 3483000   0.70570772   -7.3747304    827.75844  0.019804729  0.018984919           19 
 3484000   0.69036661   -7.4222219    826.88919  0.019778253  0.018979239           42 
 3485000   0.68291166   -7.4059391    827.85662  0.019795711  0.018973553           13 
 3486000   0.70079667   -7.4259231    829.06662  0.019818957  0.018967869           29 
 3487000   0.67979379   -7.4392362    827.95905  0.019786804  0.018962189           27 
 3488000   0.68313003   -7.4158932    829.89117  0.019827293  0.018956507           12 
 3489000   0.67858408   -7.4269664    828.31913  0.019784063  0.018950824           16 
 3490000   0.68320822   -7.4203361    827.54221  0.019759843  0.018945136           20 
 3491000   0.69872553   -7.4220616    826.73062  0.019734809  0.018939451           10 
 3492000   0.69554619   -7.4121224    829.49411  0.019795106  0.018933753            7 
 3493000   0.70157629   -7.4004252    826.82803  0.019725833  0.018928067           12 
 3494000   0.69994523   -7.4012272    830.16252  0.019799717  0.018922397           10 
 3495000   0.67985834   -7.4331051    829.96081  0.019789242  0.018916709            9 
 3496000   0.70040813   -7.4002968    828.33834  0.019744907  0.018911019            9 
 3497000   0.68220682   -7.4508842    827.83209  0.019727197  0.018905319           10 
 3498000   0.70105352   -7.4466969    827.35076  0.019710091  0.018899615           10 
 3499000   0.69444114   -7.4342087    828.92818  0.019742026  0.018893907           15 
 3500000   0.67851869   -7.4284563     827.5247  0.019702969  0.018888199            9 
 3501000   0.68484622   -7.4484407    827.24534  0.019690692  0.018882495            7 
 3502000   0.68177678   -7.4250313     825.7946  0.019650547  0.018876784           15 
 3503000    0.6903999   -7.4386946    827.39563  0.019683025  0.018871086           13 
 3504000   0.68408487   -7.4249799    829.28325  0.019722299  0.018865394           19 
 3505000   0.67836285   -7.4193758    825.72654   0.01963211  0.018859696           13 
 3506000   0.69892383   -7.4143433    829.85311  0.019724594  0.018854002           12 
 3507000   0.69285282   -7.4383359    827.50802  0.019663245  0.018848309           25 
 3508000   0.69368244   -7.4482893    826.73035  0.019639167  0.018842621           26 
 3509000   0.69504852    -7.452288    828.20279  0.019668538  0.018836938           17 
 3510000   0.68969937   -7.4269903    830.17938  0.019709862  0.018831253           10 
 3511000   0.68165833   -7.4484263    828.44848  0.019663165   0.01882556           15 
 3512000   0.68178663   -7.4158544    827.86086  0.019643623  0.018819886            9 
 3513000   0.69831681    -7.422316    826.53815  0.019606655  0.018814207           11 
 3514000   0.70282503   -7.4388046    828.38493  0.019644871  0.018808531           13 
 3515000   0.68324285   -7.4364634    827.93166  0.019628536   0.01880287           13 
 3516000   0.69941292   -7.4205385    828.62897  0.019639481  0.018797207            8 
 3517000   0.69663742    -7.431835    829.41407  0.019652499  0.018791575            5 
 3518000   0.68144595   -7.4563476    828.31004  0.019620761  0.018785928           12 
 3519000   0.67796916   -7.4122255     829.0041  0.019631621  0.018780284            9 
 3520000   0.67811115    -7.469472    829.80679  0.019645047  0.018774643            8 
 3521000    0.6908593   -7.4445576    827.70835  0.019589803  0.018769015            8 
 3522000   0.69045948   -7.4042914    827.88032   0.01958831  0.018763367            9 
 3523000   0.70013455   -7.4343744    828.49035  0.019597179  0.018757724           14 
 3524000   0.67830253   -7.4463524    829.44317   0.01961415  0.018752087            9 
 3525000   0.69112773   -7.4276459    830.30197  0.019628888  0.018746457            6 
 3526000   0.69154947   -7.4345198     830.3531   0.01962453  0.018740824           13 
 3527000   0.68662599   -7.4452613    828.33346  0.019571247  0.018735186            8 
 3528000   0.68725476   -7.4470609    827.86408  0.019554613  0.018729542            8 
 3529000   0.67528614   -7.4185262    827.84866  0.019548707  0.018723903            8 
 3530000   0.69293477    -7.435144    828.38475  0.019555825  0.018718282            7 
 3531000   0.68746313   -7.4458621     830.2428  0.019594138  0.018712664            8 
 3532000   0.69488579   -7.4418514    829.35823   0.01956772  0.018707043           18 
 3533000   0.69349576   -7.4290778    828.57579  0.019543726  0.018701406           15 
 3534000   0.69315779   -7.4423704    829.96339  0.019570916  0.018695766            6 
 3535000   0.68759517   -7.4474652    829.19145  0.019547182  0.018690127           14 
 3536000   0.68700587   -7.4624573    828.23778  0.019519179  0.018684496           13 
 3537000   0.67173268   -7.4476734    827.85239   0.01950458  0.018678846            8 
 3538000   0.70135847   -7.4454633    829.33872  0.019534076  0.018673207            5 
 3539000   0.67366153   -7.4400936    830.06435  0.019545643  0.018667556           20 
 3540000   0.69148445   -7.4406799    828.85102  0.019511559  0.018661926           17 
 3541000   0.69137072    -7.436806    829.98933  0.019532837  0.018656302           16 
 3542000   0.68672437   -7.4549717     829.9863  0.019527251  0.018650692           27 
 3543000   0.68698038   -7.4394675    829.79359  0.019517208  0.018645084           13 
 3544000   0.69194666   -7.4546308    826.49561  0.019434152  0.018639467           19 
 3545000   0.66794997   -7.4376359      828.382  0.019473014  0.018633836            6 
 3546000   0.68489057   -7.4351955    829.07418  0.019483789  0.018628215           11 
 3547000   0.67749095   -7.4269176    827.70162  0.019446049  0.018622594           24 
 3548000   0.67600255   -7.4334422    829.30292  0.019478178  0.018616978           27 
 3549000   0.68572236   -7.4125147    829.09875  0.019467896  0.018611357           16 
 3550000   0.68972218   -7.4266919     830.3344  0.019491418   0.01860574           16 
 3551000   0.68296715   -7.4527857    828.11534  0.019433853  0.018600128           10 
 3552000   0.67774969   -7.4473061    828.85509  0.019445737   0.01859451           20 
 3553000   0.69492617   -7.4716717    827.66839  0.019412431  0.018588876           25 
 3554000   0.67974141   -7.4448725     829.0798  0.019440063  0.018583248           19 
 3555000    0.6852859    -7.479047    826.75613  0.019380125  0.018577624           23 
 3556000   0.69689347   -7.4391873     829.0455  0.019428325  0.018571988           29 
 3557000   0.67383019   -7.4590082    828.69608  0.019414677   0.01856634           25 
 3558000   0.68590242    -7.440105    827.66058  0.019384968   0.01856071           32 
 3559000   0.69001251   -7.4505471    828.23516  0.019392975  0.018555087           28 
 3560000   0.68493707   -7.4450732    828.10198   0.01938441  0.018549464           25 
 3561000   0.69174504   -7.4586282    830.14509  0.019426778  0.018543847           26 
 3562000   0.65498554   -7.4630274    828.22912    0.0193765  0.018538227           12 
 3563000   0.68543019   -7.4397151    828.49622  0.019377309  0.018532609           14 
 3564000   0.67822835   -7.4330461    828.99322  0.019383493  0.018527013           29 
 3565000   0.68110972   -7.4383045     829.0267  0.019378838  0.018521402           23 
 3566000   0.69378052   -7.4566381    828.06462  0.019350921  0.018515792           24 
 3567000    0.6803946   -7.4477978     828.3429  0.019351998  0.018510178           25 
 3568000   0.67508141   -7.4616741    828.15866  0.019342271  0.018504561           20 
 3569000   0.67897473   -7.4424566    829.01008  0.019356731  0.018498947           17 
 3570000   0.67865921   -7.4391433    829.29906  0.019358055  0.018493352           18 
 3571000   0.69208986   -7.4583923    828.93333  0.019344099  0.018487738           17 
 3572000   0.67384627   -7.4699348    829.98728  0.019363272  0.018482141           20 
 3573000   0.67825185   -7.4504022     830.7612  0.019375903  0.018476542            8 
 3574000   0.68725877   -7.4558252     828.0176   0.01930651  0.018470926            5 
 3575000   0.69229466   -7.4560116    829.51332  0.019335975  0.018465329            9 
 3576000   0.68649529   -7.4692312    829.36819  0.019327186  0.018459728           18 
 3577000   0.69657452   -7.4273201    828.35504  0.019298179  0.018454127            9 
 3578000    0.6824064   -7.4667693    828.74961  0.019301975  0.018448522           20 
 3579000   0.67824131   -7.4573891    829.07155  0.019304078   0.01844292            9 
 3580000   0.66582376   -7.4534012    830.10333  0.019322703  0.018437322            8 
 3581000    0.6736749   -7.4625026    828.37353  0.019277053  0.018431702            7 
 3582000   0.69359347   -7.4342223    829.99358  0.019309361  0.018426092           17 
 3583000   0.67804745   -7.4503378    830.24293  0.019309771  0.018420489           14 
 3584000    0.6580373   -7.4538505    830.34797  0.019306826   0.01841489            9 
 3585000     0.681116   -7.4529822    828.60718  0.019260976  0.018409298            5 
 3586000   0.66523264    -7.450734    828.76692  0.019259317  0.018403731           10 
 3587000   0.67688367   -7.4243208    829.93093   0.01928099  0.018398168            9 
 3588000   0.69509191    -7.466094    829.38242  0.019262877  0.018392591            8 
 3589000   0.67316171   -7.4457858    830.06799  0.019273428  0.018387023           16 
 3590000   0.69566348   -7.4601421    831.17674  0.019293796  0.018381439            8 
 3591000    0.6862332   -7.4516514    830.02813  0.019261769  0.018375877           18 
 3592000    0.6918967    -7.441309    828.99452  0.019232427  0.018370285           11 
 3593000   0.67781044   -7.4408686    829.58916  0.019240865   0.01836469            7 
 3594000   0.68045499   -7.4395349    828.94958  0.019220682  0.018359091            5 
 3595000   0.67260373   -7.4683889    830.13703  0.019242861  0.018353483            9 
 3596000   0.68426279    -7.460483    830.20958  0.019239191  0.018347897            6 
 3597000   0.66759631   -7.4375716    828.55507  0.019195512  0.018342316           12 
 3598000   0.68859463   -7.4543739    829.28415  0.019207063  0.018336726           21 
 3599000   0.67046544   -7.4355792    829.87257  0.019215351  0.018331146           11 
 3600000   0.68118911   -7.4585851    828.12865  0.019169645   0.01832555           14 
 3601000   0.67468559   -7.4840657    829.28568  0.019191097  0.018319952           12 
 3602000   0.66348569   -7.4526914    829.98492  0.019201946  0.018314347           15 
 3603000   0.67167697   -7.4865622    829.69853  0.019189993  0.018308758            8 
 3604000   0.67614388   -7.4887491    828.23281  0.019150777  0.018303154            4 
 3605000   0.66984393   -7.4833245    828.31747  0.019147422  0.018297537           15 
 3606000    0.6810399   -7.4866221    828.85826  0.019154609   0.01829192           23 
 3607000   0.66901298   -7.5033399    829.54962  0.019165272  0.018286311           23 
 3608000   0.67231922   -7.4646951    828.20025  0.019128794  0.018280705           12 
 3609000   0.67022493   -7.4908077    828.56824   0.01913199  0.018275095           15 
 3610000   0.69505068   -7.4764786    828.14845     0.019117  0.018269476           24 
 3611000   0.67597237   -7.4585401    830.34095  0.019162304  0.018263864           11 
 3612000   0.67691564    -7.476493    827.35565  0.019088124  0.018258271           16 
 3613000   0.67660731   -7.4616428    828.56721  0.019110785  0.018252685           20 
 3614000   0.66368186   -7.4693547    828.68608  0.019108238  0.018247108           10 
 3615000   0.67585727   -7.4701288    830.37739  0.019141941  0.018241532           13 
 3616000   0.68624248     -7.48269    827.64784  0.019073743  0.018235947           14 
 3617000   0.64819841   -7.4884907    828.00614  0.019076724  0.018230353           13 
 3618000   0.67990954    -7.475307    829.84673  0.019113846   0.01822476           15 
 3619000   0.68273284   -7.4849979    829.71425  0.019105514  0.018219176            7 
 3620000   0.67660687   -7.4471446    831.47591   0.01914079  0.018213611           12 
 3621000   0.67247428   -7.4660521    830.30507  0.019108558  0.018208045            7 
 3622000   0.66010992   -7.4890031    830.17946  0.019100393  0.018202466           10 
 3623000   0.67734267   -7.4668044    828.11574  0.019047652  0.018196891           11 
 3624000   0.67508643    -7.459058    830.86234  0.019105554  0.018191319           13 
 3625000   0.66743977    -7.463691    831.03344  0.019104217  0.018185775           12 
 3626000   0.66615175   -7.4822733    830.20997  0.019080023  0.018180226           13 
 3627000   0.67264701    -7.457128    830.77909  0.019087839  0.018174697           14 
 3628000   0.67913632   -7.4641282    828.31885  0.019026067  0.018169152           12 
 3629000    0.6716374   -7.4674986    828.59061  0.019027065  0.018163597           14 
 3630000   0.66588304    -7.472563    829.68033   0.01904684  0.018158041           14 
 3631000   0.67543992   -7.4943741    829.15999  0.019029652  0.018152478           23 
 3632000   0.68514067   -7.4548022    828.79482  0.019016034  0.018146932           21 
 3633000   0.68367827   -7.4838075     827.9844   0.01899221  0.018141387           34 
 3634000   0.67145673   -7.4780423     828.0777  0.018989124  0.018135827           23 
 3635000   0.67446331    -7.473755    829.27419  0.019011329  0.018130271           29 
 3636000   0.67886857   -7.4787692    827.92878  0.018975265  0.018124706           46 
 3637000   0.68403789    -7.494327    827.83439  0.018967885  0.018119139           30 
 3638000   0.66082999   -7.4965284    828.45105  0.018976797  0.018113576           36 
 3639000   0.66994832   -7.5170439    827.55251  0.018951006   0.01810801           43 
 3640000   0.66906765   -7.5073945    830.26785  0.019007964  0.018102448           46 
 3641000   0.67719561   -7.5152692    830.19694   0.01900112  0.018096901           43 
 3642000   0.68238719   -7.5051924    828.65595  0.018960643  0.018091351           29 
 3643000    0.6580411    -7.479362     829.1855  0.018967552  0.018085805           31 
 3644000   0.66813927   -7.4832776    829.51199  0.018969813  0.018080273           17 
 3645000   0.67060467    -7.476615    829.31187  0.018960034  0.018074726           24 
 3646000    0.6625984    -7.500228    827.93787  0.018923429  0.018069183           12 
 3647000   0.65944898   -7.5128128    828.43549  0.018929611  0.018063635           16 
 3648000   0.67446456   -7.4766663    830.60739  0.018974036  0.018058089           12 
 3649000   0.68325334   -7.4752927    828.79447  0.018927434  0.018052568           14 
 3650000   0.69201909   -7.5078181    830.67931  0.018965281  0.018047032           12 
 3651000   0.67088412   -7.4977161    830.14411  0.018947871  0.018041485           17 
 3652000     0.663937   -7.4993474    830.36213  0.018947657  0.018035955           16 
 3653000     0.654121   -7.4833285    827.99947  0.018888573  0.018030426           28 
 3654000   0.64885663   -7.4943166    829.71251  0.018922471  0.018024909           18 
 3655000   0.66719226   -7.4645631    829.79655   0.01891921  0.018019389            7 
 3656000   0.67270142   -7.4792171    829.57651   0.01890902  0.018013891           13 
 3657000   0.66714607   -7.4707753    829.51096  0.018902355  0.018008379           18 
 3658000   0.68063625   -7.4857087     830.5714  0.018921346  0.018002873           21 
 3659000   0.66804698    -7.491653    829.92066  0.018901354  0.017997384           16 
 3660000   0.67714619   -7.4635344    830.68183  0.018913521  0.017991885           24 
 3661000   0.67039631   -7.4731172    828.60772  0.018861143  0.017986389           21 
 3662000    0.6539222   -7.4794057    829.42231  0.018874529  0.017980881           16 
 3663000   0.67613661   -7.4927339     829.1464    0.0188631  0.017975376           18 
 3664000   0.65428864    -7.493016    830.27431  0.018883604  0.017969868           22 
 3665000   0.65588229   -7.4873929    829.41984  0.018859023  0.017964356           22 
 3666000   0.65634126   -7.4979596    828.24002   0.01882706  0.017958842           17 
 3667000   0.66454454   -7.4935895    830.19683  0.018866395  0.017953348           15 
 3668000   0.66900291   -7.4855327     829.8799  0.018854051  0.017947853            9 
 3669000    0.6591926   -7.4951792    829.63442  0.018843337  0.017942346           12 
 3670000   0.68012557    -7.501143    829.75179  0.018840867  0.017936865            9 
 3671000   0.64427881   -7.5012995    829.89919  0.018839081  0.017931361           14 
 3672000    0.6568519   -7.4897482    829.63837  0.018828031  0.017925864            6 
 3673000   0.66821679     -7.49155    829.88722  0.018828551  0.017920387           12 
 3674000   0.66533643   -7.4870893    828.68684  0.018796199  0.017914903           24 
 3675000   0.66314217    -7.490051    831.33544  0.018851144   0.01790943           22 
 3676000   0.66256499   -7.4806234    829.61876  0.018807099  0.017903951           16 
 3677000   0.65722402   -7.4977348    830.00544  0.018810748  0.017898475           20 
 3678000   0.66792484   -7.5083983     829.7637  0.018800156  0.017892994           17 
 3679000   0.66640221   -7.5140604    831.50646  0.018834521  0.017887506           10 
 3680000   0.66515196   -7.4979164    829.68062  0.018788058   0.01788202           16 
 3681000   0.66676264   -7.5123518    828.30723  0.018751862  0.017876526           11 
 3682000    0.6709881   -7.4951079    830.53681   0.01879723  0.017871047            7 
 3683000   0.65903163   -7.5045415    829.99766  0.018779927  0.017865563           16 
 3684000   0.67391419    -7.494392    829.92588  0.018773206  0.017860095           17 
 3685000   0.65849526   -7.4787359    829.38641  0.018755912  0.017854636            9 
 3686000   0.65051083   -7.5103582    830.51373   0.01877631  0.017849181            9 
 3687000   0.66295647   -7.4948281    830.87614  0.018779408  0.017843744            7 
 3688000   0.67665858   -7.4839128    831.17885  0.018781156  0.017838289            4 
 3689000   0.66280557   -7.4881036     829.5799  0.018739945  0.017832836           12 
 3690000   0.65752845   -7.4830319    832.78484  0.018807246  0.017827384            8 
 3691000   0.64973718   -7.4846331    829.72502  0.018733067  0.017821929            5 
 3692000   0.67335561   -7.4814734    831.52563  0.018768635  0.017816477           10 
 3693000   0.65663873   -7.4936377    830.92147   0.01874992  0.017811018           11 
 3694000   0.67381258   -7.4958367    829.23811  0.018706869  0.017805564           23 
 3695000   0.65647762   -7.4978917    830.26797  0.018725033  0.017800098            8 
 3696000   0.66898701    -7.519675    830.40527  0.018723063  0.017794632           17 
 3697000   0.64571469   -7.5138052    830.99974  0.018731398  0.017789168           22 
 3698000   0.65604156   -7.5072555    830.53508  0.018715862  0.017783715           26 
 3699000   0.66290115   -7.5309736        829.2  0.018680725  0.017778267           13 
 3700000   0.66140975    -7.485357    830.11406  0.018696263  0.017772825           19 
 3701000   0.65128224   -7.5105308    829.29774   0.01867283  0.017767382           12 
 3702000   0.66161473    -7.509701    830.78948  0.018701366  0.017761936           17 
 3703000   0.66600432   -7.5315431    829.69449  0.018671674  0.017756491           11 
 3704000   0.66826478   -7.4973574    831.53658  0.018708076  0.017751051           17 
 3705000   0.66237698   -7.4847296    831.39274  0.018699792  0.017745611           15 
 3706000   0.65508306   -7.5099407    829.12647  0.018643787  0.017740169           15 
 3707000   0.65799878    -7.495226     830.5352  0.018670425  0.017734747           16 
 3708000   0.66338907   -7.5204793    830.15541  0.018656855  0.017729322           15 
 3709000   0.65831813   -7.5040804    829.40992  0.018635075  0.017723885           19 
 3710000   0.65800472   -7.5211665    830.14443  0.018646551  0.017718438           11 
 3711000   0.67242444    -7.517464    831.02919  0.018661394  0.017712988           14 
 3712000   0.66478145   -7.5077374     831.6569  0.018670458  0.017707544           11 
 3713000    0.6602402   -7.5212489    830.86525  0.018647662  0.017702101           13 
 3714000   0.65375376   -7.5062439    830.00643  0.018623372  0.017696663           19 
 3715000   0.65872303   -7.5171152    830.32136  0.018625423  0.017691222            9 
 3716000   0.66781586    -7.532032    829.32869   0.01859815  0.017685773           17 
 3717000   0.64894647   -7.5212814    829.61914  0.018599658  0.017680336           15 
 3718000   0.66544449     -7.52844     830.2357  0.018608474  0.017674913           20 
 3719000   0.66966115   -7.5409039    828.63647  0.018567636  0.017669466           14 
 3720000   0.65412337   -7.5274738    831.16741  0.018619342  0.017664011           15 
 3721000   0.65808365   -7.5294454    829.06955  0.018567355  0.017658571            8 
 3722000   0.64955318   -7.5104698    829.98676  0.018582903  0.017653139            6 
 3723000   0.67167888   -7.4884489    831.16434  0.018604269  0.017647713           15 
 3724000   0.63749886   -7.5116551    828.66402  0.018543323  0.017642284            8 
 3725000   0.64603181   -7.5120353    830.14665  0.018571513  0.017636858           25 
 3726000   0.64715171   -7.5038324    832.41111  0.018617175  0.017631433           13 
 3727000   0.66901922   -7.5104374    829.84128   0.01855472  0.017625998           25 
 3728000   0.65027821   -7.4970461    831.27338  0.018581755  0.017620564           17 
 3729000   0.66162671   -7.5183938    828.51835  0.018515204  0.017615149           16 
 3730000   0.64693904   -7.5025537    831.04155  0.018566612  0.017609732           17 
 3731000   0.66061719   -7.5159997    830.75519   0.01855524  0.017604319           22 
 3732000   0.65320134   -7.5214877    831.04118  0.018556654  0.017598917           18 
 3733000   0.65695531   -7.4956543    829.67589  0.018521205  0.017593517           15 
 3734000   0.64767122   -7.5170688    831.21763  0.018550652  0.017588112           20 
 3735000   0.63439856   -7.5208093    832.09119  0.018565176  0.017582709           24 
 3736000   0.65350526   -7.5096241     830.2876  0.018519977  0.017577311            9 
 3737000   0.66553004   -7.5083079    830.67669  0.018523698  0.017571918           13 
 3738000   0.65363154   -7.4979687    829.99008  0.018503435  0.017566522           21 
 3739000   0.65128459   -7.5218244    829.84825  0.018495325  0.017561143           16 
 3740000   0.65463567   -7.5129123    830.49594  0.018504812  0.017555751            9 
 3741000    0.6520976   -7.5325947    830.81915  0.018507065  0.017550372           12 
 3742000   0.65644789   -7.5083376    828.77717  0.018456645  0.017544974            9 
 3743000   0.66617333   -7.4959679    830.56764  0.018491576  0.017539588           16 
 3744000   0.64508015    -7.522041    829.74852  0.018468405  0.017534201           18 
 3745000    0.6497665   -7.5151097    831.34746  0.018499053  0.017528805           10 
 3746000   0.65505319   -7.5229569    828.92002  0.018440114  0.017523412           23 
 3747000   0.64692069   -7.5238965     830.6399  0.018473443   0.01751801           20 
 3748000   0.65811394   -7.5192412    829.67157  0.018446984  0.017512619           17 
 3749000   0.65258228   -7.5031141    829.34285  0.018434757  0.017507231           12 
 3750000   0.64719071   -7.5148584    830.57517  0.018457226  0.017501855            8 
 3751000   0.64651795   -7.5148783    830.92001  0.018459966  0.017496477           14 
 3752000   0.64360034   -7.4960471    830.98521  0.018456494  0.017491103           14 
 3753000   0.66192136   -7.5203275    830.65342   0.01844421  0.017485734            9 
 3754000   0.65047392   -7.5146988     832.4886  0.018480035  0.017480364           11 
 3755000   0.64654528   -7.5010632    830.27807  0.018426056  0.017475003           18 
 3756000   0.64837825   -7.5127956    829.72814  0.018408949  0.017469627           12 
 3757000   0.66014917   -7.5107338    830.81828  0.018428229  0.017464264           11 
 3758000   0.65213673   -7.4708666    831.34918  0.018435098  0.017458911           19 
 3759000   0.64332794   -7.5090248    831.78124  0.018439772  0.017453546            9 
 3760000   0.65186717   -7.5311077    831.09416   0.01841964  0.017448193           17 
 3761000   0.65718302   -7.5307068    830.22091  0.018395394  0.017442832           19 
 3762000   0.66134968   -7.5065207    830.39618  0.018394387  0.017437464           12 
 3763000   0.64971558   -7.5549433     830.1505  0.018384057  0.017432095           11 
 3764000   0.64824442   -7.5278145    829.58529   0.01836666  0.017426727            8 
 3765000   0.66395638   -7.5296967    829.84187  0.018367461  0.017421364            9 
 3766000   0.64956725   -7.5198902    830.89753  0.018385943  0.017416001           14 
 3767000   0.64681617   -7.5115918    831.20015  0.018387757  0.017410647           18 
 3768000   0.65042704   -7.5176913    830.97315  0.018377856  0.017405293           25 
 3769000   0.65825089   -7.5019767     830.9456  0.018372371  0.017399939           11 
 3770000   0.64139598    -7.498221    831.07774  0.018370419   0.01739459           10 
 3771000   0.66495468   -7.5106307    830.77954  0.018358957  0.017389249           12 
 3772000   0.65767962   -7.5369402    830.65298  0.018351294  0.017383893            6 
 3773000   0.65118191   -7.5216681    829.10599  0.018312262  0.017378519           10 
 3774000   0.65749114   -7.5095746    829.45207  0.018315052  0.017373147           13 
 3775000   0.66376381   -7.5412537    829.20831  0.018304819  0.017367778            7 
 3776000   0.65202753   -7.5374438    830.29964  0.018324056  0.017362407            9 
 3777000   0.64625838    -7.539943    828.61474   0.01828203  0.017357037           15 
 3778000   0.64884865    -7.542953     830.2764  0.018313843   0.01735167           21 
 3779000   0.64789231   -7.5239823    829.48931  0.018291641  0.017346301            5 
 3780000   0.64247517   -7.5163157    828.37159   0.01826216  0.017340917           13 
 3781000   0.64474477   -7.5488795    831.00575  0.018315387  0.017335553           14 
 3782000   0.65853166   -7.5252591    830.62927  0.018302249  0.017330197           16 
 3783000   0.65799178    -7.523527    830.70665  0.018299116  0.017324838           19 
 3784000   0.63910843   -7.5040677    829.62993  0.018270568  0.017319489            8 
 3785000    0.6483657   -7.5281238    830.85086  0.018292621  0.017314142           10 
 3786000    0.6506204   -7.5286355    830.49556  0.018279969   0.01730879            4 
 3787000   0.65312042   -7.5263753    831.83201  0.018304551  0.017303447            5 
 3788000     0.643104   -7.5292409    828.53636  0.018227217  0.017298098           13 
 3789000   0.64037791   -7.5474443    831.21509  0.018281321  0.017292734           10 
 3790000    0.6425461   -7.5198953    830.67196  0.018264555  0.017287374            9 
 3791000   0.65087797   -7.5416827    830.14193  0.018248086  0.017282018           20 
 3792000   0.63783771   -7.5214989    829.50502  0.018229277  0.017276655           13 
 3793000   0.64300678   -7.5580664      829.392  0.018221988  0.017271293           21 
 3794000   0.63811151   -7.5633602    830.23406  0.018235681  0.017265931           19 
 3795000   0.65149249    -7.550158    829.75035  0.018220254  0.017260573           16 
 3796000   0.65665849   -7.5683723    829.39274  0.018207603  0.017255218            8 
 3797000   0.64836155   -7.5638185     828.4118  0.018181279  0.017249874           16 
 3798000   0.64064868   -7.5215389    829.82768  0.018207558  0.017244538           18 
 3799000   0.63327644   -7.5368261    830.12555    0.0182093  0.017239191            8 
 3800000   0.65689197   -7.5326241    830.99084  0.018223483  0.017233844           11 
 3801000   0.65518544   -7.5341559      830.274  0.018202973  0.017228498           10 
 3802000   0.63274782   -7.5426319    830.17759  0.018196072  0.017223156           14 
 3803000   0.63537609   -7.5365878    829.00612  0.018165618  0.017217809            8 
 3804000   0.63705941   -7.5364594    830.37019  0.018190724  0.017212473           12 
 3805000    0.6450248   -7.5340358    831.16723    0.0182034  0.017207142           16 
 3806000   0.64825284    -7.529452    830.96434  0.018194175  0.017201816           12 
 3807000   0.64244313   -7.5259905    832.66763   0.01822668  0.017196497           12 
 3808000   0.63124239   -7.5445319    830.43855  0.018173112  0.017191178           13 
 3809000   0.63609696   -7.5266738    830.36952  0.018166831  0.017185856           15 
 3810000   0.64921689   -7.5203961     830.7917  0.018171297  0.017180548           12 
 3811000   0.64995831   -7.5336386    831.46154  0.018181176  0.017175243           14 
 3812000    0.6547443   -7.5396758    830.08172  0.018146242  0.017169929           13 
 3813000    0.6472693   -7.5391982    828.91198  0.018115919  0.017164615            7 
 3814000   0.66160265    -7.562239    829.69158  0.018128203  0.017159301           16 
 3815000    0.6371583   -7.5410086     830.2785  0.018136271  0.017153984           13 
 3816000   0.64680344   -7.5248135    829.51743  0.018114898  0.017148673            8 
 3817000   0.62545656   -7.5347502    831.57534  0.018155081  0.017143368           16 
 3818000   0.64197025    -7.538458    829.23523   0.01809925  0.017138046           24 
 3819000   0.64086755   -7.5308518    830.02682  0.018111784  0.017132735           29 
 3820000   0.63825071   -7.5274741    829.07362  0.018086248  0.017127422           18 
 3821000   0.63506128   -7.5321601    830.96714  0.018122811  0.017122121           16 
 3822000   0.65106411   -7.5321832    830.27958  0.018103078  0.017116821           15 
 3823000   0.64941933   -7.5416554    831.17004  0.018117753  0.017111529           20 
 3824000   0.64333872   -7.5552414    830.67911  0.018102317  0.017106233           31 
 3825000    0.6478948   -7.5403378    830.28008  0.018088891  0.017100942           31 
 3826000    0.6329665   -7.5278101    831.22845  0.018104819   0.01709565           35 
 3827000    0.6409901   -7.5475138    830.75139    0.0180897   0.01709035           28 
 3828000   0.63467118   -7.5424479    831.14355  0.018093512  0.017085055           15 
 3829000   0.64517451   -7.5661689    830.15826  0.018067343  0.017079759           36 
 3830000   0.63926134   -7.5473265    830.53616  0.018070848  0.017074461           10 
 3831000   0.63191742   -7.5470565    830.86001  0.018073175  0.017069158            9 
 3832000   0.63617274   -7.5356813    829.02267  0.018028503  0.017063853           10 
 3833000   0.64652218   -7.5495603    830.83612  0.018063226  0.017058554           13 
 3834000   0.63226395    -7.542301    831.26183  0.018067767  0.017053253           11 
 3835000   0.64961024   -7.5292601    830.97223  0.018056763  0.017047953            4 
 3836000   0.63479116   -7.5624628    829.68897  0.018024178  0.017042659            9 
 3837000   0.62428551   -7.5465539     830.9981  0.018047913  0.017037351           23 
 3838000   0.65133458    -7.538322    830.24082  0.018026768  0.017032044           10 
 3839000   0.63820869   -7.5389635    828.78846  0.017990546  0.017026747            6 
 3840000   0.63568202    -7.544858    829.82711  0.018008401  0.017021445           16 
 3841000   0.63486393   -7.5572322    830.23637  0.018012592  0.017016149            8 
 3842000   0.63896368   -7.5470335    831.08119  0.018026227  0.017010857            5 
 3843000   0.64284677    -7.558468    829.43452   0.01798583  0.017005552            9 
 3844000   0.64596868   -7.5516342     830.6354  0.018007184   0.01700025            9 
 3845000   0.63521867   -7.5495288    830.24068  0.017993946  0.016994963           25 
 3846000   0.63945643   -7.5493297    830.32922  0.017991186  0.016989682           15 
 3847000   0.62800694   -7.5407954    830.78573  0.017996398  0.016984401            6 
 3848000   0.62798979   -7.5240238     829.9493  0.017973607  0.016979125            8 
 3849000   0.64039704   -7.5339914    830.64883  0.017984083  0.016973866            9 
 3850000   0.64214941   -7.5632054    829.42408  0.017952902  0.016968587           13 
 3851000   0.63820829   -7.5747225    830.93595  0.017980956  0.016963319            7 
 3852000   0.61812563   -7.5574092     830.1821   0.01795998   0.01695805            9 
 3853000   0.63701147    -7.549934    830.22893  0.017956331  0.016952785            8 
 3854000   0.63488492   -7.5666121    830.46429  0.017956761   0.01694752            9 
 3855000   0.63210696   -7.5405969      829.449  0.017930156  0.016942264           14 
 3856000   0.64532175   -7.5432264    830.69096  0.017952346  0.016936992           24 
 3857000   0.62732878   -7.5669533    829.57214  0.017923519  0.016931716           22 
 3858000   0.63511907   -7.5602377    829.36328  0.017914362  0.016926447           19 
 3859000    0.6384717   -7.5609769    829.14258  0.017904953  0.016921177           28 
 3860000   0.64436468   -7.5532467    830.01471  0.017919143  0.016915912           16 
 3861000   0.63701847   -7.5763636    828.84363  0.017889226  0.016910653           14 
 3862000   0.62660592   -7.5275931    830.71368  0.017924946  0.016905389           11 
 3863000   0.64102499   -7.5895084    829.97196  0.017904305  0.016900135           20 
 3864000   0.63145521   -7.5503497    831.10204  0.017924043  0.016894866            9 
 3865000   0.64182901   -7.5586502    830.71782  0.017911122  0.016889609           13 
 3866000   0.65126757   -7.5453204    831.89589  0.017931883  0.016884347           10 
 3867000   0.62704952   -7.5548651    830.06338  0.017887755  0.016879088           17 
 3868000   0.64514462   -7.5282621    830.26108   0.01788739  0.016873842            7 
 3869000    0.6283479   -7.5263515    831.63802  0.017912424  0.016868594            6 
 3870000   0.64386514   -7.5608759    831.16987  0.017897715  0.016863347            4 
 3871000   0.63523216   -7.5459515     830.7345  0.017883719  0.016858103           25 
 3872000   0.62762882   -7.5493182    829.37012  0.017849736  0.016852843            9 
 3873000   0.64857611   -7.5553303    830.02784  0.017859279  0.016847594            7 
 3874000   0.62673628   -7.5704495    828.57933   0.01782351  0.016842342            8 
 3875000   0.62583316   -7.5490404    832.00473  0.017892575  0.016837098            6 
 3876000   0.62679484   -7.5447534    829.18459  0.017827326  0.016831865           12 
 3877000   0.62570794   -7.5587956    831.25718  0.017867277  0.016826633            4 
 3878000   0.64976428   -7.5673051    828.95472  0.017813192  0.016821394           11 
 3879000   0.61787785   -7.5447517    832.04539  0.017874998  0.016816171            9 
 3880000   0.63554859   -7.5343015    831.08831  0.017849835  0.016810953            8 
 3881000   0.63356361   -7.5196132    830.98807  0.017843083  0.016805744           10 
 3882000   0.64158421   -7.5456118    830.97087  0.017838118  0.016800532            4 
 3883000    0.6203668   -7.5401447    830.17717   0.01781649  0.016795324            6 
 3884000   0.63252534   -7.5441102    830.03023   0.01780875  0.016790126            7 
 3885000    0.6395971   -7.5416016     830.3168  0.017810313  0.016784917           16 
 3886000   0.62940789   -7.5745209    831.28779  0.017826552  0.016779698           10 
 3887000   0.63299767   -7.5680435    830.37635  0.017802426   0.01677449           10 
 3888000   0.64216871   -7.5287982    829.44863  0.017777963  0.016769275            8 
 3889000   0.63503826   -7.5503711    830.81194  0.017802604  0.016764066           13 
 3890000   0.60730933   -7.5587084     831.0232  0.017802554  0.016758849           13 
 3891000   0.62604207   -7.5644865    830.91586  0.017795679  0.016753644           13 
 3892000   0.63327761   -7.5537341    830.04739  0.017772512  0.016748433           12 
 3893000    0.6266529   -7.5668144    828.88981  0.017743168  0.016743222           21 
 3894000   0.63080181   -7.5636688    829.87375  0.017759668  0.016738007           13 
 3895000    0.6325456    -7.585363    830.46497  0.017767757  0.016732786           17 
 3896000   0.64222172   -7.5780409    829.92247  0.017751593   0.01672757           14 
 3897000    0.6098047    -7.573278    831.14728  0.017773229  0.016722354            9 
 3898000   0.62335553    -7.569788    829.44251  0.017732224  0.016717133            8 
 3899000   0.64062262   -7.5864387    829.89106  0.017737263  0.016711911           10 
 3900000   0.62654173   -7.5609706    831.40408  0.017765044  0.016706692            7 
 3901000   0.64896823   -7.5644277    831.72312  0.017767306  0.016701484           15 
 3902000   0.62257994   -7.5465806    829.61688   0.01771777  0.016696278           15 
 3903000   0.63167049   -7.5840417    829.34769  0.017707483  0.016691076           14 
 3904000   0.62265949   -7.5702784    829.19747  0.017699741  0.016685877            6 
 3905000   0.63177813   -7.5685799    829.19001  0.017695049  0.016680676            6 
 3906000   0.62583322   -7.5710298    828.36574  0.017672934  0.016675466            7 
 3907000   0.63228675   -7.5675524    829.14515  0.017685034  0.016670246           12 
 3908000   0.62374295   -7.5770826    830.47768  0.017708924  0.016665033           20 
 3909000   0.62946656   -7.5808204    830.25579  0.017699663  0.016659821           11 
 3910000   0.63555593   -7.5892548    829.47707  0.017678539  0.016654617           20 
 3911000    0.6498665   -7.5818667    831.26552  0.017712127  0.016649416           18 
 3912000   0.63119633   -7.5849396    829.46054  0.017669149  0.016644218           13 
 3913000   0.62547138   -7.5652818    831.15082  0.017700631  0.016639014           20 
 3914000   0.62565093   -7.5852563    829.27886  0.017656252  0.016633805           14 
 3915000   0.65047955   -7.5689628    830.49365    0.0176776  0.016628599           12 
 3916000   0.62256091   -7.5781124    830.12896  0.017665325  0.016623402           13 
 3917000   0.63305502   -7.5755218    829.56381  0.017648792  0.016618204           18 
 3918000   0.63171158   -7.5768145    829.92891  0.017652053  0.016613009            9 
 3919000   0.63017071   -7.5936732    831.14905  0.017673493  0.016607812           13 
 3920000   0.62686392   -7.5829854    830.10943  0.017646884  0.016602619            7 
 3921000   0.63434097   -7.5765235    829.86618  0.017637214  0.016597427           14 
 3922000   0.61308843   -7.6018966    829.15051   0.01761751  0.016592222           10 
 3923000   0.62791077   -7.6002411    829.48964  0.017620224  0.016587016           14 
 3924000   0.62247087    -7.591094    827.87135  0.017581366  0.016581817            6 
 3925000    0.6202139   -7.5955736    829.41137  0.017609583   0.01657662           38 
 3926000    0.6242488   -7.5871223    829.49726  0.017606921  0.016571437           10 
 3927000   0.61898774    -7.602165    828.77081  0.017587022  0.016566248           28 
 3928000   0.62787914   -7.5910968    828.66375  0.017580273  0.016561073           17 
 3929000   0.62115281   -7.5960882    829.68037  0.017597361  0.016555907            9 
 3930000    0.6187137   -7.5599924    828.62831  0.017570575  0.016550733           17 
 3931000   0.60922419   -7.5731198    830.42117  0.017604112  0.016545562            6 
 3932000   0.62335178   -7.5860931    830.95272    0.0176109    0.0165404            8 
 3933000   0.63085532   -7.5610857    829.17315  0.017568717  0.016535244            8 
 3934000   0.62092802   -7.5885825    830.53376  0.017593072  0.016530077           11 
 3935000   0.61997926   -7.5792247    830.72233  0.017592595  0.016524918           14 
 3936000   0.61459874   -7.5801251    829.38102  0.017559727  0.016519759           15 
 3937000    0.6309475   -7.5805519    829.78911  0.017563905  0.016514601           19 
 3938000   0.61816647   -7.5782096    830.56514  0.017575866  0.016509451            6 
 3939000    0.6134885   -7.5545857    829.53184  0.017549544  0.016504315           16 
 3940000   0.61577686   -7.5490826    831.17574  0.017579859  0.016499174           11 
 3941000   0.63149742   -7.5836538    830.69599  0.017565254  0.016494043           14 
 3942000   0.60582995   -7.5876178    829.56642  0.017536919  0.016488917           21 
 3943000   0.61284452   -7.5726684    832.08406  0.017585681  0.016483779           17 
 3944000   0.61387489   -7.5688822    830.89957  0.017556194  0.016478655           11 
 3945000   0.61522989   -7.5812207    830.28454  0.017538753  0.016473533           14 
 3946000   0.62429361   -7.5938311    830.30162  0.017534669  0.016468401           19 
 3947000   0.63001114   -7.5928547    831.59868  0.017557611  0.016463278           19 
 3948000   0.62350884   -7.6034443    830.89123  0.017538231  0.016458159           12 
 3949000   0.62879172   -7.5807167     829.5622  0.017505744  0.016453025           12 
 3950000   0.61105699    -7.576914    830.26217   0.01751608  0.016447893           19 
 3951000   0.62018344   -7.5781642    831.17591  0.017530918  0.016442775           17 
 3952000    0.6269898   -7.6003603    832.07357  0.017545411  0.016437648           13 
 3953000   0.62123976   -7.5773997    831.59145  0.017530809  0.016432529           15 
 3954000   0.60811202    -7.591646    831.92042  0.017533308  0.016427418           16 
 3955000   0.61502251   -7.6013944    829.84976  0.017485246  0.016422296           17 
 3956000   0.62601399    -7.588597    830.98486  0.017504737  0.016417175           15 
 3957000   0.61889052   -7.5902363    831.92679   0.01752015   0.01641206           13 
 3958000   0.61948316   -7.6006578    830.39771  0.017483529  0.016406942           19 
 3959000   0.60509391   -7.5944844    831.43364  0.017500919  0.016401828           23 
 3960000   0.62012112   -7.6058421    829.93619  0.017464987  0.016396713           13 
 3961000   0.61879078   -7.6008862    830.63394  0.017475258  0.016391601           17 
 3962000   0.62591363   -7.5626617    831.29794  0.017484813  0.016386498           18 
 3963000   0.61991926   -7.5940063    831.48029  0.017484235  0.016381393            9 
 3964000   0.61706188   -7.5887995     830.4124  0.017457375  0.016376294           20 
 3965000   0.62229154    -7.600409    831.47475  0.017475299  0.016371186           13 
 3966000    0.6007769   -7.5934643    831.63194  0.017474196  0.016366078           17 
 3967000   0.61972445   -7.5961413    831.09985  0.017458614  0.016360984           19 
 3968000   0.62218373    -7.577064    832.00489  0.017473221  0.016355887           19 
 3969000   0.61051265   -7.5913093    829.52242  0.017416697  0.016350784           35 
 3970000   0.62223549   -7.5973214    829.50986  0.017412046   0.01634569           33 
 3971000   0.62156904   -7.5893963    831.29195  0.017445059  0.016340591           29 
 3972000    0.6110179   -7.5833509    830.50309  0.017424116    0.0163355           25 
 3973000   0.60583245     -7.56893    830.27316  0.017414908  0.016330401           28 
 3974000   0.61882526   -7.5872172    831.32747  0.017432634   0.01632532           24 
 3975000   0.61637001   -7.5855268     829.9701  0.017399792  0.016320237           23 
 3976000   0.61882671   -7.6020166    830.83525  0.017413549  0.016315147           17 
 3977000   0.60756393   -7.6079268    830.95413  0.017411661  0.016310052           16 
 3978000    0.6120555   -7.5838637    829.91297  0.017385474  0.016304955           14 
 3979000   0.61289641   -7.6270409    827.84536  0.017337802  0.016299848           23 
 3980000   0.62259352   -7.5968913    829.24797  0.017362813  0.016294731           14 
 3981000   0.61807572   -7.6058453    829.00964  0.017353463  0.016289626           13 
 3982000   0.61048663   -7.6038534    829.16886  0.017352437  0.016284523           13 
 3983000   0.61990547   -7.6097851    831.04959   0.01738743  0.016279438           10 
 3984000   0.61471771   -7.5993208      830.343  0.017368286  0.016274356           11 
 3985000   0.61647135   -7.5995749    829.29196  0.017341948  0.016269268           11 
 3986000   0.62827486   -7.6086653    829.70437   0.01734622   0.01626419           18 
 3987000   0.61264032   -7.5869015    830.92387  0.017367358  0.016259106           12 
 3988000   0.61520842   -7.6096373     830.5383  0.017354946  0.016254022           25 
 3989000   0.60665274   -7.5925332    831.66417  0.017374116  0.016248941           22 
 3990000   0.61866183   -7.5880406    830.88902  0.017353572  0.016243862           13 
 3991000   0.61496248   -7.5893012    832.03364  0.017373124  0.016238786           46 
 3992000   0.60556643   -7.5899257    829.49566  0.017315791  0.016233714           16 
 3993000   0.60944791    -7.596768    831.65187  0.017356454  0.016228633           19 
 3994000   0.62169411   -7.6158524    828.34846  0.017283184  0.016223551           24 
 3995000   0.61919589   -7.5986257    829.73517  0.017307784  0.016218465           12 
 3996000   0.59862419   -7.6114263    829.12796   0.01729079  0.016213385           15 
 3997000   0.59191438   -7.6114852    828.32739  0.017269773  0.016208294           11 
 3998000   0.60319912   -7.6143756    829.45914  0.017289043  0.016203205           13 
 3999000   0.59483002   -7.6068913    830.14378  0.017298987  0.016198115           10 
 4000000   0.60783357   -7.6041002    829.57954  0.017282907  0.016193028           14 
 4001000   0.61370932   -7.5928698    829.02023  0.017266938  0.016187943           20 
 4002000   0.59906077   -7.6040398    829.02377  0.017262697  0.016182857           32 
 4003000   0.61094298   -7.6106007    829.39457  0.017266104   0.01617778           26 
 4004000   0.60598101   -7.6050121    830.46298  0.017284028  0.016172702           21 
 4005000   0.60461546   -7.6255239    828.99158  0.017249097  0.016167631           16 
 4006000   0.61213696   -7.6114819    829.26291  0.017250435  0.016162561           19 
 4007000   0.61479307   -7.6073923    830.68949  0.017275798  0.016157496           20 
 4008000    0.6223167   -7.6298854    828.71912  0.017230521  0.016152423           27 
 4009000   0.60208394   -7.6074408    828.84295  0.017228797   0.01614735           24 
 4010000   0.62241448   -7.6022921    829.77648    0.0172439  0.016142277           12 
 4011000   0.61897109   -7.5922396    829.68354   0.01723767   0.01613721           28 
 4012000   0.60430372   -7.6093227    829.04488  0.017220108  0.016132144           26 
 4013000   0.61350963   -7.6227017    828.52002  0.017204918  0.016127069           22 
 4014000   0.60441603   -7.6150218    829.11706  0.017213026  0.016121992           25 
 4015000    0.6058198   -7.6189451    831.37362  0.017255575  0.016116932           20 
 4016000   0.60360876   -7.6120907    829.99765  0.017222727  0.016111855           28 
 4017000   0.59602733   -7.6183168    829.43401  0.017206746  0.016106777           30 
 4018000   0.59773628    -7.623812    828.11235  0.017175053  0.016101691           22 
 4019000   0.59636681   -7.6179853    829.82009  0.017206189  0.016096608           18 
 4020000   0.61212631    -7.631011    829.18502  0.017188744  0.016091525           12 
 4021000   0.61585463   -7.6184642    828.77901  0.017176055  0.016086454           13 
 4022000   0.60447879   -7.6177848    828.63552  0.017168812  0.016081379           31 
 4023000   0.60820722   -7.6187749    828.82485  0.017168466  0.016076307           26 
 4024000   0.61066426   -7.6081128    830.01127  0.017188769   0.01607124           16 
 4025000   0.59679682   -7.6105729     828.7106  0.017157569  0.016066187           14 
 4026000   0.60233035   -7.6171995    828.72544  0.017153615  0.016061121           21 
 4027000     0.599639   -7.6226751     829.4745  0.017164856  0.016056052           16 
 4028000   0.60918718   -7.6271058      826.297  0.017094857  0.016050989           33 
 4029000   0.59950261   -7.6332658     828.5888  0.017138016  0.016045922           16 
 4030000   0.60952876   -7.6500819    827.87715  0.017119048  0.016040847           14 
 4031000    0.5956328   -7.6076332    829.10971  0.017140282  0.016035777           31 
 4032000   0.60503392   -7.6150448    830.25394   0.01715968  0.016030723           24 
 4033000    0.6060146   -7.6290452    829.40824   0.01713795  0.016025672           17 
 4034000   0.60776946   -7.6393723    828.46435  0.017114203  0.016020627           14 
 4035000   0.59566419   -7.6196141    829.25299  0.017126249  0.016015585           16 
 4036000   0.59648293   -7.6343867    827.74915  0.017090955  0.016010546           23 
 4037000   0.60352858   -7.6162333    829.11215  0.017114857  0.016005503           27 
 4038000   0.61648546   -7.6118293    828.76229  0.017103399  0.016000456           23 
 4039000    0.6073187   -7.6192605    827.24126  0.017067782  0.015995401           16 
 4040000   0.58709391   -7.6167337    827.55098  0.017069946  0.015990358           26 
 4041000   0.60943111   -7.6187462    828.92062  0.017093966  0.015985318           22 
 4042000   0.61325948   -7.6174589     827.9295  0.017069304  0.015980271           21 
 4043000   0.60729316   -7.6196449    827.01112  0.017046152  0.015975224           25 
 4044000   0.60306042   -7.6519925    828.74866  0.017077742  0.015970175           19 
 4045000   0.61106574    -7.626594    827.71536  0.017052232  0.015965119           19 
 4046000   0.60180178   -7.6335201    828.12009  0.017056354  0.015960074           16 
 4047000   0.59550029   -7.6298619    828.69751  0.017064029  0.015955039           29 
 4048000   0.60209808   -7.6300787    827.84102  0.017042182  0.015949995           25 
 4049000   0.61974436   -7.6355414    826.25047  0.017005237  0.015944946           22 
 4050000   0.59968294   -7.6347456    827.25393  0.017021686  0.015939903           31 
 4051000   0.59378537   -7.6142139    828.44253  0.017041935  0.015934865           22 
 4052000   0.60546177   -7.6318686    826.44868  0.016996723  0.015929822           20 
 4053000   0.59760132   -7.6235463     828.7953  0.017040778  0.015924776            9 
 4054000   0.59949428   -7.6453704    828.15438    0.0170234  0.015919734           13 
 4055000   0.60735483   -7.6438147    828.67306  0.017029862  0.015914683           24 
 4056000   0.61536855   -7.6166457    827.24721  0.016996368  0.015909644           20 
 4057000   0.59493369    -7.644682    828.60688  0.017020107  0.015904613           17 
 4058000   0.59930774    -7.619958     825.7492  0.016957229  0.015899573           20 
 4059000   0.61325276   -7.6098165    828.50729  0.017009676  0.015894534           28 
 4060000    0.6103998   -7.6330129    827.07973  0.016976185  0.015889502           20 
 4061000   0.60314157   -7.6318281    828.50957  0.017001345  0.015884476           17 
 4062000   0.59783482   -7.6043113    829.14463  0.017010188  0.015879451           17 
 4063000   0.59547164    -7.636634    829.61792  0.017015709  0.015874432           19 
 4064000   0.59381807   -7.6196331    828.03758  0.016979117   0.01586941           19 
 4065000   0.60040056   -7.6454206    829.53455  0.017005628  0.015864387           29 
 4066000   0.59844061   -7.6287199    827.80905  0.016966082  0.015859368           25 
 4067000   0.58899611   -7.6138015    827.73372  0.016960366  0.015854344           20 
 4068000   0.60233683   -7.6152734    828.15101  0.016964745  0.015849328           21 
 4069000   0.61127365   -7.6401513    826.63467  0.016929521  0.015844303           24 
 4070000   0.57557266   -7.6371594    828.41525  0.016961819  0.015839277           23 
 4071000   0.60480848   -7.6342622    827.32339  0.016935302  0.015834261           28 
 4072000   0.61490974   -7.5997925    828.64982  0.016958289  0.015829251           19 
 4073000    0.6218707   -7.6511867     827.1523  0.016923486  0.015824243           13 
 4074000   0.58826778   -7.6363605    828.81709  0.016953385  0.015819223           12 
 4075000   0.59524615   -7.6309458    827.91181  0.016930712  0.015814212           18 
 4076000   0.60411655   -7.6221016    827.97128  0.016927774  0.015809199           18 
 4077000   0.59881403   -7.6213335      827.941  0.016923003  0.015804174           16 
 4078000   0.60740941   -7.6109834    827.89656  0.016917945  0.015799158           14 
 4079000   0.60109213   -7.6414778    828.25663  0.016921154  0.015794143           26 
 4080000   0.59832903   -7.6282745    827.96494  0.016911049  0.015789125           28 
 4081000   0.60277569   -7.6510231    826.89737  0.016885105  0.015784113           26 
 4082000   0.58212333   -7.6286085    826.77809  0.016878534  0.015779097           15 
 4083000   0.60450585   -7.6532798       827.26  0.016884235  0.015774094           15 
 4084000   0.60277052   -7.6141105    827.39903  0.016882938  0.015769089           12 
 4085000   0.59101734   -7.6274601    828.40936  0.016899416  0.015764093           11 
 4086000   0.60080546   -7.6322129    827.80286   0.01688291  0.015759091           14 
 4087000    0.6043231   -7.6232668    827.67857  0.016876245  0.015754089           14 
 4088000   0.59172458   -7.6368605    828.04839  0.016879656  0.015749082           24 
 4089000      0.58906   -7.6475089    826.42183  0.016842379  0.015744072           17 
 4090000   0.59882373   -7.6504762     826.3437  0.016836669   0.01573906           11 
 4091000   0.60948237   -7.6472276    827.73763  0.016860947  0.015734051           12 
 4092000    0.6103962   -7.6648145    828.18721  0.016865983  0.015729047           13 
 4093000   0.59360868   -7.6353695    826.56798  0.016828894  0.015724038           16 
 4094000   0.58515387    -7.625856     825.6612  0.016806326  0.015719033           13 
 4095000   0.59092132   -7.6442253     829.1395  0.016873006  0.015714032           11 
 4096000   0.59172273   -7.6368385    826.15483  0.016808163  0.015709023           12 
 4097000   0.58329669   -7.6382717    826.39985  0.016809044  0.015704023           12 
 4098000   0.58624085   -7.6285764     826.6856  0.016810753  0.015699028           11 
 4099000   0.59411703   -7.6365171    827.55387  0.016824304  0.015694031           10 
 4100000   0.60414383   -7.6288837    826.43045  0.016797367   0.01568904           15 
 4101000   0.59618144   -7.6403832    826.95872  0.016804006  0.015684051           22 
 4102000   0.61720447   -7.6290821    827.14037  0.016803599  0.015679074           28 
 4103000   0.60220893   -7.6680408    826.88024  0.016794221    0.0156741           19 
 4104000   0.59976264   -7.6303857    828.43291  0.016821656  0.015669126           13 
 4105000   0.59551675   -7.6133324    827.85784  0.016805884  0.015664152           15 
 4106000   0.59244049   -7.6472495    826.86672  0.016781676  0.015659181           27 
 4107000   0.59373911   -7.6284972     826.7031   0.01677427  0.015654211           29 
 4108000   0.60326644   -7.6538464    827.96772   0.01679584  0.015649225           37 
 4109000   0.58790578   -7.6385665    826.43035  0.016760573  0.015644243           11 
 4110000   0.59876307   -7.6386944    828.01068  0.016788538  0.015639269           23 
 4111000   0.58970174   -7.6365286     827.1846  0.016767709  0.015634302            8 
 4112000   0.59080259   -7.6450159    828.16194  0.016783437  0.015629334            9 
 4113000   0.59542099   -7.6438925    826.63747   0.01674847  0.015624374           18 
 4114000   0.57607498   -7.6447942    827.44335  0.016760723  0.015619411           22 
 4115000   0.58280606   -7.6455038    827.71141  0.016762078  0.015614447           21 
 4116000   0.60510175   -7.6447365    827.99762    0.0167638  0.015609485           16 
 4117000   0.58507412   -7.6263742    826.84954   0.01673649  0.015604519           22 
 4118000   0.60628615   -7.6398329    827.39684  0.016743501  0.015599558           28 
 4119000   0.58651373    -7.643005     828.4218  0.016760172  0.015594596           11 
 4120000    0.6041779   -7.6229452    827.24437  0.016732289  0.015589645           25 
 4121000   0.60011554   -7.6493482    827.10512  0.016725413  0.015584694           27 
 4122000   0.60145646   -7.6409659    825.67156  0.016692373  0.015579751           15 
 4123000   0.58985895   -7.6618206    826.36446   0.01670233  0.015574784           17 
 4124000   0.59699255   -7.6525323    827.14346  0.016714021  0.015569822           12 
 4125000     0.580881   -7.6536593    826.10741  0.016689039  0.015564855            9 
 4126000   0.58923918   -7.6700454    827.63082  0.016715762  0.015559895           14 
 4127000   0.59906776   -7.6699948    827.61429  0.016711378  0.015554933           36 
 4128000   0.59160007   -7.6387248    827.22492  0.016699469  0.015549976           13 
 4129000   0.59298792   -7.6523509      825.548  0.016661581  0.015545024           18 
 4130000   0.58265003   -7.6362281    826.57368  0.016678242  0.015540064           16 
 4131000   0.58917269   -7.6561751    826.39716  0.016670644  0.015535109           14 
 4132000   0.58019124   -7.6420256    826.70538  0.016672825  0.015530154           13 
 4133000   0.59433935   -7.6669095    825.48991  0.016644284  0.015525196           12 
 4134000    0.5852329   -7.6539805    824.80618  0.016626475  0.015520239            9 
 4135000   0.58034136   -7.6429682     827.7881  0.016682549  0.015515284           11 
 4136000   0.59716309   -7.6413355    826.04788  0.016643453  0.015510334           30 
 4137000   0.58741099   -7.6524397    827.05209  0.016659659  0.015505387           16 
 4138000   0.60335319   -7.6459815     826.6058  0.016646645  0.015500443           11 
 4139000   0.58473671   -7.6448114    826.65232   0.01664356  0.015495509           17 
 4140000   0.58778314   -7.6694471    827.43345  0.016655263  0.015490573           16 
 4141000   0.57604679   -7.6524778     827.9473  0.016661581  0.015485648           11 
 4142000   0.57495766   -7.6678749    827.17808  0.016642083  0.015480719           20 
 4143000   0.60261893   -7.6676963    827.34557  0.016641435  0.015475787           16 
 4144000   0.59100453   -7.6633186    827.10022  0.016632485  0.015470856           20 
 4145000   0.58478512   -7.6600396    825.90708  0.016604485  0.015465934           11 
 4146000   0.59031645    -7.666832    826.91035  0.016620645  0.015461013           25 
 4147000   0.59190396   -7.6715655    827.40708  0.016626619   0.01545609           18 
 4148000   0.59209039   -7.6789638    826.41915  0.016602763  0.015451162           27 
 4149000   0.59590533   -7.6525107    824.91975  0.016568646  0.015446233           15 
 4150000   0.58819667   -7.6628106    825.21347  0.016570552  0.015441309           17 
 4151000   0.58649316   -7.6582142    827.51934  0.016612851  0.015436375           16 
 4152000     0.584163   -7.6573778    826.80391  0.016594491   0.01543144           23 
 4153000    0.5748845   -7.6609452    826.23366  0.016579052  0.015426508           18 
 4154000    0.5834214    -7.676425    824.18846  0.016534033  0.015421571           21 
 4155000   0.58938533   -7.6743597    827.16397  0.016589731   0.01541663           19 
 4156000   0.58073324   -7.6689324    826.33539  0.016569125  0.015411704            9 
 4157000   0.58988865   -7.6585649     824.2748  0.016523831  0.015406768            9 
 4158000   0.58955598   -7.6670081    827.26569    0.0165798   0.01540184           11 
 4159000   0.59208385   -7.6674431    827.17322   0.01657396   0.01539691           14 
 4160000   0.58159721   -7.6624356    825.93386   0.01654515  0.015391984           20 
 4161000   0.59558763   -7.6636229    825.19829  0.016526442  0.015387064           18 
 4162000   0.58165507   -7.6607924    826.86731  0.016555889  0.015382146           10 
 4163000   0.58501292   -7.6698507    825.60264  0.016526596   0.01537723           29 
 4164000   0.58415622   -7.6576513    826.63159   0.01654322  0.015372316           23 
 4165000   0.57882165   -7.6804461     825.1457  0.016509518  0.015367391           20 
 4166000   0.58222317   -7.6752914    824.86467  0.016499933   0.01536247           19 
 4167000   0.58078356   -7.6564627    824.86396   0.01649596  0.015357554           34 
 4168000    0.5862901   -7.6520528    824.74772  0.016489678  0.015352642           20 
 4169000   0.59355461    -7.667821    826.12375  0.016513228  0.015347739           21 
 4170000   0.58184568   -7.6586766    824.78625  0.016482539  0.015342832           28 
 4171000   0.60183752   -7.6689269    825.81256  0.016499092  0.015337934           19 
 4172000   0.59378055   -7.6790867    827.93721  0.016537576  0.015333039           24 
 4173000   0.57411015   -7.6627619    827.44232   0.01652373  0.015328146           17 
 4174000   0.58460958   -7.6675619    824.66474  0.016464318  0.015323248           16 
 4175000   0.58509497   -7.6829883    825.88301  0.016484691  0.015318355           15 
 4176000   0.58633944   -7.6779818    825.62074   0.01647551  0.015313464           27 
 4177000    0.5792814   -7.6739582    827.70346  0.016513117  0.015308578           37 
 4178000   0.57982062   -7.6664202    825.62856  0.016467779  0.015303685           28 
 4179000   0.59070651   -7.6758202     826.9578  0.016490345  0.015298793           43 
 4180000   0.58470174   -7.6612996    825.11563  0.016449674  0.015293908           36 
 4181000   0.58095041   -7.6693577     826.6566  0.016476453  0.015289027            9 
 4182000   0.58117722    -7.685541     826.6711  0.016472802  0.015284137           12 
 4183000   0.58016389   -7.6682784    825.58593  0.016447245  0.015279257            9 
 4184000   0.58580788   -7.6821003    825.77618  0.016447104  0.015274376           19 
 4185000   0.58284708   -7.6582855    825.66775  0.016441015    0.0152695           10 
 4186000   0.57090603   -7.6587907     825.9177  0.016442063  0.015264628           14 
 4187000   0.57452864   -7.6700529    825.71086  0.016434019   0.01525976           15 
 4188000   0.57798241    -7.664171    825.65133  0.016428911   0.01525489           26 
 4189000   0.59524614   -7.6647978    825.92507  0.016430434  0.015250018           19 
 4190000     0.591132   -7.6824362    825.45511  0.016417166  0.015245153           17 
 4191000   0.58750608   -7.6802634    823.98669  0.016384051  0.015240286           16 
 4192000    0.5788029   -7.6654973    825.81428  0.016416474   0.01523542            9 
 4193000   0.57691081   -7.6770209    825.15076  0.016399371   0.01523055           14 
 4194000   0.58556997   -7.6691479    824.65316  0.016385574  0.015225684           25 
 4195000   0.57849963   -7.6788158    826.10064  0.016410422  0.015220816           14 
 4196000   0.57583712   -7.6869454    826.81274  0.016420653  0.015215947           11 
 4197000   0.57608431   -7.6833267    824.86319  0.016378032  0.015211088           13 
 4198000   0.58718002   -7.6903864    825.93336  0.016395374  0.015206223           11 
 4199000   0.57976309   -7.6978092    826.99376  0.016412514  0.015201353           12 
 4200000   0.58225952   -7.6910324    826.68577  0.016402495   0.01519649           16 
 4201000    0.5720267   -7.6746882    824.78302  0.016360847  0.015191634           19 
 4202000   0.56960738   -7.6681797    825.98748   0.01638084  0.015186785           10 
 4203000   0.56662492    -7.656851    825.59845  0.016369229  0.015181938           17 
 4204000    0.5666619   -7.6660818    825.65522  0.016366461  0.015177084           26 
 4205000   0.56925079   -7.7007154    825.48235  0.016359143  0.015172224           16 
 4206000   0.57591163   -7.6836621    826.11273  0.016367743  0.015167369           15 
 4207000    0.5686026   -7.7082187    823.53056  0.016312704  0.015162514           25 
 4208000   0.58112919   -7.6751769    826.01599  0.016358048  0.015157663           10 
 4209000   0.57878134   -7.6645143    825.67259  0.016347363  0.015152811           16 
 4210000   0.59236373    -7.681782    825.20039  0.016334133  0.015147969           13 
 4211000   0.55404335   -7.6809764    827.10886  0.016368021  0.015143128           27 
 4212000   0.57935214   -7.6813255    826.11172  0.016344407  0.015138292            8 
 4213000   0.58533592   -7.6950926    826.39012  0.016346034  0.015133447           31 
 4214000   0.56954761   -7.6764549    827.35145  0.016361166  0.015128602           23 
 4215000   0.55866775   -7.6644423    825.18922  0.016314536  0.015123762           16 
 4216000    0.5865675   -7.6804513    825.23039   0.01631148  0.015118927           21 
 4217000   0.58326349   -7.6824284    824.59456  0.016295047  0.015114095           15 
 4218000   0.56383523   -7.6997147    826.83215  0.016335391  0.015109272           16 
 4219000    0.5856026   -7.6957882    825.81561   0.01631144  0.015104443           18 
 4220000    0.5711009   -7.6881809    827.34487  0.016337774  0.015099621           22 
 4221000   0.57919148   -7.6871069    826.92574  0.016325629  0.015094801           14 
 4222000   0.58923027   -7.6905018    825.97429  0.016302982   0.01508998           22 
 4223000   0.57552969   -7.6820237    825.89713  0.016297599  0.015085162           25 
 4224000   0.56539117    -7.668496     825.9002  0.016293801  0.015080336           26 
 4225000   0.57526979   -7.7031867    825.91046  0.016290147   0.01507552           12 
 4226000   0.57479901   -7.6737431    824.72601  0.016262936  0.015070699           13 
 4227000   0.57378255   -7.6766208    825.94622  0.016283144  0.015065883           24 
 4228000   0.57263749   -7.6852123    826.93227  0.016298728  0.015061065           19 
 4229000   0.56520804   -7.6934073    823.88232  0.016234774  0.015056246           14 
 4230000   0.57932039   -7.6719799     824.6798  0.016246647  0.015051432           21 
 4231000   0.57759897   -7.6710151    825.85755  0.016266004  0.015046621           23 
 4232000    0.5672848    -7.675555    826.29523  0.016270779  0.015041819           24 
 4233000   0.57975795    -7.684307     826.0978  0.016263048  0.015037007           38 
 4234000   0.56048839   -7.6692884    824.87856   0.01623521  0.015032202           19 
 4235000   0.57200965   -7.6787932    826.18364  0.016257057  0.015027394           26 
 4236000   0.56629948   -7.6726803    826.78059  0.016264963  0.015022599           28 
 4237000   0.55983013   -7.6842013    825.38243  0.016233625  0.015017797           27 
 4238000   0.57286904   -7.6863594    825.60077  0.016234088  0.015012998           25 
 4239000   0.58058121   -7.6901612    826.54715  0.016248863  0.015008205           24 
 4240000    0.5772957   -7.6798456    826.11876  0.016236611  0.015003415           18 
 4241000   0.58439441    -7.708952    825.20793  0.016214885  0.014998624           12 
 4242000   0.56689728   -7.7070191    824.47411  0.016196647  0.014993827           21 
 4243000   0.58521027   -7.6853046    825.56855  0.016214325  0.014989031           16 
 4244000   0.57261662   -7.6870483    825.48401  0.016208844  0.014984237           13 
 4245000   0.56644544   -7.6691552      823.976  0.016175422  0.014979449           34 
 4246000   0.59524589   -7.6910077    825.19909  0.016195617  0.014974667           35 
 4247000   0.57613484   -7.6969614    825.24751  0.016192754  0.014969882           23 
 4248000    0.5854015    -7.690918     825.2272  0.016188544  0.014965096           30 
 4249000   0.57889055   -7.6887328    826.50495  0.016209793  0.014960307           16 
 4250000    0.5731279   -7.6944558    824.91982  0.016174898  0.014955515           14 
 4251000   0.56892433   -7.6934607    825.92029  0.016190706  0.014950734           16 
 4252000   0.56935214   -7.6922263    825.02594   0.01616937  0.014945947           18 
 4253000   0.57374645   -7.6769842    826.25162  0.016189584  0.014941167           18 
 4254000   0.57534664   -7.7095422    825.94827  0.016179836  0.014936381           25 
 4255000   0.56963645   -7.6894425    825.15595  0.016160516  0.014931606           14 
 4256000   0.56244355    -7.687712    824.21389  0.016138273  0.014926823           13 
 4257000   0.55831261    -7.680988    825.38144  0.016157338  0.014922055           12 
 4258000   0.57642582   -7.6917899     825.1504  0.016149021  0.014917277           18 
 4259000    0.5720072    -7.690445    826.13714  0.016164537  0.014912495           28 
 4260000   0.56185647   -7.7018597      825.705  0.016152289  0.014907708           15 
 4261000   0.57554061   -7.7135829    826.10583  0.016156337  0.014902924           17 
 4262000   0.56134675   -7.6894836    825.27933  0.016136386  0.014898144           19 
 4263000   0.58854223   -7.6901453    824.62634  0.016119836  0.014893373           19 
 4264000   0.55743067   -7.6843441    826.39073  0.016150538  0.014888597           15 
 4265000    0.5595698   -7.7121675    823.86648   0.01609743  0.014883825           16 
 4266000   0.57954572   -7.6871838    824.63542  0.016108678  0.014879057           23 
 4267000   0.55193381   -7.7162795    825.15176  0.016114986  0.014874287           14 
 4268000   0.57716354   -7.6714487    825.59006  0.016119768  0.014869519           18 
 4269000   0.57245487   -7.7062827    826.10856  0.016126114  0.014864753           25 
 4270000   0.57891008   -7.7084715    824.20932  0.016085272  0.014859987           19 
 4271000     0.563042   -7.7110343    824.99564  0.016096848  0.014855221           11 
 4272000   0.56446394   -7.6978759    825.18595  0.016096792  0.014850456           20 
 4273000   0.57065111   -7.7005428    824.47286  0.016079118  0.014845696           15 
 4274000   0.57233711    -7.731711    824.19163  0.016069873  0.014840932           25 
 4275000   0.57056646   -7.6898914    824.86092   0.01607916  0.014836172           11 
 4276000   0.58167499   -7.7008073    824.09147  0.016060404  0.014831412           16 
 4277000   0.57933078   -7.6965934    825.28855  0.016079973  0.014826657           15 
 4278000    0.5588185    -7.716473    825.11702  0.016072873  0.014821899           16 
 4279000   0.56235087   -7.7025695    825.74306  0.016081309  0.014817142           14 
 4280000   0.56265218    -7.700034     824.5684  0.016054681  0.014812395           20 
 4281000   0.55183539   -7.7046549    824.81451  0.016055721  0.014807647           17 
 4282000   0.56884959   -7.7050178    824.21569  0.016040318  0.014802898           19 
 4283000   0.56935702   -7.7070097    824.97186  0.016051285  0.014798159           14 
 4284000   0.55565746   -7.7123203    826.81035  0.016083301  0.014793413           20 
 4285000    0.5637794   -7.6947589    826.03741  0.016064516  0.014788672           15 
 4286000   0.57088129   -7.6996109    826.53319  0.016070407  0.014783937           18 
 4287000   0.56992144   -7.7223202    824.29584  0.016023168    0.0147792           17 
 4288000   0.55578381   -7.7076416    824.07279  0.016015096   0.01477446           20 
 4289000   0.57115799   -7.7215523    822.57317  0.015982225  0.014769718           19 
 4290000   0.55861778   -7.7225379    823.67134  0.015999832   0.01476498           16 
 4291000   0.55024396   -7.6893287    824.37987  0.016009863  0.014760245           22 
 4292000   0.56071638   -7.7193539    823.42877  0.015987666  0.014755509           21 
 4293000   0.55614748   -7.7361324    824.95512  0.016013571  0.014750777           30 
 4294000   0.56692474   -7.7012332    824.02323  0.015991756  0.014746045           17 
 4295000   0.54180917   -7.6915619    821.97424  0.015948278  0.014741315           17 
 4296000   0.56788972   -7.6943141    822.26603  0.015950226  0.014736583           24 
 4297000   0.55870554   -7.7038699    824.93186  0.015998213  0.014731857           14 
 4298000   0.56800247   -7.6942633    823.73549  0.015971295   0.01472713           22 
 4299000   0.56372804   -7.7027501    825.57227  0.016003184   0.01472241           22 
 4300000   0.55779375   -7.7190089    824.03736  0.015969716  0.014717691           23 
 4301000    0.5606517   -7.7096165    825.22077  0.015988932  0.014712974           28 
 4302000   0.55526844   -7.7188772    823.87239  0.015959096  0.014708254           14 
 4303000   0.56872529   -7.7221031    824.36673  0.015964961  0.014703532           12 
 4304000   0.57309096   -7.7032246    822.93216  0.015933476  0.014698816           26 
 4305000   0.57376905   -7.7206018    824.41331  0.015958446  0.014694102           26 
 4306000   0.56946934   -7.7047062     824.4754  0.015955941   0.01468939           22 
 4307000   0.55779995    -7.711723    824.65638  0.015955738  0.014684675           34 
 4308000   0.55302766   -7.7119351     825.1251  0.015961102  0.014679973           29 
 4309000   0.56075318   -7.7086252    824.56375  0.015946541  0.014675265           36 
 4310000   0.55833182   -7.7277188    823.55606  0.015923358  0.014670561           21 
 4311000   0.56071481   -7.7123752    824.22969  0.015932686  0.014665853           31 
 4312000   0.56429987   -7.7180734     823.9427  0.015923444   0.01466115           14 
 4313000   0.57403577    -7.718727      825.093  0.015941978  0.014656446           29 
 4314000   0.56809051   -7.7096878      823.816  0.015913615  0.014651738           21 
 4315000   0.56072069   -7.7137792    823.72151  0.015908102  0.014647038           26 
 4316000   0.56265657   -7.7238939    825.77852  0.015944133  0.014642342           15 
 4317000   0.56838874   -7.7163373    823.69058  0.015900135  0.014637641           23 
 4318000   0.56447236   -7.7151527     823.8929  0.015900357  0.014632949           21 
 4319000   0.56397833   -7.7208942    823.67054  0.015892385  0.014628254           25 
 4320000   0.55695932   -7.7052905    825.40149  0.015922097  0.014623566           25 
 4321000   0.56544364   -7.7050184    822.85957  0.015869389  0.014618887           27 
 4322000   0.57086347   -7.6791583    823.19946  0.015872271  0.014614198           25 
 4323000   0.55768134   -7.7286903    824.13251  0.015886585  0.014609518           41 
 4324000   0.56074443   -7.7175588     825.0881  0.015901328  0.014604837           15 
 4325000   0.56061414   -7.7029029    823.35438  0.015864246  0.014600153           16 
 4326000   0.55149786   -7.7220861    823.67593  0.015866773   0.01459548           21 
 4327000   0.57527378   -7.7120897    824.64126  0.015881698  0.014590801           24 
 4328000   0.57156812   -7.7064555    826.72912  0.015918229  0.014586127           14 
 4329000   0.55489826   -7.7045753    823.97721  0.015861577  0.014581454           14 
 4330000   0.55974486   -7.7003242     824.3021  0.015864167  0.014576782           17 
 4331000   0.54562362   -7.7206041    823.42479  0.015843623  0.014572113           14 
 4332000   0.57378943   -7.7490629     823.3274  0.015838093  0.014567446           28 
 4333000   0.55768043   -7.7406247    823.91737  0.015845784   0.01456277           25 
 4334000     0.568934    -7.722011    822.80763   0.01582079  0.014558093           26 
 4335000    0.5557481   -7.7395344    823.38973   0.01582833  0.014553425           28 
 4336000    0.5528535   -7.7245436    822.88836  0.015815044  0.014548752           16 
 4337000   0.56559405   -7.7121743    823.33815   0.01582004  0.014544088           24 
 4338000   0.55411221    -7.746862    824.55405   0.01583975  0.014539418           18 
 4339000   0.56490357   -7.7363173    825.34116  0.015851217   0.01453475           22 
 4340000   0.54620297   -7.7171034    823.96917  0.015821221  0.014530082           21 
 4341000   0.54575825   -7.7327007    823.30658  0.015804856  0.014525416           26 
 4342000   0.55663765   -7.7163094    824.77946  0.015829484  0.014520755           32 
 4343000    0.5483571   -7.7204978    824.16981  0.015814142  0.014516096           32 
 4344000   0.55947146   -7.7286354    823.95796  0.015806437  0.014511436           25 
 4345000   0.56256562   -7.7253178    823.45347  0.015793124  0.014506776           16 
 4346000   0.56518115   -7.7282129    823.89573   0.01579797  0.014502122           28 
 4347000   0.55023535   -7.7357744    824.89429  0.015813479  0.014497468           17 
 4348000   0.54952192   -7.7434988    824.31507   0.01579874  0.014492819           23 
 4349000   0.53697141   -7.7382292    822.65572  0.015763312  0.014488162           14 
 4350000   0.54463872   -7.7428571     822.9456  0.015765241  0.014483508           26 
 4351000   0.54507602   -7.7259197    824.33509  0.015788231  0.014478863           17 
 4352000   0.55851471   -7.7336888    823.77058  0.015773793  0.014474223           18 
 4353000   0.55798409    -7.734676    824.13057  0.015777061   0.01446958           18 
 4354000   0.55028533   -7.7301637    825.03357  0.015790721  0.014464942           20 
 4355000     0.557624   -7.7260334    823.06018  0.015749334  0.014460304           25 
 4356000    0.5617646   -7.7301547    824.38381   0.01577104  0.014455665           14 
 4357000   0.55591786   -7.7258733    824.44023    0.0157685  0.014451029           18 
 4358000   0.55986057   -7.7446949    824.82733  0.015772283  0.014446399           27 
 4359000   0.55420223   -7.7422581    824.00123  0.015752872  0.014441764           17 
 4360000   0.55848432   -7.7302027     822.3924  0.015718509  0.014437129           22 
 4361000   0.54700606     -7.74848    824.27858  0.015750947  0.014432493           21 
 4362000   0.55566147   -7.7463496    823.90511  0.015740202  0.014427863           26 
 4363000    0.5546206   -7.7373382    823.35404  0.015726069  0.014423239           19 
 4364000   0.54886247    -7.740788    823.19247   0.01571938  0.014418613           28 
 4365000   0.56077668   -7.7322984     823.3178  0.015718171  0.014413987           26 
 4366000   0.54996233   -7.7448099    822.51632  0.015699273   0.01440937           17 
 4367000   0.55164482   -7.7282413    822.13516  0.015688405   0.01440475           15 
 4368000   0.56198618   -7.7487266    822.95517  0.015700457  0.014400129           27 
 4369000   0.55640626   -7.7525543    824.16631  0.015719965  0.014395509           15 
 4370000   0.54206054   -7.7144988    822.18574  0.015678599  0.014390889           18 
 4371000   0.55880176   -7.7427233     823.6504  0.015702936  0.014386272           17 
 4372000   0.55793782   -7.7189407    823.59625  0.015698312  0.014381663           13 
 4373000    0.5687768   -7.7291647    823.43416  0.015691634  0.014377054           13 
 4374000   0.56239716     -7.75108    822.77923  0.015675568  0.014372443           15 
 4375000   0.55129699   -7.7343604    823.57948  0.015687228  0.014367835           15 
 4376000   0.56240017   -7.7514952    823.95579   0.01569081   0.01436323           15 
 4377000   0.53566048   -7.7339371    823.02863  0.015669573   0.01435863           15 
 4378000   0.54941825   -7.7540448    824.47214   0.01569347  0.014354022           35 
 4379000   0.54652003    -7.726011    823.02177  0.015662285  0.014349416           23 
 4380000   0.54401201   -7.7207387    822.94605  0.015657269  0.014344816           12 
 4381000   0.54929403   -7.7500047    824.03035   0.01567432  0.014340216           13 
 4382000   0.56097958   -7.7368312    824.15479  0.015673109   0.01433562           21 
 4383000   0.54929526   -7.7437301    823.74343  0.015661712  0.014331028           20 
 4384000   0.54495702   -7.7166435    822.24195  0.015629599  0.014326435           17 
 4385000   0.54369526   -7.7447121    824.09313  0.015661215  0.014321846           19 
 4386000   0.56536253     -7.75188    823.50297  0.015646431  0.014317251           20 
 4387000    0.5469618   -7.7341994     822.3779  0.015621493  0.014312665           10 
 4388000   0.54421305   -7.7451269     822.7368  0.015624749  0.014308076           20 
 4389000   0.55425679   -7.7470447    822.39203  0.015614643  0.014303488           26 
 4390000   0.54226312   -7.7606062    822.67912  0.015616536  0.014298899           16 
 4391000   0.53647084   -7.7385306    823.78639  0.015633994  0.014294318           18 
 4392000   0.54589564    -7.748073    823.63407  0.015627544  0.014289733           31 
 4393000   0.55875699   -7.7408333    824.84738  0.015647002  0.014285151           27 
 4394000   0.54355524   -7.7397109    823.16771  0.015611586  0.014280568           29 
 4395000   0.55259719   -7.7260709    822.73454  0.015599821  0.014275989           22 
 4396000    0.5420001   -7.7449556    822.87153  0.015598869  0.014271408           24 
 4397000   0.54183834   -7.7489176    822.99565  0.015597674   0.01426683           20 
 4398000   0.54855902   -7.7401216    823.12704  0.015596617  0.014262256           32 
 4399000   0.54493759   -7.7439479    823.09898   0.01559254  0.014257678           25 
 4400000    0.5537688   -7.7276867    823.93954  0.015604916  0.014253104           26 
 4401000    0.5439728   -7.7271455     823.7587  0.015597945  0.014248538           13 
 4402000   0.54658249    -7.739762     822.4084   0.01556884  0.014243967           16 
 4403000   0.54745602   -7.7331933     823.2473  0.015581181  0.014239401           30 
 4404000   0.54696789   -7.7463844    823.20351  0.015576815  0.014234835           34 
 4405000   0.55199789   -7.7375375    823.40284   0.01557705  0.014230266           23 
 4406000   0.55989396    -7.749197    823.46414  0.015574673  0.014225699           39 
 4407000   0.53774994     -7.74518    822.82081  0.015558975   0.01422113           27 
 4408000   0.55203502   -7.7482394    823.17568  0.015562154  0.014216563           22 
 4409000   0.55148573   -7.7538679    823.12657  0.015557696  0.014211999           30 
 4410000   0.53615162   -7.7335236    823.49562  0.015561142  0.014207437           27 
 4411000   0.54793415    -7.744481    822.33336  0.015535656  0.014202882           26 
 4412000   0.54493634   -7.7448451    822.31823  0.015531849  0.014198322           24 
 4413000   0.55718245   -7.7436626    821.86635  0.015519797  0.014193763           21 
 4414000   0.55513235   -7.7486684      822.042  0.015519597  0.014189207           17 
 4415000   0.55356564   -7.7490664    822.72578  0.015528988   0.01418465           37 
 4416000   0.53956969   -7.7429234    822.41989  0.015519699  0.014180094           15 
 4417000   0.53818433    -7.743027    823.00098  0.015527149  0.014175546           14 
 4418000   0.54851194   -7.7886502    822.14105  0.015507414  0.014170993           22 
 4419000   0.54272791   -7.7309997    821.62184  0.015494113  0.014166443           55 
 4420000   0.54742167   -7.7546709    824.31978  0.015541474  0.014161893           22 
 4421000   0.54617876   -7.7700017    821.39065  0.015482746  0.014157345           18 
 4422000   0.54747201   -7.7513944    823.27955  0.015514842  0.014152795           22 
 4423000   0.53341374   -7.7620285    823.21723   0.01551016  0.014148252           28 
 4424000   0.55785429   -7.7417695     822.3486  0.015490292  0.014143713           29 
 4425000   0.53428928   -7.7543145    822.59793  0.015491486   0.01413917           26 
 4426000   0.54590581   -7.7472083     822.8938  0.015493557  0.014134628           18 
 4427000   0.53908787   -7.7568589    821.05454  0.015455435  0.014130085           28 
 4428000   0.53102478   -7.7582074    823.39296  0.015495953   0.01412555           26 
 4429000    0.5537162   -7.7580108    821.97901   0.01546585  0.014121011           39 
 4430000   0.53855183   -7.7438236    821.23317  0.015448329  0.014116479           19 
 4431000   0.54038067   -7.7449955     823.0439  0.015478897  0.014111945           14 
 4432000   0.55304267   -7.7627534     822.8836   0.01547239  0.014107408           28 
 4433000   0.53934173   -7.7544444    821.90783  0.015450557   0.01410288           36 
 4434000   0.53941329   -7.7535015    822.53918  0.015458938  0.014098344           11 
 4435000   0.53875151   -7.7452946     822.8591  0.015461464  0.014093816           19 
 4436000   0.55461072   -7.7474713    822.43415  0.015449995  0.014089288           19 
 4437000   0.53737037   -7.7562897    821.57338  0.015430347   0.01408476           20 
 4438000   0.53562383   -7.7655828    820.32177  0.015403368   0.01408023           20 
 4439000   0.53707537   -7.7671159    822.66751  0.015443935  0.014075709           41 
 4440000   0.54645175   -7.7573133    822.06142  0.015429081   0.01407119           26 
 4441000   0.52464985   -7.7712114    822.36928  0.015431383  0.014066673           33 
 4442000   0.53776672   -7.7325465    822.97295  0.015439234  0.014062161           28 
 4443000   0.54055637   -7.7233786    823.54461  0.015446482  0.014057649           45 
 4444000    0.5357453   -7.7413139      822.054  0.015415054  0.014053139           24 
 4445000   0.54031643   -7.7604262    822.07183   0.01541192  0.014048636           20 
 4446000   0.54528207   -7.7379091    823.73086   0.01543955  0.014044135           23 
 4447000    0.5417256   -7.7530351    822.61118  0.015415096  0.014039638           29 
 4448000   0.53705271   -7.7499333    823.46568  0.015427639  0.014035145           29 
 4449000   0.54562369   -7.7490912    823.04351  0.015416264  0.014030648           22 
 4450000   0.54434544   -7.7630693     821.5927  0.015385631  0.014026149           20 
 4451000   0.53753508   -7.7479802    822.42884  0.015397829   0.01402165           35 
 4452000   0.54469739   -7.7576988    821.55347  0.015377985  0.014017151           21 
 4453000   0.53377005   -7.7496302    821.63832  0.015376119  0.014012654           37 
 4454000   0.53371455   -7.7760651    822.13013  0.015381869  0.014008156           20 
 4455000   0.53362779   -7.7822634    823.29415   0.01540019  0.014003658           16 
 4456000    0.5200557   -7.7590447    823.02624  0.015391724  0.013999165           29 
 4457000   0.53473299   -7.7669258    822.27384  0.015374202  0.013994679           21 
 4458000   0.53107082   -7.7759065    822.30787   0.01537139  0.013990191           31 
 4459000   0.53619633   -7.7571128    822.13071  0.015364632  0.013985705           24 
 4460000   0.52868275   -7.7597964    822.65461  0.015370976  0.013981223           26 
 4461000   0.53478317   -7.7514339    822.14111  0.015357938  0.013976748           23 
 4462000   0.54020807   -7.7423413    823.26133  0.015375417  0.013972271           22 
 4463000   0.54322994   -7.7450721    823.18616  0.015370568  0.013967797           33 
 4464000   0.53801857   -7.7547968    821.45666  0.015334839  0.013963321           24 
 4465000   0.53471724   -7.7640115    822.09988   0.01534341  0.013958848           16 
 4466000   0.53010285   -7.7523389    822.27811  0.015343299  0.013954375           21 
 4467000   0.53089547   -7.7630011    823.26195  0.015358219  0.013949904           23 
 4468000   0.54281709   -7.7592343    822.20344  0.015335039  0.013945437           25 
 4469000   0.52927613   -7.7553806      820.431  0.015298557  0.013940967           36 
 4470000   0.53593238   -7.7787479    822.64084  0.015336332  0.013936498           23 
 4471000    0.5418463   -7.7565451    822.03177  0.015321549  0.013932035           19 
 4472000    0.5233642   -7.7653712    821.39679  0.015306291  0.013927568           33 
 4473000   0.53896157   -7.7598866     822.8552  0.015330039  0.013923103           24 
 4474000   0.53992558   -7.7747085    822.87262  0.015326938  0.013918638           29 
 4475000   0.52302814   -7.7650704     822.4983  0.015316542  0.013914183           15 
 4476000    0.5280008   -7.7709838    823.19821  0.015326151  0.013909728           29 
 4477000   0.54177782   -7.7701757    822.72268  0.015313876  0.013905279           23 
 4478000   0.53079552   -7.7682937    821.51621  0.015288004  0.013900824           46 
 4479000   0.53467333    -7.773312    821.85113  0.015290823   0.01389637           20 
 4480000   0.53055305   -7.7601043     822.8375  0.015305757  0.013891912           27 
 4481000   0.53087691   -7.7677183    823.53756   0.01531536  0.013887466           27 
 4482000   0.52705462   -7.7651817    821.55341  0.015275052  0.013883019           17 
 4483000   0.55809712   -7.7669849      822.344  0.015286341  0.013878577           24 
 4484000   0.52430836   -7.7680715    822.61792  0.015288023  0.013874132           23 
 4485000   0.51690686   -7.7772479    821.09418  0.015256302  0.013869685           44 
 4486000   0.53697789   -7.7481741      821.499  0.015260421  0.013865239           32 
 4487000   0.54749978   -7.7760846    822.06361  0.015267506  0.013860795           20 
 4488000   0.55013745    -7.759764    821.33995  0.015250668  0.013856353           20 
 4489000   0.53852537   -7.7789559    822.85076  0.015275317  0.013851914           32 
 4490000   0.54319264   -7.7606507    820.42653  0.015226921  0.013847476           24 
 4491000   0.54339321   -7.7741407    821.65073  0.015246247  0.013843034           31 
 4492000   0.53533868   -7.7804874    820.76053  0.015226338  0.013838597           27 
 4493000   0.52947886   -7.7890509     820.6187  0.015220319  0.013834155           26 
 4494000   0.53757491   -7.7721754    822.86552  0.015258595  0.013829719           45 
 4495000   0.52893837     -7.77269    823.96652  0.015275612  0.013825285           31 
 4496000   0.51802027   -7.7776903    822.14611  0.015238473  0.013820854           25 
 4497000   0.53002397   -7.7776073    822.92644  0.015249545  0.013816432           35 
 4498000   0.53216754   -7.7752519    821.72823  0.015223956  0.013812007           30 
 4499000   0.52991725   -7.7626507    822.47159  0.015234341  0.013807581           39 
 4500000   0.54468971   -7.7717379    822.52904  0.015232019  0.013803164           32 
 4501000   0.51835684     -7.75615    823.31646  0.015243214  0.013798748           27 
 4502000   0.53978453   -7.7586019    822.84975  0.015231189  0.013794337           35 
 4503000   0.52207687   -7.7621898    820.54365  0.015185129  0.013789924           26 
 4504000   0.53424752   -7.7624334    820.93489  0.015188997  0.013785517           38 
 4505000    0.5203455   -7.7745998    822.32557   0.01521135  0.013781107           19 
 4506000   0.53054173    -7.746355      821.078  0.015184902  0.013776701           30 
 4507000   0.53966491   -7.7596961    821.38135  0.015187141  0.013772295           30 
 4508000   0.53375012   -7.7642033    822.58108   0.01520595  0.013767888           24 
 4509000   0.52960862   -7.7686639    822.17075  0.015194994  0.013763485           28 
 4510000   0.53536407   -7.7795372    821.93563  0.015187281  0.013759087           27 
 4511000   0.54851637   -7.7654378    822.36475  0.015191841  0.013754691           39 
 4512000   0.52474436   -7.7580639     821.0865  0.015164866  0.013750298           26 
 4513000   0.53252559   -7.7609494    821.64674  0.015171851  0.013745902           15 
 4514000   0.52577738   -7.7825786    823.57783   0.01520414  0.013741505           24 
 4515000   0.53121405   -7.7723126    821.44427  0.015161393  0.013737114           27 
 4516000   0.53135387   -7.7828536    821.45902  0.015158308  0.013732724           24 
 4517000   0.52677506   -7.7742512    821.20574  0.015150279  0.013728333           30 
 4518000   0.54248317   -7.7751603    820.65158  0.015136705  0.013723947           26 
 4519000   0.52286756   -7.7804738    822.09554  0.015159983  0.013719561           28 
 4520000    0.5211766   -7.7773012    823.37066  0.015180138  0.013715171           22 
 4521000   0.51568776    -7.771966    821.92476  0.015150128  0.013710789           31 
 4522000   0.52628433    -7.780396    822.17218  0.015151337  0.013706403           26 
 4523000   0.52356225   -7.7847286    822.71436  0.015157977  0.013702021           32 
 4524000   0.53502482   -7.7765686    821.86123  0.015138911  0.013697637           24 
 4525000    0.5323101   -7.7706015    820.42972  0.015109203  0.013693264           21 
 4526000   0.52468115   -7.7848091    822.42048  0.015142519   0.01368889           34 
 4527000   0.52913855   -7.7731345    821.22501  0.015117168   0.01368451           23 
 4528000   0.51693563   -7.7764985    822.50761  0.015137434  0.013680141           30 
 4529000   0.51935252   -7.7905542    822.08275  0.015126274  0.013675769           23 
 4530000   0.51787488   -7.7916942    821.20169  0.015106727  0.013671392           21 
 4531000    0.5227151   -7.7703333    821.43338  0.015107654  0.013667023           22 
 4532000   0.52851722   -7.7818656    821.04515  0.015097182  0.013662655           18 
 4533000    0.5167449   -7.7822714    820.95477   0.01509219  0.013658285           24 
 4534000   0.51971697   -7.7735223    821.84614  0.015105244  0.013653919           25 
 4535000   0.52981881   -7.7779566    822.66936  0.015117041  0.013649558           20 
 4536000   0.52642699   -7.7928226    822.71283  0.015114507   0.01364519           23 
 4537000   0.53470154   -7.7988318    821.87703  0.015095824  0.013640829           23 
 4538000   0.52721903   -7.7717265    820.80665  0.015072841  0.013636461           25 
 4539000    0.5325123   -7.7798019    822.05554  0.015092449  0.013632104           26 
 4540000   0.52231099   -7.7719076    821.00769  0.015069891  0.013627747           29 
 4541000   0.52982363   -7.7721815    823.35734  0.015109692  0.013623396           19 
 4542000   0.51945807   -7.7753122    820.91911   0.01506163  0.013619042           18 
 4543000   0.52090351   -7.7666204    821.63604  0.015071466  0.013614691           19 
 4544000   0.52976807   -7.7704042    821.54483  0.015066477  0.013610345           20 
 4545000   0.52932315   -7.7766123    820.81978  0.015049868  0.013605997           33 
 4546000   0.52499499   -7.7720169    821.41682  0.015057501  0.013601651           33 
 4547000   0.54051768   -7.7924654    821.29407   0.01505194  0.013597304           25 
 4548000   0.52809234   -7.7796837    822.00307  0.015061622  0.013592957           25 
 4549000   0.53011319   -7.7738478    821.17704  0.015043179  0.013588613           32 
 4550000   0.52485951   -7.7824988    820.87259  0.015034297  0.013584273           22 
 4551000   0.52228043   -7.7990154    822.11648   0.01505377  0.013579931           55 
 4552000   0.52155374    -7.802771     822.0875  0.015049932  0.013575593           22 
 4553000   0.52659991   -7.7901637    821.49277  0.015035741  0.013571257           28 
 4554000    0.5386701   -7.7813037    820.94964  0.015022501  0.013566919           26 
 4555000   0.51411503   -7.7915248     821.5497  0.015030181  0.013562588           22 
 4556000   0.53985511   -7.7871461    821.53183  0.015026555  0.013558254           20 
 4557000   0.51775591   -7.7856361    820.35472  0.015001732  0.013553923           25 
 4558000   0.52665981   -7.7784104     820.8306  0.015007141  0.013549591           24 
 4559000   0.53453941   -7.7858314    821.30514  0.015012524  0.013545259           21 
 4560000   0.53072573   -7.7836972    820.34489  0.014991683  0.013540927           32 
 4561000    0.5176364   -7.8004585    820.42819  0.014989918  0.013536602           27 
 4562000   0.49689002   -7.8010456    821.37367  0.015003903  0.013532275           21 
 4563000   0.51018268    -7.794966    820.19972  0.014979175  0.013527946           23 
 4564000   0.53255333   -7.7805779    821.95748  0.015007988  0.013523621           23 
 4565000   0.51933178   -7.7895729    820.62217  0.014980324  0.013519298           16 
 4566000   0.52894758   -7.7902922    820.59677   0.01497658  0.013514979           21 
 4567000   0.52247383   -7.7805957    821.37551   0.01498751  0.013510662           30 
 4568000   0.51747853   -7.8052157    820.70106  0.014971925  0.013506343           29 
 4569000   0.52836533   -7.8017551    822.04276   0.01499312  0.013502024           33 
 4570000   0.52042034   -7.7983778    822.24544  0.014993535  0.013497711           26 
 4571000   0.52598294   -7.7732883      821.725  0.014980767  0.013493395           28 
 4572000   0.54155664   -7.7947338    821.27276  0.014969247  0.013489082           30 
 4573000   0.51966454   -7.7922183    821.82422  0.014976023  0.013484771           55 
 4574000   0.52158052   -7.7956825    821.87122  0.014973605  0.013480464           38 
 4575000   0.50892226   -7.7899095    820.31153  0.014941922  0.013476156           37 
 4576000     0.510799   -7.8067857    821.33906  0.014957369  0.013471849           41 
 4577000   0.51688741   -7.7995167    821.44936  0.014956109  0.013467546           32 
 4578000    0.5305336   -7.7949136    819.83414  0.014923441  0.013463244           39 
 4579000   0.51519231   -7.7844712    820.82901  0.014938287  0.013458941           51 
 4580000   0.51609769    -7.799264     821.2925  0.014943459  0.013454641           21 
 4581000   0.52105998   -7.7973177    821.53315  0.014944575  0.013450344           34 
 4582000   0.51751187   -7.7933288    820.07059  0.014914713  0.013446046           39 
 4583000   0.52570551   -7.8224885    821.57598  0.014938831  0.013441753           42 
 4584000   0.51481476   -7.7876306    821.16368  0.014928077  0.013437454           32 
 4585000    0.5156771   -7.8038502    821.10985  0.014923843   0.01343316           33 
 4586000   0.53164997   -7.8180247    821.16604   0.01492161  0.013428865           22 
 4587000   0.50112574   -7.7917655    820.19565  0.014900728  0.013424576           31 
 4588000   0.52446278   -7.8135021    820.67712  0.014906225  0.013420284           26 
 4589000   0.51945936   -7.8078591    821.52281  0.014918334  0.013416001           27 
 4590000   0.51394872    -7.793487    820.44104  0.014895444  0.013411712           49 
 4591000   0.51792697   -7.8068933    820.62598  0.014895556  0.013407426           26 
 4592000   0.51156802   -7.7934829    820.64467  0.014892652  0.013403142           26 
 4593000   0.51956491   -7.7816928      821.756  0.014909572  0.013398856           32 
 4594000   0.50651166   -7.7950226    818.93394  0.014855136  0.013394572           44 
 4595000     0.522422   -7.8065685    820.18255  0.014874547  0.013390292           24 
 4596000   0.52087051   -7.7935555    821.34732   0.01489243  0.013386018           33 
 4597000    0.5133163   -7.8030786    820.78357  0.014878971  0.013381739           34 
 4598000   0.51691934   -7.8015351    820.69252  0.014874085  0.013377467           23 
 4599000   0.51252506   -7.8049807    821.14074  0.014878973  0.013373197           24 
 4600000   0.51489661    -7.812978    821.17091  0.014876285  0.013368927           30 
 4601000   0.51478207   -7.8036433    819.56086   0.01484389  0.013364662           38 
 4602000   0.50769477    -7.792502    819.79475    0.0148449  0.013360394           24 
 4603000   0.50920212   -7.8080694    820.67851  0.014857675  0.013356126           36 
 4604000   0.51455534   -7.8235469     821.8434  0.014875532  0.013351857           25 
 4605000   0.50854495   -7.8100912    820.52241  0.014848397  0.013347589           25 
 4606000    0.5171062   -7.8182621    821.13294  0.014856219  0.013343321           28 
 4607000     0.510032   -7.8062906     819.3902  0.014821471  0.013339051           33 
 4608000   0.51155458   -7.8085215     819.8608  0.014826765   0.01333479           33 
 4609000   0.51690801   -7.8086025    820.52362  0.014835532  0.013330536           35 
 4610000   0.51852701    -7.832759    821.03566   0.01484157  0.013326274           27 
 4611000   0.50560672   -7.8068411    820.22674  0.014823732  0.013322016           25 
 4612000   0.51644084   -7.8008955     820.8199  0.014831236  0.013317758           28 
 4613000    0.5149164   -7.8022797    821.29218  0.014836552  0.013313505           28 
 4614000   0.52179826   -7.8124043    820.20426  0.014813688  0.013309254           29 
 4615000   0.50190745   -7.8041983    820.66181   0.01481874  0.013305002           43 
 4616000   0.51099533    -7.810002    819.34372  0.014791734  0.013300751           41 
 4617000   0.52102006   -7.8075065    819.88143  0.014798235  0.013296502           25 
 4618000   0.52314529   -7.8083677    821.34025  0.014821356  0.013292258           43 
 4619000   0.50129274   -7.7961503    820.69181  0.014806448  0.013288019           31 
 4620000   0.50470034    -7.815424     820.2218  0.014794766  0.013283773           25 
 4621000   0.52270978   -7.7977797    821.78735  0.014819796  0.013279533           28 
 4622000   0.50140787   -7.8122068    820.15117   0.01478709  0.013275288           32 
 4623000   0.50882147   -7.8212755    820.97437  0.014798731  0.013271047           24 
 4624000    0.5163928   -7.8091423    819.73378  0.014773172  0.013266804           27 
 4625000   0.50953957   -7.8136462    819.07296  0.014758071  0.013262566           26 
 4626000   0.51524481   -7.8216265    819.41392  0.014761023  0.013258334           37 
 4627000   0.51289887    -7.816542    821.06995  0.014787659  0.013254095           37 
 4628000   0.50488255   -7.8113295    819.51658  0.014756493  0.013249857           38 
 4629000   0.50823055   -7.8101711    819.02681  0.014744488  0.013245626           38 
 4630000   0.51661585   -7.8186984    820.49058  0.014767649  0.013241396           36 
 4631000   0.51669344   -7.8252706    819.92952  0.014754364  0.013237161           32 
 4632000   0.50145043   -7.8209198    819.80545  0.014748947  0.013232929           35 
 4633000   0.50455615   -7.7996956    820.24876  0.014753737    0.0132287           28 
 4634000   0.50615367   -7.8087549    820.41459  0.014753535  0.013224471           27 
 4635000   0.51065304   -7.8286551    820.35423  0.014749267  0.013220245           37 
 4636000   0.50511242   -7.8139713    818.94968  0.014720838  0.013216025           28 
 4637000   0.51438864   -7.7940121    819.40288  0.014725808  0.013211808           31 
 4638000   0.50756614   -7.8145874    820.18757  0.014736732   0.01320759           38 
 4639000   0.50146861   -7.8257763    819.80622  0.014726705  0.013203374           30 
 4640000   0.52318852   -7.8307789    819.74543   0.01472244  0.013199156           28 
 4641000   0.51361602   -7.8176989    819.14802   0.01470854   0.01319494           29 
 4642000   0.51042398    -7.826629    820.41057  0.014728037  0.013190727           45 
 4643000   0.51510446   -7.8188778    820.05978  0.014718569  0.013186514           30 
 4644000   0.51033779   -7.8045133    819.64727  0.014707997  0.013182304           33 
 4645000   0.51671024   -7.8280378    819.79401  0.014707463  0.013178099           34 
 4646000   0.50824121   -7.8225956    818.72968  0.014685207  0.013173893           28 
 4647000    0.5121068   -7.8264219    819.87997  0.014702675   0.01316969           71 
 4648000   0.50754845   -7.8300649    820.30937  0.014707211  0.013165493           36 
 4649000    0.5149032   -7.8299067    820.76215  0.014712163  0.013161295           35 
 4650000   0.51057164   -7.8307264    820.67595  0.014707454  0.013157099           46 
 4651000    0.5101654   -7.8121168    819.35179  0.014680567  0.013152903           30 
 4652000   0.50952856   -7.8284448    819.50027  0.014680071  0.013148707           31 
 4653000   0.51205736   -7.8280182    820.23908  0.014690148  0.013144511           33 
 4654000   0.50015337   -7.8218922    820.62994   0.01469399  0.013140312           44 
 4655000   0.50825269   -7.8325386    821.24366   0.01470182  0.013136118           32 
 4656000   0.50247217   -7.8260638    820.14426  0.014678985  0.013131922           26 
 4657000   0.51126631   -7.8198705    820.13318  0.014675635  0.013127736           40 
 4658000   0.50830637   -7.8193097    821.07615  0.014689354  0.013123545           31 
 4659000   0.50410484   -7.8294081    820.90912  0.014683214  0.013119358           42 
 4660000   0.50113926   -7.8075398    819.47165  0.014654357  0.013115171           30 
 4661000   0.51155782   -7.8323668    818.73299  0.014638007  0.013110987           57 
 4662000   0.50561355    -7.823233    821.38261  0.014682229  0.013106804           34 
 4663000   0.51011684   -7.8247924    818.73724  0.014631804  0.013102623           34 
 4664000   0.51014604   -7.8191945    819.43846  0.014641196  0.013098445           32 
 4665000   0.50791112   -7.8259088    820.03426  0.014648701  0.013094271           41 
 4666000   0.50907741   -7.7989333    818.77598  0.014623089  0.013090099           28 
 4667000   0.50947772   -7.8217171    819.48733  0.014632657  0.013085926           36 
 4668000   0.51178045   -7.8235513    820.70091  0.014651187  0.013081752           35 
 4669000   0.50232574   -7.8390382    820.63723  0.014646913  0.013077583           31 
 4670000   0.49845309   -7.8358833    819.56674  0.014624674  0.013073411           36 
 4671000   0.49987227   -7.8216699    819.08669  0.014612979  0.013069244           30 
 4672000   0.50535983   -7.8356727    820.51303  0.014635292  0.013065084           23 
 4673000   0.49945865    -7.831914    819.63688  0.014616536  0.013060918           38 
 4674000   0.49756307   -7.8329808    818.75999  0.014597775  0.013056753           32 
 4675000   0.49804004   -7.8298244    820.84963  0.014631901  0.013052591           55 
 4676000   0.49882553    -7.831133    820.16932  0.014616647  0.013048431           33 
 4677000   0.49440088   -7.8269218    820.35057  0.014616752  0.013044276           79 
 4678000    0.5004057   -7.8167872    819.46021  0.014597766  0.013040121           29 
 4679000   0.50182492   -7.8234149    820.16456  0.014607191  0.013035969           32 
 4680000   0.50594076     -7.83716    820.15261  0.014603857  0.013031818          104 
 4681000   0.49758186   -7.8350723    819.37722  0.014586933  0.013027671           44 
 4682000   0.51135624   -7.8164458    818.76064  0.014572844  0.013023522           44 
 4683000   0.50996744   -7.8397496    820.74833  0.014605102  0.013019377           39 
 4684000   0.50129996   -7.8406192    819.44567  0.014578808   0.01301523           43 
 4685000   0.50643023   -7.8285563    819.65884  0.014579489  0.013011084           68 
 4686000   0.50066042   -7.8271093     818.8749  0.014562436  0.013006944           27 
 4687000   0.50853094    -7.829552    818.41351  0.014551126  0.013002802           45 
 4688000   0.50531336    -7.827392    820.43166  0.014583896  0.012998663           46 
 4689000   0.50533676   -7.8127365     819.0849  0.014556851  0.012994524           31 
 4690000   0.50246541   -7.8265121    819.56598  0.014562295  0.012990389           26 
 4691000   0.50165227   -7.8125462    819.52489  0.014558461  0.012986252           44 
 4692000   0.51241992   -7.8177877    819.51971  0.014555266  0.012982123           40 
 4693000   0.50185509   -7.8421708    819.48345  0.014551521  0.012977991           42 
 4694000   0.50716407   -7.8193601    821.56737  0.014585417  0.012973863           36 
 4695000   0.49599886   -7.8303782    820.93757  0.014571132  0.012969737           45 
 4696000   0.49854268   -7.8412503    819.12236  0.014535817   0.01296561           25 
 4697000   0.50481328   -7.8230996    819.09582  0.014532251  0.012961485           67 
 4698000   0.50402991    -7.828756    819.43236  0.014535128  0.012957359           36 
 4699000   0.50378492   -7.8374065    819.65873  0.014536049  0.012953239           35 
 4700000   0.49969618   -7.8282045    819.48644  0.014529901  0.012949114           62 
 4701000    0.4980224   -7.8348541     819.8375  0.014533034   0.01294499           39 
 4702000   0.50421421   -7.8266294     820.8503  0.014547893  0.012940871           65 
 4703000   0.50077763    -7.836467    818.79028  0.014508298  0.012936754           43 
 4704000   0.50532427   -7.8349244    820.28038  0.014531611  0.012932639           44 
 4705000   0.49218626   -7.8416751     820.3971   0.01453059  0.012928525           32 
 4706000   0.49349868   -7.8384245    819.89001  0.014518523  0.012924414           31 
 4707000   0.49752014   -7.8410308    819.63403  0.014510906  0.012920298           34 
 4708000   0.49666649   -7.8260269    821.06765    0.0145332  0.012916189           35 
 4709000   0.49893991   -7.8512894    819.16305  0.014496409  0.012912077           84 
 4710000   0.50673364   -7.8409905     819.8163  0.014504889  0.012907967           46 
 4711000   0.49729984   -7.8303243    819.66039  0.014499052  0.012903863           33 
 4712000    0.4975173   -7.8417282    819.33174  0.014490162  0.012899759           62 
 4713000   0.51042943   -7.8351846    819.86435  0.014496505  0.012895656           36 
 4714000   0.50242955   -7.8389389    819.04737  0.014478988  0.012891556           58 
 4715000   0.50311682     -7.82294    819.45947    0.0144832  0.012887459           45 
 4716000    0.4929143   -7.8366494    819.44413  0.014479858  0.012883361           35 
 4717000   0.49388209    -7.838967     819.7109  0.014481501  0.012879266           36 
 4718000   0.50402466   -7.8436437    818.06589  0.014449376  0.012875167           43 
 4719000   0.49675741   -7.8463475    818.15743  0.014447931  0.012871071           45 
 4720000   0.50203752   -7.8410672    818.46697  0.014450335  0.012866979           65 
 4721000   0.49217412   -7.8323128    820.08071  0.014475759  0.012862891           36 
 4722000   0.49524944   -7.8269483    819.80588  0.014467843  0.012858803           39 
 4723000   0.47766089   -7.8288854    819.44419  0.014458398  0.012854712           63 
 4724000   0.49252712   -7.8433178    819.76358  0.014460972  0.012850624           35 
 4725000   0.48811426   -7.8347452    818.05789  0.014427829  0.012846537           36 
 4726000   0.49896962   -7.8288485    819.24414  0.014445693  0.012842453           29 
 4727000   0.49279046    -7.832345    819.42045  0.014445745  0.012838367           36 
 4728000   0.49348395   -7.8442518    818.26719  0.014422363  0.012834287           31 
 4729000   0.48757794   -7.8261623    817.82417  0.014411507  0.012830207           36 
 4730000   0.50011963   -7.8433801    818.38805  0.014418394  0.012826131           37 
 4731000   0.48765479   -7.8378257     818.3132  0.014414028  0.012822058           80 
 4732000   0.49864286   -7.8340406    819.99893  0.014440669  0.012817988           48 
 4733000    0.4929873   -7.8364739    818.95864  0.014419301  0.012813913           76 
 4734000   0.50548054   -7.8482187    818.75807  0.014412725  0.012809841           48 
 4735000   0.48814984    -7.829949    819.71288  0.014426485  0.012805774           55 
 4736000   0.49662426   -7.8443496    817.73362  0.014388612  0.012801704           55 
 4737000   0.49399228   -7.8449058    818.57461   0.01440037  0.012797634           27 
 4738000   0.48701571   -7.8407394    819.23426  0.014408932  0.012793569           54 
 4739000   0.49503844   -7.8379631    819.67039  0.014413561  0.012789502           42 
 4740000   0.48970413   -7.8328557    819.16593  0.014401651  0.012785438           28 
 4741000   0.49074985   -7.8224634    819.38149  0.014402403  0.012781376           51 
 4742000   0.50103924   -7.8395503     818.6447  0.014386417  0.012777315           38 
 4743000   0.49558106   -7.8465602    820.27689  0.014412061  0.012773256           38 
 4744000   0.47903234   -7.8289003    821.08579  0.014423233    0.0127692           71 
 4745000   0.49236907    -7.852542    818.84832  0.014380898  0.012765145           50 
 4746000   0.49159112   -7.8389249    818.95544  0.014379749  0.012761089           30 
 4747000   0.49981911   -7.8454087    818.34727  0.014366043  0.012757034           66 
 4748000    0.4840759   -7.8429279    818.37745  0.014363547  0.012752983           37 
 4749000    0.5082321   -7.8586837    819.68214  0.014383416  0.012748932          152 
 4750000   0.50255949   -7.8418622    817.87585  0.014348699  0.012744878           72 
 4751000   0.48553526     -7.84414    818.45426  0.014355824  0.012740824           50 
 4752000   0.48989055   -7.8482353    818.55022  0.014354486  0.012736774           59 
 4753000   0.48839745   -7.8490404    818.68873  0.014353895  0.012732728           54 
 4754000    0.4964766   -7.8498576    819.36521  0.014362733  0.012728681           37 
 4755000   0.48747408   -7.8489691    818.52392  0.014344969  0.012724636           48 
 4756000   0.49461056   -7.8473764    818.76146  0.014346115  0.012720592           74 
 4757000   0.48509177   -7.8396863     819.5473  0.014356865  0.012716546           52 
 4758000   0.49520439   -7.8332543    820.35422  0.014367981  0.012712507           48 
 4759000   0.48626674   -7.8366448    818.54001  0.014333193  0.012708472           57 
 4760000   0.47425685   -7.8403882    817.69992  0.014315475  0.012704437           40 
 4761000   0.48368597   -7.8552081    819.81175  0.014349432  0.012700398           56 
 4762000   0.48328436    -7.856145    818.76211   0.01432805  0.012696364           65 
 4763000   0.49993622   -7.8519851     818.5839  0.014321924  0.012692332           42 
 4764000   0.48691844   -7.8509357    820.05199  0.014344598  0.012688304           47 
 4765000   0.49076256   -7.8511093    819.62865  0.014334184  0.012684278           41 
 4766000   0.49181346   -7.8388998     817.5559  0.014294935  0.012680256           96 
 4767000   0.49505124    -7.833089    819.62917  0.014328179  0.012676234           55 
 4768000   0.48684456   -7.8346321    818.90185  0.014312462  0.012672214           89 
 4769000   0.49223923   -7.8671068     818.1797  0.014296842  0.012668191           30 
 4770000   0.48103447   -7.8521657    819.43691  0.014315809  0.012664171           34 
 4771000   0.49105756   -7.8392939    817.89301  0.014285842  0.012660151           57 
 4772000   0.48372114   -7.8577802    818.18731  0.014287987  0.012656135           33 
 4773000   0.48944621   -7.8581596    818.54039  0.014291158  0.012652116           54 
 4774000   0.48525485   -7.8471135    819.32879  0.014301927  0.012648102           31 
 4775000    0.4835096   -7.8399593    819.37949  0.014299816  0.012644089          110 
 4776000   0.48340632   -7.8535136    818.71587  0.014285243  0.012640077           91 
 4777000   0.47756305   -7.8663203    818.18883  0.014273059  0.012636067           34 
 4778000   0.48519061   -7.8658646    818.38082   0.01427342  0.012632057           64 
 4779000   0.48734483   -7.8647186    819.03938  0.014281917  0.012628051           35 
 4780000   0.48587525   -7.8496233    818.12554  0.014262998  0.012624047           34 
 4781000   0.48497344   -7.8606314    819.73384  0.014288047  0.012620042           40 
 4782000   0.48330252    -7.844647    818.62111  0.014265668  0.012616036           57 
 4783000   0.47935776   -7.8472073    819.09067  0.014270867  0.012612037           51 
 4784000    0.4882736   -7.8644311    818.87171   0.01426407  0.012608036           45 
 4785000    0.4923172    -7.856724    818.14517  0.014248436  0.012604033           43 
 4786000   0.48678842   -7.8567159    819.08643  0.014261848  0.012600034           33 
 4787000   0.49801547   -7.8319135    816.75746  0.014218325  0.012596034           63 
 4788000   0.49173097   -7.8612917    819.37856  0.014260975   0.01259204           58 
 4789000   0.48257026   -7.8651525    818.93337   0.01425025  0.012588044           53 
 4790000   0.48341514   -7.8478063    818.58013   0.01424113  0.012584056           47 
 4791000   0.47900263   -7.8492608    817.57523  0.014220678  0.012580065           59 
 4792000   0.49336703   -7.8382868    819.18384  0.014245685  0.012576075          100 
 4793000   0.47877268   -7.8539897    818.14763  0.014224696  0.012572087           43 
 4794000   0.48137828   -7.8687833    816.95073  0.014200924  0.012568099           78 
 4795000   0.48602598   -7.8721445    818.65467  0.014227575  0.012564113           48 
 4796000   0.48457029   -7.8551036    818.06645  0.014214388   0.01256013           83 
 4797000   0.47969339   -7.8618133    819.44786  0.014235422   0.01255615           52 
 4798000   0.48057703   -7.8611393    818.65677  0.014218716  0.012552174           50 
 4799000   0.49129962   -7.8536867    818.23134  0.014208365  0.012548197           82 
 4800000   0.47704389    -7.846187    819.20677   0.01422234  0.012544222           81 
 4801000   0.48257868   -7.8687167    817.08763  0.014182594  0.012540248           45 
 4802000   0.47881093   -7.8626426    816.68719  0.014172692  0.012536272           47 
 4803000   0.48996315   -7.8399332    818.79945  0.014206389    0.0125323           36 
 4804000   0.47948203   -7.8517189    818.58877  0.014199778   0.01252833           35 
 4805000   0.47713942   -7.8499416    817.90222  0.014184915  0.012524359           41 
 4806000   0.48189771   -7.8580917    817.14942  0.014168911   0.01252039           91 
 4807000   0.48457616   -7.8430718    818.48315  0.014189085  0.012516427           52 
 4808000   0.47803485    -7.857883    818.32388  0.014183373  0.012512462           52 
 4809000   0.48958941   -7.8728644    817.17831  0.014160572  0.012508497           53 
 4810000   0.48693021   -7.8667449    818.38776  0.014178582  0.012504536           53 
 4811000   0.48340787   -7.8564039    818.08844   0.01417045  0.012500575           88 
 4812000   0.48171512    -7.863999    818.24179  0.014170161  0.012496616           66 
 4813000   0.47718202   -7.8629487    818.05726  0.014164022  0.012492658           44 
 4814000   0.48536264   -7.8563729    818.81571  0.014174209  0.012488701           48 
 4815000   0.48588054   -7.8576455    817.68619  0.014151717  0.012484747           78 
 4816000    0.4874111   -7.8738485    818.32924  0.014159905  0.012480798           84 
 4817000   0.48804477   -7.8706395    817.44502  0.014141669  0.012476844           82 
 4818000   0.48571854   -7.8442269    817.99957  0.014148325  0.012472894           70 
 4819000   0.48536339   -7.8352713    818.27926  0.014150226  0.012468946           86 
 4820000   0.48605865   -7.8442859    818.40428  0.014149452  0.012464997           81 
 4821000   0.48155736   -7.8598705     819.2104  0.014160451  0.012461049           29 
 4822000   0.47688354   -7.8593191     817.2121   0.01412298  0.012457104           50 
 4823000   0.47957853   -7.8728063    818.37691  0.014140177  0.012453159           80 
 4824000    0.4799222   -7.8692525    817.76659  0.014126703  0.012449216           76 
 4825000   0.47876607   -7.8596205    817.64782  0.014121724  0.012445276           54 
 4826000   0.47868181   -7.8614696    818.02748  0.014125354  0.012441331           60 
 4827000   0.47971641   -7.8584991    818.25333  0.014126326  0.012437388           73 
 4828000   0.48027208   -7.8732338    818.91344  0.014134794  0.012433455           37 
 4829000    0.4788536   -7.8819261    816.98044   0.01409851  0.012429519           51 
 4830000   0.47785749   -7.8712975    818.19767  0.014116592  0.012425584           33 
 4831000   0.48580546   -7.8688722    817.64434  0.014104125  0.012421653           49 
 4832000   0.47546896   -7.8602996    817.84246  0.014104623  0.012417721           76 
 4833000   0.47678379   -7.8750534    818.31495  0.014109851  0.012413793           76 
 4834000   0.48764304    -7.863928    818.04518  0.014102282  0.012409864           46 
 4835000   0.47679369    -7.848989    818.08753  0.014100095   0.01240594           74 
 4836000   0.46847249   -7.8482143    817.88842  0.014093749  0.012402013           63 
 4837000   0.46626976   -7.8732573    817.15812  0.014078253  0.012398088           51 
 4838000   0.49170404   -7.8640866     818.1927  0.014093164  0.012394164           61 
 4839000    0.4775834   -7.8759653     818.3204   0.01409245  0.012390245           93 
 4840000    0.4830605   -7.8611685    818.04089  0.014084726  0.012386321           44 
 4841000   0.47640175   -7.8566562    818.34243  0.014087007  0.012382402           48 
 4842000   0.48038803   -7.8784472    817.98202  0.014077895  0.012378487           55 
 4843000   0.47959316   -7.8691322    817.28365  0.014062971  0.012374571           58 
 4844000   0.47241626   -7.8639404    817.44343  0.014062817  0.012370658           66 
 4845000   0.47654349   -7.8677778    817.88525  0.014067514  0.012366745           70 
 4846000   0.48026952   -7.8653119    817.22409  0.014053241  0.012362833           83 
 4847000   0.47656484   -7.8665987    818.08546  0.014065151  0.012358923           35 
 4848000    0.4609749   -7.8637248    817.19946   0.01404702  0.012355013           49 
 4849000    0.4753106   -7.8562842    817.00765  0.014040827  0.012351103           66 
 4850000   0.47790711   -7.8600639    818.09698  0.014056649  0.012347193           42 
 4851000   0.47986749   -7.8724629    818.82269  0.014066218  0.012343289           47 
 4852000   0.47133609   -7.8754341     818.5688  0.014058959  0.012339386           51 
 4853000   0.47019571   -7.8511472      817.298   0.01403424  0.012335487           54 
 4854000   0.47387208   -7.8709071    817.99655  0.014043341  0.012331589           59 
 4855000   0.46675656   -7.8610126    817.90565  0.014038889  0.012327691           40 
 4856000    0.4708929   -7.8817593    818.18032  0.014040711  0.012323792           49 
 4857000   0.46974343    -7.871985    817.51703   0.01402644  0.012319895           30 
 4858000   0.46922554   -7.8758237    816.80781  0.014011387  0.012316002           53 
 4859000    0.4758804   -7.8651338    818.16027  0.014031698  0.012312103           83 
 4860000   0.47345262   -7.8689678    818.42956  0.014033429   0.01230821           36 
 4861000    0.4693125   -7.8568393    817.62033  0.014016669  0.012304322           78 
 4862000    0.4685439    -7.861192    817.91387  0.014018817   0.01230043           50 
 4863000    0.4743677   -7.8784224     816.1895  0.013986385   0.01229654           53 
 4864000   0.46002863   -7.8642364    818.42164  0.014021752  0.012292654           30 
 4865000   0.47986451   -7.8787118    817.56385  0.014004177  0.012288768           98 
 4866000   0.48222599   -7.8690472    818.28576  0.014013662  0.012284884           71 
 4867000   0.48745237    -7.859212    817.45361  0.013996535  0.012281003           41 
 4868000   0.46988744   -7.8731846    816.28768    0.0139737  0.012277122           38 
 4869000   0.46692138    -7.877768    817.42553  0.013990305   0.01227324           50 
 4870000   0.48118424   -7.8876575    817.46685  0.013988139  0.012269361           59 
 4871000   0.47655467   -7.8708134    818.69029  0.014006198  0.012265487           38 
 4872000   0.47071233   -7.8787763    817.37039  0.013980747  0.012261609           49 
 4873000   0.47629118   -7.8702452    817.88799   0.01398673  0.012257734           46 
 4874000    0.4713234   -7.8634129    818.17229  0.013988721  0.012253863           44 
 4875000   0.46926399   -7.8840601    818.65907  0.013994172  0.012249994           99 
 4876000   0.47352388   -7.8707846    818.64389  0.013991043  0.012246128           43 
 4877000   0.46925916   -7.8707145     817.4145  0.013967167  0.012242261           39 
 4878000   0.47255547   -7.8750732    816.73296  0.013952661  0.012238394           56 
 4879000   0.47227698   -7.8662053    817.46383  0.013962284  0.012234529           70 
 4880000   0.47916771   -7.8695767    818.29828  0.013973673  0.012230666           31 
 4881000   0.46912501   -7.8691337    817.15284  0.013951254  0.012226805           62 
 4882000   0.48348113   -7.8642365    818.28902   0.01396779  0.012222947           36 
 4883000   0.46832353   -7.8820717    817.13942  0.013945311  0.012219092           77 
 4884000   0.46339777   -7.8676933    816.77565  0.013936248  0.012215238           72 
 4885000   0.46998562   -7.8889388    817.78883  0.013950679  0.012211385           79 
 4886000   0.47775197   -7.8637499    817.32448  0.013939905  0.012207533           48 
 4887000   0.47343659   -7.8758639     816.6479  0.013925515   0.01220368           48 
 4888000   0.46621081   -7.8798899    817.56593  0.013938317   0.01219983           37 
 4889000   0.46601191   -7.8629141    817.27874  0.013930571  0.012195983           54 
 4890000   0.46978378   -7.8825447    817.27565   0.01392767  0.012192135           61 
 4891000   0.47127389   -7.8736415    817.28048  0.013924904  0.012188289           49 
 4892000   0.47050387    -7.872856    817.40537  0.013924185  0.012184443           32 
 4893000   0.47684649   -7.8648594     817.3156  0.013919811  0.012180601           45 
 4894000   0.48144314   -7.8707548    818.06774  0.013929774  0.012176759           75 
 4895000   0.46805524   -7.8711319    816.95325  0.013907955  0.012172917           53 
 4896000   0.48052648    -7.881351    816.52961  0.013897903  0.012169072          118 
 4897000    0.4737408   -7.8661109    817.47223  0.013911106  0.012165235           36 
 4898000   0.46538096   -7.8806945    817.50716   0.01390886  0.012161398           36 
 4899000    0.4571423    -7.861815    817.42885  0.013904689  0.012157563           55 
 4900000   0.46973349   -7.8695955     817.0584  0.013895551  0.012153729           95 
 4901000   0.46483536   -7.8819147    816.27233   0.01387935  0.012149897           38 
 4902000   0.46483416   -7.8827582     816.8021  0.013885525  0.012146066           35 
 4903000   0.46251012   -7.8813974     818.3864   0.01390962  0.012142237           74 
 4904000   0.45888971   -7.8786684    817.63713  0.013894051  0.012138406           30 
 4905000   0.45894794   -7.8818864    817.58709  0.013890368  0.012134576           36 
 4906000   0.45987539   -7.8963892     818.3666  0.013900778   0.01213075           37 
 4907000   0.47420211   -7.8830943     818.2725  0.013896347  0.012126924           40 
 4908000   0.45198846   -7.8808605    817.16808  0.013874764    0.0121231           39 
 4909000   0.46707755   -7.8870586    817.95331  0.013885267  0.012119278           43 
 4910000   0.46230105   -7.8900204    817.63213  0.013876988  0.012115458           65 
 4911000   0.47271128   -7.8861639     815.9111  0.013844959  0.012111637           87 
 4912000   0.47017775   -7.8821161     817.7476  0.013873297  0.012107819           29 
 4913000    0.4611944   -7.8982733    818.50059  0.013883245  0.012104001           73 
 4914000   0.46372822   -7.8859247    818.24852  0.013876145  0.012100185           83 
 4915000   0.46689075   -7.8756365    817.19257  0.013855418  0.012096369           43 
 4916000   0.45218147   -7.8788007    817.56075  0.013858841  0.012092557           32 
 4917000   0.46007615   -7.8936956    817.54991  0.013855839  0.012088748           53 
 4918000   0.45419467   -7.8804534    815.25434  0.013814124  0.012084938           54 
 4919000   0.47126627   -7.8935891     816.2284  0.013827817   0.01208113           45 
 4920000   0.46420005   -7.8751803    817.45153  0.013845724  0.012077322           39 
 4921000   0.46286239   -7.8802861    816.59197  0.013828354  0.012073515           42 
 4922000   0.46070584    -7.876729    817.17274  0.013835378   0.01206971           34 
 4923000   0.45917095   -7.8645715    815.48312  0.013803966  0.012065904           36 
 4924000   0.47056982   -7.8891114    817.31412  0.013832151  0.012062102           90 
 4925000   0.46502441   -7.8700275    818.08726  0.013842424  0.012058305           46 
 4926000   0.46802584   -7.8782027    818.21032  0.013841696   0.01205451           89 
 4927000   0.45874979   -7.8868661    816.49513  0.013809876  0.012050717           50 
 4928000   0.45770782   -7.8672464    816.82389  0.013812633  0.012046921           52 
 4929000   0.45331895   -7.8649673    815.61016  0.013789311   0.01204313           59 
 4930000   0.45908862    -7.891315    816.32969  0.013798676  0.012039339           41 
 4931000   0.45528463   -7.8831345     816.5577  0.013799731  0.012035549           33 
 4932000   0.47079927   -7.8812661    817.31341  0.013809702  0.012031765           68 
 4933000   0.46955515   -7.9082486    817.54041  0.013810737  0.012027981           47 
 4934000   0.46173808   -7.8912191    818.35101  0.013821629  0.012024196           36 
 4935000    0.4589045   -7.8814876    817.02231  0.013796392  0.012020412           33 
 4936000   0.46353881   -7.8926563    816.72068  0.013788504  0.012016631           41 
 4937000   0.46182177   -7.8845247    816.56238  0.013783039  0.012012848           33 
 4938000   0.45732193   -7.8806894    815.44726  0.013761429  0.012009064           51 
 4939000   0.46547383   -7.8822018    815.98884  0.013767781  0.012005285           42 
 4940000   0.46253305   -7.8966638    817.09806  0.013783705  0.012001508           99 
 4941000   0.45919013    -7.882446    814.77043  0.013741659  0.011997729           51 
 4942000   0.46712723   -7.8910373     816.3161  0.013764942  0.011993954           38 
 4943000   0.44942568    -7.884947     817.4412  0.013781125  0.011990182           78 
 4944000   0.46295643   -7.8900897    816.85089  0.013768387  0.011986411           56 
 4945000   0.47110821   -7.8956597    816.88276   0.01376614  0.011982643           32 
 4946000   0.46355262   -7.9029093     817.5901  0.013775275  0.011978877           43 
 4947000   0.46449262   -7.9056949    815.53329  0.013737843  0.011975108           69 
 4948000   0.46561504   -7.8941233    816.24083  0.013746982   0.01197134           31 
 4949000   0.46604147    -7.890782    816.04266  0.013740868  0.011967574           43 
 4950000   0.46084833   -7.8871808    817.82657  0.013768124  0.011963812           36 
 4951000   0.45333197   -7.8660986    816.34554  0.013740415   0.01196005           41 
 4952000   0.45565355    -7.893839    816.62341  0.013742316   0.01195629           31 
 4953000   0.45524921   -7.8873878    816.28882  0.013733912  0.011952532           40 
 4954000   0.44983034   -7.8958884    817.02956    0.0137436  0.011948774           38 
 4955000   0.46200365   -7.8952912    817.03057  0.013740844  0.011945015           70 
 4956000   0.45901642   -7.8840432    816.77374  0.013733753   0.01194126           33 
 4957000    0.4629483   -7.8802976    816.02847  0.013718453  0.011937505           94 
 4958000   0.46583899   -7.8971604    817.03638  0.013732627  0.011933755          123 
 4959000   0.46589458   -7.8874855    817.19307  0.013732491  0.011930004           50 
 4960000   0.45483825    -7.897249    816.48602  0.013717843  0.011926255           47 
 4961000   0.45523107    -7.901083    816.34548  0.013712717  0.011922506           92 
 4962000   0.45534524   -7.9001442    817.26826  0.013725451  0.011918761           77 
 4963000   0.45033889   -7.9007982    816.66495  0.013712555  0.011915016           82 
 4964000   0.45551535   -7.8982844    817.97408   0.01373177  0.011911274           47 
 4965000   0.46254375   -7.9017161    815.86277  0.013693568  0.011907531           56 
 4966000   0.45120287   -7.9010048    816.20921  0.013696624  0.011903789           47 
 4967000   0.46237632   -7.8930492    816.08679  0.013691812   0.01190005          139 
 4968000   0.45999833   -7.8928769    817.08201   0.01370575  0.011896312           54 
 4969000   0.46788336   -7.8912702    816.35202   0.01369075  0.011892579           46 
 4970000   0.45275078   -7.9039741    817.47444  0.013706815  0.011888845           86 
 4971000   0.45665955    -7.893488    816.82117  0.013693106  0.011885114           46 
 4972000   0.45300518   -7.8756552    816.66483  0.013687732  0.011881381           54 
 4973000   0.45115897   -7.8932425    816.54315   0.01368294  0.011877653           46 
 4974000   0.44819659   -7.8871785    816.73136  0.013683343  0.011873922           48 
 4975000   0.45809533   -7.8899355    816.51566  0.013676979  0.011870196           71 
 4976000   0.46908882   -7.8826119    816.51873  0.013674282  0.011866472           39 
 4977000   0.45753566   -7.8924431    816.76972  0.013675737  0.011862749           50 
 4978000   0.45879407   -7.8772433    816.94273  0.013675886  0.011859027           68 
 4979000   0.46206113   -7.8969472    816.62153  0.013667763  0.011855308           88 
 4980000   0.45369547   -7.8974996    816.71543   0.01366659  0.011851592           57 
 4981000   0.46567442   -7.9142945    817.25689  0.013672905  0.011847875           70 
 4982000   0.45321835   -7.9025114    816.19443  0.013652389  0.011844161          110 
 4983000   0.45213728   -7.8947764    817.10891  0.013664943  0.011840448           54 
 4984000   0.46787021   -7.8935582    818.00038  0.013677106  0.011836735           40 
 4985000   0.45207029   -7.8948681    816.67135  0.013652146  0.011833023          102 
 4986000   0.45028977   -7.8900087    816.18085  0.013641209  0.011829312           59 
 4987000   0.45235947   -7.9085311    815.74904  0.013631259    0.0118256           70 
 4988000   0.44671844   -7.9089904    817.20585  0.013652864  0.011821889           81 
 4989000   0.45324676   -7.9047059    815.65147  0.013624164  0.011818181           68 
 4990000   0.45678155   -7.9177032     816.3767  0.013633546  0.011814473           67 
 4991000   0.45921645   -7.8942984    816.63734  0.013635166  0.011810769           72 
 4992000   0.45301885   -7.8883017    816.79594  0.013635082  0.011807067           79 
 4993000   0.43933741    -7.907136    817.63564  0.013646366  0.011803365           51 
 4994000   0.44464516   -7.8977266    816.72106  0.013628372  0.011799664           40 
 4995000   0.45453405   -7.9069852    816.32924  0.013619107  0.011795963           67 
 4996000   0.45689277   -7.9091413    817.06893  0.013628718  0.011792262          108 
 4997000   0.44971735   -7.9084894     815.8165  0.013605105  0.011788564           41 
 4998000   0.45738884    -7.904108     815.9109  0.013603957  0.011784868           57 
 4999000    0.4516706   -7.9102118    816.07275  0.013603933  0.011781176           46 
 5000000   0.45665119   -7.9034013    816.56721  0.013609453  0.011777485           75 
 5001000   0.46074852   -7.9011719     817.2338   0.01361784  0.011773796           78 
 5002000   0.44790337   -7.9027776    815.57317  0.013587451  0.011770109           55 
 5003000   0.45814264   -7.9085096    817.27042  0.013613006  0.011766421           41 
 5004000   0.45311797   -7.8992956    816.78647  0.013602226  0.011762738           84 
 5005000   0.46120876   -7.9022219    816.17445  0.013589318  0.011759052           85 
 5006000   0.44803769   -7.9244269    815.92857  0.013582511  0.011755369           68 
 5007000   0.46258437   -7.8994071    815.18406  0.013567407  0.011751685           39 
 5008000   0.44951473   -7.8947858    816.07229  0.013579478  0.011748006           36 
 5009000   0.44870539   -7.8996862      816.192  0.013578758  0.011744328           43 
 5010000   0.44025584    -7.912925    816.41472  0.013579753  0.011740651           41 
 5011000   0.46328917   -7.9045146     817.1909   0.01358995  0.011736977           40 
 5012000   0.45703732    -7.903507    815.73454  0.013563024  0.011733302           59 
Loop time of 10974.6 on 48 procs for 5000000 steps with 4000 atoms

Performance: 78727.512 tau/day, 455.599 timesteps/s
99.4% CPU use with 48 MPI tasks x no OpenMP threads

MPI task timing breakdown:
Section |  min time  |  avg time  |  max time  |%varavg| %total
---------------------------------------------------------------
Pair    | 733.2      | 767.34     | 795.05     |  57.1 |  6.99
Neigh   | 70.551     | 71.658     | 73.558     |   7.3 |  0.65
Comm    | 636.07     | 671.25     | 703.73     |  61.9 |  6.12
Output  | 18.251     | 18.256     | 18.335     |   0.3 |  0.17
Modify  | 9297.8     | 9331.3     | 9356.7     |  17.1 | 85.03
Other   |            | 114.8      |            |       |  1.05

Nlocal:        83.3333 ave          91 max          75 min
Histogram: 2 2 2 11 3 10 6 3 8 1
Nghost:        1850.90 ave        1884 max        1824 min
Histogram: 2 2 6 9 9 8 6 4 1 1
Neighs:        11464.0 ave       12927 max        9775 min
Histogram: 1 1 3 7 9 10 8 6 2 1
FullNghs:      22926.9 ave       25426 max       20281 min
Histogram: 3 0 4 11 5 7 6 9 2 1

Total # of neighbors = 1100492
Ave neighs/atom = 275.12300
Neighbor list builds = 269305
Dangerous builds = 0

#clear
#
#next RN
#
#jump SELF
Total wall time: 3:02:57
