
units lj                  # Use reduced LJ style units
atom_style atomic         # Uncharged point particles
atom_modify map hash      # Needed for indexing of clusters etc
                          # Used to be able to find where atoms are in relation to each other.

lattice fcc 1.0 spacing 1 1 1
Lattice spacing in x,y,z = 1.5874011 1.5874011 1.5874011
region box block 0 10 0 10 0 10 units lattice
create_box 2 box
Created orthogonal box = (0.0000000 0.0000000 0.0000000) to (15.874011 15.874011 15.874011)
  3 by 4 by 4 MPI processor grid
create_atoms 1 box
Created 4000 atoms
  using lattice units in orthogonal box = (0.0000000 0.0000000 0.0000000) to (15.874011 15.874011 15.874011)
  create_atoms CPU = 0.002 seconds
set type 1 type/fraction 2 0.48 78393
Setting atom values ...
  1918 settings made for type/fraction
mass 1 1.0
mass 2 1.0
pair_style lj/cut  3.5
pair_modify tail  yes
pair_coeff 1  1  1.0  1.0   # Intearaction between 1 and 1 set with epsilon = 1 and sigma = 1
pair_coeff 1  2  1.5  0.8
pair_coeff 2  2  0.5  0.88

write_data data.0
System init for write_data ...
Neighbor list info ...
  update every 1 steps, delay 10 steps, check yes
  max neighbors/atom: 2000, page size: 100000
  master list distance cutoff = 3.8
  ghost atom cutoff = 3.8
  binsize = 1.9, bins = 9 9 9
  1 neighbor lists, perpetual/occasional/extra = 1 0 0
  (1) pair lj/cut, perpetual
      attributes: half, newton on
      pair build: half/bin/atomonly/newton
      stencil: half/bin/3d
      bin: standard
WARNING: Not all mixed pair coeffs generated from mixing. Use write_data with 'pair ij' option to store all pair coeffs. (../write_data.cpp:312)


#############################
#   M E L T   S Y S T E M   #
#############################

velocity all create 2.4 9622624 mom yes dist gaussian # Assign velocities
                                                    # Temperature 2.4, random number seed, zero linear momentum
                                                                                # Gaussian distribution

timestep 0.002   # simulation timestep
thermo 1000       # output thermodynamic data every 1000 steps bf 100

# Define a fix  in this case with index 1 applied to all
# particles in the simulation. This fix is for simulations
# in the anisotropic NPT ensemble. Note that we use the MTK
# correction.
fix 1 all npt temp 2.4 2.4 0.1 iso 5.68 5.68 0.5 mtk yes tchain 5 pchain 5 # Use NPT ensemble
                                                                         # Set temperature and pressure and damping
                                                                         # Numbers of thermostats in chain and in barostat
run 10000          # run for 10000 steps
Per MPI rank memory allocation (min/avg/max) = 3.642 | 3.644 | 3.648 Mbytes
Step Temp E_pair E_mol TotEng Press Volume 
       0          2.4   -5.4168687            0   -1.8177687   -4.2006027         4000 
    1000    2.4491661    -4.947569            0   -1.2747384    5.7103066    3730.2078 
    2000    2.3676659   -4.8895111            0   -1.3389001    6.0400871    3729.0865 
    3000    2.4209987   -4.9583227            0   -1.3277325    5.5199717    3734.6474 
    4000    2.4289485   -4.8932829            0    -1.250771    5.5074627    3769.8119 
    5000    2.3976363    -4.925531            0   -1.3299757    5.5822376    3748.9537 
    6000    2.3917281   -4.9385805            0   -1.3518852    5.8567062    3718.5481 
    7000    2.4700726   -4.9148502            0   -1.2106675    5.5968664    3756.3718 
    8000    2.4132951   -4.9543994            0   -1.3353618    5.8308048     3713.775 
    9000    2.4137286   -4.9062309            0   -1.2865432    5.6663175    3745.3008 
   10000    2.4419233   -4.9378724            0   -1.2759032    5.6933018    3745.1049 
Loop time of 2.59497 on 48 procs for 10000 steps with 4000 atoms

Performance: 665904.578 tau/day, 3853.614 timesteps/s
99.7% CPU use with 48 MPI tasks x no OpenMP threads

MPI task timing breakdown:
Section |  min time  |  avg time  |  max time  |%varavg| %total
---------------------------------------------------------------
Pair    | 1.1614     | 1.2383     | 1.3356     |   3.3 | 47.72
Neigh   | 0.21325    | 0.22208    | 0.23755    |   0.9 |  8.56
Comm    | 0.76872    | 0.8777     | 0.95734    |   4.4 | 33.82
Output  | 0.00024843 | 0.00025461 | 0.00031469 |   0.0 |  0.01
Modify  | 0.21864    | 0.24122    | 0.26368    |   2.5 |  9.30
Other   |            | 0.01536    |            |       |  0.59

Nlocal:        83.3333 ave          93 max          74 min
Histogram: 1 5 4 11 3 8 7 3 3 3
Nghost:        1714.92 ave        1738 max        1683 min
Histogram: 2 2 1 4 9 5 11 3 9 2
Neighs:        10193.7 ave       11784 max        8556 min
Histogram: 1 4 4 6 9 6 9 4 3 2

Total # of neighbors = 489296
Ave neighs/atom = 122.32400
Neighbor list builds = 910
Dangerous builds = 224

# Equilibrate just above the melting temperature to avoid step fn in T

fix 1 all npt temp 1.25 1.25 0.1 iso 5.68 5.68 0.5 mtk yes tchain 5 pchain 5
run 2000
Per MPI rank memory allocation (min/avg/max) = 3.644 | 3.646 | 3.649 Mbytes
Step Temp E_pair E_mol TotEng Press Volume 
   10000    2.4419233   -4.9378724            0   -1.2759032    5.6933018    3745.1049 
   11000    1.2443093   -7.0101578            0   -5.1441604    5.9541119    2915.0923 
   12000    1.2502322    -7.086452            0   -5.2115725    5.7903265    2905.1927 
Loop time of 0.6358 on 48 procs for 2000 steps with 4000 atoms

Performance: 543566.923 tau/day, 3145.642 timesteps/s
99.7% CPU use with 48 MPI tasks x no OpenMP threads

MPI task timing breakdown:
Section |  min time  |  avg time  |  max time  |%varavg| %total
---------------------------------------------------------------
Pair    | 0.29109    | 0.31193    | 0.33738    |   2.2 | 49.06
Neigh   | 0.04168    | 0.04355    | 0.046166   |   0.6 |  6.85
Comm    | 0.19948    | 0.23064    | 0.2554     |   2.9 | 36.27
Output  | 5.2848e-05 | 5.4896e-05 | 7.0297e-05 |   0.0 |  0.01
Modify  | 0.041278   | 0.044853   | 0.048017   |   0.9 |  7.05
Other   |            | 0.004772   |            |       |  0.75

Nlocal:        83.3333 ave          92 max          77 min
Histogram: 3 1 8 6 14 9 4 1 1 1
Nghost:        2034.29 ave        2061 max        2010 min
Histogram: 2 5 6 7 4 6 11 3 3 1
Neighs:        13143.8 ave       15175 max       11829 min
Histogram: 4 3 8 13 9 5 1 3 0 2

Total # of neighbors = 630901
Ave neighs/atom = 157.72525
Neighbor list builds = 145
Dangerous builds = 11

#############################
# L I N E A R  Q U E N C H  #
#############################

# Define solid atoms. This closely follows ten Wolde  Ruiz-Montero and Frenkel  Faraday Discuss  1996  104  93-110
# Compute components of the per-atom q6 vector
compute q6 all orientorder/atom degrees 1 6 components 6 nnn NULL cutoff 1.3 # compute the Q6 parameter.
                                                                             # Use all neighbours within 1.3 unit cell.

# get number of connections
compute coord_number all coord/atom orientorder q6 0.5

# An atom is solid if it has 8 or more connections (of a possible 14)
variable is_solid atom c_coord_number>=8
group solid dynamic all var is_solid    # Must be dynamic to update
dynamic group solid defined

# do clustering
compute cluster solid cluster/atom 1.3 # Create a cluster where all atoms within are solid and max 1.3 units from another member

# define chunks one chunk per cluster
compute clus_chunks solid chunk/atom c_cluster nchunk every compress yes  # Says which atoms are in which chunk

# count the size of each chunk
compute size_chunks solid property/chunk clus_chunks count


# Find the maximum entry in the vector of chunk sizes
variable max_n equal max(c_size_chunks)


# Thermo style which includes this variable
# thermo_style custom step temp pe vol v_max_n

thermo ${N}  # Print the thermo information every 100 steps
thermo 1000  

# Reset the npt fix at a lower temperature (below freezing)
fix 1  all npt temp  ${temp} ${temp}  0.1  iso  5.68  5.68  0.5  mtk yes tchain  5  pchain  5
fix 1  all npt temp  0.45 ${temp}  0.1  iso  5.68  5.68  0.5  mtk yes tchain  5  pchain  5
fix 1  all npt temp  0.45 0.45  0.1  iso  5.68  5.68  0.5  mtk yes tchain  5  pchain  5

dump dmp2 all dcd ${N} traj.dcd
dump dmp2 all dcd 1000 traj.dcd


compute msd all msd com yes
variable twopoint equal c_msd[4]/6/(step*dt+1.0e-6)
fix 9 all vector 10 c_msd[4]
variable fit equal slope(f_9)/6/(10*dt)
thermo_style custom step temp pe c_msd[4] v_twopoint v_fit v_max_n

fix 1 all npt temp 1.25 ${temp} 0.1 iso 5.68 5.68 0.5 mtk yes tchain 5 pchain 5
fix 1 all npt temp 1.25 0.45 0.1 iso 5.68 5.68 0.5 mtk yes tchain 5 pchain 5
run 5000000 # 5000000  # Run for this many steps
Neighbor list info ...
  update every 1 steps, delay 10 steps, check yes
  max neighbors/atom: 2000, page size: 100000
  master list distance cutoff = 3.8
  ghost atom cutoff = 3.8
  binsize = 1.9, bins = 8 8 8
  4 neighbor lists, perpetual/occasional/extra = 1 3 0
  (1) pair lj/cut, perpetual
      attributes: half, newton on
      pair build: half/bin/atomonly/newton
      stencil: half/bin/3d
      bin: standard
  (2) compute orientorder/atom, occasional
      attributes: full, newton on
      pair build: full/bin/atomonly
      stencil: full/bin/3d
      bin: standard
  (3) compute coord/atom, occasional
      attributes: full, newton on
      pair build: full/bin/atomonly
      stencil: full/bin/3d
      bin: standard
  (4) compute cluster/atom, occasional
      attributes: full, newton on
      pair build: full/bin/atomonly
      stencil: full/bin/3d
      bin: standard
Per MPI rank memory allocation (min/avg/max) = 9.833 | 9.840 | 9.846 Mbytes
Step Temp PotEng c_msd[4] v_twopoint v_fit v_max_n 
   12000    1.2502322    -7.086452 9.8607613e-34 6.8477506e-36 8.3333333e+20            1 
   13000    1.2369592   -7.1314718   0.46911631 0.0030071557  0.038159642            1 
   14000     1.261038   -7.1084471   0.88721837 0.0052810615  0.036001797            1 
   15000    1.2269124   -7.1374853    1.3199855 0.0073332524  0.036400758            2 
   16000    1.2384159   -7.1115151    1.7468214 0.0090980279  0.035972079            4 
   17000    1.2327306   -7.1434587    2.1332587   0.01045715  0.035402097            1 
   18000    1.2348029   -7.1845089    2.5878606  0.011980836  0.035230333            2 
   19000    1.2365985   -7.0981836    2.9577652  0.012972654  0.034995113            3 
   20000    1.2521321   -7.1285181    3.3897657  0.014124024  0.034793417            1 
   21000    1.2365483   -7.1277682    3.7948677  0.015058999  0.034720942            3 
   22000    1.2504712   -7.1175693    4.2105565  0.015949077  0.034733131            2 
   23000    1.2163722   -7.1725992    4.5817825  0.016600661   0.03461574            2 
   24000    1.2252274   -7.1300394    4.9791533  0.017288726  0.034435882            2 
   25000    1.2459559   -7.1620721    5.3727824  0.017909274  0.034281365       -1e+20 
   26000    1.2529954   -7.1182295    5.7765489   0.01851458  0.034140353            2 
   27000    1.2510847   -7.1501597     6.216117  0.019185546  0.034100556            1 
   28000     1.234687   -7.1222121    6.6778849  0.019874657  0.034136075       -1e+20 
   29000    1.2331167   -7.1453765    7.0780672  0.020339273  0.034232126            2 
   30000    1.2881658   -7.1241309    7.4531485   0.02070319  0.034208556            1 
   31000    1.2299374   -7.0995185    7.8251883  0.021035452  0.034106727            5 
   32000    1.2475608   -7.1807223    8.2814273  0.021566217  0.034095393            3 
   33000    1.2310048   -7.1425455    8.7962042  0.022212637  0.034198034            2 
   34000    1.2555593   -7.1344919    9.2435989  0.022655879  0.034331914            1 
   35000    1.2094806   -7.1711604    9.7417688  0.023194687  0.034489311            2 
   36000    1.2361139   -7.1646567    10.157771  0.023513359  0.034627888            2 
   37000    1.2498234   -7.1192177     10.56585   0.02379696  0.034730412            7 
   38000    1.2629512   -7.1442947    10.899307  0.023901988  0.034801982            2 
   39000    1.2562675   -7.1465263    11.255971  0.024051221  0.034813228            2 
   40000    1.2615196   -7.1401568    11.543528  0.024049017  0.034746504            1 
   41000    1.2457409   -7.1454993    11.999552  0.024389333  0.034648232            1 
   42000    1.2243319   -7.0947482    12.493878  0.024789441   0.03461691            1 
   43000    1.2287282   -7.1459496    12.924583   0.02504764  0.034633043            1 
   44000    1.2466606   -7.0661815     13.25041  0.025095473  0.034603186            2 
   45000    1.2300503   -7.1551866    13.709154  0.025387322   0.03454887            2 
   46000    1.2088963   -7.1479785    13.999456  0.025361333  0.034506411            2 
   47000    1.2344233   -7.1198978    14.385059  0.025505424  0.034447251            4 
   48000    1.2462545   -7.1422247    14.635858  0.025409476  0.034355494            2 
   49000    1.2559462   -7.1340245    14.807676  0.025183123  0.034224848            2 
   50000    1.2438083   -7.1586902    15.114037  0.025190061  0.034050502            2 
   51000    1.2284083   -7.1487691    15.550888  0.025409948  0.033885797            2 
   52000    1.2303565   -7.2169097    15.953529  0.025566553  0.033777483            3 
   53000    1.2610811   -7.1630837    16.476545  0.025906517  0.033686779            1 
   54000    1.2647024   -7.1590668    16.947682   0.02615383  0.033612625            2 
   55000    1.2389055   -7.1436862    17.392145  0.026351734  0.033583652            7 
   56000     1.260508   -7.1408334    17.848261  0.026559912  0.033561473            2 
   57000     1.250091   -7.1346915    18.140796  0.026521632   0.03353847            2 
   58000     1.239195   -7.1253507    18.598355  0.026721774  0.033503173            1 
   59000    1.2498475   -7.1390524    18.939112  0.026750158  0.033466611            3 
   60000    1.2293462   -7.1396744     19.26866  0.026762028  0.033418194            2 
   61000    1.2389783   -7.1491682    19.702216  0.026915596  0.033380441            2 
   62000    1.2439198   -7.1384744    19.901896   0.02674986  0.033333336            5 
   63000    1.2499932   -7.1750037    20.355648   0.02692546  0.033284636            2 
   64000    1.2661456   -7.1478126    20.808785  0.027094773  0.033250957            3 
   65000    1.2363258   -7.1937296    21.275296  0.027276021  0.033223898            1 
   66000    1.2561644   -7.0896179    21.681546  0.027375689  0.033205387            3 
   67000    1.2474188     -7.16676    22.111119  0.027501391  0.033188748            1 
   68000    1.2376646   -7.1885088    22.575478  0.027666027  0.033185941            5 
   69000    1.2338768   -7.1328863    22.845575  0.027591274  0.033181669            4 
   70000    1.2216949   -7.1999735    23.188144  0.027604933  0.033160283            1 
   71000     1.212172   -7.1166813    23.583767  0.027680477  0.033132292            4 
   72000    1.2310304   -7.1676708    23.779254  0.027522284  0.033093812            1 
   73000    1.2403858   -7.1953209    24.076694   0.02748481  0.033044704            4 
   74000    1.2228591   -7.1401441    24.497228  0.027586968  0.032990065            2 
   75000    1.2541901   -7.1487769    24.806316  0.027562573  0.032935271            1 
   76000    1.2503443   -7.1581553    25.040012  0.027456153  0.032875039            1 
   77000    1.2570995   -7.1757761     25.47412  0.027569393  0.032825716            2 
   78000    1.2247561   -7.1449023    25.954786  0.027729472  0.032781115            2 
   79000    1.2355498    -7.196734    26.334236   0.02777873    0.0327462            2 
   80000    1.2323862   -7.1709006    26.654961  0.027765584  0.032703043            2 
   81000    1.2424097   -7.1786072    27.032132  0.027810835  0.032658354            4 
   82000    1.2143025   -7.1648907    27.596246  0.028044966  0.032626108            2 
   83000    1.2396062   -7.1919622    28.025557   0.02813811  0.032609443            4 
   84000    1.2069364   -7.1897099    28.338527  0.028113617   0.03259104            1 
   85000    1.2609598   -7.1226806    28.726878  0.028163605  0.032564993            2 
   86000    1.2569441   -7.1457803    29.180914  0.028276079  0.032550095            1 
   87000    1.2410595   -7.1394295     29.55223  0.028306733  0.032538152            3 
   88000    1.2546867   -7.1320333     29.79381  0.028213835  0.032519148            2 
   89000    1.2189542   -7.1035485    30.179438  0.028257901  0.032496205            1 
   90000    1.2432021   -7.1512218    30.898475  0.028609699  0.032486137            2 
   91000    1.2659572   -7.1801701    31.085387  0.028466471  0.032483792            1 
   92000    1.2472894   -7.1265413     31.65012  0.028668587  0.032474503            4 
   93000    1.2316634   -7.1424677    32.092872  0.028757053  0.032472028            3 
   94000    1.2384362    -7.160131    32.572396  0.028876237  0.032475186            1 
   95000    1.2491107    -7.143916    33.131725  0.029062917  0.032490519            3 
   96000    1.2299176   -7.1804438    33.462847   0.02904761  0.032511894            2 
   97000     1.260361    -7.146616    34.008848  0.029217223  0.032532371            3 
   98000     1.246882   -7.1750781    34.292108  0.029159956  0.032553004            2 
   99000    1.2311965   -7.2256362    34.745444  0.029247007  0.032573112            2 
  100000    1.2329009   -7.1872611    35.265123  0.029387602   0.03260016            2 
  101000    1.2289748   -7.1750817    35.612013  0.029382849  0.032626677            1 
  102000     1.246949   -7.1957362    35.956846  0.029376508  0.032649664            1 
  103000    1.2618005   -7.1468895    36.192873   0.02928226  0.032662395            2 
  104000    1.2218652   -7.1933723    36.586795  0.029316342  0.032675204            2 
  105000    1.2396733   -7.1841028    36.872486  0.029263878  0.032679978            1 
  106000    1.2114054   -7.1944632    37.434599  0.029429716  0.032688106            2 
  107000    1.2436286      -7.1686    37.994714  0.029590899  0.032703886       -1e+20 
  108000     1.218775   -7.1682492    38.314358  0.029563548  0.032719697            3 
  109000    1.2449319   -7.1951341     38.74761  0.029623555  0.032736461            1 
  110000    1.2289201   -7.1394471    39.130866  0.029644595  0.032750813            1 
  111000     1.242166   -7.1705383    39.421486   0.02959571  0.032759073            3 
  112000    1.2402273   -7.1826697    39.715162  0.029549972  0.032768351            1 
  113000    1.2393229    -7.188431     39.99295  0.029493326  0.032768436            2 
  114000    1.2494435   -7.1322015    40.667411   0.02972764  0.032771254            2 
  115000    1.2371384   -7.2032355    40.932909  0.029661528   0.03277519            1 
  116000    1.2129826   -7.1769536    41.330525  0.029691469  0.032778053            3 
  117000    1.2386854    -7.203693    41.534042  0.029582651  0.032771846            3 
  118000    1.2152348   -7.1746509    42.073656  0.029713034  0.032767557            1 
  119000    1.2213615   -7.1687493    42.482985  0.029749989  0.032767364            2 
  120000    1.2785468   -7.1218926    42.936585  0.029817073  0.032765129            2 
  121000    1.2500259   -7.2291282    42.887319  0.029536721  0.032759846            1 
  122000    1.2399487   -7.1209356    43.448672  0.029678055  0.032751273            2 
  123000    1.2269324   -7.2196379    43.699088  0.029606428  0.032744722            3 
  124000    1.1974971   -7.1636233    44.018875  0.029582577  0.032734472           10 
  125000     1.234276   -7.1857274    44.242214   0.02949481  0.032717092            2 
  126000    1.2148972   -7.2440752    44.398683  0.029364208  0.032695399            2 
  127000    1.2626888   -7.1753055    45.090881  0.029587192  0.032673751            2 
  128000    1.2496721   -7.1748209    45.557931  0.029660111  0.032657193            1 
  129000    1.2295266   -7.2491599     45.73547  0.029544877  0.032645127            3 
  130000    1.2357057   -7.1574598    46.011106  0.029494298  0.032626239            3 
  131000    1.2373752   -7.1461451     46.46803  0.029559815  0.032607214            2 
  132000    1.2255124   -7.2191739    46.900754  0.029609062  0.032588099            4 
  133000    1.2250662   -7.2294142    47.138473  0.029535384  0.032572051            1 
  134000      1.24037   -7.1578707    47.349792  0.029446388  0.032549993            2 
  135000    1.1997553   -7.1612438    47.746015  0.029472848  0.032524357            1 
  136000    1.2332949   -7.1758565    48.135741  0.029494939  0.032499147            2 
  137000    1.2200033   -7.1934096    48.575001  0.029546837  0.032480888            1 
  138000    1.2473845   -7.1644307    49.175006  0.029695052  0.032464833            2 
  139000    1.2627364   -7.1777323     49.55658   0.02971018  0.032450696            2 
  140000    1.2273321   -7.2295788    49.845833  0.029670139  0.032436771            3 
  141000    1.2247816   -7.1780882     50.34153  0.029752677  0.032422179            2 
  142000    1.2122701   -7.1875291    50.475089  0.029621531  0.032408935            1 
  143000    1.2302616   -7.2183017    50.872889  0.029646205  0.032394923            2 
  144000    1.2578965   -7.2337148    51.241288  0.029653523  0.032380726            1 
  145000    1.2227754   -7.2789737    51.821909  0.029782706  0.032368485            3 
  146000    1.2359587   -7.1883008    52.426231  0.029923648   0.03235888            4 
  147000     1.204867   -7.1885319    52.829102   0.02994847  0.032354064            2 
  148000    1.2470129   -7.1755468    53.020787  0.029854047  0.032348429            3 
  149000    1.2236462   -7.1945382    53.506916  0.029925568  0.032341622            1 
  150000    1.2055353   -7.1531364    53.985481  0.029991934  0.032336279            2 
  151000    1.2446423   -7.2069939    54.263405  0.029946691  0.032332384            2 
  152000    1.2255487   -7.1740489    54.818266  0.030053874  0.032329725            4 
  153000    1.2129984   -7.2212323    55.115698  0.030019443  0.032327926            2 
  154000    1.2287179   -7.1660311    55.497882  0.030031321  0.032323093            3 
  155000    1.2268801   -7.1581209    55.994296   0.03010446  0.032318095            2 
  156000    1.2069792   -7.1462607    56.520258  0.030192445  0.032316515            1 
  157000    1.2172902   -7.1819392    56.615895    0.0300509  0.032311455            3 
  158000     1.196849   -7.1815163      56.9095  0.030015559  0.032306763            1 
  159000    1.2144082   -7.2136042    57.487262  0.030129592   0.03230236            3 
  160000    1.2395759   -7.1362067    57.827028  0.030118243  0.032298194            4 
  161000     1.229119   -7.1832215    58.100648  0.030072799   0.03229394            1 
  162000    1.2382409   -7.1801762    58.346619  0.030013693  0.032288274            1 
  163000    1.2049146   -7.1327675    58.775264  0.030048703   0.03228141            2 
  164000        1.245   -7.2096837    59.022914  0.029991318  0.032274615            2 
  165000    1.2510076   -7.2014394    59.713457  0.030158311  0.032266765            1 
  166000    1.2153823    -7.205106    59.701441  0.029970603  0.032261546            1 
  167000    1.2406875    -7.186919    60.115711  0.029997859  0.032253817            1 
  168000    1.2295503   -7.1704796    60.663084  0.030090815    0.0322485            3 
  169000    1.2199756   -7.1797654    61.065515  0.030111201  0.032243587            3 
  170000     1.243586   -7.2128032    61.571835  0.030182272   0.03223875            1 
  171000    1.2490878    -7.191753    62.168926  0.030296748  0.032238785            1 
  172000     1.225327   -7.1860949    62.715731  0.030385528   0.03224031            3 
  173000    1.2329187   -7.2440863    62.863527  0.030281083  0.032240969            1 
  174000    1.2353718   -7.1981259    63.484827  0.030404611  0.032240706            2 
  175000    1.2291168   -7.2077787    63.600177  0.030285799  0.032240924            3 
  176000     1.223071   -7.1818714    64.088416  0.030344894   0.03224141            2 
  177000    1.2319307   -7.1739242    64.715629  0.030468752  0.032242371            1 
  178000    1.2377249   -7.1879609    64.991515  0.030426739  0.032244683            2 
  179000    1.2179384   -7.1648594    65.311115  0.030405547  0.032246936            2 
  180000     1.188895   -7.1814701    65.659471  0.030397903  0.032246913            2 
  181000    1.2212589   -7.1540824    66.064436  0.030416407   0.03224589            1 
  182000    1.2427714   -7.1673795    66.444391  0.030423256   0.03224517            2 
  183000    1.2104237     -7.17553    66.587684   0.03032226  0.032242665            1 
  184000    1.1982099   -7.2015034    66.991064  0.030340156  0.032239003            2 
  185000    1.2085692   -7.1861218     67.18572  0.030263838  0.032234802            2 
  186000     1.220367   -7.1811008    67.821957  0.030386181  0.032232054            2 
  187000    1.2293504   -7.1825657     68.33379  0.030451778  0.032229149            2 
  188000    1.2120239   -7.2258846    68.135729  0.030202007   0.03222406            2 
  189000    1.2184312   -7.2243168     68.39252  0.030155432  0.032215871            3 
  190000    1.2423448     -7.16906    68.752803  0.030154738  0.032204027            1 
  191000    1.2307694   -7.1875207    68.972491   0.03009271  0.032192958            2 
  192000     1.247017   -7.2045011    69.028466  0.029960271  0.032178777            2 
  193000    1.2031101    -7.222983    69.630141  0.030064828  0.032161758            2 
  194000     1.241108   -7.1661153    70.118522   0.03011964  0.032148173            2 
  195000    1.2329962   -7.1921771    70.234238  0.030014632  0.032132824            3 
  196000    1.2175105   -7.1786591    70.560915  0.030000389  0.032115823            2 
  197000    1.2106715   -7.2036388    70.730593  0.029919878  0.032099089            1 
  198000    1.2212366   -7.1564014    71.170484  0.029953907   0.03208211            1 
  199000    1.1858949   -7.1812295    71.607283  0.029986299  0.032065619            1 
  200000    1.2193428   -7.1940608    72.212763  0.030088651  0.032051616            1 
  201000    1.2063202   -7.2221625    72.305534  0.029977419  0.032036773            2 
  202000    1.2104598   -7.2563046    72.543238  0.029927078  0.032020234            1 
  203000    1.2065504   -7.2195761     72.88423  0.029919635  0.032004782            1 
  204000    1.2068702   -7.2333972    73.468974  0.030011836  0.031988979            2 
  205000    1.2183075    -7.225974    73.248252  0.029775712  0.031972607            1 
  206000    1.2007856   -7.1757614    74.085797  0.029969983  0.031956394            1 
  207000    1.2038912   -7.2146462    74.576783  0.030022859  0.031942106            3 
  208000    1.2246094   -7.2151216    74.841254  0.029984477  0.031929764            1 
  209000    1.2227641   -7.2317987    75.365873  0.030050189  0.031918044            3 
  210000    1.2149651   -7.2083368    75.957466  0.030141851  0.031909284            2 
  211000    1.2384571     -7.23275    76.358668  0.030157452  0.031902232            1 
  212000    1.2178209   -7.2343498    76.831467  0.030201048  0.031895024            2 
  213000    1.2006602   -7.2086374    77.318741  0.030249899  0.031888485            2 
  214000    1.2083155   -7.2417276     77.66605  0.030243789  0.031882616            2 
  215000    1.2009018   -7.2558729    77.797065  0.030153901  0.031875251            2 
  216000    1.2132628   -7.1900216    78.743234  0.030379334    0.0318694            4 
  217000     1.209801   -7.2335016    78.698544  0.030222175  0.031863726            3 
  218000      1.22685   -7.1866827    79.235685   0.03028887  0.031857797            2 
  219000    1.2208456   -7.2085156    79.527846  0.030261738  0.031852043            1 
  220000    1.2206245   -7.1824998    80.217533  0.030385429  0.031844175            3 
  221000    1.1934062   -7.1838259    80.218733  0.030248391  0.031837864            2 
  222000    1.2399178   -7.1764264    81.016172  0.030411476  0.031832812            2 
  223000    1.2457404   -7.2439062    80.910355  0.030235559  0.031827335            1 
  224000    1.2070141    -7.227678    81.306483  0.030247948  0.031821339            3 
  225000    1.2178929   -7.1508638    82.061303  0.030393075  0.031816058            2 
  226000    1.2129642    -7.221738    82.048243  0.030253777  0.031810588            4 
  227000    1.2050576   -7.2141502    82.580619  0.030315939  0.031804985            2 
  228000    1.2343124    -7.199393    82.850448  0.030281597  0.031798515            2 
  229000    1.2011139    -7.265815    82.616275  0.030064147  0.031789699            4 
  230000    1.2097596   -7.2230383    83.216571  0.030150932  0.031780618            1 
  231000    1.2022511   -7.1943411    83.624007  0.030167391  0.031770819            1 
  232000    1.2222605   -7.2493437    83.852641  0.030119483  0.031761937            1 
  233000    1.2022762   -7.2343784    84.409467  0.030189366  0.031752208            2 
  234000    1.1811841   -7.2211585    84.858376  0.030220219  0.031745711            1 
  235000    1.2201329   -7.2243552    85.253552  0.030231756   0.03173982            2 
  236000    1.2196598   -7.2571721    85.908104  0.030334782  0.031732735            1 
  237000    1.1832395   -7.2235577     86.18747  0.030305017  0.031726907            5 
  238000     1.196712   -7.2193188    86.448711  0.030269156  0.031720499            1 
  239000    1.2351404   -7.2120269    86.852319  0.030283235  0.031712717            2 
  240000    1.2429445   -7.2007666    86.889161  0.030169847  0.031704984            1 
  241000     1.226622   -7.2309588    87.181965  0.030145908  0.031697971            4 
  242000    1.2198825   -7.2136187    87.731043  0.030210414  0.031692075            2 
  243000    1.2131116   -7.1463867    88.806874  0.030455032  0.031688507            3 
  244000    1.2295024    -7.179766    88.950872  0.030379396  0.031684327            3 
  245000    1.2407541   -7.2350121    89.022057  0.030279611  0.031678358            1 
  246000    1.2383943   -7.1848689    89.685245   0.03038118  0.031673237            2 
  247000     1.234086   -7.2037126    90.110579   0.03040168  0.031668201            1 
  248000    1.1970748   -7.2165435     90.23056  0.030319408  0.031662578            1 
  249000    1.1872763   -7.2201599    90.689517  0.030351244  0.031657028            2 
  250000    1.2160377   -7.2238731    90.524015  0.030174671  0.031651645            3 
  251000    1.2317348   -7.2413659    91.354352   0.03033013  0.031646441            1 
  252000    1.2049589   -7.2268795    91.485583  0.030253169  0.031641444            1 
  253000    1.2164453   -7.2553205    91.902433  0.030270894  0.031636008            2 
  254000    1.2180636   -7.2666994    92.250033  0.030265759  0.031631364            3 
  255000    1.1766698    -7.239577    92.810982  0.030330386  0.031626597            3 
  256000    1.2091043   -7.2442106    93.192947  0.030336246  0.031622178            3 
  257000    1.2555226   -7.2541565    93.550174  0.030334038  0.031619332            1 
  258000     1.193967    -7.243125    93.753143  0.030282023  0.031614193            1 
  259000     1.195599   -7.2184304    94.297298  0.030340186  0.031610589            4 
  260000    1.2046921   -7.2567195    94.815493  0.030389581  0.031606315            2 
  261000    1.2387978   -7.2464406     95.08944  0.030360613  0.031602711            1 
  262000    1.2107226   -7.2510031    95.162402   0.03026794  0.031597273            2 
  263000    1.2044059   -7.2374707    95.450777  0.030244226  0.031591207            3 
  264000    1.2022513   -7.2220976    96.173396  0.030357764  0.031585458            3 
  265000    1.1991228    -7.238383    96.608613  0.030380067  0.031580172            6 
  266000    1.2260692   -7.2522917    96.874676  0.030349209   0.03157483            2 
  267000    1.2093704   -7.2334786    97.402512  0.030400285  0.031570088            9 
  268000    1.2095784   -7.2365352    97.801298  0.030410851  0.031566131            1 
  269000    1.2067747   -7.2101108    97.973928  0.030351279  0.031562403            2 
  270000    1.2138492   -7.2541491     98.11188  0.030281444  0.031558237            1 
  271000    1.2147235   -7.2659449      98.1809  0.030190929  0.031553016            2 
  272000    1.2185667   -7.1791662    99.167871  0.030382313  0.031547669            2 
  273000    1.2111618   -7.2026476    99.353357  0.030327642  0.031542139            2 
  274000     1.210019    -7.201718    99.495179  0.030260091  0.031536716            3 
  275000    1.2136413   -7.2638807    99.733181  0.030222176  0.031530581            2 
  276000    1.2065809   -7.2450601    99.756313   0.03011966  0.031523289            2 
  277000    1.2096705   -7.2626505    100.37999  0.030198552  0.031515525            1 
  278000    1.2136729   -7.1844413    100.95032  0.030260888   0.03150898            2 
  279000    1.2033888   -7.1986461    101.21462  0.030231367  0.031501977            2 
  280000    1.2093157   -7.2341889    101.57682  0.030231198  0.031494713            1 
  281000    1.1941712   -7.1900398     101.9041   0.03022067  0.031487375            1 
  282000    1.2235866   -7.2005266    102.39201  0.030257687  0.031479702            1 
  283000    1.2181652   -7.2881118    102.30074  0.030123893  0.031472739            2 
  284000     1.203807   -7.2518935    102.80679  0.030166311  0.031465584            2 
  285000     1.194415   -7.2738499    103.15299  0.030161692  0.031458398            5 
  286000     1.198728   -7.2145873    103.70128  0.030215992  0.031451128            2 
  287000    1.1907487   -7.2635024    104.02793  0.030205556  0.031444421            1 
  288000    1.2128109   -7.2784318    104.39981  0.030208278  0.031437758            3 
  289000    1.1817804   -7.1936654    104.69847  0.030189871  0.031429788            2 
  290000    1.1953939   -7.2492628    104.49445  0.030027141  0.031420578            2 
  291000    1.1978247   -7.2389827    104.71788  0.029987939   0.03141075            3 
  292000    1.2081924   -7.2432684    105.44723  0.030093387  0.031402348            2 
  293000    1.1927597   -7.2499822    105.85509  0.030106682  0.031392873            5 
  294000    1.2116446   -7.2732991    106.13455   0.03008349  0.031384052            2 
  295000    1.2005243   -7.2424553    106.88264  0.030192836   0.03137645            3 
  296000    1.2287356   -7.2663565    106.71716  0.030044244  0.031368516            3 
  297000    1.1838425   -7.2742434    107.11747  0.030055407  0.031360163            2 
  298000    1.1950326   -7.2702423    107.53904  0.030072439  0.031352516            2 
  299000     1.197635   -7.2782793     107.4405  0.029944398  0.031344202            2 
  300000     1.183735   -7.2736181    108.48431   0.03013453    0.0313358            3 
  301000    1.1888501    -7.253391    108.67468   0.03008712  0.031327874            2 
  302000    1.2246817   -7.2675861     108.9986  0.030076876  0.031319715            3 
  303000    1.2087969     -7.23766    109.49058  0.030112921  0.031311383            2 
  304000    1.1942331   -7.2804104    109.36807  0.029980281  0.031304246            1 
  305000    1.2024437   -7.2459691    109.72687  0.029980019  0.031294435            3 
  306000     1.186676   -7.2358374    109.81247  0.029905357  0.031284764            1 
  307000    1.1960942   -7.2721587    110.34934  0.029953676  0.031274997            1 
  308000    1.2195376   -7.2290618    110.95449  0.030020155  0.031264552            1 
  309000    1.2052472     -7.20879    110.78705  0.029877845  0.031253464            1 
  310000    1.2004165   -7.2455811     111.5285   0.02998078  0.031243031            2 
  311000    1.2088793   -7.2436503    111.96315  0.030000844  0.031232204            1 
  312000     1.182464   -7.2326846    112.11255  0.029944591  0.031221977            3 
  313000    1.2147863   -7.2185133    113.00798  0.030087322  0.031212956            1 
  314000    1.2084739   -7.2358929    112.88761  0.029959556  0.031203526            2 
  315000    1.2150288   -7.2492464    113.53989  0.030037009   0.03119528            1 
  316000    1.2290012   -7.2392324    114.10742   0.03009162  0.031187315            2 
  317000    1.1990519    -7.257074    114.51839  0.030104728  0.031179723            1 
  318000    1.1879587    -7.251618     114.5944  0.030029978  0.031171569            2 
  319000    1.1977268   -7.2561286    114.90974  0.030018219  0.031163965            2 
  320000    1.2161309   -7.2547602    115.40247  0.030052725  0.031157171            1 
  321000    1.2080129   -7.2557948    115.91743  0.030092791  0.031150424            1 
  322000    1.1863142   -7.2435535    116.71196  0.030204958  0.031145896            2 
  323000     1.182359   -7.3026272    116.68268  0.030103891  0.031140372            3 
  324000    1.2146773   -7.2276406    117.05039  0.030105553  0.031134126            3 
  325000    1.1957296   -7.2523967    117.42156  0.030108092  0.031127504            1 
  326000    1.1886317   -7.2306711    117.51484  0.030039582  0.031121802            3 
  327000    1.2031964   -7.2310036     118.1244  0.030103059  0.031115218            1 
  328000    1.1924925   -7.2546585    118.41357  0.030084749  0.031109376            2 
  329000    1.2025301   -7.3177832     118.6261  0.030047137  0.031103108            1 
  330000    1.1962914   -7.2107954    119.52574  0.030183267  0.031097895            1 
  331000    1.2170749   -7.2529951    120.14357  0.030247626  0.031092975            2 
  332000    1.1801532   -7.3121914    119.89073  0.030093054  0.031089062            3 
  333000    1.1886581   -7.2648375    120.73245  0.030213326  0.031085957            1 
  334000    1.1907935   -7.2382119    121.31259  0.030267612  0.031083731            3 
  335000    1.2349667   -7.2952238    121.28626  0.030170712  0.031081105            2 
  336000    1.2193739   -7.2482959    121.94749  0.030244913  0.031078579            6 
  337000    1.1928775   -7.2775062    122.36734  0.030258986  0.031075844            2 
  338000    1.1883886   -7.2417119    122.46756   0.03019417   0.03107344            1 
  339000    1.2000516   -7.2347882      123.167  0.030277041  0.031070395            2 
  340000    1.2077808   -7.2473571    123.62055  0.030299154  0.031068179            2 
  341000    1.1681617   -7.2857495    123.87305  0.030272005   0.03106503            3 
  342000    1.1835348   -7.3095472    123.95359  0.030203117  0.031062451            2 
  343000    1.2055167   -7.3007977    124.64556  0.030283177  0.031060194       -1e+20 
  344000    1.1856578   -7.2241218    125.56007  0.030416684  0.031058321            3 
  345000    1.1767696   -7.2499659    125.60495  0.030339361  0.031056438            1 
  346000    1.1971147   -7.2470946    125.55333  0.030239242  0.031054354            3 
  347000    1.2335014   -7.2390338    126.12378  0.030289093  0.031051971            1 
  348000    1.1755615   -7.2992984    126.03431   0.03018063  0.031050043            1 
  349000    1.2226844   -7.2934059    126.46501  0.030196993  0.031047873            4 
  350000    1.2329561   -7.2621525    127.53933  0.030366506  0.031046118            2 
  351000    1.2025572   -7.1915973    128.34029  0.030470155  0.031045577            2 
  352000    1.1999486   -7.2268428    128.64025  0.030454604  0.031045349            1 
  353000    1.1654257   -7.2228376    128.89298  0.030427992  0.031045947            2 
  354000    1.2149529   -7.3135558    128.87072  0.030336798  0.031045774            3 
  355000    1.1936382   -7.2772185    129.29337  0.030350557  0.031045142            3 
  356000    1.1582262    -7.267945    129.78054  0.030379341  0.031045206            2 
  357000    1.1812586   -7.2624374    130.44491  0.030449326  0.031045438            2 
  358000    1.1901311   -7.2748801    130.33246  0.030338096  0.031045394            2 
  359000    1.1837182    -7.273418    130.80708  0.030363759  0.031044734            2 
  360000    1.2190381   -7.2471458    131.40039  0.030416756  0.031044512            2 
  361000    1.1861257   -7.2855218    131.30676  0.030310886  0.031043993            2 
  362000    1.2020765   -7.2913304    131.95234  0.030375768  0.031042176            2 
  363000    1.2129689    -7.292823    131.68039  0.030229659  0.031040455            2 
  364000    1.1745884   -7.2722618    132.33462  0.030296387  0.031038565            1 
  365000    1.2417454   -7.2899371    132.89207  0.030340655  0.031036898            3 
  366000    1.1903924   -7.3199858    132.75167   0.03022579  0.031034305            1 
  367000    1.1904272   -7.3141511    133.24792  0.030256112   0.03103223            1 
  368000    1.1943587   -7.2950858    133.81424  0.030302137  0.031030252            2 
  369000    1.1945965    -7.302782    133.82688  0.030222871  0.031027639            2 
  370000    1.2150599   -7.2974993     134.0826  0.030198784  0.031025627            1 
  371000    1.2053396   -7.3062464    134.60158  0.030233957  0.031023498            1 
  372000    1.2139329    -7.244528    134.96176  0.030233368  0.031021032            3 
  373000    1.2203578   -7.2976388    135.21697  0.030209333  0.031018335            2 
  374000     1.224397   -7.2475066    135.67485  0.030230582  0.031013979            1 
  375000    1.1939388   -7.2790817    135.42721  0.030094935  0.031009867            2 
  376000    1.2056141   -7.2876382    135.86588  0.030112119  0.031004752            3 
  377000    1.1893918   -7.2928375    136.15154  0.030095389  0.030999777            1 
  378000    1.1967103   -7.2507394    136.20451  0.030027449  0.030994105            4 
  379000    1.1707108   -7.2648418    136.60123  0.030035451  0.030988019            2 
  380000    1.2094649   -7.2557108     137.3774  0.030126622  0.030982744            2 
  381000    1.1655963   -7.3199369    136.88858  0.029940634  0.030975651            3 
  382000    1.2039634   -7.2532003    137.95765  0.030095474  0.030969104            2 
  383000    1.2062111   -7.2721614    137.91591  0.030007813  0.030962911            3 
  384000    1.1941953   -7.3194167    138.17196  0.029985234  0.030956305            1 
  385000    1.1900535   -7.2523181    138.45748  0.029969151  0.030949021            4 
  386000     1.192482   -7.2824281    138.82712  0.029971312  0.030941886            1 
  387000    1.1871126   -7.2390587    139.77361  0.030097677  0.030935534            1 
  388000    1.1991053    -7.300098      139.318  0.029922252   0.03092886            1 
  389000    1.2057124   -7.2485303    140.41594  0.030080536  0.030922395            2 
  390000     1.167557   -7.2769976    140.68697  0.030061318  0.030916517            2 
  391000    1.2105325   -7.2643189    140.98681   0.03004834  0.030910119            1 
  392000     1.202507   -7.2775015     140.9795  0.029970131  0.030904142            2 
  393000    1.2018134   -7.2929244    141.74298  0.030055763  0.030898172            3 
  394000    1.1860987   -7.2465305    142.19827  0.030075776  0.030892633            1 
  395000    1.1538209   -7.3063194    142.30325  0.030021783  0.030886735            2 
  396000    1.1940845   -7.2982636    142.34291  0.029954316  0.030879958            2 
  397000    1.1937808    -7.304474    142.61897  0.029936812  0.030873092            2 
  398000    1.2217655   -7.2838112    142.82243  0.029904194  0.030865894            6 
  399000    1.2291097   -7.3043881    143.05635  0.029878101  0.030858669            3 
  400000    1.1776156   -7.2832557    143.73463  0.029944715  0.030851873            1 
  401000    1.1783903   -7.2708989    144.31367  0.029990371  0.030845258            1 
  402000    1.1804321   -7.2796778    144.98885  0.030055732  0.030839348            1 
  403000    1.1733744    -7.215861    145.27859  0.030041064  0.030833327            1 
  404000    1.1776356   -7.3120643    145.02895  0.029915212  0.030827038            2 
  405000    1.1894445   -7.3463777    145.11364  0.029858775  0.030819907            2 
  406000    1.1762994    -7.278618    145.36292  0.029836395  0.030812755            1 
  407000     1.186139     -7.32872    145.89309   0.02987164  0.030805353            1 
  408000    1.1862703   -7.2361151    145.76814  0.029772904  0.030797432            3 
  409000    1.1850985   -7.3172491    146.44017  0.029837036  0.030789119            1 
  410000    1.1720156   -7.3210496    146.16697  0.029708733  0.030780397            2 
  411000    1.2013136   -7.3152574     146.1122  0.029625346   0.03077123            1 
  412000    1.1585167   -7.2883448    147.01846  0.029736744  0.030762284            2 
  413000    1.1855123   -7.2992363    146.87135  0.029635059  0.030752138            4 
  414000    1.1783379   -7.3148346    147.03853  0.029597128  0.030741987            2 
  415000    1.1725809   -7.2832563    147.52274   0.02962304  0.030732453            1 
  416000    1.1763527   -7.3594525    147.67324  0.029581979  0.030722484            2 
  417000    1.1518793   -7.3326737    148.36288  0.029648857  0.030712843            3 
  418000    1.1929192   -7.2752438    149.77543  0.029859535   0.03070432            1 
  419000    1.2078499   -7.2864915    149.51159  0.029735798  0.030696142            2 
  420000     1.208122   -7.2668307    149.76349  0.029714979  0.030688394            3 
  421000    1.2048518   -7.2971683    149.96796   0.02968487   0.03068052            3 
  422000    1.1795821   -7.2923153    150.93863  0.029806206  0.030672789            1 
  423000    1.1910832   -7.2741344     151.7501  0.029895606  0.030664906            1 
  424000    1.1752844   -7.2983644    151.90538  0.029855616  0.030657479            6 
  425000    1.1857416   -7.2369586    151.57447  0.029720484  0.030650045            2 
  426000    1.1834626   -7.2842602    151.92478  0.029719245  0.030642175            1 
  427000    1.2001167   -7.3255187    152.17684  0.029698837  0.030633796            3 
  428000    1.1969375   -7.2981271    152.67338  0.029726126   0.03062565            2 
  429000    1.1860451   -7.3431985    152.92047  0.029704831  0.030618272            2 
  430000    1.1887156   -7.2954326    153.76363  0.029799153  0.030610985            2 
  431000    1.1682107   -7.2490451    154.17226  0.029809021  0.030603742            1 
  432000    1.1668399   -7.3476424     153.8144  0.029670988  0.030596084            3 
  433000     1.179923   -7.3065762    154.99015  0.029828743  0.030588745            3 
  434000    1.1879833   -7.2960216    154.75468  0.029714799  0.030581714            5 
  435000    1.1629451   -7.3229718    155.67036  0.029821908  0.030575232            1 
  436000     1.185308   -7.3228318    155.68183  0.029755701   0.03056865            2 
  437000    1.2133491   -7.3228591    156.28933  0.029803458   0.03056229            4 
  438000    1.1779512   -7.3059202    156.31075  0.029739488   0.03055606            2 
  439000    1.1599542   -7.3265875    156.89734  0.029783095  0.030549567            5 
  440000    1.2069876   -7.3008745    157.39027  0.029808763  0.030543551            3 
  441000    1.1690761   -7.2569363    157.52216  0.029766092  0.030537544            2 
  442000    1.1423307   -7.2916162    158.00218   0.02978925  0.030530889            2 
  443000    1.1736588   -7.2919034    158.11808  0.029743807  0.030524413            2 
  444000    1.1610251   -7.3500188    158.20613  0.029693342    0.0305168            2 
  445000    1.1881331    -7.289921    158.28021  0.029640488  0.030508405            2 
  446000    1.1596661   -7.2622645    158.57665  0.029629419  0.030500177            3 
  447000    1.1533678   -7.3243382    159.06414  0.029654015  0.030492265            2 
  448000    1.1859107   -7.2957163    159.66074  0.029698799   0.03048441            2 
  449000    1.1849204   -7.3553935    159.22443  0.029551675  0.030477446            1 
  450000    1.1744416   -7.2707332    159.57803  0.029551487  0.030469852            2 
  451000    1.2017598   -7.2929869    160.84036  0.029719208  0.030461699            2 
  452000    1.1872736   -7.3024106    160.00114  0.029498735  0.030453686            2 
  453000      1.16416   -7.3106857    160.46288  0.029518559  0.030445156            2 
  454000    1.1646892   -7.2974331    160.72326  0.029501332  0.030436348            3 
  455000    1.1921418   -7.2944425    160.85032  0.029459765  0.030427661            2 
  456000    1.1986679   -7.2944394    161.13146  0.029446539  0.030418922            3 
  457000    1.1873885    -7.344973    161.05713   0.02936855  0.030409696            1 
  458000    1.1755101    -7.305762    161.93672  0.029464468  0.030400097            1 
  459000    1.1711191   -7.3088492    161.71159  0.029359403  0.030390479            4 
  460000    1.1724089   -7.2842934    162.28291  0.029399079  0.030380787            1 
  461000    1.1934592   -7.2715894    162.23523  0.029326687  0.030370762            1 
  462000    1.1789639   -7.2751789    163.17506  0.029432731  0.030360639            2 
  463000    1.1914372   -7.3453816    162.60239  0.029266088  0.030350676            1 
  464000    1.1771052   -7.3072883    163.53199  0.029369969  0.030340642            2 
  465000    1.1627739   -7.3147244    163.97921  0.029386956  0.030331298            1 
  466000    1.1707603   -7.3769947     163.9877  0.029325411  0.030322177            2 
  467000    1.1683959   -7.2908862    165.60201  0.029550681  0.030313143            3 
  468000    1.1765264   -7.3171984     165.2827   0.02943068  0.030304321            3 
  469000    1.1852382   -7.3108543    165.30359   0.02937164  0.030294951            3 
  470000    1.1702424   -7.3415658    165.45339  0.029335707  0.030285212            2 
  471000    1.1785476   -7.3201923    165.49491   0.02928077  0.030275254            2 
  472000    1.1399626   -7.3461709     166.2437  0.029350935  0.030265318            3 
  473000    1.2119054   -7.2791184    166.87496  0.029400099  0.030255406            2 
  474000    1.1762855   -7.3367195     165.8587  0.029159405  0.030245316            1 
  475000    1.1642604   -7.3044075    166.65461  0.029237651  0.030234194            1 
  476000    1.1816164   -7.3464843    167.24832  0.029280168  0.030224058            4 
  477000    1.1751525   -7.3512168    167.55452  0.029272278  0.030213836            1 
  478000    1.1795786   -7.3448121    167.54445  0.029209284  0.030204092            3 
  479000    1.1548465   -7.3316846    167.91468  0.029212713  0.030194367            2 
  480000    1.1619735   -7.3269916    168.91444  0.029325424  0.030184493            2 
  481000    1.1597049   -7.3168215    168.75068  0.029236085  0.030174976            2 
  482000    1.1731192   -7.3005303    169.65404  0.029331612  0.030165405            2 
  483000    1.1513902   -7.3744377    169.07652  0.029171243  0.030155713            2 
  484000     1.131637   -7.3247431    169.41099  0.029168559  0.030145231            5 
  485000    1.1916065    -7.322511    169.57262  0.029136189  0.030134827            2 
  486000    1.1849002   -7.2723712    170.57983  0.029248941  0.030124569            2 
  487000    1.1743222   -7.3068842    170.55051  0.029183866  0.030114447            2 
  488000    1.1409024   -7.3435974        170.2  0.029064208  0.030104014            1 
  489000    1.1518304   -7.3490763    170.48334  0.029053058  0.030093414            2 
  490000     1.176861   -7.3247847    171.11408  0.029101034  0.030082285            7 
  491000    1.1759919   -7.3831292    170.64778  0.028962624  0.030071117            1 
  492000    1.1861726   -7.3171005    171.71944  0.029085272  0.030059527            1 
  493000    1.1826056   -7.3523948    170.91775  0.028890763  0.030047636            3 
  494000     1.150306   -7.3305155     172.3627  0.029076028  0.030036112            3 
  495000    1.1779234   -7.3052715     172.0373  0.028962508  0.030024389            2 
  496000    1.1559283   -7.3430918     172.5458  0.028989549  0.030013006            2 
  497000    1.1615013   -7.3571539    172.67349   0.02895263  0.030001835            1 
  498000    1.1933364   -7.3033331    173.72893  0.029071107  0.029990312            2 
  499000    1.1781572   -7.2946482    173.61154  0.028993243  0.029979089            1 
  500000    1.1720953   -7.3360911    173.66894  0.028944823  0.029967772            1 
  501000    1.1803759   -7.3273059    173.91103  0.028927316  0.029956435            2 
  502000    1.1873212   -7.3185591    173.92823  0.028872549  0.029944957            4 
  503000    1.1729793   -7.2864276    174.68766  0.028940964  0.029933265            2 
  504000    1.1831169   -7.3210945    175.36136  0.028994934  0.029921638            2 
  505000    1.1656683   -7.3122621    175.76004  0.029003307  0.029910277            1 
  506000    1.1816787   -7.3275053    175.67207  0.028931501  0.029899056            2 
  507000     1.180435    -7.330818    175.61971   0.02886583  0.029888288            1 
  508000     1.164487    -7.350848    175.66474  0.028816395  0.029877086            2 
  509000    1.1744323   -7.3310458    175.89428  0.028797361  0.029866031            2 
  510000    1.1643662   -7.3178974    177.18106  0.028951154  0.029855457            3 
  511000    1.1785153   -7.2829308     177.5794  0.028959458  0.029844534            1 
  512000    1.1804642   -7.3648597    177.42733  0.028878147  0.029833305            1 
  513000    1.1864278    -7.334192    177.89249  0.028897416  0.029822602            3 
  514000    1.1742534   -7.2948889    178.48158  0.028936703  0.029812175            4 
  515000    1.1749289   -7.3457786    178.02267  0.028806257   0.02980131            3 
  516000    1.1633249   -7.3036365    178.87594  0.028888233  0.029791014            2 
  517000    1.1559504   -7.3279667    178.82398  0.028823981  0.029780065            2 
  518000    1.1458297   -7.3351226    179.06752  0.028807517   0.02976902            2 
  519000    1.1726495   -7.3549207    180.06707  0.028912503  0.029758146            5 
  520000     1.156677   -7.3245578    180.00846   0.02884751  0.029747228            2 
  521000     1.181277   -7.3072538    179.81349  0.028760955  0.029736557            1 
  522000     1.174476   -7.3068649    181.00175  0.028895554  0.029726181            2 
  523000    1.1776358   -7.3438495     180.8055  0.028809035  0.029715941            2 
  524000    1.1767781    -7.301819    180.91457  0.028771401  0.029705603            3 
  525000    1.1636649   -7.3385521    181.67934  0.028837991  0.029695067            3 
  526000    1.1664536   -7.3538316    181.84259  0.028809029  0.029684283            1 
  527000    1.1867504   -7.2561657    182.86538  0.028916094  0.029673668            2 
  528000    1.1936814   -7.3214832    182.41649  0.028790482  0.029663214            2 
  529000    1.1799769    -7.343659     182.2662  0.028712382  0.029652446            2 
  530000    1.1573734   -7.3794213    182.93669   0.02876363   0.02964139            2 
  531000    1.1766595   -7.3197821    182.95363   0.02871212  0.029629826            2 
  532000    1.1680379   -7.3186626     183.1955  0.028696037  0.029618658            2 
  533000    1.1694787   -7.3285966    183.70602  0.028722017  0.029607481            1 
  534000    1.1699308   -7.3115686     183.8237  0.028686595  0.029595859            2 
  535000    1.1657845   -7.3069613    183.70911  0.028615127  0.029583936            2 
  536000    1.1442814   -7.2869659    184.83677   0.02873706   0.02957297            2 
  537000    1.1552474    -7.346166    184.94854   0.02870089  0.029561936            4 
  538000     1.156967    -7.361362    184.32964  0.028551679  0.029550831            4 
  539000    1.1692206   -7.3300349    185.16897  0.028628474  0.029540115            4 
  540000    1.1740685   -7.3575666     185.2622  0.028589845  0.029529395            5 
  541000    1.1813619   -7.3645556     185.3175  0.028545518  0.029517879            6 
  542000    1.1580551   -7.2827098    186.70381  0.028705998  0.029506574            3 
  543000    1.1557354   -7.3235416     186.8705  0.028678714  0.029496028            3 
  544000    1.1673588   -7.3379073    186.53798  0.028575058  0.029485478            2 
  545000    1.1695932   -7.3244326    187.05338  0.028601434  0.029474461            7 
  546000    1.1479782   -7.3535764    187.81799  0.028665749  0.029464162            2 
  547000    1.1603741   -7.3688687     187.8226  0.028614046   0.02945309            4 
  548000    1.1652847   -7.3286769    187.28102  0.028479474   0.02944218            2 
  549000    1.1610348   -7.3496174    188.28521  0.028580026  0.029431709            1 
  550000    1.1546927   -7.3403553    188.23084  0.028519824  0.029421716            3 
  551000    1.1535442   -7.3173135    188.96706   0.02857941  0.029411335            3 
  552000    1.1758838   -7.3504136    189.10004  0.028547712  0.029400991            4 
  553000    1.1457728   -7.3133986    190.18584   0.02865971  0.029390857            2 
  554000    1.1550152   -7.3922375    189.81417  0.028552072  0.029380898            2 
  555000    1.1607593   -7.3700135    189.84061  0.028504596   0.02937055            3 
  556000    1.1599311   -7.3694407    190.42891  0.028541503  0.029360641            4 
  557000    1.1693163   -7.3327522    191.12345  0.028594172  0.029350931            2 
  558000    1.1432993   -7.3628484    190.90219  0.028509884  0.029340751            1 
  559000    1.1764461   -7.3381536    191.90214  0.028607952   0.02933079            2 
  560000    1.1560498   -7.3986663    191.80428  0.028542303  0.029320713            1 
  561000     1.152548   -7.3894855    192.19947   0.02855013  0.029311206            1 
  562000    1.1773557   -7.3324618    192.56366   0.02855333  0.029302107            2 
  563000    1.1217461   -7.3481503    193.05412  0.028575211  0.029292803            5 
  564000    1.1774978   -7.3695179    193.16695  0.028541215  0.029283532            1 
  565000    1.1541729   -7.3307907    193.86753  0.028594032  0.029274418            2 
  566000    1.1614505    -7.373621    194.09554  0.028577081  0.029264944            4 
  567000    1.1549694   -7.3197557    194.93676  0.028650318  0.029255713            2 
  568000    1.1691105   -7.4095742    194.43219  0.028525849  0.029246391            1 
  569000    1.1766625   -7.3939954    194.98929  0.028557307   0.02923779            4 
  570000    1.1419784   -7.3404881    196.38248  0.028710889  0.029229266            3 
  571000    1.1528787   -7.3588774      196.331  0.028653093  0.029220941            4 
  572000    1.1899488   -7.3520786    196.43198  0.028617713   0.02921253            2 
  573000    1.1878186   -7.3557838    195.88056  0.028487574  0.029203851            1 
  574000     1.165276   -7.4007011    196.20832  0.028485528  0.029195064            2 
  575000    1.1354413   -7.3519071    197.42853  0.028612831  0.029186755            2 
  576000    1.1662501   -7.3278296     197.7939  0.028616015  0.029178678            2 
  577000    1.1616228   -7.3372504    197.87507  0.028578145  0.029170167            2 
  578000    1.1583483   -7.3602221    197.34866  0.028452806  0.029161231            3 
  579000    1.1303118   -7.3872836    197.88381  0.028480686  0.029151834            1 
  580000    1.1670383   -7.3149425     198.6528  0.028542069  0.029142989            2 
  581000    1.1487033   -7.3716744    198.99118  0.028541478  0.029134406            2 
  582000    1.1594726   -7.3463659    199.16993  0.028518031  0.029125102            3 
  583000    1.1351846   -7.3455965    199.42072  0.028504962  0.029115723            1 
  584000    1.1794081   -7.3891836    198.96901  0.028391697  0.029107086            2 
  585000    1.1565445   -7.3175491     199.9771  0.028486766  0.029097768            2 
  586000    1.1974656   -7.3761588    199.84703  0.028419658  0.029088584            6 
  587000    1.1768157   -7.3472595    199.99717  0.028392557  0.029079532            2 
  588000    1.1387994   -7.3539255     200.6605  0.028438279  0.029070425            1 
  589000     1.153375   -7.4055412    200.46951  0.028362975  0.029061194            2 
  590000    1.1557906   -7.3047668    201.42766  0.028450234  0.029052021            1 
  591000    1.1410023    -7.362125    201.37771  0.028395052  0.029042977            2 
  592000    1.1648849   -7.3827133    201.68877  0.028390874  0.029034098            3 
  593000    1.1558177   -7.3394894    202.14871  0.028407633  0.029024606            2 
  594000    1.1568375    -7.326953    202.46571   0.02840428  0.029015052            2 
  595000    1.1467223   -7.3030127    202.58994  0.028373941  0.029005762            2 
  596000     1.158778   -7.3770758    202.23751  0.028277056   0.02899638            1 
  597000    1.1672235   -7.3278886    203.18367  0.028361764  0.028986973            2 
  598000    1.1753311   -7.3849053    202.34148  0.028196973  0.028977147            4 
  599000    1.1575425   -7.3359184    203.36831  0.028292753  0.028967741            7 
  600000    1.1628998   -7.3300168    204.38099  0.028386249   0.02895893            4 
  601000    1.1435107    -7.319538    203.86003  0.028266781  0.028949282            2 
  602000    1.1475678   -7.3604465     203.9397  0.028230856  0.028939511            2 
  603000    1.1570297   -7.3548944    204.55088  0.028268502  0.028929688            1 
  604000    1.1656735   -7.3458533    204.18524  0.028171253  0.028920214            3 
  605000    1.1543104   -7.3639634    204.59004  0.028180447  0.028910894            2 
  606000    1.1569043    -7.346664    204.83442  0.028167549  0.028901132            5 
  607000    1.1423875   -7.3925239    204.90873  0.028131347  0.028891455            4 
  608000    1.1506565   -7.3894607    205.37445   0.02814891  0.028881393            2 
  609000    1.1528842   -7.3594509    206.18287   0.02821331  0.028871808            3 
  610000    1.1789902   -7.3895436    206.24353  0.028175346  0.028862345            3 
  611000    1.1629541    -7.328265    207.82981  0.028345583  0.028853021            5 
  612000    1.1528546   -7.4037836    206.50818  0.028119306  0.028843901            3 
  613000    1.1437687   -7.3600153      206.839  0.028118407  0.028834384            2 
  614000    1.1360996   -7.3585633    207.35686  0.028142896  0.028824726            2 
  615000    1.1312511   -7.4026597    207.55824  0.028124422  0.028814814            2 
  616000    1.1684584   -7.3485338    207.93601  0.028129871  0.028805056            1 
  617000    1.1540797   -7.3979379     208.2006  0.028120016  0.028795841            3 
  618000    1.1623278   -7.3613531    209.04328  0.028188144  0.028786287            4 
  619000    1.1308821   -7.4128033    208.13656  0.028020538  0.028776645            1 
  620000    1.1325619   -7.4068932    209.05023   0.02809815  0.028767108            4 
  621000    1.1532109    -7.372727    209.64446  0.028132644  0.028758117            3 
  622000    1.1509803   -7.3682501    210.68851  0.028227292  0.028748664            2 
  623000    1.1364793   -7.3990418    210.44323  0.028149174  0.028739893            2 
  624000    1.1678499   -7.3455215    211.51313  0.028246945  0.028731535            2 
  625000    1.1597208   -7.3670031    211.56065  0.028208087  0.028722817            2 
  626000    1.1170517   -7.3614534    211.27815  0.028125419  0.028713861            2 
  627000    1.1542167   -7.3311077    211.87749  0.028160219  0.028705063            1 
  628000    1.1590061   -7.3491868    211.83127  0.028109245  0.028696053            3 
  629000    1.1331761   -7.3865278      211.816  0.028062533  0.028687125            2 
  630000    1.1629341   -7.3889133    212.14356  0.028061318  0.028677891            3 
  631000    1.1576924   -7.4193931    212.39323  0.028049819   0.02866866            2 
  632000    1.1563083    -7.388649    213.44815  0.028144535  0.028659143            2 
  633000    1.1297568   -7.3602735    212.67244  0.027997951  0.028650004            2 
  634000    1.1458815   -7.4093589     212.5193  0.027933662  0.028640667            3 
  635000    1.1143809    -7.400732    213.19135  0.027977867  0.028631239            5 
  636000    1.1323749   -7.3819237    213.95605  0.028034074  0.028621729            1 
  637000    1.1745393   -7.3936191    214.45075  0.028054781  0.028612669            2 
  638000    1.1377476   -7.3190909    214.90543  0.028070198  0.028603884            2 
  639000    1.1413032   -7.4098037     214.0542  0.027915259  0.028594647            2 
  640000     1.146279   -7.4391819    213.93237  0.027855778  0.028584842            1 
  641000    1.1568814   -7.3625286    214.96015  0.027945938  0.028575461            1 
  642000    1.1759277   -7.3846337    214.18216  0.027801423  0.028565607            2 
  643000    1.1936977   -7.3763663    215.11523  0.027879112   0.02855597            2 
  644000    1.1230227   -7.4057258    215.37915  0.027869973  0.028545907            3 
  645000    1.1615726   -7.3392217    215.72131  0.027870971  0.028535885            1 
  646000    1.1250673   -7.3952277    215.42987  0.027790231  0.028525606            5 
  647000    1.1494481   -7.3787327     215.8731  0.027804366   0.02851522            3 
  648000    1.1209369   -7.3646073     216.9834  0.027904243    0.0285051            2 
  649000    1.1302072    -7.337426    217.44168  0.027920092  0.028495522            5 
  650000    1.1590259   -7.3307163    217.27568  0.027855856  0.028486077            1 
  651000    1.1644775   -7.3838337    217.75614  0.027874569  0.028476889            2 
  652000    1.1478797   -7.4169771    216.95567  0.027729508  0.028467039            2 
  653000    1.1854199   -7.3770482    218.35807  0.027866011  0.028457643            1 
  654000    1.1466387   -7.3524509    218.08545  0.027788666  0.028448066            3 
  655000    1.1152106   -7.3360892    219.27996  0.027898214  0.028437886            2 
  656000    1.1529772   -7.3826783    219.36349  0.027866297  0.028428463            2 
  657000    1.1621226   -7.3454751    219.28358  0.027813747  0.028419128            1 
  658000     1.143092   -7.4217848    218.16961  0.027630397  0.028409222            1 
  659000    1.1675498   -7.4037476    219.76449  0.027790148  0.028399338            1 
  660000    1.1338929   -7.3815359    219.41764  0.027704248  0.028389202            3 
  661000    1.1506854   -7.4434267     220.1807  0.027758535  0.028379023            2 
  662000    1.1507159   -7.3876263    219.73787  0.027660859  0.028368899            2 
  663000    1.1770945   -7.4324254     220.3215  0.027692497  0.028358894            3 
  664000    1.1478722   -7.3339151    221.90046  0.027848953  0.028349128            1 
  665000    1.1437852   -7.3686341      221.654   0.02777619  0.028339936            9 
  666000    1.1515812   -7.3979093    221.98412   0.02777579  0.028330773            1 
  667000     1.151041    -7.378189    222.16465  0.027756703  0.028321003            2 
  668000    1.1414806   -7.4135164    222.16169  0.027714782  0.028311573            2 
  669000    1.1252066   -7.3675064    222.30955  0.027691772  0.028302196            3 
  670000    1.1654594   -7.3746762    222.17703  0.027633959  0.028292902            1 
  671000    1.1335323   -7.3456572    223.71479  0.027783754  0.028283276            2 
  672000    1.1614961   -7.4159972    222.91201  0.027642858  0.028273736            2 
  673000    1.1644208   -7.3972254    223.49938  0.027674515  0.028264191            2 
  674000     1.146664   -7.3986388    223.88662  0.027681332  0.028255086            1 
  675000    1.1571544   -7.4132875    224.47092  0.027712459  0.028245988            2 
  676000    1.1229751   -7.4132522    225.33173   0.02777758  0.028237544            2 
  677000    1.1312646   -7.4665542    224.68796  0.027657307   0.02822893            2 
  678000    1.1358915   -7.4420308     225.0728  0.027663815  0.028220267            4 
  679000    1.1644911    -7.396668    226.75004   0.02782892  0.028211704            1 
  680000    1.1373786   -7.4026354    226.63921  0.027774413  0.028203533            3 
  681000    1.1609375   -7.4212905    227.28036  0.027812085  0.028195692            2 
  682000    1.1292522   -7.3848249    227.38965  0.027784659  0.028187631            3 
  683000    1.1444795   -7.4261747    227.04686  0.027702154   0.02817915            3 
  684000    1.1555608    -7.383289    227.85834  0.027760519  0.028170765            3 
  685000    1.1537893   -7.3579345    228.83012  0.027838215  0.028162778            3 
  686000    1.1263459   -7.3753036    229.23189  0.027846439  0.028155444            1 
  687000     1.152862    -7.382567      228.531  0.027720888  0.028147814            2 
  688000    1.1364493   -7.3985349    229.05425  0.027743974  0.028139772            2 
  689000    1.1121495   -7.3935708    229.07356  0.027706043  0.028131846            3 
  690000    1.1217222   -7.3773092    229.63177  0.027733306  0.028124117            2 
  691000    1.1284354   -7.3756428    230.53601   0.02780222  0.028116349            2 
  692000    1.1410645   -7.4078789    229.57517  0.027646335  0.028108472            3 
  693000    1.1422695   -7.3898254    229.12866  0.027552748  0.028100192            4 
  694000    1.1142983   -7.3420494    231.21441  0.027763498  0.028092396            1 
  695000    1.1456867   -7.3335704    231.05915  0.027704933  0.028084541            3 
  696000     1.137826   -7.4200727    231.22493  0.027684977  0.028076681            1 
  697000     1.126481   -7.3851404    231.05991  0.027625528  0.028068695            3 
  698000    1.1423344   -7.3945246    231.49821  0.027638278   0.02806084            2 
  699000     1.166679   -7.3517127    232.28863  0.027692969  0.028053042            2 
  700000      1.14605   -7.4128546    231.80904  0.027596314  0.028044704            3 
  701000     1.146236   -7.3780579     232.4891  0.027637791  0.028036465            3 
  702000    1.1350209   -7.4019605    232.54281  0.027604797  0.028028177            1 
  703000    1.1406913   -7.3934887    232.51879  0.027562682  0.028020047            1 
  704000    1.1451542   -7.3983305    232.84524  0.027562173  0.028011792            2 
  705000    1.1150633   -7.4492896    232.39607  0.027469984  0.028003339            2 
  706000     1.144597   -7.4362167    232.59723  0.027454819  0.027994498            2 
  707000    1.1523101   -7.4179688    233.46017    0.0275177  0.027985959            2 
  708000    1.1217775   -7.4277994    232.70901   0.02739042  0.027977219            3 
  709000    1.1561763   -7.3954982    234.62109  0.027576527  0.027968771            1 
  710000     1.147233   -7.4185029    234.47839  0.027520938  0.027960106            6 
  711000     1.149405   -7.3777729    234.96948  0.027539788  0.027951905            2 
  712000    1.1427673    -7.460814    234.59249  0.027456987  0.027943719            1 
  713000    1.1529328    -7.463892    235.20741  0.027490347  0.027934985            2 
  714000     1.141173   -7.3972995    236.15156   0.02756204  0.027926657            2 
  715000    1.1367007   -7.4145704    235.56948   0.02745565   0.02791862            2 
  716000    1.1205271   -7.4418416    235.23335  0.027378184  0.027909802            2 
  717000    1.1309862   -7.3844263    236.87183  0.027530431  0.027901172            2 
  718000    1.1394539   -7.4386171    235.71494  0.027357815  0.027892812            5 
  719000    1.1366966   -7.4191786    236.79926   0.02744544  0.027884182            1 
  720000    1.1532188   -7.3788936    236.67028  0.027392394  0.027875369            5 
  721000     1.135807   -7.4401794     236.3951  0.027322596  0.027866316            4 
  722000    1.1345977   -7.4849268    236.46144  0.027292409  0.027857346            3 
  723000     1.114582   -7.3860553    237.70498  0.027397993  0.027848223            3 
  724000    1.1472653   -7.4477159    236.65105  0.027238841  0.027839115            3 
  725000    1.1329194   -7.3566047    238.20195  0.027379534  0.027830283            3 
  726000    1.1362261   -7.4079644    238.93603  0.027426083  0.027821702            4 
  727000    1.1458549   -7.3725027     239.0178  0.027397731  0.027813243            2 
  728000    1.1148332   -7.3968673    238.77836  0.027332688  0.027804449            3 
  729000    1.1402535   -7.4150139    238.72429  0.027289014  0.027795602            4 
  730000    1.1594008   -7.4135021    239.44314  0.027333691  0.027786515            2 
  731000    1.1284306   -7.4673142     238.6223  0.027202724  0.027777368            3 
  732000    1.1139758   -7.3829021    239.84145  0.027304354  0.027768383            2 
  733000    1.1294574    -7.418314    239.31918  0.027207729  0.027759675            3 
  734000    1.1403042   -7.4293837    240.23318   0.02727443  0.027750896            5 
  735000    1.1590661   -7.4105811    240.76806  0.027297966  0.027742365            3 
  736000    1.1265961   -7.3733746    241.17322   0.02730675  0.027733755            1 
  737000    1.1294963   -7.4057659    241.08717  0.027259969  0.027725452            1 
  738000    1.1443451   -7.4481328       241.18  0.027233514  0.027716593            2 
  739000    1.1334737   -7.4159871    241.44201  0.027226207  0.027707386            2 
  740000    1.1160388   -7.4414311    240.88868  0.027127103  0.027698602            2 
  741000    1.1282292   -7.4685674    241.07751  0.027111731  0.027689355            3 
  742000     1.152431   -7.4549388    241.59013  0.027132764  0.027680198            1 
  743000    1.1284384   -7.4390932    241.68722  0.027107135  0.027671033            5 
  744000    1.1161798   -7.4304722    243.18149   0.02723807   0.02766165            2 
  745000    1.1299528   -7.4174447    243.10744  0.027193226  0.027652701            2 
  746000    1.1272498   -7.3977869    243.64808  0.027217168  0.027643972            1 
  747000    1.1323119   -7.4311715    244.41709  0.027266521  0.027635353            2 
  748000    1.1171337   -7.4178675    243.79852  0.027161154  0.027626806            2 
  749000    1.1362056   -7.4165618    244.45525  0.027197959  0.027618289            2 
  750000    1.1397894    -7.390205    244.30674  0.027145194  0.027609821            1 
  751000    1.1276626   -7.4194757    244.97007  0.027182653  0.027601311            2 
  752000    1.1556377   -7.4087632     245.8422  0.027243152  0.027592988            1 
  753000    1.1329581   -7.4235714    245.32348  0.027149567  0.027584792            4 
  754000    1.1417951   -7.4054873    245.58243  0.027142178  0.027576795            2 
  755000    1.1254902   -7.4673422    246.00254  0.027152599  0.027568248            1 
  756000    1.1306863   -7.4456249    246.50665   0.02717225  0.027559691            3 
  757000    1.1225745   -7.3745416    247.01391  0.027192196  0.027551675            4 
  758000    1.1395172   -7.3802524    247.75083  0.027237338  0.027543613            3 
  759000    1.1200915   -7.4282865    247.81843  0.027208875  0.027535876            3 
  760000    1.1326952   -7.4403561    248.04003  0.027197372  0.027527857            2 
  761000    1.1493092   -7.4589203    246.98683  0.027046302  0.027519639            1 
  762000    1.1409114   -7.4370314    248.43221  0.027168877  0.027511579            3 
  763000    1.1274877    -7.427336    248.76258  0.027169351  0.027503558            1 
  764000    1.1543506    -7.455323    248.91712  0.027150645  0.027495742            3 
  765000    1.1394215   -7.4401918    248.95275  0.027119036  0.027487981            3 
  766000     1.131338   -7.4431452    249.79562  0.027175329   0.02747996            2 
  767000     1.143534   -7.4457558    248.91013   0.02704369  0.027471813            3 
  768000    1.1473803   -7.4868314    248.97554  0.027015575  0.027463537            8 
  769000     1.112229   -7.3987438    250.43074  0.027138138  0.027455328            1 
  770000     1.141039   -7.4451031     249.8791  0.027043192  0.027447283            5 
  771000     1.122044    -7.449647    250.40361  0.027064808   0.02743949            2 
  772000    1.1054294   -7.4480407    250.29318   0.02701783  0.027431358            8 
  773000    1.1100728   -7.4455645    250.95127  0.027053824  0.027423355            1 
  774000    1.1161958    -7.390009     251.8744  0.027118261  0.027415416            4 
  775000    1.1430264   -7.4555598    251.55112  0.027048507  0.027407392            2 
  776000    1.1066244   -7.4316083    251.69845  0.027029473   0.02739927            2 
  777000    1.1314685   -7.4019896    252.22057  0.027050683  0.027390888            2 
  778000    1.1019153   -7.4556367    251.68125  0.026958146   0.02738241            6 
  779000    1.1023329   -7.4291831    252.50751  0.027011928   0.02737429            1 
  780000    1.1124097   -7.4474769    253.13821   0.02704468  0.027366322            3 
  781000    1.1395593   -7.4745947     252.0024   0.02688886  0.027358106            4 
  782000    1.1354995   -7.4834612    252.44999  0.026902173  0.027350044            2 
  783000    1.1365424   -7.4693394    254.08385  0.027041704  0.027342231            2 
  784000    1.1518218   -7.4055798    254.29376  0.027029524  0.027334476            4 
  785000    1.0960215   -7.4339709    254.07523  0.026971893  0.027326531            4 
  786000    1.1349192   -7.4355918    254.87995  0.027022896  0.027318871            3 
  787000    1.1343951   -7.3926932    256.19158  0.027127444   0.02731145            3 
  788000    1.1338134   -7.4385176    255.68886  0.027039854  0.027303695            1 
  789000    1.1174671   -7.4325187    255.70279  0.027007054  0.027295741            1 
  790000     1.109011   -7.4501449    255.31911  0.026932395  0.027287744            2 
  791000    1.1330343   -7.4813258     255.0882   0.02687402  0.027279669            1 
  792000     1.131349   -7.4725857    255.95406  0.026931193  0.027271709            2 
  793000     1.134762   -7.4841479    256.64064  0.026969382  0.027263811            3 
  794000    1.1538659   -7.4308272    256.21398  0.026890636  0.027255803            2 
  795000    1.1277602   -7.4626622    256.08348  0.026843132  0.027248032            2 
  796000    1.1139766   -7.5106245    255.43531  0.026741552  0.027239697            2 
  797000    1.1214752    -7.417713    256.97823  0.026869325  0.027231326            2 
  798000    1.1187546   -7.4300372     257.2746  0.026866605  0.027223301            2 
  799000    1.1349813   -7.4191373    257.85638  0.026893657  0.027215561            1 
  800000    1.1153157    -7.430941    258.83336  0.026961808  0.027207713            2 
  801000    1.1295569   -7.4928227    258.13689  0.026855689  0.027199879            4 
  802000    1.1287865   -7.4645466    258.42695  0.026852344  0.027191994            2 
  803000    1.1213177   -7.4871505    258.57253  0.026834011  0.027184045            3 
  804000    1.1101902    -7.408115    259.83928  0.026931932  0.027176303            2 
  805000    1.1400335   -7.4734904    258.36131  0.026745477  0.027168415            1 
  806000    1.1298814   -7.4841852    259.33455  0.026812919  0.027160304            4 
  807000    1.1348775   -7.4590426     260.4778  0.026897749  0.027152579            2 
  808000    1.1053073   -7.4289355    261.13259  0.026931992  0.027144788            6 
  809000    1.1043425   -7.4553745    260.73034  0.026857266  0.027136998            3 
  810000    1.1268654   -7.4694573    260.72899  0.026823971  0.027129226            2 
  811000    1.1327188   -7.4614453    261.11057  0.026830104  0.027121586            4 
  812000    1.1313767   -7.4409864    261.73132  0.026860768  0.027113876            3 
  813000    1.1062898   -7.5158022    261.30233  0.026783756  0.027106167            5 
  814000    1.1502456   -7.4220092    262.47156  0.026870552  0.027098624            3 
  815000    1.1407039    -7.470667    261.90467  0.026779618  0.027091377            3 
  816000    1.1259475    -7.468326    262.62743  0.026820612  0.027083655            1 
  817000    1.1056865   -7.4913036    262.39427  0.026764001  0.027075912            3 
  818000    1.1297808   -7.4033701    263.64144  0.026858338  0.027068325            3 
  819000    1.1287645   -7.4230519    263.66688  0.026828132   0.02706071            1 
  820000    1.1204678   -7.4765061    263.21769  0.026749765   0.02705305            3 
  821000    1.1410943   -7.4562556    264.16818   0.02681366  0.027045578            5 
  822000     1.150143   -7.4629393      263.558  0.026719181  0.027038338            2 
  823000    1.1297169   -7.4180115    264.68001  0.026800325  0.027030659            3 
  824000    1.1166854   -7.4948763    263.14539    0.0266126  0.027022769            4 
  825000    1.1163357   -7.4423227    265.07507   0.02677526  0.027015144            3 
  826000    1.1056379   -7.4332072    265.01384  0.026736666  0.027007617            2 
  827000       1.1301   -7.4880071    264.86699   0.02668954  0.027000306            1 
  828000    1.0998096   -7.4688218     266.2057  0.026792039  0.026992843            4 
  829000    1.1033534   -7.4236332    266.11884  0.026750989  0.026985345            1 
  830000    1.1082446   -7.4396254    266.81717  0.026788872  0.026978037            2 
  831000    1.1436365   -7.4844291    266.25087  0.026699847  0.026970478            3 
  832000    1.1107075   -7.4207673    266.98439  0.026741225  0.026963365            2 
  833000     1.111483   -7.4704586    266.97702  0.026708385  0.026955888            2 
  834000    1.1303856   -7.4570037    267.13036  0.026691682  0.026948413            1 
  835000    1.1342967   -7.4579757    266.97972  0.026644682  0.026941139            3 
  836000    1.1038064   -7.4663565    267.35131  0.026649852  0.026933554            1 
  837000    1.0806549    -7.440982    267.97107  0.026679717  0.026926063            2 
  838000    1.1212212   -7.4235198    268.65913  0.026716302  0.026918633            2 
  839000    1.1056053   -7.5186971    267.75261  0.026594419  0.026911055            1 
  840000     1.126112   -7.4102373    268.92114  0.026678684  0.026903237            3 
  841000    1.1214043   -7.4775397    267.25398  0.026481766  0.026895379            2 
  842000    1.1114793   -7.5028006    267.82296  0.026506627  0.026887126            2 
  843000    1.1141125   -7.4832596    268.17724  0.026510206  0.026879087            3 
  844000    1.1216669   -7.4395319    268.42317  0.026503077  0.026871135            2 
  845000    1.1307201    -7.483317     267.8804  0.026418186  0.026863145            1 
  846000    1.1017306   -7.4915167    268.39473  0.026437621  0.026854638            4 
  847000    1.1374726   -7.4679023    268.79979   0.02644626  0.026846097            4 
  848000    1.0826245   -7.4555298    269.04325  0.026438999  0.026837691            2 
  849000    1.1312204   -7.4473398    269.52758  0.026455396   0.02682929            2 
  850000    1.0985371   -7.4815628    269.59385  0.026430769  0.026820922            5 
  851000    1.1305271    -7.488056    270.10448  0.026449714  0.026812472            2 
  852000    1.1135383   -7.5008261    270.21371  0.026429353  0.026803981            1 
  853000    1.1131724   -7.4847444    270.57528  0.026433693  0.026795637            2 
  854000    1.1267099   -7.4366924    270.63222  0.026408296  0.026787289            3 
  855000    1.1002644   -7.4212881    271.49413  0.026461416  0.026778909            4 
  856000    1.1177391   -7.4914583    270.47692  0.026331476  0.026770329            1 
  857000     1.114463   -7.5064938      270.205  0.026274309   0.02676138            2 
  858000     1.119386   -7.4730018    270.67338  0.026289178  0.026752634            2 
  859000      1.12809   -7.4687004    271.69039  0.026357237  0.026743772            2 
  860000    1.1278614   -7.4710396    271.17824  0.026276961  0.026734836            2 
  861000    1.1044722   -7.4752417    272.35041  0.026359893  0.026726118            3 
  862000    1.1062609   -7.4662133     272.4267  0.026336688  0.026717181            1 
  863000    1.1389088   -7.4333741      273.348  0.026395134  0.026708555            2 
  864000    1.0974473   -7.4624994    272.77771  0.026309579  0.026699692            3 
  865000    1.1157837    -7.448452    272.25755  0.026229051  0.026690714            2 
  866000    1.0909413   -7.4387064    273.74279  0.026341685  0.026681891            1 
  867000    1.0942339   -7.4792821    274.01073  0.026337056  0.026673298            3 
  868000    1.1280841   -7.4718957    273.45127  0.026253002   0.02666453            3 
  869000    1.0980205   -7.4626898    274.20289  0.026294869  0.026656154            3 
  870000    1.1053879   -7.4909343     274.3081  0.026274722  0.026647719            4 
  871000    1.1023996    -7.481798     275.0525  0.026315777   0.02663941            1 
  872000    1.1080572   -7.4812099    274.14683  0.026199048  0.026630791            4 
  873000    1.1243232   -7.4398774    275.22669  0.026272117  0.026622384            2 
  874000     1.106947   -7.4663602    276.14982  0.026330074  0.026614329            1 
  875000    1.1006631   -7.4707484     275.5633  0.026244124  0.026605949            2 
  876000    1.1295291    -7.478579    275.54333  0.026212265  0.026597672            2 
  877000    1.1179995   -7.4589216    277.30168  0.026349456  0.026589423            3 
  878000    1.1079991   -7.5118861    276.00718  0.026196581  0.026581335            2 
  879000    1.1145478   -7.4924578     276.3661  0.026200806  0.026572891            1 
  880000    1.1184027   -7.4797242    277.58224  0.026286197  0.026564615            3 
  881000    1.1022945   -7.4524034    277.90416   0.02628681  0.026556255            3 
  882000    1.1258212    -7.433914    277.17067  0.026187705  0.026547692            3 
  883000    1.0988751   -7.5080235     276.5641  0.026100802  0.026538993            2 
  884000    1.1198782   -7.4825141    276.62719  0.026077224  0.026530121            1 
  885000    1.1363066   -7.4454436    277.64236  0.026143348  0.026521412            1 
  886000    1.1138164   -7.4978747     277.4963  0.026100104  0.026512663            3 
  887000    1.1098909    -7.472661    277.22043   0.02604476  0.026503671            3 
  888000    1.1177083   -7.4999232    277.81792  0.026071502  0.026494649            3 
  889000    1.1007378   -7.5002319    277.57551  0.026019451  0.026485821            2 
  890000    1.1026874   -7.4472445    279.83176  0.026201475  0.026477167            3 
  891000    1.1006811   -7.4749491    279.18122  0.026111225  0.026468277            2 
  892000    1.1186562   -7.5091888    278.41191  0.026010082  0.026459654            1 
  893000    1.1139835   -7.4939788    278.69291  0.026007177  0.026450962            3 
  894000    1.1122582   -7.5004251    279.58344  0.026061096  0.026441991            3 
  895000    1.0951559   -7.4984556    280.15638  0.026085324  0.026433068            1 
  896000    1.1189731   -7.4917881    279.38958  0.025984894   0.02642425            4 
  897000    1.1103335   -7.4872346    279.68995  0.025983831  0.026415808            1 
  898000    1.1044329   -7.5568864    279.58551  0.025945203  0.026407136            1 
  899000    1.1256897   -7.5238552    279.83427  0.025939402  0.026398111            2 
  900000    1.1199401   -7.4801948    281.66456  0.026080052  0.026389567            1 
  901000    1.1187755   -7.4662584    281.15786  0.026004242  0.026380893            1 
  902000    1.1295729   -7.4454461    282.00859  0.026054008   0.02637217            5 
  903000    1.1048216   -7.4773591    281.42768  0.025971547  0.026363201            6 
  904000    1.1069339   -7.4273119    282.71123  0.026061138  0.026354241            1 
  905000    1.1139103   -7.5358801     282.0974   0.02597582  0.026345635            2 
  906000    1.1018578    -7.507687    281.79574  0.025919402  0.026336999            4 
  907000    1.1227772   -7.4701402    282.56968  0.025961933  0.026328137            3 
  908000     1.091767   -7.4574577    282.90333  0.025963962  0.026319387            4 
  909000    1.1341615   -7.5024608    283.40508  0.025981397  0.026310945            1 
  910000    1.1150658   -7.4843082    283.11145  0.025925957  0.026302181            1 
  911000    1.1226388   -7.5258951    282.88915  0.025877164  0.026293253            1 
  912000    1.1021476   -7.5005634    283.28824  0.025885256  0.026284703            2 
  913000    1.0962795   -7.4896324    283.77786  0.025901593  0.026276136            8 
  914000    1.1171952   -7.4685806    283.49455  0.025847424  0.026267388            2 
  915000    1.0896627   -7.4888062    284.24602  0.025887616  0.026258694            3 
  916000    1.0968656   -7.4813866    284.06346  0.025842746  0.026249956            2 
  917000    1.1275534   -7.4929511    284.91019  0.025891511  0.026241024            2 
  918000    1.0901735   -7.4715942    284.75227  0.025848972  0.026232433            2 
  919000     1.110162   -7.5029813    283.77558  0.025732279  0.026223457            1 
  920000    1.1080274   -7.4965515    284.75349  0.025792888    0.0262144            1 
  921000    1.1187042   -7.5094618    286.04678  0.025881902  0.026205595            1 
  922000    1.1252415   -7.5062738    285.17477  0.025775016  0.026197003            4 
  923000    1.0920442   -7.5132272     285.8459  0.025807683  0.026188351            4 
  924000    1.1025055   -7.4787413    286.76862  0.025862971  0.026179735            5 
  925000    1.0833539   -7.4836722    286.98506   0.02585451  0.026171121            2 
  926000    1.0897204   -7.4967802    286.51815   0.02578457  0.026162569            4 
  927000    1.1126755   -7.5087704    286.18351  0.025726673  0.026153918            2 
  928000    1.1206799   -7.4546557    287.09984  0.025781235  0.026145167            1 
  929000    1.1110889   -7.5111393    287.15109  0.025758082  0.026136383            3 
  930000    1.0798975   -7.5025351    288.47769  0.025849255  0.026127616            3 
  931000    1.0892639   -7.5079372    288.03074  0.025781484   0.02611906            4 
  932000     1.108156   -7.4841086    288.34574  0.025781987  0.026110254            2 
  933000     1.109368   -7.5552725    288.07586  0.025730248  0.026101469            3 
  934000    1.0703079   -7.5241629    288.22017  0.025715575  0.026092545            2 
  935000    1.1226556   -7.4918327    289.33256  0.025787216  0.026083786            2 
  936000    1.0899648   -7.5205332    289.17174  0.025745347  0.026075367            1 
  937000    1.0889193   -7.5007954     289.3083  0.025730016  0.026066813            4 
  938000    1.0859081   -7.5189219    287.99608  0.025586006  0.026058103            3 
  939000    1.1183127   -7.5339385    289.71502  0.025711308  0.026049534            2 
  940000    1.1047762   -7.5127637    289.83534  0.025694622  0.026041039            4 
  941000    1.1072108   -7.5280157     288.9757  0.025591189  0.026032425            2 
  942000    1.0925899   -7.4948806    290.91485  0.025735567  0.026023841            2 
  943000    1.0952353   -7.5299534    290.19046  0.025644261  0.026015125            3 
  944000     1.097362     -7.49459     290.8258  0.025673181  0.026006569            2 
  945000    1.1009445   -7.5183423    291.85754  0.025736997  0.025998095            2 
  946000    1.1055713   -7.4858626    293.00938  0.025811256  0.025989932            1 
  947000    1.1027949   -7.5245797    291.73805  0.025672127  0.025981838            2 
  948000    1.0933988   -7.5229364    292.12266  0.025678856   0.02597363            2 
  949000     1.095527   -7.5365649    292.60879  0.025694484  0.025965605            1 
  950000    1.0894148   -7.4790673    292.43528  0.025652217  0.025957494            5 
  951000     1.098533   -7.5274196    293.23246  0.025695099  0.025949332            3 
  952000    1.1199298   -7.5379686    292.54187  0.025607657  0.025940917            3 
  953000    1.0861252   -7.4993822     293.0227  0.025622831  0.025932361            1 
  954000    1.1004343   -7.5473366    292.74644  0.025571841  0.025923841            2 
  955000    1.0955146   -7.5155203    292.72664  0.025543337  0.025915449            2 
  956000    1.0935539   -7.5602388    293.71926  0.025603143  0.025906821            2 
  957000    1.0848299   -7.5763398    293.41544  0.025549934  0.025898141            2 
  958000    1.1040042   -7.5305213    293.77175  0.025554258  0.025889742            2 
  959000    1.1158884   -7.5319507    293.62616   0.02551496  0.025881419            3 
  960000    1.0790578   -7.5490254    293.43709  0.025471969  0.025872779            2 
  961000    1.0962909   -7.4993145    295.38436  0.025614322  0.025864107            3 
  962000    1.0830808   -7.5681813    294.51591  0.025512466    0.0258555            3 
  963000    1.0784466   -7.5336382     294.3929  0.025475329  0.025847182            1 
  964000     1.099356   -7.5400839     294.3199  0.025442592  0.025838542            2 
  965000     1.091356   -7.5164603     296.0261  0.025563566  0.025829924            2 
  966000     1.125814   -7.5273488    295.92153  0.025528082  0.025821615            3 
  967000     1.098949   -7.4571203    297.11347  0.025604401  0.025813246            3 
  968000    1.1100381   -7.4708697    296.72658  0.025544643  0.025805092            2 
  969000    1.0881685   -7.5483594    295.33152  0.025398307  0.025796586            2 
  970000    1.0948715   -7.5391104    295.56879  0.025392508  0.025788148            3 
  971000     1.101929   -7.5327029    296.69274  0.025462817  0.025779669            2 
  972000    1.1121741   -7.4728872     297.8206  0.025533316  0.025771327            2 
  973000    1.1199099   -7.5169497    297.86504  0.025510881  0.025763063            3 
  974000    1.0916658   -7.4913659    298.20787   0.02551402  0.025755048            4 
  975000    1.1067495   -7.4930619    298.12516  0.025480783  0.025746849            2 
  976000    1.1032377   -7.4873537    298.60205  0.025495393  0.025738645            3 
  977000    1.0884136   -7.5445586     298.9379  0.025497945  0.025730443            2 
  978000    1.1044808   -7.5037854    297.84954  0.025379136   0.02572222            4 
  979000     1.100072   -7.5174534     298.8212  0.025435921  0.025713958            3 
  980000    1.1229018   -7.5479701    298.27637  0.025363637  0.025705604            2 
  981000    1.0893739   -7.5536086     298.6535  0.025369818  0.025697061            1 
  982000    1.0893676   -7.5110103    299.20377  0.025390679  0.025688355            5 
  983000    1.1052012   -7.5406004    299.11477  0.025357305   0.02567981            2 
  984000    1.1048544   -7.5168615    299.31098  0.025348152  0.025671389            3 
  985000    1.0894523   -7.4980075    299.74708  0.025359313  0.025662979            1 
  986000     1.074108   -7.5377434     299.7583  0.025334542    0.0256546            4 
  987000    1.0790643   -7.5307439    298.97586  0.025242811  0.025645975            2 
  988000    1.1168806   -7.5569457        299.8  0.025286775  0.025637137            3 
  989000    1.0984118   -7.5362601    300.20382  0.025295232  0.025628546            3 
  990000    1.0978011   -7.5114204    300.79634  0.025319557  0.025619858            1 
  991000    1.1021976   -7.4972652     300.8352  0.025297275  0.025611253            2 
  992000    1.0808865   -7.5360549    301.40726   0.02531983  0.025602638            2 
  993000    1.0782328   -7.5581994    300.12172  0.025186448  0.025593909            5 
  994000    1.1067239   -7.5090966    300.92609  0.025228546  0.025585072            3 
  995000    1.0906611   -7.5480072    300.86451  0.025198032  0.025576247            5 
  996000    1.0845842    -7.549814    302.01672  0.025269136  0.025567836            3 
  997000    1.1247142   -7.4962467     302.5552    0.0252888   0.02555934            2 
  998000    1.0827531   -7.5425833    302.30303  0.025242404  0.025550892            1 
  999000    1.0799022   -7.5145278    302.98019  0.025273623  0.025542448            3 
 1000000    1.0957697   -7.5524113    303.42807  0.025285672   0.02553388            2 
 1001000    1.1194848    -7.527083    303.02215  0.025226619  0.025525501            2 
 1002000    1.0925443   -7.5295718    304.11584  0.025292402  0.025517281            1 
 1003000     1.095222   -7.5365321    302.69646  0.025149257  0.025509153            2 
 1004000    1.1002276   -7.5439196    303.95282  0.025228488  0.025500843            1 
 1005000     1.090574   -7.5286726    303.53521  0.025168757  0.025492531            2 
 1006000    1.0718418    -7.497573    305.45075  0.025302414  0.025484348            2 
 1007000    1.0742399   -7.5236645    305.14501  0.025251987  0.025476295            6 
 1008000     1.095293   -7.5411002    305.05577  0.025219558  0.025468305            2 
 1009000    1.0956894   -7.5501123    305.41215  0.025223997  0.025460289            4 
 1010000    1.0904793   -7.5223909    304.65795  0.025136794  0.025452206            2 
 1011000    1.0777924   -7.5327859    305.13218  0.025151021  0.025444067            3 
 1012000    1.0760664   -7.4880367    307.01313  0.025281054  0.025435991            1 
 1013000     1.079904   -7.4920086      306.139  0.025184189  0.025427949            2 
 1014000     1.061631   -7.5045511     306.8324  0.025216338  0.025419731            1 
 1015000    1.1044845   -7.5232195    305.99891  0.025123063  0.025411556            2 
 1016000    1.0906193   -7.4730281     306.5513  0.025143643  0.025403486            2 
 1017000    1.0987161   -7.4762869    308.08791  0.025244831    0.0253956            2 
 1018000    1.0752947    -7.469539    308.88225  0.025285056  0.025387765            2 
 1019000    1.0747649   -7.5389309    307.63749  0.025158447  0.025379608            3 
 1020000     1.092242   -7.5408795      307.705  0.025139297  0.025371254            2 
 1021000    1.0803919   -7.5592506    307.09689  0.025065042  0.025362972            7 
 1022000    1.1019267   -7.5204319    307.84185   0.02510126  0.025354766            2 
 1023000    1.0528175   -7.5424397     308.6989  0.025146538  0.025346801            2 
 1024000    1.0828156   -7.5061646    310.23577  0.025247052  0.025338911            5 
 1025000    1.0924383   -7.5183916    309.56697  0.025168046  0.025331058            1 
 1026000    1.0836315    -7.559069    309.11963  0.025107182  0.025323086            2 
 1027000    1.0807429   -7.5510003    309.48958  0.025112754  0.025315119            8 
 1028000    1.0998429   -7.5643258    308.46199  0.025005025  0.025307101            2 
 1029000    1.0793084   -7.5221811     309.3314  0.025051134  0.025298945            3 
 1030000    1.0660716    -7.548891    309.75883  0.025061394   0.02529096            2 
 1031000    1.0909101   -7.6014094    309.91939  0.025050064  0.025282689            2 
 1032000     1.058923   -7.5442166    310.88467  0.025103736  0.025274624            2 
 1033000    1.0752317   -7.5593276    310.53739  0.025051419  0.025266642            4 
 1034000    1.0901783   -7.5284739     310.8285  0.025050653  0.025258683            1 
 1035000    1.0999179   -7.5626495    310.58238  0.025006633    0.0252508            9 
 1036000    1.0826784   -7.5636873    311.39636   0.02504797  0.025242788            1 
 1037000    1.0735935   -7.5343632    311.00234  0.024992152  0.025234858            1 
 1038000    1.1031605   -7.5415197    311.99535  0.025047796  0.025227034            4 
 1039000    1.0562027   -7.5723514    310.96918  0.024941384  0.025218994            3 
 1040000    1.1118669   -7.5688846     311.6594  0.024972709  0.025210972            3 
 1041000    1.0705252   -7.5725364    312.09089   0.02498326  0.025202807            5 
 1042000    1.0641518   -7.5045573    312.31331  0.024977072   0.02519464            1 
 1043000    1.1027836   -7.6159925    310.83425  0.024834951  0.025186508            2 
 1044000    1.0818976   -7.5573742     312.7878  0.024967097  0.025178353            1 
 1045000    1.0876043   -7.5813885    311.39708  0.024832303  0.025170384            3 
 1046000    1.1016848   -7.5203257     313.1315  0.024946741  0.025162245            2 
 1047000    1.0837904   -7.5841268    312.73548  0.024891395  0.025154186            2 
 1048000    1.0762682   -7.5884698    312.76705  0.024870153  0.025146103            1 
 1049000    1.0975256   -7.5611121    314.02787  0.024946606  0.025138129            4 
 1050000      1.08119   -7.5993006    313.46706  0.024878338  0.025130189            2 
 1051000    1.0755301   -7.5250742    314.17074  0.024910462  0.025122163            2 
 1052000    1.0721887   -7.5843357     314.1906  0.024888356  0.025114098            2 
 1053000    1.0953728   -7.5073331    315.35152  0.024956594  0.025106119            3 
 1054000    1.1046448   -7.5622457    314.78286  0.024887955  0.025098195            1 
 1055000    1.0701973   -7.5854688    314.95431  0.024877907  0.025090352            7 
 1056000     1.080467   -7.5901857    314.54773  0.024822264  0.025082343            2 
 1057000    1.1003296   -7.5316824    315.68197  0.024888203  0.025074248            1 
 1058000    1.0686523   -7.5932005    314.60914  0.024780178  0.025066179            2 
 1059000    1.0566912   -7.5798598    316.69802  0.024921153  0.025058277            5 
 1060000    1.0644164   -7.5890653    315.12831  0.024774238  0.025050373            4 
 1061000    1.0708525   -7.5639706    315.94492  0.024815027   0.02504231            4 
 1062000    1.0963063   -7.5952981    316.49186  0.024834578  0.025034153            2 
 1063000    1.0773929   -7.5248904    316.74162  0.024830795  0.025025957            4 
 1064000    1.0888389   -7.5471393     315.9631  0.024746483  0.025017683            1 
 1065000    1.0867326   -7.5195292    316.59068  0.024772354  0.025009559            6 
 1066000    1.0837061   -7.5773952    317.61376  0.024829093  0.025001346            4 
 1067000    1.1067696   -7.6017469    316.87491  0.024748118  0.024993138            3 
 1068000    1.0659564   -7.5917702    316.57301   0.02470139  0.024985038            3 
 1069000    1.0978276   -7.5654425    317.86775  0.024779214  0.024976969            3 
 1070000    1.1054426   -7.5701774    317.53357  0.024730029  0.024968876            2 
 1071000    1.0819029   -7.5401649    318.87169  0.024811056  0.024961025            2 
 1072000    1.0792434   -7.5443666    318.53305  0.024761587  0.024953172            2 
 1073000    1.0763236   -7.6034912    319.16244  0.024787391  0.024945243            4 
 1074000    1.0462701   -7.5706779     318.4125  0.024706122  0.024937148            2 
 1075000    1.0861743   -7.6023941    319.23552   0.02474694  0.024929276            1 
 1076000    1.1095464   -7.5368354    318.18776  0.024642794  0.024921245            4 
 1077000    1.0819228    -7.570312    320.50272  0.024799035  0.024913435            2 
 1078000     1.064669    -7.519559    320.37916  0.024766478  0.024905643            5 
 1079000    1.0621916   -7.5652785    320.30033  0.024737437   0.02489758            1 
 1080000     1.050084   -7.5390497    320.09024  0.024698321  0.024889678            3 
 1081000    1.0609536    -7.550914    321.08274  0.024751985  0.024881906            3 
 1082000    1.0797347   -7.5345371     321.6245  0.024770833  0.024874095            1 
 1083000    1.0807869   -7.5430075    320.53077  0.024663802  0.024866362            2 
 1084000    1.0838947   -7.5854919    321.35124  0.024704123  0.024858705            2 
 1085000    1.0569495   -7.5471991    322.30071  0.024754278  0.024851103            4 
 1086000    1.0926225   -7.5940595    321.81088  0.024693898  0.024843641            4 
 1087000    1.0622619    -7.539505    323.39249  0.024792433  0.024836185            3 
 1088000     1.059573   -7.5536299    323.57126  0.024783338  0.024828788            2 
 1089000    1.0923987   -7.5456892    323.62091  0.024764379  0.024821303            5 
 1090000    1.0634141   -7.6112852    323.28528     0.024716  0.024814048            4 
 1091000    1.0675967   -7.5832935    323.58729  0.024716414  0.024806705            1 
 1092000    1.0715929   -7.5885693    324.37405  0.024753819  0.024799432            5 
 1093000    1.0855776    -7.555035    323.78676  0.024686395  0.024792079            2 
 1094000    1.0584851   -7.5600824    325.26466  0.024776406  0.024784618            2 
 1095000    1.0753559   -7.5566825    324.92622  0.024728023  0.024777329           12 
 1096000    1.0811548   -7.5834442    324.93525  0.024706147  0.024769851            2 
 1097000    1.0641691    -7.515051    326.00842  0.024765149  0.024762882            3 
 1098000    1.0918827   -7.5876819    325.10672  0.024674159  0.024755764            3 
 1099000    1.0655448   -7.5547035    326.39957   0.02474974  0.024748594            2 
 1100000    1.0604703   -7.6043309    325.77971  0.024680281  0.024741339            2 
 1101000    1.0897788   -7.5722121    326.46312  0.024709591  0.024734286            2 
 1102000    1.0628245   -7.5772302    326.03454   0.02465476  0.024727363            2 
 1103000    1.0859891    -7.621705    325.61803  0.024600939  0.024720501            3 
 1104000    1.0905173   -7.5938794     327.7032   0.02473605  0.024713438            3 
 1105000    1.0951441   -7.5867036    327.72939  0.024715641  0.024706431            3 
 1106000    1.0757896   -7.5706881    327.71641  0.024692316   0.02469938            3 
 1107000    1.0785041   -7.5595239    327.85911  0.024680752   0.02469243            4 
 1108000    1.0837144   -7.5918364    327.69664  0.024646258   0.02468545            1 
 1109000    1.0681086   -7.5826594    327.74826  0.024627912  0.024678402            2 
 1110000    1.0772609   -7.5736292    329.14793  0.024710805  0.024671176            7 
 1111000    1.0813298   -7.5800663    328.89971  0.024669945  0.024664019            1 
 1112000    1.0599138   -7.5811274    328.55236  0.024621729  0.024656986            1 
 1113000     1.084592   -7.6029036    327.23537  0.024501001  0.024649834            4 
 1114000    1.0865769   -7.5844475    328.92684  0.024605538  0.024642729            3 
 1115000    1.1048255   -7.5940078     329.6387  0.024636674  0.024635608            3 
 1116000    1.0854031   -7.5829751    328.70155   0.02454462  0.024628611            2 
 1117000    1.0826741   -7.5654635    330.01195  0.024620408  0.024621662            2 
 1118000    1.0735399   -7.5615084    330.00411  0.024597802  0.024614746            2 
 1119000    1.0978252   -7.5732971    331.02355  0.024651739  0.024608015            3 
 1120000    1.0850066   -7.5522643    332.52637  0.024741545  0.024601409            2 
 1121000    1.0639276   -7.5881459    331.10838  0.024614064  0.024595021            2 
 1122000    1.0663063   -7.5491742    331.50347   0.02462147  0.024588377            1 
 1123000    1.0632847   -7.6073791    332.91173  0.024704046  0.024581845            2 
 1124000    1.0780909   -7.5753104    331.53005   0.02457963   0.02457512            2 
 1125000    1.0710335   -7.5787694     332.2846  0.024613674  0.024568441            2 
 1126000    1.0649952   -7.5812519    332.74729  0.024626058  0.024561782            2 
 1127000    1.0945232   -7.6357668    331.30557  0.024497602  0.024554872            1 
 1128000    1.0808344   -7.5878162    333.07072  0.024606288  0.024548067            2 
 1129000    1.0715187   -7.5453296    334.12969  0.024662658  0.024541381            2 
 1130000    1.0691303   -7.5535475    333.50388  0.024594682  0.024534812            2 
 1131000    1.0699613   -7.5955775    332.82468  0.024522891  0.024528135            3 
 1132000    1.0761178    -7.592575    333.50572  0.024551363  0.024521424            3 
 1133000    1.0843148   -7.6532412    332.20739  0.024434201  0.024514618            3 
 1134000    1.0775958   -7.6135584    332.88641  0.024462552  0.024507751            3 
 1135000    1.0573446   -7.5763875    334.03197  0.024525108  0.024500841            2 
 1136000    1.0792706    -7.533982    334.88555  0.024566135  0.024494077            4 
 1137000    1.0550403   -7.5421565    334.20777  0.024494853  0.024487278            2 
 1138000    1.0567959   -7.5573438    333.96664  0.024455671  0.024480344            3 
 1139000    1.0764205   -7.5818693    333.73949  0.024417581  0.024473412            3 
 1140000    1.0696407   -7.6067109    334.11381  0.024423524  0.024466421            2 
 1141000    1.0731539   -7.5797581    334.82683  0.024454194  0.024459363            3 
 1142000    1.0754242   -7.6049846    335.00207  0.024445569  0.024452528            4 
 1143000    1.0555249   -7.6068502    335.29299  0.024445392  0.024445589            4 
 1144000    1.0442096   -7.6193328    334.85754  0.024392303  0.024438754            3 
 1145000    1.1075571    -7.637394    335.92227  0.024448491  0.024431971            3 
 1146000    1.0917339   -7.5964461    335.78785  0.024417383  0.024425225            2 
 1147000    1.0501373   -7.5882962    336.47037  0.024445682  0.024418497            2 
 1148000    1.1067599   -7.5892768    337.27852  0.024483052  0.024411723            3 
 1149000     1.040125   -7.6106892     336.1045  0.024376595  0.024404917            2 
 1150000    1.0735036   -7.6108486    336.45065  0.024380482  0.024398169            3 
 1151000    1.0757529   -7.6370137    335.99457  0.024326279  0.024391294            3 
 1152000    1.0665035   -7.5996399     337.2179  0.024393656  0.024384381            4 
 1153000    1.0385737    -7.593696    337.21821  0.024372522   0.02437748            3 
 1154000    1.0723581   -7.5695021    337.21792  0.024351381   0.02437064            3 
 1155000    1.0754828   -7.5720834    336.51221   0.02427938  0.024363724            2 
 1156000    1.0687324   -7.5765808    338.36405  0.024391872  0.024356811            3 
 1157000    1.0848215   -7.5971497     337.6908  0.024322299  0.024349906            4 
 1158000    1.0635797   -7.5815376     338.5531  0.024363349  0.024343029            4 
 1159000    1.0871912   -7.5897003    339.22093  0.024390346  0.024336249            3 
 1160000    1.0632737   -7.6202977    339.45939  0.024386451  0.024329547            3 
 1161000    1.0847208   -7.5914134     339.6483  0.024379005   0.02432289            3 
 1162000    1.0656077   -7.6109501    339.92896  0.024378153   0.02431623            2 
 1163000      1.06722    -7.640454    339.08918  0.024297018   0.02430957            2 
 1164000    1.0754459   -7.5925868    340.31297  0.024363758  0.024303205            1 
 1165000    1.0368847   -7.6076533    341.30573  0.024413858  0.024296679            3 
 1166000    1.0843548   -7.6061995     340.9825  0.024369818   0.02429009            4 
 1167000     1.071569   -7.6057773    340.70907  0.024329411  0.024283455            3 
 1168000    1.0538484   -7.5857524    341.04849  0.024332798  0.024277064            4 
 1169000    1.0516051   -7.5873045    342.77774  0.024435254  0.024270551            3 
 1170000    1.0436871   -7.6595644    340.83751  0.024276176  0.024263939            5 
 1171000    1.0593538   -7.6088682    342.25768   0.02435651  0.024257458            1 
 1172000    1.0651464   -7.6210475     342.6205  0.024361526  0.024251066            2 
 1173000    1.0614748   -7.5735302    342.69716  0.024346203  0.024244686            2 
 1174000    1.0749224   -7.5794599    343.72402  0.024398355  0.024238235            4 
 1175000    1.0671976   -7.5670609    343.20868  0.024341041  0.024231863            3 
 1176000    1.0402108   -7.5918703    343.56643  0.024345694  0.024225312            3 
 1177000    1.0724883   -7.5950734    343.77355  0.024339673   0.02421877            3 
 1178000    1.0668916   -7.6321884    343.06098  0.024268603  0.024212259            1 
 1179000    1.0470788   -7.5750369     343.6865  0.024292232  0.024205691            3 
 1180000    1.0597517   -7.5687845    344.32614  0.024316818  0.024199449            2 
 1181000      1.07985   -7.5915475    344.21281  0.024288231  0.024193204            1 
 1182000    1.0413939   -7.6423489    344.10379  0.024259996  0.024186851            2 
 1183000    1.0611328   -7.6166531    346.08938  0.024379359  0.024180667            2 
 1184000    1.0611961   -7.5902773    346.50972  0.024388353  0.024174348            3 
 1185000    1.0465271   -7.6371296    344.98309  0.024260414  0.024168136            4 
 1186000    1.0494901   -7.5963616    346.68894  0.024359819  0.024162049            2 
 1187000    1.0736305   -7.5755862    346.63978  0.024335845  0.024155929            2 
 1188000    1.0963843   -7.6014641    346.43253  0.024300823  0.024149887            2 
 1189000    1.0474897   -7.5711026     347.3732  0.024346313   0.02414388            2 
 1190000    1.0432982    -7.618174    346.46573  0.024262306   0.02413775            2 
 1191000    1.0475849   -7.6331123    347.45898  0.024311431  0.024131665            3 
 1192000    1.0685469   -7.6118728     348.0619  0.024333187  0.024125678            2 
 1193000    1.0758802   -7.6123913    347.28791  0.024258725  0.024119504            3 
 1194000    1.0493458   -7.6115333    348.42084  0.024317479  0.024113466            2 
 1195000    1.0622519   -7.6226474    348.82384  0.024325233  0.024107389            5 
 1196000     1.074748   -7.6163754    347.86888  0.024238355  0.024101363            4 
 1197000    1.0658165   -7.6426721    348.05761  0.024231246  0.024095201            4 
 1198000      1.09363   -7.6493169    349.13837  0.024286197  0.024089026            2 
 1199000    1.0752081   -7.6248541    348.90896  0.024249998  0.024082845            2 
 1200000    1.0461344   -7.6135956    349.01981  0.024237487   0.02407664            1 
 1201000    1.0546851   -7.5969207    349.38913  0.024242931  0.024070489            2 
 1202000    1.0495215   -7.6448205    348.15168  0.024136972  0.024064495            2 
 1203000    1.0574265   -7.6051387    350.16511  0.024256381  0.024058361            2 
 1204000     1.063047   -7.6242945    350.62379  0.024267981  0.024052324            2 
 1205000    1.0251637   -7.5928699    350.82258  0.024261589  0.024046248            3 
 1206000    1.0800758   -7.5945507    349.94574  0.024180883  0.024040196            2 
 1207000    1.0538966   -7.6534092    350.31291  0.024186199  0.024034069            5 
 1208000    1.0650889   -7.6310344    350.03977  0.024147335  0.024027921            6 
 1209000    1.0711279   -7.6355997    350.71911  0.024174187  0.024021661            1 
 1210000     1.046547   -7.6559517    351.23658  0.024189847  0.024015621            3 
 1211000    1.0627783   -7.6340009     350.9713  0.024151617   0.02400942            3 
 1212000     1.045303   -7.6279038    350.95927  0.024130863  0.024003334            4 
 1213000    1.0425234   -7.6178756    352.80656  0.024237879  0.023997397            7 
 1214000    1.0653333   -7.6326148    351.61493  0.024136115  0.023991424            4 
 1215000    1.0597177   -7.6337901    352.61109  0.024184574  0.023985406            4 
 1216000    1.0511179   -7.5907028    352.88636   0.02418355  0.023979507            3 
 1217000    1.0549163   -7.6059074    353.01447   0.02417245  0.023973519            3 
 1218000     1.081126   -7.6137179    353.42281  0.024180542  0.023967575           10 
 1219000    1.0450603    -7.624643    352.79586  0.024117846  0.023961553            2 
 1220000    1.0553067   -7.6169137    354.19202  0.024193444  0.023955655            6 
 1221000    1.0849973   -7.5984726    354.45241  0.024191401  0.023949886            2 
 1222000    1.0381545   -7.6377852    353.58181  0.024112234  0.023944142            4 
 1223000    1.0643154   -7.6175772    354.40369   0.02414852  0.023938385            2 
 1224000    1.0457722     -7.66953    353.74509  0.024083952  0.023932566           10 
 1225000    1.0398172   -7.6820936    353.65471  0.024058143  0.023926618            1 
 1226000    1.0525324   -7.6980019     354.6216  0.024104242  0.023920741            4 
 1227000     1.070306    -7.638882    354.78183  0.024095479  0.023914936            2 
 1228000    1.0422499   -7.6469483     355.8037  0.024145202  0.023909207            5 
 1229000    1.0722035   -7.5935799    356.48654  0.024171857  0.023903477            4 
 1230000    1.0297325   -7.6594861     355.9935  0.024118801  0.023897811            6 
 1231000    1.0771432   -7.6747257    354.68805  0.024010835  0.023891876            2 
 1232000     1.040025   -7.6508702    356.58688  0.024119784  0.023885991            2 
 1233000    1.0361743   -7.6272815     356.3078   0.02408136  0.023880198            4 
 1234000    1.0639957   -7.6250866    356.81083  0.024095815  0.023874398            3 
 1235000    1.0574289   -7.6526201    355.99026  0.024020936  0.023868548            2 
 1236000    1.0483492   -7.6647478    356.64608  0.024045717  0.023862621            3 
 1237000    1.0408484   -7.5854157     357.9555  0.024114491  0.023856649            1 
 1238000    1.0428683   -7.6341042    356.92135  0.024025401  0.023850927            3 
 1239000    1.0743605   -7.6409053    357.15064  0.024021432  0.023845003            3 
 1240000    1.0609062   -7.6408856    358.33836  0.024081879  0.023839134            3 
 1241000    1.0542389    -7.676411    357.07688  0.023977765  0.023833447            4 
 1242000    1.0506454   -7.5942297    358.82817  0.024075964  0.023827625            4 
 1243000    1.0632137    -7.624585    358.15102  0.024011197  0.023821852            2 
 1244000    1.0600475   -7.6237612    359.61012  0.024089638  0.023816165            1 
 1245000    1.0596773   -7.6388037    359.27401  0.024047792  0.023810355            3 
 1246000    1.0485491   -7.6227873    359.82763  0.024065518  0.023804654            4 
 1247000    1.0839199   -7.6302539    359.71297  0.024038557   0.02379901            2 
 1248000    1.0598031   -7.6266254    360.24146  0.024054585  0.023793468            2 
 1249000    1.0357647   -7.6740716     359.2924  0.023972004  0.023787679            3 
 1250000    1.0586921   -7.6587633     359.5718  0.023971453  0.023782006            3 
 1251000    1.0541852   -7.6475207    360.61887  0.024022041   0.02377631            2 
 1252000    1.0353418   -7.6348749     359.9915  0.023961096  0.023770737            5 
 1253000    1.0531561   -7.5902293    361.69545  0.024055297  0.023765122            3 
 1254000    1.0580948   -7.6243028    360.82108  0.023978009  0.023759525            2 
 1255000    1.0424356   -7.6354925    361.07491  0.023975758  0.023753895           10 
 1256000    1.0624571   -7.6205973    361.20136  0.023965059  0.023748153            2 
 1257000    1.0439917   -7.6451964     361.9925  0.023998442  0.023742508            2 
 1258000    1.0421523   -7.6211431    361.90703  0.023973704  0.023736948            2 
 1259000    1.0568614   -7.6293819    362.61479  0.024001509  0.023731334            2 
 1260000    1.0483297   -7.6169692     362.4822  0.023973691   0.02372555            3 
 1261000    1.0649771   -7.6416133    362.16216  0.023933529  0.023719667            4 
 1262000    1.0734428   -7.6696213    361.31973  0.023858936   0.02371386            3 
 1263000    1.0401189   -7.6830842    361.63332  0.023860736  0.023707809            2 
 1264000       1.0403   -7.6623767    361.28246  0.023818728  0.023701781            3 
 1265000    1.0588658    -7.631846     362.8467  0.023902945  0.023695848            4 
 1266000    1.0594651   -7.6771274    361.91328  0.023822623  0.023689951            4 
 1267000    1.0219191   -7.6886704    362.31243  0.023830073  0.023683968            2 
 1268000    1.0378593    -7.637924    363.51327  0.023890199  0.023677974            3 
 1269000    1.0860307   -7.6571899    362.75614  0.023821653  0.023671945            2 
 1270000     1.048777   -7.6377434    363.49088  0.023851107  0.023665989            1 
 1271000    1.0623944   -7.6097999    363.47938  0.023831588  0.023659944            2 
 1272000    1.0536525   -7.6511897    363.82608  0.023835566  0.023653774            7 
 1273000     1.045441   -7.6527318     362.9468  0.023759282  0.023647473            3 
 1274000    1.0568175   -7.6249104    363.65835  0.023787176  0.023641125            4 
 1275000    1.0440628   -7.6437682    363.50145  0.023758265  0.023635003            3 
 1276000    1.0367542   -7.6252745    363.56426  0.023743747  0.023628917            4 
 1277000     1.060363   -7.6527451    364.20019  0.023766653  0.023622888            4 
 1278000     1.038793   -7.6520598    364.97728  0.023798727  0.023616915            3 
 1279000      1.04233   -7.6438455     365.3703  0.023805727  0.023610767            7 
 1280000    1.0646262   -7.6475563    363.97488  0.023696281  0.023604619            2 
 1281000    1.0528174   -7.6875926    364.29829  0.023698822  0.023598396            1 
 1282000    1.0340741   -7.6671684    363.96663  0.023658777    0.0235922            5 
 1283000    1.0754797   -7.6718881    365.44306  0.023736234  0.023586019            3 
 1284000    1.0455533   -7.6801595    364.02028  0.023625408  0.023579772            7 
 1285000    1.0431901   -7.6444411    365.61828  0.023710654  0.023573569            2 
 1286000    1.0303074   -7.6481202    366.08341  0.023722357  0.023567413            3 
 1287000     1.046096   -7.6485316    366.13367  0.023707179  0.023561229            4 
 1288000    1.0634504    -7.642808    366.03208    0.0236822  0.023555085            2 
 1289000    1.0411051   -7.6080514    367.01782  0.023727555  0.023548952            1 
 1290000    1.0408076   -7.6670826    364.80437  0.023566173  0.023542771            4 
 1291000    1.0407372   -7.6428606       366.73  0.023672218  0.023536468            4 
 1292000    1.0544696    -7.680207    366.92593  0.023666533  0.023530202            2 
 1293000     1.032601   -7.6519563    366.23406  0.023603639  0.023523843            1 
 1294000    1.0318265   -7.6520186    365.73492  0.023553253  0.023517451            3 
 1295000    1.0562872   -7.6701635    366.27067  0.023569541  0.023511031            2 
 1296000    1.0459586   -7.6594603    365.71362  0.023515536  0.023504541            2 
 1297000     1.059954   -7.7029971    366.30176  0.023535194  0.023498104            5 
 1298000    1.0449628   -7.6348073    367.53754  0.023596401  0.023491765            3 
 1299000    1.0488432   -7.6160364    367.29413   0.02356262  0.023485398            3 
 1300000    1.0401466    -7.703113    366.89865  0.023519144  0.023479009            4 
 1301000    1.0351375    -7.628863    368.49187  0.023603118  0.023472559            1 
 1302000    1.0529878     -7.65536    367.58359  0.023526856   0.02346615            5 
 1303000    1.0295463   -7.6602437    367.67352  0.023514551  0.023459726            3 
 1304000    1.0488634   -7.6432071    368.44197  0.023545627  0.023453399            3 
 1305000    1.0503201   -7.6615415    368.29972  0.023518501  0.023446996            6 
 1306000    1.0198631   -7.6459654    369.92502    0.0236042  0.023440755            2 
 1307000    1.0469347   -7.6414253    370.21732  0.023604777  0.023434595            6 
 1308000    1.0491282   -7.6764435    369.37108  0.023532816  0.023428374            4 
 1309000    1.0513792   -7.6746229    368.77388  0.023476819  0.023422025            2 
 1310000      1.05165   -7.6549519    369.32304  0.023493832  0.023415694            2 
 1311000    1.0462031   -7.6724938    369.60582  0.023493886  0.023409375            2 
 1312000    1.0383138   -7.6907539    369.35071  0.023459776  0.023403155            5 
 1313000     1.029259   -7.6758728    369.88678  0.023475932  0.023396766            2 
 1314000    1.0187641   -7.6504061    370.58726   0.02350249   0.02339041            2 
 1315000    1.0466777   -7.6640721      370.597  0.023485234  0.023384105            2 
 1316000    1.0545204    -7.670302    370.39489   0.02345459  0.023377791            4 
 1317000    1.0337257   -7.6728859    370.75193  0.023459373  0.023371373            2 
 1318000    1.0429888   -7.6987168    369.87609  0.023386197  0.023364897            5 
 1319000     1.036168    -7.617489    372.12613  0.023510622  0.023358516            2 
 1320000    1.0669812   -7.6305027     370.4658  0.023387993  0.023352117            4 
 1321000    1.0361109   -7.6755558     371.2492  0.023419707  0.023345671            9 
 1322000    1.0803785   -7.6467774    370.51583  0.023355764  0.023339249            3 
 1323000    1.0464789    -7.652396      371.573  0.023404699  0.023332704            2 
 1324000    1.0423309   -7.6296581    371.97143  0.023412099  0.023326236            1 
 1325000    1.0262994   -7.6779439    371.67572  0.023375832  0.023319784            3 
 1326000    1.0487056   -7.7018468    370.85349  0.023306529  0.023313349            2 
 1327000    1.0483249   -7.6889975    371.06546  0.023302277  0.023306732            2 
 1328000    1.0431551   -7.6647982    371.46766  0.023309969  0.023300167            3 
 1329000    1.0726775   -7.6944675    372.30755  0.023345093  0.023293657            2 
 1330000    1.0218673   -7.6679578    373.13889   0.02337963  0.023287193            4 
 1331000    1.0168797   -7.7069534    372.24239  0.023305935   0.02328067            2 
 1332000    1.0723595    -7.694064    372.90865  0.023330121  0.023273989            5 
 1333000    1.0450387   -7.6548831    373.55685  0.023353141  0.023267342            2 
 1334000     1.040745   -7.6863831    373.10288  0.023307276  0.023260826            2 
 1335000    1.0667377   -7.6522373    373.60036  0.023320872  0.023254322            3 
 1336000    1.0525693   -7.6723967    374.31932  0.023348261  0.023247937            4 
 1337000    1.0541545   -7.6625636    373.74855  0.023295222  0.023241595            3 
 1338000    1.0488475   -7.6613653    374.49146  0.023324082  0.023235086            4 
 1339000    1.0315111   -7.6871558     374.6805  0.023318428  0.023228558            3 
 1340000    1.0509246   -7.7061997    373.62514  0.023235394  0.023221954            4 
 1341000    1.0370926   -7.6818939    374.01076  0.023242031  0.023215399            3 
 1342000    1.0344134   -7.6690742    374.63319  0.023263362  0.023208999            3 
 1343000    1.0394046   -7.6781086    375.64933  0.023309092  0.023202499            3 
 1344000      1.02152   -7.6806597     375.6143  0.023289577  0.023195994            3 
 1345000    1.0305324   -7.6813173    375.84004  0.023286248  0.023189636            3 
 1346000    1.0303326   -7.6743382    375.73502  0.023262445  0.023183331            3 
 1347000    1.0384591    -7.666314    376.75451  0.023308248  0.023176994            2 
 1348000    1.0425966   -7.6805704    375.97096  0.023242517  0.023170823            1 
 1349000    1.0476253   -7.7094905    376.85231  0.023279733  0.023164501            4 
 1350000    1.0447478   -7.6604378    375.89252  0.023203242  0.023158142            3 
 1351000    1.0475562   -7.6988109     375.8786  0.023185209  0.023151736            4 
 1352000    1.0363073   -7.6833682    376.00036  0.023175565   0.02314522            4 
 1353000    1.0459691   -7.6539637    377.24365  0.023235012  0.023138701            4 
 1354000    1.0292467   -7.6899752    376.60992  0.023178848  0.023132249            3 
 1355000    1.0242726   -7.7094485    378.09885  0.023253312   0.02312583            2 
 1356000    1.0474288    -7.726683    376.80984  0.023156947  0.023119393            4 
 1357000    1.0336336   -7.6917667    377.68362  0.023193541  0.023112956            4 
 1358000    1.0357586   -7.6902213    377.93136  0.023191664  0.023106601            1 
 1359000    1.0362362   -7.6893999    378.79142  0.023227337  0.023100348            2 
 1360000    1.0413226    -7.710321    378.14528  0.023170667  0.023094089            4 
 1361000    1.0368666   -7.6728894    378.43121  0.023171149  0.023087809            2 
 1362000    1.0274579    -7.702425    379.85562  0.023241288  0.023081449            4 
 1363000    1.0508927   -7.6908864    378.87555  0.023164316  0.023075122            2 
 1364000    1.0378261   -7.6860855    379.02179  0.023156268  0.023068809            2 
 1365000    1.0059071   -7.6771408    378.26056   0.02309283  0.023062415            2 
 1366000    1.0500298   -7.6929423    380.23547  0.023196405  0.023056083            4 
 1367000    1.0400073   -7.6709827     379.2993  0.023122366  0.023049839            2 
 1368000    1.0402207   -7.6452588    379.98399  0.023147173   0.02304344            4 
 1369000    1.0209933   -7.6749241    379.71489  0.023113884   0.02303698            5 
 1370000    1.0322567    -7.692505    378.91735  0.023048501   0.02303045            1 
 1371000    1.0596092   -7.7123082    377.93316  0.022971867  0.023023805            4 
 1372000    1.0441069   -7.6962563    378.85144  0.023010899   0.02301726            3 
 1373000    1.0526802   -7.7345598    379.69219  0.023045168  0.023010642            4 
 1374000    1.0330481   -7.6726437    379.63073  0.023024668  0.023004052            2 
 1375000    1.0309042   -7.6823647    379.95598  0.023027635  0.022997409            6 
 1376000    1.0274816   -7.7143047    379.50982   0.02298388  0.022990728            2 
 1377000    1.0450844   -7.7047925    379.60346  0.022972855  0.022984025            4 
 1378000    1.0276388      -7.6861    379.40464  0.022944161  0.022977313            2 
 1379000    1.0244836   -7.6940852    379.70313   0.02294556  0.022970622            4 
 1380000    1.0153233   -7.6926842    379.55592  0.022920043  0.022963948            1 
 1381000    1.0344299   -7.7301026    379.52919  0.022901834  0.022957108            2 
 1382000    1.0454228   -7.6649821    380.43365    0.0229398  0.022950319            3 
 1383000    1.0102422   -7.7253089    381.70399  0.022999758  0.022943518            3 
 1384000    1.0506063   -7.7507471    380.28475  0.022897685  0.022936557            3 
 1385000    1.0254038   -7.6795628    381.04743  0.022927042  0.022929622            3 
 1386000    1.0191093   -7.7192051    380.25825   0.02286305  0.022922614            2 
 1387000    1.0300102   -7.6724303    381.11751  0.022898192  0.022915721            4 
 1388000    1.0371173   -7.7124037    380.94954   0.02287161  0.022908821            5 
 1389000    1.0130617   -7.7086974    380.32448  0.022817643  0.022901959           12 
 1390000    1.0167174   -7.6866009    381.42782  0.022867375  0.022895096            4 
 1391000    1.0145001   -7.6986854    380.71636  0.022808313  0.022888219            1 
 1392000    1.0289307   -7.6805435    381.15393  0.022818123  0.022881368            2 
 1393000    1.0189637   -7.7062894    381.22385  0.022805925   0.02287443            7 
 1394000     1.052446   -7.6703345    382.00714  0.022836391  0.022867483            4 
 1395000    1.0322293   -7.6887702    381.95705  0.022817028  0.022860515            1 
 1396000    1.0146289   -7.7553641    381.84861   0.02279421  0.022853552            4 
 1397000    1.0322478   -7.6972922    381.81577  0.022775935  0.022846523            4 
 1398000    1.0434564   -7.7412065    381.81202  0.022759419  0.022839425            7 
 1399000    1.0291978   -7.6621944    383.12652  0.022821451  0.022832405            5 
 1400000    1.0357387   -7.6889568    382.08897  0.022743391  0.022825537            5 
 1401000    1.0335613   -7.7012761    383.03789  0.022783601  0.022818475            3 
 1402000    1.0541808   -7.7179476     382.1812  0.022716429  0.022811473            2 
 1403000    1.0119704   -7.7067728    383.55661  0.022781932  0.022804399            4 
 1404000    1.0432618   -7.7383205    382.60176  0.022709031   0.02279727            4 
 1405000    1.0289231    -7.741378    382.62779  0.022694412  0.022790142            3 
 1406000    1.0313983   -7.7120225    382.83631   0.02269063  0.022783036            2 
 1407000    1.0267017   -7.7431351    383.45928    0.0227114  0.022775911            1 
 1408000    1.0334862   -7.7442221    382.29235  0.022626205  0.022768736            1 
 1409000     1.047652   -7.7161924    383.72746  0.022695024  0.022761731            2 
 1410000    1.0159831   -7.7007846    384.71097  0.022737055  0.022754865            1 
 1411000     1.029801    -7.666653    385.57066  0.022771714   0.02274806            2 
 1412000    1.0410213    -7.682705    385.23155  0.022735573   0.02274127            3 
 1413000    1.0236359   -7.7198396    385.56883  0.022739374  0.022734467            2 
 1414000    1.0110674   -7.6593461    386.28222  0.022765336  0.022727744            4 
 1415000    1.0325822   -7.7189544    384.66604  0.022654066  0.022721011            2 
 1416000    1.0232174   -7.6658037    385.82701  0.022706392  0.022714303            2 
 1417000    1.0000374   -7.6880657    386.14471  0.022709051  0.022707541            2 
 1418000    1.0302069    -7.702518    386.54667  0.022716659  0.022700799            4 
 1419000    1.0063484   -7.7135642    385.57841  0.022643787  0.022694043            6 
 1420000    1.0053837   -7.6984647    386.09983  0.022658441  0.022687225            2 
 1421000    1.0133197   -7.7093814    385.22573  0.022591234  0.022680394            2 
 1422000    1.0192907   -7.7186284    386.13728  0.022628767  0.022673529            1 
 1423000    1.0296697   -7.6956045    386.60863  0.022640468  0.022666684            4 
 1424000    1.0226104   -7.7269373    386.86971  0.022639847  0.022659873            2 
 1425000    1.0432397   -7.7371425    385.88551  0.022566404  0.022652896            4 
 1426000    1.0096714   -7.7118591     386.3888  0.022579991  0.022645952            4 
 1427000    1.0526204   -7.7111691    386.82372  0.022589565  0.022639124            3 
 1428000    1.0041329     -7.71099    387.41804  0.022608429   0.02263225            1 
 1429000    1.0068318   -7.7291559    387.47239  0.022595777  0.022625496            4 
 1430000    1.0179204   -7.6803432    388.78422  0.022656423  0.022618571            5 
 1431000    1.0081912   -7.7200407    388.12666  0.022602298  0.022611661            1 
 1432000    1.0096245   -7.7082969    388.08693  0.022584202  0.022604745            2 
 1433000    1.0295511    -7.733984    387.94391  0.022560125  0.022597868            4 
 1434000    1.0181151   -7.7043388    388.56467  0.022580467  0.022591148            6 
 1435000    1.0080706   -7.7078844    389.00886  0.022590526   0.02258441            1 
 1436000     1.029959   -7.7240285     389.1814  0.022584807  0.022577652            1 
 1437000    1.0272568   -7.7502568    388.49338  0.022529192  0.022570886            2 
 1438000    1.0191589   -7.7445039    389.90758  0.022595479  0.022563988            5 
 1439000    1.0028618   -7.7285349    389.37322  0.022548832  0.022557093            3 
 1440000    1.0294768     -7.72269    389.66015  0.022549777   0.02255024            6 
 1441000    1.0294625   -7.7183712    389.95503  0.022551181  0.022543385            3 
 1442000    1.0112509   -7.7334718     389.4894  0.022508634  0.022536583            3 
 1443000    1.0270451    -7.738629    390.11027  0.022528891  0.022529676           11 
 1444000    1.0285188   -7.7080383    391.43652  0.022589827  0.022522883            2 
 1445000    1.0200389   -7.6909224    391.57879  0.022582399  0.022516213            2 
 1446000    1.0406787   -7.7134949    390.80265  0.022522052  0.022509629            2 
 1447000    1.0167767   -7.7421302    391.78982  0.022563339  0.022503116            3 
 1448000    1.0194163    -7.676125    393.05745  0.022620709  0.022496613            1 
 1449000   0.99304569   -7.7097004    392.22673  0.022557323  0.022490094            2 
 1450000    1.0206267   -7.7492814    391.04289  0.022473729  0.022483546            2 
 1451000    1.0283973   -7.6755069    392.99365  0.022570276   0.02247697            6 
 1452000    1.0169257   -7.6874555    391.90641  0.022492333  0.022470321            2 
 1453000    1.0217274   -7.7006771    392.50971  0.022511454   0.02246371            3 
 1454000    1.0041054   -7.7150636    391.70231  0.022449697  0.022457147            3 
 1455000     1.028422   -7.7240289    392.02909  0.022452983   0.02245048            1 
 1456000    1.0270569   -7.7164123    392.58753  0.022469524  0.022443796            5 
 1457000    1.0008331    -7.717814     392.1936  0.022431571  0.022437163            3 
 1458000    1.0094726   -7.7192223    393.71503  0.022503145  0.022430486            3 
 1459000    1.0145507   -7.7112502    393.51171  0.022476109  0.022423757            4 
 1460000    1.0280439   -7.7393522    392.86442  0.022423769  0.022417035            4 
 1461000     1.008287   -7.6835568    394.80209  0.022518942  0.022410474            2 
 1462000    1.0269017   -7.6974137    394.39592  0.022480388  0.022403864            6 
 1463000    1.0165517   -7.6831613    394.56759    0.0224748  0.022397196            5 
 1464000    1.0215715   -7.7429299    394.54403  0.022458107  0.022390567            2 
 1465000    1.0138778   -7.7516073    393.15315   0.02236366  0.022383903            7 
 1466000    1.0084221   -7.7196835    395.13724  0.022461189  0.022377121            4 
 1467000    1.0282361   -7.7807746    392.93722  0.022320906  0.022370428            5 
 1468000    1.0121078   -7.6962397    394.74556  0.022408354  0.022363722            4 
 1469000    1.0176332   -7.7105419     394.9405  0.022404158  0.022357208            4 
 1470000    1.0020325    -7.687341    394.99059  0.022391757  0.022350686            8 
 1471000      1.01375   -7.7368483    394.69923  0.022360029  0.022344045            4 
 1472000     1.043809   -7.7518019    394.62603  0.022340695  0.022337405            3 
 1473000   0.99519624   -7.6968617    395.77005  0.022390249  0.022330713            2 
 1474000    1.0195081   -7.7082794    395.26152  0.022346309  0.022324059            4 
 1475000   0.99595143   -7.7331184    394.48687  0.022287394   0.02231741            5 
 1476000    1.0221158    -7.722378    396.50978  0.022386505  0.022310845            9 
 1477000    1.0044696   -7.7228167    395.46847  0.022312597  0.022304219            5 
 1478000    1.0004082   -7.7388619    395.73229  0.022312375   0.02229756            4 
 1479000    1.0020943   -7.7198079    396.69865  0.022351738  0.022290909            4 
 1480000    1.0009491   -7.7459503    396.77057  0.022340685  0.022284393            2 
 1481000   0.99708376   -7.7223815    396.72002  0.022322756  0.022277656            3 
 1482000    1.0129489   -7.7626562     395.8994  0.022261549  0.022270928            2 
 1483000    1.0096545   -7.7293381     396.7759  0.022295791  0.022264138            1 
 1484000    1.0025657   -7.7399333    397.14375  0.022301424   0.02225748            2 
 1485000    1.0209309   -7.6794582    397.63307  0.022313865  0.022250787            1 
 1486000   0.99833056   -7.7682035    396.70685  0.022246907  0.022244153            3 
 1487000    1.0231101   -7.6675561    397.94276  0.022301208  0.022237508            2 
 1488000    1.0172028   -7.7099958    397.72601  0.022274082  0.022230937            2 
 1489000    1.0168495    -7.717782    399.30614  0.022347556  0.022224361            5 
 1490000    1.0356946   -7.7646159    397.90809  0.022254367  0.022217792            3 
 1491000    1.0096543   -7.7488632    397.26403  0.022203445  0.022211193            4 
 1492000    1.0161958   -7.7271125    397.38694  0.022195428  0.022204582            2 
 1493000    1.0095385   -7.7138516    398.10465  0.022220621  0.022197915            2 
 1494000    1.0074786   -7.6947499    399.82465  0.022301688  0.022191477            6 
 1495000    1.0105939   -7.6992372    399.64829  0.022276939  0.022185049            3 
 1496000    1.0531707    -7.746844    398.36524  0.022190577  0.022178526            5 
 1497000    1.0223574   -7.7037447    400.17713  0.022276616  0.022171994            1 
 1498000    1.0076114   -7.7671198    399.56368  0.022227619  0.022165513            2 
 1499000    1.0062369   -7.7731196    398.40457  0.022148353  0.022159017            4 
 1500000    1.0273729   -7.7582056    400.12384  0.022229102  0.022152416            5 
 1501000   0.99232615   -7.7746514    399.63841  0.022187342   0.02214582            3 
 1502000    1.0180265   -7.7315133      399.342  0.022156125  0.022139244            4 
 1503000    1.0062835   -7.7560839    400.58462   0.02221028  0.022132571            3 
 1504000    1.0214198   -7.7579651    398.65956   0.02208885  0.022125908            2 
 1505000     1.003843   -7.7728516    398.62642  0.022072338  0.022119198            7 
 1506000    1.0099784   -7.7513875    400.13045  0.022140906   0.02211248            3 
 1507000    1.0211013   -7.7334804    400.51842  0.022147667   0.02210584            2 
 1508000   0.99984119   -7.7194288    401.66634  0.022196416  0.022099321            5 
 1509000    1.0044542   -7.7644384    399.91578  0.022085033  0.022092695            3 
 1510000   0.99359769   -7.7417881    402.08983  0.022190388  0.022086195            4 
 1511000    1.0203603   -7.7601349    401.36231  0.022135579  0.022079689            4 
 1512000    1.0100514   -7.7909441    400.28522  0.022061575     0.022073            2 
 1513000    1.0043843   -7.7229806    400.63434  0.022066223  0.022066389            5 
 1514000    1.0078301   -7.7516506    402.07542  0.022130968  0.022059866            1 
 1515000    1.0030751   -7.7062065    402.74548  0.022153217  0.022053303            1 
 1516000    1.0109891    -7.768759    400.75739   0.02202932  0.022046698            4 
 1517000     1.033592   -7.7816701    401.52508   0.02205697  0.022040086            7 
 1518000   0.99384748   -7.7435568    401.87031  0.022061391  0.022033525            3 
 1519000    1.0163728   -7.7965315    401.53769   0.02202862  0.022026848            3 
 1520000   0.99859768   -7.7761391    401.77303   0.02202703  0.022020225            5 
 1521000    1.0151978   -7.7641148    402.08348  0.022029558  0.022013672            5 
 1522000    1.0215037   -7.7870309    402.76587  0.022052446  0.022007209            3 
 1523000   0.99196314   -7.7556553     403.4987  0.022078064  0.022000609            2 
 1524000    1.0084671   -7.7640076    403.27266  0.022051217  0.021994021            2 
 1525000     1.015773   -7.7838637    401.93887  0.021963873  0.021987422            2 
 1526000    1.0175907   -7.8191735    402.87985  0.022000866  0.021980705            2 
 1527000    1.0121375   -7.7739047    402.81889  0.021983131  0.021973992            2 
 1528000    1.0083876    -7.734647    404.44427  0.022057388  0.021967297            1 
 1529000    1.0043653   -7.7630709    404.12289  0.022025446  0.021960702            2 
 1530000    1.0003648   -7.7750347    403.35766  0.021969372  0.021954178            3 
 1531000    1.0194429    -7.719382    404.08954  0.021994858  0.021947688            5 
 1532000   0.99979104   -7.7716926    404.33989   0.02199412  0.021941234            4 
 1533000     1.025068   -7.7499534    404.80952  0.022005301  0.021934727            2 
 1534000    1.0025272   -7.7508055    404.77979  0.021989341  0.021928162            3 
 1535000   0.99790396   -7.8040101    404.05724  0.021935789  0.021921528            2 
 1536000    1.0312473   -7.7611051    405.48998  0.021999239  0.021914976            1 
 1537000    1.0210192   -7.7655884    404.46147  0.021929163   0.02190858            3 
 1538000    1.0077743    -7.770795    405.85805  0.021990575  0.021902031            3 
 1539000    1.0030586   -7.7684111    405.33574  0.021948004  0.021895506            4 
 1540000    1.0016928   -7.7692608    406.41003  0.021991885  0.021889183            2 
 1541000    1.0026652   -7.7812516    406.35786  0.021974792  0.021882803            1 
 1542000    1.0279364   -7.7523347    406.60465  0.021973879  0.021876403            5 
 1543000   0.99416553   -7.7273222    406.76026  0.021968042   0.02186994            3 
 1544000     1.020849   -7.7512073    407.32749  0.021984429  0.021863523            3 
 1545000    1.0081575   -7.8115975    406.33027  0.021916411  0.021857037            2 
 1546000    1.0143045   -7.7996476    406.53832   0.02191345  0.021850583            1 
 1547000   0.98192116   -7.7629941    406.77569  0.021912071   0.02184417            5 
 1548000     1.017163   -7.7289262    407.45009  0.021934221  0.021837817            4 
 1549000    1.0011312   -7.7505137    407.62403  0.021929418  0.021831382            4 
 1550000   0.99973535   -7.7642451    407.49122   0.02190813  0.021824897            6 
 1551000   0.99627231   -7.7499451    407.71964  0.021906277  0.021818456            2 
 1552000    1.0085431   -7.7448705    408.17051  0.021916372  0.021811982            6 
 1553000   0.99867334   -7.7794497    407.14214  0.021847078   0.02180562            2 
 1554000    1.0240386   -7.7657793    408.70887  0.021917035  0.021799281            3 
 1555000   0.99857537   -7.7347077    409.33949  0.021936736  0.021793043            4 
 1556000    1.0010684   -7.7690718    409.59863  0.021936516  0.021786738            6 
 1557000    1.0172672   -7.7560137    408.12531  0.021843572  0.021780482            3 
 1558000    0.9852855    -7.813228    408.95111  0.021873722  0.021774242            1 
 1559000     1.008848   -7.7395505    411.11056  0.021975121   0.02176806            2 
 1560000    0.9875792   -7.7714235    409.68443  0.021884852  0.021761876            3 
 1561000   0.98721552   -7.7666507    410.25091  0.021901074  0.021755725            3 
 1562000    1.0027117   -7.7624383    409.40849  0.021842109  0.021749551            2 
 1563000    1.0050355   -7.7582173    409.56063  0.021836246  0.021743258            5 
 1564000   0.99394483   -7.8000705    409.68707  0.021829021  0.021736886            3 
 1565000    1.0069166   -7.7566382     410.6298  0.021865272  0.021730499            1 
 1566000   0.96922936    -7.767358    408.94722  0.021761772   0.02172415            3 
 1567000   0.98095741   -7.7728118    410.32375  0.021821088  0.021717681            2 
 1568000    1.0279827   -7.7709358    411.34684  0.021861545  0.021711282            4 
 1569000   0.99305346    -7.742729    411.60156  0.021861141  0.021705033            2 
 1570000   0.99420613   -7.7868676    410.83693  0.021806631  0.021698706            2 
 1571000    1.0071341   -7.7450139    411.96948  0.021852826  0.021692419            7 
 1572000    1.0031299   -7.7948642    410.37323  0.021754306  0.021686107            3 
 1573000   0.99222814    -7.790065    411.77126   0.02181454  0.021679747            3 
 1574000    1.0034464   -7.7697794    411.41127  0.021781622  0.021673435            1 
 1575000   0.99620718    -7.800119    410.63741  0.021726847   0.02166698            2 
 1576000   0.99896499   -7.7926103    410.88334  0.021726065  0.021660504            3 
 1577000    1.0031484   -7.8035571    410.11484  0.021671678  0.021653955            6 
 1578000   0.98267001   -7.8268626     411.6821  0.021740711  0.021647348            3 
 1579000   0.99330203   -7.7659198    413.29908   0.02181228  0.021640874            3 
 1580000    1.0126834   -7.8159361    410.78319   0.02166578  0.021634398            4 
 1581000   0.98843027    -7.802013    411.11978  0.021669818  0.021627846            5 
 1582000    1.0225057   -7.7788124    412.19793  0.021712913  0.021621305            3 
 1583000    1.0080921   -7.7945768    411.99594  0.021688563   0.02161479            6 
 1584000   0.96713873   -7.7807162     412.5841  0.021705813  0.021608351            3 
 1585000    1.0072988   -7.7672232    412.11352  0.021667378  0.021601849            5 
 1586000    1.0091391   -7.8088261    413.58612  0.021731091  0.021595471            2 
 1587000    1.0069442   -7.7733018    412.86818  0.021679698  0.021589076            2 
 1588000    1.0014368   -7.7434412    413.25059  0.021686114  0.021582797            2 
 1589000    1.0155965   -7.8182796     413.0388  0.021661359  0.021576457            7 
 1590000   0.99441131   -7.7960988    413.64994  0.021679766  0.021570145            7 
 1591000    0.9960338   -7.8189933    413.75106  0.021671436  0.021563855            2 
 1592000    1.0155064   -7.7796427    413.48409  0.021643849   0.02155761            3 
 1593000   0.96875271   -7.7937722    414.69276   0.02169349  0.021551413            2 
 1594000   0.99486222   -7.7707482    414.78531  0.021684719  0.021545235            3 
 1595000   0.99495459   -7.7918651    415.79435  0.021723843  0.021539063           11 
 1596000   0.97933431   -7.8114997     415.9317  0.021717403  0.021532917            3 
 1597000    0.9888374   -7.7885244    414.16157  0.021611437  0.021526768            4 
 1598000    0.9878761   -7.7879213    416.13128   0.02170063  0.021520641            3 
 1599000    0.9981309   -7.8053606    415.30967   0.02164424  0.021514478            5 
 1600000   0.98664051   -7.7582027    417.49482  0.021744522  0.021508379            2 
 1601000   0.99343604   -7.7420923    415.96158  0.021651133  0.021502369            2 
 1602000   0.99998919   -7.7825244    417.04367  0.021693907  0.021496287            3 
 1603000   0.99014275   -7.8033903    414.49138  0.021547691  0.021490022            3 
 1604000    1.0120292   -7.7893571    416.54044  0.021640713  0.021483834            8 
 1605000   0.99273655   -7.8016719    416.06806  0.021602703  0.021477536            2 
 1606000     1.004183   -7.7959436    416.28363  0.021600437  0.021471345            3 
 1607000   0.97268459   -7.7870461    417.32882  0.021641196  0.021465184            3 
 1608000   0.97636015   -7.7841612    417.26281  0.021624317  0.021459066            6 
 1609000   0.98185239   -7.8091934    417.21848  0.021608581   0.02145295            5 
 1610000    1.0017324   -7.7884918    418.08904  0.021640219  0.021446868            5 
 1611000    1.0080048   -7.7628089    418.63319  0.021654934  0.021440897            2 
 1612000    0.9925536    -7.790144    418.73065  0.021646539  0.021434911            4 
 1613000    1.0088645   -7.8124493    418.65419  0.021629169  0.021428947            4 
 1614000   0.99365581   -7.8305524    418.98427  0.021632811  0.021422964            6 
 1615000   0.97825571   -7.7816012    419.05043  0.021622829  0.021417027            2 
 1616000   0.99565728   -7.7916034    419.53523  0.021634449  0.021411012            2 
 1617000    1.0008017   -7.7676925     419.9029  0.021640017  0.021405057            4 
 1618000   0.99954934   -7.8331088    418.17128  0.021537458  0.021399067            3 
 1619000    0.9738145    -7.810961    418.59895  0.021546168  0.021393019            3 
 1620000   0.99684861   -7.8079059    419.69953  0.021589482  0.021386965            2 
 1621000    1.0095733    -7.775519    420.36856  0.021610557  0.021380948            3 
 1622000   0.97659669   -7.7988033    418.78696  0.021515976  0.021374858            1 
 1623000   0.97311127   -7.7859682    419.63933  0.021546484  0.021368808            5 
 1624000   0.98569381   -7.8261591    421.12408  0.021609405  0.021362729            7 
 1625000   0.99050016   -7.8247777    418.98515  0.021486418   0.02135661            3 
 1626000   0.98438057   -7.7840408    421.44366  0.021599203  0.021350531            4 
 1627000    1.0084667   -7.8265513    420.33896  0.021529347  0.021344386            2 
 1628000     1.000293    -7.836034    420.14376   0.02150613  0.021338202            2 
 1629000   0.99573133   -7.8428543    420.20834  0.021496232  0.021332032            3 
 1630000    0.9975285   -7.7957782    420.37299  0.021491462  0.021325923            2 
 1631000   0.98967007   -7.7703384    421.46971   0.02153432  0.021319841            3 
 1632000   0.98755915   -7.8144312     419.9016  0.021441054  0.021313836            6 
 1633000   0.97034094   -7.7899344    420.79254   0.02147339  0.021307782            2 
 1634000   0.99269385   -7.7766779     421.1482  0.021478386  0.021301737            2 
 1635000   0.98761054   -7.8277769     420.7471  0.021444806  0.021295661            3 
 1636000   0.99939979   -7.7881415    422.05946  0.021498546  0.021289593            3 
 1637000    1.0005082   -7.8543026    420.98943  0.021430942  0.021283537            1 
 1638000   0.97166325   -7.8071008    421.89922  0.021464144  0.021277517            2 
 1639000    0.9997043   -7.7867048    422.19225  0.021465947  0.021271419           10 
 1640000   0.97025123   -7.8191475    421.12339  0.021398546  0.021265385            3 
 1641000   0.98339078   -7.8262376    421.19883  0.021389337  0.021259267            3 
 1642000    0.9844453   -7.8042171     421.1827  0.021375492  0.021253227            4 
 1643000   0.97885404   -7.7754475    422.28383  0.021418332  0.021247155            3 
 1644000   0.97168164   -7.7660569    424.03928  0.021494286   0.02124112            4 
 1645000     1.024666    -7.817715    422.86525  0.021421745  0.021235064            2 
 1646000   0.97968649   -7.8072463     422.8274  0.021406815  0.021229015            3 
 1647000   0.98585925   -7.8190112    422.20373  0.021362261  0.021222886            3 
 1648000    1.0037908   -7.8357221    421.80996  0.021329387  0.021216706            5 
 1649000   0.99328553   -7.8612336    422.80797  0.021366888  0.021210604            2 
 1650000   0.99333388   -7.8146335    423.48605  0.021388184  0.021204503            5 
 1651000   0.96558484   -7.8202368    424.31567  0.021417104  0.021198524            2 
 1652000    0.9831792   -7.7916932    424.46294  0.021411569  0.021192575            7 
 1653000    0.9959575   -7.7945025    423.40944  0.021345505   0.02118656            3 
 1654000   0.99239127   -7.8006103    424.90568  0.021407985  0.021180541            1 
 1655000   0.97803944   -7.8374878    423.41856  0.021320169  0.021174517            5 
 1656000   0.96972348   -7.8043999    423.47895  0.021310334  0.021168413            2 
 1657000    0.9874416   -7.8697211    423.84691  0.021315978  0.021162277            3 
 1658000   0.99650073    -7.852953    423.75351  0.021298427   0.02115616            2 
 1659000   0.97296269   -7.7886431    425.74749  0.021385749  0.021150144            3 
 1660000   0.97806165   -7.8047316    425.49771  0.021360327  0.021144077            6 
 1661000    1.0009412   -7.7925417    426.51864  0.021398688  0.021138079            3 
 1662000   0.99507595   -7.8100837    427.02139   0.02141102  0.021132119            4 
 1663000   0.99934017   -7.8292997    425.21084  0.021307418  0.021126114            3 
 1664000   0.99926586   -7.8069074    425.84565  0.021326405  0.021120039            5 
 1665000   0.96600753   -7.8221932    425.81059  0.021311841     0.021114            4 
 1666000   0.97840089   -7.8114363    425.82957  0.021299998     0.021108            9 
 1667000   0.98229468   -7.8244149    426.11718  0.021301599  0.021102012            3 
 1668000   0.96747727     -7.83601    425.81819  0.021273891  0.021095989            4 
 1669000   0.98298716   -7.8342559    426.07616  0.021274025  0.021089855            4 
 1670000    1.0078959   -7.8001707    426.00608  0.021257789  0.021083795            6 
 1671000   0.98569392   -7.7988117    426.31878  0.021260661  0.021077691            2 
 1672000   0.95678099   -7.8310106    426.23913  0.021243976  0.021071572            6 
 1673000   0.97799206   -7.8343821    427.07622  0.021272974  0.021065611            6 
 1674000    1.0010938   -7.8054145    427.40438  0.021276602  0.021059648            5 
 1675000   0.97996843   -7.7641431    428.80134    0.0213334  0.021053771            2 
 1676000   0.99333196   -7.8335045    427.00008   0.02123111  0.021047819            5 
 1677000    0.9958537    -7.805717    426.47826  0.021192519  0.021041837            2 
 1678000   0.98572835    -7.816655    426.55027  0.021183466  0.021035877            1 
 1679000   0.96910514   -7.8133304     427.1522  0.021200725  0.021029804            2 
 1680000   0.97733071   -7.8191219    426.60177  0.021160802  0.021023772            2 
 1681000   0.98593798   -7.8670869    426.64905  0.021150558  0.021017624            1 
 1682000   0.97348746   -7.8253312    426.75298  0.021143132  0.021011446            3 
 1683000   0.97652085    -7.841404    427.04631  0.021145093  0.021005276            3 
 1684000   0.97750987   -7.8372251    426.73841  0.021117301  0.020999122            1 
 1685000   0.97924625    -7.830887    427.36024  0.021135521  0.020992811            2 
 1686000   0.97041333   -7.8725574    426.11224  0.021061301  0.020986523            2 
 1687000   0.98518455   -7.8211878    426.80062   0.02108282   0.02098026            2 
 1688000   0.98295373   -7.8574091    426.60142  0.021060497  0.020973963            4 
 1689000   0.99216094   -7.8188075    428.81689  0.021157336  0.020967702            5 
 1690000   0.97443817   -7.8302764    427.31067  0.021070546  0.020961554            4 
 1691000   0.98534113    -7.826902    427.70451  0.021077494  0.020955352            7 
 1692000   0.97746688   -7.8321371    429.51145  0.021154031  0.020949242            4 
 1693000   0.97358771   -7.7944545     428.7029  0.021101738  0.020943197            2 
 1694000   0.97126322   -7.8200822    429.04786   0.02110625  0.020937115            3 
 1695000   0.97305783    -7.819186    429.34293  0.021108305   0.02093104            3 
 1696000   0.97986181   -7.8442129    428.27858  0.021043562  0.020924827            3 
 1697000   0.98196632   -7.8396969    429.59103  0.021095611  0.020918626            2 
 1698000   0.99728779   -7.8327575    429.41459  0.021074528  0.020912418            3 
 1699000   0.98617432   -7.8437605    429.19556  0.021051381  0.020906235            2 
 1700000   0.97035189   -7.8311632    430.63158  0.021109391  0.020900095            3 
 1701000   0.97324646   -7.8338775    430.15169  0.021073471  0.020894052            5 
 1702000    0.9780092   -7.8083128    429.90425  0.021048974  0.020888039            3 
 1703000   0.97211338   -7.8259941    430.40673  0.021061202  0.020881985            2 
 1704000   0.96015259   -7.8314358    430.44443  0.021050686   0.02087588            2 
 1705000   0.99082708   -7.8100489    431.21345  0.021075926  0.020869822            5 
 1706000   0.98685537   -7.8564273    430.72297  0.021039614  0.020863799            3 
 1707000   0.98654296   -7.8466786    430.31445  0.021007345  0.020857748            2 
 1708000   0.97555833   -7.8760218    430.93473  0.021025309  0.020851646            5 
 1709000     0.963984   -7.8170244    430.87228  0.021009961  0.020845528            3 
 1710000   0.98057243   -7.8377322     430.8607   0.02099711  0.020839529            5 
 1711000   0.97824339   -7.8438327     432.8245  0.021080484  0.020833511            1 
 1712000   0.98429636   -7.8016222     433.3989   0.02109613    0.0208276            3 
 1713000   0.97723397   -7.8564643    431.71691   0.02100199  0.020821644            3 
 1714000   0.99103508    -7.848626    432.09573  0.021008155  0.020815696            4 
 1715000   0.98807921   -7.8164002     432.5363  0.021017313  0.020809724            8 
 1716000   0.98879162   -7.8671574    432.13773  0.020985709  0.020803671            4 
 1717000   0.98312408    -7.810429    432.22342  0.020977646  0.020797565            4 
 1718000   0.96811091   -7.8697485    431.39366  0.020925187  0.020791464            4 
 1719000   0.99279337   -7.8460824    431.12745  0.020900109  0.020785353            5 
 1720000    1.0054378   -7.8210906    433.97725   0.02102603  0.020779279            4 
 1721000   0.99399297   -7.8561309    431.19486  0.020879085  0.020773191            3 
 1722000   0.97411368   -7.8767784    431.60988  0.020887044  0.020767108            4 
 1723000   0.97706212   -7.8793399    432.03538  0.020895501  0.020761082            4 
 1724000   0.97050303   -7.8485016    432.86188  0.020923332  0.020755003            3 
 1725000   0.95335337   -7.8559809    433.61621  0.020947643  0.020748896            2 
 1726000   0.97841765   -7.8874738    432.59878  0.020886384   0.02074276            2 
 1727000   0.98501455   -7.8442903    433.57502  0.020921396  0.020736671            2 
 1728000   0.97056169   -7.8673919    433.95072  0.020927408  0.020730531            6 
 1729000   0.96918373   -7.8717153    434.82224  0.020957309  0.020724501           10 
 1730000   0.98269884     -7.87184    433.26678  0.020870269  0.020718467            2 
 1731000   0.96791186   -7.8639426    432.64115  0.020828093  0.020712484            4 
 1732000   0.96345111   -7.8532886    435.51872  0.020954519  0.020706583            5 
 1733000   0.98161146   -7.8261606    436.15878  0.020973205  0.020700704            4 
 1734000    0.9846751   -7.8423037    435.30142  0.020919907   0.02069476            4 
 1735000   0.97315866   -7.8306422    435.33023  0.020909233   0.02068877            4 
 1736000   0.95377161   -7.8463039    435.68994  0.020914455  0.020682811            3 
 1737000   0.95972602   -7.8437348    435.57481  0.020896892  0.020676906            3 
 1738000   0.99076869   -7.8345229    436.15786  0.020912824  0.020670962            7 
 1739000   0.95869038    -7.848762    435.39264  0.020864129  0.020664999            3 
 1740000   0.94858184    -7.833131    435.44536  0.020854663  0.020659147            2 
 1741000   0.98777295   -7.8316877    435.45087  0.020842948  0.020653203            3 
 1742000   0.97073093   -7.8380476    437.09446  0.020909609  0.020647277            3 
 1743000   0.97630196    -7.831226    437.65313  0.020924322  0.020641384            4 
 1744000   0.99459034   -7.8368711    436.45827  0.020855231  0.020635518            4 
 1745000   0.96321342   -7.8260067    435.73603  0.020808788  0.020629523            2 
 1746000   0.95128028   -7.8544677    436.16149  0.020817177   0.02062355            3 
 1747000   0.96789292   -7.8382461    436.23435  0.020808736  0.020617657            3 
 1748000   0.96118945   -7.8254302    434.49542  0.020713931  0.020611601            3 
 1749000     0.966216   -7.8699178    437.02003  0.020822376  0.020605534           12 
 1750000   0.96872062   -7.8163862     436.2623  0.020774395  0.020599446            2 
 1751000   0.96229239   -7.8217942    435.13836   0.02070904  0.020593463            1 
 1752000   0.96808217   -7.8580005    437.35487  0.020802648  0.020587368            2 
 1753000   0.98745161   -7.8678774    435.77143  0.020715508  0.020581183            2 
 1754000   0.98159609   -7.9101194    435.93417   0.02071143  0.020575038            2 
 1755000   0.97453068   -7.8572416     436.8881  0.020744924  0.020568859            5 
 1756000    0.9643784    -7.823809    438.46264  0.020807832  0.020562788            5 
 1757000   0.96628929   -7.8537763    437.24808  0.020738384  0.020556759            3 
 1758000   0.97648297   -7.8768308    437.73767  0.020749795  0.020550781            2 
 1759000   0.96720483   -7.8961281    436.02413  0.020656819  0.020544752            3 
 1760000   0.96977453   -7.8153536    436.84747  0.020684066  0.020538822            2 
 1761000   0.95995264   -7.8670649    438.01371  0.020727509  0.020532785            4 
 1762000   0.96306715   -7.8813485    436.44851  0.020641719  0.020526633            3 
 1763000   0.96736537   -7.8595733    438.33168  0.020719024   0.02052049            7 
 1764000   0.96646712   -7.8991603    437.51492  0.020668694  0.020514474            5 
 1765000   0.97902579    -7.895859    437.05211  0.020635133  0.020508427            4 
 1766000   0.98894699   -7.8950028    437.46902  0.020643121  0.020502309            3 
 1767000   0.97009395    -7.886344    438.49792  0.020679962  0.020496175            5 
 1768000   0.97998979   -7.8669349    438.99135  0.020691523  0.020490092            3 
 1769000   0.96798153   -7.9178588    438.03901  0.020634964  0.020483982            1 
 1770000   0.97097369   -7.8508512    438.88021   0.02066291  0.020477959            2 
 1771000   0.95906161   -7.8786662    439.25955  0.020669092  0.020471893            2 
 1772000    0.9760987   -7.8653559    439.27174  0.020658001  0.020465838            2 
 1773000   0.96099005   -7.8730206     440.1042  0.020685477  0.020459942            4 
 1774000   0.97399943   -7.8786442    439.16838  0.020629856  0.020454037            4 
 1775000   0.98808057    -7.879485    440.03424  0.020658884  0.020448192            3 
 1776000   0.99043592    -7.805637    442.34996   0.02075591  0.020442336            3 
 1777000   0.95831517   -7.8663311    441.20482  0.020690528  0.020436624            3 
 1778000   0.99801844   -7.8709566    442.01868  0.020717036    0.0204308            5 
 1779000   0.96022716   -7.8819975    441.30782  0.020672092  0.020425022            1 
 1780000   0.97310098   -7.8626487    441.32911  0.020661475  0.020419246            7 
 1781000   0.97971911   -7.8835448    441.90233  0.020676695  0.020413437            4 
 1782000   0.96860735   -7.8708364    441.04837  0.020625158  0.020407621            3 
 1783000    0.9564341   -7.8624768     442.4605  0.020679589  0.020401823            7 
 1784000   0.97735953   -7.8691143    441.97096  0.020645131   0.02039597            2 
 1785000    0.9794692   -7.8560643    442.77486  0.020671095  0.020390105            3 
 1786000   0.95004896   -7.8803358    441.94707  0.020620897  0.020384254            4 
 1787000   0.95645746   -7.8723165    441.10876  0.020570265  0.020378397            5 
 1788000   0.93829411   -7.8690543    441.62255  0.020582706  0.020372488            5 
 1789000   0.97541421   -7.9175207    441.33021  0.020557584  0.020366596            4 
 1790000   0.94827789   -7.9067112    442.12603  0.020583149  0.020360666            4 
 1791000   0.98062399   -7.8760654    443.51701  0.020636377  0.020354749           11 
 1792000   0.96479623   -7.9022182    442.68659  0.020586244  0.020348831           12 
 1793000   0.94770649   -7.8771986    443.30765  0.020603628  0.020342988            3 
 1794000   0.97888238   -7.8551623    441.15886  0.020492329  0.020337136            7 
 1795000   0.96198579   -7.8822711    442.69159   0.02055207  0.020331286            5 
 1796000   0.95443774   -7.8861563    442.74341  0.020543031  0.020325419           13 
 1797000   0.98667839   -7.8687274    443.06296  0.020546418   0.02031956            4 
 1798000    0.9772538   -7.8742478     443.4752  0.020554097  0.020313718            4 
 1799000   0.99189618   -7.8588811    443.96066  0.020565159  0.020307924            7 
 1800000   0.95682424   -7.8731871    443.60024  0.020537048  0.020302156            3 
 1801000   0.98851886   -7.8610135    443.20396  0.020507309  0.020296415            6 
 1802000   0.94407935   -7.8695364    445.05676  0.020581611  0.020290743            6 
 1803000   0.97211623   -7.8160359    444.58785  0.020548523  0.020285067            3 
 1804000   0.98299409   -7.8702365    444.67876  0.020541332  0.020279418            5 
 1805000   0.95030538   -7.8726661    444.34699  0.020514635  0.020273646            6 
 1806000   0.94879945   -7.9115907    444.00317  0.020487411  0.020267773            6 
 1807000   0.98081876   -7.9083075    443.83445  0.020468292  0.020261915            9 
 1808000   0.97506515   -7.9341722    443.21975  0.020428639   0.02025592            4 
 1809000   0.94341809   -7.8983555    444.01662  0.020454055  0.020249927            2 
 1810000   0.95134276   -7.8943424     442.8543   0.02038924  0.020243935            2 
 1811000   0.97679171   -7.8590741     444.7503  0.020465226  0.020237978            6 
 1812000    0.9765745     -7.88199    442.86815  0.020367373  0.020232043            5 
 1813000   0.97273022   -7.8967117    443.76782  0.020397491  0.020226049            5 
 1814000    0.9718108    -7.906367    444.18027  0.020405194  0.020219994            4 
 1815000    0.9557552   -7.9076687     444.7535  0.020420271   0.02021406            3 
 1816000    0.9572652   -7.8929612    444.61859  0.020402835  0.020208113            3 
 1817000   0.94635949   -7.8719788    445.08819  0.020413144  0.020202216            3 
 1818000    0.9711653   -7.8803879    446.30205  0.020457556  0.020196326            3 
 1819000   0.95128465   -7.8842727    445.73245  0.020420215  0.020190497            3 
 1820000    0.9783561   -7.8691093    446.93469  0.020464043  0.020184706            1 
 1821000   0.99273969   -7.8743216    447.28405  0.020468792  0.020178963            2 
 1822000   0.94692157   -7.8779507    445.94184  0.020396169  0.020173197            4 
 1823000   0.95335047   -7.8770371     447.0427  0.020435304  0.020167348            3 
 1824000   0.95597916   -7.9120808    446.08571  0.020380378  0.020161546            3 
 1825000   0.94383893   -7.8927647    446.37951  0.020382626  0.020155601            9 
 1826000   0.96939798    -7.902983    446.17713  0.020362228   0.02014972           10 
 1827000   0.96016977   -7.9102757    445.78312  0.020333111   0.02014379            2 
 1828000   0.96047029   -7.8716406    446.67644  0.020362712  0.020137945            3 
 1829000   0.96808688   -7.8774423    446.18015  0.020328966   0.02013211            3 
 1830000   0.96533454   -7.8799877    446.44473  0.020329906  0.020126205            2 
 1831000   0.95423529   -7.8866957    445.27473  0.020265553  0.020120392            4 
 1832000   0.95343701   -7.8724816    447.09013  0.020337069   0.02011455            1 
 1833000   0.96534184   -7.8990915    446.32452  0.020291167  0.020108654            6 
 1834000   0.94419087   -7.8945408    446.25585  0.020276983  0.020102806            3 
 1835000   0.97536496   -7.8929845    447.44826  0.020320085  0.020096876            2 
 1836000    0.9662033   -7.9019141     446.7999  0.020279589  0.020090968            2 
 1837000   0.97773468   -7.9133338     447.4093  0.020296194  0.020085033            2 
 1838000    0.9361755   -7.8895886    447.17038  0.020274319  0.020079057            3 
 1839000   0.92904527   -7.8825254    447.44686  0.020275823  0.020073111            5 
 1840000    0.9517871   -7.9012194    447.13017   0.02025046  0.020067162           13 
 1841000   0.96295651   -7.8857987    448.13366  0.020284884  0.020061186            3 
 1842000   0.94797526     -7.89452    447.56017  0.020247927  0.020055173            2 
 1843000   0.95370578   -7.9196025    446.31577  0.020180673  0.020049102            5 
 1844000   0.96457304   -7.8937602     448.4256  0.020265076  0.020043101            1 
 1845000   0.95137678   -7.9011706    447.96987  0.020233508  0.020037147            2 
 1846000   0.95693356   -7.8947472    447.13112  0.020184684   0.02003113            3 
 1847000   0.94136786   -7.9039669    448.55417  0.020237961  0.020025177            3 
 1848000   0.95805293   -7.9088012    447.58721  0.020183406  0.020019138            3 
 1849000   0.94104518   -7.8783999    448.83248  0.020228614  0.020013064            4 
 1850000    0.9737543   -7.9009989    447.45325  0.020155552  0.020007101            4 
 1851000   0.97245881   -7.8819567    447.74556  0.020157823  0.020001049            2 
 1852000   0.96601129   -7.9141927    449.11222  0.020208433  0.019995041            4 
 1853000   0.96958197   -7.9292431    447.56774  0.020128069  0.019988982            5 
 1854000   0.95285751   -7.8885878    448.88624  0.020176476  0.019982943            2 
 1855000   0.96614025   -7.9189372    449.10029  0.020175215  0.019976937            3 
 1856000    0.9646434   -7.9149999    448.81283  0.020151438  0.019970812            2 
 1857000   0.95714736   -7.8679113    448.74441  0.020137516   0.01996476            2 
 1858000   0.94903551    -7.899645    448.62519  0.020121331  0.019958778            3 
 1859000   0.96487112   -7.8808651    450.30738  0.020185914  0.019952832            4 
 1860000   0.95252679   -7.9181693    448.55462  0.020096533   0.01994685            2 
 1861000   0.95697878   -7.8949358    449.68145  0.020136193  0.019940878            5 
 1862000   0.95356851   -7.8897452    450.11595  0.020144824   0.01993497            4 
 1863000   0.93876485   -7.9610105    449.36316  0.020100338  0.019928918            2 
 1864000   0.97874058   -7.9000958    449.22665  0.020083452  0.019922853            3 
 1865000   0.96040571   -7.9037898    449.74449  0.020095822  0.019916831            2 
 1866000   0.95317738   -7.9190985    449.09812  0.020056186  0.019910786            1 
 1867000   0.96013086   -7.9513221    447.74092  0.019984865  0.019904746            4 
 1868000   0.94359234   -7.9248743    450.34334  0.020090263   0.01989869            3 
 1869000   0.94258313   -7.8825049    450.37742  0.020081034  0.019892656            4 
 1870000   0.95706491   -7.9269968    449.45241  0.020029074  0.019886596            3 
 1871000   0.95167759   -7.8915465    449.47537  0.020019391  0.019880585            2 
 1872000   0.94757716   -7.8968961     451.3452  0.020091934  0.019874579            2 
 1873000   0.93677575   -7.9171339    449.67428  0.020006864   0.01986852            2 
 1874000   0.96854469    -7.915125    450.38872  0.020027958  0.019862421            3 
 1875000   0.93283145   -7.8897768     450.7137   0.02003172  0.019856411            5 
 1876000   0.93775024   -7.9455787    450.03324  0.019990816  0.019850322            4 
 1877000   0.96093051   -7.9208407    449.27367  0.019946442  0.019844215            3 
 1878000   0.93839198   -7.9367801    450.47745  0.019989237  0.019838076            5 
 1879000   0.93484925   -7.9287028    449.89251  0.019952657  0.019831949            5 
 1880000   0.94316447    -7.939062    449.85923  0.019940569  0.019825854            4 
 1881000   0.93835613   -7.9441086    450.53925  0.019960094  0.019819805            4 
 1882000   0.95997304   -7.8850025    451.92066  0.020010656  0.019813874            5 
 1883000   0.95888125   -7.9073632    452.18816  0.020011868  0.019807924            8 
 1884000   0.95542824   -7.9228551    450.83965  0.019941598  0.019801923            3 
 1885000   0.94073213   -7.8988326    451.86829  0.019976494  0.019795916            2 
 1886000   0.94987012   -7.9318728    451.88465  0.019966625  0.019789956            4 
 1887000   0.95820391   -7.9224675    452.67282  0.019990851  0.019784011            1 
 1888000   0.96599516   -7.9165237    452.45752  0.019970759  0.019777988            4 
 1889000   0.93206176   -7.9238165    452.66233  0.019969222  0.019772046            3 
 1890000   0.95259913   -7.9630055    452.42223   0.01994807   0.01976609            3 
 1891000   0.95587122   -7.9527387    451.88315  0.019913765  0.019760117            3 
 1892000   0.95646474   -7.9255589    451.54798  0.019888477  0.019754143            2 
 1893000   0.95043752    -7.924687     452.6869  0.019928108   0.01974818            3 
 1894000   0.94532947   -7.8985986    453.80136  0.019966621  0.019742192            1 
 1895000   0.96397009   -7.9298872    452.93709  0.019918078  0.019736207            3 
 1896000   0.95593956   -7.9235028    452.87144  0.019904687  0.019730143            7 
 1897000   0.94571335   -7.9401984    452.17074  0.019863413  0.019724071            5 
 1898000   0.93145034   -7.9408107    452.50011  0.019867409  0.019718049            5 
 1899000   0.95414929   -7.9293512    454.14627  0.019929185  0.019712074            2 
 1900000   0.94497215   -7.9437923    453.27967  0.019880687  0.019706128            5 
 1901000   0.94067447   -7.9169255    453.54631  0.019881918  0.019700246            5 
 1902000   0.95278626   -7.9520179    453.95991  0.019889586  0.019694317            6 
 1903000   0.94734095   -7.9370518    453.08513  0.019840827  0.019688344            9 
 1904000    0.9577515   -7.9365653    454.34307  0.019885463  0.019682364            5 
 1905000   0.93402926   -7.9409817    453.88241  0.019854874  0.019676262            4 
 1906000   0.94017359   -7.8999464    456.26305  0.019948542  0.019670247            8 
 1907000   0.96106927   -7.9285452    454.98755  0.019882344  0.019664288            3 
 1908000   0.96435623   -7.8767826    455.03668  0.019874069  0.019658401            3 
 1909000   0.95825297   -7.9245748    454.77161  0.019852087   0.01965245            1 
 1910000   0.94522642   -7.9458455    454.80079  0.019842967  0.019646458            4 
 1911000   0.92767338    -7.904601    455.07475  0.019844529   0.01964047            7 
 1912000   0.95610875   -7.9394233    453.02442  0.019744788  0.019634481            5 
 1913000   0.95860261   -7.9580187    454.83752  0.019813448  0.019628494            3 
 1914000   0.94581568   -7.9610193    454.48095  0.019787572  0.019622502            3 
 1915000   0.93655181   -7.9502939    455.04285  0.019801691  0.019616468            3 
 1916000   0.94760373   -7.9182008    454.86867   0.01978378  0.019610509            4 
 1917000   0.93716751   -7.9494397    455.83976  0.019815674  0.019604586            2 
 1918000   0.94728411   -7.9199079    456.15521  0.019819048  0.019598729            6 
 1919000   0.94907444   -7.9119938    456.90378  0.019841227  0.019592911            9 
 1920000    0.9342731   -7.9299786    457.28366  0.019847381  0.019587113            9 
 1921000   0.93474876   -7.9463851    456.50381  0.019803219  0.019581287            3 
 1922000   0.93887018   -7.9414023    457.16446   0.01982156  0.019575442            5 
 1923000   0.95726131   -7.9358931    457.47565  0.019824738  0.019569588            5 
 1924000   0.96511069   -7.9174209    457.26533  0.019805324  0.019563834            5 
 1925000   0.94092497   -7.9423099    456.80597   0.01977515  0.019558061            5 
 1926000   0.94977456   -7.9071216    457.76431  0.019806348  0.019552225            3 
 1927000   0.94309349   -7.9503825    456.54117  0.019743175  0.019546395            3 
 1928000   0.93990707   -7.9109704    457.40692  0.019770354  0.019540564            6 
 1929000   0.93897921   -7.9470588    456.69829  0.019729492  0.019534727            2 
 1930000   0.93054828    -7.915842    458.39443  0.019792506  0.019528875            6 
 1931000   0.92500347   -7.9067424    456.97941   0.01972119  0.019523101            3 
 1932000   0.95740263    -7.933693    458.15205  0.019761562  0.019517295            2 
 1933000   0.91860785   -7.9301991     456.9565  0.019699797   0.01951146            3 
 1934000    0.9369537   -7.9733128      457.654  0.019719666  0.019505636            7 
 1935000   0.92779654   -7.9689411    457.22563  0.019691026  0.019499717            3 
 1936000   0.91950546   -7.9412803    457.88986  0.019709446  0.019493878            6 
 1937000   0.94411229   -7.9424746    458.37681   0.01972022  0.019488065            7 
 1938000   0.93674891    -7.953887    458.78882  0.019727761  0.019482265           13 
 1939000   0.93195017   -7.9355311    458.56697  0.019708053  0.019476498            4 
 1940000   0.91895561   -7.9859621    459.45927  0.019736223  0.019470702            3 
 1941000   0.94084223   -7.9641953    458.43745  0.019682185   0.01946479            2 
 1942000    0.9408315   -7.9704932    458.26221   0.01966453  0.019458908            3 
 1943000   0.94325139   -7.9643573    458.93794  0.019683391  0.019453008            9 
 1944000   0.94647019   -7.9494679    457.03484  0.019591686  0.019447174            4 
 1945000   0.92297781   -7.9694643     458.8427   0.01965907  0.019441305            2 
 1946000   0.93111767   -7.9060595    459.26841  0.019667198  0.019435468            3 
 1947000   0.93349876   -7.9560263    459.01913  0.019646427  0.019429641            3 
 1948000   0.92535657   -7.9367794    460.23554  0.019688379  0.019423825            3 
 1949000   0.92826498   -7.9495735    459.99128  0.019667833  0.019417936            6 
 1950000   0.93193362   -7.9413608    458.98775  0.019614861  0.019412111            5 
 1951000   0.92907016   -7.9090096    460.32341  0.019661858  0.019406342            2 
 1952000   0.92094814   -7.9167801    459.97761  0.019637022  0.019400549            4 
 1953000   0.95563477   -7.9466001    459.53891  0.019608248  0.019394707            5 
 1954000   0.94703222   -8.0062772    458.53366  0.019555342  0.019388789            6 
 1955000   0.93376668   -7.9551074    459.66785  0.019593685  0.019382874            5 
 1956000   0.94530707   -7.9379712    459.35557  0.019570363  0.019376962            8 
 1957000   0.91454262   -7.9966917    458.14013  0.019508607  0.019371005            4 
 1958000   0.93004717   -7.9691632    458.29227  0.019505119  0.019365058            5 
 1959000    0.9589965   -7.9403416      459.573  0.019549643  0.019359127            2 
 1960000   0.94796077   -7.9824699     459.4022  0.019532406  0.019353197            7 
 1961000   0.94718435   -7.9379633    460.94495  0.019588006  0.019347244            7 
 1962000   0.95120211   -7.9200669    462.49251  0.019643753  0.019341293            2 
 1963000   0.94373031   -7.9589485    458.93313  0.019482643   0.01933541            2 
 1964000   0.95927842   -7.9209882     461.2582  0.019571376  0.019329471            4 
 1965000   0.93793176   -7.9565764    459.58443  0.019490434  0.019323529            4 
 1966000   0.93793294   -7.9585896    460.33454  0.019512315  0.019317561            2 
 1967000   0.93988879   -7.9726793    459.39801  0.019462719  0.019311567            3 
 1968000   0.93541948   -7.9882843    458.89067  0.019431346   0.01930552            2 
 1969000   0.92147204   -8.0264066    459.10813  0.019430681  0.019299392            2 
 1970000   0.94547198   -7.9515779    460.25741  0.019469434  0.019293305            3 
 1971000   0.92482411   -7.9592708    459.39049  0.019422902  0.019287187            2 
 1972000   0.93343723   -7.9566651    460.56465  0.019462671  0.019281112            4 
 1973000   0.96278641   -7.9305313    460.35775  0.019444068  0.019275101            7 
 1974000   0.94176553   -7.9026825      461.549  0.019484507  0.019269123            7 
 1975000    0.9406533   -7.9574524    461.11729  0.019456426   0.01926317            4 
 1976000   0.92308627    -7.946942    459.71942  0.019387627  0.019257142            5 
 1977000   0.92016251   -7.9594771     461.2734  0.019443323  0.019251136            2 
 1978000   0.94550725   -7.9463717    461.14894   0.01942825   0.01924512            3 
 1979000   0.95232572   -7.9809609     460.7218  0.019400446  0.019239077            7 
 1980000   0.93932224   -7.9789116    461.15111  0.019408717  0.019232999            3 
 1981000   0.96278614   -7.9762012    459.60637  0.019333938  0.019226867            2 
 1982000   0.92591345   -7.9658177    460.42276  0.019358508  0.019220771            2 
 1983000   0.90495934   -7.9495075    461.77891  0.019405737  0.019214736            4 
 1984000    0.9297063   -7.9341272    461.06281  0.019365878  0.019208738            3 
 1985000   0.94551755   -7.9353558    462.17116  0.019402652  0.019202761            4 
 1986000   0.94586556   -7.9433333    460.88523  0.019338924  0.019196801            2 
 1987000   0.95888906   -7.9519344    461.30601  0.019346838  0.019190808            3 
 1988000   0.93708107   -7.9825934    460.16342  0.019289211  0.019184783            7 
 1989000   0.92945862   -7.9845505    461.19139  0.019322582  0.019178692            3 
 1990000   0.93820252   -7.9614241     460.5262  0.019285017  0.019172623            3 
 1991000   0.92469654   -7.9564516    461.96999   0.01933576  0.019166576            2 
 1992000   0.93614272   -7.9712678    462.15058  0.019333608  0.019160473            5 
 1993000   0.93090138   -7.9940692    460.89727  0.019271503  0.019154369            2 
 1994000   0.94179176   -7.9669593    462.34911  0.019322514  0.019148295            3 
 1995000   0.92679061   -7.9649695    463.11619   0.01934487  0.019142249            3 
 1996000   0.91906243   -7.9656976    462.89767  0.019326055  0.019136271            3 
 1997000    0.9359469    -7.971222    462.05666  0.019281283  0.019130263            4 
 1998000   0.95448099    -7.952062     462.6618  0.019296872  0.019124236            3 
 1999000   0.92827194   -7.9587529    462.64834  0.019286658  0.019118201            3 
 2000000   0.91991864   -7.9674075    462.25158  0.019260483  0.019112173            6 
 2001000   0.94852908   -7.9123268    463.74586  0.019313088  0.019106192            3 
 2002000   0.92501356   -7.9836236    462.50749  0.019251894  0.019100139            3 
 2003000   0.95042335   -7.9428547    462.88446  0.019257966  0.019094115            2 
 2004000   0.94696826   -7.9659874    463.24382  0.019263299  0.019088106            5 
 2005000   0.94019253   -7.9922353    463.13107  0.019249005  0.019082008            3 
 2006000   0.91643728   -8.0144427     462.8146  0.019226263  0.019075941            5 
 2007000   0.95274119   -7.9956633    462.51622  0.019204294  0.019069853            4 
 2008000    0.9305936   -8.0174724     461.5763  0.019155723  0.019063778            3 
 2009000   0.92688479   -7.9587004    464.13404  0.019252283  0.019057653            1 
 2010000   0.91712603   -7.9707963    462.66778  0.019181915  0.019051537            3 
 2011000   0.91891013   -8.0187694     462.7794  0.019177002  0.019045479            3 
 2012000   0.95608274   -7.9858722    463.58942   0.01920102  0.019039426            2 
 2013000     0.930093   -7.9903721    463.50221  0.019187871  0.019033384            3 
 2014000   0.93929408   -8.0017556    464.37222  0.019214342  0.019027311            3 
 2015000   0.94092697   -7.9762487    464.23313  0.019199054  0.019021253            5 
 2016000   0.93819018   -8.0258833    464.33841  0.019193883  0.019015248            2 
 2017000   0.93298582   -7.9974392     463.1892  0.019136887  0.019009168            5 
 2018000   0.92409365   -7.9582785    464.14889  0.019167034   0.01900317            9 
 2019000    0.9061372   -7.9721167     463.9626  0.019149851  0.018997137            3 
 2020000   0.94199235   -7.9543947    464.42041  0.019159258  0.018991123            6 
 2021000   0.90108256   -8.0370288    463.84898  0.019126216  0.018985065            9 
 2022000   0.94337342   -7.9686431    465.15538  0.019170597  0.018979015            4 
 2023000   0.92079535   -8.0047299    463.68063  0.019100372   0.01897295            2 
 2024000   0.92944447   -7.9917003    463.93956  0.019101596  0.018966922            2 
 2025000   0.91663681   -7.9740884    464.96785   0.01913448  0.018960902            4 
 2026000   0.92647719   -7.9886384    465.22893  0.019135774  0.018954899            5 
 2027000   0.92672245   -7.9536958    465.90191  0.019154001  0.018948908            3 
 2028000   0.92094755   -7.9734665    464.92262  0.019104315  0.018942921            3 
 2029000   0.92833779   -7.9568762    466.68024  0.019167087  0.018936981            2 
 2030000   0.95878919   -8.0023329    465.60779   0.01911362  0.018930972            3 
 2031000   0.92822045   -8.0126869    466.08554  0.019123812  0.018924948            3 
 2032000   0.92244371   -7.9839596    464.82545  0.019062724  0.018918914            4 
 2033000   0.91907306   -7.9975866    463.84771  0.019013269  0.018912767            8 
 2034000   0.91683309   -7.9882476    464.18787  0.019017858  0.018906659            3 
 2035000   0.92673604   -8.0100498    465.06897  0.019044593  0.018900616            3 
 2036000   0.92049014   -7.9482675    466.59486  0.019097694  0.018894578            4 
 2037000   0.92508752   -7.9928623    465.82096  0.019056658  0.018888524            3 
 2038000   0.91907106   -7.9609674    465.51157  0.019034657  0.018882496            3 
 2039000   0.92007798   -7.9852371     466.8791  0.019081212   0.01887641            7 
 2040000   0.92187955   -7.9683023    465.25305  0.019005435  0.018870368            3 
 2041000   0.92468906   -8.0134956    465.37678  0.019001175  0.018864346            6 
 2042000   0.94383395   -7.9681729    465.89966  0.019013208  0.018858294            4 
 2043000   0.92736707   -7.9965857      464.795  0.018958843  0.018852243            8 
 2044000   0.91991071   -7.9980502    466.41227  0.019015503  0.018846216            9 
 2045000   0.91386545    -7.944062    467.91487  0.019067435  0.018840226            2 
 2046000   0.92420297   -7.9953561    466.89282  0.019016488  0.018834289            9 
 2047000   0.91494679   -7.9578422    466.40539  0.018987355   0.01882836            8 
 2048000   0.92181074   -8.0026001    466.23714  0.018971238  0.018822424            8 
 2049000   0.93175106   -7.9670888    467.40981  0.019009672  0.018816488            3 
 2050000   0.90998733   -7.9974769    466.61556  0.018968112  0.018810515            4 
 2051000    0.9304336   -7.9981568     467.8087  0.019007342   0.01880454            2 
 2052000   0.90627961   -7.9744093    468.08378   0.01900925  0.018798579            2 
 2053000   0.94498321   -7.9830476    467.49961  0.018976279  0.018792642            2 
 2054000   0.91153905   -7.9771385    468.36798  0.019002271  0.018786712            3 
 2055000   0.92932758   -8.0278023    467.43421  0.018955159  0.018780695            8 
 2056000    0.9426225   -8.0227558    465.90761  0.018884063  0.018774625            2 
 2057000   0.91973671   -7.9790496    466.79364  0.018910778  0.018768551            4 
 2058000   0.93979848   -8.0099622    466.98151  0.018909196   0.01876246            3 
 2059000   0.90700122   -8.0263127    467.92111  0.018938041  0.018756378            3 
 2060000   0.92434136    -7.984564    467.57204  0.018914727  0.018750316            4 
 2061000   0.91150263   -8.0099838     466.7923  0.018874021  0.018744263            4 
 2062000   0.90550325   -8.0046609    468.48994  0.018933476  0.018738228            5 
 2063000   0.93600547   -8.0026397    467.46886  0.018883053   0.01873215            4 
 2064000   0.93121169   -7.9987462    467.38182   0.01887039  0.018726103           10 
 2065000   0.90518978   -7.9694739    468.92052  0.018923346  0.018720016            3 
 2066000    0.9235346   -7.9641034    469.68597  0.018945062  0.018713996            2 
 2067000   0.91447277   -8.0168535    467.49916  0.018847733  0.018707973            3 
 2068000   0.90124455   -8.0176628    467.90357  0.018854915  0.018701936            3 
 2069000   0.94654917   -8.0510937    466.64534  0.018795124  0.018695882            7 
 2070000   0.92614046   -8.0255621    466.98413  0.018799683  0.018689768            8 
 2071000   0.88594394   -8.0151866    467.37039  0.018806148  0.018683678            2 
 2072000   0.93424994    -8.016556    467.30436  0.018794416  0.018677596            5 
 2073000   0.91884804    -7.987305    468.71195  0.018841934  0.018671528            7 
 2074000   0.91779546   -8.0155957     467.6178  0.018788886  0.018665439            2 
 2075000   0.91351436   -8.0340457     468.4544   0.01881343  0.018659341            3 
 2076000   0.92722574   -8.0002529    468.74378  0.018815983  0.018653252            3 
 2077000   0.90650596   -8.0171644    468.80892  0.018809538  0.018647195            3 
 2078000   0.92644817   -7.9793317    467.81208   0.01876051  0.018641154            4 
 2079000   0.91912672   -7.9917974    469.41563  0.018815762  0.018635112            8 
 2080000   0.93453214   -8.0034404    469.82265  0.018823023  0.018629068            4 
 2081000   0.93113634   -8.0050446    468.10733  0.018745288  0.018622996            3 
 2082000   0.92456754   -8.0032617    469.50808   0.01879235  0.018616903            4 
 2083000    0.9114853   -8.0246223    469.21367   0.01877155  0.018610786            4 
 2084000   0.91256651   -8.0250605    467.59419  0.018697784  0.018604706            4 
 2085000   0.91230515   -7.9999308    468.14184  0.018710705  0.018598591            5 
 2086000   0.92801799    -8.035484    466.71041  0.018644551  0.018592445            2 
 2087000   0.90507281   -8.0186149    468.74842  0.018716995  0.018586269            3 
 2088000   0.90748681   -8.0371756    467.91408  0.018674732  0.018580133            3 
 2089000   0.90778346   -8.0389831    469.31201  0.018721558  0.018573953            3 
 2090000   0.90533099   -8.0269715    468.41882  0.018676986  0.018567874            2 
 2091000    0.9168947    -8.025511    468.07889  0.018654507  0.018561771            4 
 2092000   0.91227146   -8.0101735    470.28098  0.018733309  0.018555671            6 
 2093000   0.91827104    -8.016569    470.02962   0.01871435   0.01854953            4 
 2094000    0.9327123   -8.0217329    468.85599  0.018658707  0.018543468            5 
 2095000   0.92748257   -8.0325185    468.06897  0.018618495  0.018537319            3 
 2096000   0.90802922   -8.0101713    468.73149  0.018635953  0.018531181            3 
 2097000   0.91689611   -8.0198972    469.77315  0.018668461  0.018525048            3 
 2098000   0.92320398   -8.0493063    468.88799  0.018624404  0.018518849            3 
 2099000   0.89413307   -8.0364927    468.57431  0.018603077  0.018512644            4 
 2100000   0.93834556   -8.0179726    467.59738  0.018555451  0.018506439            2 
 2101000   0.89573574   -8.0171084    469.10957  0.018606599  0.018500247            4 
 2102000   0.90370305   -8.0705089    467.02355  0.018515047  0.018494019            8 
 2103000   0.90177243   -8.0344381    469.23686  0.018593948   0.01848779            1 
 2104000   0.89824915   -8.0175733    468.23157  0.018545294  0.018481558            2 
 2105000   0.91314477   -8.0318014    468.03083  0.018528536  0.018475325            2 
 2106000   0.91398975    -8.079994    468.87048  0.018552963  0.018469097            4 
 2107000   0.93163569   -7.9979145     469.2715  0.018560018  0.018462888            7 
 2108000   0.92596912   -7.9873875    470.17163  0.018586798  0.018456722            2 
 2109000   0.90637927   -7.9924639    471.40881  0.018626869  0.018450574            4 
 2110000   0.91480689    -8.033978    469.10275  0.018526965  0.018444406           12 
 2111000   0.91758615   -8.0292809    469.46699  0.018532567  0.018438214            9 
 2112000   0.90523724   -8.0351114    468.59324  0.018489317  0.018432004            5 
 2113000   0.90633805   -8.0164237    470.18212  0.018543229  0.018425802            3 
 2114000   0.89100805   -8.0143701    470.45015  0.018545023   0.01841959            7 
 2115000   0.92003478    -8.059388    469.52748  0.018499901  0.018413384            9 
 2116000   0.90988143   -8.0166315    470.46365  0.018528027  0.018407178            3 
 2117000   0.91196246     -8.02286    470.98836  0.018539929  0.018400925            5 
 2118000    0.9135913    -8.035163     469.2357  0.018462217  0.018394623            2 
 2119000   0.91647829    -8.046401     469.3681  0.018458711  0.018388308            7 
 2120000   0.91929239   -8.0353142    468.52742  0.018416958  0.018382024            5 
 2121000   0.89894623   -8.0670012    469.02711  0.018427908  0.018375764            3 
 2122000   0.93210914   -8.0457927    469.52171  0.018438647  0.018369535            4 
 2123000   0.93772891    -8.035234    469.39971  0.018425173  0.018363309            5 
 2124000   0.92531941   -8.0081192    471.13752   0.01848468  0.018357133            3 
 2125000   0.92131111   -8.0348894    470.07696   0.01843439  0.018350932            3 
 2126000   0.88993528   -8.0392773    471.55386   0.01848361  0.018344723            3 
 2127000    0.9144769   -8.0197543    470.94209  0.018450952  0.018338543            4 
 2128000   0.90815565   -8.0156576    471.56443  0.018466652    0.0183324            4 
 2129000   0.89775776   -8.0400461    470.14193  0.018402299  0.018326243            5 
 2130000   0.87822205   -8.0396726    470.26025  0.018398288  0.018320045            5 
 2131000   0.91816853   -8.0408115    469.72716  0.018368808  0.018313815            2 
 2132000   0.92355154   -8.0423867     470.9531  0.018408111  0.018307628            4 
 2133000   0.92521964   -8.0064831    471.05152  0.018403325  0.018301448            4 
 2134000   0.90835204   -8.0040142    472.11343   0.01843617  0.018295253            3 
 2135000   0.88990487   -8.0024134    471.31543  0.018396387  0.018289037            5 
 2136000   0.89372275   -8.0502373    471.27736  0.018386289  0.018282866            3 
 2137000   0.92123333    -8.005236    471.63956  0.018391809  0.018276678            3 
 2138000   0.91067416   -8.0127184    471.88628  0.018392823  0.018270528            3 
 2139000   0.91038565    -8.062845    471.52717  0.018370234  0.018264312            2 
 2140000    0.9013639   -8.0422734    470.38749   0.01831727  0.018258073            4 
 2141000   0.90040676   -8.0621194     470.0028  0.018293741  0.018251831            4 
 2142000   0.91847237   -8.0606726    471.64617  0.018349135  0.018245597            6 
 2143000   0.90760431   -8.0565573    470.49083  0.018295646  0.018239287            8 
 2144000   0.91705056   -8.0530595    470.30636  0.018279942  0.018232989            3 
 2145000   0.91953175   -8.0336156    471.16529   0.01830479   0.01822668            4 
 2146000   0.90870432   -8.0677141    470.06861  0.018253674  0.018220409            5 
 2147000   0.90719144   -8.0164729    471.93836  0.018317744  0.018214149            7 
 2148000    0.9216726   -8.0662668    470.97579  0.018271873  0.018207877            3 
 2149000   0.88172476   -8.0436186     471.8055  0.018295544  0.018201602            4 
 2150000   0.91350666   -8.0219656     471.9942  0.018294349  0.018195378            5 
 2151000   0.90510432   -8.0687598    472.06425  0.018288558  0.018189161            2 
 2152000   0.92557104   -8.0157542    471.61766  0.018262766  0.018182954            4 
 2153000   0.90501787   -8.0522499    472.15309  0.018275007  0.018176723            3 
 2154000   0.90835914   -8.0519164    470.84238  0.018215815  0.018170501            6 
 2155000   0.90341324   -8.0403989    471.44142  0.018230527  0.018164242            4 
 2156000   0.93810981   -8.0281507    471.82331  0.018236832     0.018158            4 
 2157000   0.90209824    -8.043374    471.43033  0.018213194  0.018151741            3 
 2158000   0.90703077   -8.0752039    470.71145  0.018176995  0.018145416            6 
 2159000    0.9079265   -8.0736672    470.91658  0.018176493  0.018139096            5 
 2160000   0.91320399   -8.1114653    470.78643  0.018163057  0.018132747            8 
 2161000   0.89123234   -8.0471447    471.78412  0.018193125  0.018126393            4 
 2162000   0.89507989   -8.0279138    472.28376  0.018203969  0.018120077            3 
 2163000    0.9215549   -8.0659909     472.0946  0.018188265  0.018113777            4 
 2164000   0.90293032   -8.0547494    471.42389  0.018154032  0.018107523            5 
 2165000   0.88592465   -8.0436826      472.372   0.01818214  0.018101218            5 
 2166000   0.91119475   -8.0467321    471.63714  0.018145473  0.018094938            3 
 2167000   0.91543528   -8.0260607    473.15971  0.018195651  0.018088701            4 
 2168000   0.91355307   -8.0151977     474.4883  0.018238327  0.018082509            5 
 2169000   0.89715994   -8.0696437    472.82707  0.018166093  0.018076262            6 
 2170000   0.92062569   -8.0356889    471.53392  0.018108061  0.018069997            3 
 2171000   0.89239355   -8.0273561    472.72072  0.018145276  0.018063753            5 
 2172000   0.91658205   -8.0444298    471.87573  0.018104502  0.018057466            5 
 2173000   0.88964673    -8.072673    470.98728  0.018062099   0.01805113            4 
 2174000   0.87519453   -8.0727854     473.2801  0.018141678  0.018044816            5 
 2175000   0.89257097   -8.0543688    472.40973   0.01809999  0.018038498            6 
 2176000   0.89688547   -8.0527226    473.00864  0.018114608  0.018032127            2 
 2177000   0.91764298   -8.0943437    472.37169  0.018081905  0.018025805            2 
 2178000   0.89315217   -8.0551051    473.44186  0.018114549  0.018019523            5 
 2179000   0.89986295   -8.0717376    472.95611  0.018087659  0.018013215            9 
 2180000   0.91803895   -8.0383211    473.83171  0.018112833  0.018006907            3 
 2181000   0.90955843   -8.0585611    473.33499  0.018085549  0.018000601            9 
 2182000   0.89462833    -8.050953    472.80458  0.018057003  0.017994315            4 
 2183000   0.90241196   -8.0264285    473.59488  0.018078901  0.017987992            7 
 2184000   0.90220253   -8.0178397    473.15738  0.018053929  0.017981664            8 
 2185000   0.89765173   -8.0647741    472.99323  0.018039406  0.017975401            6 
 2186000    0.8857916   -8.0531655    474.48669  0.018088087  0.017969134            9 
 2187000   0.88277378   -8.0681806    472.70473  0.018011916  0.017962905            6 
 2188000    0.9051152   -8.0349327    475.12865  0.018096003  0.017956647           14 
 2189000   0.92037841   -8.0640801    473.49302  0.018025469   0.01795047            7 
 2190000   0.90163623   -8.0544481     473.4796  0.018016728  0.017944252            5 
 2191000   0.89211278   -8.0525969    473.92067   0.01802528  0.017938062            8 
 2192000   0.89506711   -8.0627252    473.88599  0.018015738  0.017931885            8 
 2193000   0.89855443   -8.0722628    474.15125  0.018017604  0.017925661            4 
 2194000   0.92080617    -8.074829    473.36254  0.017979434  0.017919424            9 
 2195000   0.90785787   -8.0757756    474.92979  0.018030744  0.017913182            5 
 2196000   0.89834879   -8.0688795     474.9225  0.018022257  0.017906968            4 
 2197000   0.92451008   -8.0640711    474.31723  0.017991095  0.017900778            8 
 2198000   0.91008242   -8.0541078    475.05628   0.01801093  0.017894582            3 
 2199000   0.91698735   -8.0453716    474.77005  0.017991892  0.017888415            8 
 2200000   0.89669297   -8.0559371    475.23104  0.018001176   0.01788226            3 
 2201000     0.898164   -8.0152687    475.49159  0.018002862  0.017876123            9 
 2202000   0.89698608   -8.0154261    475.76191  0.018004916  0.017869968            7 
 2203000   0.90805404   -8.0603077    476.25755  0.018015492  0.017863818            4 
 2204000   0.90498801   -8.0721641    475.36374  0.017973523  0.017857642            4 
 2205000   0.87466002   -8.0438037    476.55237  0.018010294  0.017851474            6 
 2206000   0.88821476   -8.0639317    476.75352  0.018009728  0.017845342            5 
 2207000   0.89285818   -8.0408018    475.37196  0.017949402  0.017839192            5 
 2208000   0.89549748   -8.0706593    474.72802  0.017916969  0.017833068            4 
 2209000   0.88482922   -8.0139166    476.98076  0.017993842  0.017826956            5 
 2210000   0.89685449   -8.0643167     476.3803  0.017963058  0.017820826            6 
 2211000   0.88078194   -8.0535272    476.37682  0.017954803  0.017814656            4 
 2212000   0.90314758   -8.0833541    475.81318  0.017925451   0.01780844            4 
 2213000   0.89164917    -8.060363    477.07061  0.017964702  0.017802255           11 
 2214000   0.91304695   -8.0604343    476.40593  0.017931569   0.01779611            3 
 2215000   0.90108558   -8.0570054    476.84452  0.017939975  0.017789938            4 
 2216000   0.91040268   -8.0441708    476.13599  0.017905234  0.017783813            4 
 2217000   0.88002938   -8.0567527    477.32169  0.017941727   0.01777767            5 
 2218000   0.93079924   -8.0751432    476.36173   0.01789757  0.017771524            2 
 2219000   0.88119659   -8.0562245    476.28709  0.017886702  0.017765417            5 
 2220000   0.88842447    -8.049064    476.71103  0.017894558  0.017759325            3 
 2221000   0.89912164   -8.0308869    477.17552  0.017903929  0.017753254            5 
 2222000   0.90270799   -8.0688119    477.34184  0.017902109  0.017747186            5 
 2223000   0.89543495   -8.0531793    476.05946  0.017845984  0.017741095            7 
 2224000    0.9056136   -8.0562721    477.52345  0.017892815  0.017734977            2 
 2225000   0.88083926   -8.0354622    478.33302  0.017915094  0.017728901            5 
 2226000   0.87630718   -8.0398271    476.72843  0.017846976  0.017722844           11 
 2227000   0.90167851   -8.0772817    477.53787  0.017869251  0.017716779            4 
 2228000   0.89635964   -8.0651797    477.23527  0.017849913  0.017710729            7 
 2229000   0.93394542   -8.0364967     478.1382  0.017875662  0.017704671            3 
 2230000   0.88079283   -8.0714006     477.7253  0.017852216  0.017698656            7 
 2231000   0.88653431   -8.0573677      478.237  0.017863327  0.017692673            2 
 2232000   0.90095316    -8.056369    477.89803  0.017842668  0.017686619            3 
 2233000   0.91394828   -8.0673153    478.06769   0.01784101  0.017680579            3 
 2234000   0.89673387   -8.0426489    479.10259  0.017871627  0.017674565            3 
 2235000   0.89814406   -8.0280476    478.06968  0.017825119  0.017668586            3 
 2236000     0.894983   -8.0323104    480.31374   0.01790078  0.017662662            3 
 2237000   0.89855031   -8.0502775    477.84443  0.017800791  0.017656707            8 
 2238000   0.91063132   -8.0543402    479.19398  0.017843088  0.017650741            5 
 2239000   0.89894617    -8.030456    479.33568  0.017840393  0.017644778           16 
 2240000   0.90538057   -8.0575212    478.97988  0.017819192  0.017638797            3 
 2241000    0.8917149   -8.1123312    478.35468  0.017787992  0.017632845            3 
 2242000   0.86845904   -8.0788381    479.21752  0.017812129  0.017626866            1 
 2243000   0.90674859   -8.0645668    481.06132   0.01787269  0.017620932            4 
 2244000   0.89421789    -8.039175     479.1183  0.017792569  0.017615028            4 
 2245000   0.87117977    -8.087695     479.6255  0.017803471  0.017609099            5 
 2246000   0.88407172   -8.0889289    477.99687  0.017735117  0.017603106            3 
 2247000   0.90152776   -8.0725467    478.22071  0.017735526  0.017597095            4 
 2248000   0.90498256   -8.0581043    480.34783  0.017806488  0.017591103            3 
 2249000   0.89432402   -8.0684438    478.66353  0.017736161  0.017585144            2 
 2250000     0.891502   -8.0557856     480.3074  0.017789163  0.017579188           11 
 2251000   0.89983731   -8.0969796    479.17952  0.017739506   0.01757321           13 
 2252000   0.89323347    -8.095687    479.18163  0.017731706  0.017567235            3 
 2253000   0.89784612   -8.1086084     478.7276  0.017707043  0.017561278           13 
 2254000    0.8938192   -8.1012451    478.85113  0.017703754  0.017555333            5 
 2255000   0.87876048   -8.1107422    479.78895   0.01773056  0.017549281           12 
 2256000   0.90669915   -8.1066661    479.93163  0.017727971  0.017543244            8 
 2257000   0.88628414   -8.0911192    479.36497  0.017699194  0.017537229            7 
 2258000   0.89630093   -8.0786899    481.04613    0.0177534  0.017531263            4 
 2259000   0.89641503   -8.0861283    480.67653  0.017731907  0.017525359            3 
 2260000    0.8777266   -8.1005358     478.9761   0.01766136  0.017519385            5 
 2261000   0.86661191    -8.101078    479.02907  0.017655502  0.017513384            3 
 2262000   0.88031892   -8.1271468    478.98935  0.017646233   0.01750735            4 
 2263000   0.90373058   -8.1055543    479.42573  0.017654505  0.017501336            8 
 2264000   0.89317705    -8.077055    480.23981  0.017676671  0.017495372            3 
 2265000   0.88025245   -8.0931082    480.98712  0.017696362  0.017489377            2 
 2266000   0.87812916   -8.1140805     479.9615  0.017650835   0.01748344            4 
 2267000   0.89128759   -8.0381127    482.35478  0.017731024  0.017477475            2 
 2268000   0.89657014   -8.0688161    480.93031  0.017670867  0.017471539            6 
 2269000   0.91219529   -8.1114665    480.86117   0.01766054  0.017465584            4 
 2270000   0.88424484   -8.0829922    481.08081  0.017660823  0.017459638            5 
 2271000   0.87635011   -8.0768232    482.15961  0.017692632  0.017453717            4 
 2272000   0.90372611   -8.0789701    482.15248  0.017684583  0.017447862            2 
 2273000   0.90192187     -8.06735    480.71981  0.017624278  0.017441968            4 
 2274000   0.88624919   -8.0896469    481.55256  0.017647045  0.017436045            3 
 2275000   0.92353832   -8.0769052    481.03261  0.017620242  0.017430115            3 
 2276000   0.88836292   -8.1046962    481.05284  0.017613241  0.017424201            3 
 2277000   0.88692596   -8.0972148    481.99069  0.017639829  0.017418279            4 
 2278000   0.88125079    -8.084325    481.18157  0.017602486  0.017412405            2 
 2279000   0.87935147   -8.0858478    482.21026  0.017632378  0.017406523           11 
 2280000   0.89031316   -8.1299132    481.30106  0.017591413  0.017400605            5 
 2281000   0.89335039   -8.1163743    481.36803  0.017586147   0.01739465            5 
 2282000    0.8875035   -8.0818033    482.49534  0.017619608  0.017388715            8 
 2283000   0.88372036   -8.1334263     480.9458  0.017555329  0.017382807            3 
 2284000   0.90222059   -8.0946403    482.70931  0.017611986  0.017376883            4 
 2285000   0.88486248   -8.0793041    481.94162  0.017576281   0.01737098            3 
 2286000   0.88965359    -8.099625    481.56716  0.017554942  0.017365104            6 
 2287000   0.87862356   -8.1051064    482.49933  0.017581232  0.017359225            4 
 2288000   0.87765109   -8.0882345    482.55819  0.017575692  0.017353335            4 
 2289000   0.89016068   -8.1170707    482.98889  0.017583694   0.01734739            4 
 2290000   0.89501874   -8.1109103    482.32649   0.01755191   0.01734145            6 
 2291000   0.89757667   -8.1198398    481.67292  0.017520476  0.017335539            2 
 2292000   0.86972616   -8.1328932    481.88935  0.017520701  0.017329651            5 
 2293000   0.88153142   -8.0792856    482.87431  0.017548855  0.017323759            5 
 2294000   0.87434487   -8.1008655    482.42905  0.017525031   0.01731787            6 
 2295000   0.87790117   -8.1118677    483.16988  0.017544295  0.017311976            5 
 2296000   0.88629004   -8.0878822    482.21859  0.017502126  0.017306111            5 
 2297000   0.87660528   -8.0665926    483.81166  0.017552302  0.017300262            3 
 2298000   0.87437808   -8.0941685    482.15707  0.017484663  0.017294384            3 
 2299000   0.87248369   -8.0904942    482.98961  0.017507235  0.017288496            5 
 2300000   0.89658983   -8.0955628    483.48856  0.017517701  0.017282592            4 
 2301000   0.90243404   -8.0793557    484.54013  0.017548172  0.017276726            7 
 2302000   0.88648498   -8.0798427    483.62411  0.017507389  0.017270854            2 
 2303000   0.87983448   -8.1085726    483.86265  0.017508418  0.017265001            6 
 2304000   0.86960794    -8.106169    482.86065  0.017464578   0.01725914            2 
 2305000   0.90192176   -8.0704871    483.99893  0.017498154  0.017253271            4 
 2306000   0.87129425   -8.0851681    484.15301  0.017496134  0.017247384            6 
 2307000   0.89792754   -8.0963279    483.31191  0.017458168  0.017241491            4 
 2308000   0.86653195   -8.0813866    483.78499  0.017467684  0.017235576            5 
 2309000   0.89452571   -8.1216486    482.92783  0.017429184  0.017229659            3 
 2310000   0.89221334   -8.0967141     483.6692  0.017448384  0.017223745            9 
 2311000   0.88581383   -8.1058086    483.35986  0.017429679  0.017217848            5 
 2312000   0.87806858   -8.0656699    484.19878  0.017452378  0.017212003            2 
 2313000   0.87483473   -8.1093113      483.031   0.01740276   0.01720616            2 
 2314000   0.88627052   -8.0598731    484.52854  0.017449169  0.017200289            3 
 2315000   0.88129441     -8.10582    484.95405  0.017456949  0.017194454            4 
 2316000    0.8793476   -8.0953872    485.17596  0.017457396  0.017188662            5 
 2317000   0.89328917   -8.1120825    483.83905  0.017401778  0.017182807            5 
 2318000   0.87064467     -8.12155    483.99862  0.017400008  0.017176951           22 
 2319000   0.89227895   -8.1132822    484.27528  0.017402447   0.01717111           10 
 2320000   0.89241852   -8.1083854    483.81232  0.017378316  0.017165302            4 
 2321000   0.87565158   -8.1351702    484.91811  0.017410531  0.017159475            6 
 2322000   0.86040365   -8.1207933    484.06792  0.017372521  0.017153635            5 
 2323000   0.88444078   -8.1294385    484.85143  0.017393149  0.017147787           11 
 2324000   0.88030157   -8.1007781    483.76555  0.017346728  0.017141967            9 
 2325000   0.89425551   -8.1138888    484.67409  0.017371831  0.017136185            7 
 2326000    0.8789645   -8.1013564    486.40896  0.017426518  0.017130356            6 
 2327000   0.88386675    -8.112467    485.16246   0.01737439   0.01712454            4 
 2328000    0.8898724   -8.0852853    484.54809  0.017344935  0.017118722            5 
 2329000   0.86991786   -8.1062838    486.11598  0.017393587  0.017112894            4 
 2330000   0.85948908   -8.0979286    485.05267  0.017348092  0.017107111            2 
 2331000   0.88629684   -8.1183606    484.98258  0.017338145  0.017101305            6 
 2332000   0.88130743   -8.0775882    487.00667   0.01740304  0.017095503            3 
 2333000   0.88236697   -8.1143493    485.33743  0.017335956  0.017089678            4 
 2334000   0.88341239   -8.0848553    485.08462  0.017319502  0.017083891            4 
 2335000   0.86442253   -8.0882572     486.3247  0.017356342  0.017078115            2 
 2336000   0.85385806   -8.1275102    484.74355  0.017292507  0.017072338            4 
 2337000   0.88677146   -8.1439706    485.46583  0.017310863  0.017066525            4 
 2338000   0.86533048   -8.1000487    485.82705  0.017316333  0.017060726            5 
 2339000   0.87179704   -8.1270386    485.67902  0.017303656   0.01705494            2 
 2340000    0.8895893   -8.1286212    484.76713  0.017263787  0.017049129            3 
 2341000   0.88110384   -8.0974619    485.92302  0.017297559  0.017043331            6 
 2342000   0.88527532   -8.1386328    485.85284  0.017287676  0.017037505            3 
 2343000   0.88090924   -8.1142807    485.64943  0.017273063  0.017031712            3 
 2344000   0.85885439   -8.1212123     487.4564  0.017329934  0.017025994            2 
 2345000   0.89273926   -8.1295517    485.87915  0.017266494  0.017020237            9 
 2346000   0.88078437   -8.1362255    486.52126  0.017281943  0.017014465            4 
 2347000   0.88910946   -8.1260033    484.93966  0.017218423  0.017008651            8 
 2348000   0.86579755   -8.1213942    485.63912  0.017235914  0.017002846            4 
 2349000   0.87448526   -8.1143981    486.88821  0.017272889  0.016997065            7 
 2350000   0.89007836   -8.1261503    485.30638  0.017209446  0.016991312            4 
 2351000   0.89126514   -8.0881497    486.91059  0.017258989  0.016985591            7 
 2352000   0.88925736   -8.1139129    487.02273  0.017255624  0.016979844           10 
 2353000    0.8834945   -8.1413063     486.4856  0.017229268  0.016974109            7 
 2354000   0.88301048   -8.1518975    485.66629  0.017192944  0.016968333            6 
 2355000   0.89022386   -8.1353534    487.62816  0.017255066  0.016962612            5 
 2356000    0.8664458   -8.1417777    487.46923  0.017242121  0.016956893            5 
 2357000   0.88363871    -8.137422    487.34356  0.017230362  0.016951123            6 
 2358000   0.86341757    -8.119354    487.87485  0.017241831  0.016945389            5 
 2359000    0.8726637   -8.1767347     487.0406  0.017205052  0.016939662           13 
 2360000   0.88591383   -8.1588536    486.66862  0.017184627   0.01693395           12 
 2361000    0.8806888    -8.178939    486.92083   0.01718625  0.016928218            3 
 2362000   0.88307739   -8.1741407    486.37866  0.017159845  0.016922448            7 
 2363000   0.87819889   -8.1606215    487.23752  0.017182872  0.016916733            8 
 2364000   0.86288111    -8.190203    486.25309  0.017140901  0.016911004            3 
 2365000   0.86874467   -8.1241327    487.41768  0.017174689  0.016905264            3 
 2366000   0.86714973   -8.1390583       486.91  0.017149549  0.016899547            9 
 2367000    0.8581952   -8.1337711    486.31183  0.017121244  0.016893815            3 
 2368000   0.86385901   -8.1547988    487.98194  0.017172788  0.016888103            9 
 2369000   0.88120638   -8.1487714    487.46038  0.017147192  0.016882316            8 
 2370000   0.87363589   -8.1791723    485.63017  0.017075604  0.016876502            5 
 2371000   0.87923778   -8.1626155    486.82806  0.017110504  0.016870723            3 
 2372000   0.89248229   -8.1568654    487.97459  0.017143571  0.016864955            2 
 2373000   0.89435547   -8.1791026    486.95365  0.017100493  0.016859171            4 
 2374000   0.85497187   -8.1663208    486.70348  0.017084509  0.016853357            9 
 2375000   0.85409459    -8.160766    487.52249  0.017106052  0.016847593            3 
 2376000   0.87638299   -8.1655541     488.1276  0.017120076  0.016841809            5 
 2377000    0.8812624   -8.1536807     486.8946  0.017069647  0.016836066            6 
 2378000   0.87315483   -8.1521372    488.20736  0.017108472  0.016830326            3 
 2379000   0.85340268   -8.1756623    487.36071  0.017071624  0.016824573            8 
 2380000   0.87465534   -8.1800191    485.75484  0.017008223   0.01681879            5 
 2381000   0.85077278    -8.181291     486.6405  0.017032077  0.016812984            6 
 2382000   0.86969831   -8.1588175    488.16384   0.01707822  0.016807167            3 
 2383000   0.87003338   -8.1561273    488.29775  0.017075736  0.016801396            3 
 2384000   0.86015308   -8.1348325    488.72052  0.017083352  0.016795629            6 
 2385000   0.87941707   -8.1282469    489.08528  0.017088934  0.016789901            4 
 2386000   0.87998973   -8.1337596    488.12255  0.017048147  0.016784179            6 
 2387000   0.85184446   -8.1257383    488.59123  0.017057367  0.016778472            3 
 2388000   0.86524681   -8.1400856    487.95285  0.017027947  0.016772719            9 
 2389000   0.87260306   -8.1307942    487.61397  0.017008999  0.016766983            5 
 2390000   0.84234399   -8.2091052    486.63754  0.016967836  0.016761203            5 
 2391000   0.87688768   -8.1885762    488.49587  0.017025508  0.016755408            6 
 2392000   0.86391102   -8.1324055    487.08471  0.016969227  0.016749634            3 
 2393000   0.86826633   -8.1530621    488.00243  0.016994095  0.016743856            2 
 2394000   0.88814271   -8.1656579     487.7661   0.01697877   0.01673808            5 
 2395000   0.85972568   -8.1699427    487.53661  0.016963696  0.016732324            5 
 2396000   0.87679445   -8.1454055    487.29242  0.016948123  0.016726556            5 
 2397000   0.88030767   -8.1154886    488.33983  0.016977466  0.016720787            6 
 2398000   0.88533589   -8.1220764     487.5752  0.016943814  0.016715019            7 
 2399000   0.86850744   -8.1904156    487.47436  0.016933249  0.016709257            4 
 2400000   0.84401289   -8.1748118    487.44405  0.016925141  0.016703463            4 
 2401000   0.87559675   -8.1712022    487.49289  0.016919787  0.016697684            6 
 2402000   0.87127962   -8.1400631    489.30706  0.016975682  0.016691922            3 
 2403000    0.8463276   -8.1784649    488.91812   0.01695513  0.016686167            3 
 2404000   0.86535387   -8.1557819    488.10323  0.016919829  0.016680402            3 
 2405000   0.87865875   -8.1825074    487.69744  0.016898733  0.016674646            7 
 2406000    0.8661279   -8.1941187    487.90721  0.016898975  0.016668885            4 
 2407000   0.85982401   -8.1773607    488.88643  0.016925856  0.016663136            1 
 2408000   0.87236045   -8.1348142    489.83898  0.016951792  0.016657402            3 
 2409000   0.86574623   -8.1676455    490.04092  0.016951741  0.016651683            3 
 2410000   0.87455242   -8.1814795    488.26411  0.016883268   0.01664595            5 
 2411000   0.87985843   -8.2117051    487.27958  0.016842236  0.016640178            4 
 2412000   0.86213065   -8.1504215    489.26819  0.016903959  0.016634426            9 
 2413000   0.86309557    -8.188688    487.57827  0.016838592  0.016628652           10 
 2414000   0.88415805    -8.195697    489.15912  0.016886189  0.016622867            7 
 2415000   0.86098436   -8.1656431    489.68633  0.016897389  0.016617128            4 
 2416000   0.87321142   -8.1769077    489.58102  0.016886763  0.016611405            4 
 2417000   0.86591692   -8.1811186    488.83296  0.016853984  0.016605663            6 
 2418000   0.85682247   -8.1482982    488.46495  0.016834331  0.016599904            7 
 2419000   0.87611263   -8.1860285    488.08661  0.016814338  0.016594141            6 
 2420000   0.86252399   -8.1669257    489.69372  0.016862731  0.016588392            3 
 2421000   0.84525277   -8.2034996    488.34698   0.01680941  0.016582658            3 
 2422000   0.87756347   -8.1942153    489.59308  0.016845344  0.016576916            2 
 2423000   0.85869986   -8.1638108    488.21057  0.016790844  0.016571184            6 
 2424000   0.86072736   -8.1510108    489.20177  0.016817993  0.016565448            5 
 2425000   0.86634029   -8.1719086    489.00318  0.016804233  0.016559706            6 
 2426000   0.86021461    -8.141013    489.18489  0.016803548  0.016554021            6 
 2427000   0.86355792   -8.1181818    489.57051  0.016809865  0.016548351            3 
 2428000    0.8680663   -8.1246642    490.78913  0.016844767  0.016542672            7 
 2429000   0.85224775   -8.1571746    489.28519  0.016786236  0.016536995            3 
 2430000    0.8582494   -8.1611916    490.50749  0.016821244  0.016531336            8 
 2431000   0.86943125   -8.1641151    488.66348  0.016751113  0.016525638            4 
 2432000   0.85389675   -8.1572206    491.29569  0.016834419  0.016519968            3 
 2433000   0.84689303   -8.1226752    491.08157  0.016820166  0.016514338            3 
 2434000   0.85822477   -8.1887847    488.79616   0.01673501  0.016508708            3 
 2435000   0.86785249    -8.169507    490.52157  0.016787186  0.016503071            4 
 2436000   0.87845145   -8.1357846    491.13983  0.016801445  0.016497427            6 
 2437000   0.87004753   -8.1950104     491.4525  0.016805242  0.016491768            3 
 2438000   0.86195018   -8.1974876      489.341  0.016726176   0.01648607            5 
 2439000   0.86471273   -8.1801823    491.13708  0.016780685  0.016480373            5 
 2440000   0.86017675   -8.1936347    491.08801  0.016772131  0.016474694            3 
 2441000   0.84121344   -8.2099194    489.96819  0.016727031  0.016469021            5 
 2442000   0.86334459   -8.1962257     489.8603  0.016716499  0.016463333            4 
 2443000   0.87650206   -8.1643361    491.24395  0.016756854  0.016457626            6 
 2444000   0.86962172   -8.1700455    492.13182  0.016780272  0.016451994            5 
 2445000   0.87816804    -8.138894    492.00989  0.016769253  0.016446369           14 
 2446000   0.85131058   -8.1862979    490.75072  0.016719498  0.016440722            5 
 2447000   0.88816004   -8.1570445    491.06575  0.016723394  0.016435086           21 
 2448000   0.86598314   -8.1466159     492.7364  0.016773434  0.016429471            5 
 2449000   0.84945445   -8.1802282    492.58386  0.016761394  0.016423858           10 
 2450000   0.85161204   -8.1990489    490.25108  0.016675207  0.016418191            4 
 2451000   0.86852475   -8.1763733    489.76894  0.016652011  0.016412517            8 
 2452000   0.86310559   -8.1709062    490.96819  0.016685977  0.016406886            9 
 2453000   0.87475559   -8.1985626    490.15264  0.016651469  0.016401233            5 
 2454000   0.84753622    -8.153543    491.32178  0.016684385  0.016395553            6 
 2455000   0.86109561   -8.1915764    490.14965  0.016637802  0.016389882            8 
 2456000   0.85920267   -8.1955854    491.27369  0.016669167  0.016384221            4 
 2457000   0.86803797   -8.1914023    491.00504  0.016653271  0.016378535            6 
 2458000   0.85115109   -8.1954665    492.03067  0.016681268  0.016372841            5 
 2459000    0.8610438   -8.1514131    491.95618   0.01667196  0.016367196            6 
 2460000    0.8520733   -8.2101611    490.80232  0.016626095  0.016361567            7 
 2461000   0.85312134   -8.1816777    490.85973  0.016621283  0.016355919            3 
 2462000   0.85079765   -8.1766179    491.52888  0.016637181  0.016350286            8 
 2463000   0.86338128   -8.1919781    492.09952  0.016649733  0.016344626            8 
 2464000   0.85067312   -8.1641299    491.27054   0.01661494  0.016338977            3 
 2465000   0.85646927   -8.1911219    491.38316  0.016612007  0.016333347           13 
 2466000   0.85494439    -8.206349    489.88819  0.016554751  0.016327713            5 
 2467000   0.87093868   -8.1935792    492.13638  0.016623983  0.016322065            4 
 2468000   0.84417461   -8.1903384    490.65695  0.016567293  0.016316412            5 
 2469000   0.87597387   -8.1624382    492.62808  0.016627112  0.016310752            5 
 2470000   0.85724441   -8.1660903    493.19793  0.016639606  0.016305112            2 
 2471000   0.84166128   -8.1945776    492.11324  0.016596292  0.016299477            8 
 2472000    0.8488108    -8.171745    492.64298  0.016607436  0.016293832            5 
 2473000   0.83718433   -8.1906581    491.72567   0.01656981  0.016288243            5 
 2474000   0.85852399   -8.2139477    492.13174   0.01657679  0.016282606           14 
 2475000   0.87233394   -8.2087932    491.29789  0.016542016     0.016277            8 
 2476000   0.83486291   -8.1905335    492.20749  0.016565949  0.016271385           13 
 2477000   0.85630974   -8.1982334    492.15507  0.016557498  0.016265767            6 
 2478000   0.86731972   -8.1827664     492.3418  0.016557096  0.016260177            9 
 2479000   0.85363304   -8.1710371    493.06906  0.016574864  0.016254592           13 
 2480000   0.85024446   -8.1946564    492.63974  0.016553755  0.016249008            4 
 2481000   0.85781078   -8.1721633    492.35185  0.016537413  0.016243395            6 
 2482000   0.85588074   -8.1798196    493.58855  0.016572272   0.01623786            5 
 2483000   0.85306435   -8.2063267    493.34554  0.016557442  0.016232325            7 
 2484000   0.86506678   -8.2059617     493.0566  0.016541083  0.016226769            6 
 2485000   0.84288909   -8.1818824    493.72861  0.016556962  0.016221196            5 
 2486000   0.87404476   -8.2043476    493.54885  0.016544276  0.016215612            7 
 2487000   0.84112476   -8.1999389    493.61345  0.016539789  0.016210035            6 
 2488000   0.86284769   -8.2033698    492.30683  0.016489377  0.016204458            7 
 2489000   0.84799792   -8.1918847    492.50904  0.016489522  0.016198861            3 
 2490000   0.85723936   -8.1875327    493.37737   0.01651196   0.01619327            4 
 2491000   0.85782102    -8.199134    492.12661  0.016463489  0.016187676            6 
 2492000   0.84844869   -8.2091123    493.43941  0.016500783  0.016182082            3 
 2493000   0.85288904   -8.2054857    494.17566  0.016518775    0.0161765            3 
 2494000   0.83989227   -8.2150192    493.35931  0.016484874  0.016170893            4 
 2495000   0.85801383   -8.1698913    493.86486  0.016495152  0.016165328            8 
 2496000   0.84350991   -8.2111909    493.49456   0.01647618  0.016159749            3 
 2497000   0.84598602   -8.2337824     492.4474  0.016434635  0.016154163            4 
 2498000   0.84547276   -8.2125488    493.33483  0.016457661  0.016148538            9 
 2499000    0.8534612   -8.1817926    493.57226  0.016458992  0.016142931           11 
 2500000   0.84436233   -8.2041498     493.0497   0.01643499  0.016137352            8 
 2501000    0.8338401   -8.2116739    494.61376  0.016480533  0.016131788           19 
 2502000   0.87752204   -8.2208988    493.05433  0.016422007  0.016126257            5 
 2503000   0.85898789   -8.1855542    494.00073  0.016446955  0.016120755            4 
 2504000   0.84352186     -8.18474    495.68336  0.016496384  0.016115238            3 
 2505000   0.85604656   -8.1936816    494.81687  0.016460974  0.016109797            4 
 2506000   0.83164615   -8.1921129    494.46822  0.016442811  0.016104308            5 
 2507000    0.8523573   -8.1988095    494.63836  0.016441908  0.016098827            3 
 2508000   0.85111372   -8.2078509    494.35106  0.016425806  0.016093327            5 
 2509000   0.85442651   -8.1855315    495.74135  0.016465436  0.016087806            4 
 2510000   0.83775748   -8.1931269    495.36999  0.016446547  0.016082282           24 
 2511000   0.83120241    -8.195466     494.8947  0.016424223  0.016076772            6 
 2512000   0.84053374   -8.1871452    493.07819  0.016357424  0.016071242            5 
 2513000   0.83715715   -8.1952278    494.36407  0.016393556  0.016065714            5 
 2514000   0.85172282    -8.198954    494.88586  0.016404331  0.016060203           17 
 2515000    0.8358231    -8.202518     495.1841  0.016407691  0.016054665           12 
 2516000   0.85935872   -8.1555408    495.84028  0.016422903  0.016049154            3 
 2517000   0.84294785   -8.2023493    494.74362   0.01638007  0.016043659            4 
 2518000    0.8612158   -8.1914262    495.86069  0.016410534  0.016038158            9 
 2519000   0.83703121    -8.206488    495.87721  0.016404566  0.016032621            6 
 2520000   0.86988581   -8.1817361    495.91741  0.016399385  0.016027122            3 
 2521000   0.85245985   -8.2080891    495.28683  0.016372036  0.016021645           17 
 2522000   0.88298055   -8.1731477    496.92267  0.016419597  0.016016172            3 
 2523000   0.86479455    -8.209502      495.507   0.01636633  0.016010723            5 
 2524000   0.84888617   -8.1774023    494.86107  0.016338519  0.016005236            5 
 2525000   0.83420208   -8.1872181    495.49335  0.016352916  0.015999776            4 
 2526000   0.84224345   -8.2131399    496.00759  0.016363407  0.015994307           14 
 2527000   0.84960227   -8.2399785    493.30899  0.016267939  0.015988801            6 
 2528000   0.84363225   -8.2126819    494.34391  0.016295619  0.015983272            9 
 2529000   0.86507154   -8.2623397    495.09811  0.016314028  0.015977726            5 
 2530000   0.83489819   -8.2099782    495.51153  0.016321197  0.015972183            4 
 2531000   0.85435456   -8.2174211    495.69323  0.016320731  0.015966639            4 
 2532000   0.84958471   -8.2083557    494.93834   0.01628944  0.015961074            2 
 2533000   0.83824354   -8.2034051    495.54255  0.016302887  0.015955522            4 
 2534000    0.8414252   -8.2239352    495.81939  0.016305557  0.015949982            3 
 2535000   0.84498292   -8.2510882     495.0703    0.0162745   0.01594446            8 
 2536000   0.83870821   -8.2383288    494.89836  0.016262433  0.015938919            5 
 2537000   0.84167148   -8.2385414    494.38587  0.016239189  0.015933385           14 
 2538000   0.86118981   -8.2347752    495.16681  0.016258432  0.015927878            4 
 2539000   0.84926011   -8.2303728    495.46048  0.016261667  0.015922356            8 
 2540000   0.84955597   -8.2305207    496.44966  0.016287719  0.015916839            6 
 2541000   0.85697336   -8.2214096    494.51362  0.016217815  0.015911311            7 
 2542000   0.85920984   -8.2206008    496.60476  0.016279988  0.015905795           12 
 2543000   0.84852832   -8.2312749    496.01991  0.016254421  0.015900275           11 
 2544000   0.84668629   -8.2322605    496.01475  0.016247863  0.015894752            7 
 2545000   0.83676242   -8.2447519    495.41741  0.016221919  0.015889218            6 
 2546000   0.82540434   -8.2239635    495.48152  0.016217646  0.015883708            3 
 2547000   0.84403635   -8.2390284    495.11742  0.016199366   0.01587818            7 
 2548000   0.84874843   -8.2256366    494.75855  0.016181271  0.015872635            8 
 2549000   0.83920048   -8.2332858    495.20239  0.016189433  0.015867099           11 
 2550000   0.84457383    -8.235257    495.85707  0.016204479  0.015861567           10 
 2551000   0.85331966   -8.2335745    495.06881  0.016172377  0.015856058           12 
 2552000   0.84915815   -8.2078565    495.98908  0.016196091  0.015850551           10 
 2553000   0.84810872    -8.212664    494.52549  0.016141973  0.015845025           11 
 2554000   0.83449976   -8.2479718    496.03381  0.016184867  0.015839496           12 
 2555000   0.84297337   -8.2121456    494.81458  0.016138766  0.015833954            8 
 2556000   0.82245172   -8.2582672    495.50044  0.016154813   0.01582839           10 
 2557000   0.85025812   -8.2236979    496.47126  0.016180135  0.015822862            7 
 2558000   0.84478167   -8.2438015    495.17244  0.016131497   0.01581733            5 
 2559000   0.83516042   -8.2222215    495.15548  0.016124641  0.015811788            6 
 2560000   0.82867385   -8.2208194    495.95204  0.016144272  0.015806269           10 
 2561000   0.84400915     -8.26774    495.65128  0.016128182  0.015800752            7 
 2562000   0.84308372   -8.2594703    494.65212  0.016089387  0.015795217            6 
 2563000    0.8517512   -8.2358631    496.90035  0.016156208  0.015789701           14 
 2564000   0.82847745   -8.1993017    496.36464  0.016132496  0.015784209            7 
 2565000   0.83378715   -8.2534493    497.22049  0.016154012  0.015778705            5 
 2566000   0.84921657   -8.2581131    495.98829    0.0161077  0.015773218            8 
 2567000   0.84892119   -8.2519621    496.46236  0.016116815  0.015767702            5 
 2568000   0.85118928    -8.281019    495.95034  0.016093923   0.01576222            7 
 2569000   0.85020177   -8.2353609    496.86733  0.016117404  0.015756697            7 
 2570000   0.83961914   -8.2413509    496.81966  0.016109587  0.015751225            6 
 2571000   0.83347233   -8.2254803     496.8155  0.016103186  0.015745744            7 
 2572000   0.84364799   -8.2384172    498.07079  0.016137597  0.015740275            3 
 2573000   0.84778165   -8.2344483       497.28  0.016105713   0.01573479            7 
 2574000   0.84617594   -8.2497213    496.41557   0.01607147  0.015729328            4 
 2575000   0.83299637   -8.2317156    497.76799  0.016108996  0.015723879           16 
 2576000   0.84354235   -8.2452048    496.74801  0.016069747  0.015718449            6 
 2577000   0.83259851   -8.2669798    496.74998  0.016063575  0.015713016            4 
 2578000   0.83365244   -8.2337473    498.27377    0.0161066  0.015707586           13 
 2579000   0.84337451   -8.2281845    498.51388  0.016108113  0.015702159           10 
 2580000   0.82190861   -8.2510112    497.20012  0.016059435  0.015696754            7 
 2581000   0.84495697   -8.2443917    497.36351  0.016058489  0.015691341            3 
 2582000   0.84811439   -8.2379808    497.12803  0.016044669  0.015685946            5 
 2583000   0.86559845   -8.2648307    497.94815  0.016064916  0.015680535            7 
 2584000   0.86061223   -8.2268283    498.84664  0.016087675  0.015675134           10 
 2585000   0.83401444   -8.2410384    498.13963   0.01605866  0.015669721            4 
 2586000   0.85740219   -8.2541775    498.22202  0.016055105  0.015664309            3 
 2587000   0.81476748   -8.2277639    497.89277  0.016038293  0.015658883            6 
 2588000    0.8420668   -8.2463524    498.47457   0.01605083  0.015653472           11 
 2589000    0.8485403   -8.2324763    498.20688  0.016036014  0.015648072            7 
 2590000   0.84075587   -8.2665778    497.09131  0.015993929  0.015642665            3 
 2591000   0.82342694   -8.2451674    496.81338  0.015978817  0.015637226           10 
 2592000   0.83835825   -8.2596419    495.94136  0.015944617  0.015631773            5 
 2593000   0.81492789    -8.263487    497.05754  0.015974339  0.015626315            4 
 2594000   0.81950923   -8.2914081    496.64776  0.015955017  0.015620838            8 
 2595000   0.83099722   -8.2832489    497.37685  0.015972281  0.015615385            3 
 2596000   0.83991155   -8.2715701    496.93495  0.015951944  0.015609873            5 
 2597000   0.83032645   -8.2577167    497.26486  0.015956387  0.015604386            4 
 2598000   0.82635036   -8.2704974    495.99722  0.015909585  0.015598904            4 
 2599000   0.82297323   -8.2788502    496.39333  0.015916164  0.015593425            7 
 2600000    0.8287922   -8.2675301    498.05186    0.0159632  0.015587947            5 
 2601000   0.82877039   -8.2633139    497.17842  0.015929079  0.015582458            8 
 2602000   0.83444592   -8.2792997    497.53623  0.015934417  0.015577014            4 
 2603000   0.84127652   -8.2525121    497.68705  0.015933124  0.015571573            6 
 2604000   0.83289029   -8.2369554    498.26605  0.015945534  0.015566164            6 
 2605000   0.84414736   -8.2813118    497.88978  0.015927376  0.015560745            4 
 2606000   0.84084645   -8.2470391      498.466  0.015939691  0.015555353            5 
 2607000   0.83148635   -8.2595953    498.55779   0.01593651  0.015549938            5 
 2608000   0.84348202   -8.2713373    497.13424  0.015884913   0.01554452            7 
 2609000    0.8195188   -8.2424759    497.95314  0.015904981  0.015539106            3 
 2610000   0.85633268   -8.2449171    497.94293  0.015898561  0.015533692            7 
 2611000   0.83295519   -8.2572494    498.45666  0.015908868  0.015528281           10 
 2612000    0.8435491   -8.2650325    498.61601  0.015907861  0.015522865            4 
 2613000    0.8364576   -8.2509257    499.71105  0.015936696  0.015517459            4 
 2614000   0.83579793   -8.2074151    497.24663  0.015852035   0.01551208            5 
 2615000    0.8447516   -8.2325536    499.48527  0.015917313  0.015506691            5 
 2616000   0.83736514   -8.2270382    499.23534  0.015903266  0.015501311            5 
 2617000   0.80364099   -8.2608027    497.90579  0.015854853  0.015495928            3 
 2618000    0.8513268   -8.2808818    497.71996  0.015842881  0.015490526            2 
 2619000   0.82528813   -8.2676148    497.27857  0.015822787  0.015485129            5 
 2620000   0.84210907   -8.2420035    498.40378  0.015852538  0.015479708            4 
 2621000   0.84220663   -8.2702926     498.6801  0.015855275  0.015474325            5 
 2622000   0.83359882   -8.2695543    498.20459  0.015834115  0.015468927            4 
 2623000   0.83743354    -8.270921    497.69343  0.015811839  0.015463532            3 
 2624000   0.84640783   -8.2493828    499.18498  0.015853181  0.015458135            6 
 2625000   0.82630317   -8.2617853    498.84164  0.015836243  0.015452738            3 
 2626000   0.84014313    -8.282598    499.35164  0.015846396  0.015447355            6 
 2627000   0.82838508   -8.2666194     499.0204  0.015829857  0.015442015            6 
 2628000   0.81701346   -8.2594537    499.32211    0.0158334  0.015436681            9 
 2629000   0.83850531   -8.2308724    499.40955  0.015830149  0.015431334           14 
 2630000   0.81858342   -8.2602196    497.79161  0.015772865  0.015425963            2 
 2631000   0.83806654   -8.2549622    499.57601  0.015823388  0.015420564            9 
 2632000   0.83484588   -8.2551726    498.66478  0.015788525  0.015415176           10 
 2633000   0.83123402    -8.279231    498.85763  0.015788632  0.015409772            3 
 2634000   0.83701057   -8.2862072    499.24857  0.015795007  0.015404355           11 
 2635000   0.82936231   -8.2857699    498.82314  0.015775558  0.015398966            8 
 2636000   0.82526146   -8.2598167    499.50654  0.015791178  0.015393609            3 
 2637000   0.83822721   -8.2916297    498.56186  0.015755336  0.015388207            5 
 2638000   0.83359071   -8.2697921    498.86746  0.015759018  0.015382813            3 
 2639000    0.8135474   -8.2958119    498.18218  0.015731406  0.015377408           10 
 2640000   0.81136649   -8.2923763    498.12181  0.015723542  0.015371985            2 
 2641000    0.8139199   -8.2964721    498.50852   0.01572979  0.015366573            7 
 2642000   0.83816816   -8.2919053    499.05695  0.015741135   0.01536117            5 
 2643000   0.82483441   -8.2738567    499.48145  0.015748564  0.015355773           11 
 2644000   0.80612627   -8.3137341    498.11794  0.015699633  0.015350338           10 
 2645000   0.81977944   -8.3179444     498.1428   0.01569448  0.015344923            4 
 2646000   0.82576032   -8.2815543    498.78823  0.015708876  0.015339501            8 
 2647000   0.82760729   -8.3051776    498.57591  0.015696257  0.015334066            5 
 2648000   0.83134058   -8.2755145    500.00015  0.015735151   0.01532867            8 
 2649000   0.82979747   -8.2715757    498.03469  0.015667381  0.015323269           15 
 2650000   0.81560154   -8.3043366    497.49777  0.015644584  0.015317845           10 
 2651000   0.83501567   -8.2929499    498.70864  0.015676746  0.015312426           12 
 2652000   0.80946576   -8.3210196    497.88733  0.015645027  0.015307001           16 
 2653000   0.83627676   -8.2820163    499.24497  0.015681774  0.015301574           15 
 2654000   0.83518056   -8.2948266    499.66753  0.015689134  0.015296153           10 
 2655000   0.82396016   -8.2979032    498.53024  0.015647528  0.015290746           21 
 2656000    0.8236789   -8.3033827    498.83612  0.015651234  0.015285331            8 
 2657000   0.82555744   -8.2795236    498.95267  0.015648999  0.015279941            4 
 2658000   0.82624222   -8.2761249    499.93466  0.015673898   0.01527456            5 
 2659000   0.83447097   -8.2869901    499.03501  0.015639809  0.015269167            7 
 2660000   0.85200795   -8.2893579     499.4369  0.015646519  0.015263768            7 
 2661000   0.84704598   -8.2945119    500.13428  0.015662479  0.015258406            6 
 2662000   0.81945719   -8.2700361    498.69457  0.015611526  0.015253033            8 
 2663000   0.81254716   -8.3053302    500.36577   0.01565796  0.015247667            9 
 2664000   0.82967418   -8.2812236    499.07855  0.015611817  0.015242295            4 
 2665000   0.82498901   -8.3027685    497.97213  0.015571361  0.015236901            3 
 2666000   0.81464288   -8.3041123      499.032   0.01559865  0.015231526            5 
 2667000   0.82420204   -8.3151749    498.98257  0.015591256  0.015226146            3 
 2668000   0.82325963   -8.2606102    500.52784  0.015633678  0.015220792            1 
 2669000   0.83051117   -8.2787786    500.21593  0.015618082  0.015215439            5 
 2670000   0.81765353   -8.2803952    499.12552    0.0155782  0.015210084            7 
 2671000   0.80512631   -8.3177932    498.77768  0.015561515  0.015204683            4 
 2672000   0.82470035   -8.2939966    498.81492  0.015556853  0.015199273            3 
 2673000   0.80708674   -8.3291037    498.63675  0.015545478  0.015193858            8 
 2674000   0.84723548   -8.3140847     498.7509  0.015543222  0.015188457           12 
 2675000   0.83648639    -8.303211    497.87203  0.015510032  0.015183061            7 
 2676000   0.83218959   -8.3101578    498.27989  0.015516937  0.015177636            9 
 2677000   0.82236225   -8.2860417    500.81981  0.015590207  0.015172249           13 
 2678000    0.8267067   -8.2677593    500.12324   0.01556271  0.015166872            5 
 2679000    0.8141989   -8.2505054    498.93274  0.015519869   0.01516149           11 
 2680000   0.81316838   -8.2855383    498.82504  0.015510729  0.015156102           15 
 2681000   0.83442853   -8.2850141    499.40102  0.015522847  0.015150732            6 
 2682000   0.81884228    -8.264074    500.98432  0.015566254  0.015145377            6 
 2683000   0.82046572   -8.2558219    500.02952  0.015530796  0.015140018            7 
 2684000   0.85853148   -8.2747639    498.67055  0.015482816  0.015134661            6 
 2685000   0.81567255    -8.293112     499.8639  0.015514088  0.015129307            4 
 2686000   0.82640258    -8.314109    498.88128  0.015477826  0.015123947            7 
 2687000   0.81504123   -8.2922719    499.43009  0.015489086   0.01511856            6 
 2688000   0.81263591   -8.3095975    499.58112  0.015488006  0.015113201            9 
 2689000   0.82753381   -8.2751353    498.90315  0.015461235  0.015107813            7 
 2690000   0.82787946   -8.3078449    498.76394  0.015451175  0.015102421           12 
 2691000   0.81822794   -8.3067996    499.77053  0.015476605  0.015097059            8 
 2692000   0.81519329   -8.2940888    498.87165   0.01544303  0.015091684            7 
 2693000    0.8189166   -8.2680524    501.71551  0.015525297  0.015086321            7 
 2694000   0.79549859    -8.306555     499.3431  0.015446149  0.015080934           10 
 2695000   0.80439434   -8.3051875    500.04595  0.015462151  0.015075552           18 
 2696000   0.82024362   -8.2956062    499.00691  0.015424299  0.015070154           12 
 2697000   0.81369494    -8.328158    498.83039  0.015413125  0.015064752           46 
 2698000    0.8263093   -8.3048672    499.41375  0.015425431   0.01505936           14 
 2699000   0.80664585   -8.3373549    499.02117  0.015407594  0.015053938            9 
 2700000   0.81805927   -8.2878736    498.37346  0.015381897  0.015048565           13 
 2701000    0.7883876    -8.325602     498.7025  0.015386354  0.015043155           14 
 2702000   0.80963346   -8.3152988    499.82219  0.015415192  0.015037757           11 
 2703000   0.82745873   -8.3037071    499.77913  0.015408162   0.01503238           14 
 2704000   0.83344488   -8.3593336    498.31902  0.015357465  0.015026982           30 
 2705000   0.82429927   -8.3528634    499.19893  0.015378895  0.015021582           27 
 2706000   0.81708633   -8.3059139     498.2459  0.015343862   0.01501618           12 
 2707000   0.81373928   -8.2941842    500.28296  0.015400904  0.015010832            9 
 2708000   0.78912797   -8.2966251    500.66248  0.015406896  0.015005467            2 
 2709000   0.83514184   -8.3145676    500.11496  0.015384366  0.015000117            3 
 2710000   0.79421061   -8.2943873    500.61499  0.015394065  0.014994767           10 
 2711000   0.83525074   -8.2967598    500.37267  0.015380938  0.014989424            3 
 2712000   0.81531865   -8.2959833    500.93023  0.015392399  0.014984092            8 
 2713000   0.80555836   -8.3049331    500.91785  0.015386345  0.014978735            5 
 2714000   0.81362828   -8.3148231    499.68271  0.015342751  0.014973408           10 
 2715000    0.8183479   -8.2910582    500.88714  0.015374068   0.01496808            8 
 2716000   0.81405005   -8.3127261    499.37461     0.015322  0.014962745           25 
 2717000   0.82502711   -8.2857374    502.37726  0.015408455  0.014957433           30 
 2718000   0.82931251   -8.2988407    500.06378  0.015331855  0.014952113           19 
 2719000   0.81689198   -8.3026609     500.1405  0.015328567  0.014946781           20 
 2720000   0.82368134    -8.320388     501.2763   0.01535773   0.01494143            6 
 2721000   0.81378598   -8.3031098    500.13847  0.015317238  0.014936068            3 
 2722000   0.79350487   -8.3166728    499.71264  0.015298575  0.014930716            9 
 2723000   0.83690975    -8.303978    500.01646  0.015302254  0.014925358           19 
 2724000   0.81950595   -8.2956332    499.82296  0.015290717  0.014920001            4 
 2725000    0.8177242   -8.3126955    499.47258  0.015274391  0.014914645            5 
 2726000   0.79366836   -8.3008913    499.71396  0.015276167  0.014909287            2 
 2727000   0.81627219   -8.3441845    499.02178  0.015249413   0.01490391            5 
 2728000   0.81313392   -8.3044905    501.05975  0.015306077  0.014898549            4 
 2729000   0.82218877   -8.2893382    500.37053  0.015279422  0.014893185            6 
 2730000   0.81811269    -8.333056    500.01894  0.015263093  0.014887819            8 
 2731000   0.81639418    -8.322451    501.00972  0.015287737  0.014882461            6 
 2732000   0.81838811   -8.3045548    500.75453  0.015274357  0.014877088           11 
 2733000   0.81226761   -8.3148658    498.34216  0.015195212  0.014871717            5 
 2734000   0.81310812   -8.3156296    500.33242  0.015250318  0.014866335            2 
 2735000   0.82180592    -8.335642     500.3252  0.015244522   0.01486098            6 
 2736000   0.82154981   -8.3096597    500.69104  0.015250093  0.014855618            7 
 2737000   0.82282641   -8.3537864    499.50581  0.015208434  0.014850251            3 
 2738000   0.82767346   -8.3163102    500.23594  0.015225102  0.014844884            7 
 2739000   0.80746202   -8.3111847    500.40225  0.015224603  0.014839536            4 
 2740000    0.8076024   -8.3066159    501.60203  0.015255536  0.014834228            4 
 2741000   0.81093308   -8.2903334    501.11285  0.015235098  0.014828898            3 
 2742000   0.79853031   -8.3210451    501.57504  0.015243589  0.014823586           14 
 2743000   0.80592755   -8.3065915    500.16461  0.015195182  0.014818246           30 
 2744000   0.80595635   -8.3035093    499.96797  0.015183673  0.014812926            4 
 2745000   0.80536161    -8.295762    502.36526  0.015250919  0.014807599            5 
 2746000    0.8040442   -8.2753582    501.73145  0.015226131  0.014802272            8 
 2747000   0.79489781   -8.3135707    501.44492  0.015211895  0.014796957           11 
 2748000   0.82030383   -8.2855303    503.04326   0.01525483  0.014791653            6 
 2749000   0.81508338   -8.3209531    501.62508  0.015206289  0.014786374            8 
 2750000    0.8176313   -8.3256085    501.80734  0.015206283    0.0147811            8 
 2751000   0.82917102     -8.33699    501.22864  0.015183225   0.01477579            8 
 2752000   0.79834326   -8.3126533    500.75647  0.015163411  0.014770481            4 
 2753000   0.80870324   -8.3296946    501.19628  0.015171216   0.01476518            5 
 2754000   0.81470293    -8.304068    502.26104  0.015197926  0.014759879            4 
 2755000   0.81451078   -8.3124092    501.92956  0.015182382  0.014754595            4 
 2756000   0.81810819   -8.3346687    501.93948  0.015177173  0.014749307            5 
 2757000   0.79876487   -8.2798985    502.21108  0.015179878  0.014744038            9 
 2758000   0.80644905   -8.3090142    501.80781  0.015162189  0.014738779            6 
 2759000   0.81677073   -8.3182058    502.25426  0.015170178   0.01473352           10 
 2760000   0.82591503   -8.3392667    502.16321  0.015161933  0.014728254           24 
 2761000   0.82332708   -8.3331301     502.3652  0.015162538  0.014722977           25 
 2762000   0.79296484   -8.3205442    501.06002  0.015117669  0.014717705           17 
 2763000   0.82476102   -8.3281649    502.31191  0.015149955  0.014712416            8 
 2764000   0.82539727   -8.2896333    501.29753  0.015113891  0.014707132           13 
 2765000   0.80089472   -8.3358898     502.3273  0.015139461  0.014701845           12 
 2766000   0.81717026   -8.2918247    501.56275  0.015110953  0.014696547           24 
 2767000   0.78569579   -8.3305164    502.19399  0.015124503  0.014691267           14 
 2768000   0.79119752     -8.31963    501.78156  0.015106622     0.014686           12 
 2769000   0.81009229   -8.3053664    501.44767  0.015091118  0.014680734           12 
 2770000   0.81471058   -8.3078066    501.97779  0.015101618  0.014675458           12 
 2771000   0.83021119   -8.3335632    501.46154  0.015080643  0.014670164            8 
 2772000   0.81736263    -8.325363    500.97711  0.015060639  0.014664863           17 
 2773000   0.81257284   -8.3335577    502.55133  0.015102516  0.014659575            6 
 2774000    0.8082233   -8.3508399     500.3535  0.015031047  0.014654268            4 
 2775000   0.82164777   -8.3541128    500.66265  0.015034914  0.014648951            4 
 2776000   0.80907998   -8.3132644    501.94597  0.015068023  0.014643646            8 
 2777000   0.80291601   -8.3468378    500.41054  0.015016521  0.014638363            7 
 2778000   0.83397089   -8.3136962    502.13511  0.015062848  0.014633079            6 
 2779000   0.80789337   -8.3070701    501.83467  0.015048419  0.014627813           15 
 2780000   0.80836162   -8.3522052    502.85657  0.015073638  0.014622506            6 
 2781000   0.80823244   -8.3101094    502.28258  0.015051018  0.014617229           17 
 2782000   0.80336134    -8.327743    500.94647  0.015005586  0.014611963            8 
 2783000    0.7980939   -8.2956305    501.70427  0.015022885  0.014606714           10 
 2784000   0.80616342    -8.342321    501.89666  0.015023248  0.014601447            8 
 2785000   0.80879657   -8.3170757    501.81334   0.01501536  0.014596163           10 
 2786000   0.79299892   -8.3504246    501.16135  0.014990469  0.014590892           15 
 2787000    0.8142127   -8.3396441    501.32433  0.014989963  0.014585613           20 
 2788000   0.81917825   -8.3145523    501.46516  0.014988796  0.014580335            7 
 2789000   0.79559339   -8.3457124    501.64481  0.014988789  0.014575075            4 
 2790000   0.80473045   -8.3073453    502.47238  0.015008136  0.014569812            7 
 2791000   0.80620311   -8.3320211    502.09022  0.014991348  0.014564553            6 
 2792000   0.80821848   -8.3222985    501.90451  0.014980435  0.014559306           16 
 2793000   0.81163268   -8.3407584    501.82353  0.014972656  0.014554031            8 
 2794000   0.79298245   -8.3487934    501.09021  0.014945425  0.014548775            8 
 2795000   0.78919988    -8.338356    502.26894  0.014975222  0.014543525            8 
 2796000   0.80581929   -8.3341303    501.48199  0.014946411  0.014538274            6 
 2797000   0.81362131   -8.3315653    502.20126  0.014962497  0.014533017            5 
 2798000   0.81332917   -8.3183181     502.3844  0.014962604  0.014527749           11 
 2799000   0.79754129   -8.3457779    502.86229  0.014971486  0.014522481           15 
 2800000   0.80793826   -8.3509319    501.83873  0.014935677  0.014517223           11 
 2801000   0.80571562   -8.3709276     501.9236  0.014932869  0.014511963           14 
 2802000   0.80564655   -8.3438846    502.31874  0.014939292  0.014506706           11 
 2803000   0.80017775   -8.3413398    502.40976  0.014936668  0.014501496           12 
 2804000   0.80009345   -8.3280537    503.18393  0.014954349  0.014496279            7 
 2805000   0.80564378   -8.3535623    502.41689   0.01492623  0.014491053            3 
 2806000   0.81790217   -8.3277362    502.65992  0.014928128  0.014485849            6 
 2807000   0.80413638   -8.3482159    503.65381  0.014952316  0.014480644           14 
 2808000   0.80546945   -8.3691793    502.32214  0.014907471  0.014475425           25 
 2809000   0.80269265    -8.365979    501.97149  0.014891761  0.014470207           21 
 2810000   0.78712458   -8.3462005    502.42447  0.014899895  0.014464999           10 
 2811000   0.81780371   -8.3450874    502.82325  0.014906417  0.014459787           29 
 2812000     0.806752   -8.3747846    501.62326  0.014865554   0.01445458           25 
 2813000   0.80105198    -8.359255    503.73906  0.014922949  0.014449367           31 
 2814000   0.81389644   -8.3489577    503.62808  0.014914359  0.014444171            9 
 2815000   0.80352613   -8.3513894    502.03393  0.014861869  0.014438977           10 
 2816000   0.80624072   -8.3504663    502.97664  0.014884489  0.014433777           21 
 2817000    0.8210313   -8.3845662    503.33368  0.014889767  0.014428556           11 
 2818000   0.79671102   -8.3604178    503.52255  0.014890068  0.014423355           13 
 2819000    0.7932142   -8.3779791    502.07753   0.01484207  0.014418139            6 
 2820000   0.79535683   -8.3756965    502.23898  0.014841577  0.014412922           12 
 2821000   0.80722473   -8.3472868    502.42915  0.014841934  0.014407725            5 
 2822000   0.80948184   -8.3806176    501.95879  0.014822785  0.014402535            3 
 2823000   0.79680424   -8.3355156    503.29095  0.014856859  0.014397347            4 
 2824000   0.79432382    -8.343663    502.58071   0.01483064  0.014392168            8 
 2825000   0.78775571   -8.3403021    504.20349  0.014873259  0.014387011           12 
 2826000   0.80660249   -8.3427412    503.15592  0.014837105  0.014381841           15 
 2827000   0.80430906   -8.3359816    502.66548    0.0148174  0.014376657            5 
 2828000   0.79684825   -8.3479275    501.95686  0.014791279  0.014371479            7 
 2829000   0.79321179   -8.3803607    502.36005  0.014797928   0.01436627            4 
 2830000   0.81913464   -8.3405804    502.53653  0.014797896  0.014361085           10 
 2831000   0.78930501   -8.3651051    502.48695  0.014791209  0.014355895            5 
 2832000    0.7806229   -8.3839173    501.82379  0.014766472  0.014350671            7 
 2833000   0.81348163   -8.4239894    502.11318  0.014769772  0.014345443            7 
 2834000   0.79337286   -8.3916702    502.39326  0.014772796  0.014340227            8 
 2835000   0.79760332   -8.3768329    503.60967  0.014803341     0.014335            8 
 2836000   0.80537104   -8.3667456    502.43231  0.014763526  0.014329794            5 
 2837000   0.80679212   -8.4335912    502.64217  0.014764486  0.014324575           15 
 2838000   0.81157398   -8.4100552    502.53164  0.014756038  0.014319362            8 
 2839000   0.78301142   -8.3885792    502.75591  0.014757424  0.014314147           14 
 2840000   0.79712772   -8.3809445    503.15896  0.014764054  0.014308952           26 
 2841000    0.7863166   -8.3820149     502.3511  0.014735161  0.014303762           24 
 2842000   0.78647634   -8.3740956    504.03119   0.01477924  0.014298576           10 
 2843000   0.80443202   -8.3557997    502.81986  0.014738535  0.014293398            9 
 2844000   0.81402989   -8.3766513    503.11401  0.014741972  0.014288201            4 
 2845000   0.80698437   -8.3774658     502.4336   0.01471686  0.014283037            5 
 2846000   0.78929464   -8.3835125    502.01013  0.014699289  0.014277851            8 
 2847000   0.79909143   -8.3681413    503.50602  0.014737912  0.014272658           12 
 2848000   0.79190689    -8.374448    502.58981  0.014705928  0.014267463           22 
 2849000   0.80605813   -8.4019976     503.0669  0.014714722   0.01426229            9 
 2850000   0.79418661   -8.3844637    502.87949  0.014704079   0.01425711           14 
 2851000   0.79553137   -8.3909435     502.7092  0.014693944  0.014251916            4 
 2852000   0.81350003   -8.3818022    503.13885  0.014701346  0.014246734           13 
 2853000   0.78925958   -8.3697924    503.15036  0.014696529   0.01424155           11 
 2854000   0.80086807   -8.3564685    503.43246  0.014699616  0.014236377           19 
 2855000   0.79585348   -8.3536145    502.91711  0.014679425   0.01423122            6 
 2856000   0.81514521   -8.3571887    503.67111  0.014696286  0.014226079            5 
 2857000   0.80026967   -8.3492159    503.51424  0.014686566  0.014220932            6 
 2858000   0.78375685   -8.4014808    503.32151  0.014675808  0.014215771           11 
 2859000   0.79052889    -8.367418    502.41073  0.014644128  0.014210597           11 
 2860000   0.78020774    -8.377899    503.55653  0.014672393  0.014205458           15 
 2861000   0.78723854   -8.3382419    501.86913  0.014618115   0.01420031            4 
 2862000    0.7962658   -8.3494052    503.62296  0.014664074  0.014195169            6 
 2863000   0.81015377   -8.3564249    502.68723  0.014631716  0.014190038            6 
 2864000   0.79783068   -8.3529732    503.44971  0.014648793  0.014184889           11 
 2865000   0.79132758   -8.3634778    504.91514  0.014686304  0.014179738            3 
 2866000   0.79197665    -8.382106    503.51638  0.014640509  0.014174578            6 
 2867000   0.80455608   -8.4047242    502.59206  0.014608536  0.014169423            8 
 2868000   0.78542515   -8.3641672    502.75771  0.014608255  0.014164283           13 
 2869000   0.81404134   -8.3659985    503.61752  0.014628138  0.014159129           28 
 2870000   0.77957201   -8.4126562    503.12429  0.014608719  0.014153972           16 
 2871000   0.76990203   -8.3909487    502.64746  0.014589791  0.014148815           12 
 2872000   0.81014311   -8.3806502    503.97013  0.014623089  0.014143674           13 
 2873000   0.81179608   -8.3773612    504.13141  0.014622677   0.01413855           11 
 2874000   0.77305856   -8.3623907    503.90831   0.01461112  0.014133418           16 
 2875000   0.79664338   -8.3488325    504.53345  0.014624158  0.014128308            9 
 2876000   0.79123848    -8.374995    505.02989  0.014633458  0.014123218            5 
 2877000   0.77575766   -8.3720508     504.2475  0.014605709  0.014118137            5 
 2878000   0.80487436   -8.3974098    504.21014  0.014599552  0.014113022            6 
 2879000   0.78257766   -8.3569614    505.63774  0.014635803  0.014107929            4 
 2880000    0.8026884   -8.3753326    504.61345  0.014601084  0.014102857            4 
 2881000   0.78625635   -8.3448836     503.8793   0.01457478  0.014097788            8 
 2882000   0.78786954   -8.3863141    503.39486  0.014555715  0.014092688           16 
 2883000   0.79471343   -8.3701836    503.25889  0.014546736  0.014087584           16 
 2884000   0.78509197   -8.3682521     504.0284  0.014563927   0.01408248            3 
 2885000   0.79694274   -8.3895506      503.951  0.014556644   0.01407736           11 
 2886000   0.78495531   -8.4078284    504.64894  0.014571753   0.01407227            8 
 2887000   0.79801322   -8.3605586    504.48873  0.014562081  0.014067166            6 
 2888000   0.78084027   -8.3892685    505.25515  0.014579154  0.014062063           11 
 2889000    0.7960769   -8.3863787     505.0655  0.014568637  0.014056965            7 
 2890000   0.78527638   -8.3893699    503.51912  0.014519006  0.014051858           17 
 2891000   0.78633212   -8.4078226    503.33987  0.014508817  0.014046755           13 
 2892000   0.77857539   -8.3787754    503.92677  0.014520711  0.014041664            4 
 2893000   0.78138699   -8.3848974    503.70619  0.014509338  0.014036577           10 
 2894000   0.80138041   -8.3960126     504.2845  0.014520977  0.014031491           10 
 2895000   0.80093168   -8.4048894    503.78105  0.014501469  0.014026406            7 
 2896000   0.78124142   -8.4089426     503.4507  0.014486956  0.014021299           10 
 2897000   0.80132628   -8.3553364    505.35175   0.01453664  0.014016221            9 
 2898000   0.78418299   -8.3858784    503.65592  0.014482859  0.014011144           13 
 2899000   0.76061246   -8.3764502    504.26341  0.014495326  0.014006051            5 
 2900000   0.78620437   -8.3948733    502.75702  0.014447041   0.01400098           16 
 2901000   0.78342793   -8.4053131    504.49347  0.014491941  0.013995884           15 
 2902000   0.78454571   -8.3850908    505.02254   0.01450214  0.013990789           34 
 2903000   0.80610079   -8.3697722    503.81977  0.014462618  0.013985704           21 
 2904000    0.7876607   -8.4040965    502.89133  0.014430995  0.013980597           25 
 2905000   0.77935435   -8.3877205    503.50775  0.014443711  0.013975495           26 
 2906000   0.78983686   -8.3906918     504.4983  0.014467146  0.013970437           29 
 2907000   0.79237321   -8.3808892    504.57046  0.014464237  0.013965377           20 
 2908000   0.78173367   -8.3738401     503.3754  0.014425017  0.013960306           17 
 2909000   0.79566686   -8.3931603    504.39396  0.014449237  0.013955235           29 
 2910000   0.77951165    -8.420319    504.35016  0.014443017  0.013950162           23 
 2911000   0.78474186   -8.4157152    503.22081  0.014405726  0.013945073           31 
 2912000    0.7923007   -8.3830647    504.85756  0.014447618  0.013939998           45 
 2913000   0.78232677   -8.4002368    503.80466  0.014412537  0.013934921           47 
 2914000    0.8018858   -8.4230868    503.40639  0.014396202  0.013929839           41 
 2915000   0.79429004   -8.4056187    503.97827  0.014407612  0.013924751           39 
 2916000   0.79248977    -8.405609    504.27117  0.014411042  0.013919666           44 
 2917000   0.80845225   -8.3721418    504.39749   0.01440971  0.013914584           45 
 2918000   0.79237567   -8.3888765     504.6544  0.014412109  0.013909532           43 
 2919000   0.78571463   -8.4217655    504.86143  0.014413082  0.013904446           53 
 2920000   0.77723964   -8.4476889    502.65354  0.014345135   0.01389934           69 
 2921000   0.78512231    -8.408825    504.64318  0.014396987  0.013894247           63 
 2922000   0.78652455   -8.4251747     503.3605  0.014355479  0.013889153           56 
 2923000   0.79310276   -8.3947706    504.54964  0.014384469  0.013884066           73 
 2924000   0.78773831   -8.4085886    504.55625  0.014379738  0.013878983           57 
 2925000    0.7766089   -8.4199095    504.55355  0.014374745  0.013873924           35 
 2926000    0.7821432   -8.4002969    505.86845  0.014407281  0.013868869           60 
 2927000   0.77639708   -8.4443847    504.57732    0.0143656  0.013863794           52 
 2928000     0.795859    -8.436444    504.41799  0.014356159  0.013858727           52 
 2929000   0.75685182    -8.439864    503.04003  0.014312053  0.013853659           60 
 2930000   0.78217436   -8.3886023    504.45772  0.014347489  0.013848579           52 
 2931000   0.78441429   -8.4262013    504.27126  0.014337293  0.013843517           60 
 2932000    0.7720548   -8.3884547     504.7435  0.014345825  0.013838439           55 
 2933000   0.78328341   -8.4202139    502.87319  0.014287794  0.013833365           78 
 2934000    0.7702751   -8.4349712    504.56263  0.014330909  0.013828297           62 
 2935000   0.78787587   -8.4473673    504.32502  0.014319279  0.013823222           61 
 2936000   0.78631983   -8.3746631    504.77292  0.014327115  0.013818164           61 
 2937000   0.78499281    -8.404036    504.36265  0.014310596  0.013813102           56 
 2938000   0.78530238   -8.4161224    503.63847  0.014285185  0.013808036           72 
 2939000   0.77264979   -8.4484821    503.85959  0.014286594   0.01380298           54 
 2940000   0.78220492   -8.4303504    504.21659  0.014291853  0.013797906           52 
 2941000   0.77698383   -8.4132702    504.71399  0.014301088  0.013792845           50 
 2942000   0.79604646   -8.4270971     503.4895  0.014261543  0.013787771           70 
 2943000   0.76938338   -8.3978395    504.30781  0.014279868  0.013782719           61 
 2944000   0.78851396   -8.4167005    503.65241  0.014256465  0.013777661           80 
 2945000   0.79518169   -8.4009984    504.30831  0.014270184  0.013772606           50 
 2946000   0.79039517   -8.4548691    502.51684  0.014214665  0.013767545           68 
 2947000   0.79180228   -8.4419989    502.34174   0.01420489  0.013762469           56 
 2948000   0.77034848   -8.4064974    504.24343  0.014253828  0.013757422           40 
 2949000   0.76004649   -8.4511203    504.75462   0.01426344   0.01375239           43 
 2950000   0.77839418   -8.4434121    503.97141   0.01423648  0.013747336           41 
 2951000   0.76119387   -8.4415919     504.4056  0.014243917  0.013742271           50 
 2952000   0.79328291   -8.4277184    503.66258  0.014218117  0.013737215           66 
 2953000   0.77086021   -8.4290081    504.23304  0.014229401  0.013732164           72 
 2954000   0.78174678   -8.4507581      503.081  0.014192084  0.013727089           51 
 2955000   0.77542835   -8.4330395      504.018  0.014213706  0.013722021           43 
 2956000   0.79678264   -8.4362712    503.68802  0.014199595  0.013716958           68 
 2957000   0.77552601   -8.4806275    504.20992  0.014209501  0.013711896           54 
 2958000   0.76516301   -8.4500503    504.26112  0.014206139  0.013706834           67 
 2959000   0.77511363   -8.4433242    504.01587  0.014194431  0.013701772           72 
 2960000   0.77553936    -8.469829    502.69793  0.014152532  0.013696714           57 
 2961000   0.78145271   -8.4644964    503.91434  0.014181986  0.013691661           63 
 2962000   0.78648422   -8.4526789    502.97842  0.014150867  0.013686587           77 
 2963000   0.78839406   -8.4679233    504.14174  0.014178809  0.013681523           59 
 2964000   0.76499104   -8.4374124    504.50316  0.014184187  0.013676457           66 
 2965000   0.78296695   -8.4780817    503.87983  0.014161884  0.013671381           38 
 2966000   0.78044294   -8.4688941    503.86443  0.014156677  0.013666306           60 
 2967000   0.78064098    -8.476596    503.30876  0.014136298   0.01366124           70 
 2968000   0.77458932   -8.4651104    503.37751  0.014133466  0.013656182           72 
 2969000   0.77654898   -8.4517068     503.9838  0.014145722  0.013651122           61 
 2970000   0.77461919   -8.4540917    504.63694  0.014159286  0.013646079           63 
 2971000   0.78030446   -8.4534237    505.09484  0.014167364  0.013641043           66 
 2972000   0.78438817   -8.4322775    504.76811  0.014153435  0.013636016           74 
 2973000   0.77126686   -8.4580264    502.52136  0.014085698   0.01363096           41 
 2974000   0.78354723   -8.4512404    502.08284  0.014068674  0.013625922           58 
 2975000    0.7544458   -8.4420162    504.96215  0.014144598  0.013620856           70 
 2976000   0.76658498   -8.4758423    502.28118  0.014064773  0.013615798           68 
 2977000   0.77330794   -8.4806592    503.81041  0.014102856  0.013610732           63 
 2978000   0.78563988   -8.4879234    502.94408  0.014073877  0.013605643           67 
 2979000   0.77576117   -8.4543547    503.54814  0.014086051  0.013600584           59 
 2980000    0.7807786   -8.5163505    503.43473  0.014078152  0.013595504           70 
 2981000   0.77768548   -8.4308233    503.44793  0.014073799   0.01359044           77 
 2982000   0.77322021   -8.4381511    503.83724  0.014079959  0.013585387           69 
 2983000   0.77114986   -8.5010143    503.57091  0.014067798  0.013580334           66 
 2984000   0.77705449   -8.4648854    504.00632  0.014075244  0.013575296           74 
 2985000   0.77500751   -8.4419764    504.17774  0.014075314  0.013570262           58 
 2986000   0.75602375   -8.4446456    503.82262  0.014060689  0.013565224           66 
 2987000   0.77339497   -8.4535745    503.09917  0.014035799   0.01356019           63 
 2988000   0.75265828    -8.456165    503.51973  0.014042831  0.013555165           70 
 2989000   0.79312813   -8.4526555    504.04548   0.01405279   0.01355013           59 
 2990000   0.75020812   -8.4241417     504.4657  0.014059802  0.013545091           80 
 2991000   0.77997128   -8.4693935    503.69819  0.014033717  0.013540044           86 
 2992000   0.77994767   -8.4600958    503.05346   0.01401107  0.013535005           70 
 2993000    0.7883181   -8.4741581    504.31886  0.014041621  0.013529939           61 
 2994000   0.76671983   -8.4533468    504.03202  0.014028947  0.013524883           77 
 2995000   0.76527118   -8.4584717    504.04168  0.014024532  0.013519829           68 
 2996000   0.78863777   -8.4903953    503.66595    0.0140094  0.013514763           63 
 2997000   0.77947907   -8.4592944    503.42604  0.013998055   0.01350969           60 
 2998000   0.77085296   -8.4891149    503.16504  0.013986131  0.013504624           68 
 2999000   0.75840121   -8.4576042    502.60679  0.013965955  0.013499551           73 
 3000000   0.77200211   -8.4891048    502.13001  0.013948056  0.013494472           75 
 3001000   0.79194627   -8.4598824    502.87055  0.013963972  0.013489397           74 
 3002000   0.79195788   -8.5111314    502.56693  0.013950892  0.013484343           69 
 3003000     0.769947   -8.4807231    503.69049  0.013977425  0.013479294           62 
 3004000   0.78390267   -8.4970301    504.31097  0.013989985  0.013474253           61 
 3005000   0.76264876   -8.4605312    504.30264  0.013985098  0.013469208           46 
 3006000   0.77594167   -8.4666702    503.10767  0.013947319  0.013464151           63 
 3007000   0.76909593   -8.4739353    505.06753  0.013996994  0.013459098           75 
 3008000   0.77107622   -8.4841351     502.4937  0.013921035  0.013454066           64 
 3009000   0.77743678   -8.4826425    503.16453  0.013934988   0.01344903           63 
 3010000   0.79381812   -8.4644634    504.16254  0.013957988  0.013443994           55 
 3011000   0.75510233   -8.4484535    503.42961  0.013933068  0.013438962           52 
 3012000   0.76622703   -8.4635113    503.49061   0.01393013  0.013433932           62 
 3013000   0.77268625   -8.4517123    503.28599  0.013919847  0.013428905           74 
 3014000   0.75787718   -8.4549342    503.52548   0.01392185  0.013423897           70 
 3015000   0.76553735   -8.4606205    505.54134   0.01397295  0.013418888           74 
 3016000   0.77246609   -8.4582403    503.74436  0.013918666  0.013413878           73 
 3017000    0.7705196   -8.4858121    503.15609  0.013897804  0.013408853           65 
 3018000   0.75348402   -8.4482353    503.68047  0.013907678  0.013403851           53 
 3019000   0.75969929   -8.4723462    503.65655  0.013902411  0.013398855           71 
 3020000   0.76571556   -8.4640814    503.49258  0.013893283  0.013393857           51 
 3021000   0.76020883   -8.4630487    503.94727  0.013901227  0.013388862           54 
 3022000   0.77905783   -8.4754812    503.83793  0.013893612  0.013383875           57 
 3023000   0.75510864   -8.4549306    504.10666  0.013896423   0.01337887           65 
 3024000   0.78289764   -8.4621918    503.27822  0.013868999  0.013373857           56 
 3025000   0.77291871   -8.4536178    504.27861  0.013891973  0.013368855           52 
 3026000   0.76749534   -8.4879954    504.49575  0.013893362  0.013363867           45 
 3027000     0.772871   -8.4984588    503.84238  0.013870785  0.013358856           47 
 3028000   0.75881257   -8.4753415    502.86537  0.013839316  0.013353867           65 
 3029000   0.77028125   -8.4693027     503.3163  0.013847152  0.013348874           51 
 3030000   0.75654056   -8.4673531    503.85888  0.013857505  0.013343876           39 
 3031000   0.76249864   -8.4950081    502.88439  0.013826141  0.013338877           23 
 3032000   0.75308922   -8.4921342    502.52191  0.013811618   0.01333386           40 
 3033000    0.7592084    -8.476634    503.68963  0.013839148  0.013328843           43 
 3034000   0.77044001   -8.4970815    504.45312  0.013855557  0.013323832           59 
 3035000   0.75035983    -8.482107    503.36376  0.013821081  0.013318845           50 
 3036000   0.77250497   -8.4999586     502.9263  0.013804521  0.013313849           74 
 3037000   0.76257894   -8.4863616    504.97726  0.013856252  0.013308859           33 
 3038000   0.77119022   -8.4490069    504.34055  0.013834226  0.013303894           46 
 3039000   0.76894379    -8.428112    504.59062  0.013836531  0.013298918           56 
 3040000   0.78541456   -8.4656865    504.39827  0.013826707  0.013293953           50 
 3041000   0.75821267   -8.4884491    502.82522  0.013779054  0.013288977           47 
 3042000   0.77624559   -8.4786477    503.81841  0.013801732  0.013283992           40 
 3043000   0.77384159   -8.5058164    503.35435  0.013784488  0.013279013           52 
 3044000   0.75299271   -8.4966755    502.80645   0.01376496  0.013274021           76 
 3045000    0.7794447   -8.4773967    503.90995  0.013790639  0.013269025           62 
 3046000   0.77414007   -8.4813733    503.64456  0.013778851  0.013264028           98 
 3047000   0.75100207   -8.4998767    504.05228   0.01378548  0.013259043           95 
 3048000   0.77356205   -8.4687041    503.73716  0.013772342  0.013254063           94 
 3049000   0.75924149   -8.5080399    502.83269  0.013743104  0.013249092          100 
 3050000   0.77438046   -8.4902571    503.16023  0.013747547  0.013244119           94 
 3051000   0.77127073   -8.4850632    503.85602  0.013762046  0.013239137           90 
 3052000   0.74789354   -8.4658646    504.08323   0.01376374  0.013234164           97 
 3053000    0.7675529   -8.5104514    502.15695  0.013706653  0.013229204          101 
 3054000    0.7765424    -8.512398    503.30243  0.013733422  0.013224231          108 
 3055000   0.75454944   -8.4986139    503.31059  0.013729149  0.013219266           94 
 3056000   0.77016523   -8.4936461    504.99016  0.013770456  0.013214306          100 
 3057000   0.76153511   -8.5095097     504.5386  0.013753642  0.013209344           90 
 3058000   0.74754126   -8.4907722    504.98228  0.013761235  0.013204385           96 
 3059000   0.76127889   -8.4930046    503.90768  0.013727462   0.01319941          104 
 3060000    0.7687539   -8.4829238    504.13367   0.01372913  0.013194459           88 
 3061000   0.75202639   -8.4805043     503.9978  0.013720946  0.013189501          100 
 3062000   0.76920099   -8.4679489     504.3221  0.013725291  0.013184551           87 
 3063000   0.75886257   -8.4865183    505.09846  0.013741932  0.013179616           97 
 3064000   0.75244998   -8.4632016    504.47045  0.013720367  0.013174679           80 
 3065000   0.77170107   -8.5099948    503.23867    0.0136824  0.013169737           78 
 3066000   0.75489361   -8.4506919    504.10159  0.013701391  0.013164815           81 
 3067000   0.76526629   -8.5039659     503.9415  0.013692574  0.013159902          100 
 3068000   0.74758557    -8.482557    503.90215  0.013687042  0.013154983           89 
 3069000   0.76795312   -8.4671094    504.78613  0.013706586  0.013150066          113 
 3070000   0.73865402   -8.4615107    504.70697  0.013699972  0.013145148          103 
 3071000    0.7464746   -8.4704766    504.14804  0.013680344  0.013140233           93 
 3072000   0.76311279   -8.4714785    504.49302  0.013685249   0.01313531          101 
 3073000   0.76829386   -8.4944662    503.94085  0.013665822  0.013130393          126 
 3074000    0.7659177   -8.4980148    504.36897  0.013672982  0.013125495          122 
 3075000   0.76925331   -8.4947313    504.96815  0.013684774  0.013120588          151 
 3076000   0.76140367    -8.497806    503.80686  0.013648864  0.013115689          113 
 3077000   0.77184131   -8.4915768    504.49504  0.013663066  0.013110781          131 
 3078000   0.75197861   -8.4875991    505.21721  0.013678179  0.013105877          150 
 3079000   0.76832492     -8.47397    505.15235  0.013671981  0.013100978          129 
 3080000   0.77149394   -8.5113784    504.91306  0.013661068  0.013096079          123 
 3081000   0.75748193   -8.4801683    504.41948  0.013643283  0.013091173          142 
 3082000   0.75790642   -8.5246971    504.19523  0.013632793  0.013086263          124 
 3083000   0.75860217   -8.4706995    504.03191  0.013623957  0.013081361          118 
 3084000   0.76585223   -8.4526553    505.03072  0.013646528  0.013076482          143 
 3085000   0.76519473   -8.4658805    504.81414  0.013636254  0.013071596          151 
 3086000   0.74640933   -8.4785381    504.03746  0.013610862   0.01306671          131 
 3087000   0.75385009   -8.4890756    504.87975  0.013629191  0.013061822          147 
 3088000   0.75562509   -8.5317056    504.76662  0.013621725  0.013056928          171 
 3089000   0.74533325   -8.4798018     504.4373   0.01360843  0.013052026          161 
 3090000   0.75316375   -8.5170124    505.16341  0.013623609  0.013047134          180 
 3091000   0.76664654   -8.4865249    504.61843  0.013604508  0.013042242          166 
 3092000   0.74955057   -8.4979272     504.6657  0.013601383  0.013037364          169 
 3093000   0.76704468   -8.5056907    503.80289  0.013573739  0.013032477          178 
 3094000   0.74844846   -8.5067536    504.54703  0.013589394    0.0130276          192 
 3095000   0.76062479   -8.5139639    504.49126  0.013583502  0.013022713          227 
 3096000   0.75453977   -8.4983449    504.47947  0.013578797   0.01301782          202 
 3097000   0.76999313   -8.5143609    504.74223  0.013581483   0.01301294          202 
 3098000   0.74747527   -8.5017452    505.24123  0.013590522   0.01300806          213 
 3099000   0.74585052   -8.5217992    504.28465  0.013560413   0.01300318          227 
 3100000   0.75066476   -8.4992106    504.48845  0.013561517   0.01299828          244 
 3101000   0.75214666   -8.5225822    503.27527  0.013524542   0.01299338          228 
 3102000   0.74100147   -8.5264235    503.94372   0.01353814  0.012988482          208 
 3103000   0.76328342   -8.5294755    503.77792  0.013529324  0.012983562          235 
 3104000   0.75457405   -8.5131836    504.46121   0.01354331  0.012978656          250 
 3105000   0.75420176   -8.5122792    504.33692  0.013535612  0.012973752          255 
 3106000   0.74631883   -8.5166828    503.55659  0.013510318  0.012968852          212 
 3107000   0.76328011   -8.5414627    502.15537  0.013468388  0.012963941          236 
 3108000   0.73766111   -8.5458858    503.98839  0.013513202  0.012959008          260 
 3109000   0.77658837   -8.5376932     503.6034  0.013498536  0.012954113          238 
 3110000   0.74332502   -8.5581573    503.06581  0.013479791  0.012949214          264 
 3111000   0.76529064   -8.5131068    504.48011  0.013513343  0.012944322          284 
 3112000   0.77802644   -8.4882271    504.27236  0.013503437  0.012939454          268 
 3113000   0.75862217   -8.5092128    504.86801  0.013515045  0.012934565          256 
 3114000   0.76756677    -8.537877    503.93072  0.013485622  0.012929685          268 
 3115000   0.75337558   -8.5513014    503.66602  0.013474211  0.012924806          307 
 3116000   0.74769659   -8.5360702    504.69976  0.013497533  0.012919919          305 
 3117000   0.76312143   -8.5342032    503.30679  0.013455962  0.012915032          298 
 3118000   0.75158104   -8.5312566    504.45662  0.013482377  0.012910156          336 
 3119000   0.74999926   -8.5456277    504.56571  0.013480969  0.012905278          305 
 3120000    0.7388217   -8.5286855    503.74324   0.01345468  0.012900391          318 
 3121000    0.7394795   -8.5777301    504.10605  0.013460057  0.012895503          320 
 3122000   0.74349274    -8.536474    504.10405  0.013455692  0.012890632          335 
 3123000   0.75769459   -8.5279541    503.84489  0.013444468  0.012885743          359 
 3124000   0.75457321   -8.5743391    503.89198  0.013441421  0.012880861          350 
 3125000    0.7477489   -8.5520982     503.6547  0.013430792  0.012875976          371 
 3126000    0.7574163    -8.546287    504.02141  0.013436271  0.012871097          346 
 3127000   0.75117954   -8.5395447    504.00077  0.013431424  0.012866233          375 
 3128000    0.7561264   -8.5313665    503.30423  0.013408574  0.012861382          377 
 3129000   0.76004893   -8.5463105    505.09897  0.013452087  0.012856528          445 
 3130000   0.75839443   -8.5823095    504.00372  0.013418629  0.012851667          414 
 3131000   0.74674373    -8.542194    503.63782  0.013404605  0.012846805          472 
 3132000    0.7273211   -8.5699905    503.81699  0.013405092  0.012841939          464 
 3133000   0.75408309   -8.5724559    504.33164  0.013414503  0.012837044          455 
 3134000    0.7525655   -8.5751875    502.91939   0.01337267  0.012832154          465 
 3135000   0.75638819   -8.5942079    503.17459  0.013375188   0.01282726          487 
 3136000   0.74434242   -8.6072281    502.98624  0.013365918  0.012822365          508 
 3137000   0.76363771   -8.5628409    502.33826  0.013344444  0.012817475          522 
 3138000   0.75414354   -8.6018026    502.85048  0.013353794  0.012812594          488 
 3139000   0.77974735   -8.5757749    504.77611  0.013400661  0.012807709          516 
 3140000   0.75811978   -8.5742638     503.9647  0.013374859  0.012802825          518 
 3141000    0.7370393   -8.5760842    504.52976  0.013385593  0.012797938          507 
 3142000    0.7462454    -8.566409    503.72302  0.013359936  0.012793063          514 
 3143000   0.74395433   -8.5627222    503.47255  0.013349044  0.012788185          541 
 3144000   0.73946842   -8.5505352    504.35963  0.013368311  0.012783316          530 
 3145000   0.75020351   -8.5856456    502.43101  0.013312957  0.012778451          538 
 3146000   0.73826928    -8.600167    502.79314  0.013318318  0.012773589          549 
 3147000   0.75676926   -8.5870872    503.07827  0.013321636  0.012768712          544 
 3148000   0.75347866   -8.5900062    503.06225   0.01331698  0.012763849          538 
 3149000    0.7465945   -8.5818133    503.25373  0.013317819  0.012758977          552 
 3150000   0.75229491    -8.574849    504.17227  0.013337891  0.012754105          596 
 3151000   0.75943965   -8.6090759    504.22669  0.013335097  0.012749241          570 
 3152000   0.75295094   -8.5771376    503.52309  0.013312264  0.012744385          594 
 3153000   0.75365296   -8.6156234    503.01443  0.013294599  0.012739515          595 
 3154000   0.74964485   -8.6227783    503.16362  0.013294325  0.012734658          604 
 3155000   0.72668068   -8.5993763     503.5497  0.013300309   0.01272979          610 
 3156000   0.75058919   -8.6050575    502.68476  0.013273256  0.012724922          616 
 3157000   0.75821407   -8.5855106     504.1218  0.013306984  0.012720078          622 
 3158000   0.75767868   -8.6287652     502.4576  0.013258856  0.012715228          642 
 3159000   0.75155451   -8.6346386    502.93345  0.013267211  0.012710377          639 
 3160000   0.75685403   -8.6036212    503.28954  0.013272403  0.012705539          636 
 3161000   0.75562215    -8.635946    502.91641  0.013258368  0.012700685          654 
 3162000   0.74903917   -8.5909631    504.33065  0.013291447  0.012695837          674 
 3163000   0.73788364   -8.6246842    503.59127  0.013267765  0.012690986          664 
 3164000   0.76975713   -8.6205799    503.18737  0.013252933  0.012686129          667 
 3165000   0.73429504   -8.6230754    503.27468  0.013251045  0.012681278          659 
 3166000   0.73352217   -8.6058289    503.41501  0.013250553  0.012676431          721 
 3167000   0.73150047   -8.6503583    502.13997  0.013212819  0.012671568          694 
 3168000   0.74207442   -8.6287911    501.43675   0.01319015  0.012666696          724 
 3169000   0.74881469    -8.652132    502.50702  0.013214132  0.012661843          750 
 3170000   0.72493308   -8.6345609    502.96772  0.013222075  0.012656977          709 
 3171000   0.72971337   -8.6570674    502.34151  0.013201448  0.012652107          785 
 3172000    0.7422035   -8.6150017    503.41325  0.013225443   0.01264723          683 
 3173000   0.74370983   -8.6551031    502.35867  0.013193578  0.012642355          692 
 3174000   0.74452506    -8.639111    502.89483  0.013203498  0.012637491          716 
 3175000   0.74201102   -8.6567475    502.75111  0.013195567  0.012632625          712 
 3176000   0.73915147   -8.6887735    501.64744  0.013162454  0.012627751          764 
 3177000   0.73131853   -8.6805978    501.89486  0.013164801   0.01262289          770 
 3178000    0.7566355   -8.6602299     502.0206  0.013163955   0.01261802          767 
 3179000   0.74232404   -8.6724048    502.19046  0.013164267  0.012613173          870 
 3180000   0.74081628   -8.6771142    503.20541  0.013186724  0.012608321          871 
 3181000   0.74949442   -8.7062259    502.25166  0.013157594  0.012603458          837 
 3182000   0.76193202   -8.6788987    502.22822  0.013152845  0.012598602          868 
 3183000   0.74409165   -8.6830247    501.85867  0.013139037  0.012593736          962 
 3184000   0.74461152   -8.7177445    501.45796  0.013124423  0.012588863          898 
 3185000   0.74137761   -8.6862275    501.93919  0.013132894  0.012583998          957 
 3186000    0.7518952   -8.6968765    502.56914  0.013145249  0.012579132          996 
 3187000   0.74172643   -8.6837019     502.1551  0.013130297  0.012574258          929 
 3188000    0.7223664   -8.6929943    502.19072   0.01312711  0.012569388          995 
 3189000   0.73075965    -8.710612    501.49584  0.013104835  0.012564506          965 
 3190000   0.74151657   -8.6819915    501.50587  0.013100989  0.012559623          979 
 3191000   0.73262757   -8.6978465    500.68496  0.013075446  0.012554742          963 
 3192000   0.74139562   -8.7056103    501.39664  0.013089929  0.012549858          993 
 3193000   0.73898559   -8.7011982    501.77741  0.013095767  0.012544972          990 
 3194000   0.74463594   -8.7106426    501.22094  0.013077148  0.012540086          998 
 3195000   0.75348199    -8.694605    500.95438  0.013066103  0.012535214         1049 
 3196000   0.76090205   -8.7019829    501.49248  0.013076045   0.01253035         1006 
 3197000   0.75079971   -8.6758718    501.68234  0.013076904  0.012525488         1100 
 3198000    0.7408823    -8.719463     501.9517  0.013079834   0.01252063         1055 
 3199000    0.7322255    -8.710878    501.63476  0.013067489  0.012515767         1094 
 3200000   0.75182459   -8.7008351    501.18291  0.013051638  0.012510904         1054 
 3201000   0.74464096   -8.6900979    501.80238  0.013063688  0.012506037         1053 
 3202000   0.73316545   -8.7199472     500.9887  0.013038432   0.01250117         1080 
 3203000   0.73301374   -8.7092857    500.90516  0.013032188  0.012496296         1147 
 3204000   0.72665901    -8.719813    501.58459  0.013045792  0.012491425         1165 
 3205000   0.75168213   -8.7312662    501.36439  0.013035995   0.01248655         1215 
 3206000   0.74561928   -8.7371083    500.47464  0.013008802  0.012481664         1141 
 3207000   0.73439343   -8.7541892    501.41974  0.013029304  0.012476757         1183 
 3208000   0.75253848   -8.7617921    501.04742  0.013015571  0.012471859         1219 
 3209000   0.71149861   -8.7415951    501.39496   0.01302054  0.012466963         1212 
 3210000   0.73805979   -8.7296514    500.89668  0.013003548  0.012462056         1325 
 3211000    0.7370768   -8.7418824    499.97296  0.012975526  0.012457157         1323 
 3212000   0.74561614   -8.7419963    499.90847  0.012969813  0.012452245         1316 
 3213000   0.74060561   -8.7518659     499.6649  0.012959459   0.01244733         1276 
 3214000   0.73353227   -8.7880417    500.51131  0.012977373  0.012442407         1380 
 3215000   0.74195689   -8.7337476    500.35932  0.012969397  0.012437473         1409 
 3216000   0.73220734    -8.782006    499.24762  0.012936557  0.012432556         1339 
 3217000   0.73409312   -8.7736166    499.55452  0.012940486  0.012427624         1462 
 3218000   0.73172534   -8.7682742    499.97823  0.012947437  0.012422689         1393 
 3219000   0.72637672    -8.773584    499.08325  0.012920246  0.012417759         1380 
 3220000   0.74702642   -8.7793129    500.16517  0.012944233  0.012412827         1494 
 3221000   0.74050204   -8.7803362    499.25746   0.01291673  0.012407898         1494 
 3222000   0.74300902   -8.7625437    499.11938   0.01290915  0.012402973         1506 
 3223000    0.7446822   -8.7841758    498.94213  0.012900562  0.012398047         1515 
 3224000   0.74121727   -8.7870016    499.22467  0.012903863  0.012393117         1554 
 3225000   0.72885147   -8.8058441     499.5622  0.012908584  0.012388205         1540 
 3226000   0.73929717   -8.7979204    500.06853  0.012917662  0.012383292         1606 
 3227000   0.73173926   -8.8054379    500.11758  0.012914926  0.012378363         1580 
 3228000   0.72668501   -8.8129008    500.04371  0.012909018  0.012373432         1621 
 3229000   0.74725463   -8.8194059    499.90334  0.012901397  0.012368501         1633 
 3230000   0.73587533   -8.7935812     498.9396  0.012872539   0.01236357         1654 
 3231000   0.73276405   -8.8106327    499.31078  0.012878128  0.012358636         1712 
 3232000   0.72107706   -8.8266282    499.19827  0.012871243  0.012353698         1794 
 3233000   0.73437088   -8.8319409    499.40473  0.012872583   0.01234876         1787 
 3234000   0.74164495   -8.8484421    497.86181  0.012828845  0.012343814         1844 
 3235000   0.73337362   -8.8508392    499.03743  0.012855163   0.01233886         1856 
 3236000   0.72456367   -8.8903821    496.30511  0.012780828  0.012333892         1885 
 3237000   0.72800892   -8.8597986    498.07505  0.012822445  0.012328931         1907 
 3238000   0.72505237   -8.8692408    498.82284   0.01283773  0.012323963         1914 
 3239000   0.72848536   -8.8418134    498.37249   0.01282218  0.012318995         1912 
 3240000   0.73468103   -8.8742088    497.94666   0.01280727  0.012314035         1939 
 3241000   0.72847912    -8.865439     497.1687  0.012783315  0.012309066         1976 
 3242000   0.74049803   -8.8665877    497.14244  0.012778697  0.012304089         2034 
 3243000   0.72945407   -8.9114224    496.71865  0.012763867    0.0122991         2029 
 3244000   0.76164267   -8.8912149    497.71905  0.012785631  0.012294111         2055 
 3245000   0.72412656   -8.8959895    496.77286  0.012757392  0.012289138         2099 
 3246000   0.74261576   -8.8875344    497.07873  0.012761315  0.012284156         2099 
 3247000   0.74216898   -8.8831087     498.2684  0.012787917  0.012279174         2073 
 3248000   0.71880919   -8.9034306    497.06161  0.012753017  0.012274191         2113 
 3249000   0.72657903    -8.886283    497.03483  0.012748406  0.012269199         2162 
 3250000   0.72713138   -8.9172484    496.81646  0.012738884  0.012264199         2188 
 3251000   0.72269679   -8.9241218    495.74595  0.012707525  0.012259204         2244 
 3252000   0.72555542   -8.9144747    497.07978  0.012737797  0.012254203         2242 
 3253000   0.73296126   -8.9493591    496.83934  0.012727722  0.012249197         2246 
 3254000    0.7229523   -8.9249104     497.3257  0.012736265  0.012244194         2223 
 3255000   0.72930795   -8.9352677    496.93719  0.012722406    0.0122392         2250 
 3256000   0.71419017   -8.9265737    496.78653  0.012714643  0.012234188         2260 
 3257000   0.72911096   -8.9349093    497.29779   0.01272382  0.012229175         2282 
 3258000   0.74025001   -8.9405551    495.54819  0.012675164   0.01222416         2346 
 3259000   0.72738925   -8.9697283    495.59331  0.012672428  0.012219143         2291 
 3260000   0.71940419   -8.9598212    495.93439   0.01267726  0.012214127         2298 
 3261000   0.72861712   -8.9618097    495.80367  0.012670031  0.012209109         2320 
 3262000   0.72725814   -8.9494618    495.50596  0.012658542  0.012204092         2343 
 3263000   0.72944962    -8.930678    495.30207  0.012649455  0.012199067         2339 
 3264000   0.73383717    -8.936188    496.51059  0.012676435  0.012194055         2397 
 3265000   0.71892389   -8.9678813    494.56515  0.012622898  0.012189036         2385 
 3266000   0.72756937   -8.9793004    495.50199  0.012642937  0.012184023         2398 
 3267000   0.74364141   -8.9564484    496.00761  0.012651964  0.012179012         2404 
 3268000   0.71805266   -8.9793965    495.27206  0.012629337  0.012173996         2445 
 3269000   0.72288954   -8.9816178    494.64593  0.012609512  0.012168984         2409 
 3270000   0.74276695    -8.966288    495.31722  0.012622763  0.012163967         2453 
 3271000   0.71939792   -9.0016156    494.37441  0.012594884   0.01215895         2501 
 3272000   0.73211021   -8.9996709    494.80538  0.012602012  0.012153918         2501 
 3273000   0.74817077   -8.9789997    495.48724  0.012615522  0.012148894         2492 
 3274000   0.73276963   -8.9991157    495.09276  0.012601628  0.012143862         2527 
 3275000   0.71389053   -8.9929162    495.08838  0.012597669  0.012138829         2521 
 3276000   0.72506654   -8.9848028    494.31297  0.012574099    0.0121338         2552 
 3277000   0.73156257   -9.0048819    494.63662  0.012578492  0.012128762         2634 
 3278000   0.72188327    -8.991522    495.13113  0.012587226  0.012123733         2622 
 3279000   0.71487717   -9.0099804    495.47508  0.012592129  0.012118702         2565 
 3280000   0.73049735   -9.0223529    494.52625  0.012564183  0.012113672         2631 
 3281000   0.72632236   -9.0085448    493.77368  0.012541239  0.012108637         2620 
 3282000   0.71648561    -8.990781    494.31552  0.012551176   0.01210362         2621 
 3283000   0.73244774    -9.000926    494.99313  0.012564553  0.012098593         2619 
 3284000   0.73647088    -9.036985    494.37805  0.012545119  0.012093565         2699 
 3285000    0.7171744   -8.9976607     494.7948  0.012551872  0.012088539         2661 
 3286000   0.72344758   -9.0286159    493.89918  0.012525339  0.012083503         2734 
 3287000   0.73080447   -9.0292441    494.64051  0.012540323  0.012078477         2692 
 3288000   0.73146635   -9.0119023    493.69157  0.012512459  0.012073437         2779 
 3289000   0.72542677   -9.0113134    493.46307  0.012502865  0.012068407         2774 
 3290000    0.7097694   -9.0158132    494.00442  0.012512776   0.01206337         2829 
 3291000   0.70953582   -9.0501579    494.05261  0.012510195   0.01205833         2830 
 3292000   0.71601612   -9.0188554    494.04511  0.012506205  0.012053287         2837 
 3293000   0.72204484   -9.0382295    492.92379   0.01247403  0.012048239         2871 
 3294000   0.73623063    -9.074263    493.63979  0.012488357  0.012043183         2935 
 3295000   0.70766625   -9.0534975     492.5081  0.012455946  0.012038131         2954 
 3296000   0.72272306   -9.0535084    493.69618  0.012482205  0.012033085         2960 
 3297000   0.72001552   -9.0568784    494.17137   0.01249043  0.012028031         2995 
 3298000    0.7287787   -9.0611565    493.01222  0.012457353  0.012022974         2948 
 3299000   0.71361118   -9.0749512    492.99675  0.012453186  0.012017916         2965 
 3300000   0.73137253   -9.0783919    492.55225  0.012438188  0.012012855         2972 
 3301000   0.72426506    -9.078758    492.25851  0.012427005  0.012007796         3031 
 3302000   0.71694183   -9.0685098    492.80002  0.012436907  0.012002737         2983 
 3303000   0.72049372   -9.0875721    492.92497  0.012436294  0.011997674         3045 
 3304000   0.72326466   -9.0809526    493.18722  0.012439145  0.011992608         3041 
 3305000   0.73824172   -9.0995843    493.03816  0.012431623  0.011987544         3033 
 3306000    0.7327656   -9.0829683    491.97545  0.012401075  0.011982474         3033 
 3307000   0.72327344    -9.068516    493.12595  0.012426317  0.011977415         3010 
 3308000   0.73156004   -9.1178802    492.30907  0.012401982   0.01197235         3022 
 3309000   0.71919811   -9.0854166    492.10358  0.012393059  0.011967286         3034 
 3310000    0.7242777    -9.133121     491.8871  0.012383864   0.01196222         3050 
 3311000   0.71760366   -9.0898583    493.27948  0.012415169  0.011957157         3045 
 3312000   0.71990789   -9.1017239    491.93485  0.012377588  0.011952105         3030 
 3313000   0.72186786    -9.089022    492.43715  0.012386486  0.011947044         3065 
 3314000   0.71198531   -9.0973329    492.21186  0.012377083  0.011941989         3052 
 3315000   0.70493369   -9.1194265    492.11874  0.012371009  0.011936928         3091 
 3316000    0.7088682   -9.1067228    492.87856  0.012386373  0.011931876         3076 
 3317000   0.71319344   -9.0965314    493.08842  0.012387911  0.011926836         3080 
 3318000   0.72812949   -9.0867733    491.84578  0.012352968  0.011921783         3148 
 3319000   0.72249567    -9.099985    492.40979  0.012363407  0.011916737         3112 
 3320000   0.72671197   -9.1044382    492.80906  0.012369705  0.011911686         3146 
 3321000   0.71940381   -9.1160842    492.07297   0.01234751  0.011906641         3110 
 3322000   0.71988283   -9.1211029    492.27627  0.012348893    0.0119016         3170 
 3323000   0.72306637   -9.1068299    491.01559  0.012313562  0.011896546         3125 
 3324000   0.70787633   -9.1080352     491.6981  0.012326968  0.011891502         3136 
 3325000   0.71895545   -9.1437455    491.78488  0.012325436  0.011886458         3151 
 3326000   0.71201589   -9.1333391    491.56819    0.0123163  0.011881415         3150 
 3327000    0.7112496   -9.1220649    491.77143  0.012317689  0.011876376         3157 
 3328000   0.71204674   -9.1135229    492.83672  0.012340663  0.011871339         3184 
 3329000   0.70988515   -9.1213311    492.11007  0.012318766    0.0118663         3166 
 3330000   0.70683856   -9.1254558    491.32335  0.012295379  0.011861262         3212 
 3331000   0.72845656   -9.1259804     492.7513  0.012327412  0.011856226         3219 
 3332000   0.73291969    -9.129716    491.12319  0.012282993  0.011851193         3164 
 3333000   0.72017061   -9.1224306     491.4742  0.012288084  0.011846161         3193 
 3334000   0.73177583   -9.1597415    490.63563  0.012263438  0.011841132         3216 
 3335000   0.72879755    -9.117103    491.60182  0.012283904  0.011836099         3193 
 3336000   0.71634055   -9.1286822     490.9897  0.012264931  0.011831064         3230 
 3337000   0.69929434   -9.1373509    491.63301   0.01227732  0.011826031         3244 
 3338000    0.7209696   -9.1519298     491.3322  0.012266132  0.011821005         3219 
 3339000   0.73594643   -9.1401054    491.42236  0.012264709  0.011815984         3255 
 3340000   0.72926276   -9.1563485    490.10725  0.012228225  0.011810958         3248 
 3341000   0.74085028   -9.1464602    491.05866  0.012248295  0.011805932         3278 
 3342000   0.71543683   -9.1410948    491.82342    0.0122637  0.011800905         3219 
 3343000    0.7055255   -9.1522967    491.54288  0.012253038  0.011795878         3246 
 3344000   0.71054661   -9.1771468    491.60793  0.012250995  0.011790847         3250 
 3345000   0.72143336   -9.1440083    491.27674  0.012239082  0.011785818         3214 
 3346000   0.71810252   -9.1811044    490.51131  0.012216361  0.011780795         3276 
 3347000   0.73081593   -9.1495021     490.9858  0.012224524   0.01177577         3269 
 3348000   0.72917006    -9.128991    491.59191   0.01223596  0.011770751         3263 
 3349000   0.72326758   -9.1474928    490.98476  0.012217198  0.011765731         3222 
 3350000   0.72273103   -9.1586888    490.45422  0.012200354  0.011760711         3211 
 3351000   0.70864404   -9.1536721     490.5448  0.012198966  0.011755696         3257 
 3352000   0.72347338   -9.1811926    489.91779  0.012179738  0.011750675         3318 
 3353000   0.70705423    -9.174243    490.50399  0.012190675  0.011745663         3307 
 3354000   0.73076283   -9.1634404    490.53085  0.012187707  0.011740645         3300 
 3355000   0.72381961   -9.1497596    491.44819   0.01220686   0.01173563         3314 
 3356000   0.71408134   -9.1655923    490.26351  0.012173806  0.011730613         3306 
 3357000   0.72413285      -9.1823    490.27301  0.012170415  0.011725596         3342 
 3358000   0.71671301   -9.1683634    491.03553  0.012185714  0.011720588         3303 
 3359000   0.70781036    -9.158187    489.51647    0.0121444  0.011715572         3305 
 3360000   0.73165891    -9.181132     490.2245  0.012158346   0.01171056         3389 
 3361000   0.71875462   -9.1767442    490.54939  0.012162784  0.011705552         3375 
 3362000    0.7156284   -9.1761462    491.15331  0.012174135  0.011700536         3378 
 3363000   0.70729138   -9.1807291    491.67925  0.012183548  0.011695521         3403 
 3364000   0.71390665   -9.2011305    490.90227  0.012160678  0.011690509         3405 
 3365000   0.71252902   -9.1935697    489.86857  0.012131465    0.0116855         3426 
 3366000   0.70606046    -9.180311    490.32028  0.012139044  0.011680491         3428 
 3367000   0.70680373   -9.2077457    490.50989  0.012140132  0.011675486         3451 
 3368000   0.70637302   -9.1950748    490.20143  0.012128895  0.011670477         3439 
 3369000   0.70713798   -9.1816743    491.17271   0.01214932  0.011665476         3414 
 3370000   0.70916783   -9.1984764    490.50945  0.012129314  0.011660482         3459 
 3371000   0.71323966   -9.1771981    490.82972  0.012133633  0.011655496         3430 
 3372000   0.70490167   -9.1786619    490.54265   0.01212294  0.011650508         3473 
 3373000   0.71610446   -9.1731549    491.07414  0.012132477  0.011645531         3425 
 3374000   0.71744711   -9.1864005    489.74944  0.012096163  0.011640542         3414 
 3375000   0.69102099    -9.198584    489.97056  0.012098038  0.011635554         3406 
 3376000   0.71667507   -9.1890631    490.51629  0.012107926  0.011630564         3435 
 3377000   0.70879042   -9.1755175    491.13611  0.012119636  0.011625575         3399 
 3378000   0.70130996   -9.1726801    491.40869  0.012122772  0.011620592         3457 
 3379000   0.70716638   -9.1915594     489.8911  0.012081757  0.011615607         3465 
 3380000   0.72606797   -9.1997362    489.87798   0.01207786  0.011610636         3459 
 3381000   0.70418946   -9.1975638    489.66039  0.012068924  0.011605657         3450 
 3382000   0.70870711   -9.1637407    490.37144  0.012082876  0.011600683         3497 
 3383000   0.71975307    -9.205922    489.68687  0.012062441  0.011595712         3489 
 3384000   0.70962518   -9.1877219    490.27819  0.012073438  0.011590736         3461 
 3385000   0.70901494   -9.2044046     489.7421  0.012056674  0.011585765         3508 
 3386000   0.70258352   -9.2135273    489.62052  0.012050121  0.011580798         3487 
 3387000   0.70470006   -9.1895283    490.14201  0.012059394  0.011575823         3486 
 3388000   0.69797135   -9.1802687    489.83833  0.012048365  0.011570856         3470 
 3389000   0.73075195   -9.2076418    489.89265  0.012046146  0.011565895         3501 
 3390000   0.72429238   -9.2171697    489.26277  0.012027108  0.011560927         3541 
 3391000   0.70666469   -9.1752236    489.89852  0.012039185  0.011555963         3498 
 3392000   0.72766956   -9.2159358    489.50167  0.012025886  0.011550998         3478 
 3393000   0.71022887   -9.2229629    489.33339  0.012018209  0.011546044         3499 
 3394000   0.71376524   -9.1880441    489.52725  0.012019428  0.011541083         3561 
 3395000   0.71406439    -9.222339    488.96635  0.012002119  0.011536122         3509 
 3396000   0.69369381   -9.2000229    489.37086  0.012008511  0.011531165         3540 
 3397000   0.71223222   -9.2139018    489.00631  0.011996033  0.011526213         3557 
 3398000   0.70402371    -9.193887    489.46877  0.012003845  0.011521259         3568 
 3399000    0.7160288   -9.2001538    489.53375  0.012001906  0.011516309         3556 
 3400000   0.70610013   -9.2048752    490.06417  0.012011377  0.011511362         3552 
 3401000   0.70098292   -9.2145965    489.06767  0.011983428  0.011506413         3525 
 3402000   0.70803984    -9.193709    489.55141  0.011991755  0.011501472         3591 
 3403000    0.6983224   -9.2150289    489.10571  0.011977317  0.011496529         3589 
 3404000   0.71960204    -9.216592     490.1364  0.011999031  0.011491592         3611 
 3405000   0.70761449   -9.1844798    490.38251   0.01200153  0.011486656         3542 
 3406000   0.70536626    -9.197449    489.86209  0.011985273  0.011481723         3574 
 3407000    0.7071447   -9.1883386    490.49894  0.011997332  0.011476791         3584 
 3408000   0.70223739    -9.208815    489.05373  0.011958473  0.011471862         3606 
 3409000   0.71125641   -9.2000861     489.9679  0.011977313  0.011466937         3567 
 3410000   0.70804886   -9.1943185    490.30726  0.011982093  0.011462015         3522 
 3411000   0.70950852   -9.2051739    489.17649  0.011950955  0.011457092         3537 
 3412000    0.7114101   -9.2063563    488.89439  0.011940562   0.01145217         3547 
 3413000   0.70897775    -9.219761    488.91738  0.011937625  0.011447247         3542 
 3414000   0.70532036   -9.1865598    488.84572  0.011932379  0.011442332         3538 
 3415000   0.71796706   -9.2017008    489.93541  0.011955476   0.01143742         3593 
 3416000   0.71681328   -9.1998483    488.94458  0.011927805  0.011432513         3580 
 3417000   0.70915753    -9.194653    489.39901  0.011935397  0.011427603         3555 
 3418000    0.7129867   -9.2152151    489.65347  0.011938109    0.0114227         3526 
 3419000   0.70447792   -9.2137209    489.99268  0.011942885  0.011417799         3565 
 3420000   0.70413145   -9.2059615    489.42237  0.011925496  0.011412892         3541 
 3421000   0.70610321   -9.2260027    488.81393  0.011907189  0.011407992         3581 
 3422000    0.7098678   -9.2273586    489.09234  0.011910489  0.011403098         3556 
 3423000   0.70730612   -9.2440073    489.78789  0.011923943  0.011398206         3526 
 3424000   0.69629244   -9.2273211    488.74591  0.011895101  0.011393312         3572 
 3425000   0.71166648   -9.2292998    488.86308  0.011894479  0.011388422         3520 
 3426000   0.70567986   -9.2204041    489.29568   0.01190153  0.011383536         3542 
 3427000    0.6886278   -9.2210318    489.01875  0.011891323  0.011378651         3514 
 3428000   0.69584818   -9.2326121    489.10381  0.011889922  0.011373765         3594 
 3429000   0.71966686   -9.2318726    488.23457  0.011865329  0.011368882         3576 
 3430000   0.70196835   -9.2188863    489.20343  0.011885409  0.011364001         3583 
 3431000   0.69591814   -9.2311624    488.62022   0.01186778  0.011359122         3575 
 3432000   0.70504924   -9.2291498    489.50373  0.011885774  0.011354247         3585 
 3433000   0.70873568   -9.2374047    489.28334  0.011876962  0.011349366         3621 
 3434000   0.69715312   -9.2420291    488.57153   0.01185623  0.011344487         3624 
 3435000   0.71068853   -9.1970854    489.31883  0.011870908  0.011339612         3596 
 3436000   0.70130155   -9.2244545    489.21068   0.01186483  0.011334743         3593 
 3437000   0.71002698   -9.2331669    488.58354  0.011846173  0.011329871         3574 
 3438000   0.70428413   -9.2251125    488.69285  0.011845376  0.011325004         3538 
 3439000   0.70817759   -9.2311449    488.99139  0.011849166  0.011320141         3581 
 3440000   0.70221191   -9.2174527    488.39704  0.011831324  0.011315276         3564 
 3441000   0.68505253   -9.2212158     489.4084  0.011852378   0.01131042         3570 
 3442000   0.70031558   -9.2250349    489.37874  0.011848217  0.011305556         3547 
 3443000   0.70366169   -9.2238413    488.90828  0.011833389    0.0113007         3578 
 3444000   0.69231409   -9.2316404     489.3978  0.011841797  0.011295846         3591 
 3445000   0.69956581   -9.2436091    489.29492  0.011835871  0.011290993         3569 
 3446000   0.70377035   -9.2519613    489.20596  0.011830285  0.011286145         3582 
 3447000   0.69913609   -9.2550297    488.62463  0.011812799  0.011281306         3597 
 3448000   0.70196167   -9.2480283    488.54139  0.011807362  0.011276462         3623 
 3449000   0.69564107   -9.2083295    489.21492  0.011820212  0.011271618         3613 
 3450000   0.68070265    -9.218511    489.23272  0.011817215  0.011266781         3584 
 3451000   0.69323206   -9.2434753      488.885  0.011805395  0.011261946         3567 
 3452000   0.70694192   -9.2300917    488.55564  0.011794024  0.011257112         3582 
 3453000   0.71955043   -9.2228364    489.15907  0.011805171  0.011252289         3626 
 3454000   0.69907938   -9.2342606    489.64441  0.011813463  0.011247461         3609 
 3455000    0.7067212   -9.2413955     488.4984  0.011782402  0.011242629         3610 
 3456000   0.69211779   -9.2428233    488.75559  0.011785195  0.011237804         3609 
 3457000   0.71323998   -9.2433337    488.75076  0.011781669  0.011232982         3554 
 3458000   0.69730644   -9.2260394    488.83419  0.011780273  0.011228161         3597 
 3459000   0.70885308   -9.2333191     488.3045  0.011764106  0.011223348         3607 
 3460000   0.69939914   -9.2585849    488.00852  0.011753577  0.011218528         3624 
 3461000   0.70528717   -9.2655647    488.77046  0.011768527   0.01121371         3615 
 3462000   0.69074678   -9.2571526     488.7993  0.011765822  0.011208901         3615 
 3463000   0.69786108   -9.2392623    488.40205  0.011752865  0.011204091         3574 
 3464000   0.71216202   -9.2225164     488.8137  0.011759375  0.011199283         3609 
 3465000   0.68455497   -9.2356054    488.59177  0.011750644  0.011194478         3580 
 3466000   0.68296437   -9.2463604    488.25548  0.011739168  0.011189677         3601 
 3467000   0.67896453   -9.2523971    489.69848  0.011770466  0.011184873         3622 
 3468000    0.7071438   -9.2459704    487.75245  0.011720311  0.011180072         3605 
 3469000   0.69611798   -9.2534615     487.6401  0.011714233  0.011175274         3618 
 3470000   0.69302163   -9.2493782    488.87233   0.01174045  0.011170478         3592 
 3471000   0.70530841   -9.2462174    488.16089  0.011719987  0.011165686         3606 
 3472000   0.71246728   -9.2378187    487.88771  0.011710054  0.011160888         3612 
 3473000   0.69689505   -9.2328941    488.13268  0.011712561  0.011156095         3593 
 3474000   0.70278031   -9.2418155    488.81277  0.011725503  0.011151311         3563 
 3475000   0.70388533   -9.2450275    489.11377  0.011729347  0.011146521         3622 
 3476000   0.70036235    -9.241721    488.46064  0.011710314  0.011141737         3596 
 3477000   0.69260647   -9.2501107    488.66453  0.011711833  0.011136962         3588 
 3478000    0.6888976   -9.2547868    488.75009  0.011710516  0.011132182         3628 
 3479000   0.69206854   -9.2626224    488.56566  0.011702732  0.011127408         3611 
 3480000   0.69478366   -9.2624273    488.70343  0.011702668  0.011122634         3592 
 3481000   0.68888153   -9.2394404    488.55382  0.011695725   0.01111786         3618 
 3482000   0.69153882   -9.2492066    488.40371  0.011688773  0.011113099         3589 
 3483000   0.69321766    -9.253519    488.46174  0.011686806  0.011108333         3633 
 3484000   0.70687628   -9.2428699    487.81416  0.011667962  0.011103569         3619 
 3485000   0.71276455   -9.2464752    488.81116  0.011688454  0.011098811         3599 
 3486000   0.69040421   -9.2330338    489.05972  0.011691043  0.011094052         3645 
 3487000   0.70036752   -9.2612135    487.32708  0.011646283  0.011089292         3647 
 3488000   0.70543943   -9.2597114    488.42425  0.011669157  0.011084542         3590 
 3489000   0.69222083   -9.2509876    489.11134  0.011682224  0.011079788         3610 
 3490000   0.69969753   -9.2549688    488.31935  0.011659965  0.011075039         3634 
 3491000   0.68255154   -9.2520083    488.11687  0.011651792   0.01107029         3619 
 3492000   0.68908691   -9.2677756    488.42059  0.011655703  0.011065545         3624 
 3493000   0.70080306    -9.273391    488.51701  0.011654667    0.0110608         3631 
 3494000   0.67463508   -9.2691284    488.97355   0.01166222  0.011056061         3655 
 3495000   0.67657441   -9.2697928    488.30112   0.01164285  0.011051321         3604 
 3496000   0.69624125   -9.2599328    488.69958  0.011649017  0.011046579         3637 
 3497000   0.69188469   -9.2327535    489.04073  0.011653816  0.011041842         3621 
 3498000   0.69529119   -9.2569862    488.53761  0.011638498  0.011037108         3627 
 3499000   0.68202222   -9.2424892    488.92629  0.011644429  0.011032379         3590 
 3500000    0.7002268   -9.2620244    489.01791  0.011643284  0.011027647         3633 
 3501000   0.70241506   -9.2425265     488.4784  0.011627116  0.011022922         3618 
 3502000   0.68000024   -9.2401452    488.37994  0.011621453  0.011018202         3644 
 3503000   0.67472464   -9.2572921     488.8662  0.011629703   0.01101348         3624 
 3504000   0.70272993   -9.2736077    488.07951  0.011607675  0.011008764         3631 
 3505000   0.69614298   -9.2596048    488.35506  0.011610914  0.011004049         3618 
 3506000   0.70292429   -9.2528951    488.74604  0.011616896  0.010999338         3605 
 3507000    0.6944192   -9.2543334    488.17376  0.011599985  0.010994626         3634 
 3508000   0.69977194   -9.2430722     489.4356  0.011626653  0.010989922         3638 
 3509000   0.68236325   -9.2680313    487.74305  0.011583145  0.010985214         3632 
 3510000   0.69297238   -9.2467723    487.85111   0.01158241  0.010980508         3639 
 3511000    0.7005989   -9.2511788    488.93564  0.011604852   0.01097581         3582 
 3512000   0.69767715   -9.2664978    487.81865  0.011575044  0.010971114         3626 
 3513000   0.70513237   -9.2501179    488.79299  0.011594862  0.010966419         3624 
 3514000   0.70405914   -9.2575661    488.28475  0.011579509  0.010961726         3638 
 3515000   0.69459325   -9.2551609     487.9678  0.011568701  0.010957038         3666 
 3516000   0.70009023   -9.2779763    488.22361  0.011571473  0.010952349         3658 
 3517000   0.68947285   -9.2591466    487.92209  0.011561039  0.010947665         3645 
 3518000   0.70038121   -9.2486032    488.53091  0.011572174  0.010942982         3610 
 3519000    0.6898861   -9.2723954    488.30093   0.01156344  0.010938302         3652 
 3520000   0.68017442   -9.2719829    488.12176  0.011555913  0.010933624         3614 
 3521000   0.66779841   -9.2688217    488.33829  0.011557756  0.010928953         3608 
 3522000   0.67816588   -9.2431409    488.21333  0.011551517   0.01092428         3631 
 3523000    0.6937337   -9.2576427    488.93104  0.011565215  0.010919616         3659 
 3524000   0.68712749    -9.284489    486.93108   0.01151464  0.010914948         3649 
 3525000   0.69084823   -9.2849477    488.52569  0.011549071  0.010910283         3650 
 3526000   0.67418409   -9.2668212    487.75346  0.011527544  0.010905616         3620 
 3527000   0.68201982    -9.275063    488.50138  0.011541947  0.010900957         3637 
 3528000   0.68382485    -9.292761    487.38256  0.011512249  0.010896297         3608 
 3529000   0.69093809    -9.261514    488.85415  0.011543736  0.010891643         3621 
 3530000   0.67468363   -9.2595034    488.02615   0.01152092  0.010886995         3614 
 3531000    0.6784341   -9.2614461    487.45861  0.011504263  0.010882338         3673 
 3532000    0.6643421   -9.2687287    488.70069  0.011530311  0.010877684         3632 
 3533000   0.67333763   -9.2844555    487.61813  0.011501513   0.01087303         3625 
 3534000   0.69292855   -9.2880886    488.11521  0.011509979  0.010868379         3631 
 3535000   0.68078431   -9.2826532     487.8296  0.011499991  0.010863731         3627 
 3536000   0.69744384    -9.260708    487.81389  0.011496368  0.010859084         3686 
 3537000   0.69941408   -9.2744826    488.41372   0.01150725  0.010854441         3674 
 3538000   0.67222596   -9.2477595    487.95705  0.011493241  0.010849796         3700 
 3539000   0.68935544   -9.2733952    487.84376  0.011487326  0.010845151         3668 
 3540000   0.68369947   -9.2696086    488.21239  0.011492759   0.01084051         3683 
 3541000     0.689412    -9.275662    488.45572   0.01149524  0.010835868         3664 
 3542000   0.69139898   -9.2758095    487.85538   0.01147787  0.010831228         3666 
 3543000   0.68815415    -9.298126     487.9605  0.011477103  0.010826598         3631 
 3544000   0.70223207   -9.2773022    488.36913  0.011483473  0.010821965         3676 
 3545000    0.6952882   -9.2618131     488.0783  0.011473397  0.010817336         3710 
 3546000   0.69619862   -9.3006099    486.97398  0.011444209  0.010812707         3677 
 3547000   0.68541393   -9.2863174    487.64725    0.0114568  0.010808077         3743 
 3548000    0.6860548   -9.2694045    488.04637  0.011462946  0.010803446         3712 
 3549000   0.69578593    -9.286839    486.87565  0.011432226  0.010798819         3658 
 3550000   0.69939485   -9.2847875    487.06053  0.011433346  0.010794198         3688 
 3551000   0.67713555   -9.2752592     487.8518  0.011448695  0.010789578         3660 
 3552000   0.69423458   -9.2866727    487.14822  0.011428965  0.010784959         3694 
 3553000   0.70296782    -9.289485    487.67831  0.011438182  0.010780345         3720 
 3554000   0.66850197   -9.2829727     486.8596  0.011415766  0.010775731         3707 
 3555000    0.6767211   -9.2748419    487.46297  0.011426699  0.010771122         3669 
 3556000   0.67837334   -9.2941854    486.30776  0.011396414   0.01076651         3704 
 3557000   0.69645653   -9.2921838    487.55629   0.01142246  0.010761905         3673 
 3558000    0.6758026   -9.2870769    486.65568  0.011398156  0.010757303         3702 
 3559000   0.67792469   -9.3120661    486.91147  0.011400943    0.0107527         3700 
 3560000   0.68392065   -9.2692562    487.66404  0.011415357  0.010748099         3660 
 3561000   0.69264413   -9.2484756    488.06569   0.01142155  0.010743502         3692 
 3562000   0.68329294   -9.2961151    487.97901  0.011416316  0.010738903         3731 
 3563000    0.6908122   -9.3087224    487.44216  0.011400556  0.010734308         3673 
 3564000    0.6844837    -9.306561    486.74246  0.011380997  0.010729718         3664 
 3565000   0.69035378   -9.2994063    487.89411  0.011404724  0.010725126         3685 
 3566000   0.69139435   -9.2876503    487.51684   0.01139271  0.010720534         3686 
 3567000   0.66962388   -9.3098663    487.42143  0.011387287  0.010715944         3709 
 3568000   0.68968521   -9.2884438    487.49154  0.011385733   0.01071136         3693 
 3569000   0.67431182   -9.2956123    486.49797  0.011359344  0.010706782         3665 
 3570000   0.68796156   -9.2681945    487.34474  0.011375928  0.010702204         3660 
 3571000   0.67209437    -9.314417    487.83445   0.01138417   0.01069763         3654 
 3572000   0.67952469   -9.2877312     487.8149  0.011380527  0.010693059         3647 
 3573000   0.68921871   -9.3003532    487.02798  0.011358988  0.010688489         3698 
 3574000   0.68295062   -9.2886252    487.08252  0.011357082  0.010683916         3688 
 3575000    0.6838682   -9.2984225    487.31228  0.011359261  0.010679339         3692 
 3576000   0.67461525   -9.3212433    486.29012  0.011332264  0.010674772         3710 
 3577000   0.67723705   -9.3118821    486.15181  0.011325874  0.010670205         3677 
 3578000   0.68835775   -9.3022924    487.69175  0.011358574  0.010665648         3670 
 3579000   0.67613767   -9.3222068     487.0825  0.011341215  0.010661087         3672 
 3580000   0.66492044   -9.3210056    488.12241  0.011362253   0.01065653         3682 
 3581000   0.67806691   -9.3131776    486.81669  0.011328695  0.010651976         3708 
 3582000   0.67339254   -9.3065757    487.73463  0.011346888  0.010647426         3691 
 3583000   0.68218101   -9.2816298    487.17724  0.011330757  0.010642878         3702 
 3584000   0.67619213   -9.3184106    487.23931  0.011329039  0.010638328         3698 
 3585000   0.67863391   -9.3093179    487.58455  0.011333904  0.010633781         3726 
 3586000   0.68069933   -9.2968088    486.90471  0.011314945  0.010629238         3718 
 3587000   0.67955202   -9.3208673    487.71959  0.011330722  0.010624699         3713 
 3588000   0.67649377   -9.2968606    487.42326  0.011320681  0.010620164         3700 
 3589000   0.67551543   -9.2804453    486.52123  0.011296583  0.010615633         3686 
 3590000   0.67297076   -9.2785987    487.09211  0.011306688  0.010611104         3699 
 3591000   0.67322663   -9.3025491    487.15521  0.011305003  0.010606575         3723 
 3592000   0.69260323   -9.2773248    487.34434  0.011306244   0.01060205         3700 
 3593000   0.67802113   -9.2916334     486.8621  0.011291913  0.010597528         3702 
 3594000   0.67572583   -9.2878127     487.2547  0.011297874  0.010593003         3697 
 3595000   0.66512434   -9.3140574    486.83182  0.011284929  0.010588482         3721 
 3596000   0.66535724    -9.315836    486.53644  0.011274945  0.010583961         3711 
 3597000   0.67810984   -9.3065325    486.69894  0.011275575  0.010579448         3698 
 3598000   0.66644239   -9.3094736    487.51092  0.011291248  0.010574933         3722 
 3599000    0.6836116   -9.3052128    487.00111  0.011276306  0.010570421         3725 
 3600000   0.67054585   -9.3070001    486.49536  0.011261467  0.010565911         3720 
 3601000   0.65926436   -9.2965654    487.06503  0.011271522  0.010561403         3729 
 3602000   0.66953361   -9.2712692    487.84289  0.011286389  0.010556901         3731 
 3603000   0.67185765   -9.3020483     487.1066  0.011266227  0.010552399         3733 
 3604000   0.67136807   -9.2936897    488.45714  0.011294329  0.010547903         3681 
 3605000   0.66006689   -9.3005113    487.69664  0.011273616   0.01054341         3714 
 3606000   0.69269431   -9.2931307    487.40566  0.011263765  0.010538917         3668 
 3607000   0.68395047   -9.3145442    486.04255   0.01122915  0.010534426         3697 
 3608000   0.67726284    -9.311372    487.06178  0.011249579  0.010529934         3725 
 3609000    0.6845719   -9.3017997    487.27915  0.011251481  0.010525448         3708 
 3610000   0.67062268   -9.3186969    487.15094  0.011245405   0.01052096         3720 
 3611000   0.68009111   -9.3114994    486.12893  0.011218705  0.010516478         3713 
 3612000   0.66407865   -9.3104212    486.51915  0.011224602  0.010512001         3708 
 3613000   0.67327415   -9.3270404    487.00669   0.01123274  0.010507527         3749 
 3614000   0.67430072   -9.2940112    488.10386  0.011254931  0.010503051         3691 
 3615000   0.67378376   -9.3197906    486.00053  0.011203332  0.010498583         3701 
 3616000   0.68049443   -9.2895855    487.31404  0.011230504  0.010494112         3710 
 3617000   0.67449325   -9.2777408    487.35069  0.011228244  0.010489645         3710 
 3618000   0.66001199    -9.320943    486.53239  0.011206292  0.010485182         3682 
 3619000   0.68385079   -9.3272568    486.86583  0.011210874  0.010480715         3714 
 3620000   0.67858228   -9.3082831    486.76941  0.011205557  0.010476253         3712 
 3621000    0.6651209   -9.2940417    486.87788  0.011204959  0.010471794         3682 
 3622000   0.67975001   -9.3110187    486.85384  0.011201312  0.010467336         3674 
 3623000   0.67928716   -9.3138747    486.69558  0.011194581  0.010462882         3669 
 3624000   0.67107487   -9.3071271    486.72091  0.011192074  0.010458429         3724 
 3625000   0.67712153   -9.3069268    487.29971  0.011202292  0.010453978         3680 
 3626000   0.67407003   -9.3065331       487.04  0.011193234  0.010449531         3707 
 3627000   0.66960751   -9.3301218    487.15441  0.011192777  0.010445091         3695 
 3628000   0.67145428   -9.3113948    487.31608  0.011193405  0.010440646         3680 
 3629000   0.67301588   -9.3333609    487.85307  0.011202652  0.010436212         3692 
 3630000   0.66408007   -9.3036591    487.54034  0.011192386  0.010431773         3703 
 3631000   0.67110866    -9.309601    486.44614  0.011164191  0.010427338         3665 
 3632000   0.66799759    -9.331088    487.29729  0.011180646  0.010422907         3709 
 3633000   0.66873938   -9.3234444    486.08884   0.01114985  0.010418478         3693 
 3634000     0.674735   -9.3240331      487.098  0.011169923  0.010414051         3724 
 3635000    0.6787174   -9.3331434     487.3874  0.011173485  0.010409629         3693 
 3636000   0.66398299   -9.2973872    486.87243  0.011158609  0.010405208         3719 
 3637000   0.67004587   -9.3204655     486.9506  0.011157332  0.010400794         3722 
 3638000   0.66217609   -9.3366403    487.35883  0.011163616  0.010396374         3686 
 3639000    0.6684913   -9.3155707    486.45814  0.011139923  0.010391956         3703 
 3640000    0.6816356   -9.3263073    487.81767  0.011167987  0.010387543         3737 
 3641000   0.66898914   -9.3261141    486.68006  0.011138883  0.010383131         3730 
 3642000   0.66822443   -9.3313101    487.15174  0.011146617  0.010378727         3710 
 3643000   0.67583756   -9.3283783    486.94403  0.011138806  0.010374326         3694 
 3644000   0.66746705   -9.3191197    487.34881  0.011145006  0.010369924         3711 
 3645000      0.66528   -9.3091029    487.77017  0.011151581  0.010365519         3698 
 3646000   0.68250391   -9.3044003    487.38094  0.011139626  0.010361119         3679 
 3647000   0.67188747    -9.332086    486.87648  0.011125045  0.010356726         3694 
 3648000   0.67201717   -9.3139123    486.23523  0.011107347   0.01035233         3731 
 3649000   0.67930933   -9.3186959     487.0779  0.011123548  0.010347941         3709 
 3650000   0.65548805   -9.2985027    486.92078  0.011116913  0.010343549         3738 
 3651000   0.67100536   -9.3222506    486.37685  0.011101453  0.010339159         3668 
 3652000    0.6539489   -9.3183914    487.70058  0.011128619  0.010334778         3701 
 3653000   0.66857642   -9.3307519     487.0273  0.011110213  0.010330393         3725 
 3654000   0.66546059   -9.3324107    486.11032   0.01108626  0.010326011         3733 
 3655000   0.66949251   -9.3216683    486.89342  0.011101081  0.010321631         3703 
 3656000    0.6719948   -9.3195077    486.69847  0.011093601  0.010317252         3740 
 3657000   0.67681256   -9.3411723    487.43771  0.011107413  0.010312882         3683 
 3658000   0.67046798   -9.3172738    486.59641  0.011085211  0.010308513         3706 
 3659000   0.66965224   -9.3291918    485.67552  0.011061208  0.010304141         3697 
 3660000   0.66858075   -9.3324592    486.64471  0.011080253  0.010299776         3691 
 3661000   0.64856005   -9.3210933    487.07531  0.011087028  0.010295409         3694 
 3662000   0.68055846   -9.3332206    486.27903   0.01106588  0.010291044         3703 
 3663000    0.6660384   -9.2931645    486.45933  0.011066961  0.010286685         3672 
 3664000   0.66492509   -9.3154003    486.87631  0.011073424  0.010282329         3704 
 3665000   0.65035144   -9.3306899    487.28078  0.011079599  0.010277969         3701 
 3666000   0.66476421   -9.3044128    487.65328  0.011085045  0.010273616         3708 
 3667000   0.67186392   -9.3056247    487.10793  0.011069629  0.010269265         3695 
 3668000   0.65196363   -9.3257474    486.44552  0.011051561  0.010264918         3705 
 3669000   0.66186128   -9.3151023    486.45283  0.011048715  0.010260568         3668 
 3670000   0.66039691   -9.3286548    486.91024  0.011056091  0.010256223         3702 
 3671000    0.6559864   -9.3180277    486.23292  0.011037704  0.010251881         3739 
 3672000   0.66454857   -9.3124014    486.76222   0.01104671  0.010247546         3703 
 3673000   0.67289513   -9.3211573    485.95312  0.011025345  0.010243207         3696 
 3674000   0.65115021   -9.2966236    486.68835  0.011039021  0.010238871         3690 
 3675000   0.67390435   -9.3328702    486.01267  0.011020696  0.010234535         3697 
 3676000   0.66139653   -9.3278145    485.74604  0.011011653  0.010230208         3721 
 3677000   0.68388474   -9.3340676    487.12773  0.011039972  0.010225877         3727 
 3678000   0.65941546   -9.3155468    486.40155  0.011020517  0.010221546         3709 
 3679000   0.67779979    -9.323233    485.95854  0.011007487   0.01021722         3697 
 3680000   0.66506057    -9.329414    487.39476  0.011037019  0.010212896         3674 
 3681000    0.6556482   -9.3168257    486.85713  0.011021849  0.010208575         3719 
 3682000    0.6695995   -9.3099817    486.99733  0.011022029  0.010204254         3702 
 3683000   0.66366349   -9.3298224    486.83272  0.011015312  0.010199939         3710 
 3684000   0.66147638   -9.3105921    487.02076  0.011016575  0.010195623         3713 
 3685000   0.65427285   -9.3231635    487.42893  0.011022816  0.010191309         3714 
 3686000    0.6470377   -9.3186155    486.97671  0.011009602     0.010187         3727 
 3687000   0.67236059   -9.3304661    486.74217  0.011001315  0.010182689         3685 
 3688000   0.66549541   -9.3452783    486.37956  0.010990138  0.010178386         3729 
 3689000    0.6460738   -9.3343459     486.2122  0.010983378  0.010174088         3690 
 3690000    0.6460086   -9.3094994    487.00564  0.010998321  0.010169791         3715 
 3691000   0.65868524   -9.3573682    486.31275  0.010979697  0.010165488         3705 
 3692000   0.65007775   -9.3518129    486.32787  0.010977065  0.010161189         3682 
 3693000   0.65065576   -9.3339818     486.5687  0.010979527  0.010156897         3685 
 3694000   0.66701465   -9.3428533    486.21614  0.010968601  0.010152609         3715 
 3695000   0.66798077   -9.3446832    486.52623  0.010972626  0.010148322         3729 
 3696000   0.65165093   -9.3266795    486.72084  0.010974045  0.010144032         3731 
 3697000   0.65360656   -9.3225693     486.6649  0.010969816  0.010139746         3706 
 3698000   0.65995763   -9.3249225    485.74315  0.010946078  0.010135463         3733 
 3699000   0.66614588   -9.3501228     486.2105  0.010953647  0.010131183         3710 
 3700000   0.66402245   -9.3388057     486.6962  0.010961626  0.010126905         3692 
 3701000   0.66425946   -9.3110951    486.84858  0.010962095  0.010122632         3746 
 3702000   0.65830578   -9.3392244    485.86841   0.01093707  0.010118362         3752 
 3703000   0.66223135   -9.3391003    485.84102    0.0109335  0.010114088         3732 
 3704000   0.64380499   -9.3449089    486.32407  0.010941416  0.010109823         3729 
 3705000   0.66084172   -9.3432874    486.05179  0.010932339  0.010105558         3744 
 3706000   0.65184556   -9.3437404    486.14205  0.010931419  0.010101293         3693 
 3707000   0.65624691   -9.3334489    486.73074  0.010941703  0.010097033         3705 
 3708000   0.66454058   -9.3174841    486.98093  0.010944376  0.010092771         3700 
 3709000   0.65535484   -9.3237516     485.7749  0.010914328  0.010088513         3732 
 3710000   0.66395041   -9.3435346    486.42029  0.010925883  0.010084257         3652 
 3711000   0.66175178   -9.3137665    486.94118  0.010934635  0.010080001         3674 
 3712000   0.65370861   -9.3460847    485.93386  0.010909075  0.010075753         3682 
 3713000     0.659471   -9.3458127    486.93942  0.010928706  0.010071502         3695 
 3714000   0.65773537   -9.3518175    486.42044  0.010914119  0.010067254         3725 
 3715000    0.6640224   -9.3254314    485.88777  0.010899232  0.010063012         3708 
 3716000   0.66536423   -9.3369008    486.65952  0.010913606  0.010058771         3686 
 3717000   0.65783253   -9.3542032    486.61616  0.010909698  0.010054535         3748 
 3718000   0.66094099   -9.3105735    486.08759  0.010894916  0.010050299         3678 
 3719000   0.66712107   -9.3178449    486.90146  0.010910224  0.010046068         3695 
 3720000   0.66580154   -9.3252875    486.25621  0.010892836  0.010041838         3703 
 3721000   0.68049725   -9.3241111    486.14721  0.010887468  0.010037606         3701 
 3722000   0.66266768   -9.3417021    486.16377  0.010884913  0.010033377         3719 
 3723000   0.64358407   -9.3076747    486.56602  0.010890993  0.010029149         3697 
 3724000   0.65005903   -9.3220087    486.86647  0.010894792  0.010024922         3687 
 3725000   0.64904909   -9.3403865    485.43576   0.01085986  0.010020699         3713 
 3726000   0.67828613   -9.3143633    486.70696  0.010885377  0.010016482         3693 
 3727000   0.66177974   -9.3311334    485.58434  0.010857355  0.010012267         3707 
 3728000   0.64827668   -9.3454843    486.40655  0.010872822  0.010008054         3712 
 3729000   0.64894185   -9.3564466    486.32797   0.01086815  0.010003837         3732 
 3730000   0.66507643   -9.3566913    486.81675  0.010876156 0.0099996247         3700 
 3731000     0.667038   -9.3185827    485.99668  0.010854924 0.0099954179         3682 
 3732000   0.66020375   -9.3326691     485.8093  0.010847832 0.0099912099         3700 
 3733000   0.66256769    -9.338797    487.43638  0.010881248 0.0099870079         3727 
 3734000   0.65966778   -9.3491601    486.30857  0.010853164 0.0099828024         3691 
 3735000    0.6410121   -9.3371416    486.48066  0.010854098 0.0099786029         3698 
 3736000   0.66451713   -9.3329458    486.43841   0.01085025 0.0099744074         3694 
 3737000   0.65306011   -9.3511786    486.63994  0.010851841 0.0099702147         3698 
 3738000   0.65501375    -9.350509    485.91592  0.010832797 0.0099660218         3732 
 3739000   0.66349182   -9.3511213      486.354  0.010839663 0.0099618346         3714 
 3740000   0.65448514   -9.3243813    486.39557  0.010837691  0.009957646         3666 
 3741000   0.65467688   -9.3587023    486.56952  0.010838669 0.0099534615         3715 
 3742000   0.64972002   -9.3520224    485.85602  0.010819883 0.0099492766         3704 
 3743000   0.65467172      -9.3394    485.91775  0.010818366 0.0099450917         3715 
 3744000   0.65148482   -9.3252149    486.08371  0.010819171 0.0099409138         3688 
 3745000   0.66449345   -9.3377281    485.63357  0.010806265 0.0099367355         3662 
 3746000   0.65120851   -9.3299225    486.21584  0.010816334 0.0099325638         3664 
 3747000   0.65783058   -9.3474183    485.65891  0.010801061 0.0099283932         3692 
 3748000   0.65820203   -9.3567472    486.53838  0.010817733 0.0099242255         3720 
 3749000   0.64354886   -9.3449639    485.38393  0.010789187 0.0099200597         3697 
 3750000   0.65270779   -9.3312573    485.97157  0.010799368 0.0099158939         3703 
 3751000   0.65051243    -9.325997    487.28228  0.010825608 0.0099117316         3704 
 3752000    0.6457614   -9.3425027    486.66416  0.010808994 0.0099075706         3703 
 3753000   0.65189447   -9.3419263    485.39911  0.010778025 0.0099034099         3684 
 3754000   0.65301372   -9.3507009    485.98672  0.010788197 0.0098992549         3702 
 3755000   0.64698806   -9.3531104    485.95603  0.010784643 0.0098951001         3711 
 3756000    0.6624865   -9.3530896    486.15107  0.010786099  0.009890945         3711 
 3757000   0.65269591   -9.3480032    485.87221  0.010777043 0.0098867917         3712 
 3758000   0.66057549   -9.3482152    485.73466  0.010771125 0.0098826435         3677 
 3759000   0.64006098   -9.3600018    486.03336  0.010774882 0.0098784995         3667 
 3760000   0.64645824   -9.3427848    486.86372  0.010790419 0.0098743567         3671 
 3761000   0.64185978   -9.3326358    485.12202  0.010748959 0.0098702152         3708 
 3762000   0.64923324   -9.3472549    485.87345  0.010762747 0.0098660807         3700 
 3763000   0.65129319   -9.3556167    486.01382  0.010762995 0.0098619442         3712 
 3764000   0.64762623   -9.3405358     486.5249  0.010771451  0.009857813         3709 
 3765000   0.66118258   -9.3413194    486.44894  0.010766909 0.0098536778         3743 
 3766000    0.6597658    -9.343644    486.38374  0.010762607 0.0098495482         3690 
 3767000   0.64297337   -9.3354706    485.97237   0.01075065  0.009845419         3688 
 3768000   0.64962543   -9.3582358    485.86488  0.010745419 0.0098412966         3717 
 3769000   0.65613606   -9.3425831     485.8539  0.010742325 0.0098371742         3706 
 3770000   0.64276607   -9.3478378    486.23951     0.010748 0.0098330497         3717 
 3771000   0.65167254   -9.3298685    486.36335  0.010747886 0.0098289335         3682 
 3772000   0.64122936   -9.3459036    486.53249  0.010748774 0.0098248156         3720 
 3773000    0.6382058   -9.3516223    486.31785  0.010741184 0.0098207015         3694 
 3774000   0.65863885   -9.3761414    486.43277  0.010740875 0.0098165892         3701 
 3775000   0.64096824   -9.3237519    486.45478  0.010738516 0.0098124771         3691 
 3776000   0.64779273   -9.3488899    485.43964  0.010713269 0.0098083708         3699 
 3777000   0.65549055   -9.3372428    487.14865  0.010748139 0.0098042669         3683 
 3778000   0.64031388   -9.3359965    485.85481  0.010716755 0.0098001645         3688 
 3779000   0.64971209   -9.3654477    485.88713  0.010714632 0.0097960603         3704 
 3780000   0.64956152   -9.3422603    486.29252  0.010720735 0.0097919577         3707 
 3781000   0.66001409    -9.356133    486.56017  0.010723798 0.0097878599         3740 
 3782000   0.65018462    -9.360724    486.33574  0.010716017 0.0097837603         3725 
 3783000    0.6401894   -9.3454659    486.35199  0.010713543 0.0097796675         3730 
 3784000   0.64101297   -9.3587394    486.57412  0.010715603 0.0097755791         3702 
 3785000   0.64530884   -9.3636559    486.90473  0.010720051 0.0097714924         3748 
 3786000   0.66983773   -9.3598165    486.59495  0.010710401 0.0097674084         3649 
 3787000   0.67000108   -9.3498599    486.52191  0.010705966 0.0097633272         3678 
 3788000    0.6481273   -9.3561121    486.07358  0.010693277 0.0097592459         3711 
 3789000    0.6506763    -9.338789    485.63968  0.010680911 0.0097551658         3710 
 3790000   0.64478261   -9.3594683    485.06985  0.010665564 0.0097510881         3693 
 3791000   0.64867825   -9.3674216    485.54694  0.010673238  0.009747013         3719 
 3792000   0.63483594   -9.3255489    485.87647  0.010677665 0.0097429419         3702 
 3793000   0.64049543   -9.3277264    487.17504   0.01070338 0.0097388724         3679 
 3794000   0.64547699   -9.3671536    485.72055  0.010668612 0.0097348038         3712 
 3795000   0.64583763   -9.3422541    486.40416  0.010680812 0.0097307407         3728 
 3796000   0.64372783   -9.3531282    485.84634  0.010665752 0.0097266753         3683 
 3797000   0.64020474   -9.3402255    486.05165  0.010667449 0.0097226155         3710 
 3798000   0.63544061   -9.3510041    485.89353  0.010661171 0.0097185571         3745 
 3799000   0.65384441   -9.3704396    485.66391  0.010653328 0.0097144955         3703 
 3800000   0.64767002   -9.3755189    485.60233  0.010649174 0.0097104429         3683 
 3801000   0.63656957   -9.3607392    485.77172  0.010650086 0.0097063869         3714 
 3802000   0.64945537    -9.352279    486.46461  0.010662472 0.0097023389         3665 
 3803000   0.64303118   -9.3428817     486.6113  0.010662882 0.0096982901         3703 
 3804000   0.64970002   -9.3627279     485.5816  0.010637522 0.0096942443         3716 
 3805000   0.63738655   -9.3450983    485.94227  0.010642625 0.0096901972         3717 
 3806000   0.65804202   -9.3331293    486.22425  0.010646003 0.0096861544         3706 
 3807000   0.66295421   -9.3665687    485.86951  0.010635442  0.009682113         3700 
 3808000    0.6379269   -9.3539406    486.47588  0.010645918 0.0096780735         3717 
 3809000   0.64772646   -9.3526048    486.55317  0.010644814 0.0096740393         3697 
 3810000   0.63865245   -9.3470775     486.0275  0.010630523 0.0096700046         3706 
 3811000   0.65757059   -9.3624208    486.03194   0.01062783   0.00966597         3682 
 3812000   0.64865102   -9.3582444    485.92693  0.010622747 0.0096619398         3715 
 3813000   0.63541354   -9.3662411    485.18403  0.010603725 0.0096579107         3712 
 3814000   0.63168446    -9.374515    484.93993  0.010595611 0.0096538854         3677 
 3815000   0.63891613   -9.3479012    486.02333  0.010616499 0.0096498629         3687 
 3816000   0.63361796   -9.3534494    485.23541  0.010596511 0.0096458387         3710 
 3817000   0.63601848   -9.3760847    486.49763  0.010621291 0.0096418188         3720 
 3818000   0.64490156   -9.3575188    485.31539  0.010592705 0.0096378022         3697 
 3819000   0.63829954   -9.3539348    485.94411  0.010603651 0.0096337865         3695 
 3820000    0.6430857    -9.389258    485.87828  0.010599439 0.0096297737         3707 
 3821000   0.63308067   -9.3793145    484.65317  0.010569946 0.0096257629         3705 
 3822000   0.64774383   -9.3486398     486.2387  0.010601751 0.0096217504         3684 
 3823000   0.63517292   -9.3679484    485.53973  0.010583742 0.0096177441         3709 
 3824000   0.64380282   -9.3690089    486.17648   0.01059485   0.00961374         3722 
 3825000   0.64742168   -9.3269026    486.33323  0.010595495 0.0096097351         3675 
 3826000   0.64243719   -9.3660522    485.75908   0.01058022 0.0096057368         3722 
 3827000   0.65073341   -9.3566191    486.43865  0.010592254 0.0096017357         3690 
 3828000   0.63051406   -9.3585809    485.42035  0.010567319 0.0095977374         3727 
 3829000   0.65123687   -9.3706282    485.44287  0.010565049 0.0095937459         3714 
 3830000   0.65347599   -9.3615675    485.48889  0.010563292 0.0095897545         3701 
 3831000   0.63480914   -9.3512214    485.93901  0.010570326 0.0095857616         3705 
 3832000   0.64300847    -9.378995    486.00299  0.010568959 0.0095817724         3711 
 3833000   0.65107532   -9.3627317    485.82824  0.010562402 0.0095777833         3693 
 3834000   0.64084323   -9.3706343     485.6357  0.010555462 0.0095737996         3709 
 3835000    0.6309358   -9.3451446    486.32987  0.010567794 0.0095698175         3707 
 3836000   0.63094917   -9.3801256    485.32575  0.010543225 0.0095658375         3744 
 3837000   0.64165798   -9.3810155    486.45052  0.010564906 0.0095618603         3690 
 3838000   0.63049577    -9.372278    486.41921  0.010561473 0.0095578882         3730 
 3839000   0.64207942   -9.3611324    485.66044  0.010542251 0.0095539188         3722 
 3840000   0.65408084   -9.3703353    485.79424   0.01054241 0.0095499488         3700 
 3841000     0.643469   -9.3657228     485.5509  0.010534386 0.0095459785         3740 
 3842000    0.6253494   -9.3714651    485.36637  0.010527641 0.0095420128         3731 
 3843000   0.63359532   -9.3643814    485.32522   0.01052401 0.0095380468         3708 
 3844000   0.64049535   -9.3461629    485.55945   0.01052635 0.0095340819         3714 
 3845000   0.63755732   -9.3608091    485.16035  0.010514962 0.0095301219         3730 
 3846000   0.63898037   -9.3523172    485.55347  0.010520746 0.0095261637         3702 
 3847000   0.63802327   -9.3775382    485.04199  0.010506932 0.0095222045         3713 
 3848000   0.64078364   -9.3861234    486.18343   0.01052892 0.0095182527         3727 
 3849000   0.65149807   -9.3573598    485.89341  0.010519906 0.0095143004         3694 
 3850000   0.64671635   -9.3576137    486.69404  0.010534503  0.009510351         3736 
 3851000   0.63949415   -9.3769127    485.73691  0.010511056 0.0095064022         3719 
 3852000   0.63793607   -9.3589569     484.6276  0.010484329 0.0095024567         3728 
 3853000   0.63074489   -9.3652321    485.69632  0.010504722 0.0094985132         3687 
 3854000    0.6449985   -9.3726402    485.79217  0.010504069 0.0094945697         3733 
 3855000   0.63557061   -9.3750404    485.63779  0.010498007 0.0094906298         3684 
 3856000   0.62656804   -9.3655619    485.41119  0.010490387 0.0094866935         3726 
 3857000   0.62478895   -9.3774847    484.87602  0.010476104 0.0094827565         3718 
 3858000   0.63229747   -9.3966152     485.5549  0.010488053 0.0094788216         3714 
 3859000   0.64314681   -9.3891106     485.5169  0.010484515 0.0094748888         3708 
 3860000   0.63055926   -9.3544319    485.77385  0.010487346 0.0094709587         3670 
 3861000   0.63534808   -9.3576232    485.95999  0.010488647 0.0094670354         3696 
 3862000   0.62210587   -9.3588391    484.75763  0.010459987 0.0094631061         3750 
 3863000    0.6526579   -9.3773414    485.46301  0.010472496 0.0094591831         3720 
 3864000   0.64148106   -9.3781087    485.24931  0.010465177 0.0094552619         3695 
 3865000   0.63355406   -9.3661645    485.73481  0.010472937 0.0094513453         3710 
 3866000   0.63484893   -9.3632047    485.52112  0.010465622 0.0094474276         3699 
 3867000   0.63267796    -9.358819    485.46056   0.01046161 0.0094435143         3707 
 3868000    0.6195854   -9.3634536    485.57802  0.010461436 0.0094396021         3696 
 3869000   0.63421257   -9.3937846    484.98325  0.010445922 0.0094356931         3718 
 3870000   0.62819688   -9.3670703    485.24122  0.010448777 0.0094317882         3739 
 3871000   0.64128067   -9.3765984    486.08789  0.010464305 0.0094278851         3704 
 3872000   0.62426456   -9.3515777    485.23002  0.010443139 0.0094239814         3690 
 3873000   0.61834238   -9.3817365    484.71864   0.01042944 0.0094200778         3726 
 3874000   0.62860185    -9.365105    484.79286  0.010428344 0.0094161778         3704 
 3875000   0.65693093   -9.3863181    485.32425  0.010437081  0.009412282         3730 
 3876000    0.6396497   -9.3744278    484.84277  0.010424036 0.0094083877         3709 
 3877000   0.62883585   -9.3870369    485.20225  0.010429074 0.0094044954         3708 
 3878000   0.63516887   -9.3658758    485.76289  0.010438432 0.0094006014         3712 
 3879000   0.62815944   -9.3979906    485.42348   0.01042845 0.0093967113         3724 
 3880000   0.61630263   -9.3637997    485.73096  0.010432366 0.0093928219         3747 
 3881000   0.62977937   -9.3780235    485.78722  0.010430886 0.0093889336         3698 
 3882000   0.65384211   -9.3894199    485.12939  0.010414077 0.0093850524         3697 
 3883000    0.6347699   -9.3851189    485.50798  0.010419521 0.0093811663         3723 
 3884000   0.63115973   -9.3614928    484.99803  0.010405897  0.009377287         3706 
 3885000   0.63456952   -9.3840919     484.7952  0.010398867 0.0093734085         3695 
 3886000   0.62963822   -9.3798334    485.91193  0.010420139 0.0093695363         3700 
 3887000    0.6267874   -9.3739816    485.52353  0.010409131 0.0093656653         3684 
 3888000    0.6211921   -9.3876016    484.97881  0.010394779 0.0093617928         3742 
 3889000   0.62974902   -9.3713803    484.58199  0.010383603 0.0093579247         3718 
 3890000   0.64178767   -9.3826994    485.42068  0.010398901 0.0093540608         3736 
 3891000   0.63681756    -9.376206    485.32581  0.010394196 0.0093501975         3729 
 3892000   0.63138067   -9.3903793    485.73779  0.010400347 0.0093463343         3748 
 3893000   0.62435624   -9.3796149    485.42874   0.01039106 0.0093424736         3733 
 3894000   0.61388747   -9.3824652    485.74569  0.010395174 0.0093386142         3737 
 3895000   0.63602272   -9.3966378    485.15539  0.010379876 0.0093347592         3707 
 3896000   0.62730586   -9.3569554    485.96493  0.010394527 0.0093309034         3711 
 3897000   0.63711376   -9.3688038    484.49999  0.010360534 0.0093270483         3720 
 3898000   0.62281092   -9.3722724    485.73068  0.010384186 0.0093232016         3697 
 3899000   0.63055821   -9.3767517    484.92014  0.010364199 0.0093193524         3715 
 3900000   0.62140434   -9.3743258     485.1097  0.010365592 0.0093155095         3698 
 3901000   0.62079194    -9.394852    485.46941  0.010370619 0.0093116637         3720 
 3902000   0.62445417   -9.3996005    485.47689  0.010368121 0.0093078235         3718 
 3903000   0.62722634   -9.3877514    484.26643   0.01033962 0.0093039796         3736 
 3904000   0.63165327   -9.3757842     485.6563  0.010366639 0.0093001479         3691 
 3905000   0.62569744   -9.3741066    485.67566  0.010364397 0.0092963109         3738 
 3906000   0.62520007   -9.3906553    485.04097  0.010348203 0.0092924767         3698 
 3907000   0.62615456   -9.3864854    485.02433  0.010345199 0.0092886425         3714 
 3908000   0.63785603   -9.3894813     486.2228  0.010368108 0.0092848144         3707 
 3909000   0.61642652   -9.3855649     484.9717  0.010338784 0.0092809849         3721 
 3910000   0.60214691   -9.4105344    485.35877   0.01034439 0.0092771583         3714 
 3911000    0.6232741    -9.404145    485.22915  0.010338983 0.0092733332         3690 
 3912000   0.61563587   -9.3840171    485.33026  0.010338494 0.0092695084         3731 
 3913000   0.63740787   -9.3653403    485.60661  0.010341737 0.0092656911         3715 
 3914000   0.63454867   -9.3875493    485.14955  0.010329364 0.0092618697         3714 
 3915000   0.63322307   -9.3773291    485.40672  0.010332199 0.0092580526         3737 
 3916000   0.62451764    -9.384933    485.03006  0.010321545 0.0092542393         3687 
 3917000   0.64048681   -9.3891762    484.54215   0.01030853 0.0092504292         3691 
 3918000   0.63389754   -9.3953416    485.07598  0.010317253  0.009246619         3737 
 3919000   0.63022618   -9.3897606    484.93129  0.010311544 0.0092428121         3753 
 3920000   0.63562017   -9.3665321     485.4425  0.010319781 0.0092390063         3709 
 3921000   0.62389243   -9.3804065    486.35594  0.010336562 0.0092352034         3689 
 3922000   0.62593364   -9.3800594    484.94013  0.010303844 0.0092314005         3710 
 3923000   0.62842389   -9.3838944    485.36193  0.010310178 0.0092276003         3720 
 3924000   0.61419626   -9.3810698    485.56936  0.010311955 0.0092238014         3677 
 3925000   0.61463855   -9.3743575    485.96212  0.010317667 0.0092200071         3680 
 3926000   0.62245237   -9.3560435     485.3257   0.01030153 0.0092162137         3698 
 3927000   0.63552062   -9.3880976    485.84392  0.010309904 0.0092124263         3725 
 3928000   0.62374296   -9.3664783    485.32541  0.010296279 0.0092086352         3697 
 3929000   0.63325398   -9.3900953    484.84874  0.010283548 0.0092048455         3732 
 3930000    0.6291561   -9.3979472    485.12565  0.010286803 0.0092010601         3702 
 3931000    0.6255224   -9.3802329    484.20059  0.010264576 0.0091972757         3705 
 3932000   0.62246379   -9.3805426    485.72241  0.010294219 0.0091934971         3733 
 3933000   0.61784279   -9.3938225    484.44648  0.010264567 0.0091897177         3714 
 3934000   0.61787539    -9.388264    485.41743  0.010282525 0.0091859422         3715 
 3935000   0.63769687   -9.3658311    485.37287  0.010278968 0.0091821662         3715 
 3936000   0.62995365   -9.3809727    485.50801  0.010279218 0.0091783926         3691 
 3937000   0.62460231   -9.3920483    485.63207  0.010279233 0.0091746214         3717 
 3938000   0.62939846   -9.3727767    485.30167  0.010269631 0.0091708538         3699 
 3939000   0.60686426   -9.3884987    485.29973  0.010266982  0.009167086         3714 
 3940000   0.61073926   -9.3865956    485.22016  0.010262694 0.0091633191         3685 
 3941000   0.63235038   -9.3783895    485.51097  0.010266239 0.0091595543         3700 
 3942000    0.6075578   -9.3955081    485.49865  0.010263374 0.0091557934         3728 
 3943000    0.6359889   -9.3836969    484.64677  0.010242767 0.0091520355         3679 
 3944000   0.62358967   -9.3813353    485.25803  0.010253085  0.009148281         3689 
 3945000   0.63397649   -9.3801061    485.20457  0.010249357 0.0091445266         3694 
 3946000   0.61460251   -9.3906586    485.64938  0.010256153 0.0091407762         3726 
 3947000    0.6100219   -9.3971779    484.66823   0.01023284  0.009137023         3695 
 3948000   0.62457676   -9.3947804    485.61964   0.01025033 0.0091332759         3709 
 3949000   0.63563786   -9.3918678    484.87472  0.010232015  0.009129527         3765 
 3950000   0.61944235   -9.4078357     484.5892  0.010223401 0.0091257834         3716 
 3951000   0.63806353   -9.4113819    484.96546  0.010228749  0.009122041         3691 
 3952000   0.63214747   -9.3981199    485.61051  0.010239763 0.0091182974         3724 
 3953000   0.62854302   -9.3822748    485.07853  0.010225958 0.0091145568         3681 
 3954000   0.60946695   -9.3722662    485.63901  0.010235184 0.0091108215         3714 
 3955000   0.62330947   -9.3891026    484.96327  0.010218358 0.0091070834         3742 
 3956000    0.6189314   -9.4004753    485.85341  0.010234526  0.009103348         3706 
 3957000   0.59778788    -9.415325    483.93339  0.010191504  0.009099617         3728 
 3958000   0.62273726   -9.3911985    485.33404  0.010218419  0.009095883         3713 
 3959000    0.6189588   -9.4076637    485.11016  0.010211126 0.0090921553         3710 
 3960000   0.62005096   -9.3994251    485.38277  0.010214284 0.0090884299         3728 
 3961000   0.62404723   -9.3779975    484.65596  0.010196414 0.0090847069         3666 
 3962000   0.62807928   -9.3866899    485.39485  0.010209382 0.0090809853         3713 
 3963000   0.60151589   -9.4163379    485.31248  0.010205074 0.0090772646         3730 
 3964000   0.62122344   -9.4005247    485.06483  0.010197293 0.0090735465         3714 
 3965000   0.60876609   -9.4020103    484.08317  0.010174089  0.009069833         3707 
 3966000   0.61484306   -9.3823834    484.67098  0.010183875 0.0090661186         3707 
 3967000   0.62092136   -9.3924027    484.31744  0.010173881 0.0090624052         3722 
 3968000    0.6277228   -9.3783045    484.90848   0.01018373 0.0090586944         3711 
 3969000   0.60583192   -9.4096106    485.15564  0.010186353 0.0090549868         3690 
 3970000   0.62020628   -9.4046083     484.9115  0.010178663 0.0090512818         3711 
 3971000   0.62120417   -9.3929394    484.56038  0.010168731 0.0090475761         3728 
 3972000   0.61615539   -9.3888583    484.45547   0.01016397 0.0090438711         3731 
 3973000   0.62110533   -9.4145063    484.58229  0.010164072 0.0090401727         3696 
 3974000   0.60433742   -9.4019489    483.95975   0.01014846 0.0090364759         3754 
 3975000   0.61552706   -9.3983525    484.17514  0.010150422 0.0090327767         3737 
 3976000   0.60931139   -9.4158002    484.43298  0.010153273 0.0090290786         3711 
 3977000   0.61145891   -9.4070741    484.40287  0.010150089 0.0090253844         3707 
 3978000   0.61092306   -9.3847776    485.63008  0.010173246 0.0090216915         3681 
 3979000   0.62228272   -9.4211483     485.8394  0.010175073 0.0090180034         3740 
 3980000   0.61590895   -9.4090089    484.30082  0.010140302 0.0090143184         3721 
 3981000   0.61306531   -9.4010114    484.51121  0.010142159 0.0090106337         3718 
 3982000    0.6158991   -9.3802679    485.29411  0.010155996 0.0090069493         3729 
 3983000   0.61800307   -9.4204332    484.55117  0.010137902 0.0090032689         3729 
 3984000   0.62401081   -9.4052923    486.17048  0.010169229 0.0089995889         3728 
 3985000   0.62568788   -9.3857955    484.52777  0.010132325 0.0089959133         3721 
 3986000   0.60868645   -9.3939253    485.28676  0.010145651 0.0089922413         3698 
 3987000   0.60942515   -9.3988883    484.09879  0.010118276 0.0089885695         3709 
 3988000   0.61422687   -9.3901619    484.82663  0.010130948 0.0089848987         3722 
 3989000   0.62081521    -9.396492    485.12422  0.010134625 0.0089812302         3713 
 3990000   0.61529371    -9.387596    485.65966  0.010143268 0.0089775635         3709 
 3991000   0.61084905   -9.3933236    484.57151  0.010118005 0.0089738991         3735 
 3992000   0.60352415   -9.4112327    485.76237   0.01014033 0.0089702388         3696 
 3993000   0.61404258   -9.3977461    485.16326  0.010125287 0.0089665807         3703 
 3994000   0.61627896   -9.4074279       484.88  0.010116842 0.0089629235         3725 
 3995000   0.61228931   -9.3781793    485.80089  0.010133519 0.0089592673         3690 
 3996000   0.61523038   -9.4140132    485.43144  0.010123278 0.0089556116         3749 
 3997000   0.62243332   -9.4082692    484.75105   0.01010656 0.0089519577         3694 
 3998000   0.60255084   -9.4035704    484.30246  0.010094682 0.0089483061         3719 
 3999000   0.61489999   -9.4057898    484.57894  0.010097919 0.0089446546         3720 
 4000000   0.60973036   -9.3934153    485.12145  0.010106697 0.0089410064         3737 
 4001000   0.61136946   -9.4035992    485.09635  0.010103648 0.0089373594         3702 
 4002000    0.6014903   -9.4398111    484.95166  0.010098111 0.0089337142         3707 
 4003000   0.61015055   -9.4025066    483.99351  0.010075641 0.0089300718         3737 
 4004000   0.61390748   -9.4009983    484.12276  0.010075815  0.008926431         3709 
 4005000   0.61511788   -9.4250451    483.98608  0.010070455 0.0089227924         3717 
 4006000   0.61155055   -9.4039246    484.82496  0.010085392 0.0089191548         3724 
 4007000   0.60688772    -9.402787    484.29541  0.010071862 0.0089155195         3731 
 4008000   0.61157615   -9.4137995    484.31985  0.010069857 0.0089118901         3742 
 4009000    0.6158917   -9.4272606    485.08258    0.0100832 0.0089082607         3676 
 4010000   0.60184539   -9.4128497    485.45799  0.010088487 0.0089046306         3702 
 4011000   0.61109999   -9.4126646    485.33246  0.010083364 0.0089010044         3722 
 4012000   0.61756394   -9.4018146    484.71273  0.010067978 0.0088973805         3705 
 4013000   0.61948116    -9.393568    483.78331  0.010046169 0.0088937572         3716 
 4014000   0.59916431   -9.4187458    484.13117  0.010050888 0.0088901359         3724 
 4015000   0.60873749   -9.3919094    483.91126   0.01004382 0.0088865159         3708 
 4016000    0.6160152   -9.4045649    484.55068  0.010054587  0.008882901         3718 
 4017000    0.6007523   -9.4094703    485.30382  0.010067708 0.0088792885         3715 
 4018000   0.60120222   -9.4205018    484.25906  0.010043535 0.0088756747         3714 
 4019000   0.60488612   -9.4157674    484.30229  0.010041932 0.0088720625         3711 
 4020000   0.60577554   -9.3966324    484.43692  0.010042225 0.0088684571         3730 
 4021000   0.61425475   -9.4197048    484.74196  0.010046049 0.0088648481         3679 
 4022000    0.5985951   -9.4134075    485.09416  0.010050849 0.0088612411         3748 
 4023000   0.60925355   -9.4174572    484.78403  0.010041926 0.0088576357         3736 
 4024000   0.59962791   -9.4108955    483.98899  0.010022966 0.0088540366         3743 
 4025000   0.59376402   -9.4067662    484.84324  0.010038162 0.0088504363         3739 
 4026000   0.61144244   -9.4118138    483.62423  0.010010437 0.0088468346         3704 
 4027000   0.60211617   -9.4164926    483.99047   0.01001553 0.0088432417         3705 
 4028000   0.60795367   -9.4038669    484.66094  0.010026915 0.0088396491         3707 
 4029000   0.60430003   -9.4112906    484.36558  0.010018317 0.0088360557         3714 
 4030000   0.61495051   -9.4014658    484.75018  0.010023784 0.0088324658         3712 
 4031000    0.6014805   -9.4379811    484.10762  0.010008013 0.0088288769         3738 
 4032000   0.60213511   -9.4394757    484.11402  0.010005664 0.0088252881         3748 
 4033000   0.60917458   -9.4257972    483.64066 0.0099934014 0.0088217046         3732 
 4034000    0.6046504   -9.4267787    484.94004  0.010017766 0.0088181226         3745 
 4035000   0.60698446   -9.4104004    485.27776  0.010022259 0.0088145415         3729 
 4036000   0.60380981   -9.4163185    484.25419 0.0099986412  0.008810963         3676 
 4037000   0.60565613   -9.4154568     484.4497    0.0100002  0.008807385         3697 
 4038000   0.60409592   -9.4119513     484.1314  0.009991155 0.0088038104         3699 
 4039000   0.60383426   -9.4207864    484.37081 0.0099936207 0.0088002341         3724 
 4040000   0.59750924   -9.4319599    484.71047 0.0099981532 0.0087966646         3709 
 4041000    0.5891208   -9.4456367    484.14558   0.00998403  0.008793095         3735 
 4042000   0.61054214   -9.4150746    484.73283  0.009993667  0.008789529         3714 
 4043000   0.61691158   -9.4341972     484.9348 0.0099953583 0.0087859654         3706 
 4044000    0.6104185   -9.4153681    484.10935 0.0099758768 0.0087824013         3720 
 4045000   0.60384542    -9.410771    485.41756  0.010000362 0.0087788391         3715 
 4046000   0.61215609   -9.4268857    484.95806  0.009988426 0.0087752799         3721 
 4047000   0.60019868   -9.3959845    485.37151 0.0099944714 0.0087717247         3743 
 4048000   0.60671347   -9.4272985    485.20661 0.0099886078 0.0087681707         3686 
 4049000   0.59237782   -9.4024951    484.13294 0.0099640434  0.008764617         3703 
 4050000   0.59603941    -9.415578    484.39779 0.0099670327 0.0087610661         3708 
 4051000   0.61534588   -9.3972989    485.22619 0.0099816134 0.0087575171         3712 
 4052000   0.60203216   -9.4009069    484.22676 0.0099585957 0.0087539682         3721 
 4053000   0.60301722   -9.4147781    484.33625 0.0099583899 0.0087504244         3716 
 4054000   0.59366269   -9.4191341    484.30179 0.0099552251 0.0087468801         3736 
 4055000   0.60446045   -9.4161949     484.6319  0.009959554 0.0087433379         3714 
 4056000    0.6090073   -9.4008085    484.06369 0.0099454243 0.0087397996         3716 
 4057000   0.58810048   -9.4199453    484.08668 0.0099434451 0.0087362619         3733 
 4058000   0.59330651   -9.4402514    484.08299  0.009940919 0.0087327221         3744 
 4059000   0.59642636   -9.4302352    484.42558 0.0099455035 0.0087291881         3730 
 4060000   0.60738015   -9.4310085    483.63995 0.0099269283 0.0087256549         3712 
 4061000   0.61761779   -9.4401599    484.35729 0.0099392039 0.0087221227         3731 
 4062000   0.60366135   -9.4136328    484.16247 0.0099327604 0.0087185916         3712 
 4063000   0.61230526   -9.4065402    484.45339 0.0099362825  0.008715065         3726 
 4064000   0.60469867   -9.4102388    484.26368 0.0099299475  0.008711541         3734 
 4065000   0.58235088   -9.4171299    484.28263 0.0099278933 0.0087080149         3739 
 4066000   0.61032422   -9.4139041    484.48218 0.0099295414 0.0087044925         3715 
 4067000   0.60011674    -9.421005    484.10572  0.009919386 0.0087009709         3710 
 4068000   0.58595373   -9.4211618    484.21658 0.0099192187 0.0086974519         3700 
 4069000   0.60628228   -9.4057726    484.62713  0.009925189 0.0086939344         3722 
 4070000   0.60329335   -9.4277086    483.80051 0.0099058253 0.0086904192         3700 
 4071000   0.59404162   -9.4109213    484.34686 0.0099145758 0.0086869055         3742 
 4072000   0.59819001   -9.4284973    483.37505  0.009892253 0.0086833972         3751 
 4073000   0.58042087     -9.42056    484.69847 0.0099169013 0.0086798885         3703 
 4074000   0.58303956   -9.4220793    484.95087   0.00991963 0.0086763811         3732 
 4075000   0.59296089   -9.3995701    484.62903 0.0099106141 0.0086728756         3719 
 4076000   0.59089259   -9.4369144    484.54389 0.0099064421 0.0086693732         3727 
 4077000   0.58478682   -9.4179899    483.35058  0.009879621  0.008665873         3702 
 4078000   0.59939997   -9.4302278    483.66573 0.0098836385 0.0086623715         3746 
 4079000    0.5995615   -9.4352169    484.25719 0.0098932988 0.0086588733         3736 
 4080000   0.60045967   -9.4371914    483.55533 0.0098765386 0.0086553744         3732 
 4081000   0.60018951   -9.4260735    484.51426 0.0098936996 0.0086518786         3706 
 4082000   0.60369829   -9.4264147    484.04042 0.0098816026 0.0086483867         3717 
 4083000    0.5966662   -9.4402415    484.26665 0.0098837997  0.008644898         3692 
 4084000   0.60099051   -9.4320272    483.61652 0.0098681138 0.0086414137         3728 
 4085000   0.60708039   -9.4448374    484.72637 0.0098883388 0.0086379274         3703 
 4086000   0.60450164   -9.4490805    483.60639  0.009863077 0.0086344413         3711 
 4087000   0.60394343   -9.4381015    484.40181 0.0098768823 0.0086309553         3737 
 4088000   0.59124414   -9.4369802     484.3114 0.0098726231 0.0086274753         3701 
 4089000   0.59921352   -9.4262257    483.59804 0.0098556705 0.0086239988         3718 
 4090000   0.59597083   -9.4267231    483.61103 0.0098535254 0.0086205215         3708 
 4091000   0.59144742   -9.4358618    484.81219 0.0098755843 0.0086170462         3738 
 4092000   0.59717329    -9.442829    483.61714 0.0098488339 0.0086135738         3701 
 4093000   0.60446837   -9.4242816    484.88721 0.0098722861 0.0086100998         3712 
 4094000   0.58788379   -9.4431159     483.5706 0.0098430753 0.0086066256         3740 
 4095000   0.60238572   -9.4325219    484.06889 0.0098508118 0.0086031545         3759 
 4096000   0.59387424   -9.4283846     483.9311 0.0098456034 0.0085996844         3723 
 4097000   0.60203376    -9.432694    484.77553 0.0098603761 0.0085962217         3726 
 4098000   0.59821229   -9.4434285    484.13779 0.0098450015 0.0085927559         3735 
 4099000   0.59425334   -9.4382212    484.01336 0.0098400699 0.0085892933         3728 
 4100000   0.59196572   -9.4354724    483.51243 0.0098274885 0.0085858289         3703 
 4101000   0.58831987   -9.4298208    483.68671 0.0098286335 0.0085823694         3738 
 4102000   0.60438444   -9.4433637    483.74478  0.009827417 0.0085789101         3729 
 4103000   0.59946761   -9.4332979    483.76547 0.0098254421 0.0085754552         3719 
 4104000   0.59579742   -9.4284715    483.58491 0.0098193816 0.0085720022         3687 
 4105000   0.59066239   -9.4378833    483.70982 0.0098195254 0.0085685503         3727 
 4106000   0.59976815   -9.4267949    484.33274 0.0098297763 0.0085651008         3730 
 4107000   0.59050614   -9.4375221    483.54905 0.0098114815 0.0085616547         3725 
 4108000   0.60374567   -9.4541762    483.86619 0.0098155264 0.0085582108         3712 
 4109000   0.59456302   -9.4345263    484.59709 0.0098279608 0.0085547654         3728 
 4110000   0.59736672   -9.4565679    483.26938 0.0097986493 0.0085513192         3729 
 4111000   0.57751126   -9.4229839     483.4955 0.0098008494 0.0085478775         3727 
 4112000   0.58442854   -9.4211429    483.94213 0.0098075173 0.0085444363         3740 
 4113000   0.58970561    -9.422135     483.9392 0.0098050733  0.008540999         3717 
 4114000   0.59554372   -9.4302877    484.77622 0.0098196448 0.0085375608         3723 
 4115000   0.59673401   -9.4294564    484.22112 0.0098060169  0.008534125         3708 
 4116000   0.59200771   -9.4327125    484.07501 0.0098006764 0.0085306954         3711 
 4117000   0.58800776   -9.4381875    484.41195 0.0098051161  0.008527262         3721 
 4118000   0.59951248   -9.4494935    484.64215 0.0098073933 0.0085238307         3749 
 4119000   0.58983184   -9.4224698    483.61379  0.009784207 0.0085204038         3695 
 4120000   0.58580361   -9.4673167    484.09181  0.009791501 0.0085169776         3729 
 4121000    0.5966148   -9.4273685    484.86976 0.0098048565 0.0085135545         3746 
 4122000   0.59769464   -9.4221209    484.23392 0.0097896231 0.0085101317         3763 
 4123000   0.60180533   -9.4384174    482.77566 0.0097577747   0.00850671         3725 
 4124000   0.59611608   -9.4428274    484.05988 0.0097813588 0.0085032942         3722 
 4125000    0.5918602   -9.4363318    483.99512 0.0097776793 0.0084998789         3738 
 4126000   0.60227593   -9.4297847    484.52149 0.0097859406 0.0084964665         3735 
 4127000   0.59108436   -9.4385507    484.25785 0.0097782459 0.0084930574         3692 
 4128000   0.59224586   -9.4365612    484.16469 0.0097739964 0.0084896471         3691 
 4129000   0.57620443   -9.4345465    483.39939 0.0097561837 0.0084862369         3750 
 4130000    0.6004823   -9.4445134    483.45458 0.0097549351 0.0084828307         3721 
 4131000   0.59144293   -9.4416863    483.69314  0.009757386 0.0084794274         3672 
 4132000   0.59586248   -9.4485616    483.41772   0.00974947 0.0084760248         3729 
 4133000   0.59352134   -9.4529071    484.41819 0.0097672834  0.008472622         3752 
 4134000   0.59145572   -9.4306089    483.30093 0.0097423989 0.0084692221         3709 
 4135000   0.57777715   -9.4510488    484.11765 0.0097565023  0.008465826         3690 
 4136000    0.5904496   -9.4620809    483.45866 0.0097408661   0.00846243         3730 
 4137000   0.58136453   -9.4334736    483.89386 0.0097472779 0.0084590343         3747 
 4138000   0.59159743   -9.4390988    483.92272 0.0097455035 0.0084556401         3713 
 4139000   0.59389927   -9.4457434    484.20434  0.009748819  0.008452251         3727 
 4140000    0.5894831   -9.4498987    483.46879 0.0097316584 0.0084488607         3715 
 4141000   0.60415738   -9.4446177     484.4029 0.0097481063 0.0084454703         3729 
 4142000   0.59560064   -9.4444283    483.91571 0.0097359511 0.0084420868         3720 
 4143000   0.58906339   -9.4341912    484.26996 0.0097407266 0.0084387027         3726 
 4144000   0.58258685   -9.4360276    483.46153 0.0097221189  0.008435321         3712 
 4145000   0.57684966   -9.4288141    483.50429  0.009720633 0.0084319411         3713 
 4146000   0.59046797   -9.4395209    484.59023 0.0097401156 0.0084285631         3740 
 4147000   0.58208558   -9.4387436    483.36343 0.0097131144 0.0084251823         3716 
 4148000   0.57707126   -9.4404896    483.35856  0.009710675 0.0084218096         3689 
 4149000    0.5855061   -9.4386112    483.53276 0.0097118333 0.0084184377         3713 
 4150000   0.57830598   -9.4432888    483.73721 0.0097135987 0.0084150637         3722 
 4151000   0.57627268   -9.4531299    483.58022 0.0097081069 0.0084116901         3737 
 4152000   0.59270254   -9.4465613     484.3406   0.00972103 0.0084083216         3710 
 4153000    0.5925462   -9.4503369    483.86708 0.0097091877 0.0084049525         3716 
 4154000   0.59076106    -9.429756    483.17143  0.009692895 0.0084015902         3718 
 4155000   0.58278195    -9.418247    483.82056 0.0097035812 0.0083982281         3735 
 4156000   0.59184365   -9.4452892    484.01343 0.0097051137 0.0083948685         3732 
 4157000   0.59379129   -9.4477928    483.65483 0.0096955904 0.0083915098         3724 
 4158000    0.5721227   -9.4449179    483.57601 0.0096916788 0.0083881509         3713 
 4159000   0.58931158   -9.4468399    484.13787 0.0097006066 0.0083847956         3716 
 4160000   0.58379636   -9.4522479    482.83293 0.0096721339 0.0083814428         3726 
 4161000   0.58256941   -9.4478176    483.61176 0.0096854074 0.0083780939         3712 
 4162000   0.59070021   -9.4579283    482.60331 0.0096628886  0.008374743         3716 
 4163000   0.58270728    -9.445492     484.5754 0.0097000441 0.0083713953         3721 
 4164000   0.58211493   -9.4582083    483.36618 0.0096735146 0.0083680492         3725 
 4165000   0.59222772   -9.4492631    482.93479 0.0096625608 0.0083647034         3679 
 4166000   0.57810383   -9.4333023    484.61613 0.0096938735 0.0083613629         3701 
 4167000   0.57916315   -9.4359185    483.72624 0.0096737509 0.0083580188         3720 
 4168000    0.5882022   -9.4490142    483.62264 0.0096693586 0.0083546754         3731 
 4169000   0.58228643   -9.4522127    483.58176 0.0096662221 0.0083513351         3720 
 4170000   0.57763147   -9.4449085    483.87665 0.0096697973 0.0083480024         3702 
 4171000   0.58818727   -9.4472364    483.66481 0.0096632464 0.0083446685         3737 
 4172000   0.59037998   -9.4299078    484.14271  0.009670476 0.0083413364         3721 
 4173000    0.5766758   -9.4472641    483.32998 0.0096519287  0.008338008         3709 
 4174000   0.59330998   -9.4228855    483.83912 0.0096597812 0.0083346776         3725 
 4175000   0.57572757   -9.4517322    484.23396 0.0096653486 0.0083313481         3742 
 4176000   0.58364408   -9.4414941     483.5208 0.0096488027 0.0083280239         3745 
 4177000   0.58098548   -9.4397465    483.93671 0.0096547904 0.0083246991         3725 
 4178000   0.59584184   -9.4610444    483.00156 0.0096338273 0.0083213746         3717 
 4179000   0.58710184   -9.4470418    483.88438 0.0096491262 0.0083180544         3732 
 4180000   0.57890875   -9.4513524    484.00468 0.0096492162  0.008314735         3715 
 4181000   0.57635617   -9.4469336    483.35521 0.0096339634 0.0083114174         3745 
 4182000   0.59761536   -9.4585114    484.16532 0.0096478025 0.0083081018         3709 
 4183000   0.58169364   -9.4361355    484.59096 0.0096539756  0.008304791         3709 
 4184000   0.59305042   -9.4458077    484.21125 0.0096441056 0.0083014807         3738 
 4185000   0.58659078   -9.4447989    483.77463  0.009633107 0.0082981689         3674 
 4186000   0.58390863   -9.4314697    484.47521 0.0096447525 0.0082948605         3739 
 4187000   0.57733905   -9.4514153    483.38152 0.0096206815 0.0082915527         3721 
 4188000   0.58292537   -9.4307552    483.31578 0.0096170762 0.0082882477         3725 
 4189000   0.59101154   -9.4583165    484.16572 0.0096316886 0.0082849431         3706 
 4190000   0.57981742   -9.4522454    483.70411  0.009620209 0.0082816417         3736 
 4191000   0.58084021   -9.4628984    483.84029 0.0096206213 0.0082783433         3705 
 4192000   0.56919675    -9.446686    484.11266 0.0096237409 0.0082750458         3703 
 4193000   0.57899384   -9.4611022    483.27166 0.0096047313 0.0082717507         3708 
 4194000   0.57564949   -9.4518734    484.11351 0.0096191685 0.0082684597         3729 
 4195000   0.56950572    -9.475619    484.01615 0.0096149415  0.008265166         3724 
 4196000   0.59340181   -9.4484006    484.22999 0.0096168968 0.0082618726         3739 
 4197000   0.56960939   -9.4455053    484.41679 0.0096183145 0.0082585837         3751 
 4198000   0.58315496    -9.449851    483.23107 0.0095924858 0.0082552971         3722 
 4199000   0.58830314   -9.4538596    482.98921 0.0095854016 0.0082520107         3738 
 4200000   0.57834044   -9.4593041    483.53875 0.0095940228  0.008248727         3726 
 4201000   0.58552362   -9.4419565    483.87299 0.0095983693 0.0082454471         3698 
 4202000   0.57310544   -9.4530352    483.72588 0.0095931675 0.0082421639         3711 
 4203000   0.58372933   -9.4518031    483.79095 0.0095921753 0.0082388861         3688 
 4204000   0.58093047    -9.448217    483.64406 0.0095869817 0.0082356063         3745 
 4205000   0.58740676   -9.4505135    483.96228 0.0095910084  0.008232332         3734 
 4206000   0.57176327   -9.4614209    483.31269 0.0095758578 0.0082290593         3760 
 4207000   0.56987645   -9.4504565    483.17111  0.009570777 0.0082257873         3725 
 4208000   0.57573738   -9.4795379    483.61349 0.0095772633 0.0082225184         3738 
 4209000   0.58872889    -9.456917    483.36164 0.0095700016 0.0082192495         3744 
 4210000   0.57931992   -9.4636215    483.19738  0.009564477 0.0082159805         3726 
 4211000   0.58015615   -9.4568319    483.18212 0.0095619037 0.0082127136         3731 
 4212000      0.58403   -9.4682455    482.70773 0.0095502479 0.0082094486         3716 
 4213000   0.57297037   -9.4726933    482.66558 0.0095471473  0.008206183         3707 
 4214000   0.57086157   -9.4663689    482.97582 0.0095510168 0.0082029171         3724 
 4215000   0.57658527   -9.4628641    483.66275 0.0095623319 0.0081996555         3747 
 4216000   0.57227579   -9.4640644    483.53497 0.0095575381  0.008196391         3724 
 4217000   0.57201774   -9.4686804    483.23703 0.0095493841  0.008193134         3736 
 4218000   0.58014847   -9.4642902    482.98961 0.0095422319 0.0081898755         3741 
 4219000    0.5755666   -9.4722481    483.21893 0.0095444997 0.0081866232         3734 
 4220000   0.58027936   -9.4618939    483.50638 0.0095479143 0.0081833718         3729 
 4221000   0.57825937    -9.464569    482.61769 0.0095281073 0.0081801163         3751 
 4222000   0.58309938   -9.4607074    482.80556 0.0095295586  0.008176862         3718 
 4223000   0.57989042   -9.4728055     483.4196  0.009539419 0.0081736119         3724 
 4224000   0.57633644   -9.4698621    483.05577 0.0095299829 0.0081703648         3719 
 4225000   0.58263325   -9.4655807    483.52896 0.0095370604 0.0081671213         3695 
 4226000   0.56525018   -9.4809626    482.82064  0.009520836 0.0081638752         3757 
 4227000   0.57169463   -9.4870884    483.04215 0.0095229507 0.0081606335         3708 
 4228000   0.58046757    -9.467305    483.49496 0.0095296231 0.0081573957         3729 
 4229000    0.5781744    -9.479073    483.03646 0.0095183349 0.0081541577         3712 
 4230000   0.57428277   -9.4730703    482.89272  0.009513253 0.0081509201         3738 
 4231000   0.58152192   -9.4494992    482.95281 0.0095121881 0.0081476833         3729 
 4232000   0.57406079   -9.4678112     483.0126 0.0095111177 0.0081444514         3757 
 4233000   0.57446347   -9.4569709    483.20527 0.0095126638 0.0081412191         3746 
 4234000   0.56962805   -9.4572419    483.32374 0.0095127487  0.008137988         3756 
 4235000   0.57711379   -9.4547925    484.00684  0.009523944 0.0081347606         3719 
 4236000   0.57921161   -9.4754979    482.95878 0.0095010776 0.0081315334         3736 
 4237000   0.58348098   -9.4823806    482.97271 0.0094991093 0.0081283092         3728 
 4238000   0.56224527   -9.4676853    484.01409 0.0095173449 0.0081250856         3734 
 4239000   0.56036543   -9.4733924    483.40813 0.0095031872 0.0081218675         3722 
 4240000   0.57140571   -9.4804347    483.22926 0.0094974305 0.0081186478         3739 
 4241000   0.57000865   -9.4921866    482.34439 0.0094778037 0.0081154291         3729 
 4242000   0.56714177   -9.4888341    482.98069 0.0094880696  0.008112213         3746 
 4243000    0.5744163   -9.4886135    483.16302 0.0094894144 0.0081089955         3734 
 4244000   0.55719309    -9.473188    483.04285 0.0094848188 0.0081057811         3737 
 4245000   0.57822021   -9.4765983     483.2975 0.0094875835 0.0081025705         3715 
 4246000   0.56484007    -9.466078    483.36249 0.0094866245 0.0080993586         3733 
 4247000   0.56978404    -9.470119    483.00724 0.0094774202 0.0080961522         3753 
 4248000   0.57664825   -9.4968731    483.10806 0.0094771669 0.0080929457         3731 
 4249000    0.5761111   -9.4706526    482.87176  0.009470302 0.0080897399         3735 
 4250000   0.56107634   -9.4789651    482.74198 0.0094655291 0.0080865378         3719 
 4251000   0.58303729   -9.4868027     482.5764 0.0094600564 0.0080833366         3751 
 4252000   0.58840644   -9.4756146    482.87216 0.0094636281 0.0080801358         3759 
 4253000   0.56199153      -9.4767    483.24235 0.0094686565 0.0080769366         3758 
 4254000   0.55334486   -9.4632644    483.00078 0.0094616984 0.0080737416         3736 
 4255000   0.56360115   -9.4785537    482.82655 0.0094560625 0.0080705451         3723 
 4256000   0.56513501   -9.4626237    483.87756 0.0094744197 0.0080673517         3740 
 4257000   0.57265641   -9.4902568    482.79141 0.0094509321 0.0080641592         3761 
 4258000   0.57193674   -9.4900127    482.72938 0.0094474984 0.0080609701         3732 
 4259000   0.57831773   -9.4764917    483.75799 0.0094654064 0.0080577811         3721 
 4260000   0.57433492   -9.4825008    483.59673 0.0094600299 0.0080545925         3766 
 4261000   0.56396731   -9.4687512    483.41337 0.0094542237 0.0080514055         3723 
 4262000   0.57098814   -9.4812814    482.98855 0.0094436992 0.0080482194         3755 
 4263000   0.57670315   -9.4755026    482.92077 0.0094401589 0.0080450369         3719 
 4264000   0.57075516   -9.4782639    483.25925   0.00944456 0.0080418577         3743 
 4265000   0.58317515   -9.5084105    482.26559 0.0094229306 0.0080386764         3700 
 4266000   0.56373912   -9.4718386    483.16825 0.0094383546 0.0080354989         3724 
 4267000   0.57540171   -9.4691546    482.93275 0.0094315435 0.0080323226         3758 
 4268000   0.56957493    -9.496619    482.47493 0.0094203945 0.0080291476         3707 
 4269000   0.56458495   -9.4935857     482.8953 0.0094263938 0.0080259759         3745 
 4270000    0.5588269   -9.4759038    482.74128 0.0094211803 0.0080228071         3757 
 4271000   0.56962307   -9.4841137    482.72479 0.0094186527 0.0080196373         3747 
 4272000   0.55827478   -9.4762237    483.15654   0.00942487 0.0080164711         3745 
 4273000   0.55596686   -9.4718225    483.32413 0.0094259328 0.0080133059         3711 
 4274000   0.56112523   -9.4714323    483.15542 0.0094204379 0.0080101432         3741 
 4275000   0.55937624   -9.4894786    483.43474 0.0094236791 0.0080069806         3733 
 4276000   0.57126123   -9.4902063    483.52211  0.009423178 0.0080038212         3738 
 4277000   0.56532247   -9.4795824    483.08401 0.0094124389  0.008000661         3748 
 4278000   0.55766008   -9.4889593    482.69717 0.0094027031 0.0079975037         3749 
 4279000   0.57240658   -9.4885337     483.2634 0.0094115331 0.0079943484         3719 
 4280000     0.566228   -9.4957164    482.92413 0.0094027284 0.0079911962         3731 
 4281000   0.56843538    -9.477986    482.96726 0.0094013716 0.0079880426         3763 
 4282000   0.57143292   -9.4837756    482.87347 0.0093973508 0.0079848941         3717 
 4283000   0.56777235   -9.4895951    483.18998 0.0094013148 0.0079817459         3728 
 4284000   0.56594537   -9.4726135    482.76897 0.0093909308 0.0079786006         3755 
 4285000   0.56759289    -9.463827    482.74295 0.0093882333 0.0079754547         3717 
 4286000   0.56503543   -9.4785988    482.87607  0.009388631 0.0079723116         3729 
 4287000   0.55162878   -9.4832181    482.69378 0.0093828975 0.0079691707         3755 
 4288000   0.56775437   -9.4914387    482.44636 0.0093759009 0.0079660284         3759 
 4289000   0.58112257   -9.4871355    482.47089 0.0093741915 0.0079628882         3726 
 4290000    0.5693675   -9.5116694    482.40813 0.0093707873 0.0079597528         3704 
 4291000    0.5612621   -9.4789726    482.77884 0.0093758028  0.007956619         3723 
 4292000   0.57427198   -9.4934386     483.2374 0.0093825217 0.0079534837         3712 
 4293000   0.56490393   -9.4870367    482.89498 0.0093736894 0.0079503506         3732 
 4294000   0.55926865   -9.4953377    482.03781 0.0093548713 0.0079472215         3718 
 4295000   0.55995961   -9.4749098    482.95202  0.009370431 0.0079440915         3713 
 4296000   0.56085063   -9.4766079    483.06397 0.0093704215 0.0079409633         3711 
 4297000   0.55275054   -9.4697305     483.3518 0.0093738229 0.0079378376         3715 
 4298000   0.55969726   -9.4750777    482.72071 0.0093594057  0.007934714         3706 
 4299000   0.55768135    -9.482678    482.24434 0.0093479945 0.0079315937         3729 
 4300000   0.55961967   -9.4906544    483.12429 0.0093628738 0.0079284741         3734 
 4301000   0.58019274    -9.497022    482.78607 0.0093541438 0.0079253562         3708 
 4302000   0.55077186   -9.4918285    483.39091 0.0093636857 0.0079222391         3702 
 4303000   0.56664529   -9.4830405    482.65889 0.0093473331  0.007919124         3730 
 4304000   0.56578012   -9.4695672    481.86373 0.0093297656 0.0079160098         3732 
 4305000   0.56222746   -9.4813247    482.81083 0.0093459316 0.0079128992         3715 
 4306000   0.55753197   -9.4860756    482.85637 0.0093446425 0.0079097893         3707 
 4307000   0.56730357   -9.4841682    482.99399 0.0093451356 0.0079066825         3713 
 4308000   0.55454624   -9.5053165    481.83997 0.0093206432 0.0079035759         3767 
 4309000   0.56678942   -9.4803681    483.38767 0.0093484117 0.0079004719         3755 
 4310000   0.56448574    -9.492867    482.76891 0.0093342789 0.0078973662         3719 
 4311000   0.57365256   -9.4834416    482.66471 0.0093300996 0.0078942657         3692 
 4312000   0.56567955   -9.4738133    482.55131 0.0093257443 0.0078911618         3742 
 4313000   0.56535412   -9.4850258    482.21021 0.0093169915 0.0078880618         3745 
 4314000   0.56304775   -9.4862054    483.22787 0.0093344898 0.0078849649         3736 
 4315000   0.56031021   -9.4969555    482.75401 0.0093231751 0.0078818691         3740 
 4316000   0.56339961   -9.4788455    482.00143 0.0093064842  0.007878774         3730 
 4317000   0.56791303   -9.4937282    483.31962 0.0093297741 0.0078756793         3724 
 4318000   0.55638665   -9.4984199    483.18561 0.0093250272 0.0078725891         3740 
 4319000   0.56635111   -9.4951556    482.55487 0.0093106982 0.0078694987         3746 
 4320000   0.55856606    -9.508694    482.61354 0.0093096747 0.0078664096         3742 
 4321000   0.56672648   -9.4995796    481.93829 0.0092944977 0.0078633219         3759 
 4322000   0.57085515   -9.4914638    482.32154 0.0092997365 0.0078602368         3722 
 4323000   0.56389062   -9.4971878    483.05939 0.0093118086 0.0078571537         3742 
 4324000   0.57028944   -9.4988395    482.60002 0.0093008021 0.0078540715         3728 
 4325000   0.56541325   -9.4959144    482.55228 0.0092977318 0.0078509903         3748 
 4326000   0.56334133    -9.493852    482.18769 0.0092885593 0.0078479114         3726 
 4327000   0.57386065   -9.4905819    483.04437 0.0093029114 0.0078448346         3737 
 4328000   0.55683475   -9.5038178    482.92345 0.0092984337 0.0078417586         3726 
 4329000   0.56387807   -9.5004503    481.82825 0.0092752032 0.0078386831         3721 
 4330000   0.55349494   -9.4946901    482.33724 0.0092828568  0.007835611         3715 
 4331000   0.56215945   -9.4839869    483.08279 0.0092950587 0.0078325424         3741 
 4332000   0.55388226   -9.4946308     482.7234 0.0092859996 0.0078294759         3726 
 4333000   0.56570065   -9.5003122     482.8653 0.0092865856 0.0078264089         3734 
 4334000   0.55874341    -9.496699    482.81091  0.009283397 0.0078233429         3704 
 4335000   0.55056582   -9.5018092    481.82362 0.0092622765 0.0078202776         3758 
 4336000   0.55792828   -9.4899742     482.3994 0.0092712061 0.0078172155         3748 
 4337000     0.551209    -9.480161    482.99347 0.0092804832  0.007814156         3731 
 4338000    0.5593256   -9.4903579    482.06383 0.0092604855 0.0078110981         3714 
 4339000   0.55195493   -9.5157482     482.1005 0.0092590555 0.0078080393         3725 
 4340000   0.56329307   -9.5001504     483.0543 0.0092752362 0.0078049836         3739 
 4341000   0.55459753   -9.4935121    482.26288 0.0092579068 0.0078019274         3722 
 4342000   0.56343899   -9.4940623    482.68289 0.0092638356 0.0077988726         3735 
 4343000   0.55700556   -9.5070101    481.85875  0.009245889 0.0077958198         3734 
 4344000   0.55514392   -9.4872465    482.41868 0.0092545019 0.0077927688         3743 
 4345000    0.5535852   -9.4963479    482.58236 0.0092555114 0.0077897198         3748 
 4346000   0.56787533   -9.4829983    483.28793 0.0092669107 0.0077866752         3742 
 4347000    0.5575483   -9.4935221      482.468 0.0092490606 0.0077836286         3771 
 4348000   0.55649941    -9.506825     482.6577 0.0092505693 0.0077805846         3730 
 4349000   0.54925536   -9.4926413    481.74072 0.0092308715 0.0077775421         3749 
 4350000   0.56170522   -9.4934329     482.6203 0.0092455996 0.0077745016         3745 
 4351000   0.55321363    -9.499962    482.37742  0.009238823  0.007771465         3742 
 4352000   0.53986669   -9.4828078    482.45594 0.0092382034 0.0077684277         3735 
 4353000   0.55293205   -9.5134332     482.7317 0.0092413604 0.0077653919         3753 
 4354000   0.54607668   -9.5165931    483.13018 0.0092468645 0.0077623562         3738 
 4355000   0.54657271   -9.4936477      483.124 0.0092446231  0.007759323         3746 
 4356000   0.55409462    -9.499307    482.29882 0.0092267144 0.0077562892         3759 
 4357000   0.54806266   -9.5042243    481.90109 0.0092169898 0.0077532615         3758 
 4358000   0.55545626   -9.4978174    482.78709 0.0092318168 0.0077502343         3743 
 4359000   0.53624564   -9.5014427    482.60989 0.0092263112 0.0077472071         3737 
 4360000   0.54333197   -9.5136214    482.28638 0.0092180118 0.0077441817         3741 
 4361000   0.55455524   -9.4896853    482.07917 0.0092119386 0.0077411573         3749 
 4362000   0.55791898   -9.4894358    483.06342 0.0092286302 0.0077381357         3754 
 4363000   0.56536362   -9.5128163    482.06099 0.0092073686 0.0077351179         3758 
 4364000   0.54835026   -9.5195403    481.93894 0.0092029282 0.0077321002         3724 
 4365000   0.55881244   -9.5126122    481.73235 0.0091968757 0.0077290838         3736 
 4366000   0.53993993   -9.5067201    482.43589 0.0092081977  0.007726066         3710 
 4367000   0.54104859   -9.4899634    482.81978 0.0092134147 0.0077230507         3743 
 4368000   0.54766784   -9.5129338    482.67154 0.0092084772 0.0077200383         3752 
 4369000    0.5634152   -9.4909219    482.10926 0.0091956446 0.0077170267         3739 
 4370000   0.53509148   -9.5039409    482.45698 0.0092001713 0.0077140165         3737 
 4371000   0.54312239   -9.5252982    481.92008 0.0091878305  0.007711009         3730 
 4372000   0.54154735   -9.5130648    482.34282 0.0091937865 0.0077080034         3748 
 4373000   0.55272612   -9.5035098     482.2808 0.0091905024  0.007704997         3738 
 4374000   0.56082468   -9.5012552    482.49236 0.0091924318 0.0077019946         3746 
 4375000   0.55272679   -9.5015512     482.7506 0.0091952495 0.0076989938         3743 
 4376000   0.54691494   -9.4950143     481.9805 0.0091784829 0.0076959923         3745 
 4377000   0.55636572   -9.5107861    482.81021 0.0091921828 0.0076929951         3761 
 4378000   0.56774778   -9.5007727    481.70468 0.0091690399 0.0076899986         3723 
 4379000    0.5535669   -9.4978483    482.45889 0.0091812988 0.0076870025         3742 
 4380000   0.54032822   -9.5016247    482.78911 0.0091854854 0.0076840081         3748 
 4381000   0.54951481   -9.5136592    482.30734 0.0091742248  0.007681017         3756 
 4382000   0.53875829   -9.5221935    482.26332 0.0091712938 0.0076780253         3772 
 4383000   0.54483347   -9.4955171    483.09583 0.0091850299 0.0076750371         3749 
 4384000   0.55066395   -9.5134853    482.15791 0.0091651062  0.007672049         3714 
 4385000   0.54627304   -9.5145731    482.48367  0.009169207 0.0076690625         3714 
 4386000   0.55104594   -9.5170309    482.21623  0.009162035 0.0076660791         3736 
 4387000   0.54961749   -9.5068586    482.00982 0.0091560258 0.0076630958         3737 
 4388000   0.55538335   -9.5107299    482.71832 0.0091673943 0.0076601136         3730 
 4389000   0.54748411    -9.514919    482.11597 0.0091538689  0.007657134         3722 
 4390000   0.55586916   -9.4987558    482.50307  0.009159132 0.0076541552         3722 
 4391000   0.54221376   -9.5112645     481.6951 0.0091417122 0.0076511803         3741 
 4392000   0.54744029   -9.4982507     481.9415  0.009144306  0.007648206         3761 
 4393000   0.54487338   -9.5082047    482.49212 0.0091526694 0.0076452339         3761 
 4394000   0.55025581   -9.4929924    482.22632 0.0091455455 0.0076422627         3752 
 4395000   0.54252863   -9.5063137    482.03992 0.0091399302 0.0076392923         3717 
 4396000   0.54622901   -9.4968984    482.01503 0.0091373793 0.0076363236         3740 
 4397000   0.55422379    -9.523964    482.47499 0.0091440185  0.007633357         3741 
 4398000   0.54587983   -9.5110742      482.495 0.0091423186 0.0076303914         3771 
 4399000   0.54460028   -9.5154077    482.48849 0.0091401168 0.0076274285         3724 
 4400000   0.54634363   -9.5102892    482.72316 0.0091424841 0.0076244657         3747 
 4401000    0.5605181   -9.5031526     482.6501 0.0091390234 0.0076215074         3721 
 4402000   0.54191443   -9.5043208    482.41198 0.0091324395 0.0076185474         3727 
 4403000   0.56147729   -9.5112756    481.63015  0.009115568 0.0076155876         3747 
 4404000   0.54821328   -9.5185709     482.3901 0.0091278781 0.0076126304         3707 
 4405000   0.53544429   -9.5301584    482.05527 0.0091194716 0.0076096749         3734 
 4406000    0.5461737   -9.5179346    482.15406 0.0091192703  0.007606721         3717 
 4407000   0.53499792   -9.5274071    481.50676 0.0091049611  0.007603767         3736 
 4408000   0.54634959   -9.5177105    482.49001 0.0091214838 0.0076008149         3753 
 4409000   0.55043311   -9.4886706    481.61089  0.009102799 0.0075978655         3713 
 4410000   0.55172438   -9.4975858    482.29903 0.0091137382  0.007594918         3708 
 4411000   0.53784934   -9.4929493    482.49198 0.0091153174 0.0075919733         3764 
 4412000   0.53460766   -9.4984237    482.76898 0.0091184832 0.0075890273         3741 
 4413000   0.55150787   -9.5121605    482.10208 0.0091038235 0.0075860832         3739 
 4414000   0.54057342   -9.5030404    483.03304 0.0091193369 0.0075831405         3757 
 4415000     0.549983   -9.4995677    482.12182 0.0091000721 0.0075801999         3774 
 4416000   0.55760374    -9.522484     481.7646 0.0090912703  0.007577262         3758 
 4417000   0.54908772   -9.5169399     481.7543 0.0090890177 0.0075743246         3732 
 4418000   0.54946692   -9.5064438    482.06654   0.00909285 0.0075713888         3746 
 4419000   0.54620116    -9.512345    482.75005  0.009103682  0.007568455         3765 
 4420000   0.54227073   -9.5004095    481.90214 0.0090856362  0.007565523         3744 
 4421000   0.54426959   -9.5186769    483.05943 0.0091053953 0.0075625925         3736 
 4422000   0.53276287   -9.5194093    482.27408 0.0090885361  0.007559662         3718 
 4423000   0.54061809    -9.526629    481.25227 0.0090672295 0.0075567343         3731 
 4424000   0.54078932   -9.5379545    482.51607 0.0090889857 0.0075538073         3731 
 4425000   0.53629261   -9.5241007    482.33822 0.0090835822 0.0075508813         3730 
 4426000   0.53455822   -9.5204774    481.98946 0.0090749634 0.0075479572         3760 
 4427000   0.53125114   -9.5113458    482.36249 0.0090799354  0.007545036         3737 
 4428000   0.53531226   -9.5087579    482.15784 0.0090740333 0.0075421169         3737 
 4429000   0.54412172   -9.5146299    482.77173 0.0090835352  0.007539198         3749 
 4430000    0.5467177   -9.4982199    482.01275 0.0090672074 0.0075362807         3744 
 4431000   0.54461821   -9.5153162    482.07189 0.0090662733 0.0075333638         3743 
 4432000     0.540293   -9.5359889    480.96419    0.0090434 0.0075304481         3754 
 4433000   0.54230726   -9.5174325    482.20873 0.0090647554 0.0075275335         3740 
 4434000   0.54175154   -9.5188097    481.31322 0.0090458807 0.0075246238         3753 
 4435000   0.54978285   -9.5161053    481.46577 0.0090467075 0.0075217141         3707 
 4436000   0.56103957   -9.5126346     482.1711 0.0090579182 0.0075188074         3726 
 4437000   0.54303413   -9.5074604    482.12796 0.0090550665 0.0075159012         3744 
 4438000   0.54860081   -9.5237584    481.72335 0.0090454287 0.0075129943         3766 
 4439000   0.52864335   -9.5276024    482.79414 0.0090634928 0.0075100914         3743 
 4440000   0.53101124   -9.5177047    481.09325 0.0090295279 0.0075071877         3742 
 4441000   0.54657157   -9.5044008    482.60469 0.0090558562 0.0075042874         3725 
 4442000   0.54458399   -9.4985427    481.95182 0.0090415695 0.0075013871         3735 
 4443000   0.53930554    -9.521416    481.40436 0.0090292663 0.0074984886         3717 
 4444000    0.5278794   -9.5468538    481.11494 0.0090218074 0.0074955911         3732 
 4445000   0.54216593   -9.5166546    482.40432 0.0090439506 0.0074926965         3742 
 4446000   0.54056908   -9.5091601    482.05729 0.0090354118 0.0074898018         3729 
 4447000   0.55158126   -9.5085134    481.86351 0.0090297486 0.0074869112         3742 
 4448000   0.54434856    -9.524735    482.08188 0.0090318098 0.0074840196         3742 
 4449000   0.54327641   -9.5268559    481.61655 0.0090210637 0.0074811299         3732 
 4450000   0.54241776   -9.5300696    481.84959 0.0090234006  0.007478244         3763 
 4451000   0.54159955   -9.5111455    482.05838 0.0090252823  0.007475358         3728 
 4452000   0.53822297   -9.5152413    481.89091 0.0090201203  0.007472473         3748 
 4453000   0.53184236   -9.5290269    481.33106 0.0090076178 0.0074695887         3760 
 4454000   0.53219395   -9.5147883    482.04924 0.0090190324 0.0074667066         3748 
 4455000   0.53073179    -9.514304     481.9676 0.0090154807 0.0074638258         3725 
 4456000    0.5402915   -9.5056387    482.10142 0.0090159601  0.007460948         3751 
 4457000   0.54010035   -9.5229904     482.0289 0.0090125814 0.0074580694         3734 
 4458000   0.53794826   -9.5151799    481.83236 0.0090068858 0.0074551957         3715 
 4459000    0.5580822   -9.5150195    481.93596 0.0090068019 0.0074523206         3741 
 4460000    0.5397732   -9.5087056    482.22309 0.0090101474  0.007449449         3699 
 4461000   0.53856354   -9.5218654    482.02403 0.0090044091 0.0074465785         3741 
 4462000   0.53046326   -9.5421928    481.93102  0.009000654 0.0074437078         3758 
 4463000   0.53415751   -9.5205932    481.99219 0.0089997795 0.0074408368         3716 
 4464000   0.53021658   -9.5225345    482.07549 0.0089993185  0.007437971         3742 
 4465000   0.54335991   -9.5364933     482.4599 0.0090044774  0.007435107         3754 
 4466000   0.52844446   -9.5183465    482.04915 0.0089947968  0.007432245         3753 
 4467000   0.53374999   -9.5261591    481.04002 0.0089739575 0.0074293816         3747 
 4468000   0.53387458   -9.5343038    482.09361 0.0089915996 0.0074265198         3754 
 4469000   0.52429527   -9.5359957    482.43523 0.0089959579 0.0074236579         3748 
 4470000   0.53176746   -9.5248923    482.13151 0.0089882831 0.0074207997         3753 
 4471000   0.53950125   -9.5395186    481.92236 0.0089823746 0.0074179426         3763 
 4472000   0.54000585   -9.5368012    482.63326 0.0089936132  0.007415086         3745 
 4473000   0.54206575   -9.5332116    481.49887 0.0089704685 0.0074122299         3730 
 4474000   0.53403753   -9.5351881     482.0407 0.0089785558 0.0074093778         3732 
 4475000   0.53157675   -9.5166074    481.77821 0.0089716613 0.0074065261         3717 
 4476000    0.5296672   -9.5455294    481.64643 0.0089672033 0.0074036736         3765 
 4477000   0.54180836   -9.5256501    481.39431 0.0089605077 0.0074008265         3753 
 4478000   0.52105794    -9.519575    481.45168 0.0089595741 0.0073979785         3735 
 4479000   0.53004406   -9.5274778     481.9493 0.0089668323 0.0073951344         3722 
 4480000   0.55261392   -9.5194412    482.24183 0.0089702722 0.0073922907         3738 
 4481000   0.53935572   -9.5199192      483.115 0.0089845087  0.007389451         3709 
 4482000   0.53131315   -9.5195597    482.27538 0.0089668932 0.0073866093         3749 
 4483000   0.51872634   -9.5242209    481.57428 0.0089518603 0.0073837691         3738 
 4484000   0.52827894    -9.536758    482.31473  0.008963625 0.0073809294         3741 
 4485000   0.53736176    -9.515047    481.32846 0.0089433011 0.0073780929         3734 
 4486000   0.53714054   -9.5348309     482.3583 0.0089604379 0.0073752588         3733 
 4487000   0.52694779   -9.5458836    481.55511 0.0089435241 0.0073724243         3736 
 4488000   0.52544754   -9.5329448    481.66165 0.0089435095 0.0073695917         3762 
 4489000   0.54096745   -9.5313831    481.31291 0.0089350433 0.0073667582         3726 
 4490000   0.54322626   -9.5319229    481.95411 0.0089449539 0.0073639301         3735 
 4491000   0.54289655   -9.5282722    482.11847 0.0089460118 0.0073611025         3747 
 4492000   0.53539506    -9.535369    481.22601 0.0089274639 0.0073582766         3736 
 4493000   0.54250904   -9.5445746    481.99067 0.0089396594 0.0073554525         3723 
 4494000   0.54084576   -9.5303819    481.23775 0.0089237085 0.0073526294         3732 
 4495000   0.54054573   -9.5326761    482.03395 0.0089364841 0.0073498087         3744 
 4496000   0.54041577   -9.5274687    482.26459 0.0089387714 0.0073469873         3724 
 4497000   0.54519846   -9.5463217    481.62979 0.0089250201 0.0073441667         3738 
 4498000   0.54241757   -9.5257113    482.13263  0.008932352 0.0073413504         3737 
 4499000   0.53852454    -9.531659    481.45428 0.0089178018 0.0073385347         3720 
 4500000   0.54265331   -9.5368553    482.13964 0.0089285118   0.00733572         3750 
 4501000   0.52230827   -9.5320916    481.54771 0.0089155689 0.0073329069         3758 
 4502000   0.54245943   -9.5136935    482.19009 0.0089254793 0.0073300971         3767 
 4503000   0.52892409   -9.5298073    482.10745 0.0089219678 0.0073272871         3733 
 4504000    0.5239567   -9.5299173    482.02755 0.0089185086 0.0073244801         3729 
 4505000   0.52722176   -9.5325681    482.20774  0.008919862 0.0073216719         3751 
 4506000    0.5318252   -9.5151522    481.78424 0.0089100503 0.0073188673         3732 
 4507000    0.5365269   -9.5410198    481.63314 0.0089052796 0.0073160619         3755 
 4508000   0.53230278   -9.5363081     481.0257 0.0088920751 0.0073132585         3763 
 4509000   0.54080149   -9.5542439    482.14518 0.0089107929 0.0073104549         3717 
 4510000   0.53288971   -9.5547096    480.88588 0.0088855484 0.0073076549         3731 
 4511000   0.52490989   -9.5370214    481.13759 0.0088882285 0.0073048554         3744 
 4512000   0.53991895   -9.5309799     481.7883 0.0088982768 0.0073020581         3755 
 4513000   0.52937818   -9.5375271    482.18839 0.0089036928 0.0072992624         3759 
 4514000   0.54105753   -9.5450522     481.6046  0.008890943 0.0072964669         3748 
 4515000   0.53438934   -9.5383999    481.75458 0.0088917419 0.0072936748         3731 
 4516000   0.51388258   -9.5329366    480.67055 0.0088697696 0.0072908808         3765 
 4517000    0.5339249   -9.5372123    482.56588 0.0089027725  0.007288092         3711 
 4518000    0.5239096   -9.5423954    481.93854 0.0088892309 0.0072853039         3744 
 4519000   0.53461585   -9.5481413    480.95561 0.0088691379 0.0072825158         3746 
 4520000   0.52958574   -9.5335448    481.83128 0.0088833201  0.007279729         3751 
 4521000   0.54418139   -9.5318333     481.5133  0.008875494 0.0072769451         3755 
 4522000   0.52728158    -9.531836     481.4649 0.0088726393 0.0072741611         3757 
 4523000    0.5229558   -9.5416916    482.31126 0.0088862713 0.0072713804         3743 
 4524000    0.5312409   -9.5338908    481.17915 0.0088634532  0.007268598         3753 
 4525000   0.52057952   -9.5472642    481.54284 0.0088681923 0.0072658192         3712 
 4526000   0.51732449   -9.5282199    481.36352 0.0088629313 0.0072630424         3718 
 4527000   0.53605903   -9.5374865    481.91533 0.0088711312 0.0072602661         3732 
 4528000    0.5216948   -9.5468495    481.29193 0.0088576989 0.0072574915         3761 
 4529000   0.52926017   -9.5495906    482.17818 0.0088720502 0.0072547202         3729 
 4530000   0.52646032   -9.5523097    481.31191 0.0088541558 0.0072519499         3728 
 4531000    0.5143255   -9.5522377    481.01263 0.0088466973 0.0072491779         3760 
 4532000   0.52479129   -9.5562532    482.28919 0.0088682183 0.0072464078         3729 
 4533000   0.54129621   -9.5451741    480.97632 0.0088421266  0.007243639         3750 
 4534000   0.53488681   -9.5458044     481.9757 0.0088585447 0.0072408744         3767 
 4535000   0.52910738   -9.5369232    481.04347 0.0088394611 0.0072381096         3754 
 4536000    0.5352712   -9.5535536    481.28557   0.00884196 0.0072353451         3727 
 4537000   0.52914789   -9.5344722    482.03085 0.0088537001 0.0072325845         3750 
 4538000   0.51801351   -9.5270317    482.53679 0.0088610399 0.0072298262         3724 
 4539000    0.5264855   -9.5373237    481.31473 0.0088366513 0.0072270688         3756 
 4540000   0.52670264   -9.5388541    481.46397 0.0088374444 0.0072243117         3743 
 4541000   0.51676445   -9.5527259    481.33739 0.0088331754 0.0072215536         3744 
 4542000   0.52236671   -9.5427504    481.20573 0.0088288149 0.0072187972         3705 
 4543000   0.52331376   -9.5440539    481.43548  0.008831086 0.0072160454         3728 
 4544000   0.53354327   -9.5449527    480.75276 0.0088166219 0.0072132925         3749 
 4545000   0.52234084   -9.5458289    481.22308 0.0088233054 0.0072105425         3746 
 4546000   0.51470679   -9.5481481    481.22335 0.0088213695 0.0072077944         3728 
 4547000   0.53527676   -9.5476697    481.77529 0.0088295449 0.0072050468         3745 
 4548000   0.53402655   -9.5488878    480.52074 0.0088046164 0.0072023014         3736 
 4549000   0.52072914   -9.5387711     481.1528 0.0088142595 0.0071995542         3720 
 4550000   0.51512351   -9.5399754    481.18445  0.008812902 0.0071968129         3759 
 4551000   0.53302507   -9.5446314    481.61623 0.0088188719 0.0071940694         3734 
 4552000   0.52251214   -9.5549909    480.62121 0.0087987187 0.0071913281         3720 
 4553000   0.52350872   -9.5389574    481.43775 0.0088117313 0.0071885879         3716 
 4554000   0.50769465   -9.5313959     481.0156 0.0088020715 0.0071858519         3755 
 4555000   0.52620651   -9.5534197    481.90985 0.0088164992  0.007183116         3737 
 4556000   0.51898396     -9.56806    480.71879 0.0087927785  0.007180378         3757 
 4557000   0.52967529   -9.5521292    481.39659  0.008803244 0.0071776422         3742 
 4558000   0.52779858   -9.5258892    481.41531 0.0088016548 0.0071749105         3733 
 4559000   0.52121253   -9.5499176    481.17345 0.0087953032 0.0071721805         3755 
 4560000    0.5066769   -9.5394325    481.66795 0.0088024113 0.0071694498         3768 
 4561000   0.51326667   -9.5538258    481.23439   0.00879256 0.0071667224         3750 
 4562000   0.51311698   -9.5312257    482.11072 0.0088066404 0.0071639936         3757 
 4563000   0.51844429   -9.5421058     481.6657  0.008796583 0.0071612674         3750 
 4564000   0.53087313   -9.5383717    481.75198  0.008796231 0.0071585441         3739 
 4565000    0.5143077   -9.5478447    481.54167  0.008790465 0.0071558203         3743 
 4566000   0.51945113   -9.5299377    481.46414 0.0087871248 0.0071530986         3748 
 4567000    0.5059164   -9.5468115    481.29244 0.0087820677 0.0071503788         3768 
 4568000    0.5203579   -9.5413829    481.01046  0.008775001 0.0071476597         3717 
 4569000   0.52323001   -9.5413194    481.18731  0.008776306 0.0071449421         3751 
 4570000   0.52494374   -9.5473002    482.04099 0.0087899523 0.0071422257         3724 
 4571000   0.52315998   -9.5499072    481.50545 0.0087782661 0.0071395102         3739 
 4572000   0.53821133   -9.5560097    481.23133 0.0087713497 0.0071367966         3747 
 4573000   0.52067531   -9.5647803    481.95452 0.0087826102 0.0071340845         3740 
 4574000   0.51298786   -9.5547232    481.79617 0.0087778052 0.0071313753         3763 
 4575000    0.5142957   -9.5357109    481.13229  0.008763794 0.0071286673         3742 
 4576000   0.51187738   -9.5409169    480.98383 0.0087591753 0.0071259594         3763 
 4577000   0.52186168   -9.5491291      481.609 0.0087686439 0.0071232514         3737 
 4578000   0.52114372   -9.5506648    481.10456 0.0087575462 0.0071205451         3746 
 4579000   0.52097331   -9.5347666    481.72192  0.008766869 0.0071178411         3757 
 4580000       0.5237   -9.5472932    481.87973 0.0087678263 0.0071151375         3728 
 4581000   0.51465428   -9.5513403    481.01911 0.0087502566 0.0071124365         3734 
 4582000   0.50754885   -9.5562004    480.14619 0.0087324711 0.0071097356         3767 
 4583000   0.51618188   -9.5761439    481.18905 0.0087495281 0.0071070367         3739 
 4584000   0.52887507   -9.5425188    481.32946 0.0087501719 0.0071043393         3754 
 4585000   0.50980704   -9.5532204     480.4533 0.0087323391 0.0071016423         3735 
 4586000   0.52688366   -9.5678669    481.48385 0.0087491614 0.0070989476         3744 
 4587000   0.52217917   -9.5651321    481.41178 0.0087459447 0.0070962538         3732 
 4588000   0.52600047   -9.5573853    481.26357 0.0087413465 0.0070935626         3751 
 4589000   0.51169214   -9.5551539    481.15423  0.008737456 0.0070908719         3775 
 4590000    0.5153402   -9.5575089    481.34536 0.0087390225 0.0070881838         3755 
 4591000   0.51989332    -9.543319    481.50699 0.0087400528 0.0070854974         3724 
 4592000   0.52074329   -9.5539719    481.44924 0.0087371016 0.0070828134         3747 
 4593000   0.53305064   -9.5482395    481.44499 0.0087351221 0.0070801303         3745 
 4594000   0.52243751   -9.5607606    481.01926  0.008725498 0.0070774471         3732 
 4595000   0.52323747   -9.5577361    480.67699 0.0087173918 0.0070747655         3744 
 4596000   0.50701834   -9.5550491    481.43123 0.0087291709 0.0070720849         3739 
 4597000    0.5215841   -9.5639283    481.41731 0.0087270197 0.0070694063         3781 
 4598000     0.518022   -9.5561884    481.16378 0.0087205266 0.0070667281         3757 
 4599000   0.51637705   -9.5511928    481.99023 0.0087336056 0.0070640497         3739 
 4600000   0.52286179   -9.5433547    481.02261 0.0087141777  0.007061377         3730 
 4601000   0.51659099   -9.5548818    480.36459 0.0087003658 0.0070587025         3763 
 4602000   0.52024756   -9.5566353    480.83844 0.0087070555   0.00705603         3777 
 4603000   0.50724373   -9.5482123    480.97492 0.0087076349 0.0070533591         3757 
 4604000   0.51922605   -9.5561388    480.52378 0.0086975779 0.0070506896         3738 
 4605000   0.50434605   -9.5492572     481.8097 0.0087189595 0.0070480201         3761 
 4606000   0.50822782   -9.5688202    481.12194 0.0087046234 0.0070453506         3757 
 4607000   0.51006697   -9.5453888    480.50473 0.0086915695 0.0070426839         3732 
 4608000   0.52858007   -9.5476381    481.53473 0.0087083104 0.0070400197         3784 
 4609000   0.52621514   -9.5552485    481.10065 0.0086985725 0.0070373564         3754 
 4610000    0.5126177   -9.5580402    481.34759 0.0087011494  0.007034695         3738 
 4611000   0.51394573   -9.5578078    481.55109 0.0087029403 0.0070320348         3766 
 4612000   0.52630445   -9.5614581    481.17114  0.008694188 0.0070293746         3745 
 4613000   0.51260645    -9.550561    480.79753  0.008685554 0.0070267157         3737 
 4614000   0.51217833   -9.5712745    480.94149 0.0086862717 0.0070240597         3760 
 4615000   0.51922773   -9.5657948    481.28611 0.0086906123 0.0070214051         3757 
 4616000    0.5104586   -9.5675417    481.25114 0.0086880983 0.0070187507         3749 
 4617000   0.51330686   -9.5744668    480.86975 0.0086793328 0.0070160973         3745 
 4618000    0.5092984   -9.5562873    481.11573 0.0086818921 0.0070134477         3734 
 4619000   0.50281597   -9.5658459    481.43624 0.0086857949 0.0070107998         3729 
 4620000   0.50586141   -9.5658211    481.18503 0.0086793837 0.0070081525         3715 
 4621000   0.50059917   -9.5644728    481.29588 0.0086795044 0.0070055051         3734 
 4622000    0.5173535   -9.5546919    480.62902 0.0086656032 0.0070028574         3738 
 4623000   0.51566428    -9.551966    481.13687 0.0086728832 0.0070002143         3744 
 4624000   0.51193647   -9.5631556    481.90968 0.0086849351 0.0069975711         3728 
 4625000   0.50995376   -9.5441311    481.49399 0.0086755673 0.0069949321         3742 
 4626000   0.51206812   -9.5525409    480.78499 0.0086609199 0.0069922923         3713 
 4627000   0.51439372   -9.5687276    481.21798 0.0086668464  0.006989654         3729 
 4628000   0.51298865   -9.5362257    481.01162 0.0086612579 0.0069870161         3726 
 4629000    0.5136046   -9.5692863    481.63176 0.0086705509 0.0069843807         3741 
 4630000   0.51250425   -9.5716519    481.20183   0.00866094  0.006981744         3750 
 4631000   0.51573779   -9.5597185    480.96231 0.0086547598  0.006979111         3770 
 4632000   0.50938015   -9.5446077    481.37701 0.0086603521   0.00697648         3738 
 4633000   0.50324535   -9.5437276    480.16858  0.008636747 0.0069738492         3713 
 4634000   0.50268894   -9.5649137    480.93158 0.0086486041 0.0069712198         3753 
 4635000   0.51640108   -9.5492008    481.60008 0.0086587573 0.0069685899         3770 
 4636000   0.51770507   -9.5640422    481.62971 0.0086574222 0.0069659654         3740 
 4637000   0.51067365   -9.5685112    481.36701 0.0086508341 0.0069633412         3748 
 4638000   0.51503062   -9.5643329    480.65272 0.0086361347 0.0069607165         3724 
 4639000   0.51217497   -9.5782448    481.21059 0.0086442945 0.0069580935         3741 
 4640000   0.50584399   -9.5730967     481.7764 0.0086525933 0.0069554713         3734 
 4641000    0.5162402   -9.5496823    481.02307 0.0086372024 0.0069528529         3736 
 4642000    0.5132974   -9.5607071    481.02186 0.0086353199 0.0069502356         3758 
 4643000    0.5151716    -9.555456     480.9486 0.0086321452 0.0069476186         3764 
 4644000   0.51206589   -9.5520498     481.2818 0.0086362654 0.0069450026         3740 
 4645000   0.51335982   -9.5869051    481.15942 0.0086322106 0.0069423894         3733 
 4646000   0.50298603   -9.5598254    481.23676 0.0086317399 0.0069397766         3728 
 4647000   0.51333832   -9.5694012    480.50955 0.0086168414 0.0069371633         3740 
 4648000    0.5027096    -9.572783    480.32668  0.008611709 0.0069345516         3739 
 4649000   0.51757711   -9.5659149      480.729 0.0086170681 0.0069319413         3743 
 4650000   0.51048201   -9.5685797    479.87379 0.0085998887  0.006929332         3766 
 4651000   0.51374669   -9.5662529    481.04208 0.0086189723 0.0069267257         3755 
 4652000    0.5102105   -9.5503752    481.03844 0.0086170543 0.0069241202         3753 
 4653000   0.50429404   -9.5597192    481.10425  0.008616381 0.0069215158         3754 
 4654000   0.51216919   -9.5724853     480.2398  0.008599051  0.006918913         3752 
 4655000   0.50301952   -9.5696288    480.65108 0.0086045664 0.0069163116         3755 
 4656000   0.49697615   -9.5655186    480.39032 0.0085980513 0.0069137125         3722 
 4657000    0.5051947   -9.5733377    480.39208 0.0085962364 0.0069111137         3766 
 4658000   0.50027557   -9.5617867    481.29228 0.0086104959 0.0069085152         3745 
 4659000   0.50203774   -9.5707719    480.38129 0.0085923534 0.0069059192         3747 
 4660000   0.50330471    -9.569181    480.67981 0.0085958479 0.0069033243         3735 
 4661000   0.50815776   -9.5811614    479.90721 0.0085801904 0.0069007301         3762 
 4662000   0.49337799   -9.5520542    480.97562 0.0085974478 0.0068981371         3716 
 4663000   0.50215785    -9.569567    481.21982 0.0085999683 0.0068955456         3749 
 4664000   0.50969277   -9.5676975    479.97112 0.0085758134 0.0068929569         3760 
 4665000   0.50618328   -9.5704792    480.50044 0.0085834305  0.006890368         3721 
 4666000   0.49462203    -9.591186    481.02499 0.0085909593 0.0068877801         3722 
 4667000   0.51452605   -9.5690563    480.52912 0.0085802643 0.0068851943         3767 
 4668000   0.50804482   -9.5876829    481.15704 0.0085896358   0.00688261         3768 
 4669000   0.51211007   -9.5698004    480.24115 0.0085714491 0.0068800262         3746 
 4670000   0.51271027   -9.5897709    480.83813 0.0085802664 0.0068774451         3746 
 4671000   0.50218827   -9.5724439    480.64461  0.008574977  0.006874864         3741 
 4672000   0.50502457   -9.5800521     481.0342 0.0085800907 0.0068722847         3745 
 4673000   0.50727827   -9.5749731    481.14363  0.008580206 0.0068697062         3742 
 4674000    0.4925556   -9.5587713     480.8468  0.008573078 0.0068671298         3728 
 4675000   0.50511225   -9.5644428    480.40706 0.0085634057 0.0068645529         3738 
 4676000   0.51156795   -9.5728158    481.23793 0.0085763817 0.0068619779         3777 
 4677000    0.5097877    -9.572456    480.89986 0.0085685244 0.0068594048         3723 
 4678000   0.50475002   -9.5738769    481.31882  0.008574156 0.0068568326         3731 
 4679000   0.50215002   -9.5803828    480.71123 0.0085615023  0.006854263         3750 
 4680000   0.50527653   -9.5737236    480.79758 0.0085612104 0.0068516941         3748 
 4681000   0.51116228   -9.5647232     480.7667 0.0085588317  0.006849127         3728 
 4682000   0.49918883    -9.568074     480.5835 0.0085537431 0.0068465607         3731 
 4683000   0.50441082   -9.5858735    480.70915 0.0085541525  0.006843997         3755 
 4684000   0.52255249   -9.5638918    481.52643 0.0085668664 0.0068414332         3751 
 4685000    0.5080656   -9.5833958    480.38242 0.0085446892 0.0068388712         3737 
 4686000   0.51143033   -9.5820288    480.38199  0.008542858 0.0068363083         3741 
 4687000   0.50019823   -9.5771356    480.18437 0.0085375216 0.0068337481         3722 
 4688000   0.49738884   -9.5657954    480.50739 0.0085414426 0.0068311899         3751 
 4689000   0.51098006   -9.6036222    480.79479 0.0085447286  0.006828632         3752 
 4690000   0.49751401   -9.5791884    480.64177 0.0085401877 0.0068260756         3746 
 4691000   0.51013247   -9.5814639     480.2498 0.0085314041 0.0068235189         3756 
 4692000   0.50624794   -9.5760207    481.01858 0.0085432399 0.0068209636         3740 
 4693000   0.51131658   -9.5630144    480.56077 0.0085332902 0.0068184131         3754 
 4694000   0.49888087   -9.5890416    481.11032 0.0085412286 0.0068158605         3727 
 4695000   0.49192997   -9.5712692    480.58114 0.0085300167 0.0068133115         3761 
 4696000   0.50009197   -9.5877824    480.76371 0.0085314401 0.0068107624         3748 
 4697000   0.50582027   -9.5912537    480.29816  0.008521364 0.0068082144         3738 
 4698000   0.51327369   -9.5622045    480.38607 0.0085211095 0.0068056656         3726 
 4699000   0.50138367   -9.5682501    480.67903 0.0085244916  0.006803121         3755 
 4700000   0.49372508   -9.5725796    479.87824 0.0085084794 0.0068005767         3765 
 4701000   0.49398593   -9.5725154    480.01956 0.0085091747 0.0067980349         3737 
 4702000   0.49739197   -9.5719732    480.09138 0.0085086379 0.0067954956         3727 
 4703000    0.5033177   -9.5786275    480.52863 0.0085145763  0.006792956         3760 
 4704000   0.50722069   -9.5726225    480.27045 0.0085081925 0.0067904169         3731 
 4705000   0.50099844   -9.5867141    480.71158 0.0085141972 0.0067878791         3739 
 4706000   0.50357077   -9.5642187    480.49728 0.0085085933 0.0067853451         3765 
 4707000   0.51479264   -9.5776913    480.02916  0.008498498 0.0067828105         3760 
 4708000   0.49657973    -9.579624    480.13289  0.008498529 0.0067802788         3771 
 4709000    0.5089298    -9.581618    481.44428 0.0085199313 0.0067777467         3735 
 4710000   0.49312084   -9.5887689    481.57863 0.0085204994  0.006775215         3764 
 4711000   0.49779694   -9.5879155    480.21638 0.0084945939 0.0067726855         3751 
 4712000   0.49539583   -9.5708946    480.92566 0.0085053349 0.0067701567         3747 
 4713000   0.49490455   -9.5822815    480.77538 0.0085008731 0.0067676291         3755 
 4714000   0.49515868   -9.5771424    481.35647 0.0085093423 0.0067651026         3755 
 4715000   0.49635227    -9.581246    480.07526 0.0084848933 0.0067625799         3758 
 4716000   0.49706488   -9.5932215    480.31559 0.0084873407 0.0067600569         3759 
 4717000   0.49876468   -9.5790723    480.96261 0.0084969721 0.0067575343         3764 
 4718000    0.4920275   -9.5984011    481.03561 0.0084964605 0.0067550147         3742 
 4719000     0.499588   -9.5862116    479.92895 0.0084751174 0.0067524955         3765 
 4720000   0.50108509   -9.5796957    479.92158 0.0084731918 0.0067499772         3750 
 4721000   0.49305396   -9.5669665    480.33516 0.0084786973 0.0067474605         3735 
 4722000   0.50338944    -9.591488    480.27897 0.0084759101 0.0067449446         3752 
 4723000   0.49493419   -9.5883524    480.63665 0.0084804265 0.0067424312         3749 
 4724000   0.48581847   -9.5851375    481.01003 0.0084852179 0.0067399168         3758 
 4725000   0.48838666    -9.588717    479.88854 0.0084636426 0.0067374038         3739 
 4726000   0.49015793   -9.5781101    481.02295 0.0084818549 0.0067348919         3737 
 4727000   0.49679146   -9.5868704    480.04792 0.0084628714 0.0067323826         3735 
 4728000   0.49734027   -9.5911012    480.45056 0.0084681782 0.0067298765         3727 
 4729000   0.50069226   -9.5745811    480.33082 0.0084642775 0.0067273683         3758 
 4730000   0.49319367   -9.5740876    480.01014 0.0084568383 0.0067248614         3747 
 4731000   0.49991161   -9.5999215    480.49629  0.008463614 0.0067223579         3754 
 4732000   0.49350393   -9.5912015    480.50259 0.0084619363 0.0067198542         3749 
 4733000   0.49051494   -9.6060548    480.21764 0.0084551314 0.0067173529         3767 
 4734000   0.48687172   -9.5806861    480.20945 0.0084532011 0.0067148506         3742 
 4735000   0.49767918   -9.5791458    480.31335 0.0084532444 0.0067123518         3756 
 4736000   0.48956393   -9.5851749    480.00274 0.0084459941 0.0067098523         3734 
 4737000    0.4999657   -9.5721505    480.54785 0.0084538008 0.0067073549         3763 
 4738000   0.50071213   -9.5937356    481.04744 0.0084608034 0.0067048596         3741 
 4739000   0.49571246   -9.5935807    480.12365 0.0084427736 0.0067023646         3745 
 4740000    0.4819466   -9.5699429    479.77361 0.0084348384 0.0066998701         3736 
 4741000    0.5082427   -9.5812203    479.59142  0.008429857 0.0066973786         3739 
 4742000   0.50177471   -9.5881866    480.48596 0.0084437994  0.006694887         3739 
 4743000    0.4972245   -9.5962862     480.2999   0.00843875 0.0066923968         3756 
 4744000   0.48804755   -9.5930024    480.17466 0.0084347712 0.0066899081         3717 
 4745000   0.49923404   -9.5777887     480.9502  0.008446614 0.0066874209         3741 
 4746000   0.48477778   -9.5776753    480.34861 0.0084342712 0.0066849354         3773 
 4747000   0.49157434   -9.5841813    480.48895 0.0084349581   0.00668245         3754 
 4748000   0.49534887   -9.5902702    480.54257 0.0084341226 0.0066799683         3734 
 4749000   0.48931696   -9.6009972     479.5997 0.0084158016 0.0066774861         3762 
 4750000   0.49256146   -9.5828699    480.48484 0.0084295586 0.0066750072         3749 
 4751000   0.49128392   -9.5935395    480.63424 0.0084304048 0.0066725291         3734 
 4752000   0.49185613   -9.5847256    480.82794 0.0084320276 0.0066700489         3718 
 4753000   0.48868733   -9.5923078      480.295 0.0084209096 0.0066675721         3749 
 4754000   0.48638896   -9.5958935    480.71243 0.0084264555 0.0066650975         3750 
 4755000   0.48406042   -9.5918869    480.15732 0.0084149548 0.0066626224         3741 
 4756000   0.48944263   -9.5828539    479.93512 0.0084092921 0.0066601497         3751 
 4757000   0.48834301    -9.590046    480.49394 0.0084173139  0.006657677         3722 
 4758000   0.49663671   -9.5828839    480.01827 0.0084072137 0.0066552068         3726 
 4759000   0.49517379   -9.5810335    480.06277 0.0084062263 0.0066527379         3762 
 4760000    0.4892805   -9.6002212    480.94416 0.0084198907 0.0066502703         3728 
 4761000   0.49001925   -9.5977453     479.5136 0.0083930826 0.0066478028         3733 
 4762000   0.48487211   -9.5890907    479.86311 0.0083974365 0.0066453377         3746 
 4763000   0.47664774   -9.5874632    481.16781 0.0084185005 0.0066428732         3732 
 4764000   0.49512861   -9.5903348    480.56278 0.0084061499   0.00664041         3739 
 4765000   0.50182173   -9.5965842    480.36084 0.0084008541 0.0066379479         3747 
 4766000   0.48611479   -9.5810781    480.15388 0.0083954728 0.0066354864         3739 
 4767000   0.50058245   -9.6045424    480.67522 0.0084028253 0.0066330274         3714 
 4768000    0.4810245   -9.5913919    479.60493 0.0083823569 0.0066305693         3755 
 4769000   0.47828263   -9.5925579    480.73163 0.0084002872 0.0066281121         3712 
 4770000    0.4797307   -9.5988744    480.48773 0.0083942651 0.0066256551         3750 
 4771000   0.48736484   -9.5757751     479.6115 0.0083772008 0.0066231994         3751 
 4772000   0.50459638   -9.5937733    480.35238 0.0083883833 0.0066207453         3746 
 4773000   0.48524684   -9.5895267    480.20845 0.0083841129 0.0066182935         3752 
 4774000   0.48746949   -9.6012844    479.59119 0.0083715819 0.0066158434         3764 
 4775000   0.48486026   -9.6083495    480.65556 0.0083884042 0.0066133931         3729 
 4776000   0.47673938   -9.5992105    479.99242  0.008375077 0.0066109467         3744 
 4777000   0.47967086   -9.5934221    479.55684 0.0083657253 0.0066084986         3762 
 4778000   0.48876545   -9.5985999    480.57584 0.0083817468  0.006606053         3723 
 4779000   0.48744975   -9.5982951    480.68314 0.0083818641 0.0066036073         3740 
 4780000    0.4734408   -9.5966927    480.00536 0.0083682943 0.0066011626         3741 
 4781000   0.48593671   -9.6027875     480.0667 0.0083676131 0.0065987201         3749 
 4782000   0.48315567   -9.6035067    479.99016 0.0083645295 0.0065962786         3735 
 4783000   0.49043333   -9.6017429    480.09605 0.0083646257 0.0065938372         3750 
 4784000   0.48521708   -9.6091106    480.05118 0.0083620956  0.006591398         3709 
 4785000   0.48376631   -9.5975096    480.74697 0.0083724655 0.0065889604         3734 
 4786000   0.48706289   -9.6118243    479.85802 0.0083552378 0.0065865227         3728 
 4787000   0.48302655   -9.5973998    480.50208 0.0083647044 0.0065840885         3756 
 4788000   0.47139407   -9.6009057    480.89343 0.0083697686 0.0065816527         3752 
 4789000   0.48244774   -9.5798678    480.19295 0.0083558319   0.00657922         3734 
 4790000   0.48453732   -9.5947527    480.21297 0.0083544359 0.0065767873         3735 
 4791000   0.47963379   -9.5963873    480.23776 0.0083531232 0.0065743557         3745 
 4792000   0.48868701   -9.5985867    479.53263 0.0083391179 0.0065719272         3746 
 4793000   0.49370174   -9.5977898     480.3938 0.0083523506 0.0065694978         3752 
 4794000   0.48807931   -9.5935153    480.04474 0.0083445407  0.006567071         3738 
 4795000   0.48489817   -9.6062285    479.72613 0.0083372632 0.0065646446         3741 
 4796000   0.47714827   -9.5879792    480.06769 0.0083414598 0.0065622185         3761 
 4797000    0.4813955   -9.6170231     480.8793   0.00835382 0.0065597942         3738 
 4798000   0.48011288   -9.5823735    480.53416 0.0083460845 0.0065573725         3749 
 4799000   0.49042693   -9.5896721    480.54635 0.0083445571 0.0065549522         3723 
 4800000   0.48449548   -9.5971739    480.06544 0.0083344694 0.0065525325         3733 
 4801000   0.47297667   -9.6096216    480.63627 0.0083426416 0.0065501132         3771 
 4802000   0.48476357   -9.6108938    479.96328 0.0083292253 0.0065476944         3746 
 4803000   0.47274698   -9.5926269    480.10375 0.0083299284 0.0065452786         3764 
 4804000   0.48312941   -9.6062044    479.95945 0.0083256913 0.0065428615         3735 
 4805000   0.49548439   -9.6038363    480.15015 0.0083272659 0.0065404483         3745 
 4806000   0.47893886    -9.607281    479.97377 0.0083224749 0.0065380368         3756 
 4807000   0.48413045   -9.6076179    479.99211 0.0083210614 0.0065356259         3734 
 4808000   0.48205101   -9.6053076      479.795 0.0083159144 0.0065332145         3747 
 4809000   0.48911053   -9.6000797    479.52904 0.0083095765  0.006530805         3734 
 4810000   0.48280557    -9.592879    480.15212 0.0083186438 0.0065283965         3773 
 4811000   0.48721606   -9.5964438    480.28571 0.0083192286 0.0065259905         3758 
 4812000   0.48833425   -9.6005586    479.80983 0.0083092587 0.0065235848         3764 
 4813000   0.46676138   -9.5991189    479.80323  0.008307418 0.0065211809         3735 
 4814000   0.47296285   -9.6050837     479.8534 0.0083065608  0.006518777         3772 
 4815000   0.48468647   -9.6137366    479.94618 0.0083064413 0.0065163758         3704 
 4816000   0.47479776    -9.602959    480.02935 0.0083061556 0.0065139758         3767 
 4817000   0.47587338   -9.6177469      479.407 0.0082936647 0.0065115754         3760 
 4818000   0.47638287   -9.5990918    479.57977 0.0082949317 0.0065091758         3753 
 4819000   0.48513728   -9.6151726    479.52656 0.0082922903 0.0065067803         3739 
 4820000   0.47869647   -9.6113042    479.96637 0.0082981737 0.0065043839         3747 
 4821000   0.47347325   -9.6119893    479.78053 0.0082932402  0.006501988         3756 
 4822000   0.47824651   -9.6208033    479.62206 0.0082887817 0.0064995938         3750 
 4823000   0.48003087   -9.6097759    479.89502 0.0082917794 0.0064972017         3741 
 4824000   0.48396592   -9.5922601    479.98957 0.0082916937 0.0064948106         3751 
 4825000   0.46694728   -9.6035327    479.63665 0.0082838799 0.0064924191         3737 
 4826000   0.48318011   -9.6060638    479.91882 0.0082870359 0.0064900299         3738 
 4827000   0.48416861   -9.6125994    479.86178 0.0082843343 0.0064876432         3779 
 4828000   0.47429523   -9.6182511    480.00997 0.0082851763 0.0064852568         3764 
 4829000   0.47085593   -9.6027033    480.08373 0.0082847334 0.0064828709         3738 
 4830000   0.47509873   -9.6074682    479.96172 0.0082809131 0.0064804872         3743 
 4831000   0.47967968   -9.6028034    480.71603 0.0082922105 0.0064781039         3752 
 4832000   0.47353998   -9.5884929    479.77488 0.0082742633 0.0064757216         3730 
 4833000   0.47344463    -9.611056    480.10397 0.0082782256 0.0064733416         3762 
 4834000   0.48929516   -9.6156227    479.59585 0.0082677535 0.0064709609         3749 
 4835000   0.47584213   -9.6128638     480.4934 0.0082815133 0.0064685824         3741 
 4836000   0.47423202   -9.6113636    479.74336 0.0082668762 0.0064662036         3740 
 4837000   0.48060314   -9.6179988    479.32251 0.0082579166 0.0064638283         3760 
 4838000   0.47803699   -9.6035394    479.79788 0.0082643978 0.0064614547         3752 
 4839000   0.47390935   -9.5964197    479.44487 0.0082566108 0.0064590802         3734 
 4840000   0.48295556   -9.6045652     479.1955 0.0082506112 0.0064567066         3763 
 4841000   0.48070176   -9.6142829    479.65554 0.0082568261 0.0064543347         3756 
 4842000   0.47122964   -9.5994794    480.49331 0.0082695393 0.0064519632         3770 
 4843000   0.48066315   -9.6201319    479.50803 0.0082508781 0.0064495935         3748 
 4844000   0.46525526   -9.6231618    479.49749 0.0082489934 0.0064472268         3766 
 4845000   0.48636416   -9.6167795     479.3373 0.0082445357   0.00644486         3758 
 4846000   0.47151595    -9.611321    479.61991 0.0082476942 0.0064424955         3748 
 4847000   0.47152538   -9.6203052    479.89677 0.0082507525  0.006440131         3754 
 4848000   0.46448492   -9.6143289    479.69101 0.0082455137 0.0064377661         3749 
 4849000   0.48533226   -9.6136476    479.66863 0.0082434288 0.0064354027         3757 
 4850000   0.47449911   -9.6113432    479.88065  0.008245372 0.0064330408         3742 
 4851000   0.46315058   -9.6047386     479.8562 0.0082432522 0.0064306806         3759 
 4852000   0.48135686   -9.6118936    479.62975  0.008237664 0.0064283226         3748 
 4853000   0.48622583   -9.6181612    479.72381 0.0082375817 0.0064259638         3750 
 4854000   0.47651279   -9.6032127    479.67585 0.0082350613 0.0064236064         3767 
 4855000   0.47209189   -9.6131215    480.12601 0.0082410919 0.0064212498         3737 
 4856000   0.46578632   -9.6130003    480.36871 0.0082435597 0.0064188965         3763 
 4857000   0.47213741   -9.6144139    479.76267 0.0082314643  0.006416544         3759 
 4858000   0.48069468   -9.6195266    480.27277 0.0082385201 0.0064141933         3724 
 4859000   0.48170666   -9.6141296    479.76774 0.0082281633 0.0064118416         3756 
 4860000   0.46382307   -9.6175549    479.83066 0.0082275491 0.0064094929         3758 
 4861000   0.47031633   -9.6185272    479.14561 0.0082141125 0.0064071438         3773 
 4862000   0.47282105   -9.6106033    479.25923 0.0082143705 0.0064047961         3749 
 4863000   0.47325918   -9.6174457    480.03617 0.0082259952  0.006402449         3765 
 4864000   0.47417304   -9.5938048    479.57738 0.0082164436 0.0064001036         3721 
 4865000   0.47760642   -9.6211415     479.9137 0.0082205157 0.0063977595         3742 
 4866000   0.47470243   -9.6202534    479.80944 0.0082170408 0.0063954157         3747 
 4867000   0.47214382    -9.625045    478.62758 0.0081951165 0.0063930741         3773 
 4868000    0.4706659   -9.6075589    479.99283 0.0082168042 0.0063907337         3758 
 4869000   0.46772866   -9.6229071    479.36437 0.0082043604 0.0063883951         3752 
 4870000   0.47211026    -9.622068    479.69737 0.0082083739 0.0063860569         3747 
 4871000   0.47460357   -9.6200819    479.53754 0.0082039544 0.0063837203         3743 
 4872000   0.47227992   -9.6085922    479.36052 0.0081992426 0.0063813862         3755 
 4873000   0.47443905   -9.6068386    479.15758 0.0081940896 0.0063790507         3755 
 4874000   0.48255882   -9.6119413     480.0086 0.0082069586 0.0063767179         3760 
 4875000   0.46734412   -9.6061782    480.01968 0.0082054645 0.0063743859         3755 
 4876000    0.4678444   -9.6183927    479.76496 0.0081994285 0.0063720558         3722 
 4877000   0.46355177   -9.6242743    479.47971 0.0081928732 0.0063697251         3754 
 4878000   0.46720058   -9.6240888    480.61875 0.0082106524 0.0063673959         3766 
 4879000   0.46380659   -9.6131748    479.33261 0.0081870023 0.0063650682         3748 
 4880000   0.48208933   -9.6164111    479.97436 0.0081962835 0.0063627416         3741 
 4881000   0.49031132   -9.6324532    479.68701 0.0081896983 0.0063604163         3746 
 4882000   0.46814728   -9.6109192    479.65756  0.008187518 0.0063580921         3749 
 4883000   0.46196123   -9.6114355    479.58431 0.0081845912 0.0063557697         3727 
 4884000   0.47698167   -9.6133815    479.13628  0.008175271 0.0063534474         3762 
 4885000   0.46497327   -9.6117304    479.78501  0.008184664 0.0063511264         3753 
 4886000   0.47011731     -9.61394    479.83869 0.0081839044 0.0063488072         3743 
 4887000   0.45404491   -9.6149329    479.95512 0.0081842153 0.0063464878         3774 
 4888000    0.4587116   -9.6095378    480.05724 0.0081842818 0.0063441698         3743 
 4889000   0.47642979   -9.6252655    479.74668 0.0081773144 0.0063418542         3750 
 4890000   0.45967197   -9.6219664    479.07977  0.008164277 0.0063395386         3755 
 4891000   0.47583374   -9.6229636    479.77856 0.0081745137 0.0063372234         3758 
 4892000   0.46831686   -9.6140564    480.38308 0.0081831405 0.0063349107         3771 
 4893000   0.47112149    -9.627268    480.07183 0.0081761672 0.0063326002         3743 
 4894000   0.46526851   -9.6138363    479.82327  0.008170264 0.0063302895         3735 
 4895000   0.46634295   -9.6091891    479.72386 0.0081669026  0.006327979         3750 
 4896000   0.46493145   -9.6272992     478.9962 0.0081528492 0.0063256718         3765 
 4897000   0.46246595   -9.6287619     479.3508 0.0081572188 0.0063233642         3747 
 4898000   0.46893475   -9.6260806    479.27076 0.0081541916 0.0063210583         3766 
 4899000   0.46755973    -9.618318    479.77096 0.0081610356 0.0063187534         3763 
 4900000   0.46648501   -9.6125692    479.79457 0.0081597716 0.0063164506         3746 
 4901000   0.47400875   -9.6254143    479.57534  0.008154379 0.0063141477         3763 
 4902000    0.4646344   -9.6343296    479.33978 0.0081487111 0.0063118459         3769 
 4903000   0.46461288   -9.6251959    479.29497 0.0081462875  0.006309545         3753 
 4904000   0.48171889   -9.6110646    478.96787 0.0081390679 0.0063072468         3742 
 4905000   0.46756556   -9.6120366    479.28897 0.0081428639 0.0063049504         3763 
 4906000    0.4575489   -9.6196652    479.24653 0.0081404832 0.0063026527         3729 
 4907000   0.46293495   -9.6306834      479.033 0.0081351981 0.0063003558         3730 
 4908000   0.47073228   -9.6253223    479.68759 0.0081446548 0.0062980618         3778 
 4909000    0.4693208   -9.6324868    479.47215 0.0081393384 0.0062957673         3766 
 4910000   0.46144575   -9.6356351    479.40469 0.0081365357 0.0062934765         3768 
 4911000   0.47108401   -9.6261188    478.86327 0.0081256918 0.0062911844         3741 
 4912000   0.47382168   -9.6261289    479.28322 0.0081311622 0.0062888951         3769 
 4913000   0.47538718   -9.6169389    478.86007 0.0081223297 0.0062866065         3768 
 4914000   0.47295932   -9.6189296    479.39898 0.0081298158 0.0062843193         3767 
 4915000   0.48048946   -9.6330614    479.20363 0.0081248496 0.0062820316         3771 
 4916000   0.47031719   -9.6310369    479.23922 0.0081238002 0.0062797461         3713 
 4917000   0.47217646    -9.623618    479.82058 0.0081320009 0.0062774622         3751 
 4918000   0.46928931   -9.6214598    479.32333 0.0081219217 0.0062751795         3732 
 4919000   0.46337904   -9.6349568    479.80161 0.0081283732 0.0062728971         3745 
 4920000   0.47740925   -9.6268416    479.46755 0.0081210628 0.0062706166         3749 
 4921000     0.458972   -9.6263835     479.4536 0.0081191763 0.0062683389         3718 
 4922000   0.46196833   -9.6300876    479.73061 0.0081222167 0.0062660606         3734 
 4923000   0.45616937   -9.6364682    480.39327  0.008131784 0.0062637837         3755 
 4924000   0.46041769   -9.6328139    479.15986 0.0081092585 0.0062615075         3737 
 4925000   0.45951264   -9.6501228     479.4121 0.0081118799  0.006259233         3765 
 4926000    0.4568257   -9.6285983    478.97316 0.0081028076 0.0062569582         3773 
 4927000   0.47024088   -9.6298141    479.43161 0.0081089169 0.0062546852         3782 
 4928000   0.46022448   -9.6424365    479.41839  0.008107048 0.0062524127         3748 
 4929000   0.46135709   -9.6359463    478.72183 0.0080936267 0.0062501407         3726 
 4930000   0.46121714   -9.6286787     479.1396 0.0080990467 0.0062478709         3739 
 4931000   0.45626235   -9.6221101    478.68026 0.0080896414 0.0062456025         3743 
 4932000   0.46359721   -9.6338561    479.26519 0.0080978844 0.0062433353         3744 
 4933000   0.46635859   -9.6378122    479.44879 0.0080993443 0.0062410687         3769 
 4934000   0.47308916   -9.6298278    479.86388 0.0081047136 0.0062388022         3747 
 4935000   0.47737807   -9.6337469    479.39518 0.0080951567 0.0062365372         3763 
 4936000   0.45484419   -9.6342946    479.68276 0.0080983719 0.0062342746         3750 
 4937000   0.45656107   -9.6401271    479.57399 0.0080948955 0.0062320143         3772 
 4938000   0.45927426   -9.6333277    479.01555  0.008083832 0.0062297541         3768 
 4939000   0.46691974   -9.6325479    479.59262  0.008091932 0.0062274931         3749 
 4940000   0.46354344   -9.6369457    479.48355  0.008088454 0.0062252354         3761 
 4941000   0.46466627   -9.6483101    480.18143 0.0080985872 0.0062229778         3770 
 4942000   0.46367082    -9.635709      478.851 0.0080745144 0.0062207209         3748 
 4943000   0.46156648   -9.6415377     478.9406 0.0080743915 0.0062184651         3722 
 4944000   0.44985711   -9.6412401    478.80439 0.0080704624 0.0062162105         3741 
 4945000   0.45970361   -9.6366159    478.98727 0.0080719121 0.0062139577         3770 
 4946000   0.45919081   -9.6362745    478.86768 0.0080682652 0.0062117046         3751 
 4947000   0.45045881   -9.6306103    480.10274 0.0080874391 0.0062094528         3743 
 4948000   0.46259656   -9.6275403    478.72779 0.0080626481 0.0062072033         3734 
 4949000   0.44861822   -9.6210964    478.91585 0.0080641856 0.0062049545         3727 
 4950000   0.45525463   -9.6264091    479.23575 0.0080679419 0.0062027072         3748 
 4951000   0.45384589   -9.6325852    478.78033  0.008058647 0.0062004599         3759 
 4952000   0.47066454   -9.6499696    477.61361 0.0080373857 0.0061982155         3738 
 4953000   0.46469964   -9.6355274    479.59688 0.0080691311 0.0061959695         3763 
 4954000    0.4544125   -9.6374778    478.80347  0.008054156 0.0061937241         3739 
 4955000   0.45563389   -9.6424052    479.64695 0.0080667162 0.0061914817         3746 
 4956000   0.46023096   -9.6296418    479.12605 0.0080563299 0.0061892395         3767 
 4957000   0.45116414   -9.6326517    478.89204 0.0080507706 0.0061869987         3733 
 4958000   0.46359845   -9.6356694    478.57208  0.008043769 0.0061847583         3752 
 4959000   0.45064864    -9.643788     479.6987 0.0080610792   0.00618252         3757 
 4960000   0.45861717   -9.6358022    478.39436 0.0080375396 0.0061802826         3767 
 4961000   0.46184397   -9.6414185    479.94795 0.0080620163 0.0061780468         3772 
 4962000   0.46517417   -9.6480318    479.74952  0.008057059  0.006175813         3780 
 4963000   0.45420172   -9.6364597    479.16484 0.0080456183 0.0061735779         3793 
 4964000   0.46341153   -9.6333308    478.77049 0.0080373773 0.0061713459         3763 
 4965000    0.4605859   -9.6500503    479.38591 0.0080460877 0.0061691143         3739 
 4966000   0.45668787   -9.6210131    478.83006 0.0080351399 0.0061668838         3750 
 4967000   0.45495935   -9.6527712    479.17758 0.0080393528 0.0061646542         3735 
 4968000   0.44856458   -9.6361897    479.02429 0.0080351633 0.0061624261         3771 
 4969000   0.45499413   -9.6471498      479.325 0.0080385893 0.0061601991         3755 
 4970000   0.45715884   -9.6264464    479.13137 0.0080337253 0.0061579719         3727 
 4971000   0.45761129   -9.6373802    479.71032 0.0080418144 0.0061557479         3759 
 4972000   0.44792572   -9.6399181    479.09045 0.0080298078 0.0061535254         3736 
 4973000   0.46641798   -9.6366491    478.55843  0.008019278 0.0061513027         3765 
 4974000   0.45845529   -9.6476417    479.24749   0.00802921 0.0061490813         3737 
 4975000   0.45837826   -9.6276882    479.83824 0.0080374914 0.0061468615         3749 
 4976000   0.46531941   -9.6580699     479.3122 0.0080270667 0.0061446432         3748 
 4977000   0.45286949   -9.6280592    479.20809 0.0080237105 0.0061424244         3785 
 4978000   0.45845192   -9.6400215    478.74156 0.0080142889 0.0061402087         3742 
 4979000   0.45405115   -9.6653639      479.034 0.0080175738 0.0061379925         3765 
 4980000   0.44995257   -9.6380815    479.02318 0.0080157828 0.0061357775         3717 
 4981000   0.45409077   -9.6471064    478.72703 0.0080092188 0.0061335651         3756 
 4982000   0.44716827   -9.6354268    479.49119 0.0080203933 0.0061313521         3733 
 4983000   0.46174571   -9.6234516    478.34987 0.0079996968   0.00612914         3734 
 4984000   0.44740416   -9.6311186    479.14852 0.0080114453 0.0061269291         3758 
 4985000   0.45624046   -9.6349444    479.30543 0.0080124613 0.0061247204         3766 
 4986000   0.45700183   -9.6345682    478.81835 0.0080027135 0.0061225124         3748 
 4987000   0.44848233   -9.6563382    479.12171 0.0080061779 0.0061203049         3769 
 4988000   0.46158227   -9.6454277    478.03905 0.0079864851 0.0061180978         3763 
 4989000   0.45998614   -9.6415793    478.66602 0.0079953567  0.006115892         3726 
 4990000   0.45791396   -9.6392294    478.91641  0.007997936 0.0061136896         3754 
 4991000   0.45763767   -9.6504089    479.21738 0.0080013587 0.0061114855         3746 
 4992000   0.45739212   -9.6543818    479.68319 0.0080075319 0.0061092831         3744 
 4993000   0.46215162   -9.6451972    479.30877  0.007999679 0.0061070816         3752 
 4994000   0.45334071   -9.6414908     478.2674 0.0079807002 0.0061048817         3740 
 4995000   0.46051104   -9.6321012    478.79686 0.0079879356 0.0061026822         3741 
 4996000   0.44403055   -9.6389617    479.58525  0.007999487 0.0061004843         3753 
 4997000   0.45225086   -9.6442193    478.91552 0.0079867173 0.0060982877         3775 
 4998000   0.44719611   -9.6363909    479.00875 0.0079866738 0.0060960926         3727 
 4999000   0.46279452    -9.647195    479.18926 0.0079880853  0.006093898         3762 
 5000000   0.44578022   -9.6415635    479.05331 0.0079842219 0.0060917048         3753 
 5001000   0.45499871   -9.6365174    478.78682 0.0079781847 0.0060895108         3731 
 5002000   0.45337871   -9.6470467    478.83267 0.0079773536 0.0060873188         3753 
 5003000   0.46143169   -9.6470286    479.49624 0.0079868119  0.006085128         3761 
 5004000   0.44949656   -9.6534749    478.73988   0.00797262  0.006082937         3744 
 5005000   0.45627499   -9.6580432    479.57263 0.0079848924   0.00608075         3775 
 5006000   0.44881425   -9.6373556    478.67878 0.0079684176 0.0060785621         3735 
 5007000   0.45639781    -9.656526    478.96401 0.0079715733  0.006076374         3755 
 5008000    0.4520984   -9.6426445    479.09319 0.0079721311 0.0060741899         3768 
 5009000   0.44981275   -9.6448409    479.04075 0.0079696672 0.0060720062         3748 
 5010000   0.45100191   -9.6578603    479.06153 0.0079684221 0.0060698232         3747 
 5011000   0.44856407   -9.6495213    478.94226 0.0079648483 0.0060676402         3748 
 5012000   0.44287069   -9.6361122     478.9677 0.0079636822 0.0060654583         3744 
Loop time of 12848.7 on 48 procs for 5000000 steps with 4000 atoms

Performance: 67244.229 tau/day, 389.145 timesteps/s
99.4% CPU use with 48 MPI tasks x no OpenMP threads

MPI task timing breakdown:
Section |  min time  |  avg time  |  max time  |%varavg| %total
---------------------------------------------------------------
Pair    | 893.85     | 991.77     | 1083.9     | 133.6 |  7.72
Neigh   | 84.732     | 88.968     | 93.65      |  21.7 |  0.69
Comm    | 776.67     | 882.83     | 999.95     | 172.5 |  6.87
Output  | 17.148     | 17.153     | 17.238     |   0.3 |  0.13
Modify  | 10699      | 10748      | 10796      |  19.6 | 83.65
Other   |            | 119.7      |            |       |  0.93

Nlocal:        83.3333 ave          88 max          78 min
Histogram: 2 3 6 4 3 7 3 5 7 8
Nghost:        2353.77 ave        2384 max        2333 min
Histogram: 5 6 10 2 7 7 6 1 2 2
Neighs:        15966.5 ave       17967 max       13643 min
Histogram: 1 1 6 4 11 9 3 6 3 4
FullNghs:      31931.8 ave       34690 max       29051 min
Histogram: 3 2 6 5 8 4 8 6 4 2

Total # of neighbors = 1532728
Ave neighs/atom = 383.18200
Neighbor list builds = 266305
Dangerous builds = 0

#clear
#
#next RN
#
#jump SELF
Total wall time: 3:34:12
