
units lj                  # Use reduced LJ style units
atom_style atomic         # Uncharged point particles
atom_modify map hash      # Needed for indexing of clusters etc
                          # Used to be able to find where atoms are in relation to each other.

lattice fcc 1.0 spacing 1 1 1
Lattice spacing in x,y,z = 1.5874011 1.5874011 1.5874011
region box block 0 10 0 10 0 10 units lattice
create_box 2 box
Created orthogonal box = (0.0000000 0.0000000 0.0000000) to (15.874011 15.874011 15.874011)
  3 by 4 by 4 MPI processor grid
create_atoms 1 box
Created 4000 atoms
  using lattice units in orthogonal box = (0.0000000 0.0000000 0.0000000) to (15.874011 15.874011 15.874011)
  create_atoms CPU = 0.017 seconds
set type 1 type/fraction 2 0.93 78393
Setting atom values ...
  3709 settings made for type/fraction
mass 1 1.0
mass 2 1.0
pair_style lj/cut  3.5
pair_modify tail  yes
pair_coeff 1  1  1.0  1.0   # Intearaction between 1 and 1 set with epsilon = 1 and sigma = 1
pair_coeff 1  2  1.5  0.8
pair_coeff 2  2  0.5  0.88

write_data data.0
System init for write_data ...
Neighbor list info ...
  update every 1 steps, delay 10 steps, check yes
  max neighbors/atom: 2000, page size: 100000
  master list distance cutoff = 3.8
  ghost atom cutoff = 3.8
  binsize = 1.9, bins = 9 9 9
  1 neighbor lists, perpetual/occasional/extra = 1 0 0
  (1) pair lj/cut, perpetual
      attributes: half, newton on
      pair build: half/bin/atomonly/newton
      stencil: half/bin/3d
      bin: standard
WARNING: Not all mixed pair coeffs generated from mixing. Use write_data with 'pair ij' option to store all pair coeffs. (../write_data.cpp:312)


#############################
#   M E L T   S Y S T E M   #
#############################

velocity all create 2.4 5300450 mom yes dist gaussian # Assign velocities
                                                    # Temperature 2.4, random number seed, zero linear momentum
                                                                                # Gaussian distribution

timestep 0.002   # simulation timestep
thermo 1000       # output thermodynamic data every 1000 steps bf 100

# Define a fix  in this case with index 1 applied to all
# particles in the simulation. This fix is for simulations
# in the anisotropic NPT ensemble. Note that we use the MTK
# correction.
fix 1 all npt temp 2.4 2.4 0.1 iso 5.68 5.68 0.5 mtk yes tchain 5 pchain 5 # Use NPT ensemble
                                                                         # Set temperature and pressure and damping
                                                                         # Numbers of thermostats in chain and in barostat
run 10000          # run for 10000 steps
Per MPI rank memory allocation (min/avg/max) = 3.642 | 3.644 | 3.648 Mbytes
Step Temp E_pair E_mol TotEng Press Volume 
       0          2.4   -3.0493222            0   0.54977785   -2.3496824         4000 
    1000    2.3654658    -1.985019            0    1.5622926    5.6511597    4090.8846 
    2000    2.3854459   -2.0185098            0    1.5587645    5.5818265    4083.0648 
    3000    2.3896538   -1.9936386            0    1.5899461    5.6637229    4093.3461 
    4000    2.3529067   -1.9761122            0    1.5523655    5.9630604    4037.4434 
    5000      2.42088   -1.9926925            0    1.6377197    5.6148364    4107.1828 
    6000    2.4226952   -2.0249936            0    1.6081407    5.6611864    4055.2589 
    7000    2.3615099   -1.9899487            0    1.5514306    5.5920095    4089.8078 
    8000    2.4001583   -1.9758606            0    1.6234768    5.7900401    4067.7679 
    9000    2.4152352   -2.0374142            0    1.5845329    5.3804514    4097.9451 
   10000    2.4150463   -2.0241122            0    1.5975517    5.5625621    4084.3827 
Loop time of 2.4124 on 48 procs for 10000 steps with 4000 atoms

Performance: 716300.440 tau/day, 4145.257 timesteps/s
99.7% CPU use with 48 MPI tasks x no OpenMP threads

MPI task timing breakdown:
Section |  min time  |  avg time  |  max time  |%varavg| %total
---------------------------------------------------------------
Pair    | 1.0652     | 1.1318     | 1.2111     |   3.1 | 46.92
Neigh   | 0.20563    | 0.2126     | 0.21857    |   0.7 |  8.81
Comm    | 0.73697    | 0.81958    | 0.90299    |   4.4 | 33.97
Output  | 0.00024706 | 0.00025353 | 0.00039834 |   0.0 |  0.01
Modify  | 0.20384    | 0.23307    | 0.26172    |   3.6 |  9.66
Other   |            | 0.0151     |            |       |  0.63

Nlocal:        83.3333 ave          92 max          73 min
Histogram: 1 1 5 6 7 4 13 7 2 2
Nghost:        1624.38 ave        1653 max        1589 min
Histogram: 1 0 5 5 10 10 3 9 1 4
Neighs:        9337.56 ave       10827 max        7753 min
Histogram: 2 0 5 7 6 7 13 7 0 1

Total # of neighbors = 448203
Ave neighs/atom = 112.05075
Neighbor list builds = 908
Dangerous builds = 191

# Equilibrate just above the melting temperature to avoid step fn in T

fix 1 all npt temp 1.25 1.25 0.1 iso 5.68 5.68 0.5 mtk yes tchain 5 pchain 5
run 2000
Per MPI rank memory allocation (min/avg/max) = 3.643 | 3.645 | 3.649 Mbytes
Step Temp E_pair E_mol TotEng Press Volume 
   10000    2.4150463   -2.0241122            0    1.5975517    5.5625621    4084.3827 
   11000    1.2428626   -3.0065093            0   -1.1426815    5.7657442    3167.1713 
   12000    1.2684705   -2.9991823            0   -1.0969522     5.685604    3166.2288 
Loop time of 0.588261 on 48 procs for 2000 steps with 4000 atoms

Performance: 587494.293 tau/day, 3399.851 timesteps/s
99.7% CPU use with 48 MPI tasks x no OpenMP threads

MPI task timing breakdown:
Section |  min time  |  avg time  |  max time  |%varavg| %total
---------------------------------------------------------------
Pair    | 0.25603    | 0.286      | 0.31142    |   1.9 | 48.62
Neigh   | 0.038489   | 0.040518   | 0.042376   |   0.4 |  6.89
Comm    | 0.18566    | 0.21276    | 0.24525    |   2.5 | 36.17
Output  | 5.249e-05  | 5.4901e-05 | 6.7656e-05 |   0.0 |  0.01
Modify  | 0.04025    | 0.044125   | 0.049109   |   1.0 |  7.50
Other   |            | 0.004801   |            |       |  0.82

Nlocal:        83.3333 ave          89 max          79 min
Histogram: 3 7 2 4 12 3 6 6 3 2
Nghost:        1924.69 ave        1946 max        1906 min
Histogram: 3 5 6 5 7 8 4 3 4 3
Neighs:        12057.4 ave       13348 max       11141 min
Histogram: 6 5 5 7 8 4 7 3 2 1

Total # of neighbors = 578757
Ave neighs/atom = 144.68925
Neighbor list builds = 142
Dangerous builds = 15

#############################
# L I N E A R  Q U E N C H  #
#############################

# Define solid atoms. This closely follows ten Wolde  Ruiz-Montero and Frenkel  Faraday Discuss  1996  104  93-110
# Compute components of the per-atom q6 vector
compute q6 all orientorder/atom degrees 1 6 components 6 nnn NULL cutoff 1.3 # compute the Q6 parameter.
                                                                             # Use all neighbours within 1.3 unit cell.

# get number of connections
compute coord_number all coord/atom orientorder q6 0.5

# An atom is solid if it has 8 or more connections (of a possible 14)
variable is_solid atom c_coord_number>=8
group solid dynamic all var is_solid    # Must be dynamic to update
dynamic group solid defined

# do clustering
compute cluster solid cluster/atom 1.3 # Create a cluster where all atoms within are solid and max 1.3 units from another member

# define chunks one chunk per cluster
compute clus_chunks solid chunk/atom c_cluster nchunk every compress yes  # Says which atoms are in which chunk

# count the size of each chunk
compute size_chunks solid property/chunk clus_chunks count


# Find the maximum entry in the vector of chunk sizes
variable max_n equal max(c_size_chunks)


# Thermo style which includes this variable
# thermo_style custom step temp pe vol v_max_n

thermo ${N}  # Print the thermo information every 100 steps
thermo 1000  

# Reset the npt fix at a lower temperature (below freezing)
fix 1  all npt temp  ${temp} ${temp}  0.1  iso  5.68  5.68  0.5  mtk yes tchain  5  pchain  5
fix 1  all npt temp  0.45 ${temp}  0.1  iso  5.68  5.68  0.5  mtk yes tchain  5  pchain  5
fix 1  all npt temp  0.45 0.45  0.1  iso  5.68  5.68  0.5  mtk yes tchain  5  pchain  5

dump dmp2 all dcd ${N} traj.dcd
dump dmp2 all dcd 1000 traj.dcd


compute msd all msd com yes
variable twopoint equal c_msd[4]/6/(step*dt+1.0e-6)
fix 9 all vector 10 c_msd[4]
variable fit equal slope(f_9)/6/(10*dt)
thermo_style custom step temp pe c_msd[4] v_twopoint v_fit v_max_n

fix 1 all npt temp 1.25 ${temp} 0.1 iso 5.68 5.68 0.5 mtk yes tchain 5 pchain 5
fix 1 all npt temp 1.25 0.45 0.1 iso 5.68 5.68 0.5 mtk yes tchain 5 pchain 5
run 2000000 # 5000000  # Run for this many steps
Neighbor list info ...
  update every 1 steps, delay 10 steps, check yes
  max neighbors/atom: 2000, page size: 100000
  master list distance cutoff = 3.8
  ghost atom cutoff = 3.8
  binsize = 1.9, bins = 8 8 8
  4 neighbor lists, perpetual/occasional/extra = 1 3 0
  (1) pair lj/cut, perpetual
      attributes: half, newton on
      pair build: half/bin/atomonly/newton
      stencil: half/bin/3d
      bin: standard
  (2) compute orientorder/atom, occasional
      attributes: full, newton on
      pair build: full/bin/atomonly
      stencil: full/bin/3d
      bin: standard
  (3) compute coord/atom, occasional
      attributes: full, newton on
      pair build: full/bin/atomonly
      stencil: full/bin/3d
      bin: standard
  (4) compute cluster/atom, occasional
      attributes: full, newton on
      pair build: full/bin/atomonly
      stencil: full/bin/3d
      bin: standard
Per MPI rank memory allocation (min/avg/max) = 9.821 | 9.826 | 9.832 Mbytes
Step Temp PotEng c_msd[4] v_twopoint v_fit v_max_n 
   12000    1.2684705   -2.9991823 3.9443045e-34 2.7391003e-36 8.3333333e+20            2 
   13000    1.2434619    -3.013142    1.0410414  0.006673342  0.089182888            3 
   14000     1.256009   -3.0211036    2.1395387  0.012735349  0.090278976            2 
   15000    1.2357716   -3.0085725    3.2988703  0.018327057    0.0922993            1 
   16000    1.2385116   -3.0567171    4.4164725   0.02300246  0.093439799            2 
   17000    1.2451059    -3.024009    5.5061774  0.026991065  0.093794097            2 
   18000    1.2318417    -2.984964    6.6210037  0.030652794    0.0930879            3 
   19000    1.2440345   -3.0430777    7.6991923  0.033768386  0.092685456            2 
   20000    1.2153694   -2.9671324    8.9787069  0.037411278  0.093089384            2 
   21000    1.2356607   -3.0046431    10.196241  0.040461274  0.093934797            1 
   22000    1.2408276   -3.0249237    11.376358  0.043092265  0.094580423            1 
   23000    1.2705102   -3.0161423    12.512209  0.045334088  0.095126411            1 
   24000    1.1985072   -3.0036909    13.640346  0.047362311   0.09542736            3 
   25000    1.2482898   -3.0059691    14.706873   0.04902291  0.095372786            4 
   26000    1.2457168   -3.0154787    15.609456  0.050030308  0.094956038            1 
   27000    1.2450147   -3.0145026    16.653755  0.051400477   0.09441574            2 
   28000    1.2312072   -3.0138037    17.610126  0.052411089   0.09381138            1 
   29000    1.2355299   -2.9952767    18.769054  0.053934063   0.09325333            2 
   30000    1.2329122   -3.0307667     20.02728  0.055631332  0.092994231            3 
   31000    1.2229093   -3.0260376    21.157796  0.056875796  0.092955287            1 
   32000     1.246003   -3.0029154    22.245652  0.057931385  0.092918936            1 
   33000    1.2589294   -2.9814254    23.573866  0.059529963  0.092988216            2 
   34000    1.2626067   -3.0189414    24.570462   0.06022172  0.093078895            3 
   35000    1.2530696   -3.0356175    25.959804  0.061809057  0.093223946            2 
   36000    1.2244043   -3.0199958    26.916603   0.06230695  0.093355585            1 
   37000     1.211728   -3.0419191    28.071932   0.06322507  0.093394336            1 
   38000    1.2345663   -3.0040403    29.541757  0.064784554  0.093583614            1 
   39000    1.2301709   -3.0383945    30.568138  0.065316533  0.093819827            4 
   40000    1.2395939   -3.0391124     31.29631  0.065200645  0.093851439            1 
   41000    1.2389042    -3.033893    32.739171  0.066543029  0.093873493            2 
   42000    1.2317607   -3.0214504     33.85603  0.067174662  0.093952284            2 
   43000    1.2599223   -3.0320671    35.057332  0.067940564  0.094060751            1 
   44000    1.2661383   -3.0504531    36.399382  0.068938222  0.094229617            3 
   45000    1.2314549   -3.0406449    37.429625   0.06931412  0.094403429            2 
   46000    1.2249989   -3.0402589    38.232005  0.069260878  0.094442494            1 
   47000    1.2485863   -3.0301373    39.283128  0.069650936  0.094377766            1 
   48000    1.2224759   -3.0120788    40.509906  0.070329697  0.094281565            4 
   49000     1.250636   -3.0275418    41.528332  0.070626415   0.09425271            3 
   50000    1.2581658   -3.0209915    43.079622  0.071799369  0.094244156            2 
   51000    1.2476066   -3.0007606    44.265763  0.072329677  0.094334874            3 
   52000    1.2233079   -3.0423539    45.354621  0.072683688  0.094417152            1 
   53000    1.2505285   -3.0240538    46.351795   0.07288018  0.094464538            2 
   54000    1.2229175    -3.016479    47.471697   0.07325879  0.094499717            2 
   55000    1.2155371   -3.0252686    48.407825  0.073345189  0.094514272            2 
   56000    1.2583091   -3.0434518    49.101852  0.073068232  0.094423553            3 
   57000    1.2505351   -3.0178477     50.19741  0.073388025  0.094325306            2 
   58000    1.2261497    -3.031612    51.476921  0.073961093  0.094228899            1 
   59000    1.2402633   -3.0561921    52.227074  0.073767053  0.094137841            1 
   60000     1.211481   -3.0113517    53.544306  0.074367091  0.094015887            2 
   61000     1.240602   -3.0529621    54.643614  0.074649746  0.093908348            3 
   62000    1.2385279   -3.0728285    56.181262  0.075512448  0.093857455            2 
   63000    1.2355369   -3.0476964    57.210126  0.075674769  0.093824445            2 
   64000    1.2572936   -3.0357172    58.026486   0.07555532  0.093765661            2 
   65000    1.2340743   -3.0373827    59.085049  0.075750062  0.093694719            8 
   66000     1.239794   -3.0253827      60.7244  0.076672221  0.093634215            2 
   67000     1.231197   -3.0383105    61.403477  0.076372483  0.093589193            1 
   68000    1.2264279   -3.0187037    62.879978  0.077058796  0.093565612            2 
   69000    1.2404189   -3.0327657    64.146997  0.077472218  0.093563169            2 
   70000    1.2376196   -3.0119407    65.267526  0.077699435  0.093561464            2 
   71000    1.2247534   -3.0097772    66.091023  0.077571622  0.093562762            2 
   72000    1.2568047   -3.0364288     67.40011  0.078009386  0.093543072            3 
   73000    1.2175162   -3.0626899    68.612771   0.07832508  0.093533351            2 
   74000     1.223129   -3.0121211    69.686378   0.07847565  0.093529145            1 
   75000    1.2405685   -3.0243117    70.120489  0.077911654  0.093476179            1 
   76000    1.2681326   -3.0353766    71.603726  0.078512856  0.093445055            1 
   77000    1.2380362   -3.0563633     72.55122  0.078518636  0.093406984            4 
   78000    1.2101894   -3.0266561     73.39877  0.078417488  0.093344634            2 
   79000    1.2270891   -3.0481429    74.800625  0.078903613  0.093305812            1 
   80000    1.2049058   -3.0273962    75.873917   0.07903533  0.093274211            2 
   81000    1.2125816   -3.0627308     76.95262  0.079169361  0.093247316            2 
   82000    1.2208273   -3.0439674    78.103229    0.0793732  0.093234722            1 
   83000    1.2273672   -3.0282828    79.446142  0.079765202  0.093216785            2 
   84000    1.2164277   -3.0824426    80.116392  0.079480548  0.093180766            1 
   85000    1.2125489   -3.0694562    80.886146  0.079300142  0.093142461            1 
   86000    1.2194729   -3.0526607    82.396624  0.079841689  0.093091663            2 
   87000    1.2391123   -3.0778801    83.405185  0.079890023  0.093036815            2 
   88000    1.2001084   -3.0662976     84.15266  0.079690018  0.092985068            2 
   89000     1.242558   -3.0292377    85.272802  0.079843447  0.092940489            2 
   90000    1.2455604   -3.0538186    86.136213  0.079755752  0.092884722            1 
   91000    1.1983383   -3.0081404    87.748966  0.080356195  0.092823936            4 
   92000    1.2309138   -3.0411733    88.311231  0.079992056  0.092766394            1 
   93000    1.1846507   -3.0728149    89.129196   0.07986487  0.092707612            1 
   94000    1.2226937   -3.0506253    91.256092  0.080900791  0.092657525            2 
   95000    1.2334766   -3.0240199     92.24651  0.080917991  0.092621371            1 
   96000    1.2252677   -3.0395789    92.945961  0.080682257   0.09258686            4 
   97000    1.2353016   -3.0495023     94.19078  0.080919914  0.092553584            3 
   98000    1.2340661    -3.032328    95.488737  0.081197905  0.092524507            2 
   99000    1.2110149   -3.0393271     96.76606  0.081452912  0.092511776            1 
  100000    1.2348785   -3.0446913    97.882842  0.081569035   0.09249743            2 
  101000    1.1943494   -3.0900074    98.354054  0.081150209  0.092477619            1 
  102000    1.2084777   -3.0597444    99.814375  0.081547691  0.092452213            2 
  103000    1.2284903   -3.0850281    100.65616  0.081437023  0.092403372            1 
  104000     1.191521   -3.0473156    101.25822   0.08113639  0.092355186            1 
  105000    1.2122174   -3.0501643    102.73842  0.081538428   0.09231162            3 
  106000    1.2100417   -3.0396672    103.88313  0.081669126  0.092277335            1 
  107000    1.2145084   -3.0743546    104.36376  0.081280185  0.092244543            1 
  108000    1.2135351   -3.0650638    106.25644  0.081987997  0.092213371            1 
  109000    1.2168472   -3.0628652    107.04388  0.081837831  0.092177554            1 
  110000    1.2142559   -3.0289827    107.61389  0.081525676  0.092129701            2 
  111000    1.2276533   -3.0291745    109.40435  0.082135396  0.092087025            1 
  112000    1.1906699   -3.0318434    110.73579  0.082392702  0.092078644            2 
  113000     1.202102   -3.0670072    111.96047   0.08256672  0.092066885            3 
  114000    1.2201351   -3.0739147    112.98969  0.082594805  0.092070156            1 
  115000    1.2127794   -3.0738852    114.14496  0.082713741  0.092067004            3 
  116000    1.2044409   -3.0301885    115.57047   0.08302476  0.092071214            3 
  117000    1.1910412   -3.0511578    116.60828  0.083054327  0.092078767            1 
  118000    1.2213159     -3.06952    117.38253  0.082897267  0.092080363            1 
  119000    1.2122333   -3.0541815    118.19604  0.082770335  0.092080869            4 
  120000    1.2249795   -3.0522613     119.7314  0.083146807  0.092068086            2 
  121000    1.2006462   -3.0715724    120.89706  0.083262437  0.092055484            1 
  122000    1.2022992   -3.0835575    121.30629  0.082859489  0.092028025            1 
  123000    1.2115285   -3.0916497    121.96441  0.082631716   0.09200791            3 
  124000    1.1892904   -3.0692075    123.25827  0.082834861  0.091978691            4 
  125000    1.1942521   -3.0902261    124.94039  0.083293592  0.091963805            1 
  126000    1.2280502   -3.0554961    125.15059  0.082771557  0.091943265            3 
  127000    1.2092267   -3.0373711    127.02036  0.083346693  0.091910596            2 
  128000    1.2156352   -3.1000997     127.7034  0.083140236  0.091870998            1 
  129000    1.2400723   -3.0299231    128.80222  0.083205566  0.091834764            1 
  130000    1.1867252   -3.0941191    129.77956  0.083192027   0.09180777            2 
  131000    1.2015776   -3.0562846    131.02967  0.083352204  0.091780065            4 
  132000     1.217914   -3.0964547     131.6323  0.083101197   0.09175587            2 
  133000     1.205912   -3.1109512    132.42452  0.082972756  0.091725113            1 
  134000    1.1992565   -3.0766559    134.43721   0.08360523  0.091688373            1 
  135000    1.2186751   -3.0682945    134.51103  0.083031498  0.091644132            1 
  136000    1.2198206   -3.0446969    136.03408  0.083354214  0.091599773            2 
  137000    1.1905355   -3.0319969    137.13765  0.083417064   0.09155979            1 
  138000    1.2053518   -3.0542242    138.15155  0.083424848  0.091518258            5 
  139000    1.1752115   -3.0843297    138.82037  0.083225642  0.091472205            2 
  140000    1.1702262   -3.0920971    139.87994  0.083261872  0.091427974            1 
  141000    1.1779599   -3.0860428    141.33659  0.083532263  0.091383726            2 
  142000    1.2162677   -3.0743746    141.26571  0.082902411  0.091342851            2 
  143000    1.2113408   -3.0575588    143.51434  0.083633062  0.091305407            2 
  144000    1.1727771    -3.051373    144.21853  0.083459795  0.091256775            1 
  145000    1.2075273   -3.0793157     143.8549  0.082675228  0.091194148            1 
  146000    1.2287409   -3.0795242    145.63129  0.083122884  0.091131371            1 
  147000      1.19631   -3.0579622    147.19533  0.083444065   0.09107422            2 
  148000    1.1926343   -3.0731927    147.49774  0.083050531  0.091023674            2 
  149000    1.1848519   -3.0453457    149.45288  0.083586623  0.090972313            1 
  150000    1.1931722   -3.0793879    150.16042  0.083422453  0.090939225            3 
  151000    1.2138767    -3.074284    151.74319  0.083743483  0.090910071            3 
  152000    1.1961299   -3.0651896    152.59538  0.083659748  0.090882928            1 
  153000    1.2054387   -3.0759515    153.87836   0.08381174  0.090853411            2 
  154000    1.1857869   -3.0753759    155.10274  0.083930055  0.090830981            1 
  155000     1.211017   -3.0670064     155.4296  0.083564299  0.090801092            1 
  156000    1.1752395   -3.0605266    156.97743  0.083855465  0.090778389            2 
  157000    1.1986473   -3.0969536    157.95592  0.083840721  0.090747676            2 
  158000    1.2045009   -3.0444144    159.24954  0.083992372  0.090711561            2 
  159000    1.1700258   -3.1082005    159.43208  0.083559792   0.09066735            1 
  160000    1.1923103   -3.0775906    160.06675  0.083368101  0.090622309            1 
  161000    1.1909547    -3.105245    161.11077  0.083390665  0.090573526            2 
  162000    1.2120806   -3.0768457    162.15058  0.083410793  0.090529229            2 
  163000    1.1636238   -3.0957214    163.76281  0.083723315  0.090487411            2 
  164000    1.1784023   -3.0818558    165.24672  0.083966827  0.090448885            1 
  165000    1.1728521   -3.0746453    165.56269  0.083617522  0.090425563            1 
  166000    1.2133965   -3.0929127    167.00514  0.083837919  0.090401846            1 
  167000    1.2007027    -3.062679     168.8741  0.084268513  0.090378144            1 
  168000       1.1793   -3.0772995    169.03015  0.083844323  0.090353292            1 
  169000    1.2007607   -3.0806119    170.75003  0.084196268  0.090330034            1 
  170000    1.1992546   -3.0786443    171.31206    0.0839765  0.090314753            3 
  171000    1.1981078   -3.0482738    173.00287  0.084309391  0.090290805            1 
  172000    1.1707055   -3.0970627    173.25545  0.083941595  0.090265635            1 
  173000    1.2189456   -3.1175322     174.1333  0.083879238  0.090236813            2 
  174000    1.1930475   -3.1141201    175.02852  0.083825922  0.090210565            1 
  175000     1.191804   -3.1030254    176.06513  0.083840537  0.090190001            2 
  176000    1.1705097   -3.1393161    177.48873  0.084038222   0.09016783            1 
  177000    1.1684373    -3.098523    178.00132  0.083804762  0.090143208            1 
  178000    1.2089687   -3.1124332    178.93088  0.083769137  0.090119587            2 
  179000    1.1879914   -3.1107693    180.50353  0.084033303  0.090092364            2 
  180000    1.1847392   -3.1159728    181.84041  0.084185376  0.090066249            2 
  181000    1.2029257   -3.0986666    183.01019  0.084258834  0.090039665            2 
  182000    1.1887566   -3.0960164    183.95288  0.084227508  0.090014977            1 
  183000    1.1751984   -3.0787365    185.38931  0.084421363  0.089996617            7 
  184000    1.1637284   -3.0932782    185.77262  0.084136152  0.089978262            3 
  185000    1.1652444   -3.1180404    187.85336  0.084618631  0.089962361            2 
  186000    1.1860731    -3.091649    188.38552  0.084402114  0.089944664            3 
  187000    1.1967044   -3.0674933    189.65997  0.084518704  0.089921682            2 
  188000    1.1750596   -3.1058395    190.32818  0.084365329  0.089898279            2 
  189000    1.1843022    -3.115061     190.4911  0.083990786  0.089866784            2 
  190000    1.1707599   -3.0934179    192.33818   0.08435885  0.089837298            2 
  191000    1.1740029   -3.1014078    192.69667  0.084073589  0.089810268            2 
  192000    1.1788925   -3.1028276    193.98338  0.084194173  0.089778258            2 
  193000     1.185429   -3.0855869      194.127  0.083819948  0.089748225            2 
  194000    1.1888293   -3.0844189    196.22093  0.084287343  0.089715794            2 
  195000    1.1537537   -3.0885585    197.43977  0.084375968  0.089690893            3 
  196000    1.1651492    -3.124141     197.8228  0.084108331   0.08966482            2 
  197000    1.1699188   -3.1067699    199.62939  0.084445598  0.089639073            1 
  198000    1.1623418   -3.1132651    200.02865  0.084187144  0.089616754            1 
  199000    1.1749604   -3.1262903    200.55716  0.083985412  0.089588442            5 
  200000    1.1681574   -3.0882845    202.03507  0.084181281  0.089563449            1 
  201000    1.1528179    -3.107255    202.83453  0.084093919  0.089534068            1 
  202000    1.1584575   -3.1128968    203.04492  0.083764408  0.089498019            1 
  203000    1.1738308   -3.1063941    203.20042  0.083415607  0.089453905            3 
  204000    1.1691428   -3.1215516    205.21472  0.083829543  0.089410341            3 
  205000    1.1922291   -3.0794035     206.0409  0.083756461  0.089370366            2 
  206000    1.1735492   -3.0782958    206.86996  0.083685258  0.089323384            2 
  207000    1.1917672   -3.0870128    207.29205  0.083450906    0.0892807            1 
  208000    1.1878282   -3.0772161    207.46466  0.083118852  0.089233311            1 
  209000    1.1821617   -3.1002133    208.81809  0.083260801   0.08918281            1 
  210000    1.1682279   -3.1060168    209.96786  0.083320578  0.089131044            3 
  211000    1.1820476   -3.1125812    211.77967  0.083641261  0.089084266            2 
  212000    1.1593703   -3.1254075    211.33097  0.083070349  0.089031406            5 
  213000    1.1653015    -3.089868    213.36076  0.083474477  0.088978863            2 
  214000    1.1823795   -3.1222645    212.86306    0.0828906  0.088928384            3 
  215000    1.1727192   -3.0961011    215.81899  0.083650772  0.088880094            1 
  216000    1.1598555   -3.0812241    216.48299  0.083519671  0.088830757            2 
  217000    1.1630474   -3.1286953    216.64259   0.08319608  0.088787273            1 
  218000    1.1557781   -3.1045561    218.54039  0.083539905  0.088746416            1 
  219000    1.1776527   -3.1122874    219.03759  0.083347637   0.08869792            2 
  220000    1.1669862   -3.1032434    220.65706  0.083582219  0.088655102            3 
  221000    1.1921134   -3.1307902    221.56471   0.08354627  0.088610781            2 
  222000    1.1737746   -3.1159068    222.28076  0.083438724  0.088571159            2 
  223000    1.1423396   -3.0968235    224.06384  0.083730882  0.088533328            1 
  224000    1.1855254   -3.1008131    224.51857  0.083526255   0.08849438            3 
  225000    1.1932269   -3.0979219     225.6635  0.083579073  0.088453851            5 
  226000    1.1375455   -3.1098152    225.68658  0.083217765  0.088413138            2 
  227000    1.1444872   -3.1284029    228.44925  0.083865362  0.088372858            3 
  228000    1.1897846   -3.1375228    226.43227  0.082760333  0.088332041            1 
  229000    1.1411544   -3.1114776     229.1454  0.083386243  0.088286763            1 
  230000    1.1786986   -3.0965868     229.8128  0.083265506  0.088245712            2 
  231000    1.1864466   -3.0770525    231.38158  0.083470988  0.088197983            1 
  232000    1.1638062   -3.1223731    230.80222  0.082903095  0.088149895            1 
  233000    1.1809392   -3.1431693    230.52718   0.08244892  0.088096774            2 
  234000    1.1385725   -3.1353943     233.5958  0.083189386  0.088045096            2 
  235000    1.1940566   -3.1108457    232.76019  0.082539073  0.087995193            2 
  236000    1.1701836   -3.1065354    235.31026   0.08308978  0.087942908            1 
  237000    1.1578432   -3.0982806    235.43924  0.082784542  0.087890319            3 
  238000    1.1591361   -3.1060954    236.75193  0.082896333  0.087839306            3 
  239000    1.1564736   -3.1131588    237.73961  0.082893866  0.087789136            1 
  240000    1.1681642   -3.1181825    238.69106  0.082878841  0.087747242            3 
  241000    1.1556607   -3.1331872    241.25981  0.083423171  0.087707827            2 
  242000    1.1588649   -3.1405177    241.79303  0.083262061   0.08767295            3 
  243000    1.1507405   -3.1153429    243.11589  0.083373077  0.087639267            3 
  244000    1.1273433    -3.137835    243.75984  0.083251312  0.087601882            2 
  245000    1.1847364   -3.1388065    243.53138  0.082833804  0.087565303            1 
  246000    1.1322966   -3.1208445    244.80182  0.082927445  0.087526404            4 
  247000    1.1836338   -3.1487077    245.52615  0.082836084  0.087484577       -1e+20 
  248000    1.1590613   -3.1328542    246.08829  0.082690958  0.087441469            2 
  249000    1.1671584   -3.0915487    248.25081  0.083082601  0.087400589            1 
  250000    1.1563697   -3.0889477    247.30973  0.082436577  0.087357144            1 
  251000     1.147625   -3.1012812    249.54489  0.082850228  0.087313024            1 
  252000    1.1422917   -3.1405838    249.68782  0.082568723   0.08726961            2 
  253000    1.1644547    -3.113371    250.76915  0.082598535  0.087227436            2 
  254000    1.1385418   -3.1154883    251.98503  0.082672253  0.087187266            1 
  255000    1.1752626   -3.1403562    252.02071  0.082359708  0.087147101            1 
  256000    1.1365996    -3.114279    254.29452  0.082778163  0.087107186            2 
  257000    1.1436938   -3.1290293    253.94431  0.082342514  0.087065257            2 
  258000    1.1404706   -3.1308143    255.84217  0.082636361  0.087023767            2 
  259000    1.1310472   -3.1413158    256.74679  0.082608361  0.086978097            2 
  260000     1.159564   -3.1199786     256.7692   0.08229782  0.086935166            3 
  261000    1.1449895   -3.1206716    257.84489  0.082325954  0.086890643            4 
  262000    1.1406862   -3.1354047    258.11794   0.08209858  0.086845026            2 
  263000    1.1471629    -3.129217    259.88458  0.082346191  0.086795449            1 
  264000    1.1474131   -3.1344608    260.13115  0.082112105  0.086745903            2 
  265000    1.1648334   -3.1008313     261.7967  0.082326006  0.086694697            3 
  266000    1.1453417   -3.1505427    261.18042  0.081823439  0.086642608            2 
  267000    1.1365843   -3.1426025    262.35504  0.081883594  0.086590866            4 
  268000    1.1391069   -3.1251254    263.56069  0.081952952  0.086536859            1 
  269000    1.1335503   -3.1407295       263.84   0.08173482  0.086482797            3 
  270000    1.1305617   -3.1263809    263.65101  0.081373769  0.086429251            3 
  271000     1.170767   -3.1121082    266.01019  0.081798951  0.086371297            2 
  272000    1.1315279   -3.1290891     266.4118  0.081621262  0.086314928            4 
  273000    1.1465791   -3.1131332    266.44117  0.081331249  0.086257103            2 
  274000    1.1707147   -3.1558822    267.14938  0.081249811  0.086199553            2 
  275000    1.1362608   -3.1230332    269.66788  0.081717539  0.086146237            2 
  276000    1.1454326    -3.128425    270.66135  0.081721423  0.086093942            5 
  277000    1.1604878   -3.1428001    270.91943   0.08150404  0.086039289            2 
  278000     1.146093   -3.1543119    271.85501  0.081491309  0.085985619            3 
  279000    1.1380616   -3.1402112    273.72452  0.081757622  0.085934217            4 
  280000    1.1313278    -3.119787     273.7395  0.081470091  0.085880364            2 
  281000    1.1461583   -3.1617858    273.99018  0.081254501  0.085826265            2 
  282000    1.1433196    -3.126115     275.1262  0.081302069  0.085772525       -1e+20 
  283000    1.1176322   -3.1698719    276.08882  0.081298237  0.085717329            2 
  284000    1.1325023   -3.1175646    278.86033  0.081825215  0.085664504            2 
  285000    1.1204065   -3.1538532    278.10536  0.081317357  0.085611487            1 
  286000    1.1422599   -3.1091724    280.30967  0.081675311  0.085562836            2 
  287000     1.127941   -3.1668866    279.49748    0.0811549  0.085513814            2 
  288000    1.1421329   -3.1359768     280.4662  0.081153413  0.085462688            1 
  289000    1.1520694   -3.1158795    283.27478  0.081682464  0.085416175            2 
  290000    1.1361214   -3.1437909    283.78235  0.081546651  0.085369204            1 
  291000    1.1459543   -3.1433179    284.92062  0.081592388  0.085321967            1 
  292000    1.1153643   -3.1476671    285.09839  0.081363695  0.085276497            2 
  293000    1.1654217    -3.143906    285.50241  0.081200914  0.085232375            1 
  294000    1.1142476   -3.1710804    287.53351  0.081500428  0.085189216            3 
  295000    1.1386916   -3.1535908    288.06361    0.0813739  0.085143841            4 
  296000    1.1221289   -3.1563216     288.4824  0.081216891  0.085100646            3 
  297000     1.125476   -3.1352758    290.03104  0.081377958  0.085056583            1 
  298000    1.1375701   -3.1378508    291.84858  0.081613138  0.085015435            2 
  299000    1.1469998   -3.1305463    292.19936  0.081437949  0.084973927            1 
  300000     1.140266    -3.135459     294.5211  0.081811416  0.084934627            1 
  301000    1.1202588   -3.1448082    294.10358  0.081424024  0.084894951            3 
  302000    1.1442949   -3.1786784    294.73725  0.081329264  0.084855066            1 
  303000    1.1220065   -3.1412347    296.48024   0.08154022  0.084820327            4 
  304000    1.1249476   -3.1367995    298.89031  0.081932649  0.084786242            3 
  305000    1.1176276    -3.136371    300.21929  0.082027127  0.084754366            3 
  306000    1.1451797   -3.1593163    300.00206  0.081699907  0.084724332            1 
  307000    1.1384965   -3.1621814    300.51542  0.081573132  0.084688558            2 
  308000     1.141735   -3.1898954    300.84388  0.081397155  0.084652461            3 
  309000    1.1131262   -3.1875823    301.77637  0.081385212  0.084614406            3 
  310000    1.1366837   -3.1560293     302.0705  0.081201748  0.084579009            7 
  311000    1.1417504   -3.1650264    305.13511  0.081761818  0.084544509            2 
  312000    1.1364582   -3.1666266    306.43139  0.081845991  0.084514931            2 
  313000    1.1370684   -3.1508972    307.33898  0.081826139    0.0844869            3 
  314000     1.123371    -3.141174    307.62335  0.081641015  0.084457294            1 
  315000    1.1469371   -3.1444505    308.24486  0.081546259  0.084426774            1 
  316000     1.126147     -3.15095    310.45675  0.081871506  0.084397374            2 
  317000    1.1395752   -3.1518719    310.97291  0.081748925  0.084370269            2 
  318000    1.1267904   -3.1725507    310.73819  0.081430342  0.084340961            1 
  319000    1.1312649   -3.1353605    313.07275  0.081784939  0.084309739            3 
  320000    1.1334056    -3.131771    315.05656   0.08204598  0.084285476            1 
  321000    1.1387286   -3.1413861    314.02001  0.081521291  0.084258468            2 
  322000    1.1380012   -3.1602206    313.86876  0.081228975  0.084231985            4 
  323000    1.1189286   -3.1301903    315.96222    0.0815176  0.084201726            3 
  324000    1.0895958   -3.1350886    317.17521  0.081577986  0.084172957            1 
  325000    1.1134002   -3.2091518    316.47328  0.081146994  0.084145217            2 
  326000    1.1367554   -3.1581668    318.49642  0.081415241  0.084116403            2 
  327000    1.1088193   -3.1705514     319.7903     0.081496  0.084089063            2 
  328000    1.1295261   -3.1608688    320.77772  0.081498405  0.084059993            3 
  329000    1.1059978   -3.1634794    321.70182  0.081484758  0.084031098            1 
  330000    1.1321884   -3.1598771    322.10638  0.081339995  0.084005689            3 
  331000    1.1063727   -3.1641753    322.83837  0.081278543   0.08397834            2 
  332000    1.1258414   -3.1663012    323.86742  0.081292024   0.08395091            2 
  333000     1.120642    -3.159454    325.31358  0.081409804  0.083927182            3 
  334000    1.1186749   -3.1927332    325.41972  0.081192545    0.0839003            3 
  335000    1.1187518   -3.1703034    328.27109  0.081659476  0.083874235            1 
  336000    1.1067476    -3.167856    328.83357  0.081555944   0.08384683            1 
  337000    1.1298717   -3.1691176    328.63644  0.081265192  0.083819814            1 
  338000    1.1525852   -3.1792692    330.14431  0.081396525  0.083793248            2 
  339000    1.1098773   -3.1604874    332.28434  0.081682482  0.083767281            3 
  340000    1.1055547   -3.1584359    332.96351  0.081608704  0.083744709            2 
  341000     1.121915   -3.1869642    333.14642  0.081414081  0.083724453            1 
  342000     1.134283   -3.1826054    335.60917  0.081776114  0.083704472            1 
  343000    1.1464087    -3.152101    335.86069  0.081598807  0.083682876            4 
  344000    1.1417697   -3.1707734    335.27469  0.081219644  0.083660239            2 
  345000    1.1338571   -3.1690811    337.18941  0.081446717  0.083637233            2 
  346000     1.137089   -3.1700403    337.48359  0.081282175  0.083612435            1 
  347000    1.1073669   -3.1613145    339.33709  0.081493058  0.083587481            1 
  348000    1.1089695   -3.1531264    339.94564  0.081404607  0.083563986            2 
  349000     1.107919   -3.1829407    341.33908  0.081504078  0.083540986            1 
  350000    1.1105998   -3.1681026    342.37109  0.081516926   0.08351897            3 
  351000    1.0970043    -3.161076    341.70743  0.081127119  0.083495287            4 
  352000    1.1210579    -3.169055    342.95246  0.081191398  0.083469757            2 
  353000    1.1332591   -3.1860831    343.09446  0.080994915  0.083442865            2 
  354000    1.1330656   -3.1782793    343.63301  0.080892894  0.083413029            2 
  355000    1.0893674   -3.1656013    345.24981  0.081044555  0.083384029            2 
  356000    1.0844959   -3.1820454    346.68935  0.081153875  0.083354553            1 
  357000    1.0929135    -3.161143    346.62357  0.080911198  0.083325588            4 
  358000    1.1140845    -3.185636    348.75028  0.081180234  0.083297144            1 
  359000    1.1233578   -3.2036616    348.44425  0.080883066  0.083269156            7 
  360000    1.1251022   -3.1648486    350.13048  0.081048723  0.083241978            1 
  361000    1.1282393   -3.1803144    349.44197  0.080665275  0.083213693            2 
  362000    1.1222045   -3.1577748    351.26676  0.080862513  0.083184357            2 
  363000    1.1129897    -3.203438    351.16452   0.08061628   0.08315304            3 
  364000     1.094107   -3.1755716    353.21356  0.080863911  0.083122967            1 
  365000    1.1123782   -3.2289829    353.49234  0.080706014  0.083092406            2 
  366000    1.1109464   -3.1970433    353.02952  0.080380128  0.083059874            3 
  367000    1.1133827   -3.1767768      355.261  0.080667802  0.083030362            5 
  368000    1.1286579   -3.1655453     357.1651  0.080879777  0.083002433            3 
  369000    1.1306154   -3.1915935    357.18377  0.080664808  0.082975976            2 
  370000    1.0991829   -3.1826266    356.32802  0.080254058  0.082947445            2 
  371000    1.1177033   -3.1903122    358.87934  0.080610813  0.082917723            2 
  372000    1.1009592   -3.1764436    361.57165  0.080997232  0.082891282            3 
  373000    1.1187204   -3.1825105     362.8349  0.081062311  0.082864711            8 
  374000      1.13059   -3.1582347     363.2079  0.080928676  0.082842094            1 
  375000    1.1106784   -3.2159506    363.93945  0.080875433  0.082818176            2 
  376000    1.0928788   -3.1718619    366.31141   0.08118604  0.082791673            2 
  377000     1.102134   -3.2030253    367.37226  0.081205186  0.082768714            3 
  378000    1.1198283   -3.1978324    365.72944  0.080628183  0.082745217            2 
  379000    1.1028679   -3.1858622    367.67881  0.080844065  0.082722672            6 
  380000    1.1183916   -3.1829151    369.42865  0.081015056  0.082702695            2 
  381000    1.0784224   -3.1683866    371.36317  0.081225541  0.082681263            1 
  382000    1.1074907   -3.1771988    369.60158  0.080628618  0.082660284            2 
  383000    1.1088173   -3.2175577    371.47163  0.080824985  0.082637507            2 
  384000    1.1008641   -3.1882038    373.52279  0.081059634  0.082613846            3 
  385000    1.1103428   -3.1577021    371.99726  0.080518888  0.082588371            1 
  386000     1.089992     -3.21482    371.41543  0.080184678  0.082563963            6 
  387000    1.0878144   -3.1683941    375.83415  0.080928974  0.082538882            2 
  388000    1.0868796   -3.1612564    375.86051  0.080726055  0.082517146            3 
  389000    1.0969017   -3.1961649    375.82648  0.080511241  0.082495423            4 
  390000     1.100495   -3.1770104    377.52373  0.080667463  0.082471098            1 
  391000    1.1066179    -3.221973    376.82674  0.080312605   0.08244784            3 
  392000    1.1031264     -3.18855    378.68101  0.080501916  0.082424668            2 
  393000    1.0872655   -3.1734106    380.54501  0.080692327  0.082403127            3 
  394000    1.0841178   -3.1695736    381.49052  0.080687504  0.082383387            1 
  395000    1.0764718    -3.217321    381.32343  0.080447982  0.082363634            3 
  396000    1.0787363   -3.2100701    383.79926  0.080765837  0.082343361            1 
  397000    1.1129092   -3.2024414    382.85178  0.080363514  0.082322421            4 
  398000     1.093741    -3.195246    384.45619  0.080497528  0.082301332            2 
  399000    1.0835749   -3.2224838    384.37061  0.080277904   0.08227807            2 
  400000    1.0972411   -3.1881273    387.24892  0.080676859  0.082254887            3 
  401000    1.1076926   -3.1862025     386.5321  0.080326704  0.082232259            3 
  402000    1.0822623   -3.2325588    386.79455  0.080181292  0.082208729            5 
  403000    1.0985103   -3.2027705     388.1166  0.080255707  0.082186899            1 
  404000    1.1088332   -3.1808181    391.03757  0.080659564  0.082164062            2 
  405000    1.1019331   -3.1851823      389.568  0.080158025   0.08214168            3 
  406000    1.0820865   -3.2225297    390.64454  0.080181556  0.082120799            2 
  407000    1.0772449   -3.1991922    391.17458  0.080093075  0.082098207            1 
  408000    1.0999852   -3.1805469    394.66559  0.080609802  0.082075828            3 
  409000    1.1017235   -3.1917385    395.33999  0.080550119  0.082055607            2 
  410000    1.0962773   -3.2045292    396.60787  0.080611356  0.082033567            5 
  411000    1.1030976   -3.2055771    396.90716  0.080475904  0.082015311            1 
  412000    1.0919302    -3.173832    398.99416  0.080702703  0.081997104            4 
  413000    1.0966563   -3.1955993    399.29748  0.080568499    0.0819768            1 
  414000    1.0471308   -3.2295358    397.70389  0.080053117  0.081954006            2 
  415000    1.0906991   -3.1879458     400.0346  0.080328234  0.081931873            2 
  416000     1.094109   -3.1649409    401.18384  0.080365353  0.081912099            1 
  417000      1.09931   -3.1900245    402.43549  0.080422759  0.081890735            2 
  418000    1.0666156   -3.2200606    402.18806  0.080181032  0.081870396            3 
  419000    1.0915827   -3.2131298    404.45362  0.080440259  0.081850516            2 
  420000    1.1087982   -3.2248191    404.76353  0.080310223  0.081831541            6 
  421000    1.0701312   -3.2039407    407.09206  0.080580377  0.081810869            2 
  422000    1.0847425   -3.2179083    404.76552  0.079929999  0.081789212            2 
  423000    1.0669757   -3.2191692    405.85254  0.079955188  0.081766332            2 
  424000    1.0959724   -3.2225722     406.5148  0.079896777  0.081743531            2 
  425000    1.0761051   -3.2145664    407.00364  0.079804636  0.081722591            3 
  426000    1.0838721    -3.244799    409.95852  0.080195329  0.081701507            2 
  427000    1.1011075   -3.2197754    410.14927  0.080044745  0.081680065            2 
  428000    1.0876471   -3.2143107    408.83895  0.079602599  0.081655905            3 
  429000    1.0928464   -3.2252317    412.22308  0.080074413  0.081634181            3 
  430000    1.0910295   -3.2001621    413.63596  0.080162008  0.081610802            2 
  431000    1.0782329   -3.2244779     412.3542  0.079728191  0.081587731            2 
  432000    1.0764704   -3.2354486     412.0376  0.079482562  0.081563053            1 
  433000    1.0691991   -3.2249589    415.68148  0.080000285  0.081539877            3 
  434000    1.1105987   -3.1839142    417.34463  0.080135297  0.081517029            1 
  435000    1.1014573    -3.213467    416.34096  0.079758804  0.081494778            4 
  436000    1.0843416   -3.2152189     416.5174  0.079609595   0.08147112            4 
  437000     1.102409   -3.2362848    418.01723   0.07971343  0.081448399            3 
  438000    1.1024113   -3.2313202    418.72171   0.07966547  0.081425106            3 
  439000    1.0813712   -3.2289902    420.38226  0.079799214  0.081402241            2 
  440000    1.0853645   -3.2201575    420.75849  0.079689108  0.081377326            2 
  441000    1.0682602   -3.2068874    421.06247  0.079565848  0.081353559            4 
  442000    1.0800845   -3.2206618    420.50916  0.079281517  0.081327816            1 
  443000     1.077985   -3.2120585    424.13001  0.079783675  0.081301457            2 
  444000    1.0701599   -3.2129665    423.04943  0.079401169   0.08127617            2 
  445000    1.0836207   -3.2154409    425.10691  0.079608035  0.081252405            2 
  446000    1.0596194   -3.2522045    425.20113  0.079447147  0.081230177            2 
  447000    1.0533377   -3.2386119    426.44385   0.07950109  0.081205257            2 
  448000    1.0834777   -3.2224891    427.69066  0.079555554  0.081181711            2 
  449000     1.090878   -3.2070056    428.79157  0.079582697  0.081157841            3 
  450000    1.0706632   -3.2323226    429.13002  0.079468523  0.081133458            2 
  451000    1.0675437   -3.2189122    429.46868  0.079354892  0.081109429            2 
  452000    1.1126934   -3.2284633    431.03515  0.079468132  0.081085561            2 
  453000    1.0749076   -3.2175801    431.83277  0.079439435  0.081062377            1 
  454000    1.0533453   -3.2071009    431.23906   0.07915548  0.081038316            1 
  455000    1.0662019   -3.2032283    431.58809  0.079045437   0.08101496            3 
  456000    1.0564433   -3.2588212    434.47076  0.079398896  0.080991024            2 
  457000    1.0642455   -3.2417916    434.49331  0.079229268  0.080966456            2 
  458000    1.0767053   -3.2443412    434.47442  0.079052843  0.080941221            2 
  459000    1.0820031   -3.2533385    438.62373  0.079633938  0.080917725            3 
  460000    1.0806313   -3.2137233    436.81298  0.079132786  0.080894231            2 
  461000    1.0710465   -3.2243027    438.54196  0.079273674   0.08087042            3 
  462000    1.0954738   -3.2292218    436.95729   0.07881625  0.080844597            3 
  463000    1.0555889   -3.2551749    438.13479  0.078857954  0.080818678            1 
  464000    1.0502209    -3.236513    439.84865  0.078995806   0.08079203            3 
  465000    1.0747503   -3.2192673    440.43881  0.078931687  0.080765853            2 
  466000    1.0799585   -3.2366735    440.90063  0.078844891  0.080740164            2 
  467000    1.0526346   -3.2528501    441.18523  0.078726843  0.080711996            1 
  468000    1.0608678   -3.2313885    441.88267  0.078682811  0.080682358            1 
  469000    1.0733398   -3.2183944    443.91725  0.078876554   0.08065287            5 
  470000    1.0549856    -3.244248    444.64878  0.078838437  0.080623321            5 
  471000    1.0618735   -3.2487568    442.07886  0.078216359  0.080592799            3 
  472000    1.0485652   -3.2247377    445.48447  0.078651919  0.080561706            2 
  473000    1.0454538   -3.2672643    446.57516  0.078677794  0.080531198            2 
  474000    1.0588853   -3.2596146    445.20676  0.078271231  0.080500796            2 
  475000    1.0724301   -3.2498561    446.64089  0.078358051  0.080470994            2 
  476000    1.0609863   -3.2788168    447.36978   0.07832104  0.080441199            4 
  477000    1.0728791   -3.2253374    449.21812  0.078479755  0.080411086            3 
  478000    1.0527068   -3.2745856    449.29096  0.078328271  0.080382421            2 
  479000    1.0685348   -3.2682938    452.35659  0.078698085  0.080354733            1 
  480000    1.0965805    -3.249995    452.04389  0.078479843  0.080326734            2 
  481000    1.0803659   -3.2389016    453.05034   0.07849105  0.080298932            3 
  482000    1.0548872    -3.270502    453.48504   0.07840336  0.080269872            4 
  483000    1.0455344   -3.2398431    453.71869  0.078281347  0.080242493            1 
  484000    1.0641959    -3.249107    456.79623  0.078649488  0.080215188            3 
  485000     1.068595   -3.2460862    455.93397  0.078339169   0.08018687            3 
  486000    1.0507835    -3.234622     455.8832  0.078169273  0.080159935            1 
  487000    1.0785199   -3.2368583    457.07877  0.078213342  0.080132821            4 
  488000     1.055642   -3.2557311     459.3943  0.078448481   0.08010553            2 
  489000    1.0602118   -3.2657354    459.59674  0.078322552  0.080078254            2 
  490000    1.0573669   -3.2513264    460.07415  0.078243904  0.080050926            2 
  491000    1.0811027   -3.2536239    462.19057   0.07844375  0.080022911            1 
  492000    1.0396219   -3.2520994    462.49537  0.078335937   0.07999504            3 
  493000    1.0407968    -3.276621    463.30558  0.078313993  0.079966485            1 
  494000    1.0383606   -3.2429342     462.8839  0.078084328  0.079937192            2 
  495000    1.0671699   -3.2459707    465.50101  0.078367174  0.079907493            2 
  496000    1.0587337   -3.2365999    464.27933   0.07800392  0.079877487            2 
  497000    1.0891504   -3.2655975    463.43485  0.077705373  0.079847768            2 
  498000    1.0765894    -3.209515    467.13248  0.078168086  0.079818174            4 
  499000     1.066264   -3.2383513     468.5319   0.07824514  0.079789618            6 
  500000    1.0604518   -3.2273316    468.45299  0.078075499   0.07976039            1 
  501000    1.0624773    -3.272616    468.38405  0.077908191   0.07973227            3 
  502000    1.0646133   -3.2046746    468.31698  0.077741862   0.07970289            1 
  503000     1.033959   -3.2803201    468.17655  0.077564041  0.079671742            2 
  504000    1.0399409   -3.2454277    469.02535  0.077550488   0.07964047            3 
  505000     1.057007   -3.2291689    471.76075  0.077848309  0.079609688            1 
  506000    1.0838488   -3.2397108    471.43996  0.077641626  0.079579784            2 
  507000    1.0382333   -3.2150724    473.86937  0.077887799  0.079550556            2 
  508000    1.0624664   -3.2778479    473.96091  0.077749492  0.079520747            3 
  509000     1.032256   -3.2828963    472.91218  0.077425045  0.079491113            2 
  510000    1.0622532   -3.2485168    476.95886  0.077934454  0.079460793            1 
  511000    1.0625966   -3.2670937    477.81709  0.077921901  0.079431209            4 
  512000    1.0626209   -3.2777654    479.48268  0.078040801  0.079402533            1 
  513000    1.0253923    -3.248795    476.74427  0.077443839  0.079373782            2 
  514000    1.0664725   -3.2464572    478.83691  0.077632443  0.079345206            2 
  515000    1.0441807   -3.2700159     479.8119  0.077639467  0.079317641            2 
  516000    1.0426228   -3.2729588    478.58814  0.077291366  0.079289298            2 
  517000    1.0538764    -3.257227     481.3132   0.07758111  0.079260038            1 
  518000    1.0489672   -3.2721338    482.00369   0.07754242  0.079230496            4 
  519000    1.0528397   -3.2450584    481.70853  0.077345621  0.079200025            1 
  520000    1.0374181   -3.2389771    482.11927  0.077262704  0.079170832            2 
  521000    1.0540686   -3.2695401    483.70926  0.077368723  0.079141758            3 
  522000    1.0620435   -3.2536876    485.40111  0.077490598  0.079112638            1 
  523000    1.0406098   -3.2379938    486.25933  0.077479179  0.079082634            2 
  524000    1.0370547   -3.2941548     485.7129  0.077244418  0.079053253            4 
  525000    1.0355888   -3.2964099    487.79728   0.07742814  0.079024596            2 
  526000    1.0427009   -3.2620647    488.15003  0.077336823  0.078995056            2 
  527000    1.0389792   -3.2686163    488.35013  0.077221716  0.078966188            2 
  528000     1.052041   -3.2868596    491.25081  0.077533272  0.078936984            3 
  529000    1.0442915    -3.259997    492.54672   0.07759085   0.07890813            4 
  530000    1.0062614   -3.2624771    491.24035  0.077239048  0.078879969            2 
  531000    1.0462935    -3.290584    492.13342  0.077233744  0.078850826            3 
  532000    1.0187212   -3.2719263     491.8687  0.077047102  0.078820466            2 
  533000    1.0301252   -3.2935516    492.01295  0.076925102  0.078790293            3 
  534000    1.0448589   -3.2611629    494.06086  0.077100634  0.078760363            2 
  535000    1.0355339   -3.2651118    493.94623  0.076938665  0.078731725            2 
  536000    1.0327211   -3.2739215    497.82427  0.077398053  0.078703574            2 
  537000    1.0371569   -3.2888261    494.31595  0.076709489  0.078675593            2 
  538000    1.0567781   -3.2712985    494.74076  0.076632707  0.078646278            1 
  539000    1.0435158   -3.2918007    496.72825  0.076797812  0.078616388            2 
  540000    1.0390623   -3.2918866    496.17754  0.076570608  0.078585659            1 
  541000    1.0250747    -3.277958    497.67551  0.076659813  0.078553368            3 
  542000    1.0246517   -3.2966852    497.45771  0.076484887  0.078522755            3 
  543000    1.0488779   -3.2849992    498.83457  0.076555336  0.078491602            3 
  544000    1.0271128   -3.2896565    501.57766  0.076834813  0.078460873            3 
  545000    1.0487183    -3.293113    501.86574  0.076737881  0.078429327            2 
  546000    1.0226291    -3.278432    502.19529  0.076647633  0.078397472            3 
  547000    1.0485025   -3.2557541    503.97546  0.076778711  0.078366941            3 
  548000    1.0616834   -3.2699966    501.69032  0.076291107  0.078337504            1 
  549000    1.0298953   -3.2827614    503.66299  0.076451577  0.078308146            4 
  550000    1.0694525   -3.2769642    506.35292   0.07672014  0.078279028            1 
  551000    1.0363606   -3.2960931    504.04444  0.076231767  0.078250228            6 
  552000    1.0552545   -3.2712975     509.2595  0.076880963  0.078221027            1 
  553000     1.008755   -3.2910787    507.61482  0.076494096  0.078191618            6 
  554000    1.0531145   -3.3137416    508.06434  0.076423637  0.078162857            3 
  555000    1.0215059   -3.2935718    508.76441  0.076391052  0.078132209            4 
  556000     1.032331   -3.2649125    509.54304   0.07637036  0.078099416            2 
  557000    1.0140606   -3.3235546    508.89764  0.076136691  0.078067488            2 
  558000    1.0416474   -3.3018083    509.69768  0.076119725  0.078035716            3 
  559000    1.0451459   -3.3225581    509.40608  0.075940083  0.078004151            2 
  560000    1.0356105   -3.2895987    514.73157  0.076596959  0.077972699            2 
  561000    1.0451901   -3.3186579    509.36422  0.075663134  0.077940167            1 
  562000     1.048081   -3.2908017    513.53598  0.076147091  0.077906666            4 
  563000    1.0143081   -3.2781937    514.77741   0.07619559  0.077873546            2 
  564000    1.0281365     -3.30921    512.17467  0.075675926  0.077839934            4 
  565000    1.0558014     -3.25993    515.93643  0.076096818   0.07780728            4 
  566000    1.0237739   -3.2945697    515.06047  0.075833403  0.077776231            3 
  567000    1.0331298   -3.2929686    517.00392  0.075985291  0.077745804            3 
  568000    1.0082777   -3.3274812    516.59287  0.075791207  0.077714449            2 
  569000    1.0332059   -3.2821008    517.69311  0.075819143  0.077682368            3 
  570000    1.0171636   -3.3114743    518.71121  0.075834972  0.077650879            4 
  571000     1.046513   -3.3059137    519.48868  0.075815628  0.077619423            2 
  572000    1.0036095   -3.2816148    519.31256  0.075657423  0.077587834            3 
  573000    1.0293474   -3.2837036    520.51175  0.075699789  0.077555847            2 
  574000    1.0314604   -3.3000807    523.41992  0.075990117  0.077523721            5 
  575000    1.0318185    -3.307471    522.06626  0.075661777  0.077492251            1 
  576000    1.0203988   -3.2815138    524.03409  0.075815117  0.077460935            3 
  577000    1.0230788   -3.3035325    522.47777   0.07545895   0.07743039            1 
  578000    1.0293308   -3.3118012     525.0816  0.075703806   0.07739937            3 
  579000     1.038857   -3.3038778    525.95932  0.075699385  0.077368686            1 
  580000    1.0425076   -3.2910417    527.98731  0.075860246  0.077337579            2 
  581000    1.0172561   -3.2841767    528.77401  0.075842515  0.077307292            3 
  582000    1.0134885   -3.2805935    528.98195  0.075741975  0.077276881            2 
  583000    1.0223739   -3.2854011    531.99333    0.0760425  0.077247646            2 
  584000    1.0266744   -3.3053069    530.08464  0.075639931  0.077218693            3 
  585000    1.0080281   -3.3163815    530.27424   0.07553764  0.077188254            3 
  586000    1.0167409   -3.2809459    531.99908  0.075654022   0.07715836            3 
  587000    1.0106139   -3.3024176    534.35518  0.075859622  0.077129337            1 
  588000    1.0206526   -3.3054833    533.25917  0.075575279   0.07709922            4 
  589000    1.0304024    -3.290509    532.21717  0.075299542  0.077068467            7 
  590000    1.0160574    -3.305194    534.00917  0.075425023  0.077036624            4 
  591000    1.0405799   -3.2840065    534.78116  0.075406255  0.077005216            3 
  592000   0.99551261   -3.3033791     535.4644  0.075375056  0.076974774            1 
  593000    1.0112104   -3.3123441    536.14541  0.075343649  0.076944492            2 
  594000    1.0264812   -3.3008029    536.16066  0.075218947  0.076913242            2 
  595000   0.98544698   -3.3039341    538.05716  0.075358145  0.076882345            3 
  596000    1.0130626   -3.3271041    536.36591  0.074995234  0.076851113            2 
  597000    1.0210643    -3.305731    540.36202  0.075427418  0.076819939            3 
  598000    1.0040095   -3.3030373    539.76047  0.075217456    0.0767898            2 
  599000    1.0215124   -3.3051071    536.81274  0.074681795  0.076757312            2 
  600000    1.0339566   -3.3147935    539.43078  0.074920941  0.076725622            4 
  601000    1.0072396   -3.3487453    542.21702  0.075182615  0.076693997            2 
  602000    1.0114838   -3.3128983    542.28433  0.075067045   0.07666337            2 
  603000   0.98276485   -3.3099933    542.72929  0.075004047   0.07663246            4 
  604000   0.98523306   -3.2890606    546.53022   0.07540428   0.07660227            3 
  605000    1.0244927    -3.324592     544.2785  0.074969491   0.07657186            2 
  606000    1.0043477   -3.2994329    543.60209  0.074752763   0.07654105            3 
  607000    1.0128812   -3.3252821    545.33601  0.074867656  0.076510724            1 
  608000    1.0088146   -3.2844582    547.94283  0.075101813  0.076480535            3 
  609000    1.0189924   -3.2970738    547.96372  0.074981352  0.076450304            2 
  610000    1.0031357   -3.3217852    549.46219  0.075063141  0.076420887            4 
  611000   0.99604942   -3.2909736    550.64854  0.075102092  0.076391718            3 
  612000    1.0144027   -3.3076144    550.85027  0.075006845  0.076361631            4 
  613000    1.0037285   -3.3230808    548.96539  0.074628248  0.076330369            2 
  614000   0.99638092   -3.3223371    549.88566  0.074631604  0.076298862            2 
  615000    1.0147886   -3.3079955    552.89846   0.07491849  0.076268514            1 
  616000    1.0245498   -3.3086719    553.79573  0.074918254  0.076238832            3 
  617000    1.0195884   -3.3519543    552.07482    0.0745644  0.076209286            6 
  618000    1.0176407   -3.3233797    554.07377  0.074713292   0.07617787            3 
  619000    1.0173172   -3.3379088    552.81519  0.074423155  0.076146088            3 
  620000    1.0059474   -3.3097553    554.67119  0.074552579  0.076114534            4 
  621000    1.0154839   -3.3104206    556.09789  0.074623978  0.076083273            3 
  622000   0.99791361   -3.3104831    557.17468  0.074648269  0.076052369            3 
  623000   0.99804158   -3.3100578    556.24505  0.074404099  0.076020546            4 
  624000   0.99029101   -3.3085542    553.78113  0.073955814  0.075987376            5 
  625000    1.0028692   -3.3124044    557.90361  0.074387147  0.075954727            1 
  626000   0.99425299   -3.3206093    557.89434  0.074267085   0.07592142            6 
  627000   0.99528246   -3.3026003    559.73975  0.074393907   0.07588837            3 
  628000   0.99058761    -3.348013    556.75147  0.073878911  0.075854543            3 
  629000    1.0090193   -3.3174592    557.67813  0.073884225  0.075821203            2 
  630000    1.0064789   -3.3094022    561.34461  0.074251932  0.075787387            3 
  631000    1.0234258   -3.3274557    561.49302  0.074153859  0.075754445            5 
  632000    1.0036514   -3.3300173    561.82395  0.074080162  0.075721857            9 
  633000   0.97995291   -3.3427545    562.93192  0.074108994  0.075690788            4 
  634000   0.99362986   -3.3394462    564.45184  0.074191882  0.075659027            1 
  635000    1.0027649   -3.3279781    567.18796  0.074434115  0.075628188            4 
  636000   0.99679116   -3.3303743    565.12265  0.074046469  0.075597597            3 
  637000   0.98218945   -3.3391365    565.84897  0.074025245  0.075565513            2 
  638000   0.99260556    -3.331858    568.03549  0.074194813  0.075533462            3 
  639000    1.0070844    -3.329225    565.94285  0.073805796  0.075502221            5 
  640000    1.0230099   -3.3161787    566.65232  0.073782854  0.075471433            3 
  641000    0.9901416   -3.2993695    570.21515  0.074130934  0.075441123            2 
  642000   0.99807738   -3.3068897    568.78467  0.073829786  0.075411546            3 
  643000   0.98573838   -3.3355694    570.29848  0.073911156  0.075381556            3 
  644000   0.99803074   -3.2850836    574.66697  0.074361667  0.075351454            2 
  645000   0.98480807   -3.3152818    573.71937  0.074123949  0.075322432            1 
  646000    1.0122465   -3.3542338     572.5259   0.07385525  0.075291502            4 
  647000    1.0003884   -3.3170453    572.61983  0.073753198  0.075261468            6 
  648000   0.99439171   -3.3193481    572.04197  0.073565068  0.075231038            3 
  649000    1.0000205   -3.3444002     574.3038  0.073742141  0.075199525            5 
  650000   0.99010963   -3.3208296    573.65454  0.073545453  0.075168995            3 
  651000    1.0026358   -3.3222748    578.03268  0.073992919  0.075138315            2 
  652000    1.0299343   -3.3228591    576.77986  0.073719307  0.075108189            2 
  653000    1.0014665   -3.3377623    574.91433  0.073368342    0.0750766            2 
  654000   0.98130624   -3.3147403    578.36992  0.073696473  0.075045279            2 
  655000   0.99701864   -3.3279509    578.90377  0.073651879  0.075014133            2 
  656000    1.0058783   -3.3545918    577.64946  0.073380267  0.074983143            4 
  657000   0.98030228   -3.3490922     576.0275  0.073062848  0.074951702            3 
  658000    1.0027905   -3.3081653    582.17778  0.073730721  0.074919919            2 
  659000    1.0048038   -3.3238248    580.62632   0.07342265  0.074888683            3 
  660000   0.99412958   -3.3384162    580.72096  0.073323353  0.074857964            3 
  661000   0.98663971   -3.3505534    581.98606  0.073371919  0.074827132            2 
  662000    1.0012137   -3.3415042    584.83455  0.073619656  0.074797369            2 
  663000   0.98640788    -3.352314    586.45685  0.073712525  0.074767612            2 
  664000   0.99462442   -3.3451649    583.32365   0.07320829  0.074737764            1 
  665000   0.99108953   -3.3640746    585.81002  0.073409776  0.074707943            2 
  666000   0.96149156   -3.3648963    583.20168  0.072973183  0.074676407            2 
  667000    1.0056286   -3.3344444    586.02171  0.073216106  0.074645027            3 
  668000   0.97342027   -3.3520606    588.15597  0.073372751   0.07461404            3 
  669000    0.9777263   -3.3407059    587.72674  0.073209609  0.074582801            3 
  670000   0.99942163   -3.3938906    587.81031  0.073110735  0.074551294            3 
  671000    1.0158926   -3.3843449    584.46202  0.072585944   0.07451906            5 
  672000   0.97791233   -3.3631472    586.62745  0.072746459  0.074486985            3 
  673000    0.9959303   -3.3436587    590.99321  0.073178951  0.074455092            4 
  674000   0.97211201    -3.358328    589.24243  0.072853911  0.074423839            3 
  675000    0.9984228   -3.3745793    593.40551   0.07325994  0.074392416            5 
  676000   0.96597942   -3.3622413    591.98866  0.072976905  0.074360678            2 
  677000   0.99420007   -3.3482735    595.02051  0.073242308   0.07433024            4 
  678000   0.99935381   -3.3574203    594.66135  0.073090137  0.074300549            3 
  679000    1.0017921   -3.3330913    598.60499  0.073466494  0.074271331            2 
  680000   0.97907533   -3.3534674    596.57635  0.073109847  0.074242085            6 
  681000   0.99042348   -3.3254279     596.9833  0.073052289  0.074212624            4 
  682000   0.99290615   -3.3732233    599.20239  0.073216323  0.074183241            2 
  683000   0.99541319   -3.3648346    598.88043  0.073069843  0.074154654            4 
  684000   0.98697517   -3.3394125    600.93698   0.07321357  0.074127641            2 
  685000   0.98165278   -3.3506801    602.75383  0.073327717  0.074099867            1 
  686000   0.99297469   -3.3585163    599.69301  0.072849005  0.074072086            4 
  687000   0.94714839   -3.3470435    601.98699  0.073021226  0.074043448            2 
  688000   0.98808113   -3.3552492    604.21795  0.073185314  0.074015787            2 
  689000    0.9776404   -3.3473624    604.28228  0.073086874  0.073988909            4 
  690000   0.99167952   -3.3704278     605.4334  0.073119976  0.073961784            4 
  691000   0.98425314   -3.3603747    603.76182  0.072812569  0.073933322            8 
  692000   0.96783638   -3.3468994    605.18462  0.072878688  0.073904355            4 
  693000   0.98702002   -3.3807149    603.65143  0.072589157  0.073876032            2 
  694000   0.99679547   -3.3838532    604.84327  0.072627675  0.073847623            3 
  695000   0.97400327   -3.3941113    607.29058  0.072816616  0.073819968            1 
  696000   0.97051623   -3.3564451    608.08669  0.072807315  0.073792112            2 
  697000   0.98979576   -3.3808874    608.04349  0.072697691  0.073764514            2 
  698000   0.96403263   -3.3602676    609.42259  0.072758189  0.073736109            2 
  699000   0.98400931   -3.3365731    612.11151  0.072974668  0.073708551            2 
  700000   0.98274053   -3.3503119     608.9341  0.072492154  0.073681869            2 
  701000   0.94568331   -3.3884035    612.64376  0.072829738  0.073654248            3 
  702000    0.9849304   -3.4111286     611.1036  0.072543162  0.073626186            3 
  703000   0.98874793   -3.3844961     611.0727  0.072436308   0.07359854            5 
  704000   0.96730565   -3.3787598    614.01236  0.072681387  0.073571444            3 
  705000   0.97409182   -3.3656679    613.64339   0.07253468  0.073543761            2 
  706000    0.9543793   -3.3988512     615.9441  0.072703505  0.073516383            3 
  707000   0.99915884    -3.352054      616.385   0.07265264     0.073489            6 
  708000   0.95276762    -3.372704    616.49557  0.072563038  0.073461908            3 
  709000   0.96070816   -3.3673416     617.6831  0.072600271  0.073434878            4 
  710000   0.97746767   -3.3485249    618.59752  0.072605343   0.07340728            6 
  711000   0.93467134   -3.3685861    617.79894  0.072409627  0.073378815            2 
  712000   0.96731914   -3.4001292    617.86434  0.072315583  0.073350791            1 
  713000   0.97940362     -3.37397    617.56224   0.07217885  0.073323719            3 
  714000   0.97778022   -3.3616218    620.56547  0.072428276   0.07329631            1 
  715000   0.97961325   -3.3883439    619.76201  0.072233334  0.073268167            2 
  716000   0.98845468   -3.3741045    620.19442  0.072182777  0.073239917            3 
  717000   0.96147336   -3.3741875    621.96341  0.072287704   0.07321176            5 
  718000   0.94605421   -3.3723355    623.02749  0.072310526  0.073183374            5 
  719000   0.97899763   -3.3658242    621.51721  0.072034911  0.073155719            2 
  720000   0.97111174   -3.3821548    621.79095  0.071966545  0.073126954            2 
  721000   0.97950913   -3.3576034    623.05262  0.072012555  0.073099018            2 
  722000   0.97374723   -3.3684043    624.38536  0.072066639   0.07306983            2 
  723000   0.96893244   -3.4031436    623.74466  0.071893114  0.073040649            2 
  724000   0.96115843   -3.4032303    624.05558  0.071829602  0.073010815            6 
  725000   0.98295462   -3.3970887    624.66835   0.07180096  0.072982458            4 
  726000   0.94870295   -3.4063875    624.67385  0.071702691   0.07295304            5 
  727000   0.97989157   -3.4009716    622.09649   0.07130863  0.072922615            3 
  728000   0.94908531   -3.3970416    627.31168  0.071807656  0.072892364            3 
  729000   0.96398433   -3.3805847    627.92015  0.071778709  0.072861145            2 
  730000   0.96092228   -3.3816092    627.88122  0.071675938  0.072830766            2 
  731000   0.95914165   -3.3586799    629.50631  0.071763145  0.072800089            2 
  732000   0.96418229   -3.3815186    626.09715  0.071276998  0.072769345            2 
  733000   0.95260212   -3.3886046     628.3133  0.071431708  0.072738062            5 
  734000   0.96462608   -3.3450627    629.04092  0.071416998  0.072706039            5 
  735000   0.97193242   -3.3858681     627.8133  0.071180646  0.072674358            2 
  736000   0.97772344   -3.3938706    628.77685  0.071193032  0.072643034            2 
  737000   0.94674515   -3.4003791    628.24182  0.071035936  0.072611129            3 
  738000   0.96298738   -3.3863663    628.80864  0.071003686  0.072578112            3 
  739000   0.96027019   -3.3602675    630.22293  0.071067087    0.0725454            4 
  740000   0.93022792   -3.3835987     631.9657  0.071167308  0.072513102            2 
  741000   0.95826761   -3.3847557     633.4432  0.071237427  0.072481684            3 
  742000   0.96041036   -3.3891889    631.35031  0.070906369  0.072449792            2 
  743000   0.97411106   -3.3736042    631.45711  0.070822915  0.072416628            5 
  744000   0.96426104   -3.4060947    632.95593  0.070895602  0.072383454            2 
  745000   0.95715733   -3.3809358    632.09449  0.070704081  0.072349818            4 
  746000   0.94506446   -3.3807213    634.25435  0.070850575  0.072316487            4 
  747000   0.96140328   -3.4139853    633.61607  0.070684523  0.072283232            2 
  748000   0.97295796   -3.3921342    636.53069  0.070914738  0.072249753            5 
  749000   0.95971317   -3.3921838    635.25434  0.070678053   0.07221606            3 
  750000   0.98228342   -3.4044387    636.05168  0.070672408  0.072182791            1 
  751000   0.91348392   -3.3896618    636.22816  0.070597887  0.072149336            1 
  752000   0.94185323   -3.3871467    637.39374  0.070633171  0.072114823           10 
  753000   0.95361537   -3.4031295    637.59616   0.07056177  0.072081422            3 
  754000   0.92818425   -3.3845793     638.6772  0.070587666  0.072047853            2 
  755000   0.96753624   -3.4086755    637.66411  0.070382352  0.072014592            3 
  756000   0.95461471   -3.3776841    640.68384  0.070622116  0.071981167            2 
  757000      0.96692   -3.4163931    639.20351  0.070365864  0.071948029            3 
  758000   0.94180138   -3.4073203    639.73902  0.070331906  0.071914478            5 
  759000   0.92766554   -3.4113932    638.68116  0.070123096  0.071880388            2 
  760000   0.94700677   -3.4239032    639.96164  0.070171232   0.07184571            3 
  761000   0.93656126   -3.3736808    641.49615   0.07024706  0.071811734            3 
  762000   0.95965478   -3.3938512    643.67639  0.070393306  0.071778395            6 
  763000   0.96245358   -3.3982633    643.90613  0.070326139   0.07174495            4 
  764000   0.95688706    -3.413453    641.48674  0.069970194  0.071712334            3 
  765000   0.95256847   -3.4344126    645.31274  0.070295505  0.071678816            2 
  766000   0.94641594   -3.4179431    644.03265  0.070064475  0.071645854            5 
  767000   0.95402068   -3.4002568    647.62634  0.070363574  0.071613174            2 
  768000   0.94527882   -3.3981754    647.86543  0.070297898  0.071581092            4 
  769000    0.9434178   -3.4060807    647.45045  0.070161514  0.071548103            2 
  770000   0.95325438   -3.3756302    651.41652  0.070499624  0.071515807            2 
  771000   0.95486758   -3.3889959    647.48236  0.069982961  0.071483785            3 
  772000   0.94815053   -3.3888729    649.04387  0.070060867    0.0714523            4 
  773000   0.93572867   -3.4150774    649.09221  0.069975443  0.071419682            5 
  774000   0.95900077   -3.4072465    651.88484  0.070185706  0.071387524            6 
  775000   0.95816119   -3.4420815    652.12843  0.070121337  0.071355428            2 
  776000   0.91379764   -3.4062642    651.23553  0.069935087   0.07132367            3 
  777000   0.94949981   -3.4166388    651.68948  0.069893767  0.071291455            3 
  778000    0.9442659   -3.3909034    652.31398   0.06987082  0.071259856            2 
  779000   0.94391767   -3.4010872    654.12783  0.069975163  0.071228206            2 
  780000   0.95761369   -3.4129718    656.65852  0.070155825   0.07119699            3 
  781000   0.94044998   -3.4264356    655.06155  0.069895599  0.071165909            2 
  782000   0.94277211   -3.4187349    655.51336  0.069854365  0.071134581            1 
  783000   0.95921693   -3.4078073    657.86323  0.070015243  0.071103292            4 
  784000   0.95367925   -3.4085321    658.34379  0.069977019  0.071072039            3 
  785000    0.9343375   -3.4086886    657.00743  0.069746011   0.07104103            3 
  786000   0.92857387   -3.4237611    658.70569   0.06983733   0.07101038            3 
  787000   0.94515389   -3.4389771    658.15701  0.069690492  0.070979882            1 
  788000   0.93311824   -3.4465749    660.20043   0.06981815  0.070949919            4 
  789000   0.95784113   -3.4274863    661.07126  0.069821637  0.070920261            4 
  790000   0.93613851   -3.4095737    659.42885  0.069560006  0.070889725            3 
  791000    0.9371589   -3.4351989    663.05523  0.069854112  0.070859081            2 
  792000   0.93907025   -3.4193844    662.34104  0.069690766  0.070828731            2 
  793000    0.9503425   -3.4043262    661.62287  0.069527414  0.070797839            1 
  794000   0.93377849   -3.3972235     660.8646  0.069360264  0.070767238            3 
  795000   0.94457658   -3.4316962    662.33246  0.069426882  0.070736325            3 
  796000   0.93375989    -3.423572    664.58153  0.069575118  0.070705957            2 
  797000   0.94323516   -3.4271394    665.19614  0.069552085  0.070676131            4 
  798000   0.92351636   -3.4088808    667.42688  0.069697878   0.07064543            2 
  799000   0.92751925   -3.4265158    667.44462  0.069612497   0.07061511            4 
  800000   0.93897893   -3.4138152     666.3719   0.06941374  0.070584036            3 
  801000   0.91745802   -3.4159456    667.68014  0.069463185  0.070552826            5 
  802000   0.93896831   -3.4493166     666.8381  0.069289079  0.070521202            4 
  803000   0.91975458   -3.4358673    667.79831   0.06930244  0.070489346            8 
  804000   0.94050214   -3.4306159    668.14424  0.069252098  0.070458459            3 
  805000   0.94482631   -3.4250655    668.05202  0.069156524  0.070427476            1 
  806000   0.94090143   -3.4347143    671.48907  0.069426083  0.070397265            3 
  807000   0.93221902   -3.3937662    673.48941  0.069546614  0.070367009            3 
  808000   0.92391692   -3.4356975    669.44052  0.069042958  0.070336988            2 
  809000   0.92292913   -3.4318847    671.61585   0.06918169  0.070305865            4 
  810000   0.93949683   -3.4206066     672.8336  0.069221564  0.070275419            2 
  811000   0.94897538   -3.4408147    673.79917  0.069235426  0.070244692            4 
  812000   0.94610243   -3.4411393    672.83777  0.069051495  0.070214383            1 
  813000   0.94287379   -3.4406171    674.29892   0.06911633  0.070183561            2 
  814000   0.92275267   -3.4214481    676.19275  0.069225302  0.070152534            5 
  815000   0.92573149   -3.4234474    673.81003  0.068896731  0.070121897            4 
  816000   0.92104581    -3.408084    678.85433  0.069327444  0.070091161            4 
  817000   0.93448313   -3.4129765     675.2121  0.068871083   0.07006027            4 
  818000   0.92176724   -3.4319143    677.97406  0.069068262  0.070029048            3 
  819000   0.92356912   -3.4488498    674.09294  0.068589026  0.069997763            3 
  820000   0.91865091   -3.4246168    677.33809  0.068835172  0.069966266            2 
  821000   0.93011684   -3.4698857    677.74787  0.068792922  0.069935699            5 
  822000   0.91663548   -3.4042007     679.0559  0.068841839  0.069904805            3 
  823000   0.92008708   -3.4487303    680.52033  0.068906473  0.069874154            4 
  824000   0.92818688   -3.4444507    679.24308  0.068693677   0.06984279            4 
  825000   0.92267837   -3.4599493    680.82063  0.068769761  0.069811132            3 
  826000   0.92916777   -3.4398216    680.33753  0.068637765  0.069779898            3 
  827000   0.91763686   -3.4155644    684.67172  0.068991508   0.06974898            7 
  828000   0.94128449   -3.4410577    682.55587  0.068695236  0.069717887            3 
  829000   0.92267633   -3.4265344    684.06906  0.068764481  0.069686655            3 
  830000   0.91684566    -3.424164    680.42436  0.068315699  0.069655395            7 
  831000   0.93770586    -3.452146    685.19571  0.068711964  0.069623742            2 
  832000   0.90450158   -3.4420148    684.91523  0.068601285  0.069591313            3 
  833000   0.93246641   -3.4206043    685.52767  0.068580199  0.069559582            4 
  834000   0.93232076   -3.4166836    684.77572  0.068422834  0.069528152            3 
  835000   0.89526718    -3.449137    683.96879  0.068260358  0.069496475            2 
  836000   0.90089436   -3.4646398    686.59105  0.068440097  0.069464217            2 
  837000   0.90584765   -3.4476869    685.03155  0.068203061  0.069432259            6 
  838000   0.93971627   -3.4664067    684.14165  0.068033179   0.06939988            4 
  839000    0.8919684   -3.4543585    684.59678  0.067997297  0.069367253            2 
  840000   0.92110319   -3.4546972    685.58712  0.068014595   0.06933493            5 
  841000   0.92405483   -3.4432948    688.13751  0.068186436  0.069302849            3 
  842000   0.92605055    -3.467581    686.84536  0.067977569  0.069270233            3 
  843000    0.9161251   -3.4684466    688.94781  0.068104765  0.069237974            5 
  844000   0.91438092   -3.4297046    689.11978  0.068041053  0.069205724            3 
  845000   0.91328137   -3.4416044    691.84362  0.068229154  0.069173931            3 
  846000   0.92792595   -3.4787885    691.14793  0.068079977  0.069142261            7 
  847000   0.90503268   -3.4458733    690.75309  0.067960753  0.069110138            7 
  848000     0.893281   -3.4437489    689.40981  0.067748605   0.06907771            2 
  849000   0.89475843   -3.4292612    690.87919  0.067813034  0.069045086            5 
  850000   0.92730116   -3.4526204    692.62613  0.067904523  0.069012183            4 
  851000    0.9313096   -3.4518832    690.65547  0.067631754  0.068979613            2 
  852000   0.91110035   -3.4648016    693.19361  0.067800627  0.068947056            3 
  853000   0.92370726   -3.4665224    692.22018  0.067626043  0.068914323            4 
  854000   0.94252829   -3.4630858    693.64966  0.067686344  0.068881611            6 
  855000    0.9045548    -3.443392    692.27684  0.067473376  0.068849029            3 
  856000   0.92239359   -3.4648234    695.52053  0.067710332  0.068816692            3 
  857000   0.92053503   -3.4595585     695.5597  0.067635132  0.068784898            2 
  858000   0.89819876   -3.3990144    696.82039  0.067678748  0.068752773            3 
  859000   0.89742517   -3.4448677    697.40788  0.067656954  0.068721127            2 
  860000   0.91140552   -3.4667129    695.77676  0.067420228  0.068689227            4 
  861000   0.93565912   -3.4559399    701.15415  0.067862384  0.068657796            2 
  862000   0.90975181    -3.456303    698.77621  0.067553772  0.068626327            3 
  863000   0.89668152   -3.4508383    698.95578  0.067492833  0.068595302            2 
  864000   0.92204403   -3.4879908    699.00263  0.067419235  0.068563859            1 
  865000   0.89519798   -3.4538516    701.36201  0.067568594  0.068532673            3 
  866000   0.89868392   -3.4500317    700.90738  0.067446822  0.068501985            5 
  867000   0.91399001   -3.4569994    703.08495  0.067578331  0.068471495            2 
  868000   0.89793857   -3.4501832    702.56778  0.067450824  0.068440714            6 
  869000   0.89194517   -3.4687574    702.28254  0.067345851  0.068409671            3 
  870000   0.90391238    -3.460559    706.35667  0.067658685  0.068378796            2 
  871000   0.91234407   -3.4724136    705.43451  0.067492778  0.068347576            2 
  872000   0.91266448   -3.4779508    703.99965  0.067278254  0.068316396            3 
  873000   0.91825135   -3.4548969     705.6159   0.06735547  0.068285205            3 
  874000   0.90669751    -3.441419    706.62417  0.067374539  0.068254453            3 
  875000   0.91751542    -3.486763    704.38204  0.067084003  0.068222898            2 
  876000   0.91046165    -3.462785    705.43828  0.067107903  0.068191225            2 
  877000   0.89704497   -3.4576565    705.49536  0.067036807  0.068159211            5 
  878000   0.89839084     -3.48297    707.48308  0.067149116  0.068127245            4 
  879000   0.89258437   -3.4391161    706.15251  0.066946579  0.068095679            4 
  880000   0.93461708   -3.4681162    707.94356   0.06704011   0.06806351            3 
  881000   0.90655798   -3.4642107    708.97244  0.067061335  0.068031433            3 
  882000   0.89904974   -3.4782621    705.43486  0.066651064  0.067999843            3 
  883000   0.89301242   -3.4425505    709.48871  0.066958164  0.067967708            2 
  884000   0.88871206   -3.4641969    707.93695  0.066736138  0.067935354            3 
  885000   0.89446165   -3.4882168    708.46521  0.066710471  0.067902919            3 
  886000   0.89326834   -3.4546427    709.14101  0.066698741  0.067870893            4 
  887000   0.90226557   -3.4445756    711.31036  0.066827355  0.067838659            3 
  888000   0.89322727   -3.4863308    708.69154  0.066506338  0.067805906            4 
  889000   0.88302327    -3.495051    710.19567  0.066572522  0.067772663            3 
  890000   0.89455155   -3.4815939    710.97724  0.066570902  0.067740426            2 
  891000   0.88122919   -3.4968426     710.5487  0.066456107  0.067707352            3 
  892000   0.91121626   -3.4438452    715.80541  0.066872702  0.067674792            2 
  893000   0.90048759   -3.4842111    713.51095  0.066583702  0.067642608            2 
  894000   0.89029683   -3.4755243    712.53475  0.066418228  0.067609911            2 
  895000   0.89662742   -3.4948479    715.93369  0.066660492  0.067577137            6 
  896000    0.8722744   -3.4623357    714.53652   0.06645615  0.067544975            4 
  897000   0.90807413   -3.4836241     717.4621  0.066653855  0.067513255            5 
  898000   0.89377616   -3.4496352     715.8469  0.066429742  0.067481643            4 
  899000   0.87771384   -3.4916234    712.60075  0.066054945  0.067450113            4 
  900000   0.90693307    -3.449551    716.80308  0.066370656  0.067418201            2 
  901000   0.89057404   -3.4900035    715.01461  0.066131577   0.06738634            3 
  902000   0.90544933   -3.4994341    717.80723  0.066316263  0.067354229            2 
  903000   0.88849372   -3.4905091    718.53026  0.066309548   0.06732258            2 
  904000   0.89740142   -3.5041208    716.33294  0.066033641  0.067290551            2 
  905000   0.91190756   -3.4848657    716.37509  0.065964557  0.067257497            2 
  906000   0.88178104   -3.4747372    719.67844  0.066195589  0.067225375            2 
  907000   0.88546443   -3.4903484    717.68195  0.065939172  0.067193078            4 
  908000   0.90210052   -3.5044393    717.56319  0.065855653  0.067160217            5 
  909000   0.87673273   -3.4801706    720.92323  0.066091238  0.067128212            3 
  910000   0.87616231   -3.4904325    720.18848  0.065951326  0.067096297            4 
  911000   0.89238523   -3.5056595    719.26447  0.065794408  0.067064883            2 
  912000   0.87200892    -3.489188    721.26519   0.06590508  0.067032855            4 
  913000   0.89581326   -3.4847952    722.62874  0.065957351  0.067001219            2 
  914000     0.887026   -3.4828228    726.30982  0.066220808  0.066970366            6 
  915000    0.9014089   -3.4401259    726.72868  0.066186583  0.066939253            4 
  916000   0.88926468   -3.5032028    723.48758  0.065819467  0.066908167            5 
  917000   0.86775507   -3.4873453    724.12883  0.065805964  0.066877222            6 
  918000   0.89856825   -3.5011177    724.62454  0.065779279  0.066845759            2 
  919000   0.91590006    -3.517935    725.84756  0.065818604  0.066814751            2 
  920000   0.89291018   -3.5111759    727.26561  0.065875508  0.066783308            2 
  921000   0.89294346   -3.5145138    728.73447  0.065936886  0.066752003            3 
  922000   0.88504812    -3.498278    726.78039  0.065688755  0.066720684            3 
  923000   0.88379643     -3.49263      728.436  0.065767064  0.066689533            4 
  924000    0.8893577    -3.509733    726.92582  0.065559688  0.066658168            1 
  925000   0.89120791   -3.5153393    729.02538  0.065677962  0.066626914            2 
  926000   0.88409948   -3.4944767    727.45366  0.065465592  0.066595676            4 
  927000   0.91208033   -3.5012635    726.47299  0.065306814  0.066564581            3 
  928000   0.89237307   -3.5126506    731.55411  0.065692718  0.066532956            3 
  929000   0.89988215   -3.4939665    728.56465  0.065353844  0.066501745            4 
  930000   0.90142002   -3.4927029    730.66489  0.065471764  0.066471055            9 
  931000   0.87686125   -3.5373326    729.79914  0.065323947  0.066439593            5 
  932000   0.88443394    -3.518993    732.73212  0.065516105  0.066408279           10 
  933000   0.88331585   -3.4833037     733.9443  0.065554153  0.066377417            3 
  934000   0.89244741   -3.5218016     729.8978   0.06512293  0.066346122            8 
  935000   0.86906028   -3.4967905    734.41464   0.06545585  0.066315161            6 
  936000   0.88569239   -3.5016381    735.66365   0.06549712  0.066284334            3 
  937000   0.85895874   -3.5072613     736.2763  0.065481706  0.066253908            4 
  938000   0.86285096   -3.5554992    734.52086   0.06525594  0.066222964            3 
  939000   0.86520166   -3.4980568    738.15611  0.065509062  0.066192382            2 
  940000   0.86078204   -3.5308851    735.80673  0.065231093   0.06616148            5 
  941000   0.87607855   -3.4857637    738.60626  0.065409694  0.066131094            9 
  942000   0.86940992   -3.5104627     737.1237  0.065209103  0.066100732            4 
  943000   0.86370557   -3.4900184    739.78809  0.065375405  0.066070667            4 
  944000    0.8858341   -3.5100027    739.57184  0.065287062   0.06604013            5 
  945000   0.86986207   -3.5119561    741.62363  0.065398909  0.066010172            5 
  946000   0.88795943    -3.476105    741.69676  0.065336219  0.065980799            2 
  947000   0.86327146   -3.5323107    741.14569  0.065218734  0.065951051            2 
  948000   0.87373418   -3.4649814    743.88151  0.065390428  0.065921476            7 
  949000   0.87638803   -3.5082591    745.11662  0.065429981   0.06589205            3 
  950000   0.88686016   -3.5062293    747.06291  0.065531835  0.065863117            2 
  951000   0.86923505   -3.5038695    745.27636  0.065306376  0.065833997            2 
  952000   0.88402143   -3.5369636    744.09771  0.065134603  0.065805214            4 
  953000   0.86922883    -3.523047    742.18472  0.064898978  0.065776223            4 
  954000   0.87659116    -3.492503    746.46679  0.065204995  0.065747229            2 
  955000   0.87847574     -3.48909    747.34025  0.065212936  0.065718008            3 
  956000   0.89156542   -3.5416269    743.00695  0.064766994  0.065688507            4 
  957000   0.86962236   -3.5286971    745.28964  0.064898087  0.065658262            5 
  958000   0.87383535   -3.5286555    748.16456  0.065080425  0.065628862            3 
  959000   0.88188069   -3.5306621    746.18419  0.064840475  0.065599397            3 
  960000   0.88883851   -3.5181592     747.9314  0.064924601  0.065570145            4 
  961000    0.8521201   -3.5397276    748.04414  0.064866817  0.065540672            3 
  962000   0.84965939   -3.5111931    746.86311  0.064697082  0.065510874            4 
  963000   0.86263137   -3.5128553    749.57127  0.064864249  0.065481239            3 
  964000   0.88523994   -3.5089609    750.55622  0.064882107  0.065451486            7 
  965000   0.85729655   -3.5109077     752.4091  0.064974879  0.065421332            4 
  966000   0.87410522   -3.5471757     747.2195   0.06445993  0.065391042            5 
  967000   0.86892076   -3.5526172    748.37779  0.064493088  0.065360399            2 
  968000   0.88371729   -3.5697071    748.61436  0.064446828  0.065329513            7 
  969000   0.87565895   -3.5214388    749.83167  0.064485008   0.06529928            2 
  970000   0.85651822     -3.51273    749.72842  0.064409658  0.065269092            5 
  971000    0.8615676   -3.5463184    749.95049  0.064362383  0.065238464            4 
  972000   0.86232156   -3.5289863    753.01614  0.064558997  0.065207729            5 
  973000   0.86130843   -3.5332135    750.33282  0.064262831  0.065177891            7 
  974000   0.84183882   -3.5297413    752.90902  0.064417268   0.06514733            4 
  975000   0.85536034   -3.5239708    754.87644  0.064519354  0.065116838            2 
  976000   0.85945018   -3.5385506    753.00665  0.064293601  0.065086897            3 
  977000   0.85828174   -3.5351867     755.8488  0.064470215  0.065057033            1 
  978000   0.85958663   -3.5104088    758.02538  0.064589757  0.065027336            2 
  979000   0.84668683   -3.5069054    756.38145  0.064383848  0.064997817            2 
  980000   0.87936037   -3.5291959    756.59842  0.064336601   0.06496883            2 
  981000   0.83850052   -3.5300836      759.228  0.064494393  0.064939643            3 
  982000   0.85860464    -3.535633    758.00541  0.064324967  0.064909933            3 
  983000   0.87092138   -3.5345309    756.41341  0.064124568  0.064880325            4 
  984000    0.8682996   -3.5110065    760.11921   0.06437324  0.064851061            3 
  985000   0.85016228    -3.554076    759.01603  0.064214554  0.064821737            2 
  986000   0.85648546   -3.5386865    758.01162  0.064064538  0.064791791            2 
  987000    0.8612193   -3.5340513    757.94159  0.063993718  0.064762463            2 
  988000   0.87273005   -3.5364706     758.8165  0.064002742  0.064732685            2 
  989000    0.8593555   -3.5387515    758.90326  0.063945337   0.06470264            2 
  990000   0.85372712   -3.5055294    760.78612  0.064039236  0.064672979            2 
  991000   0.87165308    -3.568647    761.88934  0.064067385  0.064643454            5 
  992000   0.84115805   -3.5303981    760.23381  0.063863728  0.064613728            3 
  993000    0.8552569   -3.5067889    760.93409  0.063858181  0.064583928            6 
  994000   0.84959317   -3.4987073     762.2294  0.063902532  0.064554223            2 
  995000   0.85708782   -3.5312316    762.41564  0.063853906  0.064524435            3 
  996000   0.84905159   -3.5363633    762.79682  0.063821688  0.064494866            3 
  997000   0.85164405   -3.5296419     764.4198   0.06389333  0.064465225            2 
  998000   0.85493287   -3.5160218    764.66298  0.063849614  0.064435568            2 
  999000   0.86662299   -3.5241727    766.27186  0.063919908  0.064405937            5 
 1000000   0.87539724   -3.5490038    766.35566  0.063862972  0.064377104            3 
 1001000   0.85989851   -3.5336895    765.16988  0.063700456  0.064347439            2 
 1002000    0.8345392   -3.5488301    766.05206  0.063710251  0.064317774            5 
 1003000   0.84846046   -3.5252605    767.59395  0.063774838  0.064288108            3 
 1004000   0.87174331   -3.5492974     765.8742  0.063568576  0.064258381            3 
 1005000   0.84887767   -3.5535026    764.54897  0.063395437  0.064227877            4 
 1006000    0.8406671   -3.5376202     765.7492  0.063431843  0.064197445            5 
 1007000   0.86933699   -3.5353502     768.3119  0.063580925  0.064167055            7 
 1008000   0.84267849   -3.5253265      772.367  0.063853092  0.064136654            6 
 1009000   0.84447569   -3.5430448    766.47598  0.063303269  0.064106214            6 
 1010000   0.84697863     -3.55073    768.00913   0.06336709  0.064075739            4 
 1011000      0.87476   -3.5614562    766.68801  0.063195517  0.064045468            5 
 1012000   0.87043572   -3.5554563    766.57171  0.063123494  0.064014784            3 
 1013000   0.85671021   -3.5462907    768.08027   0.06318528  0.063984217            7 
 1014000   0.84632981    -3.547186    770.46256  0.063318751  0.063953218            1 
 1015000    0.8378832   -3.5333757    771.65363  0.063354157  0.063923134            4 
 1016000   0.84263711   -3.5613376    768.30142  0.063016849  0.063892663            3 
 1017000   0.84240824   -3.5535702    770.74006  0.063154708   0.06386195            4 
 1018000   0.85118394   -3.5665653    768.58911  0.062916594  0.063831307            7 
 1019000   0.83415481   -3.5446807    771.09293  0.063059612  0.063801072            1 
 1020000   0.86313235   -3.5777686    769.75195  0.062888231  0.063770504            3 
 1021000   0.85115832   -3.5423731    770.65475  0.062900322  0.063739963            4 
 1022000   0.85795776    -3.546654    774.96254  0.063190031  0.063709752            4 
 1023000   0.82771673    -3.569997    774.77457  0.063112949  0.063679827            6 
 1024000   0.83872573   -3.5519046    773.34582  0.062935044  0.063649964            4 
 1025000     0.850959   -3.5373133    773.39861  0.062877936   0.06362009            2 
 1026000   0.84597669   -3.5393477    773.51795  0.062826344  0.063590044            6 
 1027000   0.83007008   -3.5504742      777.052  0.063051931   0.06355984            9 
 1028000   0.86521176   -3.5605604    776.43052  0.062940218    0.0635299            3 
 1029000   0.84488572   -3.5456261    777.79306  0.062989396  0.063499758            5 
 1030000   0.84382676   -3.5786682    778.31642  0.062970584   0.06346985            5 
 1031000   0.86077536    -3.541878    776.38683  0.062753542  0.063440402            5 
 1032000   0.84500869   -3.5597258    774.66183  0.062553442  0.063410653            4 
 1033000   0.83937822   -3.5820611    778.10874  0.062770953  0.063380883            4 
 1034000   0.85515073   -3.5680023    778.01032  0.062702314  0.063351138            4 
 1035000    0.8326517   -3.5609532    779.54451  0.062765258   0.06332132            4 
 1036000   0.83109438   -3.5411424    781.80264  0.062886312  0.063291551            3 
 1037000   0.82593893   -3.5611958    778.67388  0.062574243  0.063261454            3 
 1038000   0.83056296    -3.589416    776.23557  0.062318206  0.063230924            3 
 1039000    0.8414113   -3.5754363    779.46413  0.062517175  0.063200738            7 
 1040000   0.83812019   -3.5809244    776.77751  0.062241788  0.063170408            3 
 1041000   0.83152532   -3.5860116    780.55378  0.062484293  0.063140101            2 
 1042000   0.84746931   -3.5615853    779.25165  0.062320189  0.063109792            6 
 1043000   0.84050137    -3.579306    777.88576  0.062151307  0.063079414            2 
 1044000   0.83082333   -3.5700269    781.45797  0.062376913  0.063049101            6 
 1045000   0.85049464   -3.6007193    781.27502  0.062302633  0.063018589            2 
 1046000   0.82251863   -3.5534002    784.06328  0.062465207  0.062988445            3 
 1047000   0.81518369   -3.5786262    784.51688  0.062441649  0.062957989            5 
 1048000   0.85196258   -3.5570054    783.54321  0.062304645  0.062927656            3 
 1049000   0.82715294    -3.572923    784.44163  0.062316621  0.062897277            5 
 1050000   0.83127121    -3.575475    783.80571  0.062206803  0.062867175            3 
 1051000   0.84038561   -3.5748956    784.30574  0.062187262  0.062836708            4 
 1052000   0.83711798   -3.5738152    786.11483  0.062271453  0.062806305            3 
 1053000   0.83680473   -3.5767884    785.83252  0.062189975  0.062775697            5 
 1054000   0.82731122   -3.5859792    784.16564  0.061999181  0.062745085            2 
 1055000   0.80197329   -3.5866117    784.17806  0.061941395  0.062714264            6 
 1056000   0.84330183   -3.5832607    785.59654  0.061994676  0.062683493            3 
 1057000   0.82700518   -3.5850943    782.76272  0.061712608  0.062652741            2 
 1058000   0.81647265   -3.5532567     785.0682  0.061835869  0.062622206            7 
 1059000   0.83005277   -3.5625994    788.75929  0.062067933  0.062592253            3 
 1060000   0.81360608   -3.5692933    789.47226  0.062065429   0.06256222            3 
 1061000   0.83247454   -3.5954081    785.67137  0.061708402  0.062532015            6 
 1062000   0.82651262   -3.5839295    786.68895  0.061730143  0.062501861            4 
 1063000   0.83842918    -3.573704    791.53089  0.062051654  0.062471849            2 
 1064000   0.83140729    -3.583248    788.03734  0.061719716  0.062442204            3 
 1065000   0.80947826   -3.5855926    786.90006  0.061572774  0.062412384           10 
 1066000   0.83575564   -3.5597137    790.91898  0.061829189  0.062382245            3 
 1067000   0.83177706   -3.5877058    789.12002  0.061630742  0.062351698            4 
 1068000    0.8206914   -3.5655231    790.52201  0.061682429  0.062321386            6 
 1069000   0.82497372   -3.5782505    792.36617  0.061768489  0.062291348            2 
 1070000   0.82291551    -3.571211    789.64956  0.061499187  0.062260901            4 
 1071000   0.83693808   -3.5797368    790.93694  0.061541934  0.062230654            9 
 1072000    0.8182168   -3.5884663    794.06297  0.061727532  0.062200431            3 
 1073000   0.81893286   -3.5850888    791.73972  0.061489571  0.062170213            5 
 1074000   0.82810892   -3.5975718    790.93157  0.061369613  0.062139246            7 
 1075000   0.81317746    -3.614178    790.94678  0.061313704  0.062108359            4 
 1076000   0.82566613   -3.5806262    793.24201  0.061434481  0.062077141            5 
 1077000   0.84337879   -3.5859928     791.0489  0.061207745  0.062046238            4 
 1078000   0.83538963   -3.6078526    791.15118  0.061158873  0.062015119            5 
 1079000    0.8161806    -3.594846    789.61821  0.060983798   0.06198396            2 
 1080000    0.8113603   -3.5998169    793.05039   0.06119216   0.06195295            5 
 1081000   0.80031177   -3.5843234    794.80872  0.061271101  0.061921662            4 
 1082000   0.80540518   -3.5974372    792.30545  0.061021677  0.061891119            6 
 1083000     0.824176   -3.5641349      795.319  0.061197215  0.061859672            4 
 1084000   0.83389999   -3.6039741    794.73788  0.061096085  0.061828455            4 
 1085000   0.80964073   -3.5694931    796.45918   0.06117198   0.06179753            6 
 1086000   0.80906724   -3.5980303    795.25327  0.061023117   0.06176664            8 
 1087000   0.81544184   -3.5702663    796.76372  0.061082775  0.061735307            5 
 1088000   0.82058059   -3.5948848    794.96688  0.060889008  0.061704268            8 
 1089000   0.81156883   -3.6017944    792.36912  0.060634307  0.061672907            3 
 1090000   0.80595974   -3.5824461    796.41013  0.060887624  0.061641872            8 
 1091000    0.8226122   -3.5950005    795.09024  0.060730999  0.061610559            2 
 1092000   0.80501442   -3.5972878    799.16408   0.06098627  0.061579366            4 
 1093000   0.81851992   -3.5832334     797.0243   0.06076733  0.061548225            8 
 1094000   0.83095483   -3.5823669    796.13968  0.060644399  0.061517088            4 
 1095000   0.80590336   -3.5519885    795.79026  0.060562425   0.06148568            2 
 1096000   0.82612849   -3.6087051    795.57946  0.060491139  0.061454638            5 
 1097000    0.8176727   -3.5962095    797.66812  0.060594661  0.061423261            4 
 1098000   0.80024335    -3.600887    797.00981  0.060489512  0.061391919            7 
 1099000   0.81180484   -3.5987592     800.3488  0.060687655  0.061360537            5 
 1100000   0.82192307   -3.5844151    800.07214  0.060611526  0.061329305            2 
 1101000   0.81106535   -3.5958944    800.58544  0.060595326  0.061298292            4 
 1102000   0.82212295    -3.608612    798.85235  0.060409282   0.06126717            5 
 1103000   0.81590615   -3.6023284    799.15293  0.060377223  0.061236025            3 
 1104000   0.80591237   -3.6122747    803.55246  0.060654624  0.061204976            5 
 1105000   0.79957545   -3.6173959    801.58562  0.060451404  0.061174218            2 
 1106000    0.7961666    -3.626815    801.17652  0.060365922  0.061143221            8 
 1107000   0.81017867   -3.6141355    802.55456  0.060415128  0.061112076            5 
 1108000   0.81454149   -3.6104226    804.02591  0.060471263  0.061081778            3 
 1109000   0.81602751   -3.6189991    802.56982   0.06030732  0.061050868            5 
 1110000   0.80584968   -3.6144493    802.81353  0.060271286  0.061019928            4 
 1111000   0.81717029   -3.6182377    803.37305  0.060259005  0.060989159            5 
 1112000   0.82875295    -3.597253    803.50769  0.060214905  0.060958326            5 
 1113000   0.83222335   -3.6268222    802.93882   0.06011821  0.060927349            7 
 1114000   0.79557296   -3.6112667    804.00902  0.060144301  0.060896249            3 
 1115000   0.79599652   -3.6343798    803.83293  0.060077199  0.060864862            3 
 1116000   0.80835735   -3.6050435    804.28019  0.060056764   0.06083399            2 
 1117000   0.80497931   -3.5996966    806.41424  0.060162208  0.060802856            6 
 1118000   0.80386016   -3.6245984    804.42502  0.059960123  0.060771729            5 
 1119000   0.81473974   -3.6279837    805.17474  0.059962373  0.060740677            7 
 1120000   0.80170101    -3.621094    808.08499  0.060125371  0.060709105            5 
 1121000   0.80369736   -3.6278146    808.21268  0.060081228  0.060678336            4 
 1122000   0.81627718   -3.6366723    804.59916  0.059759296  0.060647473            5 
 1123000   0.80149123   -3.6130276    809.87967  0.060097928  0.060616499            4 
 1124000   0.81006943   -3.6138698    806.51626  0.059795097  0.060585427            4 
 1125000   0.78223758   -3.6202364    807.18281  0.059791319  0.060554774            3 
 1126000   0.81465852      -3.6159    808.67429    0.0598486  0.060523752            6 
 1127000   0.82117987   -3.6410712     809.4922  0.059855975   0.06049273            3 
 1128000   0.81050016   -3.6264712    807.23757  0.059636345  0.060461937            2 
 1129000   0.79797027   -3.6157551    810.79895  0.059846394   0.06043139            3 
 1130000    0.8101275   -3.6315966     808.4629  0.059621158  0.060400478            3 
 1131000   0.80272312   -3.6397634    809.27622  0.059628369  0.060369466            5 
 1132000   0.79961535   -3.6273341    808.31843  0.059505185   0.06033822            3 
 1133000   0.78622776   -3.6185457    809.24884  0.059521097  0.060307467            7 
 1134000   0.81064323   -3.6291097    810.11132   0.05953199  0.060276301            4 
 1135000   0.79460652   -3.6421534    810.42942  0.059502895  0.060245215            3 
 1136000   0.78822873   -3.6249497    810.58973  0.059462275  0.060213954            6 
 1137000   0.80366743   -3.6341689    812.46131   0.05954715  0.060182778            7 
 1138000   0.80913201   -3.6039176    810.36167  0.059341071  0.060151675            6 
 1139000   0.79285296   -3.6356517    812.93659  0.059477363  0.060120599            3 
 1140000   0.80327075   -3.6281762    814.68073  0.059552685  0.060089541            5 
 1141000   0.78566531   -3.6366959    814.19932  0.059465331  0.060058679            5 
 1142000   0.79386001   -3.6278062    813.87304  0.059389452  0.060028181            5 
 1143000   0.78465804   -3.6330697    811.88162  0.059192302  0.059997719            6 
 1144000   0.80659969   -3.6221311    817.35341  0.059539147  0.059967699            4 
 1145000   0.80442312   -3.6432546    817.60126  0.059505186  0.059937375            4 
 1146000   0.79463481   -3.6471104    815.93916    0.0593324  0.059907145            4 
 1147000   0.78770403   -3.6315819    813.55696  0.059107597  0.059877114            3 
 1148000   0.81001553   -3.6407553    817.61317  0.059350549  0.059846989           11 
 1149000   0.79321526   -3.6278632    817.45168  0.059287183  0.059816786            6 
 1150000   0.79941454   -3.6331724    817.82909  0.059262977  0.059787044            6 
 1151000   0.79047862   -3.6174273    819.72587  0.059348818  0.059756842            3 
 1152000   0.79919754   -3.6453218    817.39854  0.059128945  0.059727151            6 
 1153000   0.78693475   -3.6193078    817.99045  0.059120443  0.059697121            4 
 1154000   0.79490438   -3.6292472    819.57622  0.059183725  0.059667125            9 
 1155000   0.78601193   -3.6450101    820.65491  0.059210311  0.059636844            4 
 1156000   0.77791159   -3.6328354    820.09171  0.059118491  0.059606957            7 
 1157000   0.77242262   -3.6272063    822.63062  0.059250261  0.059577337            3 
 1158000   0.77943475   -3.6544978    822.49103  0.059189049  0.059547775            3 
 1159000   0.79765115   -3.6411851    820.46312  0.058992171  0.059518048           19 
 1160000   0.80846131   -3.6446223    825.59019   0.05930964  0.059488369            6 
 1161000    0.7916028   -3.6507962    824.40073  0.059173179  0.059458791            4 
 1162000   0.79359538   -3.6393941    821.61162  0.058922233  0.059428932            9 
 1163000   0.79443385   -3.6358879    824.98966  0.059113619   0.05939878            3 
 1164000   0.76410507   -3.6371168    820.40201  0.058734394  0.059368966            3 
 1165000   0.79867882   -3.6249151    822.65785   0.05884534  0.059339365            2 
 1166000   0.79617274   -3.6217679    823.85382  0.058880347  0.059309675            9 
 1167000   0.77029194   -3.6340924     821.4392  0.058657469  0.059279484            5 
 1168000   0.79279438   -3.6559257    823.73975  0.058771386  0.059249748            9 
 1169000   0.78519725   -3.6644059    821.74876  0.058579181  0.059220032            7 
 1170000   0.78071174   -3.6316424    826.30169  0.058853396  0.059190189            5 
 1171000   0.79643991   -3.6441198    825.01663  0.058711687    0.0591603            7 
 1172000   0.78022339   -3.6586033    823.25693  0.058536471  0.059129887            2 
 1173000   0.79497811   -3.6248197     824.6569  0.058586026   0.05909973            3 
 1174000   0.78881847   -3.6545758    823.60873  0.058461721   0.05906952            3 
 1175000   0.78435476   -3.6610221    824.56975  0.058480124  0.059039365            5 
 1176000   0.79220367   -3.6630316    823.22293  0.058334958  0.059009308            2 
 1177000   0.78540449   -3.6531294    826.96053  0.058550023  0.058979482            7 
 1178000   0.78653682    -3.644511    828.39971   0.05860213  0.058949579            6 
 1179000   0.77129841   -3.6383037    824.85837  0.058302118  0.058919398            5 
 1180000   0.76664743   -3.6666891    824.26231  0.058210615  0.058889047            5 
 1181000   0.79343006   -3.6504801     826.9296  0.058349534  0.058858843            2 
 1182000    0.7817037   -3.6848341    825.69154  0.058212883  0.058828178            3 
 1183000   0.77801109   -3.6492563    829.83122  0.058455285  0.058797874           13 
 1184000   0.78336552   -3.6627711    827.31984  0.058229156   0.05876769            6 
 1185000   0.78346761   -3.6773191    827.99305   0.05822736  0.058737337            3 
 1186000   0.78830768   -3.6701074    827.02604  0.058110317  0.058706919            4 
 1187000   0.77494844   -3.6627987    829.10921  0.058207611  0.058676108            2 
 1188000   0.78917775   -3.6785907    828.14955  0.058091299  0.058645496            5 
 1189000   0.76326879    -3.662801    826.13969  0.057901576   0.05861495            5 
 1190000   0.76666736   -3.6485161    830.00402  0.058123531  0.058584665            5 
 1191000   0.76261747   -3.6473468     828.2752  0.057953764  0.058554378            6 
 1192000   0.77559702   -3.6325629    828.96858   0.05795362   0.05852376            4 
 1193000   0.78515363    -3.657832    830.37809  0.058003499  0.058493399            4 
 1194000   0.78370293   -3.6440215    829.32908  0.057881705  0.058463065            5 
 1195000   0.79976289   -3.6196802    831.24295  0.057966733  0.058432709            4 
 1196000   0.78854892    -3.665802     827.1458   0.05763279  0.058402224            4 
 1197000   0.77103023   -3.6673663    826.82469  0.057562287   0.05837126            4 
 1198000   0.76425936   -3.6942179    829.96481  0.057732666   0.05834022            2 
 1199000   0.78559958   -3.6860207    826.18105  0.057421535  0.058309378            5 
 1200000   0.78077981   -3.6504645    832.36579   0.05780318  0.058278873            6 
 1201000   0.78420017   -3.6618013    829.43282  0.057551542  0.058248139            4 
 1202000   0.77477105   -3.6648146    831.78747  0.057666907  0.058217299            4 
 1203000   0.77999221   -3.6878063     829.2584   0.05744378   0.05818637            6 
 1204000   0.76909705    -3.658942    831.48788  0.057550379  0.058155577            4 
 1205000   0.77249915    -3.682697    833.94479   0.05767253  0.058124875            3 
 1206000   0.77123653   -3.6579178    832.15034  0.057500714  0.058094111            3 
 1207000   0.76807079   -3.6737013    829.58561  0.057276002  0.058063186            4 
 1208000   0.75441992   -3.6659064    831.55029   0.05736412   0.05803199            9 
 1209000   0.76429989   -3.7035397    831.90628   0.05734121  0.058000772            4 
 1210000   0.75691175   -3.6613917    835.91853  0.057570147  0.057969915            3 
 1211000    0.7654168   -3.6690225    834.87125   0.05745054  0.057938974            2 
 1212000    0.7664279   -3.6738136    834.49445  0.057377231  0.057908057            6 
 1213000   0.76999847   -3.6864473    835.57687  0.057404292  0.057877265            5 
 1214000   0.76115777   -3.6881639    836.46082  0.057417684  0.057846332            5 
 1215000    0.7758149   -3.6940724    835.92053   0.05733337  0.057816216            5 
 1216000   0.77834594   -3.6759964    834.81836  0.057210688  0.057785222            4 
 1217000   0.78015916   -3.6734068    835.91475  0.057238753  0.057754537            5 
 1218000   0.78185164   -3.6742748    837.57544   0.05730538  0.057724011            2 
 1219000   0.78980238   -3.6692801     835.8392  0.057139677  0.057693498            7 
 1220000   0.76642956    -3.680292    834.81754  0.057023056  0.057663093            5 
 1221000   0.75404371    -3.676828    839.73051  0.057311664  0.057632842            9 
 1222000   0.75951011   -3.6905216    838.26403  0.057164759    0.0576027            4 
 1223000   0.77163475   -3.6818761    836.35112  0.056987675  0.057572235            6 
 1224000   0.79239757   -3.6826287    834.29678  0.056801251  0.057542097            5 
 1225000   0.75279671   -3.6762194    838.06271  0.057011068  0.057511946            3 
 1226000   0.77320235   -3.6841106    837.82119   0.05694815   0.05748161           13 
 1227000   0.76007996   -3.6987857    839.56807   0.05702038  0.057451288            4 
 1228000   0.77261461   -3.6863416    837.36445  0.056824406  0.057421141            4 
 1229000   0.75959524    -3.671215    841.17066  0.057036253  0.057391314            3 
 1230000   0.75216467   -3.6723405    840.24024  0.056926845  0.057361336            6 
 1231000   0.74763365   -3.6844618    839.47749  0.056828967  0.057331673            9 
 1232000    0.7738203   -3.6881897    840.05696  0.056822035  0.057301751            4 
 1233000    0.7656537    -3.699141     839.7564  0.056755637  0.057271927            5 
 1234000   0.76617841   -3.7096927    839.23274   0.05667428  0.057241995            4 
 1235000   0.75284961    -3.681288    841.96652  0.056812856  0.057211918            9 
 1236000   0.76340816    -3.671821    840.94474     0.056698  0.057182018            5 
 1237000   0.76443734   -3.6848588    841.81264  0.056710633  0.057152138            4 
 1238000   0.75741937   -3.6835338    843.33923  0.056767584  0.057122363            6 
 1239000   0.75931882   -3.6942761    844.35089  0.056789809  0.057092748            5 
 1240000   0.74315542   -3.6894824    843.17125  0.056664734  0.057062945            7 
 1241000   0.75588399    -3.707614    843.94503  0.056671033   0.05703352            6 
 1242000   0.76928193   -3.6811545     841.7253  0.056476469  0.057003768            5 
 1243000   0.75654728   -3.7082345    846.38876  0.056743682  0.056974299            4 
 1244000   0.74722313   -3.7044858    845.91271  0.056666179  0.056944911            3 
 1245000   0.76603262    -3.696926    841.01916  0.056293116  0.056915268            4 
 1246000   0.76246891   -3.6961965    845.13835  0.056523431  0.056885633            5 
 1247000   0.76406903   -3.7070105    845.72857  0.056517547  0.056856456            3 
 1248000   0.74674343   -3.6994276    847.13624  0.056566255  0.056827107            5 
 1249000   0.74976438   -3.7081168    847.93301  0.056574126  0.056797664            6 
 1250000   0.74243329   -3.6968169    847.84758  0.056523172    0.0567682            6 
 1251000   0.74902793   -3.6766607    845.32523  0.056309967   0.05673848           11 
 1252000    0.7501113     -3.71644    847.13195  0.056385247  0.056708947            7 
 1253000   0.76810755   -3.7021049    848.99791  0.056464346  0.056679844            3 
 1254000   0.74656587   -3.6895676    849.55784  0.056456528  0.056650426            7 
 1255000   0.76122696   -3.6960278    849.74314  0.056423847  0.056621237            3 
 1256000   0.75245038    -3.686807    849.28094  0.056348258   0.05659251            8 
 1257000   0.73421756   -3.6862006     851.9242  0.056478666  0.056563542            2 
 1258000   0.74721961   -3.6970234    851.62737  0.056414108  0.056534465            3 
 1259000   0.74085104    -3.707411    847.66009  0.056106704  0.056505041            8 
 1260000   0.75385104   -3.7063432    850.52622  0.056251734  0.056475364            9 
 1261000   0.74998513   -3.7063845    849.11774  0.056114046  0.056445917            4 
 1262000   0.76121596   -3.7118534    850.65728  0.056171241  0.056416422            7 
 1263000   0.74966487   -3.7084115    848.02998  0.055953417  0.056386922            4 
 1264000   0.76009245   -3.6944896    849.62231  0.056014129  0.056357299            7 
 1265000   0.75585286   -3.7108667    847.62871  0.055838519  0.056327504            5 
 1266000   0.74954083   -3.7004895    850.70713  0.055997046  0.056297975            5 
 1267000   0.76309702   -3.6994448    850.42193  0.055934092  0.056268507            7 
 1268000   0.75294625   -3.7141066    852.41865  0.056021205  0.056239043            6 
 1269000    0.7616176     -3.71908    849.87999  0.055810349  0.056209477           12 
 1270000   0.74298123   -3.7339467    853.28614  0.055989904  0.056180142            6 
 1271000   0.72812557   -3.7088927    852.34034  0.055883841  0.056150922            2 
 1272000   0.75138917   -3.7438212    850.73022  0.055734422  0.056121679            7 
 1273000   0.74271234   -3.7029395    851.01291  0.055709145  0.056092064            4 
 1274000   0.75656399    -3.704265    853.94061  0.055856921  0.056062764            5 
 1275000   0.74751732   -3.7189506    853.95974  0.055814362  0.056033659           11 
 1276000   0.75024683    -3.718594    852.50769   0.05567579  0.056004436            5 
 1277000   0.74036561   -3.7004626    855.17825  0.055806464   0.05597531            7 
 1278000    0.7518346   -3.7017985    858.44732   0.05597596  0.055946569            3 
 1279000   0.73838581    -3.715015    855.52206  0.055741599  0.055917637            6 
 1280000   0.74786195   -3.7155423    855.19017  0.055676443  0.055888757            3 
 1281000   0.73975859   -3.7077654    857.82368  0.055804299  0.055860056            5 
 1282000   0.73703703   -3.7206042     854.4979  0.055544585  0.055831656            4 
 1283000   0.74162724   -3.7227467    858.35266  0.055751667  0.055803038            6 
 1284000   0.74958661    -3.725847    857.59029  0.055658767  0.055774583            6 
 1285000   0.74315493    -3.709014    860.19953  0.055784665  0.055746046            5 
 1286000   0.73402101    -3.723252    856.18648  0.055481239  0.055717549            6 
 1287000   0.74097272   -3.7390532    857.68787  0.055535345  0.055688771            3 
 1288000   0.74352681   -3.7264593    857.17183   0.05545884  0.055659965            3 
 1289000   0.72992513   -3.7118752    858.98711  0.055533172  0.055631448            5 
 1290000    0.7485617   -3.7273116    859.19126  0.055503312  0.055602773            4 
 1291000   0.75273759   -3.7247197      858.858  0.055438807  0.055574048            6 
 1292000   0.73979865    -3.737928    858.20345   0.05535368  0.055545406            4 
 1293000   0.73603768   -3.7197661    860.47664  0.055457375   0.05551683           11 
 1294000   0.73118891    -3.714196     860.7305  0.055430867  0.055488063            5 
 1295000    0.7358712   -3.7276186    859.48784  0.055308098  0.055459269            4 
 1296000   0.74395387   -3.7050855    860.25378  0.055314672   0.05543034            3 
 1297000   0.74129555   -3.7468428    856.93675  0.055058902  0.055401713            6 
 1298000   0.73875825   -3.7305716    862.36267  0.055364835  0.055372986            6 
 1299000   0.72666511   -3.7476799    860.74718  0.055218577  0.055344236            4 
 1300000   0.74095187   -3.7253175    864.29536  0.055403549  0.055315632            6 
 1301000   0.72823661   -3.7414225    861.67685  0.055193239  0.055287142            6 
 1302000   0.74244487   -3.7473526    859.92495  0.055038719  0.055258257            4 
 1303000    0.7505546   -3.7166888    861.26298  0.055082053  0.055229624            4 
 1304000   0.72612022   -3.7374692    862.94781  0.055147483  0.055201233            4 
 1305000     0.743579   -3.7364811    863.29589  0.055127451  0.055172743            4 
 1306000   0.74317465   -3.7346793    863.56815  0.055102613   0.05514423            7 
 1307000   0.75443911   -3.7304429    862.70112  0.055005172  0.055115723            7 
 1308000    0.7439194   -3.7520469    863.17153  0.054993089  0.055087307            5 
 1309000   0.73789774   -3.7375452    863.59132  0.054977802  0.055058817            6 
 1310000   0.73641937   -3.7417296    863.54976  0.054933191  0.055030142            5 
 1311000   0.74204742   -3.7560078    863.61951  0.054895723  0.055001723            4 
 1312000   0.75319494   -3.7385332    863.34123  0.054836206  0.054973088            6 
 1313000   0.72799473   -3.7360247    865.76404  0.054948212  0.054944507            3 
 1314000     0.706956    -3.752453    865.37268  0.054881576   0.05491583            4 
 1315000   0.73442512   -3.7659304    865.99378    0.0548792  0.054886939            7 
 1316000   0.73898509   -3.7442534    862.60014  0.054622603  0.054858119            6 
 1317000   0.73994469   -3.7457438    865.22799  0.054747405  0.054829411            4 
 1318000   0.72751139   -3.7358255    867.29456   0.05483653  0.054800671            4 
 1319000   0.72398563   -3.7302714     864.5617  0.054622296  0.054771873            3 
 1320000   0.72429573   -3.7480161    865.91944  0.054666631  0.054743059            5 
 1321000   0.73075594   -3.7405056    863.39731  0.054466143  0.054714505            5 
 1322000   0.72358261   -3.7427022    863.95025  0.054459799  0.054685766            4 
 1323000   0.72514649   -3.7552271    863.72047  0.054404162  0.054657099            4 
 1324000   0.72488998   -3.7594939    867.34215  0.054591022  0.054628353            2 
 1325000   0.73431343   -3.7758437    864.25477  0.054355646   0.05459949            7 
 1326000    0.7140665   -3.7351924    866.74814  0.054471351  0.054570937            5 
 1327000   0.73474859   -3.7527929    866.35151  0.054405395  0.054542561            7 
 1328000   0.72475406   -3.7485215    869.35687  0.054553017  0.054514395            6 
 1329000   0.70403104    -3.772422    866.95646  0.054361453  0.054486189            5 
 1330000   0.72781481   -3.7722345    866.86411  0.054314794  0.054457618            6 
 1331000   0.72077459    -3.777755    869.15889  0.054417662  0.054429595            6 
 1332000   0.70286965   -3.7465629    870.69966  0.054473202  0.054401323            4 
 1333000   0.72498583   -3.7538311    870.35319  0.054410677  0.054373131            7 
 1334000   0.73081828   -3.7515471    869.34619  0.054306983  0.054344794            8 
 1335000   0.71988183    -3.751115    871.17942  0.054380738  0.054316554            6 
 1336000    0.7032689   -3.7586193    869.65713  0.054245081  0.054288144            2 
 1337000   0.70736438    -3.765676    869.91334  0.054220478  0.054259573            9 
 1338000   0.70631507   -3.7457881    870.59319  0.054222297  0.054231238            3 
 1339000   0.72749804   -3.7598919    868.84026  0.054072707  0.054202892            3 
 1340000    0.7163919   -3.7559029    871.11661  0.054173918   0.05417449            4 
 1341000   0.71426875    -3.771073     872.3155  0.054208022  0.054146038           11 
 1342000   0.72329922   -3.7614437    870.96578  0.054083817  0.054117593            9 
 1343000   0.71844168   -3.7570471    868.69858  0.053902866  0.054089171            3 
 1344000    0.7194138   -3.7711241    870.24883  0.053958881  0.054060898            4 
 1345000   0.71655371   -3.7604164    869.84607  0.053893809    0.0540323            4 
 1346000   0.69838018   -3.7598713    871.11078  0.053932069  0.054003926           13 
 1347000   0.71858811   -3.7324611    872.92113  0.054004029  0.053975799           11 
 1348000   0.70994186   -3.7803278    870.69218  0.053826173  0.053947866            2 
 1349000   0.73202515   -3.7579189    873.06399  0.053932789  0.053919906            5 
 1350000   0.72481804   -3.7690706    873.80516   0.05393859  0.053892024            8 
 1351000   0.70077867   -3.7524274    873.56682  0.053883963  0.053864215            5 
 1352000   0.70808321   -3.7618641     872.7559  0.053794126  0.053836209            5 
 1353000   0.71986174   -3.7658594    874.37212  0.053853912  0.053808213            6 
 1354000   0.70849092   -3.7728215    874.94461  0.053849373   0.05378025            4 
 1355000   0.71055796   -3.7859484    875.78226  0.053861147  0.053752342           12 
 1356000   0.71625501   -3.7805705    874.50649  0.053743024  0.053724202            9 
 1357000   0.70544378   -3.7861604    875.72386  0.053778178  0.053696171            9 
 1358000   0.71326485   -3.7454285    875.16609   0.05370435  0.053668033            6 
 1359000   0.72358197   -3.7460745    874.77182  0.053640656  0.053639861            5 
 1360000    0.7203986   -3.7796125    876.16298  0.053686457  0.053611751            8 
 1361000    0.7147404   -3.7949924    874.65351  0.053554587  0.053583679            6 
 1362000   0.70675982   -3.7620045    874.15544  0.053484792  0.053555583            6 
 1363000   0.71900641   -3.7704736    873.84603  0.053426635  0.053527561            5 
 1364000   0.69003751   -3.7707707    876.08765  0.053524417  0.053499371            8 
 1365000   0.72602067   -3.7582304    876.77318  0.053527056   0.05347127            7 
 1366000   0.71230108   -3.7755654    879.61014  0.053660941  0.053442852            9 
 1367000   0.70359626    -3.784472    876.69308   0.05344386  0.053414544           11 
 1368000   0.72206706   -3.7823352    876.08139  0.053367531  0.053386202            4 
 1369000   0.70940574   -3.7644952    877.28117  0.053401581  0.053357818            6 
 1370000     0.716485    -3.788807    875.64283  0.053262946  0.053329556            6 
 1371000   0.70889563   -3.7675235    878.53223  0.053399722  0.053301374            3 
 1372000   0.70642994   -3.7862691    877.35718   0.05328943  0.053273233            3 
 1373000    0.7137383    -3.780148    877.02614  0.053230526  0.053244822            6 
 1374000   0.68690485   -3.7825032    877.33715  0.053210647  0.053216599            4 
 1375000   0.68362117   -3.7770901    876.43166   0.05311707  0.053188477            3 
 1376000   0.71125969   -3.7994941    875.66519  0.053032049  0.053160103            8 
 1377000   0.71471627   -3.7952698     879.0042  0.053195606  0.053131946            5 
 1378000   0.70426832   -3.7843524    880.63242  0.053255468  0.053104048            6 
 1379000   0.70816334   -3.7948402    878.62616   0.05309561  0.053076192            5 
 1380000   0.70515756    -3.813491    877.96442  0.053017175  0.053048173            6 
 1381000   0.70200578   -3.7935064    881.07507   0.05316649    0.0530203            5 
 1382000   0.69420047   -3.7923705    880.88046  0.053116284  0.052992481            7 
 1383000   0.71831722   -3.7837617    883.03745  0.053207848  0.052964678            6 
 1384000   0.72832738   -3.7924426    879.95328  0.052983699  0.052937002            7 
 1385000   0.70847346   -3.7995316    880.03065    0.0529501  0.052908956           13 
 1386000    0.6964018   -3.7948355     880.4537  0.052937332  0.052881134            3 
 1387000   0.69793013   -3.8107597    881.12786  0.052939669  0.052853443           13 
 1388000   0.70065941   -3.7836005    882.66534  0.052993837   0.05282587            7 
 1389000   0.69288486    -3.804888    881.13736  0.052864013  0.052798117            7 
 1390000   0.69763063   -3.8026697    885.84278   0.05310808  0.052770421            5 
 1391000   0.69551981   -3.7667048    884.53272  0.052991416  0.052743089            6 
 1392000   0.71720819   -3.8103472    882.15539  0.052811026  0.052715661            7 
 1393000   0.69616877   -3.8112504    884.74047  0.052927762  0.052688235            4 
 1394000   0.70987489    -3.801086     879.5969  0.052582311  0.052660721            8 
 1395000   0.70729874   -3.7882284    884.19633  0.052819374  0.052633134            3 
 1396000   0.68671973   -3.8096978    881.68138   0.05263141   0.05260547            8 
 1397000   0.68954443   -3.8009877     883.9047   0.05272636  0.052577815            3 
 1398000   0.70672555   -3.8184446    880.40018  0.052479744  0.052549938            7 
 1399000   0.69202413    -3.765249    885.18505  0.052727249  0.052522264            3 
 1400000   0.70247713   -3.7997532    882.31243  0.052518597  0.052494608            8 
 1401000   0.69429258   -3.8038225     883.8747  0.052574037  0.052466793            3 
 1402000   0.69906125   -3.8038089    885.81504  0.052651869  0.052439295            7 
 1403000   0.69509102   -3.8048812    886.35039  0.052646139  0.052411794            5 
 1404000   0.69732247   -3.7897781    886.91008  0.052641861  0.052384109            3 
 1405000   0.68775591   -3.8090815    884.79776  0.052479108  0.052356733            7 
 1406000   0.68104671   -3.7952785    885.92311  0.052508482  0.052329452            6 
 1407000   0.69106024    -3.811715    883.94305  0.052353888  0.052301914            3 
 1408000   0.68188591   -3.8149271    887.12637  0.052505112  0.052274454            4 
 1409000   0.70276455   -3.8256054    887.84622  0.052510422  0.052247171           15 
 1410000   0.69570667   -3.7984763    888.38283  0.052504896  0.052219595            8 
 1411000   0.68952632   -3.8253361    886.96502  0.052383949  0.052192021            6 
 1412000   0.68473611   -3.8003169    886.83579  0.052339223  0.052164555            5 
 1413000   0.68664304   -3.8086582    886.97103  0.052310158  0.052136982            6 
 1414000   0.69351336   -3.7838257    889.85264  0.052442989  0.052109387           10 
 1415000   0.68219755   -3.8149799    886.57505  0.052212901  0.052081878           11 
 1416000   0.68424524   -3.8070754    887.10929  0.052207468  0.052054369            6 
 1417000   0.67952153   -3.8025172    886.47278  0.052133191  0.052026894            6 
 1418000   0.69311476   -3.8285982    887.80737  0.052174857  0.051999285            6 
 1419000   0.68685637   -3.8042396    889.35972  0.052229253  0.051971961           13 
 1420000   0.67804986   -3.8045583    887.86666  0.052104851  0.051944914            5 
 1421000   0.69786155   -3.8330386    887.97483  0.052074527  0.051917782            8 
 1422000   0.67535319   -3.8334336    890.71398  0.052198428  0.051890479            5 
 1423000   0.69540654   -3.8169942    889.90731  0.052114506  0.051863266           15 
 1424000   0.67082724   -3.8216946    888.10017  0.051972154  0.051836039            8 
 1425000   0.68123552    -3.821161     891.8828  0.052156889  0.051809052            4 
 1426000   0.66217137   -3.8251765    890.79135  0.052056531  0.051781977           41 
 1427000   0.67040146   -3.8270372    891.86499  0.052082749   0.05175495           10 
 1428000   0.66865258   -3.8052061    892.09746  0.052059842  0.051728103            4 
 1429000   0.67513436   -3.8071693    892.78539  0.052063529  0.051701394            6 
 1430000   0.67738598   -3.8181072    892.75076  0.052025103  0.051674765            8 
 1431000   0.68107772   -3.8237798    890.62047  0.051864691  0.051647934            7 
 1432000   0.69287789     -3.82595    890.23972  0.051806315  0.051620658            6 
 1433000   0.67854293   -3.8197965    890.07059  0.051760327  0.051593724            5 
 1434000    0.6988133   -3.8189188    892.66585  0.051875049  0.051566818           11 
 1435000   0.68263854   -3.8169163    892.75079  0.051843832  0.051539908            4 
 1436000   0.69250238   -3.8444499     892.8675  0.051814502  0.051512862            6 
 1437000   0.66947052   -3.8409607    894.53331  0.051875047  0.051486114            5 
 1438000   0.66489803   -3.8304488    894.25876  0.051823062  0.051459509           19 
 1439000   0.67546628   -3.8326571    894.35443  0.051792589  0.051432611            9 
 1440000   0.68584292   -3.8330871    894.39423  0.051758925  0.051405839            8 
 1441000   0.67839844    -3.829295     893.1601  0.051651637  0.051379234            4 
 1442000   0.68620228   -3.8111171    892.88446  0.051599888   0.05135251            5 
 1443000   0.67362994   -3.8217051    893.48013  0.051598529  0.051325729            5 
 1444000   0.68442207   -3.8268016    895.48439  0.051678462  0.051299193            4 
 1445000   0.68368695   -3.8210359    894.99497  0.051614473  0.051272469           13 
 1446000   0.66458432   -3.8249585    896.50681  0.051665907  0.051245976            5 
 1447000   0.67221494   -3.8624249    897.15433  0.051667492  0.051219471           12 
 1448000   0.67779415    -3.823801    896.12869  0.051572784  0.051193043            5 
 1449000   0.66645734   -3.8459746      895.082  0.051476996  0.051166488            4 
 1450000   0.67754228   -3.8357185    895.26378  0.051451942  0.051139677           10 
 1451000   0.67960478   -3.8515237    894.68518  0.051383252  0.051112825            9 
 1452000   0.67102787   -3.8420693      897.448  0.051506428  0.051086183            5 
 1453000   0.67317759   -3.8384039    895.74918  0.051373548  0.051059459            5 
 1454000   0.67067207    -3.833514    898.82841  0.051514696  0.051032991           11 
 1455000    0.6741726   -3.8334482    896.64543  0.051354263   0.05100629            6 
 1456000   0.68667011   -3.8408514    896.75722  0.051325391  0.050979719            7 
 1457000   0.67711021   -3.8394731    899.43096  0.051443089  0.050953053            5 
 1458000    0.6670067     -3.85644    897.81514  0.051315451  0.050926612            7 
 1459000   0.66334675   -3.8253727    899.22201  0.051360636  0.050900151            8 
 1460000    0.6817596   -3.8204236      899.083  0.051317523  0.050873585            9 
 1461000   0.66790139   -3.8552873    895.37579  0.051070944  0.050846753            8 
 1462000   0.67669916   -3.8448248    895.94138   0.05106825   0.05081986            9 
 1463000   0.66954593   -3.8149971    898.89297  0.051201468   0.05079309            9 
 1464000   0.66928965   -3.8285382    897.62078  0.051094079  0.050766506            7 
 1465000   0.67377484   -3.8395205    897.97428  0.051079311  0.050739663           11 
 1466000   0.67265888   -3.8432515    897.80147  0.051034645  0.050712914            5 
 1467000    0.6730245   -3.8680416     895.6948  0.050880187  0.050686047            8 
 1468000   0.68317843   -3.8505894    893.77432  0.050736508  0.050659062            4 
 1469000   0.66933647   -3.8467278    899.39717  0.051020942  0.050632157            7 
 1470000   0.66038153   -3.8562432    898.97832   0.05096249  0.050605443            4 
 1471000    0.6473569   -3.8373381     896.8775  0.050808832  0.050578682            6 
 1472000   0.65941588   -3.8587156    895.91311  0.050719719   0.05055186            6 
 1473000   0.66541771   -3.8539189    901.99368  0.051029287  0.050525048            6 
 1474000     0.658061   -3.8500705    898.65047  0.050805657  0.050498353            6 
 1475000   0.66310554   -3.8548071    899.01904  0.050792036  0.050471681            7 
 1476000    0.6541212   -3.8585316    896.64396   0.05062353  0.050445154            9 
 1477000   0.65644348   -3.8744519    900.10594  0.050784582  0.050418425            7 
 1478000   0.66951388   -3.8508148    899.85226  0.050735919  0.050391628            4 
 1479000   0.65428719   -3.8677843    900.60732  0.050744158  0.050364993           11 
 1480000   0.66744134   -3.8737231    900.78057  0.050719627  0.050338359            9 
 1481000   0.66140094   -3.8527278    899.82372  0.050631539  0.050311657            5 
 1482000      0.65888   -3.8481463    899.94066  0.050603951  0.050285395            9 
 1483000   0.66618345   -3.8719948    902.81706   0.05073146  0.050258985            4 
 1484000   0.66224997   -3.8717152     900.1322  0.050546507  0.050232415            3 
 1485000    0.6606049   -3.8818398    900.30392  0.050522105   0.05020593            5 
 1486000   0.65147742   -3.8461443     902.3623  0.050603538  0.050179506            8 
 1487000   0.65230705   -3.8720845    900.63766  0.050472857  0.050152997            9 
 1488000   0.66302436   -3.8657283    900.16988   0.05041274  0.050126431            4 
 1489000   0.65753002   -3.8896469     901.6065  0.050459285   0.05009973           10 
 1490000     0.650289   -3.8609879    902.50871  0.050475878  0.050073123            5 
 1491000   0.66421966   -3.8648092    903.94067  0.050522058  0.050046675            7 
 1492000   0.65410566   -3.8614861    901.81581  0.050369516  0.050020252            4 
 1493000   0.65017614    -3.870776    903.80924  0.050447044  0.049993765            7 
 1494000   0.65146128    -3.865083    900.43538  0.050225088  0.049967316           13 
 1495000   0.66471549   -3.8717633    903.63633  0.050369918  0.049940827           10 
 1496000   0.64246454   -3.8800896     903.4636  0.050326626  0.049914451            4 
 1497000   0.65732549   -3.8699349    905.67722  0.050416233   0.04988814           12 
 1498000   0.65523109   -3.8757132    904.46338  0.050315052    0.0498617            9 
 1499000   0.64150576   -3.8862159    903.03459  0.050202056   0.04983533            4 
 1500000   0.66158415   -3.8592474    904.10608  0.050228115  0.049808936            4 
 1501000   0.65291337   -3.8833295    905.54545  0.050274564  0.049782735            3 
 1502000   0.65567492   -3.8771781    903.79628  0.050144046  0.049756474            9 
 1503000   0.65384875   -3.8724246    906.71385  0.050272447  0.049730081            6 
 1504000   0.64372814   -3.8942443    905.60341  0.050177494  0.049703818            4 
 1505000    0.6493764   -3.8705431    904.33485  0.050073912  0.049677514            8 
 1506000   0.67224181   -3.8906484    908.80169  0.050287831  0.049651407            7 
 1507000   0.64221929   -3.8898209    906.51012  0.050127744  0.049625114           16 
 1508000   0.63908675   -3.8926048    904.12456  0.049962675  0.049598791            8 
 1509000   0.64507745   -3.8609281    905.29652  0.049994285  0.049572488            6 
 1510000    0.6501862   -3.8865513    904.30639  0.049906534   0.04954625            9 
 1511000   0.65722556   -3.8886562    905.50467  0.049939591  0.049519717            7 
 1512000   0.64460109   -3.8464059    906.27564  0.049949054  0.049493402            6 
 1513000   0.65353138   -3.8807069    904.37055  0.049811112  0.049466948           13 
 1514000    0.6392716   -3.9038078    905.84023  0.049859106  0.049440488            5 
 1515000   0.64912688   -3.8979156    905.54581      0.04981  0.049414186           10 
 1516000   0.64980731   -3.8797017    907.60886  0.049890549  0.049388033           10 
 1517000   0.64227024   -3.8725022    906.51662  0.049797661  0.049361889            4 
 1518000   0.65227047   -3.8992043    905.30334  0.049698251  0.049335444            8 
 1519000   0.65257666   -3.8817897    906.94785  0.049755752  0.049309155            8 
 1520000   0.65410144   -3.9003063    907.90188  0.049775322   0.04928286            4 
 1521000   0.63185794   -3.8949302    907.02952  0.049694802  0.049256642            9 
 1522000   0.64505223   -3.8693749    905.46682  0.049576589  0.049230173            8 
 1523000    0.6449333   -3.8791651     903.3828  0.049430007  0.049203716            3 
 1524000   0.64442491   -3.8923152    904.65172  0.049466958  0.049177222            9 
 1525000   0.65405004   -3.8814204    907.34551  0.049581722  0.049150836           17 
 1526000   0.64092484   -3.8981284     906.1399  0.049483393   0.04912415            9 
 1527000    0.6260275    -3.886129    900.45196  0.049140579  0.049097397            5 
 1528000   0.64567561   -3.9057018    906.93616  0.049462051  0.049070812            7 
 1529000   0.64652961   -3.8530988    907.53211  0.049462181  0.049044512            6 
 1530000   0.66223223   -3.8888667    908.86874  0.049502655  0.049018061            9 
 1531000   0.65090966    -3.860836     904.2894  0.049221065  0.048991621            7 
 1532000   0.62857664   -3.8626455    908.11178  0.049396855  0.048965198            7 
 1533000   0.62473083   -3.9027891    908.14123  0.049366233  0.048938802            5 
 1534000    0.6468831   -3.8993351    907.79619  0.049315308    0.0489122            5 
 1535000   0.64266498   -3.9016699    909.74965  0.049389232  0.048885652            6 
 1536000   0.64060106   -3.8928453      909.986    0.0493699  0.048859232            8 
 1537000   0.63692613   -3.8912139    909.42003  0.049307093  0.048832883            3 
 1538000   0.62090304   -3.8836085     910.5877  0.049338302  0.048806647           16 
 1539000    0.6322217   -3.9140697    907.24197   0.04912508  0.048780245            5 
 1540000   0.63125124   -3.9032424    908.90393  0.049183113  0.048753848           10 
 1541000   0.62885782   -3.9031429     909.1529   0.04916466  0.048727596            7 
 1542000   0.63685493   -3.9068568    909.03539  0.049126426  0.048701216            4 
 1543000   0.63974133   -3.9152943     907.2721  0.048999357  0.048674773           15 
 1544000    0.6353833   -3.9021305    907.71144  0.048991334  0.048648211            7 
 1545000    0.6228901   -3.8989968    908.45107  0.048999518  0.048621724           11 
 1546000   0.62986955   -3.9115536    909.83214  0.049042267  0.048595167           10 
 1547000   0.63183148   -3.9152994    909.63858  0.049000139  0.048568716           11 
 1548000   0.64454455   -3.9101996     908.9861   0.04893336  0.048542084            4 
 1549000    0.6269441   -3.9178789    910.59858  0.048988518  0.048515523            7 
 1550000   0.64539317    -3.900797    906.77405  0.048751293  0.048489005           13 
 1551000   0.65041289   -3.9052492    911.61044  0.048979714  0.048462614            8 
 1552000   0.62497979   -3.8866507    908.99582  0.048807765  0.048436299            8 
 1553000   0.63022889   -3.9029349    909.93865  0.048826929  0.048409812            9 
 1554000   0.62836044   -3.9267567    910.96252  0.048850414  0.048383345            4 
 1555000   0.63436308   -3.9406567    909.32627  0.048731311  0.048356977            4 
 1556000   0.64896624   -3.9122369    910.31865  0.048753141  0.048330551            8 
 1557000   0.62868118   -3.9090159    912.59622  0.048843728  0.048304437           14 
 1558000   0.62591984   -3.9004401    908.10853  0.048572343  0.048278189            9 
 1559000   0.62640769   -3.8904858    913.95207  0.048853542  0.048252011            6 
 1560000    0.6285658   -3.9211338    909.96132  0.048609045  0.048225999            7 
 1561000   0.61845406   -3.9258628    908.96229  0.048524573  0.048199897            6 
 1562000    0.6460084   -3.9007773     915.2334  0.048828073  0.048173632            7 
 1563000   0.62498011   -3.9162037    912.49798   0.04865099   0.04814756            4 
 1564000   0.62235685   -3.9089806    913.23639  0.048659228  0.048121326            9 
 1565000   0.62861717    -3.898177    914.30824   0.04868521  0.048095109           11 
 1566000   0.62939145   -3.9247858    908.54876  0.048347635  0.048068887            3 
 1567000   0.62566221   -3.9445759    907.81583  0.048277804  0.048042323           11 
 1568000    0.6356137   -3.9279556    909.68012  0.048346095  0.048015969            6 
 1569000   0.63808987   -3.9205153    910.72298   0.04837067  0.047989741            9 
 1570000   0.62997505    -3.910318    912.70787  0.048445216  0.047963447            6 
 1571000   0.62660751   -3.9299464    909.80978   0.04826065  0.047937314            8 
 1572000   0.63877098   -3.9243183    909.89358  0.048234392  0.047910971           10 
 1573000   0.62434127   -3.9196893    912.41515  0.048337315  0.047884748            8 
 1574000   0.63275221   -3.9273624    913.39822  0.048358652  0.047858437            8 
 1575000   0.62043921   -3.9166555    914.67745  0.048395632  0.047832212           13 
 1576000   0.61294505   -3.9172532    913.82038  0.048319606  0.047805962            4 
 1577000   0.63412311   -3.9290767    911.88781  0.048186842  0.047779889            7 
 1578000   0.62967419   -3.9336257    913.85451  0.048260166  0.047753812           11 
 1579000    0.6336531   -3.9302424    915.29842  0.048305807  0.047727778            6 
 1580000   0.62387953   -3.9063423    913.09015  0.048158763  0.047701628            6 
 1581000   0.63094589   -3.9504775     911.8806  0.048064548  0.047675239            3 
 1582000   0.62768626   -3.9349698    914.00185  0.048145904  0.047648852            7 
 1583000   0.62083635   -3.9150985    912.79329  0.048051868  0.047622744            9 
 1584000     0.630665   -3.9250275    913.79352  0.048074154  0.047596489            7 
 1585000   0.61791568   -3.9249163    912.06665  0.047953031  0.047570178           10 
 1586000   0.61523854   -3.9362577    913.29114  0.047987134  0.047543821            3 
 1587000   0.61641384   -3.9425365    911.06929  0.047840227  0.047517538            4 
 1588000   0.62577495   -3.9216684    913.88504  0.047957863  0.047491136            9 
 1589000   0.60692066   -3.9368929    913.11566  0.047887333  0.047464825           17 
 1590000   0.61738915   -3.9414538    914.51203    0.0479304  0.047438531            4 
 1591000   0.60378994   -3.9371115    913.06699  0.047824586  0.047412148            5 
 1592000   0.61362068   -3.9421976    911.91247  0.047734112  0.047385428           14 
 1593000   0.61583589   -3.9450743    914.54468  0.047841843  0.047359166            5 
 1594000   0.60842489   -3.9594199    913.23605  0.047743416  0.047332744            7 
 1595000   0.60429782   -3.9503836    913.18321  0.047710722  0.047306381            9 
 1596000   0.60732987   -3.9493602    913.76951   0.04771144  0.047279975           11 
 1597000   0.61071051   -3.9329333    913.39536  0.047662041  0.047253838            4 
 1598000   0.62717244    -3.940815    914.02048  0.047664815  0.047227673            4 
 1599000   0.60766144   -3.9285516    914.29985  0.047649565  0.047201516            8 
 1600000   0.61492825   -3.9591696    912.31093  0.047516194  0.047175268            6 
 1601000   0.62217914   -3.9593352    915.42182   0.04764844   0.04714889            4 
 1602000   0.60687953   -3.9554496    914.83544  0.047588194  0.047122609           13 
 1603000   0.61316979   -3.9636331    915.14627  0.047574666  0.047096407           11 
 1604000   0.60382872   -3.9441538     916.1372  0.047596488  0.047070346            7 
 1605000   0.62904424   -3.9525904     917.0226  0.047612804  0.047044396           19 
 1606000   0.60735489   -3.9307905    913.03498  0.047376244  0.047018473            8 
 1607000   0.61647735   -3.9666498    914.86055  0.047441431   0.04699251            7 
 1608000    0.5944317   -3.9646759    916.70478  0.047507503  0.046966525            7 
 1609000   0.60641076   -3.9335967    917.27609  0.047507566  0.046940657            7 
 1610000    0.6073808   -3.9398729    915.77578  0.047400403  0.046914786            5 
 1611000   0.62298864   -3.9468592    918.31705  0.047502434  0.046888895           15 
 1612000   0.60786665   -3.9477007    916.52264  0.047380203  0.046862848            5 
 1613000   0.61346623   -3.9422066    918.41733  0.047448715  0.046836781            6 
 1614000   0.61825876   -3.9492711     914.8911  0.047237252  0.046810657            4 
 1615000   0.61583902   -3.9548452    915.21381  0.047224655  0.046784583            6 
 1616000   0.61007665    -3.931411    917.19773  0.047297738   0.04675831            6 
 1617000   0.60701221   -3.9623452    915.58421  0.047185333  0.046732073           10 
 1618000   0.60941561   -3.9740266    914.89978   0.04712092  0.046705848           12 
 1619000   0.60388438   -3.9380462    917.02511   0.04720121  0.046679493            9 
 1620000    0.6031947   -3.9551944    914.68691  0.047051796  0.046653216            6 
 1621000   0.59648468   -3.9742197     914.8795   0.04703267  0.046626991           12 
 1622000   0.59882519   -3.9475654    915.31491  0.047026044  0.046600766            8 
 1623000    0.6021455   -3.9609932    915.93059  0.047028681  0.046574658           13 
 1624000   0.61732904   -3.9705994    914.22343  0.046912122  0.046548342           12 
 1625000   0.60649953   -3.9363242    917.15728  0.047033706  0.046522165            8 
 1626000   0.61277937   -3.9501578    917.19036  0.047006476  0.046496192           11 
 1627000   0.59799763   -3.9820876    917.07568  0.046971711  0.046470068            5 
 1628000   0.60733517   -3.9461573    917.45337  0.046962191   0.04644394           11 
 1629000     0.611022   -3.9690219    918.14639  0.046968815  0.046417906            8 
 1630000   0.60709858   -3.9496435    919.77417  0.047023219  0.046391887            6 
 1631000    0.5990532   -3.9622585    918.32124  0.046920153  0.046365746           14 
 1632000   0.58301298   -3.9723436    917.25268   0.04683684  0.046339597           13 
 1633000   0.60950908   -3.9563676    917.18601  0.046804757  0.046313436            5 
 1634000   0.59388021   -3.9674264    916.30168  0.046731012  0.046287387           12 
 1635000   0.60775842   -3.9720977     915.5859  0.046665948    0.0462613            4 
 1636000    0.5973684   -3.9632839    915.58999  0.046637632  0.046235045            7 
 1637000    0.5936921   -3.9635789    914.92708  0.046575396  0.046208881           12 
 1638000   0.60689197   -3.9903949    916.64395  0.046634308  0.046182616            7 
 1639000   0.60063843   -3.9757738    916.72305  0.046609876  0.046156478            6 
 1640000   0.59181137    -3.985723    915.90015  0.046539642  0.046130263            8 
 1641000   0.59759931   -3.9695636    919.53178  0.046695703  0.046104113           15 
 1642000   0.58926768   -3.9535789    919.26161  0.046653553  0.046077968           24 
 1643000   0.60018905   -3.9716078    918.86786  0.046605187  0.046051888            6 
 1644000    0.6013579   -3.9851864    917.13605  0.046489054  0.046025794           10 
 1645000   0.60329133   -3.9818202    919.93843  0.046602758   0.04599965            7 
 1646000   0.60192427   -3.9922407    917.06039  0.046428736  0.045973445            6 
 1647000   0.58930367   -3.9667342    917.14463  0.046404808  0.045947288            7 
 1648000   0.57969538   -3.9936593    918.19359  0.046429692  0.045921153           17 
 1649000   0.58738909   -3.9791408    917.19853   0.04635125  0.045894986            7 
 1650000   0.59374357   -3.9876833     915.7846  0.046251748  0.045868929           20 
 1651000   0.60892343   -4.0134408    915.86337  0.046227709  0.045842606           11 
 1652000   0.59414256   -3.9879938    917.02415   0.04625828   0.04581638            9 
 1653000   0.59502883   -3.9927444    917.61108  0.046259885  0.045790238           14 
 1654000   0.57837924   -3.9809885    916.33387  0.046167567  0.045764116            7 
 1655000   0.59283885   -4.0018557    917.83138  0.046215075  0.045738007           13 
 1656000   0.59889388   -3.9922567    917.35162  0.046163024  0.045711944           10 
 1657000   0.59636137   -3.9751685    919.19299   0.04622777  0.045686037           10 
 1658000   0.59877925   -3.9699494    920.36215  0.046258652  0.045660244           14 
 1659000   0.60247443   -3.9755727    920.19241  0.046222243  0.045634344           14 
 1660000   0.58681418   -3.9577573    919.97096  0.046183281  0.045608407           13 
 1661000   0.59528858   -3.9876813    917.84402  0.046048767  0.045582459           19 
 1662000    0.5988383   -3.9984078    916.82946  0.045970189   0.04555646           14 
 1663000   0.58055516   -3.9957461    918.19457  0.046010952  0.045530275            7 
 1664000   0.58823444    -4.005838    916.82948  0.045914938  0.045503939           13 
 1665000   0.58754661   -3.9854045    918.33192  0.045962558  0.045477791            5 
 1666000   0.58027458   -3.9879584    917.55248  0.045895982  0.045451703            9 
 1667000   0.58064615    -3.997796    918.67953  0.045924792   0.04542557           12 
 1668000   0.56917258   -3.9819672    918.97768  0.045912154  0.045399531           24 
 1669000   0.57696359   -3.9963944    919.06775  0.045889143  0.045373401           12 
 1670000   0.57364458   -3.9725295    919.81467  0.045898936  0.045347334           13 
 1671000   0.58176588   -3.9951074    916.40464  0.045701408  0.045321348            9 
 1672000   0.59343245   -3.9820606    918.46892   0.04577696  0.045295288           16 
 1673000   0.58202061   -4.0100044    916.90359  0.045671627   0.04526912            6 
 1674000   0.58354159   -4.0044104    917.19647  0.045658924  0.045243029            9 
 1675000   0.58334438   -3.9906556    921.25765  0.045833714   0.04521691            5 
 1676000   0.58443483   -3.9868326    919.10702  0.045699434  0.045190929            9 
 1677000   0.58900628   -4.0011391    918.90236  0.045662013   0.04516493            8 
 1678000   0.57348653    -3.999675    918.79104  0.045629273  0.045138892           20 
 1679000   0.59424948   -4.0007179    917.29626  0.045527907   0.04511282           12 
 1680000   0.58292887   -3.9966796    918.45966  0.045558515   0.04508673            8 
 1681000   0.58613923   -4.0082796    919.83521  0.045599604  0.045060786            8 
 1682000   0.57830959   -3.9888712    920.48522  0.045604698  0.045034666           13 
 1683000     0.585372   -4.0178903     920.6524  0.045585879  0.045008606           14 
 1684000   0.58154855   -3.9964137    921.24089   0.04558793  0.044982442           12 
 1685000   0.58527308   -4.0001205    918.99696  0.045449899   0.04495641           14 
 1686000    0.5749908   -4.0090921    919.51525  0.045448559  0.044930438           10 
 1687000   0.58080925   -4.0153583    918.63997  0.045378382   0.04490444           23 
 1688000   0.59226125   -4.0192558    920.22768  0.045429882  0.044878599            8 
 1689000   0.57777677   -4.0114321    921.76256  0.045478713  0.044852743            8 
 1690000   0.58520161   -4.0066824    920.21193  0.045375342  0.044826918           14 
 1691000   0.56813469   -4.0090778    919.88196  0.045332247  0.044801114            8 
 1692000   0.57553047   -4.0207305    919.06218   0.04526508  0.044775155           15 
 1693000   0.59141996   -4.0262282    919.22826  0.045246518  0.044749176            9 
 1694000   0.58271924   -4.0196866    921.21119  0.045317355  0.044723287            9 
 1695000   0.57572763   -4.0163669    919.54786  0.045208843  0.044697306            6 
 1696000   0.57634029   -4.0395778    917.30554   0.04507201  0.044671381            8 
 1697000   0.58517262   -4.0387583    918.16739  0.045087772  0.044645371           21 
 1698000    0.5735726   -4.0178172    918.79362  0.045091952  0.044619603            7 
 1699000   0.58209869   -4.0243471    921.06848   0.04517699   0.04459381           11 
 1700000   0.55974984    -4.012181     921.9263  0.045192465  0.044568132           11 
 1701000   0.57260902   -4.0219798    921.48296  0.045144178  0.044542352            9 
 1702000   0.56444583   -4.0198828     920.7549  0.045082006  0.044516488           12 
 1703000   0.55981806   -4.0179474    920.46489  0.045041343   0.04449073           13 
 1704000   0.56924135   -4.0131807    923.26345  0.045151773  0.044464999            6 
 1705000   0.57257755   -4.0143153     923.3334  0.045128709  0.044439238            9 
 1706000     0.566384   -3.9878146       924.17  0.045143122   0.04441378            9 
 1707000   0.56317074   -4.0259228     920.0203  0.044914094   0.04438818            6 
 1708000   0.56958887   -4.0310611    923.20474  0.045043167  0.044362617           10 
 1709000    0.5761742    -4.034096    921.11754  0.044915035  0.044337088            8 
 1710000   0.56240215    -4.014384    922.52668   0.04495744  0.044311587           12 
 1711000   0.57402257   -4.0272241    920.98234  0.044855949   0.04428615           13 
 1712000    0.5598727   -4.0126331    922.80419  0.044918428  0.044260724           13 
 1713000   0.56797844    -4.026842    923.62075   0.04493193  0.044235394           10 
 1714000   0.58013723   -4.0335133    923.88636  0.044918629  0.044209921           10 
 1715000   0.56560221   -4.0339968    922.95111  0.044846993  0.044184523           18 
 1716000   0.56475466   -4.0427935    924.51337  0.044896725  0.044159168           17 
 1717000   0.56093971   -4.0073395    923.59027  0.044825775  0.044133927            4 
 1718000   0.57176427   -4.0394023    925.22865  0.044879154  0.044108666           15 
 1719000    0.5691415   -4.0201375    922.50632  0.044721074  0.044083329           14 
 1720000   0.57525965   -4.0404113    924.33768  0.044783802   0.04405804           11 
 1721000   0.57112705    -4.014491    924.30781  0.044756334  0.044032796            6 
 1722000   0.57116162   -4.0239828     923.9915  0.044715036  0.044007443            8 
 1723000    0.5699936    -4.038325    923.30291   0.04465578  0.043982183           13 
 1724000   0.57486587   -4.0342567    924.17413   0.04467199   0.04395684            8 
 1725000   0.56241205   -4.0335355     926.6819  0.044767241  0.043931602            7 
 1726000   0.56359057   -4.0438295     924.0523  0.044614345  0.043906294            9 
 1727000   0.56775396   -4.0418792    924.00225  0.044586096  0.043881015           13 
 1728000   0.56795964    -4.054188    924.99994  0.044608408  0.043855835            7 
 1729000   0.57781753   -4.0437779    924.65457  0.044565961  0.043830604           15 
 1730000   0.56807416   -4.0265038    924.80757  0.044547571  0.043805419           11 
 1731000   0.56472901   -4.0593388    923.07997  0.044438666  0.043780194           12 
 1732000    0.5590153   -4.0526643    925.49225  0.044529073   0.04375494           10 
 1733000   0.57006312   -4.0519841    924.17476  0.044440025  0.043729784            9 
 1734000   0.57171274   -4.0632051    925.92419  0.044498471  0.043704602            7 
 1735000   0.56233297   -4.0517556    923.40689  0.044351916  0.043679294           12 
 1736000   0.55458942   -4.0360174    924.08449  0.044358895  0.043654044            7 
 1737000    0.5618339   -4.0454299    925.97148  0.044423886  0.043628801           13 
 1738000    0.5479328   -4.0312963    928.02246  0.044496666  0.043603639           13 
 1739000   0.57509698   -4.0667585    926.43814  0.044395157  0.043578479           16 
 1740000   0.54546003   -4.0613256      923.583  0.044232903  0.043553312           10 
 1741000   0.56065706   -4.0620791    923.33079  0.044195423  0.043528108           13 
 1742000   0.56750068   -4.0723729    924.12544  0.044208067  0.043502885            5 
 1743000   0.55108108    -4.059852    925.18967  0.044233585  0.043477762           19 
 1744000   0.54495155   -4.0656117    923.36742   0.04412115  0.043452619           12 
 1745000   0.56800625   -4.0539281    927.32739  0.044284976  0.043427445            7 
 1746000   0.54673283   -4.0701628    925.56321  0.044175411  0.043402238           16 
 1747000   0.56392398   -4.0758647    922.38607  0.043998572  0.043377001           24 
 1748000    0.5512264   -4.0514669    921.98206  0.043954141  0.043351673            8 
 1749000   0.54843654    -4.067229    922.77934  0.043966998  0.043326392           10 
 1750000    0.5573308   -4.0600487    925.90997  0.044090951  0.043301221            6 
 1751000    0.5510862   -4.0432405    926.78929  0.044107619  0.043276017            9 
 1752000   0.56530559   -4.0604885    923.27309  0.043915196  0.043250926            5 
 1753000    0.5706136   -4.0416649    925.93638  0.044016751  0.043225879            7 
 1754000   0.56748749   -4.0414702    924.01567  0.043900402  0.043200911           19 
 1755000   0.55516616    -4.050331    925.59441  0.043950352  0.043175861            7 
 1756000    0.5451473   -4.0604739    926.16942  0.043952611  0.043150701           17 
 1757000   0.54669847   -4.0754766    925.79748  0.043909955  0.043125606           18 
 1758000    0.5633636   -4.0618684    926.51471  0.043918976  0.043100576           17 
 1759000   0.55187622   -4.0522778    923.86336  0.043768399  0.043075539           12 
 1760000   0.55849525   -4.0746901    925.89656  0.043839799  0.043050456            7 
 1761000   0.55020076   -4.0871698    925.35229  0.043789148  0.043025262            8 
 1762000   0.54511471   -4.0836506    924.82404  0.043739313  0.043000082           31 
 1763000   0.54481496   -4.0750396    924.31217  0.043690309  0.042974979           23 
 1764000   0.54880822    -4.079299    926.34941  0.043761782  0.042949911           17 
 1765000   0.55566064   -4.0762269    926.25484  0.043732523  0.042924997           13 
 1766000   0.54975057   -4.0473432     924.8553  0.043641718  0.042900264           24 
 1767000    0.5436097   -4.0591488    925.34809  0.043640261   0.04287532           13 
 1768000   0.54666054   -4.0895943    925.23581  0.043610285  0.042850402            4 
 1769000   0.54764181    -4.066171    926.71386   0.04365526  0.042825503            9 
 1770000   0.54994313   -4.0658591    926.89722  0.043639229  0.042800645           11 
 1771000   0.54254599   -4.0750044    927.69582  0.043652166  0.042775758           13 
 1772000   0.54388672   -4.0687444    925.48851  0.043523726  0.042750844           17 
 1773000    0.5518045    -4.073155    924.24409  0.043440689  0.042725799           17 
 1774000    0.5356769   -4.0686457    926.08355   0.04350261  0.042700784           18 
 1775000   0.54258459   -4.0874694    926.33838  0.043490065  0.042675756           17 
 1776000   0.53752158   -4.0635815    925.65893  0.043433696  0.042650856           20 
 1777000   0.54934909   -4.0707014    926.41613  0.043444763  0.042625992           11 
 1778000   0.54426202   -4.0906485    926.51391  0.043424912  0.042601025           14 
 1779000   0.55533546   -4.0952663    926.84454  0.043415989  0.042576126           19 
 1780000   0.54124559    -4.085991    925.89139  0.043346975  0.042551309           10 
 1781000   0.53958639   -4.0766201    925.96384  0.043326027  0.042526491            4 
 1782000   0.54355932   -4.0654202    926.65747   0.04333415  0.042501757           13 
 1783000   0.54926068    -4.093722    924.67133  0.043217019  0.042477044           13 
 1784000   0.54394447   -4.0763736    926.21403  0.043264856  0.042452304            6 
 1785000   0.54086207   -4.0731473    927.11752  0.043282798  0.042427616           31 
 1786000   0.54349656   -4.0846238    927.29838  0.043267002  0.042403053           21 
 1787000   0.53131506   -4.0754729    928.25083  0.043287205  0.042378437           14 
 1788000   0.54425462   -4.0823581    926.17583  0.043166286  0.042353792            7 
 1789000   0.52804523    -4.087391    927.29343  0.043194216  0.042328943           22 
 1790000   0.54030418   -4.0843343    927.31261  0.043170978  0.042304154           17 
 1791000   0.53809982   -4.0793354    926.42573  0.043105608  0.042279437           26 
 1792000   0.54401371   -4.0915201    924.06535  0.042971789  0.042254542           14 
 1793000   0.55622852   -4.1111011    925.37324  0.043008609  0.042229726           25 
 1794000   0.53693841   -4.0966014    928.96307  0.043151388   0.04220485            8 
 1795000   0.52695483   -4.0962369    926.26708  0.043002186  0.042180071           14 
 1796000   0.55206126   -4.0780464     928.5171  0.043082642  0.042155344           13 
 1797000   0.53411641   -4.0982454    926.68651  0.042973776  0.042130681            6 
 1798000    0.5315572   -4.0966555    925.06735  0.042874831  0.042106092            8 
 1799000   0.54424822   -4.0773088    929.13445  0.043039394  0.042081498           10 
 1800000   0.53956456   -4.0909422    927.75807  0.042951762  0.042056972           14 
 1801000   0.52867355    -4.093738      929.455  0.043006432  0.042032346            5 
 1802000   0.52798574   -4.0943101    926.16895  0.042830603  0.042007638           10 
 1803000   0.53100442   -4.0851857    926.60351  0.042826933  0.041982968           17 
 1804000   0.53235928   -4.0813918      927.604  0.042849409  0.041958435           17 
 1805000   0.53871273   -4.0958676    927.10745  0.042802745  0.041933865           12 
 1806000   0.53046104   -4.0979616    926.63426   0.04275721  0.041909303            8 
 1807000    0.5428696   -4.1092872    926.14132  0.042710815  0.041884796            7 
 1808000    0.5411355   -4.0924523    928.30793  0.042787054  0.041860191           21 
 1809000   0.53421145   -4.1177834    927.45203  0.042723974  0.041835469            7 
 1810000   0.52035182   -4.1081285      926.159  0.042640838  0.041810761           16 
 1811000   0.53738247   -4.1116817      926.122   0.04261559  0.041786044           12 
 1812000   0.53598245   -4.0870695    925.27666  0.042553194  0.041761293           10 
 1813000   0.53243652   -4.1016796    923.62682  0.042453889  0.041736596            7 
 1814000   0.53150401   -4.0986441      927.534  0.042609978  0.041711932            8 
 1815000    0.5162882   -4.0895041     925.5106  0.042493599  0.041687258           17 
 1816000   0.52471009   -4.0960437    926.83642   0.04253104  0.041662489           12 
 1817000   0.53439561   -4.1075713    927.01239  0.042515703  0.041637747           20 
 1818000   0.53348589   -4.1202165    926.81941  0.042483471  0.041612989           18 
 1819000   0.52352368   -4.1071353    926.04821  0.042424785  0.041588185           20 
 1820000   0.52435269   -4.1101506    925.53056  0.042377773  0.041563355           14 
 1821000   0.51877494   -4.1356755    925.78603  0.042366192  0.041538471           25 
 1822000   0.52967135   -4.0971509    926.85494  0.042391829   0.04151361           37 
 1823000   0.52079402   -4.1044708    925.58931   0.04231072  0.041488895           17 
 1824000    0.5293459   -4.1046325    927.64951  0.042381648  0.041464278           40 
 1825000   0.53981218   -4.1188632    927.89411  0.042369594   0.04143978           24 
 1826000   0.52434053   -4.1083637    927.22516  0.042315861  0.041415203           16 
 1827000   0.52048104   -4.1118302    929.29007  0.042386885  0.041390653           21 
 1828000   0.51945519   -4.1083853    927.63284  0.042288149  0.041366153           12 
 1829000   0.53040257   -4.1108408    925.02451  0.042146187  0.041341626           14 
 1830000    0.5424422   -4.1217338      926.648  0.042197086    0.0413171           16 
 1831000   0.51987137   -4.1107646    928.09513  0.042239902  0.041292488           21 
 1832000    0.5140162   -4.1124841    928.53196  0.042236716  0.041268064           15 
 1833000   0.52518426    -4.116834    926.89219  0.042139125  0.041243649           17 
 1834000   0.52093204   -4.1152664    926.65194  0.042105232   0.04121919           18 
 1835000   0.52115407   -4.1295548    928.41614  0.042162404  0.041194661           20 
 1836000    0.4977227   -4.1320685    927.61208  0.042102945   0.04117022            8 
 1837000   0.51140735   -4.1054721    929.72212  0.042175745  0.041145892           10 
 1838000   0.52559981    -4.124074    927.37586  0.042046421  0.041121635           13 
 1839000   0.51905909   -4.1391841    927.18094  0.042014724  0.041097314           11 
 1840000   0.51564171    -4.130543     928.0285  0.042030276  0.041073053           12 
 1841000   0.52419052    -4.127003    929.29523  0.042064785  0.041048873           21 
 1842000   0.52173078   -4.1331429    929.02534  0.042029738  0.041024704           23 
 1843000   0.50629433   -4.1322177    926.43914  0.041889996  0.041000364           12 
 1844000   0.52362203   -4.1285917    928.57244  0.041963686  0.040976127           24 
 1845000    0.5247145   -4.1213649    928.27573   0.04192754  0.040952034           16 
 1846000   0.50454281    -4.137469    929.08098  0.041941178  0.040927773           12 
 1847000   0.51964257   -4.1155157    929.31601  0.041929075  0.040903515           14 
 1848000    0.5086218   -4.1331889    926.80793  0.041793287  0.040879357           13 
 1849000   0.51628866    -4.143477    928.58919  0.041850964  0.040855226           14 
 1850000   0.51210736   -4.1273144    930.09724  0.041896272  0.040831054           20 
 1851000   0.51047633   -4.1314318     928.9483  0.041821911  0.040806849            8 
 1852000   0.52112831   -4.1204806    930.03176  0.041848081  0.040782634           11 
 1853000   0.52764394   -4.1390863    928.48553   0.04175596  0.040758381           45 
 1854000   0.51766725    -4.134174    927.03415  0.041668202  0.040734146           18 
 1855000   0.50751087   -4.1323025    925.70159  0.041585876  0.040709802           19 
 1856000   0.51767361   -4.1591759    927.32502   0.04163636  0.040685462           33 
 1857000   0.49292113   -4.1213979    924.18463  0.041473013  0.040661106           16 
 1858000   0.50625642   -4.1458762    925.85538  0.041525627  0.040636765           24 
 1859000   0.51419708   -4.1207295    927.61419  0.041582132  0.040612528           29 
 1860000   0.52360655   -4.1304112    926.26028  0.041499116  0.040588259           16 
 1861000   0.50117184   -4.1546779    926.17206  0.041472867  0.040564023           15 
 1862000   0.51221878    -4.123749    927.58493  0.041513826    0.0405398           14 
 1863000   0.51384438   -4.1392159    929.08336  0.041558568  0.040515639           16 
 1864000   0.50208545   -4.1428686    927.70129  0.041474485  0.040491526           15 
 1865000   0.50464151   -4.1254503    928.28911  0.041478512  0.040467325           17 
 1866000   0.50900769   -4.1352377      928.686  0.041474008  0.040443355           22 
 1867000   0.50469138   -4.1380313    929.93048  0.041507341  0.040419327           12 
 1868000   0.51468868   -4.1586351    927.96637  0.041397501  0.040395175           46 
 1869000   0.50362628   -4.1488661     926.7658  0.041321821  0.040371108           22 
 1870000    0.5115743   -4.1420591    926.48764  0.041287328   0.04034696           20 
 1871000   0.49523722   -4.1508864    928.78322  0.041367505  0.040322805           23 
 1872000    0.5126044   -4.1489893    928.67452  0.041340568  0.040298761           27 
 1873000   0.50675224   -4.1441603    929.12133  0.041338376  0.040274721           11 
 1874000    0.5197275   -4.1510333    927.40966  0.041240202  0.040250699           23 
 1875000   0.49796716   -4.1558567    928.47864  0.041265717  0.040226736           24 
 1876000   0.49793461   -4.1515511    928.59905  0.041249069  0.040202745           12 
 1877000   0.50993978   -4.1493625    929.51202  0.041267627  0.040178722            9 
 1878000   0.50515595   -4.1665441    925.92866  0.041086646  0.040154784           26 
 1879000   0.50884598    -4.153183    929.33806  0.041215986  0.040130715            8 
 1880000   0.50090415   -4.1606862    929.69531  0.041209899  0.040106692            8 
 1881000     0.494767   -4.1542003     930.8573  0.041239469    0.0400828           32 
 1882000   0.49879882    -4.153883    928.08264  0.041094697  0.040058901           14 
 1883000   0.49448876   -4.1579313    929.33784  0.041128423  0.040034944           19 
 1884000   0.50670598   -4.1652841    927.19852  0.041011966  0.040010903           10 
 1885000   0.48936332   -4.1667091    927.71175  0.041012898  0.039986883           40 
 1886000   0.50185941   -4.1616375    929.68426  0.041078308  0.039962849           10 
 1887000   0.49675662   -4.1731376    925.98103  0.040892997  0.039938697           17 
 1888000   0.48931201   -4.1659096    930.44983  0.041068584  0.039914643           11 
 1889000   0.50441633   -4.1645694     926.4628  0.040870955  0.039890671           28 
 1890000   0.50087911   -4.1738683    926.72097  0.040860713  0.039866668           15 
 1891000   0.49237964   -4.1490228    927.61385  0.040878453  0.039842711           19 
 1892000   0.49976996   -4.1434443    927.51792  0.040852622  0.039818859           17 
 1893000   0.48703583   -4.1643342    928.58065  0.040877824  0.039794994           16 
 1894000   0.49889146   -4.1673736    927.89381  0.040826021  0.039771094           37 
 1895000   0.49035882   -4.1756414    929.12079  0.040858434  0.039747221           16 
 1896000    0.4879015    -4.165828    928.55576   0.04081205  0.039723396           11 
 1897000    0.5067155   -4.1833411     929.3111  0.040823717  0.039699424           13 
 1898000   0.48883906   -4.1775129    929.24753  0.040799417  0.039675373           11 
 1899000   0.50628724   -4.1726909    927.66669  0.040708561   0.03965133           21 
 1900000   0.50325985   -4.1699817    927.19546  0.040666468  0.039627321           20 
 1901000   0.48418123   -4.1811128    926.93363  0.040633598  0.039603381           33 
 1902000   0.48979003   -4.1672762      926.472  0.040592008  0.039579508           13 
 1903000   0.49484897   -4.1786394    930.21568  0.040734615  0.039555722           13 
 1904000   0.49500267   -4.1732301    926.45925  0.040548812   0.03953191           27 
 1905000   0.49142328   -4.1664483    926.38578  0.040524312  0.039508078           15 
 1906000   0.49531902   -4.1724543    926.13979  0.040492296  0.039484154           27 
 1907000   0.49900483   -4.1828769    926.53403   0.04048829  0.039460181           21 
 1908000   0.48809073   -4.1664452    926.38404  0.040460519   0.03943637            9 
 1909000   0.48831245   -4.1679392    929.13745  0.040559519  0.039412562           28 
 1910000   0.48509747   -4.1756651    927.51704  0.040467584  0.039388696           22 
 1911000   0.48751332   -4.1672019    929.20958  0.040520215  0.039364858           35 
 1912000    0.5042726   -4.1884211    926.72523  0.040390744  0.039341054           11 
 1913000    0.5014934   -4.1662472    928.01386  0.040425765  0.039317233           16 
 1914000   0.48395139   -4.1810036    926.58966  0.040342636  0.039293436           32 
 1915000   0.50127461   -4.1944732    927.95743  0.040381089  0.039269594           44 
 1916000   0.49281166   -4.1778597    927.04896  0.040320501  0.039245769           21 
 1917000   0.48024374   -4.1877451     927.3759   0.04031368     0.039222           31 
 1918000   0.48841942   -4.1829838     928.3813  0.040336344  0.039198156           29 
 1919000   0.48722719   -4.1925376    928.00528  0.040298996  0.039174323           15 
 1920000    0.4999055   -4.1932734    926.26943  0.040202666  0.039150553           19 
 1921000   0.48875477   -4.1814857    925.74395  0.040158943  0.039126835           24 
 1922000   0.48214946   -4.1938552    927.01263  0.040193056  0.039103217           24 
 1923000   0.48516702   -4.1955715    926.92108  0.040168187   0.03907957           25 
 1924000   0.47004956   -4.1808836    927.03398  0.040152199  0.039055955           57 
 1925000    0.4802659   -4.1822583    928.63341  0.040200581  0.039032344           13 
 1926000   0.48665625   -4.1929298    928.20381   0.04016112  0.039008653           19 
 1927000   0.48724569   -4.1867993    926.81448  0.040080197  0.038984988           28 
 1928000   0.48508642   -4.1934277    926.89583  0.040062925  0.038961283           28 
 1929000   0.48269102   -4.2079235    926.97022   0.04004537  0.038937568           32 
 1930000   0.47063258   -4.2089125    927.51358  0.040048082  0.038913889           26 
 1931000    0.4838209    -4.197404    927.46759  0.040025358  0.038890221           32 
 1932000   0.48008881   -4.1980245    928.02016  0.040028475  0.038866552           26 
 1933000   0.48460637   -4.2182686     928.7039  0.040037243  0.038842937           20 
 1934000   0.48899561   -4.2009902    929.96802  0.040071011  0.038819424           17 
 1935000   0.46838499   -4.1924414    926.34288  0.039894181  0.038795876           30 
 1936000    0.4842796   -4.2054196     925.9045  0.039854705  0.038772334           16 
 1937000   0.47346637   -4.1761822    929.03815  0.039968945  0.038748812           25 
 1938000   0.48006919   -4.2200292    926.30099  0.039830624   0.03872529           18 
 1939000   0.48679249   -4.2103838    925.28073  0.039766234  0.038701722           15 
 1940000   0.48127388   -4.2039359    928.48208  0.039883251  0.038678213           12 
 1941000    0.4750203   -4.2001713     927.8188  0.039834226  0.038654731           14 
 1942000   0.48147289   -4.2172563    929.85032  0.039900889  0.038631324            6 
 1943000   0.47663561   -4.2050975     928.6327  0.039828131  0.038607975           20 
 1944000   0.46446799   -4.2139531    928.72154  0.039811451  0.038584573           26 
 1945000    0.4809736    -4.192887    928.39382  0.039776942  0.038561147           19 
 1946000   0.47175586   -4.2045478    927.25486  0.039707728  0.038537738           22 
 1947000   0.47570308   -4.2123483    926.79829  0.039667792  0.038514338           15 
 1948000   0.47394261    -4.208979    929.35885  0.039756967   0.03849093           46 
 1949000   0.46816353   -4.2209418    927.54841  0.039659159  0.038467506           46 
 1950000   0.47459428   -4.2102653    927.21526  0.039624584  0.038444092           36 
 1951000   0.47627612   -4.2053058    928.36098  0.039653211  0.038420767           16 
 1952000   0.47268944   -4.2219496    929.60625  0.039686059  0.038397547            6 
 1953000   0.48086192   -4.2169118     925.6533  0.039497069  0.038374174            8 
 1954000   0.47238496   -4.2224086    927.62735  0.039561044  0.038350824           22 
 1955000   0.48646081    -4.214961    927.28438  0.039526188  0.038327498           21 
 1956000   0.47374127   -4.2200041    928.15205  0.039542947  0.038304186           28 
 1957000   0.46041103    -4.218066    927.54242  0.039496782  0.038280815           31 
 1958000   0.46781834     -4.21392    928.60193  0.039521703   0.03825748           23 
 1959000   0.46889617   -4.2224151    926.12575  0.039396195   0.03823415           16 
 1960000   0.46553706   -4.2237787    927.37051  0.039429018  0.038210696           13 
 1961000   0.47245091   -4.2413511    926.88245  0.039388171  0.038187297           10 
 1962000   0.47047303    -4.222221    927.90416  0.039411492  0.038163901           19 
 1963000   0.46750479    -4.220989    927.07741  0.039356317  0.038140577           46 
 1964000   0.47524458   -4.2140649    926.86309  0.039327185  0.038117167           35 
 1965000   0.46828345   -4.2315407    927.08538  0.039316598  0.038093829           38 
 1966000   0.47378706   -4.2290548    926.78576    0.0392839  0.038070517           66 
 1967000   0.47490747   -4.2200284    928.74289  0.039346843  0.038047235           53 
 1968000   0.46589517   -4.2556161    927.53429  0.039275673  0.038024032           31 
 1969000   0.47352227   -4.2278721    925.19295  0.039156634   0.03800072           43 
 1970000   0.46602777   -4.2241112    927.14156  0.039219186  0.037977372           39 
 1971000   0.45514253   -4.2358004    926.52474  0.039173209  0.037954109           48 
 1972000   0.46144937   -4.2363366    924.49773  0.039067687  0.037930868           42 
 1973000   0.45859215   -4.2487901    926.40233   0.03912833  0.037907548           50 
 1974000   0.47231339   -4.2359317    926.28424  0.039103523  0.037884203           42 
 1975000    0.4677979   -4.2292808    925.74403  0.039060929   0.03786101           38 
 1976000   0.46337874   -4.2328208    927.37063   0.03910976  0.037837839           44 
 1977000   0.46966471   -4.2381352    927.23628  0.039084315  0.037814597           35 
 1978000   0.45372545   -4.2431589     924.9291  0.038967353  0.037791318           26 
 1979000   0.46138783   -4.2283797    926.24956  0.039003266  0.037768135           49 
 1980000   0.46460717   -4.2292195    923.41584  0.038864303  0.037744897           38 
 1981000   0.46216397   -4.2561682    924.53753   0.03889187  0.037721685           24 
 1982000   0.45901816   -4.2607784    924.80118  0.038883333  0.037698388           35 
 1983000   0.46711219    -4.243961    926.35182  0.038928888  0.037675081           66 
 1984000   0.45728394    -4.249709    926.78979  0.038927663  0.037651789           32 
 1985000   0.46075989   -4.2458027    927.52593  0.038938956  0.037628578           25 
 1986000   0.45877288   -4.2573407    924.81728  0.038805693  0.037605385           43 
 1987000   0.45961769    -4.238281    925.69782  0.038823093  0.037582208           14 
 1988000   0.45493156   -4.2373241    925.89254  0.038811726    0.0375591           11 
 1989000    0.4610802   -4.2357831    925.53072  0.038777054  0.037536088           11 
 1990000    0.4533195   -4.2447337    923.10076  0.038655811  0.037513042           30 
 1991000   0.46882607   -4.2530359    925.55977  0.038739317  0.037489873           27 
 1992000   0.45526315   -4.2514541    926.82727  0.038772894  0.037466731           34 
 1993000   0.45893352   -4.2498547     924.9057  0.038673093  0.037443556           22 
 1994000   0.44856724   -4.2591437    926.03473  0.038700883  0.037420403           40 
 1995000   0.47185036   -4.2462791    927.30216  0.038734426  0.037397369           26 
 1996000   0.45974104   -4.2532993    924.62705  0.038603334  0.037374302           28 
 1997000   0.45742589   -4.2622254    924.44272  0.038576311  0.037351143           25 
 1998000   0.44951381   -4.2413046     924.4477  0.038557212  0.037328108           23 
 1999000   0.45478294   -4.2536904    926.12912  0.038608017  0.037305171           23 
 2000000    0.4646021   -4.2700778    925.67774  0.038569906  0.037282147           22 
 2001000   0.45112633   -4.2485699    927.53941  0.038628161   0.03725909           21 
 2002000   0.43854435   -4.2505349     925.5935  0.038527868  0.037236054           27 
 2003000   0.45042791    -4.246568    927.26194  0.038578047  0.037213144           44 
 2004000   0.45454375   -4.2581175    925.44333  0.038483172  0.037190242           25 
 2005000   0.45409731   -4.2351048    927.20848  0.038537343  0.037167356           52 
 2006000   0.45297821   -4.2398325    925.89298  0.038463484  0.037144449           27 
 2007000   0.44108644   -4.2647782    926.46966  0.038468263  0.037121574           45 
 2008000   0.47012719   -4.2651927    928.96211  0.038552544   0.03709874           21 
 2009000    0.4532167   -4.2518469       926.71  0.038439937  0.037075907           44 
 2010000   0.44060264   -4.2559145    927.33959  0.038446915  0.037053097           33 
 2011000   0.45755266   -4.2552642    926.49272  0.038392703   0.03703034           37 
 2012000    0.4350499   -4.2440158    926.37629  0.038368799  0.037007486           24 
Loop time of 4926.48 on 48 procs for 2000000 steps with 4000 atoms

Performance: 70151.552 tau/day, 405.970 timesteps/s
99.4% CPU use with 48 MPI tasks x no OpenMP threads

MPI task timing breakdown:
Section |  min time  |  avg time  |  max time  |%varavg| %total
---------------------------------------------------------------
Pair    | 313.79     | 342.91     | 359.39     |  57.6 |  6.96
Neigh   | 33.199     | 34.404     | 36.175     |  11.4 |  0.70
Comm    | 316.5      | 338.16     | 371.14     |  68.0 |  6.86
Output  | 4.2523     | 4.2541     | 4.285      |   0.2 |  0.09
Modify  | 4148.4     | 4160.6     | 4176.2     |   9.7 | 84.45
Other   |            | 46.17      |            |       |  0.94

Nlocal:        83.3333 ave          90 max          73 min
Histogram: 1 0 2 3 7 9 9 11 4 2
Nghost:        2235.75 ave        2254 max        2200 min
Histogram: 1 0 4 3 4 3 5 13 9 6
Neighs:        14911.2 ave       16826 max       13094 min
Histogram: 3 2 5 5 13 6 4 6 2 2
FullNghs:      29823.0 ave       32408 max       25690 min
Histogram: 1 0 1 4 7 7 9 9 6 4

Total # of neighbors = 1431502
Ave neighs/atom = 357.87550
Neighbor list builds = 108256
Dangerous builds = 0

#clear
#
#next RN
#
#jump SELF
Total wall time: 1:22:09
