
units lj                  # Use reduced LJ style units
atom_style atomic         # Uncharged point particles
atom_modify map hash      # Needed for indexing of clusters etc
                          # Used to be able to find where atoms are in relation to each other.

lattice fcc 1.0 spacing 1 1 1
Lattice spacing in x,y,z = 1.5874011 1.5874011 1.5874011
region box block 0 10 0 10 0 10 units lattice
create_box 2 box
Created orthogonal box = (0.0000000 0.0000000 0.0000000) to (15.874011 15.874011 15.874011)
  3 by 4 by 4 MPI processor grid
create_atoms 1 box
Created 4000 atoms
  using lattice units in orthogonal box = (0.0000000 0.0000000 0.0000000) to (15.874011 15.874011 15.874011)
  create_atoms CPU = 0.002 seconds
set type 1 type/fraction 2 0.83 78393
Setting atom values ...
  3314 settings made for type/fraction
mass 1 1.0
mass 2 1.0
pair_style lj/cut  3.5
pair_modify tail  yes
pair_coeff 1  1  1.0  1.0   # Intearaction between 1 and 1 set with epsilon = 1 and sigma = 1
pair_coeff 1  2  1.5  0.8
pair_coeff 2  2  0.5  0.88

write_data data.0
System init for write_data ...
Neighbor list info ...
  update every 1 steps, delay 10 steps, check yes
  max neighbors/atom: 2000, page size: 100000
  master list distance cutoff = 3.8
  ghost atom cutoff = 3.8
  binsize = 1.9, bins = 9 9 9
  1 neighbor lists, perpetual/occasional/extra = 1 0 0
  (1) pair lj/cut, perpetual
      attributes: half, newton on
      pair build: half/bin/atomonly/newton
      stencil: half/bin/3d
      bin: standard
WARNING: Not all mixed pair coeffs generated from mixing. Use write_data with 'pair ij' option to store all pair coeffs. (../write_data.cpp:312)


#############################
#   M E L T   S Y S T E M   #
#############################

velocity all create 2.4 8172548 mom yes dist gaussian # Assign velocities
                                                    # Temperature 2.4, random number seed, zero linear momentum
                                                                                # Gaussian distribution

timestep 0.002   # simulation timestep
thermo 1000       # output thermodynamic data every 1000 steps bf 100

# Define a fix  in this case with index 1 applied to all
# particles in the simulation. This fix is for simulations
# in the anisotropic NPT ensemble. Note that we use the MTK
# correction.
fix 1 all npt temp 2.4 2.4 0.1 iso 5.68 5.68 0.5 mtk yes tchain 5 pchain 5 # Use NPT ensemble
                                                                         # Set temperature and pressure and damping
                                                                         # Numbers of thermostats in chain and in barostat
run 10000          # run for 10000 steps
Per MPI rank memory allocation (min/avg/max) = 3.642 | 3.644 | 3.648 Mbytes
Step Temp E_pair E_mol TotEng Press Volume 
       0          2.4   -3.5381599            0  0.060940148   -3.0801753         4000 
    1000    2.3983952   -2.7657866            0   0.83090687    6.0499497    3824.8444 
    2000    2.4438422   -2.8045077            0   0.86033912    5.5871205    3872.7504 
    3000    2.4332175   -2.8135937            0   0.83532009    5.6644332    3847.6099 
    4000    2.4423552   -2.7863363            0   0.87628063    5.7227809    3868.6897 
    5000    2.4092943   -2.8593558            0   0.75368216    5.4182028    3841.0127 
    6000    2.3495797   -2.7151398            0    0.8083487    6.0475956    3850.4903 
    7000     2.357775   -2.8163156            0   0.71946277     5.841494    3819.9423 
    8000    2.3876191   -2.8375386            0   0.74299476    5.5532248    3847.2567 
    9000    2.3570578   -2.7583366            0   0.77636611    5.8301528    3869.1849 
   10000    2.3632527   -2.7904369            0   0.75355594    5.7328194    3834.6019 
Loop time of 2.51152 on 48 procs for 10000 steps with 4000 atoms

Performance: 688030.069 tau/day, 3981.655 timesteps/s
99.6% CPU use with 48 MPI tasks x no OpenMP threads

MPI task timing breakdown:
Section |  min time  |  avg time  |  max time  |%varavg| %total
---------------------------------------------------------------
Pair    | 1.085      | 1.1902     | 1.2557     |   3.1 | 47.39
Neigh   | 0.2078     | 0.21768    | 0.2254     |   0.8 |  8.67
Comm    | 0.77625    | 0.85257    | 0.95354    |   3.9 | 33.95
Output  | 0.00024277 | 0.00024704 | 0.00032041 |   0.0 |  0.01
Modify  | 0.21495    | 0.23554    | 0.25521    |   2.1 |  9.38
Other   |            | 0.01528    |            |       |  0.61

Nlocal:        83.3333 ave          97 max          75 min
Histogram: 7 1 7 11 7 8 5 1 0 1
Nghost:        1687.79 ave        1709 max        1655 min
Histogram: 1 0 4 6 5 9 6 5 4 8
Neighs:        9947.04 ave       11817 max        8799 min
Histogram: 5 3 7 11 9 8 3 1 0 1

Total # of neighbors = 477458
Ave neighs/atom = 119.36450
Neighbor list builds = 906
Dangerous builds = 218

# Equilibrate just above the melting temperature to avoid step fn in T

fix 1 all npt temp 1.25 1.25 0.1 iso 5.68 5.68 0.5 mtk yes tchain 5 pchain 5
run 2000
Per MPI rank memory allocation (min/avg/max) = 3.643 | 3.645 | 3.649 Mbytes
Step Temp E_pair E_mol TotEng Press Volume 
   10000    2.3632527   -2.7904369            0   0.75355594    5.7328194    3834.6019 
   11000    1.2359083   -4.1373215            0   -2.2839226    5.7561684    2956.8002 
   12000    1.2597867   -4.1487491            0   -2.2595415    5.6289849    2971.5281 
Loop time of 0.668101 on 48 procs for 2000 steps with 4000 atoms

Performance: 517286.959 tau/day, 2993.559 timesteps/s
99.5% CPU use with 48 MPI tasks x no OpenMP threads

MPI task timing breakdown:
Section |  min time  |  avg time  |  max time  |%varavg| %total
---------------------------------------------------------------
Pair    | 0.2761     | 0.30437    | 0.32302    |   2.0 | 45.56
Neigh   | 0.040281   | 0.042822   | 0.045597   |   0.5 |  6.41
Comm    | 0.22477    | 0.25231    | 0.29509    |   3.4 | 37.77
Output  | 5.4072e-05 | 5.7806e-05 | 0.00019814 |   0.0 |  0.01
Modify  | 0.047207   | 0.063645   | 0.070686   |   2.9 |  9.53
Other   |            | 0.004893   |            |       |  0.73

Nlocal:        83.3333 ave          91 max          75 min
Histogram: 1 3 4 6 5 10 12 2 1 4
Nghost:        2007.92 ave        2032 max        1991 min
Histogram: 4 3 13 6 3 9 5 1 2 2
Neighs:        12866.7 ave       14299 max       11449 min
Histogram: 4 3 7 4 6 8 4 4 4 4

Total # of neighbors = 617602
Ave neighs/atom = 154.40050
Neighbor list builds = 144
Dangerous builds = 17

#############################
# L I N E A R  Q U E N C H  #
#############################

# Define solid atoms. This closely follows ten Wolde  Ruiz-Montero and Frenkel  Faraday Discuss  1996  104  93-110
# Compute components of the per-atom q6 vector
compute q6 all orientorder/atom degrees 1 6 components 6 nnn NULL cutoff 1.3 # compute the Q6 parameter.
                                                                             # Use all neighbours within 1.3 unit cell.

# get number of connections
compute coord_number all coord/atom orientorder q6 0.5

# An atom is solid if it has 8 or more connections (of a possible 14)
variable is_solid atom c_coord_number>=8
group solid dynamic all var is_solid    # Must be dynamic to update
dynamic group solid defined

# do clustering
compute cluster solid cluster/atom 1.3 # Create a cluster where all atoms within are solid and max 1.3 units from another member

# define chunks one chunk per cluster
compute clus_chunks solid chunk/atom c_cluster nchunk every compress yes  # Says which atoms are in which chunk

# count the size of each chunk
compute size_chunks solid property/chunk clus_chunks count


# Find the maximum entry in the vector of chunk sizes
variable max_n equal max(c_size_chunks)


# Thermo style which includes this variable
# thermo_style custom step temp pe vol v_max_n

thermo ${N}  # Print the thermo information every 100 steps
thermo 1000  

# Reset the npt fix at a lower temperature (below freezing)
fix 1  all npt temp  ${temp} ${temp}  0.1  iso  5.68  5.68  0.5  mtk yes tchain  5  pchain  5
fix 1  all npt temp  0.45 ${temp}  0.1  iso  5.68  5.68  0.5  mtk yes tchain  5  pchain  5
fix 1  all npt temp  0.45 0.45  0.1  iso  5.68  5.68  0.5  mtk yes tchain  5  pchain  5

dump dmp2 all dcd ${N} traj.dcd
dump dmp2 all dcd 1000 traj.dcd


compute msd all msd com yes
variable twopoint equal c_msd[4]/6/(step*dt+1.0e-6)
fix 9 all vector 10 c_msd[4]
variable fit equal slope(f_9)/6/(10*dt)
thermo_style custom step temp pe c_msd[4] v_twopoint v_fit v_max_n

fix 1 all npt temp 1.25 ${temp} 0.1 iso 5.68 5.68 0.5 mtk yes tchain 5 pchain 5
fix 1 all npt temp 1.25 0.45 0.1 iso 5.68 5.68 0.5 mtk yes tchain 5 pchain 5
run 5000000 # 5000000  # Run for this many steps
Neighbor list info ...
  update every 1 steps, delay 10 steps, check yes
  max neighbors/atom: 2000, page size: 100000
  master list distance cutoff = 3.8
  ghost atom cutoff = 3.8
  binsize = 1.9, bins = 8 8 8
  4 neighbor lists, perpetual/occasional/extra = 1 3 0
  (1) pair lj/cut, perpetual
      attributes: half, newton on
      pair build: half/bin/atomonly/newton
      stencil: half/bin/3d
      bin: standard
  (2) compute orientorder/atom, occasional
      attributes: full, newton on
      pair build: full/bin/atomonly
      stencil: full/bin/3d
      bin: standard
  (3) compute coord/atom, occasional
      attributes: full, newton on
      pair build: full/bin/atomonly
      stencil: full/bin/3d
      bin: standard
  (4) compute cluster/atom, occasional
      attributes: full, newton on
      pair build: full/bin/atomonly
      stencil: full/bin/3d
      bin: standard
Per MPI rank memory allocation (min/avg/max) = 9.831 | 9.837 | 9.843 Mbytes
Step Temp PotEng c_msd[4] v_twopoint v_fit v_max_n 
   12000    1.2597867   -4.1487491 1.8595424e-30 1.2913488e-32 8.3333333e+20            2 
   13000    1.2319723   -4.1598712   0.88362743 0.0056642782  0.073898278            3 
   14000    1.2379246   -4.1808291     1.777553  0.010580672   0.07560022            2 
   15000    1.2349317   -4.1564959     2.671533  0.014841849  0.075707238            1 
   16000    1.2446639   -4.1630061    3.6035784  0.018768637  0.075222932            2 
   17000    1.2248018    -4.130461    4.5976374  0.022537437   0.07621773            1 
   18000    1.2618298   -4.0987622     5.626749  0.026049763  0.077726176            1 
   19000    1.2432769    -4.162422     6.493492  0.028480227  0.078357976            2 
   20000    1.2303081   -4.1463588    7.2959925  0.030399968  0.077859627            3 
   21000    1.2601603   -4.1321634    8.2117429  0.032586281  0.077327081            2 
   22000    1.2666991   -4.1548753    9.0678419  0.034347885   0.07700634            3 
   23000    1.2376144   -4.1324341    9.9182312   0.03593562  0.076385102            2 
   24000    1.2331599   -4.1610545    10.808046  0.037527938   0.07585146            2 
   25000    1.2373638   -4.1801645    11.833302   0.03944434  0.075754669            1 
   26000    1.2401657   -4.1580072     12.92116  0.041413973  0.076016801            2 
   27000    1.2333879   -4.1637253    13.864438  0.042791474   0.07645779            2 
   28000    1.2216122   -4.1514315    14.799046   0.04404478  0.076758678            4 
   29000    1.2371308   -4.1283946    15.611704  0.044861217  0.076826416            3 
   30000    1.2594265    -4.185014    16.469915  0.045749764   0.07685758            3 
   31000    1.2507045   -4.1423478    17.247921   0.04636538  0.076681468            1 
   32000    1.2539207   -4.1621753    18.291391  0.047633829   0.07652047            3 
   33000    1.2524219   -4.1421516    19.172162  0.048414551  0.076378495            1 
   34000    1.2379714   -4.1507899    19.982599  0.048976958  0.076279334            2 
   35000    1.2369636   -4.1570942    20.783751  0.049485122  0.076128916            2 
   36000    1.2584523   -4.1781528    21.666533  0.050154011  0.075971567            2 
   37000    1.2495747   -4.1755322    22.560652  0.050812278  0.075759642            6 
   38000    1.2806709   -4.1436395    23.469477   0.05146815   0.07562082            2 
   39000    1.2439594   -4.1696774    24.417768  0.052174718   0.07552208            3 
   40000     1.242742   -4.1688104    25.307657  0.052724284  0.075415718            2 
   41000    1.2547473   -4.1687233    26.060164  0.052967812  0.075314714            3 
   42000     1.239441   -4.1661408    26.964178  0.053500353  0.075220277            2 
   43000    1.2492095   -4.1443994    28.012525  0.054287838  0.075140404            4 
   44000    1.2460969   -4.1278443    28.664689  0.054289184  0.075071234            1 
   45000    1.2498861   -4.1567101    29.836009  0.055251868  0.075010396            2 
   46000     1.266526   -4.1536623    30.774629  0.055751139  0.075003049            5 
   47000    1.2173489   -4.1543669     31.70473   0.05621406  0.075047551            2 
   48000    1.2453857   -4.1593134    32.672462  0.056723024  0.075084559            2 
   49000    1.2853406   -4.1660109    33.483771  0.056945189  0.075112348            2 
   50000    1.2025159   -4.1652444    34.436948  0.057394912   0.07511606            1 
   51000    1.2178805   -4.1570861    35.041008  0.057256549  0.075077223            2 
   52000    1.2412565   -4.1701022     35.65374  0.057137403  0.074976988            1 
   53000    1.2247716   -4.1271493    36.772955  0.057819111  0.074889733            2 
   54000      1.23432   -4.1863006    37.529446  0.057915811  0.074791309            2 
   55000    1.2147652   -4.1526327    38.454798  0.058264845  0.074709449            2 
   56000    1.2458004   -4.1919556      39.2459  0.058401636   0.07461812            2 
   57000    1.2458906   -4.1283849    40.146817  0.058694177  0.074525934            2 
   58000    1.2498883   -4.1892392    40.837148  0.058674062  0.074434654            1 
   59000    1.2114924   -4.1904063    41.665171  0.058849111  0.074341726            1 
   60000    1.2668179   -4.1797169    42.387988  0.058872206  0.074228686            2 
   61000    1.2350135   -4.1575435    43.503592  0.059431136  0.074088469            2 
   62000    1.2489498   -4.1475132    44.300415  0.059543568  0.073988937            2 
   63000    1.2422034   -4.1558394      45.1272  0.059692063  0.073912154            1 
   64000    1.2463544     -4.14536    46.056402  0.059969272   0.07384999            1 
   65000    1.2402969   -4.1694562    46.992468  0.060246754  0.073777593            4 
   66000    1.2625639   -4.1768231    47.787425  0.060337657  0.073715574            1 
   67000    1.2789971   -4.1615546    48.832859  0.060737387  0.073690222            3 
   68000    1.2437177   -4.1830399    49.710355  0.060919552  0.073659171            2 
   69000    1.2240524   -4.1965184    50.667164  0.061192227  0.073619348            1 
   70000    1.2455088   -4.1532093    51.593165  0.061420435  0.073614921            2 
   71000    1.2657924   -4.1698168    52.228609  0.061301184  0.073572604            2 
   72000    1.2338136   -4.1875491    53.041375   0.06139048  0.073508983            1 
   73000    1.2263096   -4.1835329    53.957074  0.061594832  0.073472815            2 
   74000    1.2309226   -4.1712211    55.095667   0.06204467  0.073449965            1 
   75000    1.2340968   -4.1904974    55.563685  0.061737428  0.073428119            1 
   76000     1.239575   -4.1917741    56.524566   0.06197869  0.073400811            2 
   77000    1.2647394   -4.1627769    57.757015  0.062507591  0.073388198            2 
   78000    1.2362116   -4.1824498    58.411789  0.062405757  0.073379385            2 
   79000    1.2226358   -4.1625079    59.275932  0.062527354  0.073361589            2 
   80000    1.2445478    -4.181969    60.598735  0.063123682  0.073360587            2 
   81000    1.2718145    -4.184374    61.490965  0.063262309  0.073356469            3 
   82000    1.2317902   -4.1391414    61.967083  0.062974677  0.073347466            3 
   83000    1.2268374    -4.163624    62.906448  0.063159084  0.073338906            1 
   84000    1.2365115   -4.1739249     63.51953  0.063015407  0.073318733            1 
   85000    1.2351301   -4.1869759    64.668186  0.063400182  0.073302571            1 
   86000    1.2601719    -4.188802    65.219434  0.063197125   0.07329467            2 
   87000    1.2220942   -4.1818538    66.315702  0.063520787  0.073288982            1 
   88000     1.216345   -4.1261024     67.24838  0.063682177  0.073283573            3 
   89000    1.2492964   -4.1949015    67.797358  0.063480672  0.073260434            3 
   90000     1.227209   -4.1750487    68.757602  0.063664446  0.073240638            2 
   91000    1.2461911   -4.1728234    69.663787  0.063794676  0.073214258            2 
   92000    1.2470165   -4.1723586    70.590364  0.063940547  0.073191387            3 
   93000    1.2144529   -4.1187069    71.725463  0.064270128   0.07316933            1 
   94000    1.2566179   -4.1539703    72.436798  0.064217019  0.073154709            3 
   95000     1.255324   -4.1927193    73.296367  0.064295058  0.073153908            1 
   96000    1.2224294    -4.208745     74.07431  0.064300616  0.073151445            2 
   97000     1.271152   -4.1331086    75.644969  0.064987087  0.073168815            1 
   98000    1.2664687   -4.1801646    75.996367  0.064622761  0.073197814            3 
   99000    1.2312526   -4.1674081    77.291904  0.065060525  0.073207929            1 
  100000      1.25193   -4.1645431    77.659727  0.064716439  0.073220907            2 
  101000    1.2227197   -4.1631949    78.672278   0.06491112    0.0732152            1 
  102000      1.21757   -4.2114988    79.346786  0.064825805  0.073220453            2 
  103000    1.2247707   -4.1740815    80.660626  0.065259406   0.07322796            4 
  104000    1.2348434   -4.1544776    81.425426  0.065244732  0.073232871            1 
  105000    1.2116759   -4.1565994    82.528058  0.065498459  0.073237301            1 
  106000    1.2245146   -4.1720712    83.054483  0.065294404  0.073241397            3 
  107000    1.2220056   -4.1944263    84.036075  0.065448656  0.073250108            1 
  108000     1.215681   -4.2039968    84.866687  0.065483555  0.073251605            3 
  109000    1.2309206    -4.156215    85.972357  0.065728102  0.073250573            1 
  110000    1.2402486   -4.1679212    86.826922  0.065777971  0.073268403            2 
  111000    1.2279273   -4.1624652    88.153637  0.066181409  0.073281922            1 
  112000    1.2122388   -4.2056884    88.426366  0.065793427  0.073296728            1 
  113000     1.264529   -4.1930127    89.095911  0.065704949  0.073286867            2 
  114000    1.2261144   -4.1303077     90.00051  0.065789846  0.073281345            1 
  115000    1.2393695   -4.1991373     90.42382  0.065524507  0.073267265            1 
  116000    1.2342349   -4.1506003    91.738195  0.065903876  0.073253277            1 
  117000    1.2360498   -4.1410247    92.592998  0.065949428  0.073247377            2 
  118000    1.2447038   -4.1660624    93.681549  0.066159286  0.073234269            3 
  119000    1.2387999   -4.1673818    94.615083  0.066257061   0.07321859            2 
  120000    1.2473745   -4.1888898    95.404228  0.066252936  0.073212895            1 
  121000    1.2261679   -4.1647549    96.522609  0.066475626  0.073231252            3 
  122000    1.2462233   -4.1650996    97.626071  0.066684474    0.0732344            7 
  123000    1.2463475   -4.1768539    97.742702  0.066221343  0.073227038            2 
  124000    1.2620997    -4.224279    98.202738  0.065996463  0.073225351            2 
  125000    1.2455961   -4.1741527    99.843971  0.066562647  0.073215116            1 
  126000    1.2487398   -4.1819427    100.03072  0.066157884  0.073207745            4 
  127000    1.2162099   -4.1718956    101.09861  0.066337672  0.073199067            2 
  128000     1.229338   -4.1563025    102.03695  0.066430304  0.073197524            2 
  129000    1.2600627   -4.1598673    103.90723  0.067123534   0.07320245            1 
  130000     1.220929   -4.1766797    104.38908  0.066916076   0.07320896            2 
  131000    1.2136376   -4.2011972    104.99087  0.066788087  0.073215284            1 
  132000    1.2022908   -4.1873582    106.70345   0.06736329  0.073221538            2 
  133000    1.2147664   -4.2013028    107.04898  0.067073298  0.073237126            4 
  134000    1.2289118   -4.1676127    108.64005  0.067562221   0.07325172            2 
  135000    1.2282578   -4.2064077    108.76196  0.067137013  0.073259969            5 
  136000    1.2366021   -4.1951181    109.49652  0.067093458  0.073263238            1 
  137000    1.2385964   -4.1798499    110.36334  0.067130987  0.073268558            1 
  138000    1.2261152   -4.1850025    111.36549  0.067249695  0.073276645            3 
  139000    1.2548216   -4.1913533    111.96154  0.067123225  0.073285467            5 
  140000    1.2007717   -4.1600961    113.50418  0.067562014   0.07329725            1 
  141000    1.2282248   -4.1712617    114.50158  0.067672326   0.07331089            1 
  142000    1.2098412   -4.1356798    114.74634  0.067339401  0.073313428            2 
  143000    1.2289695   -4.1906822    115.39753  0.067247976  0.073312801            3 
  144000    1.2265873   -4.1945319    116.30059  0.067303582  0.073305594            3 
  145000    1.2266118   -4.1940499    116.66857  0.067050904  0.073292093            1 
  146000    1.2274786   -4.1458794    117.87416  0.067279771  0.073276695            2 
  147000    1.2073443   -4.1461988    118.77297  0.067331618  0.073259861            1 
  148000    1.2372007   -4.2035852    118.88879  0.066941886  0.073233232            2 
  149000    1.2226472   -4.2343326    120.64515  0.067474914  0.073218105            2 
  150000    1.2230691   -4.1820723    121.86381  0.067702117  0.073214195            9 
  151000    1.2330193    -4.189108    122.77412  0.067756137   0.07320615            1 
  152000    1.2333186   -4.1783254    123.91862  0.067937841  0.073203091            1 
  153000    1.2121836    -4.229894    124.17319  0.067632459   0.07320454            2 
  154000    1.2291992   -4.2029974     125.5217  0.067922996  0.073218649            2 
  155000    1.2493923   -4.1577903    127.13562  0.068352486  0.073232485            2 
  156000    1.2423118   -4.1707956    127.98228  0.068366601  0.073246281            2 
  157000     1.206682   -4.1962481    127.87744  0.067875501  0.073259223            3 
  158000    1.2223147   -4.1775489     129.0605  0.068069884  0.073264986            4 
  159000    1.2396931   -4.1976539    129.69699  0.067975359  0.073268009            2 
  160000    1.2290016   -4.1745741    130.98728  0.068222541   0.07327338            1 
  161000    1.2428877   -4.1884895    131.25196  0.067935798  0.073274609            3 
  162000     1.219363   -4.1895718    132.22182  0.068015337  0.073268061            1 
  163000    1.2438365   -4.1964986    133.69549  0.068351476   0.07327197            3 
  164000    1.2181135   -4.2390565    134.01666  0.068097894  0.073276784            2 
  165000    1.2442819   -4.1893328     134.7988    0.0680802  0.073278874            1 
  166000    1.2075956   -4.2023854    135.74981  0.068147493   0.07327572            9 
  167000    1.2480031   -4.2151895    136.21179  0.067969956  0.073265625            4 
  168000    1.2182729   -4.1911956    137.54916  0.068228749  0.073256306            1 
  169000    1.2469947   -4.1892294    136.81038  0.067460741  0.073244605            2 
  170000     1.197969   -4.1554044    138.39812  0.067842213  0.073230449            1 
  171000    1.2290217   -4.2062257    139.36016  0.067914307  0.073212174            2 
  172000    1.2250823   -4.1744597    140.44069   0.06804297  0.073194235            4 
  173000    1.2072853   -4.2340779    140.07713  0.067474531  0.073173435            1 
  174000     1.217922    -4.207261    141.31128  0.067677815  0.073148259            2 
  175000    1.2259685   -4.1384457    142.59478  0.067902277  0.073118476            2 
  176000    1.2293695   -4.1688891    142.97718  0.067697527  0.073088703            4 
  177000     1.238171   -4.1914638    143.70941  0.067659798  0.073055848            3 
  178000    1.2018681   -4.2055261    142.73631  0.066824114   0.07300943            1 
  179000     1.244618   -4.1693559    144.74071  0.067383945  0.072964994            4 
  180000    1.2339453   -4.2179117    145.43178  0.067329526  0.072924821            2 
  181000    1.2253601   -4.1729176    146.48538  0.067442624  0.072882349            2 
  182000    1.2191504   -4.1978789    146.95383  0.067286552  0.072843119            4 
  183000    1.2084347   -4.2037279    147.79887  0.067303674   0.07280453            2 
  184000    1.2063673   -4.2092047    148.80312  0.067392716  0.072767911            1 
  185000    1.2154618   -4.1882111    149.69719  0.067431167  0.072729523            2 
  186000    1.2394087   -4.1875121    150.37448  0.067372079  0.072699909            2 
  187000    1.2162869   -4.1621328    151.83043  0.067660619  0.072667169            2 
  188000    1.1989402   -4.1718072    152.42851   0.06756583  0.072632157            2 
  189000    1.1943616   -4.2029167    152.82218  0.067381911  0.072600305            9 
  190000    1.2147843   -4.2346348    154.13627  0.067603627  0.072571698            3 
  191000    1.1968778   -4.2379445    154.46696  0.067393959  0.072542718            2 
  192000    1.2372231   -4.1844506    156.24141  0.067813113  0.072513577            1 
  193000    1.2408852   -4.2081139    156.48214  0.067565692  0.072490115            3 
  194000    1.2272657   -4.1761204    158.62202  0.068136607  0.072466994            2 
  195000    1.2269681   -4.2193046    158.68961  0.067816072  0.072442244            1 
  196000    1.1999126   -4.1929255    159.97855  0.068018091  0.072420937            3 
  197000    1.2056233   -4.1875845    160.91084  0.068067192  0.072405722            3 
  198000    1.2077147   -4.2186301    161.07617  0.067793001   0.07238859            3 
  199000    1.2513811   -4.2004681    162.70882  0.068136023  0.072375643            2 
  200000     1.240675   -4.1589192    164.76965  0.068654021  0.072365335            1 
  201000    1.2431009   -4.1977697    164.40089  0.068159571  0.072358957            1 
  202000    1.2213715   -4.1700944    166.26687  0.068591944  0.072354317            2 
  203000     1.225755   -4.1839679    166.32978  0.068279877   0.07234798            2 
  204000    1.1901256   -4.2142522    167.29497  0.068339447  0.072341206            2 
  205000    1.2107455    -4.198143     168.2887  0.068410042  0.072336489            3 
  206000    1.2109114   -4.2094277    169.41149  0.068532156  0.072336468            2 
  207000    1.2219368   -4.2326573    169.42905  0.068208152   0.07233583            3 
  208000    1.2080121   -4.1869019    170.90738  0.068472506   0.07233401            4 
  209000    1.2167515   -4.2001926    172.22824  0.068671548  0.072331733            2 
  210000    1.2233372    -4.228407     172.6215  0.068500597  0.072327181            2 
  211000    1.2037432    -4.200193    173.81742  0.068648269  0.072326258            1 
  212000    1.2272939   -4.2086039    174.25407  0.068496095  0.072322129            5 
  213000    1.2347579   -4.1945839     174.7614  0.068373004  0.072320116            2 
  214000    1.2219867   -4.1998458    175.50286  0.068342234  0.072311392            2 
  215000    1.2225583   -4.2004562    176.31904  0.068340712  0.072296647            1 
  216000    1.2441372   -4.2149646    176.80157  0.068210481  0.072282434            3 
  217000    1.2015919   -4.2156109    176.81931  0.067902962   0.07226606            3 
  218000    1.2506499   -4.2052728     178.3094  0.068161086  0.072249144            3 
  219000    1.2483503   -4.1921018    178.36225   0.06786996  0.072226762            2 
  220000    1.2089981   -4.2228923    178.92077  0.067773018  0.072199497            3 
  221000     1.178802   -4.1893956    179.88248  0.067828991  0.072168527            2 
  222000    1.1783933   -4.2150573     180.0979  0.067604316  0.072137521            4 
  223000    1.2496122    -4.200577    181.32244  0.067758759  0.072103981            3 
  224000     1.237604   -4.2336879    181.59897  0.067559142  0.072073052            3 
  225000    1.1935773   -4.1917229    183.01609  0.067783736  0.072045118            1 
  226000    1.2002503   -4.2174697    183.10552  0.067516784  0.072015392            3 
  227000    1.2062275   -4.2241864    184.42665  0.067704349  0.071990829            2 
  228000     1.194568   -4.2135436    185.87002  0.067934947  0.071965161            4 
  229000    1.2178334     -4.25566    186.44812  0.067848662  0.071939983            4 
  230000    1.2315101   -4.1950895     187.7141  0.068012354   0.07191109            2 
  231000    1.2238869   -4.1830003    187.74704  0.067729814   0.07188611            2 
  232000    1.2111156   -4.1808122    189.10143  0.067924363  0.071857252            2 
  233000    1.2037203    -4.221314    189.46993   0.06776464  0.071828746            1 
  234000    1.2334514   -4.2515052    190.42616  0.067815583  0.071799975            3 
  235000    1.1932892   -4.2208302     191.1476  0.067782837  0.071773849            1 
  236000    1.2342473   -4.2010946    191.96435  0.067784023  0.071749079            2 
  237000    1.2064755   -4.2158726    193.02103  0.067869561   0.07172418            3 
  238000    1.2234187   -4.2306532    193.51802  0.067758411  0.071704539            2 
  239000    1.2524167   -4.2212208    194.91492  0.067961967  0.071682192            3 
  240000    1.1790453   -4.1839351    196.20914  0.068128173  0.071662779            1 
  241000    1.1918705   -4.2165642    196.82215   0.06805745  0.071643354            2 
  242000    1.2400487   -4.1972883    197.37626  0.067967032  0.071626429            2 
  243000    1.2139235   -4.1888923    200.13779  0.068634358  0.071613914            2 
  244000    1.2050231   -4.2218922    199.37914   0.06809397  0.071603757            2 
  245000    1.2010028   -4.1889131    200.25761  0.068114832  0.071585764            3 
  246000    1.1868726   -4.2184686    200.78053  0.068015086  0.071567045            2 
  247000    1.2451048   -4.2284532    200.81814  0.067752407  0.071547523            2 
  248000    1.2239557    -4.200101    202.63241  0.068088848  0.071532327            2 
  249000    1.2437652   -4.2190836    202.65347  0.067822448  0.071514947            3 
  250000    1.2199308   -4.2175022    203.37013  0.067790042  0.071494588            3 
  251000    1.2160212   -4.2155499    204.78612   0.06799008  0.071474253            3 
  252000    1.1925574   -4.2282392    205.69578  0.068021093    0.0714558            3 
  253000    1.2218847   -4.1824047    206.69575  0.068081604  0.071434239            2 
  254000    1.2095077   -4.1997967    207.50282  0.068078352  0.071416146            4 
  255000    1.1978529    -4.231427    207.17637  0.067704695  0.071396309            3 
  256000    1.2202153    -4.268388    208.41087   0.06784208  0.071374298            2 
  257000    1.2336528   -4.2057395    210.15205  0.068142689  0.071356305            1 
  258000    1.1963437   -4.2653577    209.71865  0.067738583  0.071339063            2 
  259000    1.2046695   -4.2095658    211.74566  0.068129236  0.071322213            2 
  260000     1.207783   -4.2022462    212.34273  0.068058568  0.071307161            6 
  261000    1.2085648   -4.1933414    213.91743  0.068300584   0.07129336            2 
  262000    1.2200287   -4.2450806    213.12324  0.067787291  0.071274397            1 
  263000    1.1880081   -4.1812959     214.3562  0.067920215  0.071253156            1 
  264000    1.1944879   -4.2549243    214.07187  0.067573192   0.07123249            3 
  265000     1.204124   -4.2132216    215.52002   0.06777359  0.071209075            2 
  266000    1.2225091   -4.2183502    216.71742  0.067893927  0.071189361            2 
  267000    1.1992395   -4.2388008    216.27819  0.067502557  0.071167104            2 
  268000    1.2090297   -4.2542415    217.17615  0.067529897  0.071146584            2 
  269000    1.1917457   -4.2256855    218.78291  0.067776615  0.071123834            3 
  270000    1.2161367   -4.2545297    219.10909  0.067626261  0.071099796            1 
  271000    1.2067899   -4.2174303    220.45984  0.067792079  0.071078173            2 
  272000    1.2019008    -4.199052    221.66106  0.067910864  0.071060869            1 
  273000    1.2432243   -4.2030902     222.2803   0.06785113  0.071041323            2 
  274000    1.1998179   -4.1969406    223.70975  0.068038244  0.071023351            2 
  275000    1.2083684   -4.2202659    224.44526  0.068013715  0.071009771            2 
  276000     1.199111   -4.2266612    224.66521  0.067833697  0.070992468            2 
  277000    1.2053429   -4.2325632    225.75193  0.067915742  0.070972326            4 
  278000    1.2163362   -4.2023895    226.28279  0.067830573  0.070956143            5 
  279000    1.2072718   -4.2175348    227.81756  0.068045867  0.070940796            2 
  280000    1.2138412   -4.2592594    227.98043   0.06785132  0.070923065            1 
  281000    1.1887094   -4.2064745    229.30798  0.068003553  0.070903966            4 
  282000    1.2029814   -4.2443163    229.00475  0.067672799  0.070885649            3 
  283000    1.1935771   -4.2471037    229.28552   0.06751635  0.070863886            1 
  284000    1.1906964   -4.2114928    230.73511  0.067703965  0.070840817            1 
  285000    1.2212203   -4.2152615     229.9044  0.067223509  0.070816515            4 
  286000    1.1855925    -4.205612     230.9808  0.067302098  0.070789794            1 
  287000    1.1984875   -4.2168852    232.25005  0.067436136  0.070762541            1 
  288000    1.2295449   -4.2391981    231.47508  0.066977742  0.070733372            3 
  289000    1.2022514   -4.2094383     232.9469  0.067170385  0.070705886            1 
  290000    1.2205305   -4.2237574    234.88463  0.067495583  0.070680182            1 
  291000    1.2080983   -4.2266369    236.37985  0.067691824  0.070654145            2 
  292000    1.1678472   -4.1930885    236.38252  0.067460766  0.070630648            2 
  293000    1.2149621   -4.1735928    238.03731  0.067701169  0.070605748            2 
  294000    1.1916827    -4.228047    237.83944  0.067414806  0.070581949            1 
  295000    1.2077942    -4.198226    239.17929  0.067564771  0.070560297            1 
  296000    1.2089016    -4.217926    239.40254  0.067399362  0.070537867            2 
  297000    1.2038657   -4.2146102    240.58927  0.067505407  0.070515057            2 
  298000    1.1700277   -4.2524155    241.06236  0.067411175  0.070495234            1 
  299000     1.193342   -4.2092627     242.3171  0.067535425  0.070476652            1 
  300000    1.1917779   -4.2508475    243.14825   0.06754118  0.070456711            2 
  301000    1.1958112   -4.1779889    244.88958  0.067798887  0.070437689            1 
  302000    1.2116707   -4.2045211    246.10324  0.067909283  0.070420479            2 
  303000    1.2021488   -4.1979762    246.03912  0.067667524  0.070404099            2 
  304000    1.2307858   -4.2226474    246.52247  0.067577432   0.07038503            4 
  305000    1.2177187   -4.2144088    247.55098  0.067636879  0.070368355            2 
  306000    1.1720895   -4.2316301    248.13212  0.067574106  0.070350423            4 
  307000    1.2081988   -4.2454742     248.5049  0.067455184  0.070332913            1 
  308000    1.2202339   -4.2045303      249.897  0.067612825   0.07031706            3 
  309000    1.2184953   -4.2278494    250.13654  0.067458612  0.070300877            2 
  310000    1.2114521   -4.2981334    250.49112  0.067336323  0.070284108            2 
  311000    1.1837614   -4.2157361    252.56904  0.067676592   0.07026737            2 
  312000    1.1858433   -4.1969615    253.17852  0.067622468  0.070248762            2 
  313000    1.2205901   -4.2155351     253.0106  0.067361715  0.070227778            3 
  314000    1.2048972   -4.1792661     254.5804    0.0675638  0.070210229            3 
  315000     1.207631   -4.2499756    254.18052  0.067243523  0.070190152            2 
  316000    1.2350459   -4.2145982    255.87969  0.067478822  0.070171039            2 
  317000    1.2139229   -4.2317901    255.34056  0.067124227  0.070151621            2 
  318000    1.1922337   -4.2211336    257.36615  0.067443961   0.07013278            1 
  319000    1.1799782    -4.263734     257.8937   0.06737035  0.070112807            4 
  320000    1.2232277   -4.2246495    258.82182  0.067401515  0.070092532            3 
  321000    1.2290185   -4.2563684    258.28345  0.067051778  0.070070922            5 
  322000    1.1889038   -4.2248519    260.50507  0.067418497    0.0700501            2 
  323000    1.2172783   -4.2171381     261.2869  0.067411481  0.070030869            2 
  324000     1.195166   -4.2569147    261.77128  0.067328005  0.070013004            1 
  325000    1.1834142   -4.2535105    263.06304  0.067452062  0.069995718            4 
  326000    1.1922261   -4.2155327    263.67507  0.067401604  0.069979697            2 
  327000    1.2175078   -4.2309045    265.14582   0.06757029  0.069966234            1 
  328000    1.1965198   -4.2246434    265.43118  0.067436784   0.06994998            2 
  329000    1.1725209   -4.2505859    266.49969  0.067502454  0.069934978            3 
  330000    1.1919467   -4.2519942    267.73317  0.067609386  0.069919375            3 
  331000    1.1818519   -4.2165141    267.93936  0.067457038   0.06990163            1 
  332000    1.2184804   -4.2380093    269.34665  0.067607092  0.069887455            4 
  333000    1.1937219   -4.2020061    270.58881  0.067714916  0.069873224            1 
  334000    1.1959915     -4.23778    270.52411  0.067496037  0.069860999            1 
  335000    1.1777974   -4.2545184    271.27606  0.067481606  0.069846145            3 
  336000    1.1830065   -4.2079204    272.00182  0.067460768  0.069833314            2 
  337000    1.1839444   -4.2186368    273.81678  0.067709393  0.069819718            2 
  338000    1.1846671   -4.2346031    274.23543  0.067612286  0.069806119            1 
  339000    1.2158194   -4.2495432    274.52844  0.067484868  0.069792223            1 
  340000    1.1923932    -4.220435    276.20756  0.067697932  0.069782294            1 
  341000    1.1985034   -4.2381166    277.27721  0.067760803  0.069774584            1 
  342000    1.1971933   -4.2154909     277.5968  0.067640546   0.06976663            2 
  343000    1.1826951   -4.2427028    279.27971  0.067852214  0.069758097            2 
  344000    1.2116043   -4.2759364    280.25001  0.067890022  0.069749624            2 
  345000    1.1895957   -4.2668043    281.06474  0.067890034  0.069740433            2 
  346000    1.1659445   -4.2505747    280.66207  0.067596838   0.06973303            5 
  347000    1.1858094    -4.213752    282.05039  0.067735443  0.069723802            2 
  348000    1.2170956   -4.2431185    283.05396  0.067781121  0.069714606            1 
  349000    1.2259101   -4.2654778    283.37604   0.06766381  0.069706976            1 
  350000    1.1821303   -4.2410392    284.96871  0.067849694  0.069699644            4 
  351000    1.2123298    -4.245027    285.18038  0.067706642  0.069691704            2 
  352000    1.1876401   -4.2344658    286.81272  0.067900738   0.06968372            2 
  353000    1.1860316   -4.2379988    287.16615  0.067791819  0.069677451            2 
  354000    1.1727031   -4.2657106    287.98455  0.067792972  0.069672685            1 
  355000      1.19452   -4.2452807    289.26731  0.067903123  0.069668959            3 
  356000    1.1856041   -4.2536236    289.82345  0.067842567  0.069663842            2 
  357000    1.2063663   -4.2472484     291.6818   0.06808632  0.069657584            2 
  358000    1.2179507   -4.2423183    292.66364  0.068124684  0.069649803            2 
  359000     1.193715   -4.2305627     290.5161   0.06743642  0.069644345            1 
  360000    1.2049865   -4.2623104    293.68926  0.067983625  0.069639499            3 
  361000    1.2030131   -4.2070677    295.58131  0.068232066  0.069635206            4 
  362000    1.2092356   -4.2678211    295.02729  0.067916043  0.069631076            2 
  363000     1.193399   -4.2394122    296.61572    0.0680936  0.069630053            2 
  364000    1.2058981   -4.2756183    297.36556  0.068078195  0.069629589            4 
  365000    1.1806651   -4.2688666    297.67074  0.067961356  0.069627602            2 
  366000    1.1768651   -4.2208642    299.44551   0.06817976  0.069625615            2 
  367000     1.189736   -4.2745038    299.70033  0.068051846  0.069622113            3 
  368000    1.2087956   -4.2643831    301.58093  0.068292782  0.069620271            3 
  369000    1.1955347   -4.2171458    303.32001  0.068500454  0.069620544            2 
  370000    1.1979052   -4.2434183    302.38194  0.068104041  0.069620184            1 
  371000    1.1896168   -4.2585049    304.56277  0.068410326  0.069618836            1 
  372000    1.2089281   -4.2107805    304.84204  0.068288987  0.069617888            1 
  373000    1.2025512   -4.2617547    304.48958  0.068027163  0.069615944            1 
  374000    1.1955839   -4.2393896    304.43828   0.06783384  0.069613077            2 
  375000     1.190884   -4.2298675    305.97481  0.067994401  0.069610818            2 
  376000    1.2003223   -4.2314096    307.76756  0.068210895  0.069606813            1 
  377000    1.1880199   -4.1846891    309.78969  0.068476942  0.069603627            4 
  378000    1.1926168   -4.2620933    308.42961  0.067995945  0.069599554            3 
  379000    1.2225713   -4.2423126    309.17307  0.067980006  0.069596064            2 
  380000    1.1896081   -4.2635974    310.09833   0.06800402   0.06959242            3 
  381000    1.1950082   -4.2289483    310.89019   0.06799873  0.069589295            2 
  382000    1.2278664   -4.2903993    309.63606  0.067547133  0.069585722            4 
  383000    1.2005956   -4.2329782    311.75963  0.067832818  0.069580898            4 
  384000    1.1977917   -4.2387464    313.15564  0.067959124  0.069575771            1 
  385000    1.2279877   -4.2814984    313.13052   0.06777717  0.069571851            3 
  386000    1.1719073   -4.2317405     314.8114  0.067964465  0.069567653            2 
  387000    1.2102658   -4.2680857    315.94286  0.068032484  0.069560902            2 
  388000    1.2117186   -4.2203875    317.14342  0.068114995  0.069558361            3 
  389000    1.2162541   -4.2244424    319.10014   0.06835907  0.069555607            2 
  390000    1.1969255   -4.2774387    318.39401  0.068032908  0.069553962            3 
  391000    1.1701492   -4.2196999    320.83319   0.06837877  0.069551233            1 
  392000    1.1980035   -4.2405485      320.473  0.068127763  0.069548965            1 
  393000    1.1863737   -4.1960506    323.49364  0.068594919  0.069546793            2 
  394000    1.1891331   -4.2316966     323.0872  0.068334857  0.069544371            3 
  395000    1.1977668     -4.22344    321.66995  0.067862859  0.069542364            3 
  396000    1.1965218   -4.2343525    323.45771  0.068067699  0.069541203            2 
  397000    1.2040914   -4.2456665     325.7952  0.068386902  0.069540751            3 
  398000    1.1994683   -4.2221625    326.21521  0.068303018  0.069540592            2 
  399000    1.1696623   -4.2439397    327.70447  0.068442872  0.069539784            1 
  400000      1.17042   -4.2443357    325.26991  0.067764564  0.069537914            4 
  401000    1.1882829   -4.2628687    328.13527  0.068191036  0.069535304            2 
  402000    1.1764693   -4.2430815    329.84766  0.068376381  0.069533363            4 
  403000    1.1903062   -4.2675455    330.19066  0.068277638  0.069532747            3 
  404000    1.1962941   -4.2553141    331.62352  0.068404191  0.069531658            2 
  405000    1.1959543   -4.2510143    331.54426  0.068218983   0.06953038            2 
  406000    1.2057761   -4.2661949     332.4904  0.068245156  0.069528093            2 
  407000    1.1913277   -4.2738316    332.35013  0.068048756  0.069527559            3 
  408000    1.1739835   -4.2758378    333.94647   0.06820802   0.06952553            2 
  409000    1.1781057    -4.243812    334.07576  0.068067596  0.069520191            2 
  410000      1.18953   -4.2589774    335.10172  0.068110105  0.069517791            2 
  411000    1.2156677   -4.2444295    335.42578  0.068010094  0.069512561            2 
  412000    1.1983174   -4.2742032    334.57974  0.067673895  0.069508006            2 
  413000    1.1682336   -4.2904638    336.13335  0.067823517  0.069501953            2 
  414000    1.1946697   -4.2501793    338.22745  0.068081211  0.069496887            1 
  415000    1.2139083   -4.2547354    338.41249  0.067954315  0.069491832            3 
  416000    1.1887893   -4.2418299    338.05715  0.067719782  0.069485222            3 
  417000    1.1725502   -4.2369684    340.02494  0.067950628  0.069476539            1 
  418000    1.1862723   -4.2323945    340.87669  0.067957874  0.069468933            1 
  419000    1.2072352   -4.2528378    340.76978  0.067774419  0.069461909            2 
  420000    1.2148838   -4.2526744    342.67836  0.067991739  0.069454712            2 
  421000    1.1748362   -4.2578274    342.71977  0.067838435  0.069446662            1 
  422000    1.2104786   -4.2249796    345.35322  0.068197713  0.069441763            4 
  423000    1.1721442   -4.2563776    343.55641  0.067682507  0.069435048            3 
  424000    1.1759345   -4.2198271      345.113  0.067828814  0.069426588            2 
  425000    1.2111021   -4.2657116    345.89964   0.06782346  0.069419065            4 
  426000    1.1878683   -4.2791248    345.74386  0.067633776  0.069412798            4 
  427000    1.1781181   -4.2219338    348.48622  0.068010582  0.069406357            2 
  428000    1.1848194   -4.2885687    348.78675  0.067910192   0.06939915            1 
  429000    1.1829495   -4.2508751    350.39726  0.068064736  0.069392036            4 
  430000    1.1821584   -4.2367609    351.27676  0.068076892  0.069385679            1 
  431000    1.1622423   -4.2847342    350.66673  0.067800993  0.069380747            3 
  432000    1.1628416   -4.2661785     351.2482  0.067756212  0.069374822            3 
  433000    1.1656583    -4.268758    352.24601  0.067791765  0.069367569            1 
  434000     1.176814   -4.2467613    352.50151  0.067684621  0.069361418            1 
  435000     1.199412    -4.264732    354.45172  0.067902628  0.069354631            2 
  436000    1.1800339   -4.2891333    354.18306  0.067695539  0.069345878            3 
  437000    1.1715302   -4.2696343    354.72304  0.067643601  0.069337428            2 
  438000    1.1768486   -4.2216455    355.13623  0.067567776  0.069328818            1 
  439000    1.1699166   -4.2933687    354.80525  0.067351034  0.069318812            2 
  440000    1.1955154   -4.2429095    357.52179  0.067712461  0.069307583            2 
  441000    1.1607296   -4.2163082    359.15952   0.06786839  0.069299582            1 
  442000    1.2039879    -4.286403    358.96607  0.067678369  0.069293137            3 
  443000    1.1807468    -4.294004    359.63902  0.067652185   0.06928636            3 
  444000    1.1768423   -4.2461011    361.81178  0.067907617  0.069280978            2 
  445000    1.1445959   -4.2971629      363.379  0.068048501  0.069274859            1 
  446000    1.1805523   -4.3075639    363.50709   0.06791986  0.069267921            2 
  447000    1.1862349   -4.2818796    362.00065  0.067487072  0.069260933            2 
  448000    1.1962454   -4.2617137    364.40321  0.067783334   0.06925511            1 
  449000    1.1791339   -4.2357304    367.07621  0.068128473  0.069252084            1 
  450000    1.1800824   -4.2783635    367.26099  0.068011294  0.069244861            3 
  451000    1.2025227   -4.2646206    365.89219  0.067607573  0.069236271            2 
  452000    1.2032219   -4.2557146    367.34536  0.067725915  0.069228318            3 
  453000    1.1729585   -4.2910434    366.66941  0.067452061  0.069218798            2 
  454000    1.1687175   -4.2705279    368.98033  0.067727667  0.069210774            2 
  455000    1.1939121   -4.2717751    369.40608  0.067656791  0.069204157            2 
  456000    1.1839547   -4.2597005    371.98566  0.067979835  0.069197405            1 
  457000     1.166019   -4.2983559    371.42366  0.067728603  0.069190897            2 
  458000    1.1757908   -4.3038498    371.47172  0.067589468  0.069184067            2 
  459000    1.1576364   -4.2739476    372.87661  0.067697278   0.06917645            3 
  460000    1.1913614   -4.2837533    373.77784  0.067713376  0.069170118            5 
  461000       1.1801   -4.2667339    375.19341  0.067822381  0.069162785            2 
  462000    1.2018479   -4.2688638    374.61388  0.067571046  0.069156382            2 
  463000    1.1699632   -4.2831562    376.75125    0.0678098  0.069149526            3 
  464000    1.1752849   -4.2717553     376.6944  0.067653449  0.069142962            3 
  465000    1.2062822   -4.2743982    377.76215   0.06769931  0.069135093            2 
  466000    1.1655405   -4.2727045    378.67638  0.067717521  0.069127378            1 
  467000    1.1912529   -4.2545613     381.1403  0.068012187  0.069122561            1 
  468000    1.1922143   -4.2906112    380.24126  0.067706777  0.069116658            3 
  469000      1.17155   -4.2727424    382.68789  0.067997138  0.069112898            2 
  470000    1.1836457   -4.2677205      382.151   0.06775727   0.06910829            9 
  471000    1.1782323   -4.2904727    384.19899  0.067975759  0.069103005            2 
  472000    1.1724001   -4.2770105    381.80768  0.067409548  0.069096372            2 
  473000    1.1768312   -4.2880085    384.27574  0.067701856  0.069089379            3 
  474000    1.1714447   -4.2530241    386.74809  0.067993687  0.069081631            3 
  475000    1.1595733   -4.3073185    384.16941  0.067398142   0.06907435            3 
  476000    1.1828365   -4.2796591    385.94483  0.067567373  0.069067518            3 
  477000    1.1722441   -4.2886246    387.56792  0.067709281  0.069060429            3 
  478000    1.1944283   -4.2824974    388.20859  0.067679322  0.069054344            3 
  479000    1.1819943   -4.2824475    389.52514  0.067767073  0.069048087            3 
  480000    1.1574408   -4.2762556    389.52714  0.067626239  0.069042111            2 
  481000    1.1682247   -4.2794679    390.62229  0.067675379  0.069035163            2 
  482000    1.1895771   -4.2330408    390.91427  0.067585455  0.069027821            2 
  483000    1.1708817   -4.2562551    393.32238  0.067861004  0.069021548            1 
  484000    1.1787564   -4.2180654    394.81368  0.067977562  0.069015535            2 
  485000    1.1907749   -4.2864825    393.59556  0.067628104   0.06901041            3 
  486000    1.1474345   -4.2308012     395.5201  0.067818947  0.069006074            2 
  487000    1.1654086   -4.2685498    395.13534   0.06761385  0.069001026            2 
  488000    1.1599985   -4.2752201      397.384   0.06785929  0.068996793            2 
  489000    1.1859356   -4.2821895    399.15264  0.068021922  0.068991237            1 
  490000    1.1673578   -4.2343218     400.9671  0.068191683  0.068988771            4 
  491000    1.1824993    -4.265711    400.28919  0.067937745  0.068985245            4 
  492000    1.1871873   -4.2609804    401.81374  0.068057883  0.068981122            2 
  493000    1.1564968   -4.2789266    399.08025  0.067457784  0.068977623            2 
  494000    1.1569018   -4.2619005    402.63737  0.067921283  0.068973407            1 
  495000    1.1782709    -4.288457    403.15579  0.067871345  0.068969077            5 
  496000    1.1690829   -4.2466738    402.76035   0.06766807  0.068964601            3 
  497000    1.1553324   -4.2783848    403.56552  0.067666921  0.068958195            1 
  498000     1.155911   -4.3076442    404.18278  0.067634334  0.068950744            2 
  499000    1.1865982   -4.2903829    405.27401   0.06768103  0.068944193            3 
  500000    1.1831626    -4.277883    406.44313  0.067740521  0.068938414            5 
  501000    1.1326494   -4.2724472     406.1599  0.067558201  0.068932217            2 
  502000    1.1761343   -4.3076056    407.36402   0.06762351  0.068926288            2 
  503000    1.1660665   -4.2905329    407.15966  0.067455212  0.068918456            4 
  504000    1.1827289   -4.2899866    408.39127  0.067525012  0.068910418            1 
  505000    1.1878631   -4.2979275    409.13996  0.067514845  0.068902742            1 
  506000    1.1832535   -4.2546244    410.89742  0.067670853  0.068895233            6 
  507000     1.172267   -4.2639857    410.91078  0.067539576  0.068886985            1 
  508000    1.1764205   -4.2723137    411.62975  0.067524565  0.068879974            3 
  509000    1.1833689   -4.2916638    412.86417  0.067594003  0.068871881            2 
  510000    1.1728118    -4.293468    411.72386   0.06727514    0.0688647            1 
  511000    1.1526114   -4.2936458    414.87144  0.067656791   0.06885816            2 
  512000     1.179379   -4.2606717     414.5937  0.067479443   0.06885204            2 
  513000    1.1808591   -4.2531992    414.90787  0.067398939  0.068843108            4 
  514000    1.1498872   -4.3075311    415.90133   0.06742888   0.06883453            2 
  515000    1.1846687   -4.2893477    417.48757  0.067554623  0.068826917            1 
  516000    1.1718751   -4.2677581    415.90203  0.067167641  0.068820095            2 
  517000    1.1822174   -4.2923996    417.41216  0.067281135  0.068812723            3 
  518000    1.1770042   -4.3221981    418.54092  0.067332838  0.068804904            2 
  519000    1.1824719   -4.3036912    419.69424  0.067388286  0.068797341            2 
  520000    1.1742239   -4.2580654    422.28322  0.067673593  0.068790467            2 
  521000    1.1454719   -4.2790291     421.8114  0.067468234  0.068784306            3 
  522000    1.1711449   -4.2769837    423.09562     0.067544  0.068776802            2 
  523000    1.1500729   -4.2839647    421.10293  0.067097343  0.068768076            4 
  524000    1.1627606   -4.2968493    424.87936  0.067569872  0.068759273            4 
  525000    1.1806745    -4.280018    424.54276  0.067387739  0.068749911            2 
  526000    1.1589528   -4.3006656    425.16692   0.06735851  0.068740505            5 
  527000    1.1650553   -4.2823258    427.64834  0.067623077  0.068731047            2 
  528000    1.1559051   -4.2433077    427.59331  0.067486318  0.068723701            1 
  529000    1.1427485   -4.3177858    427.51218  0.067345964  0.068715091            3 
  530000    1.1857033   -4.3091514    428.45423  0.067367017  0.068705603            3 
  531000    1.1690653   -4.2542613     429.0923  0.067340286  0.068696577            2 
  532000    1.1856698   -4.2982877    430.30882  0.067404263  0.068688886            3 
  533000     1.173062   -4.2937329    431.91727  0.067529279    0.0686801            2 
  534000    1.1751064   -4.2767725    431.92426  0.067403911   0.06867352            7 
  535000    1.1659472   -4.2761997    432.03866  0.067295742  0.068665328            3 
  536000    1.1775501   -4.2541133    433.72044   0.06743166  0.068655999            2 
  537000    1.1587358   -4.3379004    430.71012  0.066838939  0.068646624            4 
  538000    1.1512775   -4.2722179    433.87931  0.067205593  0.068635636            4 
  539000    1.1714402   -4.2889895     434.9432  0.067245392  0.068626654            2 
  540000    1.1780038   -4.2695167    436.65067  0.067384363  0.068617317            4 
  541000    1.1402735   -4.2958844    436.62109  0.067255251  0.068608689            3 
  542000    1.1635086   -4.2970376     438.1839  0.067371448  0.068599682            1 
  543000    1.1745218   -4.3053763    440.62796  0.067622461  0.068592998            1 
  544000    1.2090102   -4.2927651    440.16865  0.067427796  0.068587498            4 
  545000    1.1956415   -4.2853274    441.18717  0.067459812  0.068581096            2 
  546000    1.1493891   -4.2801275    441.21985  0.067341248  0.068574742            3 
  547000    1.1631095   -4.2849401    443.74519  0.067602862   0.06856847            2 
  548000    1.1545506   -4.2616473    443.42834  0.067431316  0.068562671            1 
  549000    1.1502064   -4.2915145    444.04825  0.067402588  0.068556097            3 
  550000    1.1844395   -4.2847855     445.9277  0.067564803  0.068550334            2 
  551000    1.1926545   -4.2779655    445.29244  0.067346104  0.068544244            2 
  552000    1.1522567   -4.3078572    446.26125  0.067370358  0.068537894            2 
  553000    1.1326422   -4.2763259    449.23797  0.067697103  0.068532776            3 
  554000    1.1482145   -4.2940151    448.42453  0.067452547  0.068527213            4 
  555000    1.1506596   -4.2994635     450.0106   0.06756916  0.068521655            2 
  556000    1.1665094   -4.2934916    453.08396  0.067908268  0.068516366            2 
  557000    1.1824781   -4.2934834    451.19669  0.067503993  0.068511616            5 
  558000    1.1759644    -4.327571    452.74563  0.067614342  0.068507288            2 
  559000    1.1593471   -4.2819035    453.35177  0.067583747  0.068502453            2 
  560000    1.1413869   -4.3001605    453.22534  0.067444246  0.068498733            1 
  561000    1.1556238   -4.2855237    455.39399  0.067646166  0.068493141            2 
  562000    1.1862892   -4.3108759     453.9936  0.067318149  0.068487464            4 
  563000    1.1794932   -4.2847546    456.56034  0.067578499  0.068482524            1 
  564000     1.165069   -4.2932639    455.62164  0.067319982  0.068478584            2 
  565000    1.1675689   -4.3169785    456.56195   0.06733952  0.068473377            1 
  566000    1.1717907   -4.2806874    458.45291  0.067498956  0.068467891            2 
  567000    1.1623447    -4.302936    458.74701  0.067423135  0.068463155            3 
  568000    1.1618734   -4.2933445    460.36999  0.067542545  0.068457595            1 
  569000    1.1549703   -4.2932206    459.68472   0.06732348   0.06845051            3 
  570000    1.1751994   -4.2641824     461.3101  0.067442997  0.068443607            3 
  571000    1.1603741   -4.3169831    457.72777  0.066802068  0.068434931            2 
  572000    1.1562071   -4.2890746    460.60731  0.067104794  0.068425527            2 
  573000    1.1605214   -4.3133404    460.84272  0.067021919    0.0684183            3 
  574000    1.1734544    -4.320559    460.56092  0.066864246  0.068410249            2 
  575000    1.1589885   -4.2847388    463.22893  0.067134627  0.068401111            2 
  576000    1.1545692   -4.3010206    463.05055  0.066992267  0.068392489            1 
  577000    1.1819003   -4.2596212    464.55271  0.067093112  0.068384464            3 
  578000     1.162964   -4.3009339    466.02953  0.067189956  0.068375983            3 
  579000    1.1620691   -4.3010855    465.72668  0.067030323  0.068366822            2 
  580000    1.1464364   -4.2961616    465.94491  0.066946107  0.068359171            3 
  581000    1.1373792   -4.2987088    467.31512  0.067027413  0.068350027            2 
  582000    1.1321184   -4.3164035    468.12705  0.067028501  0.068341193            1 
  583000    1.1483549   -4.2927669    469.50154  0.067109997  0.068333733            3 
  584000    1.1480533   -4.2495199    472.47232  0.067418995  0.068327161            1 
  585000    1.1600352   -4.3161484    473.17154  0.067403353  0.068320442            2 
  586000    1.1348567   -4.2759067    475.07783  0.067559418  0.068313955            2 
  587000    1.1632858   -4.2933359    473.93503  0.067282089  0.068307238            1 
  588000    1.1823544   -4.2769234    474.57113  0.067257813  0.068301105            4 
  589000    1.1558504   -4.2979949    472.24174  0.066814054  0.068293496            4 
  590000    1.1441536   -4.3170323    473.63887  0.066898146  0.068284592            1 
  591000    1.1460845   -4.2998092    474.88222  0.066960267  0.068275721            1 
  592000    1.1462683   -4.3089809     477.5434  0.067221762  0.068267416            2 
  593000    1.1315487   -4.3087513    476.44787   0.06695445  0.068259863            4 
  594000    1.1676943   -4.3047087    476.63134  0.066867472  0.068251043            3 
  595000    1.1560307   -4.3236274    477.99825  0.066946533  0.068242285            1 
  596000    1.1507044   -4.2830573    478.99024  0.066972909  0.068233114            2 
  597000    1.1442932   -4.3221359     478.7115  0.066821818  0.068223809            3 
  598000    1.1551375    -4.288404    478.71102  0.066710008  0.068214367            1 
  599000    1.1765581   -4.3034728    481.52167   0.06698966  0.068206483            1 
  600000    1.1482876   -4.2954956    483.14382  0.067103308  0.068198128            2 
  601000    1.1622645   -4.2815877    485.31718  0.067293009  0.068190323            1 
  602000    1.1319014   -4.3027426    482.77577  0.066829425  0.068182131            2 
  603000    1.1766375   -4.3106947     482.9083  0.066736913  0.068171802            2 
  604000    1.1613081   -4.2795096    486.98044  0.067188251  0.068163163            2 
  605000    1.1797097   -4.3094677    484.48775   0.06673385  0.068153853            3 
  606000    1.1543985   -4.2862224    486.47692  0.066897267   0.06814381            3 
  607000    1.1515047   -4.3269705    484.09802  0.066460464  0.068133606            3 
  608000    1.1729031    -4.300769    486.64026  0.066699597  0.068123066            4 
  609000    1.1739616   -4.3262128    485.37762  0.066417299  0.068111448            2 
  610000    1.1598348   -4.3152106    485.66941  0.066348281  0.068099046            2 
  611000    1.1452701   -4.3118271    486.13503  0.066303196  0.068086769            4 
  612000    1.1502284   -4.3480186    488.30559  0.066490412  0.068075205            2 
  613000    1.1536308   -4.2901058    490.96018  0.066742819  0.068062439            2 
  614000    1.1565186   -4.2758996    490.80701  0.066613329  0.068049935            4 
  615000    1.1440647   -4.3178444    488.52604   0.06619594  0.068037288            3 
  616000    1.1388059   -4.3389503    489.09534  0.066165496  0.068023932            8 
  617000    1.1264518   -4.3140378    490.56603  0.066256892  0.068009783            4 
  618000    1.1510545   -4.3132793      492.095  0.066355852  0.067996503            1 
  619000    1.1698022   -4.2890936    493.12444  0.066387243  0.067983418            1 
  620000    1.1530367   -4.3078102     492.4228   0.06618586  0.067971186            2 
  621000    1.1565987   -4.3352376     492.9419   0.06614894  0.067957778            1 
  622000    1.1546484    -4.338717    492.56673  0.065992327  0.067943245            3 
  623000    1.1384654   -4.2991312    496.30224  0.066386068  0.067929158            3 
  624000    1.1529314   -4.3412717    494.14369  0.065991412  0.067916265            1 
  625000     1.147671   -4.2753206    497.58002  0.066344002  0.067901814            1 
  626000    1.1543406   -4.3018836    498.55768  0.066368168  0.067888548            2 
  627000    1.1567266   -4.2816719     498.9806  0.066318527    0.0678738            2 
  628000    1.1368095   -4.2980493    498.91223  0.066203851   0.06786004            1 
  629000    1.1439529   -4.3156111    500.56815  0.066317984  0.067846573            2 
  630000    1.1434901   -4.3019475    502.20171  0.066428798  0.067833157            2 
  631000    1.1624087   -4.2992311    499.99239  0.066031747  0.067818833            1 
  632000    1.1583313   -4.2954315    501.86383  0.066174029  0.067805732            6 
  633000    1.1397104   -4.3143774    501.44488  0.066014334  0.067791932            2 
  634000    1.1615587   -4.2684772    504.62371  0.066328037  0.067777579            1 
  635000      1.16811   -4.3163158    501.77739   0.06585005  0.067763963            1 
  636000    1.1540292   -4.3240397    502.03835  0.065780706  0.067749569            5 
  637000    1.1273281   -4.3089361    504.99466  0.066064189  0.067736706            1 
  638000     1.156059    -4.326267    504.59302  0.065908179   0.06772341            1 
  639000    1.1511713   -4.3035588    507.35674   0.06616546  0.067709922            4 
  640000    1.1309722   -4.3431866    507.62796  0.066097391  0.067697372            1 
  641000    1.1540025   -4.3174838     510.1753  0.066325441  0.067684889            2 
  642000    1.1398285   -4.3034093    510.42045  0.066253953  0.067672525            3 
  643000     1.150584   -4.2962765    511.76121  0.066324677  0.067658785            4 
  644000    1.1928347   -4.3000678    510.34648  0.066038623  0.067645647            2 
  645000    1.1584567   -4.3218346    509.25428  0.065795126  0.067632576            5 
  646000    1.1473148   -4.3226746    510.80353  0.065893128  0.067617943            1 
  647000     1.146631   -4.3219837    511.86423  0.065927902  0.067604979            2 
  648000    1.1387487   -4.3015012    513.27145  0.066007131  0.067592346            1 
  649000    1.1378893   -4.2754981    517.00626  0.066384985  0.067579861            3 
  650000    1.1252031   -4.3002761    512.89884  0.065756262  0.067567824            2 
  651000    1.1420084    -4.320226    516.51698  0.066118405  0.067554814            2 
  652000     1.148512   -4.3088626    515.23656  0.065853344  0.067541753            3 
  653000    1.1358137   -4.2986932    516.47989  0.065911165  0.067527961            2 
  654000    1.1170238   -4.3083275    516.42885   0.06580388  0.067514387            4 
  655000    1.1537315   -4.3171746    520.05664  0.066164967   0.06750177            4 
  656000    1.1477138   -4.3092899     519.1546  0.065949517   0.06748939            2 
  657000    1.1604049   -4.3216394    520.95095  0.066076985  0.067476251            2 
  658000     1.155437   -4.3307223    519.37487  0.065776959  0.067462079            4 
  659000    1.1504614   -4.3375312    518.94803   0.06562317  0.067447356            3 
  660000    1.1542754   -4.3090536    519.29837  0.065567976  0.067432867            3 
  661000    1.1584667   -4.3124459    519.92148  0.065547337  0.067417263            2 
  662000    1.1501995   -4.3262202    520.89608  0.065571007  0.067401771            5 
  663000    1.1387497   -4.3166164    522.89623  0.065723508   0.06738726            1 
  664000     1.178043   -4.3291389    522.78904  0.065611075  0.067371926            3 
  665000     1.158247   -4.3295562    524.66886  0.065747978  0.067357542            3 
  666000    1.1432175   -4.3162839    523.76067  0.065535619  0.067344669            2 
  667000    1.1689442   -4.3403532    524.22407  0.065495261  0.067331209            1 
  668000     1.128888    -4.345391    526.39495  0.065668032  0.067316705            3 
  669000    1.1372181   -4.3188106    526.12844  0.065536676  0.067301678            2 
  670000    1.1254425    -4.311548    526.70305   0.06551033  0.067285594            3 
  671000    1.1399656   -4.3163065    527.00294  0.065449943  0.067270332            3 
  672000    1.1311469   -4.3204654    527.79404   0.06545065  0.067253958            2 
  673000    1.1456758   -4.3319411    527.20666  0.065280666  0.067238933            2 
  674000    1.1384907   -4.3124873    531.19474  0.065676897  0.067222227           10 
  675000    1.1422474   -4.3450563    529.54527  0.065375959   0.06720654            1 
  676000    1.1360314   -4.3363055    528.74998  0.065181211  0.067190667            2 
  677000    1.1455085   -4.3198496    530.07316  0.065247805  0.067173813            3 
  678000    1.1241007     -4.34574    531.23901  0.065294863  0.067158189            2 
  679000     1.159674   -4.3127277    532.20538  0.065317302  0.067142314            3 
  680000    1.1484736   -4.3232758    533.61392  0.065393863  0.067126554            2 
  681000     1.148489   -4.3600484    532.80827   0.06519925  0.067110466            5 
  682000    1.1411561   -4.3196737    536.33568  0.065534663  0.067094727            2 
  683000    1.1298235    -4.340878    535.80396  0.065373836  0.067079335            1 
  684000    1.1568929   -4.3157686    537.91659  0.065535646  0.067064149            5 
  685000    1.1354404   -4.3114895     538.5912  0.065522044  0.067048948            3 
  686000    1.1601159   -4.3371364    537.77928  0.065327901  0.067033145            1 
  687000    1.1275727   -4.3004455    539.01702  0.065382947  0.067017905            2 
  688000     1.145451    -4.342548    540.69074  0.065490641  0.067003354            3 
  689000    1.1454387   -4.3285217    540.38317   0.06535839  0.066988746            3 
  690000    1.1534976   -4.3229867    541.04885  0.065344064  0.066975151            2 
  691000    1.1559581   -4.3333527    542.36867  0.065408667  0.066961512            2 
  692000    1.1327482    -4.329051    543.44683  0.065443983  0.066947881            3 
  693000    1.1219921     -4.32302    542.88082  0.065281484  0.066933688            4 
  694000    1.1497799   -4.3454671    544.65753   0.06540076  0.066919198            4 
  695000    1.1391953   -4.3174471    544.53582  0.065292065  0.066904284            2 
  696000    1.1347074   -4.3064514    547.66516  0.065572936  0.066889345            2 
  697000    1.1316231   -4.3157923    546.08731   0.06529021  0.066875127            3 
  698000     1.132522   -4.2870809    547.73764    0.0653937  0.066860437            3 
  699000    1.1476622   -4.3386743    549.76016  0.065541268  0.066845014            2 
  700000     1.135147   -4.3403386    548.05021  0.065244072  0.066830323            2 
  701000    1.1317987   -4.3079952    550.80061  0.065477961  0.066815793            6 
  702000    1.1587833   -4.2968424    551.45729  0.065462642  0.066801065            3 
  703000    1.1527579   -4.3518766    550.45754  0.065251013  0.066785843            2 
  704000      1.13825   -4.3246467    548.93871   0.06497854  0.066770013            3 
  705000    1.1556213   -4.3320728    551.29891  0.065165356  0.066753766            7 
  706000    1.1213815   -4.3153286    551.43182  0.065088742  0.066738619            2 
  707000    1.1732571   -4.3386101    554.07695  0.065308457   0.06672388            2 
  708000    1.1510233   -4.3372786    552.54354  0.065035728  0.066708727            3 
  709000    1.1480982   -4.3675853    551.18612  0.064784452   0.06669409            3 
  710000    1.1320752   -4.3202559    554.52489  0.065085081   0.06667863            2 
  711000    1.1398594   -4.3296087    554.26618  0.064963219  0.066662888            2 
  712000    1.1217503   -4.3225654    553.99068  0.064839733  0.066646661            2 
  713000    1.1686298   -4.3541326    557.57109  0.065167261  0.066631456            4 
  714000    1.1160542   -4.3230613    557.07815  0.065018458  0.066616059            4 
  715000    1.1233768   -4.3068798    557.11402  0.064931704  0.066600811            2 
  716000    1.1531026   -4.2827937    560.30617  0.065212543  0.066586106            2 
  717000     1.156336   -4.3940253     557.7476  0.064824222  0.066571701            3 
  718000     1.116983    -4.319966    559.46014    0.0649327  0.066556212            2 
  719000    1.1391476   -4.3579452    559.69129   0.06486918  0.066541696            5 
  720000    1.1311811   -4.2938045    561.65547   0.06500642  0.066527277            2 
  721000    1.1553988   -4.3139446    564.63742  0.065260913  0.066512077            1 
  722000    1.1290259   -4.3651494    560.00624  0.064635993  0.066497501            3 
  723000    1.1385924   -4.3085576    562.46619  0.064830128  0.066482805            4 
  724000    1.1544196   -4.2802918    566.08971  0.065157655  0.066468165            3 
  725000    1.1411803   -4.3574584    563.87456  0.064813168  0.066454033            3 
  726000    1.1398418   -4.3437223    566.50855  0.065026234  0.066440103            2 
  727000    1.1328486   -4.3401206    564.73701  0.064733724  0.066425604            2 
  728000    1.1327872   -4.3414579    564.92774  0.064666637  0.066410209            2 
  729000    1.1450576   -4.3570206    564.05021  0.064477619  0.066394293            3 
  730000    1.1306448   -4.3525455    566.59793  0.064680128  0.066378521            1 
  731000     1.137838   -4.3441712    568.23911   0.06477874  0.066362482            1 
  732000    1.1455026   -4.3379722    569.88112  0.064877176  0.066346834            4 
  733000    1.1430893   -4.3264196    570.90809  0.064905422  0.066331623            4 
  734000    1.1663921   -4.3317858    571.56258  0.064891301   0.06631702            2 
  735000    1.1183604   -4.3400197    572.77227  0.064940167  0.066302435            4 
  736000    1.1350327   -4.3562591    573.29435  0.064911045  0.066288131            4 
  737000     1.116201   -4.3422618      571.254  0.064592266  0.066273563            1 
  738000    1.1263387   -4.3611257    572.59585  0.064656261   0.06625818            2 
  739000    1.1459674   -4.3861893    572.78791  0.064590427  0.066243149            6 
  740000    1.1547974   -4.3609412    574.63217  0.064710829  0.066229127            4 
  741000    1.1288343   -4.3495846    573.98363  0.064550566  0.066214837            4 
  742000    1.1362496   -4.3555858    575.22926  0.064603466  0.066200344            2 
  743000     1.143193   -4.3487085    576.45083  0.064653525  0.066185116            1 
  744000    1.1379977   -4.3120087    580.02012  0.064966411   0.06617058            1 
  745000    1.1128535   -4.3476931    578.37918  0.064695657  0.066156311            1 
  746000    1.1497803   -4.3520462    578.92792  0.064670232  0.066142243            3 
  747000    1.1175471   -4.3469019    579.43251   0.06463995  0.066128108            1 
  748000    1.1420419   -4.3311658    582.37066  0.064880867  0.066113713            2 
  749000    1.1315894   -4.3662501    581.06613  0.064649102  0.066099782            2 
  750000    1.1502164   -4.3750168     581.1846  0.064576066  0.066085457            3 
  751000    1.1493503   -4.3362597    583.81229  0.064781656  0.066071427            6 
  752000    1.1145096   -4.3628138    581.27673  0.064414532  0.066057334            2 
  753000    1.1304318   -4.3544158    583.99267  0.064629556  0.066043382            1 
  754000    1.1225902   -4.3729532    585.20433  0.064677755  0.066029261            3 
  755000    1.1677595   -4.3585989    584.89411  0.064557849  0.066015601            3 
  756000    1.1321087   -4.3473256    586.72019  0.064673742  0.066001557            3 
  757000    1.1524803   -4.3422793    588.31064   0.06476339  0.065987405            3 
  758000    1.1113831   -4.3256844    587.44348  0.064582617  0.065974494            6 
  759000    1.1316033   -4.3369554     592.0872  0.065007378  0.065960011            4 
  760000    1.1130928   -4.3742604    587.38479  0.064406227  0.065946269            3 
  761000    1.1568599   -4.3854954    591.12537  0.064731205  0.065932606            3 
  762000    1.1130853   -4.3253465    589.97347  0.064520283  0.065918567            2 
  763000    1.1284861   -4.3816801     590.5063  0.064493916  0.065904369            2 
  764000     1.147846   -4.3506389    593.40847  0.064726055  0.065890991            2 
  765000    1.1168311   -4.3625725    592.43261  0.064535142  0.065877537            1 
  766000    1.0927112   -4.3679144    592.70745  0.064480794  0.065863766            3 
  767000    1.1101206   -4.3329164    593.41143   0.06447321  0.065850328            2 
  768000    1.1550881   -4.3484433    595.86905   0.06465593  0.065836795            2 
  769000    1.1276673   -4.3451668    597.25329  0.064721856  0.065823671            5 
  770000    1.1520363    -4.344602    596.54038  0.064560647  0.065810657            3 
  771000    1.1446465   -4.3407911    598.98148  0.064740757  0.065798321            2 
  772000    1.1163926   -4.3555166    599.32833  0.064694336  0.065786238            5 
  773000    1.1306424   -4.3482765    597.06707  0.064366868  0.065774086            1 
  774000     1.136725   -4.3710261    603.47178  0.064973275  0.065762079            2 
  775000    1.1253988   -4.3197716    602.68248  0.064804567  0.065749282            3 
  776000    1.1134935   -4.3352166    601.61028  0.064605915  0.065737287            2 
  777000    1.1323558   -4.3768684    599.91673  0.064341134  0.065725025            1 
  778000    1.1466321   -4.3282249    603.01973  0.064590802  0.065712527            1 
  779000    1.1230152   -4.3887077    601.34072  0.064328275  0.065700437            2 
  780000    1.1053782   -4.3446957    605.97309  0.064740714  0.065688305            2 
  781000    1.1192804   -4.3458819    607.13472  0.064781767  0.065676801            2 
  782000     1.122211    -4.337268    604.95014  0.064466127  0.065663917            2 
  783000    1.1215899   -4.3292516    607.35218   0.06463944  0.065651602            4 
  784000    1.1218051   -4.3459929    607.44373  0.064566723   0.06563915            2 
  785000    1.1231448   -4.3827402    607.17762  0.064456223  0.065627007            2 
  786000    1.1052893   -4.3620753    606.72263  0.064325979  0.065613324            2 
  787000    1.1246143   -4.3535563     608.1737  0.064397893    0.0656009            2 
  788000    1.1387649   -4.3694756    610.51337  0.064563596  0.065588558            4 
  789000    1.1072099   -4.3571442    609.87164  0.064413988   0.06557543            4 
  790000    1.1126092   -4.3776192    608.72367  0.064211358  0.065562677            1 
  791000      1.12189   -4.3534335    611.38923  0.064411001  0.065549929            3 
  792000    1.1221536   -4.3828812    609.92268  0.064175366  0.065536955            3 
  793000    1.1292423   -4.4140556    610.45145  0.064150005  0.065523376            2 
  794000    1.1343597   -4.3720301     611.0615  0.064133239  0.065510205            4 
  795000     1.124377   -4.3670138    614.09915   0.06437098  0.065497646            3 
  796000    1.1285396   -4.3387733    613.99122  0.064278813  0.065484931            1 
  797000     1.112177   -4.3737426    612.12174  0.064002691   0.06547217            2 
  798000    1.1207351   -4.3616226    617.74798  0.064510023  0.065458768            2 
  799000     1.121861   -4.4024244    617.84422  0.064439322  0.065446184            5 
  800000    1.1133038   -4.3872764     616.4689   0.06421551  0.065434226            2 
  801000    1.0967835   -4.3373224    619.32249  0.064432219  0.065422583            3 
  802000    1.1260436   -4.3722202    618.04295  0.064218927  0.065410234            1 
  803000     1.136554   -4.3414426    622.22654  0.064573115  0.065397789            2 
  804000     1.129793   -4.3612669    618.80239  0.064137893  0.065385121            2 
  805000    1.1255781   -4.3699955    619.49548  0.064129966   0.06537233            3 
  806000     1.119959    -4.353113    623.09473  0.064422532  0.065358985            3 
  807000    1.1456165   -4.3200822    623.85239   0.06442094  0.065346967            3 
  808000    1.1246347   -4.3248808    623.79497  0.064335289  0.065335543            4 
  809000    1.1327798   -4.3637988    624.52467   0.06433093  0.065323592            3 
  810000    1.1147818    -4.337033    623.87402   0.06418457  0.065312445            2 
  811000    1.1352425   -4.3343718    625.34321  0.064256392  0.065301246            2 
  812000    1.1045884   -4.3351994    624.08584  0.064048218  0.065289439            6 
  813000    1.1177833   -4.3578343     628.2075  0.064391913  0.065276431            2 
  814000    1.0981318   -4.3309119    629.12749  0.064406991  0.065264472            2 
  815000    1.1291611   -4.3531341    627.07791  0.064118396  0.065252372            4 
  816000    1.1040375   -4.3939316    625.66431  0.063895456  0.065239162            3 
  817000    1.1079544   -4.3608375    627.82634  0.064037774   0.06522613            2 
  818000    1.1336898   -4.3756691    630.49839  0.064231702  0.065213127            3 
  819000    1.1296368   -4.3395977    630.36678  0.064139884  0.065200182            2 
  820000    1.1131469   -4.3346174     633.1065  0.064340091  0.065187043            2 
  821000    1.1334309   -4.3130952      630.453  0.063992388  0.065173748            2 
  822000    1.1228242   -4.4026561    626.48558  0.063512326  0.065160076            2 
  823000    1.1197158   -4.3288148    633.50477  0.064145886  0.065145567            3 
  824000    1.1458759   -4.3533996    631.90299  0.063906046  0.065132844            1 
  825000    1.1218312   -4.3650152    633.59375  0.063999368  0.065120196            1 
  826000    1.1059573   -4.3513102    633.57904  0.063920403  0.065107337            3 
  827000    1.1298037   -4.3712575    634.41569  0.063927417  0.065094086            3 
  828000      1.12117    -4.364949     635.4889  0.063958222  0.065081528            3 
  829000    1.1426293   -4.3251383    637.17652  0.064050716  0.065068942            2 
  830000    1.1408783    -4.338654    637.89079   0.06404526  0.065056563            2 
  831000    1.1097134   -4.3557093    639.95124  0.064174813  0.065043933            1 
  832000    1.1308003   -4.3659039    637.06897  0.063808991  0.065030677            3 
  833000    1.1361999   -4.3863327    639.98792  0.064024402  0.065017398            3 
  834000    1.1341124   -4.3437384    642.09425  0.064158099  0.065005042            3 
  835000    1.1056356   -4.3858895    641.34286  0.064006274  0.064992913            1 
  836000     1.138633   -4.3396251    639.13999  0.063710126  0.064980171            2 
  837000    1.1122628   -4.3649649    640.50544  0.063769956   0.06496723            2 
  838000    1.1136237   -4.3450568    640.15904  0.063659411  0.064953187            2 
  839000    1.1174991   -4.3825346    643.80581   0.06394575  0.064939216            2 
  840000    1.1241155   -4.3978536    642.94686   0.06378441  0.064925008            3 
  841000    1.1238413   -4.3546783    643.18014  0.063731682  0.064912223            2 
  842000    1.1087205   -4.3850427    644.58283  0.063794817  0.064898882            3 
  843000    1.1135452   -4.3862292    645.37249  0.063797201   0.06488578            3 
  844000    1.1093946   -4.3650208    645.89231  0.063772938  0.064872277            3 
  845000    1.1178653   -4.3725252    646.82097   0.06378905  0.064859402            2 
  846000    1.1197181   -4.3504238    648.99577  0.063927873  0.064846043            3 
  847000    1.1352409    -4.372844    646.61497  0.063618159  0.064832931            1 
  848000    1.1233031   -4.3554587    646.63797  0.063545398  0.064819462            2 
  849000    1.1306078   -4.3873039    648.12673   0.06361668  0.064805481            5 
  850000     1.116874   -4.3725287    648.72891  0.063600873   0.06479193            4 
  851000    1.1339519   -4.3600323    647.49208  0.063405022  0.064778012            3 
  852000    1.1077172   -4.3586454    649.29805  0.063507243  0.064764756            2 
  853000    1.1189704   -4.3937568    648.90035  0.063393938   0.06475039            3 
  854000    1.1315382   -4.3609814    651.56294  0.063579522  0.064736879            3 
  855000    1.1000756   -4.3825287    653.02474  0.063647636  0.064723498            3 
  856000    1.1277116   -4.3958791    653.00205  0.063571071  0.064710034            2 
  857000    1.1464446   -4.3549804    654.51247  0.063643764  0.064696633            4 
  858000    1.1076797   -4.3535462    655.43858  0.063659536  0.064682622            2 
  859000    1.1182432   -4.3701915    654.07506  0.063453149  0.064669521            2 
  860000    1.0975049   -4.3774155    655.10054  0.063478735  0.064655656            6 
  861000    1.1343465   -4.3653887    653.74993  0.063274287  0.064640525            1 
  862000    1.1248388   -4.3601224    656.04413  0.063422673   0.06462548            1 
  863000    1.0881415   -4.3447016    658.47112  0.063583538  0.064610621            2 
  864000    1.1185586   -4.3991509    656.17865  0.063288835   0.06459517            3 
  865000    1.1261709   -4.3633351    656.78988  0.063274555   0.06457925            6 
  866000    1.0934116   -4.3558753    659.34817  0.063447668  0.064563353            3 
  867000    1.1421228   -4.3455649    658.55387  0.063298142  0.064547765            6 
  868000    1.0993919   -4.3569468    658.35515   0.06320614  0.064533223            4 
  869000    1.0968222   -4.3432344    662.46657  0.063527672  0.064518747            3 
  870000    1.1401102   -4.3721331     659.8127   0.06320045  0.064503862            2 
  871000    1.0924428   -4.3819247    659.63384  0.063110776  0.064488782            2 
  872000    1.1333864   -4.3951846    660.86897  0.063156438  0.064474448            2 
  873000    1.1098193   -4.3784891    663.16194  0.063302972  0.064461012            2 
  874000    1.1234088   -4.3719055    660.86493   0.06301153  0.064445825            2 
  875000    1.1146986   -4.3634687    663.08111  0.063150582  0.064431102            3 
  876000    1.0948333   -4.3738559    663.46425   0.06311494  0.064416579            8 
  877000    1.0831131   -4.4036631    660.71796  0.062782018  0.064401418            4 
  878000    1.0828321   -4.3751533    663.75783  0.062999034  0.064386009            2 
  879000    1.0872583   -4.3580023    666.91348  0.063226534  0.064371276            2 
  880000    1.1274783   -4.3698415     667.2466  0.063186231  0.064357603            3 
  881000     1.097378   -4.4052564    667.92113  0.063178314   0.06434307            5 
  882000    1.1076695   -4.4065574    667.75633  0.063091112  0.064328613            2 
  883000    1.0982002   -4.3822883    669.97996  0.063229516   0.06431466            3 
  884000    1.1283796   -4.3500655    670.28643   0.06318688  0.064300811            2 
  885000    1.1259498   -4.3879091    672.17042  0.063292883  0.064287499            2 
  886000    1.1094606   -4.3937198    670.58706  0.063072522  0.064273806            3 
  887000    1.1038244    -4.384522    671.23787  0.063062558  0.064259738            1 
  888000    1.1281009   -4.3957992    674.86428  0.063331859  0.064246518            3 
  889000    1.0939092   -4.3769141    674.00517  0.063180088  0.064232186            3 
  890000    1.1016766   -4.3668266    673.29723  0.063042812   0.06421827            3 
  891000    1.1052956   -4.3996546    672.91647  0.062936445  0.064204666            4 
  892000    1.1064512   -4.3837777    673.42107   0.06291303  0.064190679            2 
  893000    1.1174053   -4.3735006    674.49542  0.062942835   0.06417692            2 
  894000    1.1225661   -4.3605532    677.93062  0.063192637  0.064163472            3 
  895000    1.1251317   -4.3973048    676.71533  0.063008876  0.064150124            3 
  896000    1.1012418   -4.3506398    680.10933  0.063254216   0.06413677            3 
  897000    1.1318806    -4.377325    678.33671  0.063019018  0.064123921            1 
  898000    1.1012467   -4.4237972     677.6132    0.0628817  0.064109711            2 
  899000    1.1179071   -4.3857665    679.36163  0.062973825  0.064096101            5 
  900000    1.1162557   -4.3732688    682.55492  0.063199529  0.064082477            3 
  901000    1.1354499   -4.3587553    682.92119  0.063163262  0.064069054            3 
  902000    1.0845871   -4.3605642    681.19888  0.062934116  0.064055695            3 
  903000    1.0985735    -4.381532    682.12511    0.0629499  0.064042564            3 
  904000      1.12314   -4.4024667    682.49138  0.062914028  0.064029523            2 
  905000    1.1043863    -4.345099     685.2669  0.063100083  0.064016033            3 
  906000    1.1303546   -4.4018471    682.78781   0.06280241  0.064002086            2 
  907000    1.0851737   -4.3928373    682.71614  0.062726584  0.063987557            2 
  908000    1.0962413   -4.3594483    686.09725  0.062967809  0.063973661            2 
  909000    1.1239468   -4.3863924    687.85386  0.063059577  0.063960482            1 
  910000    1.1098822    -4.353075    689.33512  0.063125926  0.063947108            4 
  911000    1.0871695   -4.3793084    686.76983  0.062821975  0.063933459            2 
  912000    1.1088134   -4.3971865    689.40743    0.0629941  0.063920853            2 
  913000    1.1149668   -4.3809964    691.40915  0.063107808  0.063907411            2 
  914000    1.1142863   -4.4023511    691.61519  0.063057548  0.063894252            5 
  915000    1.1015683    -4.374832    694.28413  0.063231706  0.063881521            2 
  916000    1.0841745   -4.3801575    691.90526  0.062946257  0.063869333            2 
  917000    1.1134814   -4.3975549    694.49147  0.063112638  0.063857011            1 
  918000    1.1244458   -4.4175748    693.02416  0.062910689  0.063844293            4 
  919000    1.1317555   -4.4001667    693.98284  0.062929166  0.063831952            3 
  920000    1.0845722   -4.4100849    692.92729  0.062765153  0.063819062            4 
  921000    1.0997898   -4.4081801    694.29148  0.062820438  0.063806504            1 
  922000    1.1125474   -4.3519457    694.91912  0.062809031  0.063793794            2 
  923000    1.0784406   -4.3977626    698.83098  0.063094165  0.063781345            3 
  924000    1.0940078   -4.3719301    697.70941  0.062924731   0.06376882            1 
  925000    1.1023726   -4.3889193    697.41912  0.062830551  0.063756757            6 
  926000    1.1001975   -4.4196331    696.23374  0.062656024  0.063744471            3 
  927000    1.1228412   -4.3926101    701.65355  0.063075652  0.063732579            1 
  928000    1.1165656   -4.3717419    703.72476  0.063193675  0.063720785            2 
  929000    1.0746032   -4.4334607    700.25791  0.062814667  0.063709348            5 
  930000    1.1102032   -4.3785419    702.02105  0.062905112  0.063697586            1 
  931000    1.0881164    -4.423949     702.3287  0.062865082  0.063686338            5 
  932000    1.1215551   -4.3995636    704.78382  0.063017151  0.063675142            3 
  933000    1.1026007   -4.4154879    703.54171  0.062838667  0.063663655            4 
  934000      1.09525   -4.3798771    707.88846  0.063159213  0.063651863            2 
  935000    1.1164022   -4.4022846    707.75909  0.063080132  0.063641128            4 
  936000    1.1095913   -4.3985623    707.06105  0.062950592  0.063630383            3 
  937000    1.1124253   -4.3938056    709.39023  0.063090557  0.063619453            2 
  938000     1.111124   -4.4002197    708.32357  0.062928533  0.063608921            2 
  939000    1.0914825    -4.388592    709.55206  0.062970542  0.063598478            4 
  940000    1.0808103   -4.4069691    711.54351  0.063080098  0.063588069            2 
  941000    1.0960453   -4.3633014    711.55864  0.063014403  0.063577495            5 
  942000    1.0914144   -4.3993047     710.8554  0.062885297  0.063566542            2 
  943000    1.0746008   -4.3828708     714.8117   0.06316823  0.063555698            2 
  944000    1.1048712   -4.3743329    717.65874  0.063352643  0.063545367            4 
  945000    1.1003063   -4.3659041      714.386  0.062997002  0.063535159            1 
  946000    1.1006101   -4.3571339    716.82406  0.063145178  0.063524863            4 
  947000    1.1010057   -4.3612277    715.59404  0.062970261  0.063514205            3 
  948000    1.1353206   -4.4160335    716.67984  0.062999283  0.063503754            3 
  949000    1.0804571   -4.3870103    716.20389  0.062891103   0.06349277            4 
  950000    1.0787839   -4.3959306    718.27779  0.063006823  0.063481761            4 
  951000    1.0829202   -4.4479765    712.90588  0.062469846  0.063470659            3 
  952000    1.1231448   -4.4134005    717.21172  0.062781138  0.063459604            3 
  953000    1.0971919    -4.411794    716.30179  0.062635693  0.063449083            2 
  954000      1.08914   -4.4164081    719.96742  0.062890236  0.063438569            3 
  955000    1.1114656   -4.3631958     723.0459  0.063093011  0.063428426            3 
  956000     1.110654   -4.3818078    721.09095  0.062856603  0.063418035            4 
  957000     1.107631   -4.4117436    719.57999  0.062659351  0.063407833            2 
  958000    1.1219036   -4.3918014    722.54763   0.06285209  0.063397754            2 
  959000    1.1071622   -4.3902747    720.31911  0.062592902  0.063387207            2 
  960000    1.1031917   -4.4008333    724.04409   0.06285105  0.063376596            3 
  961000    1.0805229   -4.3950945    722.58611  0.062659219  0.063365906            2 
  962000    1.1167307   -4.4294826    722.85815   0.06261765   0.06335538            6 
  963000    1.0792179   -4.4023188    724.92294  0.062731303  0.063344411            2 
  964000    1.1086545   -4.4149426    726.75146  0.062824296  0.063333569            2 
  965000    1.0951153   -4.4098629    728.17028  0.062881716  0.063322829            7 
  966000    1.0827662   -4.3840083    726.82309  0.062700404  0.063312397            3 
  967000    1.0718737   -4.3848552    729.90912  0.062901509  0.063302022            2 
  968000    1.0886407   -4.3962411    730.17874   0.06285974  0.063292242            3 
  969000     1.111445   -4.4211558    731.71688  0.062927148  0.063282542            1 
  970000    1.1096676   -4.4026602    730.58276  0.062764842  0.063273028            4 
  971000    1.1057886   -4.4261085    731.25494   0.06275789  0.063263359            3 
  972000     1.096515   -4.4008636    731.72326  0.062733476   0.06325291            5 
  973000     1.076995   -4.4134037    731.65529   0.06266318  0.063243058            2 
  974000    1.0719377   -4.4206548    733.01601  0.062715264  0.063232988            3 
  975000    1.1048506   -4.4328265    733.77154  0.062715516  0.063223087            3 
  976000    1.1152751   -4.3982094    736.43975  0.062879077  0.063212781            2 
  977000    1.0702294   -4.3965531    732.71653  0.062497145  0.063202912            2 
  978000     1.087928   -4.3774005    738.17011   0.06289793  0.063192869            5 
  979000     1.094217   -4.4302987     736.5776  0.062698127   0.06318242            2 
  980000    1.0903659   -4.4366233    736.17325  0.062599766  0.063171686            2 
  981000    1.0857075   -4.3981748    739.53092  0.062821179  0.063160725            2 
  982000    1.1056236   -4.3586618    740.28001  0.062820775  0.063150226            4 
  983000    1.0948672   -4.3987114    737.46467  0.062518199  0.063140221            3 
  984000    1.1115497   -4.4074881    739.49458  0.062626573  0.063129687            1 
  985000     1.091116   -4.4150718    738.96029  0.062517791  0.063119405            2 
  986000    1.0755795   -4.4475683    735.87502  0.062193629  0.063108885            4 
  987000    1.0740602   -4.3760786    743.96856  0.062813961   0.06309854            3 
  988000    1.1150089   -4.4044413    744.49887  0.062795114  0.063088433            2 
  989000    1.0995658   -4.4008533    744.35925  0.062719856  0.063078808            2 
  990000     1.078851   -4.3963609    743.77884  0.062607647  0.063069158            3 
  991000    1.0703141   -4.4233528    744.01311   0.06256417  0.063059584            2 
  992000    1.1019811   -4.4268326    745.19902  0.062600724  0.063049816            3 
  993000    1.0803347   -4.4112376    746.69636   0.06266334  0.063040124            2 
  994000    1.0970722   -4.4171941    748.59653  0.062759601  0.063029979            2 
  995000    1.0886824   -4.4039987    747.92148   0.06263999  0.063020444            2 
  996000    1.1085279   -4.3873981    752.19145  0.062934358  0.063010412           10 
  997000    1.0814489   -4.4321042    746.35148  0.062383106  0.062999974            2 
  998000    1.0861351   -4.4200518    747.10142  0.062383218  0.062988937            3 
  999000    1.0788222   -4.4370395    745.63085  0.062198102  0.062978489            3 
 1000000    1.1057689   -4.4431845    749.01393  0.062417827   0.06296827            4 
 1001000    1.0682308   -4.4410533    747.31889   0.06221436  0.062957834            3 
 1002000    1.0875362   -4.4198362    750.11078  0.062384463  0.062947145            2 
 1003000    1.0898445   -4.4425811    751.97817  0.062477415  0.062936641            4 
 1004000    1.0999767   -4.4149133    752.04158   0.06242045  0.062926201            4 
 1005000    1.0829151   -4.3736952    753.33159  0.062465306  0.062915812            1 
 1006000    1.0920712    -4.444372    750.09299  0.062134939  0.062905604            2 
 1007000    1.0517995   -4.3931312    755.54567  0.062524467   0.06289496            4 
 1008000    1.0988104   -4.3922401    755.65123  0.062471166  0.062884848            4 
 1009000    1.0851351    -4.407888    756.42271  0.062472969  0.062874654            3 
 1010000    1.1255668   -4.3825137     753.5291  0.062172368  0.062864157            4 
 1011000    1.0695111    -4.378784    756.73704  0.062375292  0.062853373            2 
 1012000    1.0643321   -4.4387741    755.49674  0.062211523  0.062842857            4 
 1013000      1.10607   -4.4388687    755.65682  0.062163279  0.062831853            2 
 1014000    1.0737889   -4.4334648    752.38612  0.061833179  0.062820628            3 
 1015000    1.0667384   -4.4399623    758.17668  0.062247675  0.062809099            1 
 1016000    1.0818749   -4.3910346     758.3946  0.062204281  0.062797966            4 
 1017000    1.1089765   -4.4079423    758.84345  0.062179896  0.062786916            3 
 1018000    1.0736069   -4.3840666    757.80017  0.062033413  0.062775508            2 
 1019000    1.0823152   -4.4126611    758.01127    0.0619898  0.062764263            2 
 1020000    1.0966291   -4.4109968    755.57248  0.061729778  0.062752133            3 
 1021000    1.0770799   -4.4112049    758.31526  0.061893181  0.062740561            7 
 1022000    1.0851356   -4.4239415    760.38839  0.062001663  0.062728116            5 
 1023000    1.1125845   -4.4182051     759.3563  0.061856981  0.062716311            4 
 1024000      1.10302    -4.470054     758.1193  0.061695907  0.062703915            3 
 1025000    1.1048005   -4.3970735    760.81766  0.061855094  0.062691995            3 
 1026000    1.1058307   -4.3807534    760.68842  0.061784309  0.062679902            1 
 1027000    1.1003761   -4.4424857    763.00486  0.061912112  0.062667994            3 
 1028000    1.0934547   -4.4248229    764.54622  0.061976834  0.062656006            2 
 1029000    1.0879495   -4.4452916    763.83396  0.061858921  0.062643812            2 
 1030000    1.0974773   -4.4242957    764.73252  0.061871563  0.062631296            5 
 1031000    1.1056225   -4.4402165    762.70979  0.061648059   0.06261935            1 
 1032000    1.1068485   -4.4344667    764.96619  0.061770525  0.062606867            1 
 1033000    1.0681125   -4.4303054     766.1865  0.061809172  0.062594716            4 
 1034000    1.0697661   -4.4318558    769.51277   0.06201747  0.062583045            3 
 1035000    1.0798178    -4.421083      768.306  0.061860387  0.062571044            3 
 1036000    1.0969679   -4.3835914    767.70069  0.061751986  0.062558908            1 
 1037000      1.08125   -4.4009916    769.82533  0.061863173  0.062547248            2 
 1038000    1.1040365   -4.4304533     765.9434  0.061491924  0.062534929            5 
 1039000    1.0675165   -4.3999729    768.78389  0.061660562  0.062522349            3 
 1040000    1.0817324   -4.4053691    766.40073  0.061410315  0.062509819            3 
 1041000    1.0616502   -4.4234459    770.04214  0.061642823  0.062497357            4 
 1042000    1.0975108    -4.382277    773.58634   0.06186711  0.062485412            2 
 1043000    1.0773127    -4.416599    771.15341  0.061613408   0.06247343            3 
 1044000    1.0777377   -4.4142475    771.99287  0.061621398  0.062461407            4 
 1045000     1.073079   -4.4120267    774.26306  0.061743466   0.06244976            3 
 1046000     1.072963   -4.4399007    773.14069   0.06159502  0.062438047            2 
 1047000    1.0597743   -4.4173295    776.65179  0.061815647  0.062426674            2 
 1048000    1.0908944   -4.4192306    777.13917  0.061795418  0.062415907            3 
 1049000    1.1015035   -4.4277538    776.57683  0.061691835  0.062403987            3 
 1050000    1.0729365   -4.4233474    779.39559  0.061856793  0.062392475            2 
 1051000    1.0950888   -4.4739682    776.07829  0.061534911  0.062380358            3 
 1052000    1.0787213   -4.4421904    778.84457  0.061695546  0.062368034            2 
 1053000    1.0677416   -4.4051628    778.32721  0.061596012  0.062355741            1 
 1054000    1.0838561   -4.4091014    780.39834  0.061701323   0.06234382            2 
 1055000    1.0852801   -4.4349303    779.72143   0.06158937  0.062332352            2 
 1056000    1.0727965   -4.4220243    779.86418  0.061542312  0.062320624            3 
 1057000    1.0827106   -4.4219452     782.0242  0.061654383  0.062309565            3 
 1058000    1.0677802   -4.4010572    783.71157  0.061729014  0.062298581            4 
 1059000    1.0762742   -4.4150155     784.6305  0.061743036  0.062286931            2 
 1060000    1.0716523   -4.4239436     784.7784  0.061696415  0.062275104            2 
 1061000    1.0903317   -4.4282443    786.32901  0.061760054  0.062263201            4 
 1062000    1.0930819   -4.4166222    784.17445  0.061532835  0.062251544            2 
 1063000    1.0880226   -4.4031597    785.85708  0.061606858   0.06224043            4 
 1064000     1.078771    -4.418419    786.98459  0.061637264  0.062229429            2 
 1065000    1.0709153   -4.3829734    790.32216  0.061840545  0.062218287            2 
 1066000      1.10951   -4.4459193    786.87028  0.061512686  0.062207056            4 
 1067000    1.0722674    -4.394967    790.10732  0.061707851  0.062195343            4 
 1068000    1.0787935   -4.4030515    787.91917  0.061479336  0.062183969            5 
 1069000    1.0902329   -4.4277463    787.86401  0.061417525  0.062172473            4 
 1070000    1.0806409   -4.4046851    791.91038  0.061675263  0.062160923            1 
 1071000    1.0771043   -4.4247546    788.97682  0.061389419  0.062149175            2 
 1072000    1.0670107   -4.3936547     793.2989  0.061668136  0.062137629            2 
 1073000    1.0884942   -4.4511458    792.82253  0.061573666  0.062126032            2 
 1074000    1.0689794   -4.4189944    796.03724   0.06176577  0.062114753            1 
 1075000    1.0915043   -4.4239853    794.49596  0.061588834  0.062103606            2 
 1076000    1.0853765   -4.4293496    795.67161  0.061622647   0.06209239            9 
 1077000    1.0740683   -4.4073287     794.5248  0.061476695  0.062081187            2 
 1078000    1.0969339   -4.4191435     795.6046  0.061503139  0.062069686            3 
 1079000    1.0497875     -4.43088    795.50809  0.061438684  0.062058776            3 
 1080000    1.0875095   -4.3836517    798.80204   0.06163596  0.062047985            2 
 1081000     1.082634   -4.4368396    799.25202  0.061613631  0.062037303            4 
 1082000    1.0751166   -4.4659601     798.5769   0.06150469   0.06202651            4 
 1083000    1.0717948    -4.412592     798.9813  0.061479017  0.062015877            4 
 1084000    1.0978536    -4.444661    798.03203  0.061349326  0.062004947            1 
 1085000    1.0635922   -4.4659601    800.04334  0.061447261  0.061993757            3 
 1086000    1.0687948   -4.4421423    799.85289  0.061376066  0.061982651            3 
 1087000    1.0742168   -4.4577197    801.24143  0.061426052  0.061971565            6 
 1088000    1.0680272   -4.4243499    802.07355   0.06143333  0.061960694            2 
 1089000    1.0687661   -4.4195949    806.23711  0.061695524   0.06194962            3 
 1090000    1.1037927   -4.4235906    803.69293  0.061444414  0.061938242            3 
 1091000    1.0495534   -4.4247256    805.13811  0.061498481   0.06192745            2 
 1092000    1.0672635   -4.4484911     801.9444  0.061198443  0.061916679            4 
 1093000     1.065825   -4.4200318    806.08453  0.061458107  0.061905722            1 
 1094000    1.0900229   -4.4503663    801.95576  0.061087429  0.061894614            3 
 1095000    1.0919261   -4.4358695    804.87029  0.061253447  0.061883109            4 
 1096000    1.0889367   -4.4345365    805.60758  0.061253618  0.061871434            2 
 1097000    1.0881946   -4.4297528    803.66998  0.061050591  0.061860239            2 
 1098000    1.0488782   -4.4383112    805.55759   0.06113825  0.061848358            5 
 1099000    1.0876568   -4.4559556     807.8459  0.061256134  0.061836683            2 
 1100000    1.0932596   -4.4665306    803.70616  0.060886831  0.061824944            3 
 1101000    1.1032019   -4.4526665    806.16931  0.061017962  0.061813047            2 
 1102000    1.0878327   -4.4293952    810.81478  0.061313882  0.061801782            3 
 1103000    1.0700955   -4.4315614    808.79715  0.061105859  0.061790136            2 
 1104000    1.0832977   -4.4361013     808.8547  0.061054853  0.061778646            3 
 1105000    1.0624594   -4.4416683    812.02546  0.061238722  0.061767027            2 
 1106000    1.0585803   -4.4264282    810.87368   0.06109657  0.061755231            1 
 1107000    1.0797536   -4.4441945    813.10001  0.061208974  0.061743249            6 
 1108000    1.0527961   -4.4578072    812.39053  0.061100371  0.061731698            3 
 1109000    1.0782033   -4.4363628    814.43527  0.061198923  0.061719911            3 
 1110000    1.0792817   -4.4791986    811.47769  0.060921749  0.061707924            3 
 1111000    1.0746944   -4.4124345    813.63453  0.061028692  0.061696347            3 
 1112000    1.0754331   -4.4519645    815.55919  0.061118045  0.061684867            3 
 1113000    1.0877091   -4.4197147    813.88707  0.060937936  0.061673666            5 
 1114000    1.0455527   -4.4386142     815.1391  0.060976893  0.061662137            2 
 1115000    1.0789525   -4.4117361    819.68597  0.061262031  0.061650751            3 
 1116000    1.0540802   -4.4774276    814.55783  0.060824211  0.061639536            3 
 1117000    1.0891597   -4.4108611    822.64757  0.061373289  0.061628388            2 
 1118000     1.079493   -4.4501309    817.03964   0.06090039    0.0616172            5 
 1119000     1.077241   -4.4257277    818.60685  0.060962679  0.061606146            5 
 1120000    1.0560913   -4.4193398    822.15211  0.061172032  0.061594572            1 
 1121000    1.0856617   -4.4216846    822.01843  0.061107525  0.061582801            3 
 1122000    1.0708952    -4.453217    820.82161  0.060964172  0.061571755            1 
 1123000    1.0687159   -4.4704519     820.3831  0.060877345  0.061560527            4 
 1124000    1.0545376   -4.4306488    821.23829  0.060886587  0.061548779            2 
 1125000    1.0752862    -4.437532    822.60128  0.060933428  0.061537574            4 
 1126000    1.1035235   -4.4164437    822.87493  0.060899566  0.061526257            1 
 1127000    1.0894734   -4.4485018    826.09992  0.061083993  0.061514738            3 
 1128000     1.074325   -4.4525703    821.64214  0.060700512  0.061502703            1 
 1129000    1.0545984   -4.4323302    824.90892  0.060887874  0.061491245            2 
 1130000    1.0594988   -4.4154337    827.04698  0.060991665  0.061480015            3 
 1131000    1.0478139   -4.4480753    826.82657  0.060921498  0.061468749            4 
 1132000    1.0663248   -4.4630277    826.40516  0.060836658   0.06145717            1 
 1133000    1.0579132     -4.45904    826.50988  0.060790665  0.061445876            3 
 1134000    1.0808791   -4.4247961    827.41916  0.060803877  0.061434282            3 
 1135000    1.0717863   -4.4649534    827.67532  0.060769113  0.061423165            2 
 1136000    1.0617128    -4.482418    828.38501   0.06076768  0.061411783            2 
 1137000    1.0445181   -4.4569216    831.11639  0.060914423  0.061400858            3 
 1138000    1.0406138    -4.465421     830.9128  0.060845987  0.061390119            6 
 1139000    1.0805182   -4.4493417    833.00534  0.060945664  0.061378537            5 
 1140000    1.0666935   -4.4667992    833.34707  0.060917184  0.061366904            3 
 1141000    1.0641899   -4.4609091    829.81284  0.060605671   0.06135585            3 
 1142000    1.0733551   -4.4660336    832.34013  0.060737021  0.061344146            6 
 1143000    1.0739082   -4.4560922    833.70903  0.060783686  0.061332896            2 
 1144000    1.0586244   -4.4396265    833.81928  0.060738584  0.061321073            9 
 1145000    1.0745693   -4.4475737    832.43256  0.060584612  0.061309465            1 
 1146000    1.0671728   -4.4492042    834.55451  0.060686046  0.061297607            3 
 1147000    1.0618806   -4.4480684    834.76992  0.060648788  0.061285923            2 
 1148000    1.0793005   -4.4187414    834.77635  0.060596425  0.061274415            3 
 1149000    1.0766209   -4.4367334    835.36214  0.060586172  0.061262907            2 
 1150000    1.0787047   -4.4135418    836.61444  0.060624235  0.061250667            5 
 1151000    1.0736216   -4.4656289    837.51409  0.060636699  0.061238941            2 
 1152000    1.0556462   -4.4091558    841.55847  0.060876626  0.061226986            1 
 1153000    1.0646835   -4.4383858    839.96139  0.060708397  0.061215219            1 
 1154000    1.0754044   -4.4515534    839.25163  0.060604537  0.061203725            4 
 1155000    1.0867415    -4.458879    842.66644  0.060798444  0.061192002            4 
 1156000    1.0735908   -4.4657707    839.42746   0.06051236   0.06118071            2 
 1157000    1.0829637   -4.4262065    843.54761  0.060756814  0.061169062            1 
 1158000    1.0513156    -4.471803    841.57294  0.060562244  0.061157594            7 
 1159000    1.0779623    -4.458125    840.93779  0.060464322  0.061146084            3 
 1160000    1.0794692   -4.4605565     842.1907  0.060502206  0.061134653            3 
 1161000    1.0674501   -4.4606666     843.0035  0.060508433  0.061122938            5 
 1162000    1.0629735   -4.4737301    841.24434  0.060330202   0.06111155            2 
 1163000    1.0798792   -4.4079372       847.39  0.060718687  0.061099702            2 
 1164000    1.0410487   -4.4727355    841.19532  0.060223033  0.061088519            2 
 1165000    1.0731384   -4.4734136    846.52926   0.06055288  0.061076536            3 
 1166000    1.0437009   -4.4652419    844.39359  0.060348313  0.061064898            3 
 1167000     1.045571   -4.4354244    845.46117  0.060372834  0.061053194            6 
 1168000    1.0509032   -4.4666263    844.94543  0.060284349  0.061040894            2 
 1169000    1.0668452   -4.4763501    845.91932  0.060302204  0.061028676            3 
 1170000    1.0547259   -4.4398885    846.66379  0.060303689  0.061016299            2 
 1171000    1.0595332   -4.4681706    847.66313  0.060323309  0.061004204            2 
 1172000    1.0575969   -4.4654799    846.23074   0.06016999  0.060991831            2 
 1173000     1.076495    -4.455083    846.66689   0.06014968  0.060979546            3 
 1174000    1.0748862   -4.4537817    847.75778  0.060175878  0.060967262            2 
 1175000    1.0901876   -4.4702499    848.67881  0.060189987  0.060955504            2 
 1176000    1.0537153   -4.4741908    849.08207  0.060167381  0.060943688            3 
 1177000    1.0785658    -4.450601    850.14575  0.060191571  0.060931442            4 
 1178000    1.0326734   -4.4727723    846.65674  0.059893657  0.060919248            3 
 1179000    1.0637412   -4.4673371    850.23374  0.060095684  0.060906981            5 
 1180000    1.0687129   -4.4795522    856.82291  0.060510092  0.060894834            2 
 1181000    1.0563949   -4.4724151    851.61772   0.06009157  0.060883022            5 
 1182000    1.0963191   -4.4963304    848.28895  0.059806045  0.060871202            4 
 1183000    1.0760002   -4.4615367    851.61977  0.059990122  0.060859114            2 
 1184000    1.0617438   -4.4481512    855.17938   0.06018999  0.060846826            2 
 1185000    1.0562356   -4.4862027    853.47289   0.06001919  0.060834988            3 
 1186000    1.0583351   -4.4610445    857.07057  0.060221372  0.060823071            2 
 1187000    1.0607949   -4.4502293    857.87395  0.060227039  0.060811146            3 
 1188000    1.0486092      -4.4563    857.99296  0.060184691  0.060799012            3 
 1189000    1.0425611   -4.4862506    855.66478  0.059970899  0.060786727            1 
 1190000    1.0507706   -4.4376672    861.59714  0.060335934  0.060774833            3 
 1191000    1.0399205   -4.4610345    858.30544  0.060054957  0.060763345            1 
 1192000    1.0794528   -4.4580595     861.5005  0.060227943  0.060751582            3 
 1193000    1.0700952   -4.5125019    861.31229  0.060164312  0.060739992            2 
 1194000    1.0394487   -4.4818564    861.49077   0.06012638  0.060728307            3 
 1195000    1.1033625   -4.4623965    864.53391  0.060288278  0.060717139            5 
 1196000    1.0853059   -4.4845716    865.74632  0.060322347  0.060705806            2 
 1197000    1.0436815   -4.5120103    862.88775  0.060072943  0.060694561            3 
 1198000    1.0683137   -4.4665933    862.62405  0.060004455  0.060682903            5 
 1199000    1.0512006   -4.4789302    864.75365  0.060102422  0.060671658            3 
 1200000    1.0671344   -4.4663235    867.23302  0.060224515  0.060660463            3 
 1201000    1.0516771   -4.4373818    868.58942  0.060268486  0.060649278            3 
 1202000    1.0528086   -4.4307217    867.52558  0.060144591  0.060638511            2 
 1203000    1.0414895   -4.4439399    862.81035  0.059767965  0.060627386            2 
 1204000    1.0671701   -4.4515174    869.47889  0.060179879  0.060616512            4 
 1205000    1.0570602   -4.4722249    868.62169  0.060070657  0.060605515            2 
 1206000    1.0518266   -4.4534328    871.21163  0.060199809  0.060594445            2 
 1207000     1.049911    -4.483314     872.4752  0.060237172   0.06058316            4 
 1208000    1.0673362   -4.4284794    870.46564  0.060048678  0.060571766            4 
 1209000    1.0200681   -4.4892889    869.58643  0.059938409  0.060560449            3 
 1210000    1.0580714   -4.4848895    873.49633   0.06015815  0.060548905            2 
 1211000    1.0463828   -4.4708853    873.61328  0.060116521  0.060537792            2 
 1212000    1.0767199   -4.4979398    872.22635  0.059971559  0.060526642            2 
 1213000    1.0416013   -4.4294534    873.61197   0.06001731  0.060515816            3 
 1214000    1.0438609      -4.4776    871.93618   0.05985284   0.06050434            4 
 1215000    1.0341215   -4.4924482    871.57609  0.059778881  0.060493016            2 
 1216000    1.0471829   -4.4767331    874.52484  0.059931801  0.060481792            8 
 1217000    1.0753428   -4.4931833    876.99232  0.060051515   0.06047063            3 
 1218000    1.0477571   -4.4737927    877.25305   0.06002005  0.060459442            2 
 1219000    1.0530257    -4.497548    876.62804  0.059928086  0.060448314            4 
 1220000    1.0800966   -4.4560745     875.5281  0.059803832  0.060437435            1 
 1221000    1.0564223    -4.462394    878.79962  0.059978134  0.060426496            2 
 1222000    1.0621571   -4.5011296     879.0119  0.059943528  0.060415498            2 
 1223000    1.0491897    -4.488222    877.63128  0.059800441  0.060403971            6 
 1224000    1.0450596   -4.4707811    882.10017  0.060055839  0.060392787            2 
 1225000    1.0609336   -4.4580865    883.41153  0.060096023  0.060382419            3 
 1226000    1.0373798   -4.4709225    880.10409  0.059822192   0.06037163            3 
 1227000    1.0643663   -4.4901313    883.10125  0.059976993  0.060361082            1 
 1228000    1.0687802   -4.4349758    883.63264  0.059964213  0.060350742            2 
 1229000    1.0632832   -4.4597509    887.63393  0.060186732  0.060340694            3 
 1230000    1.0550985   -4.4808881    885.25837  0.059976855  0.060330932            7 
 1231000    1.0657245   -4.4639015    887.78117  0.060098915  0.060320902            2 
 1232000    1.0579709   -4.4836888    886.43528  0.059959096  0.060311281            2 
 1233000    1.0339355   -4.4799724    887.53496  0.059984791   0.06030155            4 
 1234000    1.0708092   -4.4976263    888.91872  0.060029627  0.060291273           10 
 1235000    1.0486848   -4.4913151    886.90304  0.059845009  0.060281443            2 
 1236000    1.0622303   -4.4642867    894.52225  0.060310292  0.060271962            2 
 1237000    1.0648905   -4.4732806    892.07937  0.060096966  0.060262371            1 
 1238000    1.0486087   -4.4618584    891.59566  0.060015863   0.06025307            2 
 1239000    1.0503965   -4.4613689    892.60937  0.060035604  0.060243398            3 
 1240000      1.07975   -4.4467171    894.97556  0.060146207  0.060233718            2 
 1241000    1.0575904   -4.4879959    890.71967  0.059811957  0.060223515            2 
 1242000    1.0779972   -4.4963463    891.45162  0.059812911  0.060213326            5 
 1243000    1.0588446   -4.4673917    895.72842  0.060051516  0.060203287            2 
 1244000    1.0540301   -4.4745354    895.36729  0.059979052   0.06019329            2 
 1245000    1.0552263   -4.4860486    894.03832  0.059841922  0.060183336            6 
 1246000    1.0549139   -4.4612732    898.19579  0.060071949  0.060173481            2 
 1247000    1.0477205   -4.5095203    895.20374  0.059823827  0.060163266            2 
 1248000    1.0771255   -4.4755131    895.79489  0.059815364  0.060153008            2 
 1249000    1.0716284    -4.501317     897.8919  0.059907386  0.060142927            4 
 1250000    1.0489442   -4.4502916    901.69926  0.060113284  0.060133144            3 
 1251000    1.0453004   -4.4799088    898.66921   0.05986339  0.060123433            4 
 1252000    1.0634135   -4.4790955    901.68081  0.060016028  0.060113902            2 
 1253000    1.0598021   -4.4560074    905.62717  0.060230591  0.060104333            2 
 1254000     1.041253   -4.4819628    900.92168  0.059869862  0.060094371            6 
 1255000    1.0546733   -4.4785236    903.33441  0.059982365  0.060084655            3 
 1256000    1.0485273   -4.5031384    901.06494  0.059784032  0.060074291            7 
 1257000     1.025807   -4.4651786    904.42929  0.059959513   0.06006399            3 
 1258000    1.0430546   -4.5066663    904.55556  0.059920215  0.060053623            2 
 1259000    1.0152386   -4.5118733    904.61783  0.059876743  0.060043222            3 
 1260000    1.0412866   -4.5059432    900.40326   0.05955048  0.060032843            2 
 1261000    1.0748806   -4.5000467    907.58997   0.05997819  0.060022925            2 
 1262000    1.0518158   -4.4567286    905.68581  0.059804927   0.06001266            3 
 1263000     1.032831    -4.508082    902.97481  0.059578702  0.060002265            5 
 1264000    1.0536803   -4.4841579    901.44819   0.05943092  0.059992143            3 
 1265000    1.0264901    -4.471759    907.73345  0.059797988  0.059982461            2 
 1266000    1.0541037   -4.4946152    903.26969  0.059456931  0.059972486            2 
 1267000    1.0394236   -4.4850694    907.74162  0.059704132  0.059962273            2 
 1268000    1.0624545   -4.4932232    911.10014  0.059877769  0.059951997            3 
 1269000    1.0416208   -4.5118131    908.72903  0.059674877  0.059941846            2 
 1270000    1.0444587   -4.4718229    909.77443  0.059696485  0.059931882            3 
 1271000     1.090286   -4.4523719    909.96896  0.059662271  0.059921853            3 
 1272000    1.0501789    -4.487105    908.93345  0.059547527  0.059911881            5 
 1273000    1.0501932   -4.5055338    910.34074  0.059592874  0.059901821            2 
 1274000    1.0536658   -4.4964964    911.59252  0.059627977  0.059891862            1 
 1275000    1.0416801   -4.4916387    913.21881  0.059687504  0.059882069            3 
 1276000    1.0622859   -4.4899043    913.80577   0.05967906  0.059872317            1 
 1277000    1.0271538   -4.4790052    911.03675  0.059451628  0.059862325            2 
 1278000    1.0520706   -4.4984882    915.24767  0.059679686  0.059852191            3 
 1279000     1.054315   -4.5148066    914.59756  0.059590667  0.059842208            4 
 1280000    1.0529023   -4.4877165    918.76724  0.059815576   0.05983306            4 
 1281000     1.033324   -4.5170208    917.17991   0.05966562  0.059823761            7 
 1282000    1.0531878   -4.4932282     920.1145  0.059809835  0.059814528            2 
 1283000    1.0480064    -4.487514     918.5847  0.059663854  0.059804857            2 
 1284000    1.0846123   -4.4751283    917.74672  0.059563001  0.059795421            3 
 1285000    1.0447921   -4.5047418    919.29679  0.059617172  0.059785928            1 
 1286000    1.0523019   -4.4972909    922.96792  0.059808704  0.059775947            2 
 1287000    1.0389266   -4.5058844    921.01339  0.059635676   0.05976678            1 
 1288000    1.0592097   -4.4582161    924.50911  0.059815548  0.059757176            1 
 1289000    1.0375771   -4.4873856    921.24563  0.059558161  0.059747631            2 
 1290000    1.0383638   -4.5072436     922.6147  0.059600433  0.059737646            4 
 1291000    1.0479275   -4.5208269    920.76326  0.059434757  0.059727414            5 
 1292000    1.0398154   -4.4924339    924.04685  0.059600545   0.05971763            7 
 1293000    1.0287796   -4.4820804    924.99731  0.059615707  0.059707518            5 
 1294000    1.0539838   -4.4839222    924.75167  0.059553817  0.059697719            3 
 1295000    1.0339621   -4.4782956    926.37501  0.059612292   0.05968781            4 
 1296000    1.0484029   -4.5211822    923.89841  0.059407048  0.059677877            3 
 1297000    1.0638181   -4.5098317    927.70142  0.059605591  0.059667605            3 
 1298000    1.0219818   -4.5250275    928.77381  0.059628519  0.059657797            8 
 1299000    1.0253474   -4.4962377    928.96005  0.059594563  0.059648216            5 
 1300000    1.0334802   -4.5068405    928.54102   0.05952186  0.059638447            2 
 1301000    1.0523989   -4.5028207    925.55388  0.059284773  0.059629056            3 
 1302000      1.05601    -4.499873    931.08793  0.059593441  0.059619516            2 
 1303000    1.0317239   -4.4983401    933.80923  0.059721746  0.059610509            3 
 1304000    1.0359502   -4.4959017    932.38532  0.059584951  0.059601943            3 
 1305000    1.0245544   -4.5283208    933.46785  0.059608419  0.059592704            3 
 1306000    1.0526969   -4.4985283     939.0241  0.059917311  0.059583635            2 
 1307000    1.0613156   -4.4760888    937.63577  0.059782949  0.059574521            2 
 1308000    1.0312559   -4.4983512    931.71157  0.059359809  0.059565467            3 
 1309000    1.0449063   -4.5012967    933.66692  0.059438943  0.059555766            3 
 1310000    1.0500598     -4.51082    930.73503  0.059207063  0.059546038            5 
 1311000    1.0614467   -4.4855888     934.9734  0.059431312  0.059536281            6 
 1312000    1.0300114   -4.5355001    933.21366  0.059274241  0.059526507            2 
 1313000    1.0593979   -4.4565676    937.01078  0.059470093  0.059516892            2 
 1314000    1.0429517   -4.4867888    939.24564  0.059566568  0.059507215            2 
 1315000    1.0512512   -4.4942682    935.44388  0.059280347  0.059497876            4 
 1316000    1.0176698   -4.4829841    937.13189  0.059342192  0.059488379            2 
 1317000    1.0395868   -4.4998497    936.05458  0.059228966  0.059478972            4 
 1318000    1.0555063   -4.4870148    937.59103  0.059281173  0.059469365            2 
 1319000    1.0326056   -4.5211331    937.03652  0.059201195  0.059459411            2 
 1320000    1.0223494    -4.508355    936.44746  0.059119158  0.059449389            2 
 1321000     1.070221   -4.4515713    942.71713  0.059469917  0.059439945            2 
 1322000    1.0216676     -4.52706    939.28905  0.059208841  0.059430328            3 
 1323000    1.0334881   -4.4759087    943.17201  0.059408667  0.059420589            3 
 1324000    1.0505141   -4.5081837    942.79124  0.059339831  0.059410799            4 
 1325000     1.040339   -4.4948678    945.31658  0.059453873  0.059401078            2 
 1326000    1.0294366   -4.4980187    944.12309   0.05933403  0.059391673            3 
 1327000     1.033215   -4.4973226    943.14023  0.059227595   0.05938251            2 
 1328000    1.0440585   -4.4578686    948.55476  0.059522764  0.059372941            2 
 1329000    1.0351013   -4.5043744    946.29226  0.059336108  0.059363499            2 
 1330000    1.0324179   -4.4817447     948.4854   0.05942891  0.059354138            2 
 1331000    1.0802175   -4.5036311    946.65146  0.059269438   0.05934515            2 
 1332000    1.0223566   -4.5109326    947.05018  0.059249886  0.059335659            4 
 1333000     1.046446   -4.5018892     948.0295   0.05926666  0.059326116            5 
 1334000    1.0162765   -4.5170043    945.81779   0.05908407  0.059316635            3 
 1335000    1.0446788   -4.4907905    945.44594    0.0590166  0.059306631            6 
 1336000    1.0319985   -4.4861123    949.93535  0.059252455  0.059296704            4 
 1337000     1.029375   -4.4858512    947.25851  0.059041293  0.059286919            2 
 1338000    1.0089585   -4.5232511    948.02691  0.059045025  0.059276726            4 
 1339000    1.0565101   -4.5173055    945.45908  0.058841118  0.059266414            4 
 1340000    1.0362593   -4.5211008    948.72608  0.059000378   0.05925625            6 
 1341000    1.0335222   -4.5391199    945.84388  0.058777273  0.059245998            2 
 1342000    1.0306766   -4.5047366    950.07055  0.058995936  0.059235779            1 
 1343000    1.0217202   -4.5199094    952.06959  0.059076048  0.059225811            3 
 1344000    1.0248489   -4.4749744    955.98799  0.059275049  0.059215776            1 
 1345000    1.0175114   -4.5273063    950.00836  0.058860493   0.05920597            2 
 1346000    1.0369486   -4.5426154    951.79029  0.058927086  0.059195945            3 
 1347000    1.0382354   -4.5385547    951.87673  0.058888687  0.059185668           12 
 1348000    1.0316214   -4.5142149     953.3702  0.058937327  0.059175247            6 
 1349000    1.0451199    -4.523247    953.16159  0.058880751  0.059165125            3 
 1350000    1.0255058   -4.5172632    954.91379  0.058945296  0.059154992            2 
 1351000    1.0242467     -4.48389    956.83293  0.059020043  0.059144809            4 
 1352000    1.0423703   -4.4781844    960.65004  0.059211664  0.059134826            4 
 1353000     1.017171   -4.5087937    955.46417  0.058848495  0.059124757            1 
 1354000    1.0231155   -4.5057453    956.93897  0.058895801  0.059114713            3 
 1355000    1.0524234   -4.4677746    960.74235  0.059086245  0.059104994            2 
 1356000    1.0517275    -4.494201    957.89315  0.058867573  0.059095223            5 
 1357000    1.0243659   -4.5056901    957.63879  0.058808572  0.059085089            4 
 1358000    1.0251373   -4.5150418    956.64106  0.058704041  0.059074802            3 
 1359000    1.0254713   -4.5260104    956.69185  0.058663959  0.059064496            4 
 1360000    1.0278613   -4.5184648    957.19966   0.05865194   0.05905401            2 
 1361000    1.0355877   -4.4806788    963.53842  0.058996964  0.059043528            3 
 1362000    1.0742646   -4.5450782    957.34692  0.058574824  0.059033304            6 
 1363000    1.0291558   -4.5079245     960.4622  0.058722316  0.059022768            2 
 1364000    1.0273643   -4.4802374    962.15539   0.05878271   0.05901262            2 
 1365000    1.0189398   -4.5274572    961.51061  0.058700282  0.059002395            3 
 1366000    1.0336268    -4.505923    967.85038  0.059044069   0.05899216            4 
 1367000    1.0235439    -4.522491    962.61248   0.05868157  0.058981841            4 
 1368000    1.0448059   -4.5339685     960.9761  0.058538992  0.058971667            3 
 1369000    1.0324738   -4.5008536    964.46023  0.058708317  0.058961558            2 
 1370000    1.0306455   -4.5115564    965.47069  0.058726928  0.058951524            4 
 1371000    1.0120166   -4.5255656    963.91573  0.058589577  0.058941034            2 
 1372000    1.0319956   -4.5542754    964.35137  0.058573334  0.058931015            6 
 1373000    1.0327301   -4.5335817    966.50093  0.058661139  0.058920967            3 
 1374000    1.0101896   -4.5443427    966.01564  0.058589013   0.05891079            4 
 1375000    1.0282165   -4.5525801    969.48085  0.058756415  0.058900667            4 
 1376000    1.0105058   -4.5182876    968.07059  0.058628306  0.058890378            3 
 1377000     1.036622   -4.5275428    966.79902  0.058508776  0.058880504            4 
 1378000    1.0242981   -4.5056834    972.56209  0.058814834  0.058870467            2 
 1379000    1.0458181   -4.5005804    970.77814  0.058664379  0.058860374            3 
 1380000    1.0327519   -4.5220014    971.09318  0.058640892  0.058850331            3 
 1381000    1.0238854   -4.5367561    969.39901  0.058496199  0.058839882            2 
 1382000    1.0421427    -4.519695    973.53744  0.058703415  0.058829524            3 
 1383000    1.0241806   -4.5165423     971.8458  0.058559038  0.058819071            4 
 1384000    1.0354279     -4.53867     973.9709  0.058644683  0.058809029            5 
 1385000    1.0016979   -4.5135507    969.99188  0.058362929  0.058798817            3 
 1386000    1.0412306   -4.5579497    971.73374   0.05842555  0.058788387            6 
 1387000    1.0382362   -4.5152598    975.30735  0.058598134  0.058778029            4 
 1388000    1.0226824   -4.5320931    975.25309  0.058552659  0.058767881            2 
 1389000   0.99225096   -4.5433765    971.58545  0.058290464  0.058757366            4 
 1390000    1.0319035   -4.5120546    976.84165  0.058563648  0.058746954            2 
 1391000    1.0527614   -4.5478478    979.23763  0.058665087  0.058736817            4 
 1392000    1.0393564   -4.5283398    981.77865  0.058775063   0.05872683            5 
 1393000    1.0459596   -4.5264461    976.70646  0.058429436  0.058716982            3 
 1394000    1.0226806   -4.5040198    977.46769  0.058433028  0.058706967            3 
 1395000    1.0177353   -4.5443359    978.04591  0.058425682  0.058696839            3 
 1396000    1.0429501    -4.506129    979.68041    0.0584814  0.058686819            4 
 1397000    1.0054165   -4.5197464    977.35556  0.058300857   0.05867646            3 
 1398000     1.026777   -4.5484994    978.01149  0.058298253  0.058666367            5 
 1399000   0.99769629   -4.5024936    982.79831  0.058541715  0.058656469            5 
 1400000    1.0459296   -4.4888109    987.47538  0.058778296  0.058646801            3 
 1401000    1.0412833   -4.5187201    983.82704  0.058519334  0.058637322            8 
 1402000    1.0299208   -4.5611205     982.3644  0.058390656  0.058627879            2 
 1403000    1.0367378   -4.4976804    986.87166  0.058616753  0.058618294            5 
 1404000    1.0279271   -4.5328861    983.69707  0.058386578  0.058608533            7 
 1405000    1.0044826    -4.530553    984.60636  0.058398954  0.058598829            3 
 1406000    1.0182535   -4.5191265    986.73743  0.058483726  0.058588962            2 
 1407000    1.0246135   -4.5282359     986.2729  0.058414647  0.058579815            5 
 1408000    1.0221638   -4.5471872    989.21367   0.05854721  0.058570045            5 
 1409000    1.0407665   -4.5406702    987.39124  0.058397873  0.058560168           11 
 1410000    1.0123267   -4.5189745    988.43786  0.058418313  0.058550482            3 
 1411000    1.0394548   -4.5183321    986.89862  0.058286004  0.058540629            4 
 1412000    1.0321562   -4.5273349     985.3554  0.058153647  0.058530951            2 
 1413000    1.0145775   -4.4941878    992.79412  0.058551198   0.05852125            5 
 1414000   0.99752205   -4.5251558    994.01824  0.058581933  0.058511351            3 
 1415000    1.0256834   -4.5427931    990.98425  0.058361852  0.058502011            2 
 1416000    1.0395839   -4.5537863    993.61892  0.058475689   0.05849201            2 
 1417000    1.0332347    -4.516496     990.9657  0.058278387  0.058482054            9 
 1418000    1.0102376   -4.5521937    989.08762  0.058126917  0.058472494            2 
 1419000    1.0337296   -4.5487295    990.87462  0.058190898  0.058462507            3 
 1420000    1.0284077   -4.5359457    992.75238  0.058260116  0.058452384            2 
 1421000     1.037825   -4.5451872    991.54826  0.058148502  0.058442399            2 
 1422000    1.0188379   -4.5106874    992.12148  0.058141202  0.058432246            2 
 1423000    1.0329673   -4.5208726    991.27645  0.058050858  0.058422128            4 
 1424000    1.0231464   -4.5641904    993.24862  0.058125505  0.058411995            3 
 1425000    1.0096249   -4.5636269      993.058  0.058073567  0.058401932            5 
 1426000    1.0287514   -4.5448437    996.11935  0.058211743  0.058391787            3 
 1427000    1.0213564    -4.540689    999.41685  0.058363516   0.05838185            4 
 1428000      1.01925   -4.5207488    999.40277  0.058321824  0.058372328            3 
 1429000    1.0166248   -4.5408853     998.1221  0.058206328  0.058362328            5 
 1430000    1.0044351   -4.5150151    999.65222  0.058254792  0.058352338            4 
 1431000    1.0115174   -4.5308123    998.91049  0.058170888  0.058342566            3 
 1432000    1.0132513   -4.5403677    1002.4722  0.058337533  0.058332788            7 
 1433000    1.0084227   -4.4777243    1002.3796  0.058291438  0.058322968            4 
 1434000    1.0240697   -4.5155303     999.9031  0.058106875  0.058313005            4 
 1435000    1.0001419   -4.5264119    998.78472  0.058001435  0.058302732            3 
 1436000    1.0216748   -4.5650225    997.50087  0.057886541  0.058292574            3 
 1437000    1.0188694   -4.5409442    998.57837  0.057908743  0.058282016            2 
 1438000    1.0092027    -4.517269    1000.1087  0.057957156  0.058271555            2 
 1439000    1.0178424   -4.5124763     1002.271    0.0580421  0.058261483            6 
 1440000    1.0197788   -4.5443062     1004.911  0.058154572  0.058251514            3 
 1441000    1.0029227   -4.5429981    1002.8196  0.057993268  0.058241483            2 
 1442000    1.0390957   -4.5156785    1004.5076  0.058050598  0.058231591            3 
 1443000    1.0105025   -4.5481346    1006.3564   0.05811714  0.058221643            4 
 1444000    1.0042179   -4.5238805    1006.0161  0.058057253  0.058211607            3 
 1445000   0.99500868   -4.5359252    1005.4958  0.057987073  0.058201879            5 
 1446000    1.0337856   -4.5666834    1006.4213  0.058000304  0.058191927            2 
 1447000    1.0402224    -4.541258    1006.1071  0.057942129  0.058182067            1 
 1448000    1.0031772   -4.5426453    1009.9184  0.058121457  0.058172302            6 
 1449000    1.0219615   -4.5266383      1012.04  0.058203361  0.058162308            4 
 1450000     1.036003   -4.5260542    1009.0121  0.057989199  0.058152593            3 
 1451000    1.0217296   -4.5207343    1012.3857  0.058142989  0.058142679            3 
 1452000    1.0272078   -4.5470941    1009.6911  0.057948298  0.058133118            2 
 1453000    1.0251803    -4.556441    1009.6643  0.057906876  0.058123204            3 
 1454000    1.0295622   -4.5638104    1010.4883  0.057914279  0.058113393            2 
 1455000    1.0279281   -4.5530431    1012.5245  0.057991092  0.058103677            2 
 1456000    1.0042157   -4.5729956    1009.2472   0.05776369  0.058093683            9 
 1457000    1.0336233   -4.5405104    1012.3092  0.057899174  0.058083918            3 
 1458000    1.0145493   -4.5417987    1014.6577  0.057993697  0.058074265            3 
 1459000     1.000679   -4.5721439    1014.2458  0.057930422  0.058064466            2 
 1460000    1.0126436   -4.5451095    1013.7434  0.057862068  0.058054743            3 
 1461000    1.0348834   -4.5310736    1015.4039  0.057917177  0.058044936            2 
 1462000    1.0156729   -4.5060065    1016.5556  0.057943208  0.058035436            3 
 1463000    1.0533051   -4.5404864    1019.0799  0.058047385   0.05802582            4 
 1464000    1.0151526    -4.518141    1016.7211  0.057873471  0.058016216            5 
 1465000   0.99283251   -4.5491904     1017.391  0.057872071  0.058006219            4 
 1466000    1.0114015   -4.5248726    1018.5166  0.057896578  0.057996335            3 
 1467000    1.0185802   -4.5639571    1014.0324  0.057602388  0.057986454            5 
 1468000    1.0091577   -4.5322173    1017.6283  0.057767276  0.057976613            7 
 1469000    1.0151337   -4.5383344    1020.1764  0.057872496  0.057967138            2 
 1470000   0.99909426   -4.5597021     1022.747  0.057978854  0.057957507            2 
 1471000    1.0378468   -4.5359887    1021.0222   0.05784173  0.057947621            3 
 1472000    1.0284404   -4.5498725    1019.7182  0.057728609  0.057937416            4 
 1473000    1.0215674   -4.5173377    1021.4215  0.057785784  0.057927339            2 
 1474000    1.0211524   -4.5549923    1018.0226  0.057554424   0.05791725            2 
 1475000    1.0257644   -4.5347518     1022.585  0.057773162  0.057907208            3 
 1476000    1.0334663   -4.5596568    1020.8866   0.05763813  0.057897141            3 
 1477000    1.0107036   -4.5256916    1021.6682  0.057643204   0.05788688           13 
 1478000    1.0174481   -4.5392778    1019.9925  0.057509726  0.057876224            3 
 1479000    1.0242227   -4.5384121    1021.5662   0.05755951  0.057865769            4 
 1480000    1.0107955   -4.5592072    1021.8145    0.0575346  0.057855315            5 
 1481000    1.0102596   -4.5329395    1023.0167  0.057563396  0.057844905            3 
 1482000     1.009148   -4.5559628    1022.4972  0.057495346  0.057834541            2 
 1483000    1.0305858   -4.5730022     1018.631  0.057239324   0.05782397            4 
 1484000    1.0148707   -4.5495444    1025.8476  0.057605998  0.057813319            2 
 1485000    1.0218949   -4.5690785    1024.6838  0.057501898  0.057802661            6 
 1486000    1.0072652   -4.5368786    1026.0148  0.057537841  0.057792008            4 
 1487000    1.0300172   -4.5547343    1027.5315  0.057584145  0.057781529            3 
 1488000    1.0369804   -4.5145683    1030.5456  0.057714246  0.057771235            2 
 1489000    1.0206101   -4.5523395    1027.7876  0.057521134  0.057760928            3 
 1490000    1.0244779   -4.5672929    1026.9447  0.057435388  0.057750278            3 
 1491000   0.98717189   -4.5457836    1024.5391  0.057262413   0.05773964            4 
 1492000     1.004385    -4.527129    1029.9365  0.057525495  0.057729425            2 
 1493000    0.9877366   -4.5589503    1028.8003  0.057423551  0.057718751            2 
 1494000    1.0022721   -4.5524537    1025.9338  0.057225223  0.057708187            3 
 1495000    1.0256752   -4.5549041    1027.6486  0.057282533  0.057697279            1 
 1496000    1.0159577   -4.5192519    1030.7756  0.057418425  0.057686626            2 
 1497000   0.99640231   -4.5322735    1031.7874  0.057436394  0.057676206            3 
 1498000   0.99388944   -4.5729909    1030.9906  0.057353727  0.057665529            4 
 1499000   0.99619063   -4.5368141    1034.2198  0.057494988  0.057655064            2 
 1500000    1.0149292   -4.5616242     1029.235  0.057179724  0.057644621            3 
 1501000    1.0079969   -4.5575193    1032.8025  0.057339687  0.057633793            3 
 1502000    1.0026344   -4.5677298     1031.154  0.057210056  0.057623217            1 
 1503000    1.0271855   -4.5526004    1030.8855  0.057157103  0.057612406            2 
 1504000    1.0291497    -4.517164    1033.5394  0.057266147  0.057601477            9 
 1505000    1.0118631   -4.5447926     1033.317  0.057215781  0.057590745            3 
 1506000    1.0021661   -4.5561795    1031.7568  0.057091455  0.057579769            6 
 1507000    1.0051145   -4.5609445    1029.5255  0.056930188  0.057568542            5 
 1508000    1.0216108   -4.5549477    1035.3889  0.057216453  0.057557482            3 
 1509000   0.99349301   -4.5393851    1034.4725  0.057127928  0.057546476            2 
 1510000    1.0268615   -4.5382154     1032.141  0.056961425  0.057535412            2 
 1511000    1.0133587   -4.5274847    1037.2361  0.057204728   0.05752435            2 
 1512000   0.99027032   -4.5316234    1035.4534  0.057068637  0.057513457            2 
 1513000   0.99997678   -4.5633675    1032.9331  0.056892106  0.057502273            3 
 1514000    1.0066342   -4.5606052    1036.4886  0.057050233  0.057491401            1 
 1515000   0.99921975    -4.573192    1036.6595  0.057021974  0.057480373            3 
 1516000    1.0158372   -4.5662002    1036.5007  0.056975632  0.057469362            4 
 1517000    1.0085802   -4.5364962     1037.704  0.057004177  0.057458177            3 
 1518000    1.0212373   -4.5250841    1041.3391  0.057166178  0.057447252            3 
 1519000    1.0171516   -4.5555868    1037.6171  0.056924353  0.057435894            3 
 1520000    1.0067034     -4.55285    1040.7844  0.057060551  0.057424504            2 
 1521000    1.0168326   -4.5728203    1039.2563  0.056939308  0.057412993            4 
 1522000    1.0176947   -4.5324976    1036.0894  0.056728503   0.05740173            3 
 1523000    1.0260985   -4.5269432    1043.7912  0.057112675  0.057390396            9 
 1524000   0.99010533   -4.5685482    1040.5993  0.056900659  0.057379344            4 
 1525000    1.0253662   -4.5455222    1040.9651  0.056883337    0.0573684            2 
 1526000    1.0131659   -4.5601195    1041.2724  0.056862843   0.05735735            5 
 1527000     1.016937    -4.536258    1040.0411  0.056758409  0.057346025            3 
 1528000    1.0179701   -4.5454104    1043.2542    0.0568965  0.057334606            3 
 1529000   0.99997683   -4.5450412    1046.3462  0.057027806  0.057323394            2 
 1530000   0.99113833   -4.5646521    1044.8594  0.056909552  0.057311956            4 
 1531000    1.0086025   -4.5530926    1042.8526  0.056763153  0.057300672            6 
 1532000    1.0004213    -4.567576     1044.367  0.056808475   0.05728937            4 
 1533000   0.99662346   -4.5903837    1042.5783  0.056674186  0.057278114            3 
 1534000    1.0318224   -4.5543373    1045.6953   0.05680657  0.057266835            3 
 1535000    1.0167176    -4.566648     1042.333  0.056587025  0.057255826            3 
 1536000    1.0175858   -4.5765278    1045.7041  0.056733079  0.057244471            3 
 1537000    1.0178398   -4.5678054    1044.3911   0.05662498  0.057233385            2 
 1538000    1.0137457   -4.5418443    1047.9421  0.056780565  0.057222447            4 
 1539000    1.0218982   -4.5587968    1049.7999  0.056844263  0.057211457            4 
 1540000   0.99685615    -4.539373    1050.4553   0.05684282  0.057200192            3 
 1541000    1.0044828   -4.5405913    1051.7383  0.056875314  0.057188879            8 
 1542000    1.0199291    -4.571413    1047.7302  0.056621821  0.057177374            3 
 1543000   0.97723233   -4.5717582    1052.1079  0.056821553  0.057166292            7 
 1544000    1.0133436   -4.5671562    1049.7979  0.056660078  0.057154837            4 
 1545000    1.0204822   -4.5712514     1049.755  0.056621087  0.057143833            2 
 1546000    1.0060951   -4.5637405    1052.9285  0.056755527  0.057132989            3 
 1547000    1.0113248   -4.5701012    1055.1205  0.056836914  0.057121984            3 
 1548000   0.99840347   -4.5459915    1054.6822  0.056776603  0.057111284            2 
 1549000   0.97983147   -4.5708961    1055.7908   0.05679959  0.057100627            1 
 1550000   0.99293932   -4.5409735    1062.2888  0.057112301   0.05708995            6 
 1551000    1.0131026   -4.5332368    1059.2834     0.056914  0.057079736            4 
 1552000   0.99093775   -4.5567177    1057.4431  0.056778518   0.05706928            3 
 1553000    1.0001154   -4.5785886    1057.5339   0.05674683  0.057058593            5 
 1554000    1.0074476   -4.5270855    1058.2365  0.056747988  0.057047641            3 
 1555000    1.0093515    -4.524829    1061.0428  0.056861888  0.057036863            8 
 1556000    1.0006964    -4.580245    1059.1392  0.056723392  0.057026161            3 
 1557000   0.96555001   -4.5936785    1056.2023  0.056529775  0.057015544            4 
 1558000    1.0130926    -4.557716    1060.4299  0.056719612  0.057004833            2 
 1559000    1.0080484    -4.546342    1063.0807  0.056824928  0.056994354            2 
 1560000    1.0053463   -4.5633216    1060.9334  0.056673794  0.056983393            5 
 1561000    1.0016299   -4.5806776    1058.5103  0.056508131  0.056972476            3 
 1562000    1.0182423   -4.5916986    1059.4282  0.056520926  0.056961895            3 
 1563000    1.0007506   -4.5707483    1065.1835  0.056791613  0.056951209            5 
 1564000   0.98392039    -4.583492    1061.0845  0.056536897  0.056940503            4 
 1565000   0.99052099   -4.6008273    1062.1816  0.056559191  0.056929397            5 
 1566000   0.99673649   -4.5826598    1062.4187   0.05653569  0.056918909            4 
 1567000    1.0082073   -4.5650366     1064.052   0.05658647  0.056908039            4 
 1568000    1.0028078   -4.5650709    1060.8955  0.056382624  0.056897367            4 
 1569000     1.007748   -4.5436806    1066.3319   0.05663543  0.056886673            2 
 1570000   0.99332648   -4.6065981    1061.9627  0.056367445  0.056875964            4 
 1571000    1.0162589      -4.5486    1065.3307  0.056510219    0.0568652            4 
 1572000   0.99839593   -4.5965164    1066.3749  0.056529629  0.056854391            5 
 1573000    1.0336245   -4.5971518    1064.3548  0.056386673  0.056843732            3 
 1574000    1.0048963   -4.5355665    1071.6535  0.056737266  0.056832994            7 
 1575000   0.99438009   -4.5707869    1066.0001  0.056402124  0.056822278            2 
 1576000    1.0127664   -4.5257546     1069.195  0.056535267  0.056811624            7 
 1577000   0.99420272    -4.568089    1068.9255   0.05648518  0.056800948            3 
 1578000   0.99667388   -4.5789508     1066.883   0.05634152  0.056790379            3 
 1579000    1.0016162   -4.5672799    1072.0481   0.05657843  0.056779921            2 
 1580000    1.0165078   -4.5838941    1067.5109   0.05630332  0.056769195            1 
 1581000   0.99431344   -4.5626193    1071.8104  0.056494328  0.056758601            2 
 1582000   0.99507988   -4.5756645    1070.7049  0.056400382  0.056747951            2 
 1583000   0.98817446    -4.543037    1076.2161  0.056654881  0.056737651            4 
 1584000    1.0010526    -4.609092    1071.8948  0.056391772   0.05672687            3 
 1585000   0.99456055   -4.5731512    1073.5256  0.056441933  0.056716122            3 
 1586000    1.0233198   -4.5542601    1073.0579  0.056381773  0.056705543            3 
 1587000   0.99129186   -4.5741322    1072.8575  0.056335724  0.056694944            3 
 1588000    1.0159017   -4.6066297    1073.6219  0.056340358  0.056684603            4 
 1589000    1.0049551   -4.5826721    1075.2217  0.056388805  0.056674348            4 
 1590000   0.99597755   -4.5772399    1076.5186   0.05642131  0.056663819            2 
 1591000   0.98788344   -4.5777503    1080.6924   0.05660446  0.056653436            4 
 1592000   0.98412205   -4.5831278    1077.1847  0.056385297  0.056642844            3 
 1593000    1.0024309   -4.5657288    1079.2208  0.056456415  0.056632367            3 
 1594000    1.0237563   -4.5823721    1072.7228  0.056081286  0.056622063            2 
 1595000   0.97280982    -4.575464    1079.7316  0.056412308  0.056611464            3 
 1596000    1.0087933   -4.5933504    1081.2574   0.05645663  0.056600876            2 
 1597000   0.98641133   -4.5905055    1078.4735  0.056276014  0.056590369            4 
 1598000   0.99565557   -4.5784945    1081.7722  0.056412818    0.0565799            3 
 1599000   0.99129452   -4.5805718    1086.2458  0.056610681   0.05656949            5 
 1600000   0.98490809   -4.5438863    1081.5712  0.056331831  0.056559348            4 
 1601000    1.0176713   -4.5938574    1085.2126  0.056486186  0.056548696            4 
 1602000    1.0063607    -4.575369    1084.0844  0.056392237  0.056538333            3 
 1603000   0.98754357   -4.6249119    1083.5512  0.056329341   0.05652764            1 
 1604000   0.99725539   -4.5548975    1081.2142  0.056172806  0.056517004            2 
 1605000   0.98940789    -4.557857    1088.0083  0.056490565  0.056506805            2 
 1606000    1.0000852   -4.5904444    1082.5042   0.05616979  0.056496529            5 
 1607000   0.99427788    -4.565027    1087.8729  0.056413238  0.056486223            4 
 1608000   0.99578789   -4.5652172    1085.9301   0.05627747  0.056475804            5 
 1609000   0.98006132   -4.5938665    1082.9335  0.056087297  0.056465121            3 
 1610000    1.0002394   -4.5859916     1083.981  0.056106675  0.056454592            3 
 1611000   0.99674469   -4.5678856    1088.4196  0.056301449  0.056444228            4 
 1612000   0.98350555   -4.5883802    1083.4491  0.056009567   0.05643387            3 
 1613000    1.0075226   -4.5946169    1085.4139  0.056076353  0.056423206            2 
 1614000   0.98710129   -4.5582189    1088.4322  0.056197452  0.056412593            4 
 1615000    1.0023937   -4.5904369    1089.2953  0.056207185  0.056402315            2 
 1616000   0.97644109   -4.5612194    1085.5707  0.055980338  0.056391767            2 
 1617000   0.97957727   -4.6244299    1085.9238  0.055963915  0.056381149            6 
 1618000   0.98542555   -4.5884622    1088.9446  0.056084909  0.056370726            5 
 1619000   0.97331456   -4.5911946    1090.3585  0.056123045  0.056359951            7 
 1620000    1.0143213   -4.6031845    1088.4907  0.055992321  0.056349354            3 
 1621000   0.98270644   -4.5740569    1092.3102  0.056154135  0.056338907            4 
 1622000    0.9662425   -4.5892871    1092.5785  0.056133298  0.056328258            4 
 1623000   0.97218722   -4.5970071    1094.6401  0.056204567  0.056317764            3 
 1624000   0.99749031   -4.5858819    1095.0824  0.056192651  0.056307179            5 
 1625000      1.00574   -4.6130075    1092.4801  0.056024618   0.05629696            5 
 1626000   0.97313141   -4.5850069    1094.7045  0.056104169  0.056286361            5 
 1627000   0.98174622   -4.5999539    1091.9318   0.05592767  0.056275853            2 
 1628000    1.0182542   -4.5868599    1094.1519  0.056006955  0.056265663            3 
 1629000    1.0068655   -4.5771525    1093.5325  0.055940887  0.056255228            4 
 1630000   0.99415767    -4.566615    1097.9741  0.056133645  0.056244711            5 
 1631000   0.99441836   -4.6009271    1095.9809  0.055997388  0.056234278            3 
 1632000    0.9852726   -4.6163938    1099.2783  0.056131447  0.056223969            5 
 1633000    1.0099007   -4.5773439    1095.7365  0.055916333  0.056213762            5 
 1634000   0.97574909    -4.577303    1096.9646  0.055944745  0.056203452            4 
 1635000   0.96069548   -4.5949465    1099.6527  0.056047538  0.056193145            3 
 1636000   0.98933741   -4.5851945    1096.5353  0.055854487  0.056182934            6 
 1637000    1.0134063   -4.6019602    1099.8412   0.05598866  0.056172717            2 
 1638000   0.97901177   -4.5898347    1102.8653  0.056108327  0.056162743            4 
 1639000   0.99131898   -4.5946793    1101.3899  0.055999082  0.056152504            3 
 1640000   0.99936826   -4.6245488    1100.4721  0.055918296  0.056142319            5 
 1641000    1.0122531   -4.5960289    1103.8371  0.056055102   0.05613217            5 
 1642000   0.98935101   -4.5946613    1103.6223  0.056010064   0.05612203            3 
 1643000   0.98051953   -4.5984951    1105.7591  0.056084354  0.056112073            2 
 1644000   0.98470473   -4.6062388    1101.5953  0.055839177  0.056102191            3 
 1645000   0.99319719   -4.5854912    1104.6827  0.055961637  0.056092422            5 
 1646000   0.98339872   -4.5536875     1109.772  0.056185296  0.056082484            3 
 1647000    0.9913561   -4.6161153    1107.3675  0.056029523  0.056072926            4 
 1648000   0.99245346   -4.6092369    1106.3708  0.055945126  0.056063298            5 
 1649000    1.0089719   -4.5908572    1108.3488  0.056011157   0.05605348            5 
 1650000   0.99145705   -4.5937925     1103.874  0.055751211  0.056043641            4 
 1651000   0.99443375   -4.5710675    1109.0001  0.055976183  0.056033784            2 
 1652000    1.0066255   -4.5845059    1106.3596  0.055809098  0.056023903            3 
 1653000    1.0001574   -4.6299691    1105.4604  0.055730008  0.056014249            3 
 1654000   0.99364413   -4.6116242    1108.2412  0.055836417  0.056004257            3 
 1655000   0.97829404   -4.6042816    1109.7456  0.055878429  0.055994331            3 
 1656000   0.98195635   -4.5791292    1110.9986  0.055907742  0.055984466            5 
 1657000    0.9812377   -4.5873449     1115.848  0.056117885  0.055974909            6 
 1658000   0.98560442   -4.6129991    1110.0631  0.055793278  0.055965344            3 
 1659000    1.0078906   -4.5764758    1114.2397  0.055969442  0.055955784           10 
 1660000   0.99011334   -4.6013115    1110.0705  0.055726428  0.055946037            4 
 1661000   0.99402648   -4.5742407    1110.4143  0.055710129  0.055936297            4 
 1662000   0.98798856   -4.6200897    1113.8964  0.055851201  0.055926615            4 
 1663000   0.98440226   -4.6312054    1112.4045  0.055742859  0.055916761            3 
 1664000   0.99155233   -4.6173313    1111.7112  0.055674638   0.05590726            5 
 1665000   0.97159563   -4.5992066    1116.3351  0.055872626  0.055897565            3 
 1666000   0.98649054   -4.5878987    1116.0048  0.055822567  0.055887971            2 
 1667000    1.0089918   -4.6212734    1117.2077  0.055849216  0.055878251            6 
 1668000   0.99167497   -4.6103187    1119.1735  0.055913945   0.05586824            5 
 1669000   0.97878257   -4.6080451    1115.5926  0.055701646  0.055858613            2 
 1670000   0.97318456   -4.5497037    1124.6637  0.056120944  0.055848908            3 
 1671000    1.0006532   -4.6029173    1120.3979  0.055874622  0.055839235            4 
 1672000   0.99290313   -4.6194924    1116.8699  0.055665366  0.055829403            4 
 1673000   0.98887026   -4.6157177    1117.3936  0.055658177  0.055819664            3 
 1674000   0.95791263   -4.5796614    1120.9392  0.055801434  0.055810088            4 
 1675000    1.0016522   -4.6100392    1118.4296  0.055643264  0.055800401            5 
 1676000   0.98551403   -4.5979904    1121.0614   0.05574092  0.055790667            4 
 1677000    1.0012734   -4.5964705    1118.8274   0.05559667  0.055781037            4 
 1678000   0.98888974    -4.611526    1119.4815  0.055596024  0.055771379            4 
 1679000   0.97492759   -4.5805149    1122.8404  0.055729619  0.055761805            6 
 1680000   0.98986158   -4.6224251    1119.4686  0.055529194  0.055751946            3 
 1681000   0.95611692   -4.5867739    1126.0506  0.055822456   0.05574212           10 
 1682000   0.98495917   -4.6160014    1123.3214  0.055654051  0.055732132            5 
 1683000   0.96700286   -4.5881675    1126.0914   0.05575814  0.055722408            1 
 1684000   0.97460452   -4.6409486    1121.0707  0.055476579  0.055712545            3 
 1685000   0.99177586   -4.6045819    1125.4819  0.055661816  0.055702672            4 
 1686000   0.97990401   -4.5889828     1129.626   0.05583363  0.055692836            3 
 1687000   0.98467366   -4.5932003    1123.7083  0.055508217  0.055683107            5 
 1688000   0.98456119   -4.6153548    1124.2709  0.055503104  0.055673031            5 
 1689000   0.99832977   -4.6119751    1128.7463  0.055691054  0.055662808            2 
 1690000   0.96163824   -4.6111856    1129.0153  0.055671364  0.055652855            4 
 1691000   0.98673005   -4.5780467    1133.1166  0.055840558  0.055642915            4 
 1692000   0.95911979   -4.5747703    1129.0845  0.055608971  0.055632979            3 
 1693000   0.97552667    -4.581199    1126.9554  0.055471325  0.055622961            4 
 1694000   0.97747005   -4.6097464    1125.1997  0.055352206  0.055612837            2 
 1695000   0.97814759   -4.6284848    1125.8183  0.055349966  0.055602883            8 
 1696000   0.98206241    -4.605036    1125.2807  0.055290914  0.055592562            4 
 1697000   0.98054304   -4.5957066    1127.8931  0.055386619  0.055582363            5 
 1698000   0.99718337    -4.615217    1131.5869  0.055535284   0.05557245            3 
 1699000   0.97407994   -4.6343365    1129.3303  0.055391909  0.055562326            2 
 1700000    1.0004822   -4.6207159     1126.835  0.055237011  0.055552318            4 
 1701000   0.96426935   -4.6262769    1130.6248  0.055390202  0.055542303            4 
 1702000   0.96927696   -4.6082651    1129.2967  0.055292631   0.05553204            2 
 1703000   0.98234277    -4.581106    1135.7815  0.055577486  0.055521911            3 
 1704000     0.969613   -4.5904215     1136.179  0.055564311  0.055512205            4 
 1705000    1.0063324   -4.5973255    1132.6659  0.055360012  0.055502262            3 
 1706000   0.96449509   -4.5999148    1134.2768  0.055406253  0.055492244            4 
 1707000   0.99212631   -4.6246765    1130.7963  0.055203879  0.055481977            4 
 1708000   0.98173588    -4.645705    1133.5054  0.055303736  0.055471656            3 
 1709000   0.97871444   -4.5888674     1131.585  0.055177737   0.05546128            4 
 1710000   0.96277804   -4.6014257    1137.5836  0.055437796  0.055450885            3 
 1711000   0.95792836   -4.6048587    1132.7409  0.055169534  0.055440544            5 
 1712000   0.98269956   -4.5919885    1139.4833  0.055465503   0.05543001            3 
 1713000   0.96861245   -4.6376516    1131.4447  0.055042066  0.055419692            5 
 1714000   0.97408556    -4.647972    1132.5712  0.055064722  0.055409267            3 
 1715000     0.960022   -4.6352934    1134.7927  0.055140558  0.055398635            5 
 1716000   0.99684635   -4.5882583    1140.4867  0.055384943  0.055388203            3 
 1717000   0.96195225   -4.5913846     1139.648  0.055311979  0.055378045            4 
 1718000   0.97728853   -4.6291528    1135.8356  0.055094856  0.055368005            2 
 1719000   0.98325417   -4.6208739    1137.9341  0.055164536  0.055357993            2 
 1720000   0.99093802   -4.5866256    1140.6879  0.055265887   0.05534786            4 
 1721000   0.98890469   -4.6405048    1143.1053  0.055350828   0.05533805            2 
 1722000   0.97816707   -4.5978825    1142.5243  0.055290567  0.055328067            2 
 1723000    1.0010031   -4.6258536    1140.5661   0.05516377  0.055318236            5 
 1724000   0.97890705   -4.6201038    1141.0552  0.055155414  0.055308581            6 
 1725000   0.96502059   -4.6379227    1142.8542  0.055210349  0.055298669           13 
 1726000   0.99174703   -4.6195988    1144.2054    0.0552436  0.055288767            3 
 1727000    0.9550616   -4.6197964    1146.0513  0.055300679  0.055278523            3 
 1728000   0.97702112   -4.5944898    1144.8777  0.055212082  0.055268589            3 
 1729000   0.96048571   -4.6671829    1140.1915  0.054954286  0.055258253            6 
 1730000   0.96932022   -4.6289476    1145.2351  0.055165465  0.055248002           12 
 1731000   0.97523938    -4.635822    1144.1125  0.055079552  0.055237579            2 
 1732000   0.96446115   -4.6246842    1143.1209  0.055000045  0.055227073            3 
 1733000   0.98421655   -4.6188396    1144.7488  0.055046584  0.055216527            2 
 1734000   0.96557661   -4.6093013    1142.6075  0.054911935  0.055206448            2 
 1735000    1.0041554   -4.6406814    1147.7012  0.055124938  0.055196145            5 
 1736000   0.95353944   -4.6153573    1144.4137  0.054935374  0.055185915            2 
 1737000   0.96102563   -4.6099998    1147.4772  0.055050719  0.055175632            3 
 1738000   0.95650557   -4.6158275    1149.6227  0.055121919  0.055165246            4 
 1739000   0.95801513   -4.6627646    1143.1477  0.054779938  0.055154785            3 
 1740000   0.96757825   -4.6103136    1151.6407  0.055155204   0.05514438            3 
 1741000   0.96090701   -4.6110154    1144.0546  0.054760415  0.055133796            3 
 1742000   0.96303945   -4.6265179    1145.3697   0.05479189  0.055123104            3 
 1743000   0.98134302   -4.6303817    1146.2286   0.05480152  0.055112378           10 
 1744000    0.9715438   -4.6301179    1144.2351  0.054674841  0.055101727            4 
 1745000    0.9859506   -4.6395969    1147.3112  0.054790409  0.055090891            3 
 1746000   0.97091977   -4.6188908    1145.8426  0.054688938  0.055080302            6 
 1747000   0.99072121   -4.5839684    1148.6253  0.054790368  0.055069708            4 
 1748000   0.96816292   -4.6194312    1150.2501  0.054836482  0.055059156            3 
 1749000   0.97207537   -4.6329869    1148.1267   0.05470396  0.055048709            3 
 1750000   0.98134536   -4.6249798    1150.1558  0.054769323  0.055038088            3 
 1751000   0.96006985   -4.6496817    1151.6161  0.054807541  0.055027607            5 
 1752000    0.9573878   -4.5913109    1155.7304  0.054971958  0.055017277            4 
 1753000   0.97332572   -4.6025663    1153.9635  0.054856601  0.055006977            9 
 1754000   0.98317997    -4.638676    1150.5908  0.054665091  0.054996489            4 
 1755000    0.9777886   -4.6262984    1153.6547  0.054779426   0.05498611            3 
 1756000   0.97470718   -4.6510713     1150.772  0.054611427  0.054975534            3 
 1757000   0.95987925   -4.6394904    1152.1237  0.054644457  0.054965032            3 
 1758000   0.97673721   -4.6281034    1157.1115  0.054849808  0.054954549            6 
 1759000   0.96818942   -4.6151113      1157.24  0.054824712   0.05494394            2 
 1760000     1.003299   -4.6434647    1156.0118  0.054735408  0.054933553            2 
 1761000   0.96735262   -4.6497525    1154.8711  0.054650346  0.054923375            6 
 1762000   0.99124857   -4.6182904    1156.0279  0.054674038  0.054913385            7 
 1763000   0.99121131   -4.6494682    1158.3346  0.054752061  0.054903355            3 
 1764000   0.97784773   -4.6363478    1159.4806  0.054775163   0.05489305            3 
 1765000   0.95357556   -4.6327488    1157.9396  0.054671369  0.054882465            4 
 1766000   0.98520863   -4.6293082    1159.0578  0.054693178  0.054871989            3 
 1767000   0.95793018   -4.6263098     1160.635  0.054736605  0.054861426            5 
 1768000   0.96865446   -4.6231051    1158.6514  0.054612152  0.054850982            2 
 1769000   0.97445985   -4.6387612    1156.5635  0.054482926  0.054840328            6 
 1770000   0.95263342   -4.6271615    1159.8811   0.05460834  0.054830125            2 
 1771000   0.95815167   -4.6429843    1157.7305   0.05447631  0.054819858            2 
 1772000   0.94605089   -4.6249038    1162.7348  0.054680907  0.054809588            5 
 1773000   0.95618117   -4.6287056    1161.3207    0.0545836  0.054799267            4 
 1774000   0.96159084   -4.6278681    1164.0053  0.054678941  0.054789024            2 
 1775000   0.97035138   -4.6190654    1163.7135  0.054634436  0.054778889            2 
 1776000    0.9487483   -4.6390213    1165.9356  0.054707941  0.054768839            4 
 1777000   0.96117588   -4.6582448     1162.796  0.054529917  0.054758615            7 
 1778000   0.96343363   -4.6182729     1167.682  0.054728255  0.054748498            5 
 1779000   0.97906061   -4.6168605    1169.7192  0.054792916   0.05473852            3 
 1780000   0.96204778   -4.6282575    1169.6122  0.054757124  0.054728351            3 
 1781000   0.97361984   -4.5961673    1163.7533  0.054452242  0.054718195            5 
 1782000    0.9714812    -4.643001    1165.4073  0.054499032  0.054708041            3 
 1783000   0.96073945   -4.6265156    1168.2683  0.054602185  0.054698023            3 
 1784000   0.95703908   -4.6146986    1171.0737  0.054702619  0.054687974            6 
 1785000   0.97863934   -4.6027185    1166.9724  0.054480506  0.054678027            6 
 1786000   0.98241889   -4.6031451    1167.9738  0.054496724  0.054667783            3 
 1787000   0.95232889   -4.6215068    1168.4976  0.054490655  0.054657661            3 
 1788000   0.97801326   -4.6252806    1164.1596  0.054257997  0.054647422            2 
 1789000   0.96135823   -4.6603905    1168.0561  0.054409174  0.054637066            3 
 1790000   0.97314542   -4.6089742    1167.7955  0.054366642  0.054626758            5 
 1791000   0.96125573   -4.6362452    1167.4182  0.054318731  0.054616464            4 
 1792000   0.95472022   -4.6400353    1171.8732   0.05449559  0.054606133            6 
 1793000    0.9735343    -4.624372    1171.5615  0.054450709  0.054595623            5 
 1794000   0.95906805   -4.6413347    1172.1348  0.054446989  0.054585068            2 
 1795000   0.97208258   -4.6471348    1169.8732  0.054311662  0.054574851            4 
 1796000    0.9667544   -4.6521891    1173.0697  0.054429738  0.054564294            6 
 1797000   0.96365998   -4.6239877    1175.0619  0.054491835  0.054554065            4 
 1798000   0.98077838   -4.6496333    1171.1303  0.054279307  0.054543904            4 
 1799000   0.96868584   -4.6738949    1172.5711  0.054315875  0.054533521            5 
 1800000   0.94430176   -4.6526485    1172.4288  0.054279113  0.054523156            3 
 1801000   0.94510472   -4.6361126    1173.2793  0.054288324  0.054512848            4 
 1802000   0.94538018   -4.6371781    1176.4775  0.054406099  0.054502543           11 
 1803000    0.9619034   -4.6138399    1179.6633  0.054523171   0.05449235            4 
 1804000   0.93704633   -4.6199981    1175.1669  0.054285243  0.054482189            5 
 1805000   0.99411083   -4.6871622    1171.6957  0.054094909  0.054471885            2 
 1806000   0.95611906   -4.6635941     1175.567  0.054243588  0.054461575            4 
 1807000   0.94134379   -4.6250074    1177.5573  0.054305354  0.054451165            3 
 1808000    0.9684376   -4.6529443    1173.6952  0.054097308  0.054440547            4 
 1809000   0.97408186   -4.6559528    1176.1529   0.05418062  0.054430203            2 
 1810000   0.95920959   -4.6392926    1177.7661  0.054224959  0.054419564            4 
 1811000   0.97373782   -4.6335826      1175.43  0.054087521  0.054408986            3 
 1812000   0.95157373   -4.6231523    1177.0432  0.054131859  0.054398488            2 
 1813000   0.94701782   -4.6632603    1175.0743  0.054011506  0.054387658            3 
 1814000    0.9725701   -4.6355831    1175.9602  0.054022426  0.054377274            3 
 1815000   0.94653046   -4.6275798    1178.7448  0.054120513  0.054366678            8 
 1816000   0.96433406   -4.6435852    1181.8654  0.054233911  0.054356037            4 
 1817000   0.95186222   -4.6229916    1182.2966  0.054223839  0.054345706            3 
 1818000    0.9637963   -4.6286745     1177.827  0.053989137  0.054335079            3 
 1819000   0.96618592   -4.6596452    1176.7979  0.053912311  0.054324566            6 
 1820000   0.97596456   -4.6682322    1180.0035  0.054029463  0.054314102            3 
 1821000   0.96024522   -4.6535716    1180.8597  0.054038974  0.054303599            9 
 1822000   0.97531481   -4.6635788    1180.9684   0.05401429  0.054292942            2 
 1823000   0.96215801   -4.6325767    1182.3519  0.054047903    0.0542823            3 
 1824000   0.97462248   -4.6593787    1183.4004  0.054066171   0.05427174            3 
 1825000   0.97077388    -4.639763    1184.6255  0.054092488  0.054261451            3 
 1826000    0.9727018   -4.6664514    1181.2932  0.053910788  0.054250804            3 
 1827000    0.9665735   -4.6434976    1185.9637  0.054094311  0.054240271            2 
 1828000   0.95751492    -4.633629    1185.5809   0.05404727  0.054229556            3 
 1829000   0.95444137   -4.6739988    1181.6601  0.053839079  0.054219091            2 
 1830000   0.96281162   -4.6319921    1182.5957  0.053852264  0.054208528            2 
 1831000   0.96443385   -4.6046739    1188.0849  0.054072678  0.054198041            4 
 1832000   0.96140415   -4.6544312    1186.8188  0.053985569  0.054187487            2 
 1833000   0.96701711   -4.6167485    1187.7806  0.053999845  0.054177069            4 
 1834000   0.92906934    -4.669769     1182.911  0.053749137  0.054166289            3 
 1835000   0.96888303   -4.6211136    1192.1678  0.054140229  0.054155901            4 
 1836000     0.945008   -4.6755052    1188.4384  0.053941468  0.054145326            2 
 1837000   0.93875862   -4.6309605    1186.3749  0.053818495   0.05413478            2 
 1838000   0.95086385   -4.6382088    1189.2806  0.053920956  0.054124207            3 
 1839000    0.9616813     -4.62415    1189.5066  0.053901875  0.054113721            4 
 1840000   0.92153465    -4.653165    1184.5661  0.053648828   0.05410323            5 
 1841000   0.93099762   -4.6385783    1190.5674  0.053891337  0.054092807            4 
 1842000   0.95726912   -4.6172463    1194.2223  0.054027428   0.05408246            8 
 1843000   0.95774033   -4.6413041    1190.2256  0.053817399  0.054072075            7 
 1844000   0.97172139    -4.659639    1189.9119  0.053774035  0.054061325           11 
 1845000   0.96310318   -4.6585887    1193.9315  0.053926447  0.054050695            5 
 1846000   0.92609212   -4.6345658    1193.3707  0.053871915  0.054040036            6 
 1847000   0.95031253   -4.6716043    1191.7013  0.053767427  0.054029213            5 
 1848000    0.9447091   -4.6076695    1193.5642   0.05382234  0.054018245            4 
 1849000   0.94295242   -4.6314007    1191.0089  0.053678064  0.054007472            2 
 1850000   0.94506282   -4.6610883    1190.7195  0.053636013  0.053996562            5 
 1851000   0.96301342   -4.6271679    1194.0995  0.053759209  0.053985875            2 
 1852000   0.97105512   -4.6448098    1190.9881  0.053590179  0.053975159            2 
 1853000   0.96848485   -4.6625459    1190.2147  0.053526477   0.05396444            6 
 1854000   0.96066989    -4.624282    1198.4295  0.053866841  0.053953939            2 
 1855000   0.95598475   -4.6271894    1191.4705  0.053525177  0.053943225            6 
 1856000   0.96145049   -4.6628496    1195.4238  0.053673841  0.053932605            4 
 1857000   0.95697633   -4.6744009    1195.6478  0.053654989  0.053921908            2 
 1858000    0.9513767   -4.6408139    1199.9106  0.053817302  0.053911437            3 
 1859000   0.96098701   -4.6393793    1193.1969  0.053487399  0.053900618            1 
 1860000   0.92419702   -4.6094788    1198.4788  0.053695287  0.053889846            8 
 1861000   0.96750293   -4.6090205    1195.9756  0.053554345  0.053879317            2 
 1862000   0.95281108   -4.6365603    1194.8825  0.053476659  0.053868471            3 
 1863000   0.95867602   -4.6344701    1200.8845   0.05371643  0.053857835            1 
 1864000   0.94018695   -4.6625075    1195.7651  0.053458741  0.053847386            3 
 1865000   0.97814171   -4.6555912    1195.2527   0.05340718  0.053836604            4 
 1866000   0.94856382   -4.6556402    1195.9609  0.053410188  0.053825809            3 
 1867000   0.96256188   -4.6714428    1198.0154   0.05347328  0.053814907            4 
 1868000   0.96538431    -4.678333    1196.7619  0.053388734  0.053804039            3 
 1869000   0.95632645    -4.632862    1198.6592  0.053444767  0.053792864            4 
 1870000   0.96852546   -4.6642344    1196.1547  0.053304576  0.053781853            7 
 1871000   0.96084984   -4.6625247    1196.7329   0.05330184  0.053770734            3 
 1872000   0.93198021   -4.6762557    1198.3045  0.053343328  0.053759511            5 
 1873000   0.95475967   -4.6846826    1193.7052  0.053110215  0.053748332            3 
 1874000   0.95027204   -4.6464597    1197.2433  0.053239207  0.053737181            6 
 1875000   0.94901076   -4.6497701       1199.1  0.053293335  0.053726062            7 
 1876000   0.95292631   -4.6589672    1200.2408  0.053315603  0.053715049            5 
 1877000   0.95012207    -4.646854    1201.5183  0.053343912  0.053704198            2 
 1878000   0.94698284   -4.7025415    1195.8487  0.053063927  0.053693012            4 
 1879000   0.95040658   -4.6494655    1203.3561   0.05336864  0.053681891            2 
 1880000   0.94388091   -4.6464728    1202.3397  0.053295201  0.053670721            4 
 1881000   0.93771268    -4.687399    1197.6308  0.053058249  0.053659323            5 
 1882000   0.95397032   -4.6847716      1201.64  0.053207582  0.053647967            6 
 1883000   0.94567566   -4.6376046    1202.1126   0.05320024  0.053636655            3 
 1884000    0.9715089   -4.6747156    1201.7111  0.053154244  0.053625376            2 
 1885000    0.9508985   -4.6593083    1201.6542  0.053123527  0.053614241            2 
 1886000   0.95643928   -4.6414477     1203.793  0.053189863  0.053602853            3 
 1887000   0.95304757   -4.6755264    1201.7174  0.053070014  0.053591473            5 
 1888000    0.9340787   -4.6493198    1202.4386  0.053073739  0.053580055            2 
 1889000   0.94640654   -4.6856693    1197.8083  0.052841374  0.053568607            4 
 1890000   0.94942345   -4.6667763    1199.5532  0.052890351  0.053556815            3 
 1891000   0.95309636   -4.7091338    1197.3478  0.052765197  0.053545039            2 
 1892000   0.95106176   -4.6799131     1201.033  0.052899623  0.053533151            7 
 1893000   0.96461818   -4.6671691    1200.4321  0.052845223  0.053521351            2 
 1894000   0.96857832   -4.6728487     1197.946  0.052707936  0.053509608            3 
 1895000    0.9636776   -4.6687759     1201.713  0.052845781  0.053497618            8 
 1896000   0.95142512   -4.6446017    1203.5086  0.052896825  0.053485981            3 
 1897000   0.93810964   -4.6377909    1206.0651  0.052981246  0.053474138            3 
 1898000   0.94287479   -4.6847252    1204.4218  0.052881181  0.053462272            3 
 1899000    0.9231998   -4.6789446     1205.633  0.052906486  0.053450388            2 
 1900000   0.96574176   -4.6598216    1205.7716  0.052884718  0.053438648            3 
 1901000   0.95078706   -4.6673228    1206.1033   0.05287144   0.05342688            4 
 1902000   0.92841914   -4.6757159    1209.1692  0.052977971  0.053415187            6 
 1903000   0.95309208   -4.6847177    1207.1645  0.052862346  0.053403378           10 
 1904000    0.9198327   -4.6665199     1207.599  0.052853598  0.053391599            3 
 1905000   0.93312874   -4.6419422    1206.6558  0.052784591  0.053379887            3 
 1906000   0.97496737   -4.6693209    1204.3459  0.052655909  0.053368098            5 
 1907000   0.93281559   -4.6855236    1205.9127  0.052696761  0.053356203            6 
 1908000   0.93352928   -4.7105891     1201.079   0.05245803  0.053344293            2 
 1909000    0.9607204   -4.6876376    1206.5522  0.052669469  0.053332308            9 
 1910000   0.94970535   -4.6433467    1211.2186  0.052845488  0.053320509            4 
 1911000   0.96441681   -4.6619265    1208.5013  0.052699341  0.053308714            6 
 1912000   0.94418678   -4.6810639    1210.3443  0.052752106  0.053297079            3 
 1913000   0.94797502   -4.6630678    1211.3039  0.052766333  0.053285448            4 
 1914000   0.94714494   -4.6720157    1210.4631  0.052702154  0.053273961            7 
 1915000    0.9647468   -4.6716715    1212.1794   0.05274932  0.053262179            4 
 1916000   0.92223693   -4.6548803    1207.8355   0.05253286  0.053250168            5 
 1917000   0.94454894   -4.6811135    1208.1876   0.05252076  0.053238364            4 
 1918000   0.94611411   -4.6488815    1210.9626  0.052613947  0.053226286            8 
 1919000   0.93880583   -4.6935405    1205.5231  0.052350316  0.053214116            2 
 1920000   0.93967948   -4.6645692    1208.1413   0.05243669   0.05320194            5 
 1921000   0.95191249   -4.6770805    1205.6477  0.052301218  0.053189864            4 
 1922000   0.94446443     -4.65339     1206.814  0.052324574  0.053177413            4 
 1923000   0.94792137    -4.669206    1209.5329   0.05241519  0.053165013            3 
 1924000   0.95468431   -4.6811937    1207.5057  0.052300142  0.053152785            5 
 1925000   0.94632882   -4.6738055    1209.3363  0.052352219  0.053140323            6 
 1926000    0.9517765   -4.6962316    1213.9414   0.05252429  0.053128142            5 
 1927000   0.95730948   -4.7164037    1208.2175  0.052249504   0.05311615            3 
 1928000   0.94615999   -4.6822601    1209.5895  0.052281705  0.053103895            4 
 1929000   0.95555534   -4.6737967     1208.455  0.052205588  0.053091491            9 
 1930000   0.93609387    -4.682714    1208.5806  0.052183962  0.053078974            7 
 1931000   0.94662608   -4.6855043     1209.645  0.052202873  0.053066616            4 
 1932000   0.94038399   -4.7144173    1212.6388  0.052304986  0.053054283            2 
 1933000   0.93947409   -4.6683801    1216.0566  0.052425271  0.053042171            3 
 1934000    0.9262895   -4.6957732    1213.3571  0.052281847   0.05302988            5 
 1935000   0.94177764   -4.7090939    1207.2946  0.051993738  0.053017549            6 
 1936000   0.93603372   -4.6871663    1214.7058  0.052285891  0.053005429            4 
 1937000    0.9611557   -4.6802224    1214.0516   0.05223075  0.052993227            4 
 1938000   0.94371046   -4.6974159    1213.2644  0.052169951  0.052980835            3 
 1939000   0.95985499   -4.6888272    1211.9607  0.052087015  0.052968509            2 
 1940000    0.9380202   -4.6851908    1216.2658  0.052245095  0.052956454            2 
 1941000   0.92469679   -4.7026525    1215.5684  0.052188238  0.052944278           13 
 1942000   0.96194364   -4.6587004    1216.5607  0.052203942  0.052932186            4 
 1943000   0.94355276   -4.6710872    1214.7542  0.052099596  0.052920081            2 
 1944000   0.95200214   -4.7041898     1214.271  0.052052081  0.052907959            2 
 1945000    0.9421474   -4.6628171    1218.6907  0.052214685  0.052895913            4 
 1946000   0.93967862   -4.6785183    1215.8961   0.05206818  0.052883902            9 
 1947000   0.93436406   -4.6823363    1219.0664  0.052177127  0.052871873            8 
 1948000   0.95179209   -4.6855559    1217.0251  0.052063018  0.052859698            3 
 1949000   0.94241294   -4.6807686    1221.5385  0.052229286   0.05284762            3 
 1950000   0.94210127   -4.6939375    1225.3174  0.052363991  0.052835772            5 
 1951000   0.95108276   -4.6966245    1221.4376  0.052171433  0.052824027            3 
 1952000    0.9295126   -4.6970304    1222.1124  0.052173515   0.05281214            4 
 1953000   0.93954811   -4.6879065    1221.7077   0.05212953   0.05280034            7 
 1954000   0.95252895   -4.6565625    1225.4328  0.052261719  0.052788662            4 
 1955000   0.94221056   -4.6851628    1219.6432  0.051988202  0.052776771            2 
 1956000   0.93758197   -4.6749983    1227.2559  0.052285952  0.052764814            3 
 1957000   0.92720564   -4.6473358    1224.5377   0.05214349  0.052753058            2 
 1958000   0.95669496   -4.6831669    1222.4335  0.052027303  0.052741529            2 
 1959000   0.94360106   -4.6987636    1226.5632  0.052176415    0.0527298            3 
 1960000   0.93951748   -4.6710424    1233.9936  0.052465716  0.052718371            3 
 1961000    0.9551209   -4.6917399     1227.949  0.052182094  0.052706911            4 
 1962000   0.91518571   -4.6897282    1229.2059  0.052208881  0.052695433            3 
 1963000   0.94247181   -4.6925896    1228.9184   0.05217008  0.052683901            4 
 1964000   0.93104412   -4.6820185     1231.528  0.052254241  0.052672245            7 
 1965000   0.94025346   -4.6956016    1228.7065  0.052107994  0.052660591            5 
 1966000   0.93116222   -4.6780326    1230.2059  0.052145047  0.052649279            4 
 1967000   0.93164576   -4.7052836    1230.0344  0.052111268  0.052637596            2 
 1968000   0.92066635     -4.66328    1232.4468  0.052186942  0.052626148            4 
 1969000   0.92880745   -4.6756656    1231.5171  0.052121088  0.052614793            3 
 1970000   0.93968786   -4.6950215     1231.124  0.052078005  0.052603399           10 
 1971000   0.95165703   -4.6705496     1232.053  0.052090859  0.052591892            5 
 1972000    0.9252008   -4.6891823    1235.4195  0.052206706  0.052580243            2 
 1973000   0.92984076   -4.6953935    1233.1853  0.052085881  0.052568741            6 
 1974000   0.91713284   -4.6795051    1233.6274  0.052078156  0.052557183            3 
 1975000    0.9330858   -4.6582539    1231.7143  0.051971067   0.05254555            4 
 1976000   0.93916346   -4.6725388    1234.9025  0.052079223  0.052534035            4 
 1977000   0.95035199   -4.6982034      1231.09  0.051892176  0.052522518            2 
 1978000   0.91305188   -4.6941156    1232.9579  0.051944639  0.052510684            4 
 1979000   0.91690264   -4.6910018    1233.5952  0.051945223  0.052498985           13 
 1980000   0.94062947   -4.7206314    1234.5189  0.051957866  0.052487091            6 
 1981000   0.95549874   -4.6845734    1240.2316  0.052171948  0.052475564            4 
 1982000   0.94296938   -4.7074261     1233.868   0.05187807  0.052464123            1 
 1983000   0.94565686   -4.6996855    1236.2343  0.051951347  0.052452527            4 
 1984000   0.95671611   -4.7162384    1233.1639    0.0517962  0.052440877            3 
 1985000   0.93703048   -4.6516005    1240.6372  0.052083845  0.052429331            4 
 1986000   0.94401659    -4.665024     1241.767  0.052105025  0.052417795            3 
 1987000   0.90910445   -4.6509756    1242.1701  0.052095709  0.052406325            4 
 1988000    0.9532153   -4.7020072    1235.5997  0.051794086  0.052394695            2 
 1989000   0.93098356   -4.6792791    1239.9164  0.051948904  0.052383251            3 
 1990000   0.93056637   -4.7019537    1236.2881  0.051770857  0.052371652            5 
 1991000   0.92909968   -4.6827863    1238.9266  0.051855289  0.052359939            5 
 1992000   0.90773657   -4.7138511    1237.7283  0.051779128  0.052348325            4 
 1993000   0.91821936   -4.7003653    1239.5723  0.051830252  0.052336619            3 
 1994000   0.93641466   -4.7107323     1237.791  0.051729815  0.052324981            4 
 1995000   0.90753439   -4.6813857    1240.1791   0.05180364  0.052313526            4 
 1996000   0.94707478   -4.6961632    1243.0327  0.051896822  0.052301911            4 
 1997000   0.93928595   -4.7000119    1240.3758  0.051759966  0.052290439            4 
 1998000   0.91139886   -4.6865816    1242.1277   0.05180713  0.052279141            3 
 1999000   0.93357814   -4.7043124    1242.6644  0.051803585  0.052267647            4 
 2000000   0.91650189   -4.6913828    1244.9936  0.051874732  0.052256019            5 
 2001000   0.93888945   -4.7249923    1238.8081  0.051591209  0.052244616            5 
 2002000   0.94982798   -4.6763565    1236.9237  0.051486999  0.052232854            3 
 2003000   0.93514946   -4.6851136    1242.7168  0.051702313  0.052221183            6 
 2004000   0.91486644   -4.6794469    1245.5983  0.051796334  0.052209565            4 
 2005000   0.92998992   -4.6849446    1246.7145  0.051816897  0.052198244            4 
 2006000   0.93313869   -4.6930688    1244.6153  0.051703858  0.052186546            4 
 2007000   0.93747047   -4.7127907    1244.6301  0.051678712  0.052174875            5 
 2008000   0.93629479   -4.7206111    1242.9414  0.051582892  0.052163175            4 
 2009000    0.9244507   -4.7151822    1243.7877  0.051592323  0.052151728            2 
 2010000   0.91170976   -4.7107073    1242.3776  0.051508193  0.052139844            5 
 2011000   0.94508298   -4.6899292    1241.8334  0.051460029  0.052128007            5 
 2012000   0.92701067   -4.6784593    1240.4561  0.051377406  0.052116251            4 
 2013000    0.9281068   -4.6916227    1245.4004  0.051556564  0.052104411            2 
 2014000    0.9206295   -4.6966143    1243.2423  0.051441672  0.052092594            5 
 2015000   0.91840598   -4.7154438     1246.912  0.051567908  0.052080514            4 
 2016000   0.92212072   -4.6873823    1244.0323  0.051423292  0.052068576            5 
 2017000   0.91320618    -4.702328    1247.3923  0.051536617  0.052056685            5 
 2018000   0.92977649   -4.6989993    1247.5042  0.051515699  0.052044665            3 
 2019000   0.93797255   -4.7184321    1243.2855  0.051316062  0.052032919            4 
 2020000   0.95154609   -4.6910994    1243.7213  0.051308634  0.052020997            3 
 2021000   0.95734547   -4.6827156    1248.5238  0.051481273  0.052009238            3 
 2022000   0.92547835   -4.6952319    1247.8361  0.051427469  0.051997323            5 
 2023000   0.93065909   -4.6971662    1247.8503  0.051402632  0.051985612            5 
 2024000   0.92649385   -4.7439555    1245.6048  0.051284784  0.051973748            4 
 2025000   0.92530086   -4.6868334    1250.6031  0.051465146   0.05196187            4 
 2026000   0.92208916   -4.6620719    1253.7211  0.051567993  0.051950158            7 
 2027000   0.91337648   -4.6922497    1247.9937  0.051307091  0.051938318            3 
 2028000   0.93077851   -4.6926578    1249.9196  0.051360932  0.051926469            2 
 2029000   0.92247188   -4.6705439    1252.8056  0.051454148  0.051914554            3 
 2030000   0.91369147   -4.6988634    1251.4792   0.05137435  0.051902711            5 
 2031000   0.92860576   -4.6999841    1250.4693  0.051307618   0.05189106            4 
 2032000    0.9450568    -4.681967    1257.7067  0.051579178  0.051879369            7 
 2033000   0.93543904   -4.7193691    1250.5907  0.051262123  0.051867723           10 
 2034000   0.93322921   -4.7113513    1252.6861  0.051322769  0.051856013            5 
 2035000   0.93934432   -4.7266261    1249.0492  0.051148614  0.051844287            3 
 2036000   0.89984002    -4.711373    1250.7695  0.051193906  0.051832417            3 
 2037000   0.94429819   -4.7110232    1250.2702  0.051148348  0.051820474            2 
 2038000   0.92324567   -4.7323916     1252.307  0.051206536  0.051808477           10 
 2039000   0.92012235   -4.7071779    1254.9523  0.051289532  0.051796392            5 
 2040000   0.91289549   -4.6863958     1256.002  0.051307273  0.051784755            8 
 2041000   0.92434108    -4.733299    1255.3378  0.051255012  0.051773018            4 
 2042000   0.92916457   -4.7028251    1258.3128  0.051351324  0.051761245            5 
 2043000   0.91973142   -4.6827058    1257.0683  0.051275424  0.051749484            2 
 2044000   0.91875452   -4.6861874    1259.4887  0.051349016  0.051737634            2 
 2045000   0.92821892   -4.7261675    1257.4366  0.051240287  0.051725907            3 
 2046000   0.92936978   -4.7170845    1257.4981  0.051217748  0.051714239            5 
 2047000   0.93699338   -4.7022814    1256.4162  0.051148679  0.051702596            5 
 2048000   0.93519498   -4.6897905     1255.079  0.051069297  0.051690896            5 
 2049000   0.91476862   -4.6890168     1260.527  0.051265942  0.051679269            4 
 2050000   0.93964982   -4.7081681    1258.9778  0.051177958  0.051667521           11 
 2051000   0.90836458   -4.6956848    1260.2307  0.051203914  0.051655843            4 
 2052000   0.91446982   -4.7028593    1263.7768  0.051322969  0.051643965            3 
 2053000   0.91314704   -4.6870461    1260.7865  0.051176589  0.051632129            4 
 2054000   0.92915597   -4.6985779    1254.8552  0.050911036  0.051620347            5 
 2055000   0.92851542    -4.711232    1260.3788   0.05111025  0.051608604            4 
 2056000   0.93739825   -4.6999089    1258.5333  0.051010592  0.051596798            4 
 2057000   0.94171383   -4.6970336    1259.1411  0.051010417  0.051585003            5 
 2058000   0.91537926   -4.6875869    1261.5284  0.051082297  0.051573366            7 
 2059000   0.91385067   -4.7152113    1261.2668    0.0510469  0.051561666            4 
 2060000    0.9418981   -4.7091088    1261.1512  0.051017445  0.051549849            3 
 2061000   0.90725276    -4.715662    1258.9276  0.050902782  0.051538086            4 
 2062000   0.90756513   -4.7293459    1264.5531  0.051105443  0.051526354            4 
 2063000   0.91789761   -4.7117514    1262.4983  0.050997671  0.051514832            2 
 2064000    0.9147724   -4.7229792    1263.9668  0.051032253  0.051503305            6 
 2065000   0.93536826    -4.683328    1267.0533  0.051132094  0.051491802            3 
 2066000   0.93375947   -4.6926412    1262.5842  0.050927082  0.051480163            6 
 2067000   0.93123994   -4.7168477    1267.3107  0.051092998   0.05146845            2 
 2068000   0.91492344   -4.7428182    1262.7243  0.050883476  0.051456746            6 
 2069000   0.92068823   -4.7328005    1258.9121  0.050705338  0.051445102            3 
 2070000   0.91922242   -4.6931296    1262.9109  0.050841825  0.051433629            3 
 2071000   0.90873306   -4.7088062    1265.5758  0.050924505   0.05142178           10 
 2072000   0.89676224   -4.7248651    1262.3231  0.050769108  0.051410001            3 
 2073000   0.90538072   -4.7296437    1263.9144  0.050808587  0.051398104            5 
 2074000   0.91103278   -4.7094735    1265.4427  0.050845495  0.051386186            6 
 2075000    0.9344726    -4.715875    1264.8697  0.050797981  0.051374545            2 
 2076000   0.90398952   -4.7123754    1270.1412  0.050985114  0.051362623            4 
 2077000   0.91056505   -4.7163737    1264.3064  0.050726465  0.051350882            4 
 2078000    0.9117092   -4.7142732    1264.2551  0.050699995   0.05133927            7 
 2079000   0.91278998   -4.7357624    1267.4472   0.05080356  0.051327467            3 
 2080000   0.92047981   -4.7120396    1268.9507  0.050839371  0.051315828            4 
 2081000   0.92386869   -4.7208347    1267.7646  0.050767444  0.051304001            2 
 2082000   0.94182672   -4.7077854    1269.9562  0.050830782  0.051292228            5 
 2083000   0.94329554   -4.7066451    1267.7718  0.050718986  0.051280674            3 
 2084000   0.92045793    -4.721324     1266.778  0.050654911  0.051268837            5 
 2085000   0.92541958   -4.7299676    1268.2674  0.050690142  0.051256912            6 
 2086000   0.93018825   -4.7090523    1267.2788  0.050626348  0.051245191            5 
 2087000   0.91738354   -4.6952069    1268.8553  0.050665043  0.051233347            5 
 2088000   0.94418351   -4.7241906    1268.2928  0.050618328  0.051221691            5 
 2089000   0.92669518   -4.7403501    1266.0267  0.050503697  0.051209962            3 
 2090000   0.92058303   -4.7100489    1272.2714  0.050728523  0.051198374            6 
 2091000   0.91397048   -4.7174197     1267.405  0.050510321  0.051186903            4 
 2092000    0.9198373   -4.7291199    1273.6672  0.050735628  0.051175265            3 
 2093000   0.91517005   -4.7318052    1268.9889   0.05052512  0.051163447            3 
 2094000   0.90068415   -4.7210005    1272.4846  0.050640106  0.051152019            8 
 2095000   0.90547245   -4.7239546    1275.0525  0.050718078   0.05114041            6 
 2096000    0.9240486   -4.7395801    1273.7765  0.050643149  0.051128818            9 
 2097000   0.94061557   -4.7424575    1269.4687  0.050447812  0.051117168            2 
 2098000   0.90816144   -4.7196923    1274.8132  0.050636049  0.051105622            4 
 2099000   0.91617224   -4.7512622    1270.6787  0.050447782  0.051093824            6 
 2100000   0.88900573    -4.764405    1270.8192  0.050429334  0.051082028            2 
 2101000   0.89996278   -4.7584765    1273.4422  0.050509369  0.051070386            4 
 2102000   0.91486221   -4.7309255    1276.8166  0.050619117  0.051058752            4 
 2103000   0.90927865   -4.7307918    1277.0947  0.050606066  0.051047348            5 
 2104000    0.9064027   -4.7382497    1279.0844   0.05066082    0.0510359            4 
 2105000   0.89248935   -4.7510346    1273.3463  0.050409594  0.051024418            2 
 2106000   0.92264949   -4.7450133     1277.506  0.050550255  0.051012871            2 
 2107000   0.90167236   -4.7297354    1280.2857    0.0506362  0.051001491            3 
 2108000   0.91830584   -4.7116425    1282.7932  0.050711306  0.050990042            7 
 2109000   0.90154788   -4.7054974    1284.8891  0.050770075  0.050978685            3 
 2110000   0.90975427   -4.7266914    1284.8169  0.050743163  0.050967386            4 
 2111000   0.90849759    -4.720568    1275.4699  0.050350146  0.050955978            3 
 2112000   0.89501558   -4.7442678    1280.9079  0.050540873   0.05094449            6 
 2113000    0.8940559   -4.7048966    1284.0175  0.050639593  0.050932985            4 
 2114000   0.92705277   -4.7244571    1282.9649  0.050574145  0.050921616            4 
 2115000   0.89157814    -4.697678    1284.3476  0.050604712  0.050910305            6 
 2116000    0.9029009   -4.7177315    1283.6824    0.0505546   0.05089874            5 
 2117000   0.90686017   -4.7595864     1282.615  0.050488701  0.050887049            4 
 2118000   0.90100657   -4.7395663    1280.4243  0.050378673  0.050875466            4 
 2119000   0.89721214   -4.7606476    1275.6787  0.050168269  0.050863908            4 
 2120000   0.93079378   -4.7717172    1274.7451  0.050107907   0.05085218            4 
 2121000   0.93481773   -4.7359172    1277.6891  0.050199948  0.050840377            4 
 2122000   0.91032361   -4.7412729    1277.4522  0.050166988  0.050828589            6 
 2123000   0.92909504   -4.7460153    1281.7849  0.050313426  0.050816832            9 
 2124000    0.9299812   -4.7258503    1278.1653  0.050147728  0.050805011            6 
 2125000   0.91524361   -4.7355848    1280.7636  0.050226023  0.050793386            2 
 2126000   0.91073788   -4.7164122    1282.2744  0.050261619  0.050781536            6 
 2127000   0.91562979   -4.7251431    1280.4164  0.050165194  0.050769668            4 
 2128000    0.9081681   -4.7480985    1285.7627  0.050350983  0.050757848            3 
 2129000   0.90160279   -4.7188135    1283.7708  0.050249364  0.050746007            3 
 2130000    0.9025934   -4.7378457    1282.5855  0.050179403  0.050734256            6 
 2131000   0.90377783   -4.7422238    1283.4006  0.050187728  0.050722581            2 
 2132000    0.9070647   -4.7274944    1285.4449  0.050244095  0.050710933            2 
 2133000    0.9154495   -4.7627774    1277.8725  0.049924694  0.050699156            6 
 2134000   0.91218411   -4.7332704    1288.8601   0.05033037  0.050687365            7 
 2135000   0.91777032    -4.758211    1281.3738   0.05001459  0.050675555            2 
 2136000   0.91225568    -4.737803    1281.9162  0.050012337  0.050663765            4 
 2137000   0.90268671   -4.7463816    1287.1257  0.050192078  0.050652073            3 
 2138000    0.8998672   -4.7552352    1283.3458  0.050021273  0.050640422            3 
 2139000   0.92149169   -4.7269649    1285.6523  0.050087748  0.050628601            3 
 2140000   0.91635367   -4.7228166    1287.2105  0.050125018  0.050616838            4 
 2141000   0.90127634   -4.7325597    1290.5325  0.050230909  0.050604987            7 
 2142000   0.91689236     -4.75237    1286.6198  0.050055236  0.050593312            4 
 2143000   0.90719979   -4.7315525    1292.7258   0.05026932  0.050581435            6 
 2144000   0.92893774   -4.7273167    1290.3377  0.050153051  0.050569704            5 
 2145000    0.9240851    -4.741824    1288.6565  0.050064355  0.050558013            3 
 2146000   0.92214436   -4.7193249    1290.7595  0.050122688  0.050546186            5 
 2147000   0.89581474   -4.7479371     1287.582  0.049976014  0.050534571            2 
 2148000   0.90910242   -4.7523437    1288.9315  0.050005103  0.050522844            2 
 2149000   0.92027725   -4.7252852    1287.6757  0.049933134  0.050511073            9 
 2150000   0.90856815   -4.7290223     1292.011  0.050077946  0.050499321            4 
 2151000   0.90112809    -4.708846     1288.121   0.04990396  0.050487629            5 
 2152000    0.9094617   -4.7349928    1287.1721  0.049844026  0.050475681            2 
 2153000   0.89234495   -4.7471218     1288.359  0.049866813   0.05046381            9 
 2154000   0.91816066   -4.7479846    1289.8624  0.049901827  0.050451797            2 
 2155000   0.88771783   -4.7388606     1287.015  0.049768563  0.050439799            5 
 2156000   0.92391553   -4.7431794    1293.3683  0.049991045  0.050427691            4 
 2157000   0.89920344   -4.7532625     1290.979  0.049875561  0.050415709            6 
 2158000    0.9129031     -4.75275    1294.3798  0.049983772  0.050403772            4 
 2159000    0.9157325   -4.7575366    1288.8108  0.049745668  0.050392047            7 
 2160000   0.90868864   -4.7408069     1297.792  0.050069138  0.050380343            5 
 2161000   0.91559734   -4.7539405    1295.9441  0.049974705  0.050368527            5 
 2162000   0.92225051   -4.7720038    1289.0757  0.049686851  0.050356938            4 
 2163000   0.91331147   -4.7456593    1291.6015  0.049761192  0.050345266            5 
 2164000   0.91210873   -4.7235844    1297.7163  0.049973673  0.050333664            2 
 2165000   0.90768022      -4.7221    1295.7477  0.049874813  0.050321893            5 
 2166000   0.89341115   -4.7798907     1295.439  0.049839912  0.050310191            8 
 2167000   0.90783283   -4.7577032    1296.8787  0.049872277  0.050298283            4 
 2168000   0.89432017   -4.7380882    1295.5123   0.04979675  0.050286574            3 
 2169000   0.91788205   -4.7279234    1295.1424   0.04975958   0.05027493            3 
 2170000   0.88973094   -4.7413411    1297.3852  0.049822779  0.050263101            4 
 2171000   0.90040037   -4.7773006    1296.7421  0.049775148  0.050251428            3 
 2172000   0.89928969   -4.7518483    1292.9695  0.049607484  0.050239498            3 
 2173000   0.91227521   -4.7658972    1297.1181  0.049743751  0.050227846            1 
 2174000   0.92304731   -4.7558485    1296.7071  0.049705118  0.050215944            5 
 2175000   0.90321107   -4.7540373     1297.658  0.049718698  0.050204102            5 
 2176000   0.89557511    -4.769941    1299.3691  0.049761377  0.050192057            4 
 2177000    0.9165399   -4.7713314    1294.2773  0.049543609  0.050180197            3 
 2178000   0.89064818   -4.7696252    1297.1818  0.049631995  0.050168244            5 
 2179000   0.92187551   -4.7483772    1297.7837  0.049632234  0.050156504            3 
 2180000   0.92085005   -4.7725623    1296.6251   0.04956518  0.050144914            4 
 2181000   0.87923315   -4.7361156    1294.4339  0.049458729  0.050133114            7 
 2182000   0.89098615   -4.7295923    1304.3225   0.04981372  0.050121543            4 
 2183000   0.87748894    -4.740013    1296.6377  0.049497546   0.05010989            5 
 2184000   0.90925339   -4.7395738    1301.6236  0.049665125  0.050098288            4 
 2185000   0.90368239   -4.7718037    1298.7755  0.049533772  0.050086603            4 
 2186000   0.87588183    -4.768378    1296.9976  0.049443335  0.050074777            4 
 2187000   0.91186211   -4.7497347    1299.1444  0.049502531  0.050063008            4 
 2188000   0.89766034    -4.760207    1298.3426   0.04944937  0.050051393            4 
 2189000    0.9063812   -4.7230927    1300.8593  0.049522585  0.050039628            5 
 2190000   0.89866104   -4.7354258    1308.2977  0.049783017  0.050028069            4 
 2191000   0.90116386   -4.7537401    1305.8648  0.049667762  0.050016652            6 
 2192000   0.90408389    -4.755094    1301.1613  0.049466289  0.050005142            4 
 2193000   0.90163619   -4.7666607    1305.6896  0.049615809  0.049993623            1 
 2194000   0.88241274   -4.7494509    1303.4274   0.04950727   0.04998222            2 
 2195000   0.88588769   -4.7568352    1300.2225   0.04936304  0.049970581            4 
 2196000   0.89524927   -4.7664729     1307.285   0.04960857  0.049958962            1 
 2197000   0.89403534   -4.7596397    1304.8094  0.049492089  0.049947595            2 
 2198000   0.89792193   -4.7363792    1308.9509  0.049626587  0.049935974            3 
 2199000   0.90333998   -4.7660522    1306.0381  0.049493637  0.049924489            4 
 2200000     0.926438   -4.7589341    1307.6131    0.0495308  0.049912922            4 
 2201000   0.91671566   -4.7441804    1307.7088   0.04951192  0.049901265            4 
 2202000     0.922175   -4.7724447    1306.1643  0.049430985  0.049889743            3 
 2203000   0.89926368   -4.7415274    1311.7516  0.049619896  0.049878267            4 
 2204000   0.90189865   -4.7740908    1303.4236  0.049282503  0.049866714            9 
 2205000   0.88883783   -4.7499974    1307.8498  0.049427431  0.049854995            6 
 2206000   0.91534585   -4.7855993    1305.8493  0.049329454  0.049843415            7 
 2207000   0.90549056   -4.7496764    1311.2318   0.04951034  0.049831827            7 
 2208000   0.88463782   -4.7546949    1311.1768  0.049485841  0.049820237            7 
 2209000   0.91149511   -4.7526752    1309.6608  0.049406247  0.049808674            3 
 2210000   0.88162091   -4.7476752    1311.0518  0.049436343  0.049797224            5 
 2211000   0.90897131   -4.7810187    1307.6115  0.049284316  0.049785832            3 
 2212000   0.90419506   -4.7483744    1311.6303  0.049413437  0.049774169            8 
 2213000   0.91073365   -4.7763862    1304.8611  0.049136205   0.04976262            5 
 2214000   0.88108007    -4.775565    1311.5089   0.04936423  0.049751105            4 
 2215000   0.89149081   -4.7698782    1309.5846  0.049269548  0.049739729            5 
 2216000    0.8952344    -4.769516    1312.4565  0.049355312  0.049728309            5 
 2217000   0.88446816   -4.7421139    1315.5741  0.049450236  0.049717085            3 
 2218000   0.89284963   -4.7757334    1306.6413  0.049092323  0.049705617           11 
 2219000   0.88945584   -4.7571762    1308.8505  0.049153165  0.049694131            2 
 2220000   0.88260822   -4.7515058    1312.9191   0.04928375  0.049682769            5 
 2221000   0.91725115    -4.754062    1314.3101  0.049313752  0.049671563            1 
 2222000   0.88463535   -4.7708217    1315.1312  0.049322354  0.049660029            3 
 2223000    0.8942652   -4.7357196     1315.841  0.049326774  0.049648459            4 
 2224000   0.88486966   -4.8039512    1313.6071  0.049220891  0.049636957            4 
 2225000   0.89020468   -4.7861012    1315.8396  0.049282382  0.049625586            5 
 2226000   0.88907976    -4.750535    1321.0486   0.04945525  0.049614371            7 
 2227000   0.88750363   -4.7675798    1317.3108  0.049293176  0.049603007            6 
 2228000    0.9056356   -4.7857335    1318.5282  0.049316586  0.049591697            6 
 2229000   0.88294329   -4.7834282    1320.4174  0.049365088  0.049580399            5 
 2230000   0.89684264   -4.7956878    1311.4368  0.049007356  0.049569208            4 
 2231000    0.8934139    -4.764623    1320.4278  0.049321224   0.04955781            5 
 2232000   0.89119946    -4.768353    1316.7822  0.049163015  0.049546646            4 
 2233000   0.89147817   -4.7797137    1320.8448  0.049292609  0.049535341            4 
 2234000   0.88098953   -4.7489475    1322.1011  0.049317407  0.049524151           10 
 2235000   0.91058858   -4.7919777    1318.7123  0.049168991  0.049512898            7 
 2236000   0.89628754   -4.7573984    1321.7121  0.049258799   0.04950165            4 
 2237000   0.90570788   -4.7605677    1317.8349  0.049092343  0.049490453            3 
 2238000   0.89026962   -4.7497666    1324.0941  0.049303475   0.04947943            3 
 2239000   0.89333901   -4.7573162    1320.8342  0.049160122  0.049468291            9 
 2240000   0.90043854   -4.7714911    1320.2587  0.049116765  0.049456981            3 
 2241000   0.89762956    -4.771996    1317.7965  0.049003292  0.049445747            4 
 2242000   0.89802372   -4.7391793    1322.6127  0.049160449  0.049434555            5 
 2243000    0.9030254   -4.7616962     1316.843  0.048924171  0.049423371            5 
 2244000   0.90578897   -4.7789571    1321.7204  0.049083495  0.049412235            5 
 2245000   0.90057406   -4.7678572    1327.0577  0.049259752   0.04940117            3 
 2246000   0.88377284   -4.8029285    1324.6155  0.049147206  0.049390069            2 
 2247000   0.90539092   -4.7582635    1326.8952  0.049209881  0.049379143           10 
 2248000     0.872584   -4.7564434    1326.3718  0.049168587  0.049368274           12 
 2249000    0.8987104   -4.7939904    1319.8571  0.048905331  0.049357275            5 
 2250000   0.88638531   -4.7737766    1324.8421  0.049068227  0.049346115            6 
 2251000   0.90313344   -4.8159878     1324.529  0.049034837  0.049335116            3 
 2252000   0.89148162   -4.7816879     1326.854  0.049099099  0.049324147            4 
 2253000   0.90168774    -4.744886    1325.2161  0.049016723  0.049313147            8 
 2254000   0.88066693   -4.7848572     1330.901  0.049205155  0.049302136            3 
 2255000   0.89012736   -4.7627687    1328.0555   0.04907818  0.049291164            5 
 2256000   0.88704385   -4.7862676    1332.1372  0.049207196  0.049280133            3 
 2257000   0.85759459   -4.8009044    1326.1198  0.048963217  0.049269051            6 
 2258000   0.88083811   -4.7940802    1330.9134  0.049118445  0.049258021            4 
 2259000   0.86640878   -4.7768382    1330.6705  0.049087741  0.049247032            4 
 2260000   0.89054616   -4.7588946    1331.0333  0.049079397  0.049236185            4 
 2261000   0.87621972   -4.7917976    1331.5736  0.049077607  0.049225263            6 
 2262000   0.87988585   -4.8171131    1330.5414  0.049017881  0.049214471            4 
 2263000   0.89471879   -4.7771388    1333.4911  0.049104844  0.049203465            4 
 2264000   0.88820185   -4.7712896    1333.8261  0.049095483  0.049192654            7 
 2265000   0.89568126   -4.7652374    1334.1622  0.049086173  0.049181961            6 
 2266000   0.88985809   -4.7442105    1338.5644  0.049226404  0.049171325            4 
 2267000   0.87983691   -4.7600352    1334.3423  0.049049491    0.0491608            4 
 2268000   0.88567122   -4.7864801    1334.4662  0.049032413  0.049150163            3 
 2269000   0.89564167   -4.8050628    1328.2147  0.048781208  0.049139307            8 
 2270000   0.88341359   -4.7906442    1335.7243    0.0490354  0.049128629            2 
 2271000   0.88218708   -4.7701828    1339.0334  0.049135234  0.049118141            5 
 2272000   0.86205834   -4.7764986    1338.2677  0.049085524  0.049107533            5 
 2273000   0.87558476   -4.7745031    1339.9423  0.049125324  0.049096969            3 
 2274000   0.90219847   -4.7889232    1336.3679  0.048972732  0.049086416            4 
 2275000   0.88271242   -4.7589011    1342.0639  0.049159849  0.049075873            2 
 2276000   0.89784948   -4.7545957    1340.7745  0.049091042  0.049065289            4 
 2277000   0.88820864   -4.7894843    1337.6715  0.048955917  0.049054595            3 
 2278000   0.89918596   -4.7690256    1341.5157  0.049075054  0.049043936            3 
 2279000   0.89909742   -4.7811402    1339.6483   0.04898524  0.049033279            4 
 2280000   0.89158942   -4.7717473    1337.2116  0.048874692  0.049022504            3 
 2281000   0.89358974    -4.785696     1341.285  0.049002084  0.049011825            3 
 2282000   0.87003029   -4.7864547    1342.4101  0.049021695  0.049001187            9 
 2283000   0.88473796   -4.8007928    1343.9635  0.049056925  0.048990466            6 
 2284000   0.90294481   -4.7785199    1338.9339  0.048851939  0.048979685            3 
 2285000    0.9027847   -4.7706722    1339.7332  0.048859707   0.04896899            6 
 2286000   0.88398259   -4.7584017    1341.4669  0.048901536  0.048958455            4 
 2287000   0.88074364   -4.7926562    1343.3814  0.048949912  0.048947869            3 
 2288000   0.88310639   -4.7781785    1341.4924  0.048859719  0.048937183            5 
 2289000   0.88340236   -4.7923821    1340.1004  0.048787696  0.048926353            3 
 2290000   0.88466219   -4.8183922    1340.5732  0.048783596  0.048915696            3 
 2291000   0.87529598   -4.8053363    1341.7805  0.048806216  0.048904785            3 
 2292000   0.89802015   -4.8118462    1336.1249  0.048579296  0.048893942           12 
 2293000   0.89924123   -4.7642291    1338.5593  0.048646582  0.048883198            4 
 2294000   0.90181093   -4.7574875    1344.5995  0.048844795  0.048872452            4 
 2295000   0.88776663   -4.7811072    1342.0971  0.048732648  0.048861724            4 
 2296000   0.86129433   -4.7719422    1340.8402  0.048665802  0.048850877            4 
 2297000     0.903692   -4.7882015    1337.9563  0.048539992  0.048840213            6 
 2298000   0.89287721   -4.7566715    1341.4369  0.048645087  0.048829433            6 
 2299000   0.88067861   -4.8007975    1341.9576    0.0486428  0.048818528            4 
 2300000    0.8709827   -4.8143583    1336.8596  0.048436943  0.048807515            3 
 2301000   0.86944119   -4.7994958    1339.1411  0.048498517  0.048796589            6 
 2302000   0.89450615   -4.7788942    1343.6747  0.048641569   0.04878568            5 
 2303000   0.90537165   -4.7912323    1343.7801  0.048624262  0.048774716            3 
 2304000   0.88410039   -4.8115482     1338.608  0.048416087  0.048763689            3 
 2305000   0.88169605   -4.8166312     1343.597  0.048575452  0.048752726            6 
 2306000   0.88903093   -4.7730471    1346.9505  0.048675576  0.048741847            6 
 2307000      0.89167   -4.7846366    1343.5079  0.048530123  0.048730977            2 
 2308000   0.88116931   -4.7886149    1342.5437  0.048474282  0.048720036            4 
 2309000   0.90045034   -4.7817326     1345.782  0.048570161  0.048708905            6 
 2310000   0.88167198   -4.7970747    1345.2814  0.048531076  0.048698029            3 
 2311000   0.87292236   -4.7973604    1342.8692  0.048423092  0.048687075            6 
 2312000   0.86876041   -4.7761313    1346.7156  0.048540786  0.048676091            3 
 2313000   0.86358057   -4.7888603    1349.8475  0.048632639  0.048665238            3 
 2314000   0.87880628   -4.7909026    1343.0853  0.048368095  0.048654471            2 
 2315000   0.89605462   -4.7658152    1349.1121  0.048564152  0.048643565            4 
 2316000   0.88298299   -4.8272923    1341.4376  0.048267039  0.048632693            4 
 2317000   0.88588148   -4.7823649    1348.3714  0.048495589   0.04862182            4 
 2318000   0.86739253   -4.7980594    1344.6736   0.04834173   0.04861094            5 
 2319000   0.90279163   -4.7848652    1346.9161  0.048401472  0.048600095            7 
 2320000   0.86628045    -4.788468    1349.3884  0.048469412  0.048589261            3 
 2321000   0.87931139   -4.8143499     1349.153  0.048440077  0.048578506            2 
 2322000   0.90261584   -4.7803098    1349.9592  0.048448148  0.048567773            4 
 2323000   0.87761864   -4.8109918    1348.1128  0.048361056  0.048556912            3 
 2324000   0.89327874   -4.8268701    1354.0946  0.048554739  0.048546094            3 
 2325000   0.87549167   -4.7622955    1351.0232  0.048423769  0.048535422            3 
 2326000   0.87685642   -4.8055526    1350.2538  0.048375386  0.048524721            4 
 2327000   0.88140333   -4.8083928    1351.9975  0.048417043  0.048513959            3 
 2328000   0.90206406   -4.7978983    1349.7942  0.048317375  0.048503252            4 
 2329000   0.88682955   -4.7814796    1353.7517   0.04843823  0.048492373            4 
 2330000   0.88799459    -4.793586    1347.7727  0.048203603  0.048481428            5 
 2331000   0.85241225   -4.8068123    1345.2994  0.048094501  0.048470462            6 
 2332000   0.87490048   -4.7504269    1350.0535  0.048243763   0.04845958            4 
 2333000   0.86715031   -4.7982384    1352.8236  0.048322031  0.048448681            6 
 2334000   0.87149456   -4.7894891    1350.7676  0.048227922  0.048437723            7 
 2335000   0.86346881   -4.8164389    1347.6326  0.048095381  0.048426782            2 
 2336000   0.88786116   -4.8079589    1354.4977  0.048319694  0.048415912            4 
 2337000   0.87209462   -4.7916455    1356.9861   0.04838775   0.04840529            2 
 2338000   0.88447707   -4.7937839    1359.0353  0.048440094  0.048394477            9 
 2339000   0.88325691   -4.8095127    1350.7289  0.048123447  0.048383538            4 
 2340000   0.88462916   -4.8087258    1355.5047  0.048272961  0.048372653            6 
 2341000     0.861721   -4.8153781    1352.0976  0.048131055  0.048361719            4 
 2342000   0.88042616   -4.8061484    1353.5915   0.04816366   0.04835077            2 
 2343000   0.86438612   -4.8296597     1351.266  0.048060391  0.048339685            6 
 2344000   0.89768389   -4.8093468     1348.693  0.047948415  0.048328339            3 
 2345000   0.86637366   -4.8012174    1353.9696  0.048115479  0.048317094            2 
 2346000   0.89455503   -4.7824301    1354.8664  0.048126826  0.048306142            7 
 2347000   0.87951827   -4.8205656    1353.4132  0.048054722  0.048295119            8 
 2348000   0.87892629   -4.7802645    1351.7348  0.047974687  0.048284039            6 
 2349000    0.8911758   -4.8272577    1348.7147  0.047847123  0.048272902            3 
 2350000   0.87436547   -4.7866683    1352.8226  0.047972433  0.048261683            5 
 2351000   0.86983182   -4.8257758    1355.3548  0.048041784  0.048250679            7 
 2352000   0.88127491   -4.7995755    1359.1964  0.048157467  0.048239669           13 
 2353000   0.86582772   -4.8018394    1354.2658  0.047962382  0.048228732            5 
 2354000   0.87955641   -4.7988069    1355.4101  0.047982515  0.048217838            2 
 2355000   0.88237837   -4.8384501    1356.6731  0.048006832   0.04820683            6 
 2356000   0.85853532   -4.8161654    1360.0534   0.04810602  0.048195794            5 
 2357000   0.88913235   -4.8159417    1354.3991  0.047885698  0.048184819            4 
 2358000   0.86914957   -4.7775512    1357.0487  0.047959031  0.048173972            4 
 2359000   0.86234999   -4.8436215    1350.4041  0.047703973   0.04816299            6 
 2360000    0.8683369   -4.8481897    1350.2137  0.047677036  0.048151812            4 
 2361000   0.88430914   -4.7965281    1355.9436  0.047859085  0.048140694            4 
 2362000   0.87306179   -4.7891931    1358.3305  0.047923033  0.048129775            4 
 2363000   0.86035731   -4.8317457    1357.3111  0.047866805  0.048118836            3 
 2364000     0.885928   -4.8250382    1355.3611  0.047777815  0.048107813            4 
 2365000   0.85123088   -4.7907931    1361.7028   0.04798107  0.048096815            4 
 2366000   0.85801304   -4.8071219    1357.7684  0.047822216  0.048085757            3 
 2367000   0.85647347   -4.8166002    1360.5012  0.047898226  0.048074896            2 
 2368000   0.87179698   -4.8247573    1359.4785   0.04784201  0.048064189            4 
 2369000   0.86726478   -4.8143004    1365.8763  0.048046865  0.048053506            2 
 2370000   0.88468383   -4.8128519    1361.0353  0.047856374  0.048042837            2 
 2371000   0.86089377    -4.816913    1363.5756  0.047925474  0.048032018            3 
 2372000   0.87614814   -4.8012071    1365.0258  0.047956219   0.04802128            5 
 2373000   0.87170434   -4.8115126     1363.429  0.047879934  0.048010454            5 
 2374000   0.86787136   -4.8141678    1362.9004  0.047841211  0.047999596            5 
 2375000   0.85852458   -4.8142121    1365.1136  0.047898722  0.047988803           12 
 2376000   0.86319507   -4.8228532    1362.3837  0.047782819  0.047977965            4 
 2377000   0.88277709   -4.7972182    1366.0269  0.047890439  0.047967134            6 
 2378000   0.89247534   -4.8033322    1365.4702  0.047850792  0.047956283            5 
 2379000   0.88079139   -4.8335126     1358.807  0.047597276  0.047945417            8 
 2380000   0.85345977   -4.8133811    1365.9441  0.047827173  0.047934482            4 
 2381000   0.86537402   -4.8622936    1359.2359  0.047572306  0.047923479            7 
 2382000   0.85350999   -4.8330172     1364.193  0.047725756  0.047912506            7 
 2383000   0.87497285   -4.8146539    1364.1754  0.047705113  0.047901598            5 
 2384000   0.86518145   -4.8271986     1364.263  0.047688163  0.047890843            4 
 2385000   0.87337365   -4.8323956    1362.9714   0.04762304  0.047879888            5 
 2386000   0.88376602   -4.8309406     1363.481   0.04762088  0.047868994            5 
 2387000   0.87634309   -4.8171144    1368.1862  0.047765195  0.047858047            4 
 2388000   0.86758114   -4.8186035    1364.7463  0.047625149   0.04784716            2 
 2389000   0.86493724   -4.7925694    1369.3165  0.047764634  0.047836275            6 
 2390000   0.88845965   -4.7904595    1367.9602  0.047697355  0.047825423            4 
 2391000   0.86032741   -4.8143684    1367.0091   0.04764426  0.047814439            6 
 2392000   0.85007319   -4.8243027    1369.3694   0.04770657  0.047803722            4 
 2393000   0.89060345    -4.811265    1371.1561  0.047748855  0.047792977            5 
 2394000   0.87562852   -4.8129106    1366.4009  0.047563384  0.047782142            3 
 2395000   0.87132073   -4.7911869    1371.6562   0.04772638  0.047771316            7 
 2396000    0.8854166    -4.817686    1371.9438  0.047716464  0.047760521            7 
 2397000   0.87125183   -4.8014251    1367.7396  0.047550396  0.047749738            7 
 2398000   0.85107703    -4.812004    1369.3137   0.04758527  0.047738908            4 
 2399000   0.86938501   -4.8239803    1371.7343  0.047649515  0.047728006            4 
 2400000   0.86796438   -4.8046065    1367.5647  0.047484884  0.047717145            9 
 2401000   0.86334783   -4.8032554    1366.3497  0.047422937  0.047706163            5 
 2402000   0.87181046   -4.8023348    1368.8227  0.047488992  0.047695413            3 
 2403000   0.86698523    -4.814782    1370.3282   0.04752144  0.047684531            5 
 2404000   0.87251278   -4.8259034    1368.4432  0.047436328   0.04767341            6 
 2405000   0.85385385   -4.8086011    1367.4145  0.047380958  0.047662375            4 
 2406000     0.869331   -4.8298147     1367.361  0.047359416  0.047651335            4 
 2407000   0.86989438   -4.8231271    1369.5487  0.047415478  0.047640216            4 
 2408000   0.86974779   -4.8254463    1365.7602  0.047264681  0.047629103            3 
 2409000   0.86684054   -4.8240565    1374.7915  0.047557476  0.047618244            2 
 2410000   0.86937602   -4.8453269    1371.1575  0.047412084  0.047607319            7 
 2411000    0.8832892   -4.8436509    1372.4821  0.047438202  0.047596151            5 
 2412000   0.85081111   -4.8300506    1370.6495  0.047355222  0.047585062            3 
 2413000   0.87878492    -4.805203    1372.4109  0.047396425  0.047573963            3 
 2414000   0.86538926   -4.8181231    1374.5381  0.047450225  0.047562936            5 
 2415000   0.84949992   -4.8187016     1373.104  0.047381089  0.047551894            3 
 2416000    0.8715762   -4.8146919    1375.0179  0.047427493  0.047540918            4 
 2417000   0.86424604   -4.7938874    1376.5405  0.047460366  0.047530053            5 
 2418000   0.86034634   -4.8186839    1375.1917  0.047394256  0.047519194            4 
 2419000   0.86394077   -4.8096344    1372.1074  0.047268411  0.047508268            5 
 2420000   0.84712013   -4.8256778    1375.8389  0.047377373  0.047497324            4 
 2421000   0.84568116   -4.8095969    1374.0733  0.047297031  0.047486334            4 
 2422000   0.86279146   -4.8225113    1377.9118  0.047409572  0.047475443            6 
 2423000   0.85981821   -4.8436118    1374.8676  0.047285309  0.047464525            6 
 2424000   0.84882945   -4.8214325    1371.9486  0.047165449  0.047453542            4 
 2425000   0.84798387   -4.8362498    1375.3874  0.047264172  0.047442582            3 
 2426000   0.84449684   -4.8469559    1370.9215  0.047091284  0.047431662            7 
 2427000   0.86447287   -4.8272716    1375.4183  0.047226286  0.047420679            6 
 2428000   0.86314447   -4.8220072    1377.6835  0.047284578   0.04740977            5 
 2429000   0.85656626   -4.8172293    1375.2315  0.047180992  0.047398964            6 
 2430000   0.85286537   -4.8168083    1377.9641  0.047255284  0.047388058            5 
 2431000   0.86109662   -4.8115975    1382.7395  0.047399543  0.047377178            4 
 2432000   0.86454641   -4.8206449    1376.6255  0.047170557  0.047366283            7 
 2433000    0.8637944   -4.8148149    1377.9925  0.047197989  0.047355395            5 
 2434000   0.85285785   -4.8625227    1376.6937   0.04713413  0.047344586            4 
 2435000   0.86822137   -4.8037744    1378.1379    0.0471642  0.047333763           15 
 2436000   0.85756082   -4.8526474    1380.5497  0.047227343  0.047322965            3 
 2437000   0.85504115   -4.8277359    1378.1116  0.047124593  0.047312042            5 
 2438000   0.85313848   -4.8005827    1380.7638  0.047195919  0.047301188            7 
 2439000   0.87667553   -4.8600514    1380.7812  0.047177162    0.0472903            9 
 2440000   0.85218161   -4.8449741    1380.5346  0.047149405  0.047279376            6 
 2441000   0.86149969   -4.8339828    1379.9321  0.047109522  0.047268458            5 
 2442000   0.85369289   -4.8217882    1380.6913  0.047116136  0.047257567            3 
 2443000   0.86467196   -4.8343163    1381.2329  0.047115326  0.047246786            6 
 2444000   0.86118819   -4.8229984    1376.3988  0.046931219  0.047235863            8 
 2445000   0.86716617   -4.8228795    1382.1321  0.047107434  0.047224944            4 
 2446000   0.86411548    -4.821301    1379.9214  0.047012859  0.047214066           10 
 2447000   0.86737347   -4.8163916     1385.327  0.047177735  0.047203295            5 
 2448000   0.86641561   -4.8261457    1383.7484  0.047104724  0.047192339            3 
 2449000   0.86885631   -4.8418691    1386.3418  0.047173737  0.047181608            4 
 2450000   0.86317959   -4.8221108    1381.4855  0.046989303  0.047170749            5 
 2451000   0.86694313   -4.8499517    1380.2755   0.04692899  0.047159778            6 
 2452000   0.86700306   -4.8379062    1386.3859  0.047117519  0.047148787            6 
 2453000   0.85292783   -4.8225262    1386.9235  0.047116574  0.047137938            3 
 2454000   0.84060696   -4.8372818    1386.2011  0.047072845  0.047127215            3 
 2455000   0.84825841   -4.8432471     1386.823  0.047074778  0.047116505            3 
 2456000   0.87307889   -4.8270005    1385.5095  0.047011045  0.047105891            7 
 2457000   0.86746656   -4.8321959    1389.0983  0.047113633  0.047095282            5 
 2458000    0.8572475   -4.8388631    1387.4759   0.04703946  0.047084633            4 
 2459000   0.84981584   -4.8229748    1386.6805  0.046993376    0.0470739            4 
 2460000   0.86531486    -4.843111     1383.776   0.04687588  0.047063324            8 
 2461000   0.83654677   -4.8268312    1391.2759  0.047110791  0.047052732            8 
 2462000   0.88380977   -4.8335853    1391.0395  0.047083655  0.047042166            4 
 2463000   0.86322271   -4.8175425     1390.917  0.047060393  0.047031655            4 
 2464000    0.8828889   -4.8152697    1391.5356  0.047062214   0.04702121            3 
 2465000   0.86441531   -4.8366228    1389.5957  0.046977541  0.047010657            4 
 2466000   0.84651437   -4.8552615    1388.8541  0.046933432  0.047000106            5 
 2467000   0.85445216   -4.8642527    1386.1904  0.046824428  0.046989407            3 
 2468000   0.87415855   -4.8630821     1384.592  0.046751485  0.046978712            8 
 2469000   0.86754399   -4.8532768    1387.7721  0.046839884  0.046968133            4 
 2470000   0.87508321   -4.8386733    1390.8627  0.046925191  0.046957472            4 
 2471000   0.85346984   -4.8432828    1386.3914  0.046755409  0.046947041            3 
 2472000   0.85919397   -4.8387655     1392.039  0.046926882  0.046936421            4 
 2473000    0.8547622   -4.8410687    1395.8391  0.047035959  0.046925938            3 
 2474000   0.85947575   -4.8124678    1396.2265  0.047029996  0.046915585            5 
 2475000   0.86582072    -4.852779    1394.8745  0.046965472  0.046905273            4 
 2476000   0.84330358   -4.8392862     1396.685  0.047007439  0.046894894            4 
 2477000   0.85665557   -4.8552675    1397.9622   0.04703143  0.046884509            3 
 2478000   0.87159891   -4.8375159    1396.3926  0.046959666    0.0468741            4 
 2479000   0.85634659   -4.8698067     1392.544   0.04681135  0.046863664            3 
 2480000    0.8331466   -4.8255671    1394.4308  0.046855874  0.046853269            4 
 2481000   0.87266087    -4.823225    1396.6771  0.046912439   0.04684298            5 
 2482000   0.86225212   -4.8350023    1397.3387  0.046915751  0.046832572            6 
 2483000   0.85023928   -4.8570767    1396.6358  0.046873265  0.046822263            2 
 2484000   0.84430325   -4.8741801    1392.5967  0.046718893  0.046811774            6 
 2485000   0.85983201   -4.8131712    1404.0168  0.047083057  0.046801528            5 
 2486000   0.85935644   -4.8426578    1394.6186  0.046749083  0.046791258           11 
 2487000   0.88063371   -4.8214662    1401.5729  0.046963306  0.046780866            5 
 2488000   0.84733802   -4.8516089    1397.0463  0.046792817  0.046770553            5 
 2489000    0.8559311   -4.8351381    1396.6079  0.046759337  0.046760173            9 
 2490000   0.86175453   -4.8640158    1397.1652  0.046759209  0.046749617            5 
 2491000   0.86206873    -4.836518     1396.778  0.046727486  0.046739085            4 
 2492000   0.85857406   -4.8775242    1392.1152   0.04655281  0.046728657            4 
 2493000   0.85947706   -4.8463916    1403.8167  0.046925281  0.046718068            5 
 2494000   0.85902335    -4.863386    1401.1613   0.04681774  0.046707602            8 
 2495000   0.85882084   -4.8418016    1401.1922  0.046800007  0.046697236            7 
 2496000   0.86525201   -4.8278127     1399.131  0.046712439  0.046686761            6 
 2497000   0.86350948   -4.8523897     1402.129  0.046793787  0.046676364            3 
 2498000   0.84628611   -4.8265813    1400.0892  0.046707006  0.046665837            3 
 2499000   0.85189245   -4.8412259    1401.1579  0.046723953  0.046655455            5 
 2500000   0.85531193   -4.8334142    1398.1549  0.046605163  0.046644989            4 
 2501000   0.84541529   -4.8298037     1401.201  0.046688026  0.046634581           12 
 2502000   0.85905124   -4.8581935    1395.7691  0.046488446   0.04662425            3 
 2503000   0.84029763   -4.8632002    1400.1176  0.046614649  0.046613709            9 
 2504000   0.83920058   -4.8219786    1404.9964  0.046758399  0.046603317            6 
 2505000   0.87376897   -4.8653577     1401.189  0.046613073  0.046593081            6 
 2506000   0.85369837   -4.8704804    1400.2182  0.046562191  0.046582449           12 
 2507000   0.84220225   -4.8400392    1398.1621  0.046475271  0.046572094            3 
 2508000    0.8596436   -4.8549231    1406.3069  0.046727371  0.046561693            3 
 2509000   0.82650627   -4.8320118    1405.6611  0.046687295  0.046551262            6 
 2510000   0.86042969   -4.8653821    1399.5467  0.046465695  0.046540836            6 
 2511000   0.85354961   -4.8776204    1404.9187  0.046625472  0.046530264            3 
 2512000   0.84253472   -4.8297622    1404.5783  0.046595617  0.046519707            7 
 2513000   0.85259512   -4.8339917    1401.4593  0.046473647  0.046509111            6 
 2514000   0.83425153   -4.8582773    1406.6807  0.046628239  0.046498675            9 
 2515000   0.84374112   -4.8763112    1403.0681  0.046489995  0.046488254            8 
 2516000   0.85452156   -4.8780548    1404.3315  0.046513366  0.046477779            4 
 2517000   0.85743142   -4.8660195    1402.9595  0.046449459  0.046467173            3 
 2518000   0.84547989   -4.8397163     1405.838  0.046526276  0.046456733            5 
 2519000   0.85080883   -4.8668535    1402.7506  0.046405669  0.046446322            4 
 2520000   0.86640411   -4.8680851    1401.8752  0.046358308  0.046435801            5 
 2521000   0.84032561   -4.8854201    1403.5262  0.046394492  0.046425094            4 
 2522000   0.84088966   -4.8543848    1401.5501  0.046310803  0.046414585            6 
 2523000   0.84724854   -4.8641929    1404.6279  0.046394104  0.046404119            5 
 2524000    0.8453709   -4.8828043    1405.5298    0.0464055  0.046393559            5 
 2525000   0.85231351   -4.8882941    1405.8366  0.046397247  0.046382997            7 
 2526000   0.85625956    -4.877241    1403.6709  0.046307433   0.04637249            4 
 2527000   0.84285267    -4.871317    1408.0944  0.046434981  0.046361995            4 
 2528000   0.85193681   -4.8822248    1404.3682  0.046293783  0.046351473            4 
 2529000   0.83709625    -4.869464     1404.855  0.046291518  0.046340948            3 
 2530000    0.8687772   -4.8455413    1406.4451  0.046325595  0.046330528            3 
 2531000   0.83322413   -4.8691577    1406.7219  0.046316406  0.046319968            3 
 2532000   0.87340125   -4.8479562    1407.2818  0.046316541  0.046309557            4 
 2533000   0.86581259   -4.8334828    1406.7983   0.04628235  0.046299147            7 
 2534000   0.82635018   -4.8763566    1409.8124  0.046363208  0.046288788            4 
 2535000   0.85246949   -4.8590082    1408.4912  0.046301487  0.046278479           10 
 2536000   0.85649728   -4.8469664    1410.0999   0.04633609  0.046268058           13 
 2537000   0.83097159   -4.8862748    1405.7854  0.046176106  0.046257585            6 
 2538000   0.84146419   -4.8716747     1405.846  0.046159904  0.046247013            7 
 2539000   0.86169651   -4.8645917    1412.8103    0.0463703  0.046236631            4 
 2540000   0.83668617   -4.8551499    1408.0031  0.046194326   0.04622634            6 
 2541000   0.85631897   -4.8720578    1404.2224  0.046052158  0.046215954            6 
 2542000   0.85379043    -4.840842    1409.7263  0.046214475  0.046205452            5 
 2543000   0.84448043   -4.8717996    1409.6729  0.046194552  0.046194948            4 
 2544000   0.82705118   -4.8818975    1410.9622  0.046218626   0.04618439            3 
 2545000   0.85252452   -4.8885303    1406.3542  0.046049582  0.046173833            6 
 2546000   0.85454775   -4.8362743    1410.8541   0.04617878  0.046163233            4 
 2547000   0.84491916   -4.8690464     1405.127  0.045973268  0.046152791            5 
 2548000   0.84625292   -4.8779064    1410.6158  0.046134741  0.046142192            5 
 2549000   0.83464265   -4.8714791    1412.8256  0.046188885  0.046131608            2 
 2550000   0.84368079   -4.8572731    1411.5557  0.046129272  0.046121093            3 
 2551000   0.85037258   -4.8621418    1411.2973  0.046102748  0.046110507            2 
 2552000   0.84923604    -4.868539     1412.931  0.046138028  0.046099867            6 
 2553000    0.8362664   -4.8944493    1412.5492  0.046107495  0.046089326            5 
 2554000   0.84621571    -4.892212    1411.2862  0.046048233  0.046078716            3 
 2555000   0.83835107   -4.8718736    1412.4582  0.046068436   0.04606819            4 
 2556000   0.84487643   -4.8747568    1415.9298  0.046163596  0.046057634            6 
 2557000   0.81651225   -4.8731796     1417.997  0.046212911  0.046047049            3 
 2558000   0.83827154   -4.8809521    1412.6991  0.046022254  0.046036558            6 
 2559000   0.83577005    -4.852931    1415.4716  0.046094556  0.046025958            4 
 2560000   0.86212676   -4.8607707    1413.4522  0.046010814  0.046015649            3 
 2561000   0.82704042   -4.9160837    1412.0611  0.045947583  0.046005175            5 
 2562000   0.83150367   -4.8762498    1417.8202  0.046116974  0.045994752            4 
 2563000   0.83653059   -4.8803971    1415.9203  0.046037206   0.04598433            7 
 2564000   0.83510681    -4.855239    1419.3261  0.046129944  0.045973985            6 
 2565000   0.82952024   -4.8688588    1413.7937   0.04593222  0.045963537            5 
 2566000    0.8310929   -4.8682853    1417.8634  0.046046487  0.045953166            5 
 2567000   0.87310598   -4.8754067    1419.5352   0.04608282  0.045942826            3 
 2568000   0.83494713    -4.899122    1420.2601    0.0460884  0.045932478            8 
 2569000   0.84485084    -4.874168    1415.4433   0.04591421  0.045922108            5 
 2570000   0.86506991   -4.8970533     1417.675  0.045968709  0.045911737            6 
 2571000   0.84447669   -4.8943593    1417.7932  0.045954662  0.045901277            4 
 2572000   0.82739225   -4.8831393    1418.5449  0.045961149  0.045890931            6 
 2573000    0.8595451   -4.8726429    1420.3754  0.046002571   0.04588058            8 
 2574000   0.83214647   -4.8346705    1425.0828  0.046137103  0.045870416            3 
 2575000   0.84189866     -4.87656    1421.6278  0.046007371  0.045860095            3 
 2576000   0.82478904   -4.8856868    1425.5287  0.046115705   0.04584979            4 
 2577000   0.82929481   -4.8435465    1424.8179  0.046074824  0.045839637            2 
 2578000   0.84760362   -4.8732804    1418.9388  0.045866911   0.04582928            7 
 2579000   0.83981114   -4.8889493    1420.5957  0.045902667  0.045818986            2 
 2580000   0.82429245   -4.9151621    1419.2277  0.045840689   0.04580863            6 
 2581000   0.85494201   -4.8863871    1419.9206  0.045845299  0.045798309            6 
 2582000   0.83447641   -4.8643119    1424.2332  0.045966731  0.045787995           10 
 2583000   0.84734349   -4.8552097    1426.2679   0.04601458  0.045777799           12 
 2584000   0.83399502   -4.8682497    1426.5378  0.046005475  0.045767546            3 
 2585000   0.84461827   -4.8685983    1428.1157  0.046038548  0.045757324            2 
 2586000   0.86939748   -4.8833819    1423.1407  0.045860426  0.045747098            9 
 2587000   0.83310008   -4.8630923    1428.1469  0.046003958  0.045736928            4 
 2588000   0.82720217   -4.8772436    1422.4224  0.045801855  0.045726771            3 
 2589000   0.83173466   -4.9007146    1423.7295  0.045826236  0.045716538            4 
 2590000   0.85794542    -4.874412    1423.1872  0.045791094  0.045706321            7 
 2591000   0.82615437   -4.8578717    1425.7043  0.045854379  0.045696072            3 
 2592000   0.83442895   -4.8823089    1421.6334  0.045705805  0.045685893            4 
 2593000   0.83095813   -4.8925199    1420.4445   0.04564997  0.045675584            5 
 2594000   0.84961238   -4.8699251    1426.6569  0.045831948  0.045665324            4 
 2595000     0.844268   -4.8883339    1423.6089  0.045716408  0.045655134            3 
 2596000   0.84500635   -4.9003629    1427.6897  0.045829791  0.045644919            9 
 2597000   0.84273617   -4.8800342    1426.6553  0.045778952  0.045634629            4 
 2598000   0.84163612   -4.8745225    1423.8734  0.045672102  0.045624489            3 
 2599000   0.83094737   -4.8655699    1430.7671  0.045875563  0.045614285            3 
 2600000   0.82454505   -4.8481342    1423.6808  0.045630794  0.045604001            9 
 2601000    0.8273102   -4.9023598     1423.384  0.045603743  0.045593672            8 
 2602000   0.84586422   -4.8838604    1426.2762  0.045678843  0.045583364            4 
 2603000   0.82703548   -4.9053165     1427.013  0.045684882  0.045573116            5 
 2604000   0.84876987   -4.8865595    1426.0264  0.045635766  0.045562766           11 
 2605000    0.8429583   -4.8983032    1426.4646  0.045632265  0.045552523            6 
 2606000   0.83760454   -4.9009067    1428.5561  0.045681636  0.045542204            7 
 2607000   0.86731467   -4.9056769    1427.5516  0.045632002  0.045531962            7 
 2608000   0.84479675   -4.9153615     1421.474  0.045420308  0.045521721           10 
 2609000    0.8411272   -4.8893823    1428.7688  0.045635901  0.045511513            9 
 2610000   0.83900605   -4.8994633    1433.6266  0.045773519  0.045501296            3 
 2611000   0.83313089   -4.9076591    1429.2904  0.045617594  0.045491148            7 
 2612000   0.83886454   -4.8897853    1431.2462  0.045662526  0.045481041            5 
 2613000   0.83636715   -4.8777662    1428.1522  0.045546378  0.045470949            6 
 2614000     0.842348   -4.8746285    1427.1948  0.045498431   0.04546081            5 
 2615000   0.83637579   -4.8923579    1431.8842  0.045630471  0.045450675            3 
 2616000   0.83913016   -4.8792077    1431.0421  0.045586202  0.045440551           14 
 2617000   0.83064923    -4.886461    1434.5596  0.045680793  0.045430562            4 
 2618000   0.82579098   -4.8757113    1433.8462  0.045640637  0.045420458            9 
 2619000   0.84496531   -4.9004303    1430.6314  0.045520919  0.045410293            7 
 2620000   0.83821862   -4.8810517    1441.0165  0.045833859  0.045400361           10 
 2621000   0.82895601   -4.8813578    1432.1413  0.045534189  0.045390275            4 
 2622000   0.81605313   -4.8632386    1439.1261  0.045738815  0.045380434            3 
 2623000     0.822358   -4.8938456    1433.4049  0.045539615   0.04537042            4 
 2624000   0.83945599   -4.8872331     1435.322  0.045583143  0.045360445            5 
 2625000   0.81867778   -4.8998642    1435.4248  0.045569041  0.045350385            8 
 2626000    0.8234756   -4.8876169    1434.4817  0.045521759  0.045340224            7 
 2627000   0.81610199   -4.8733038    1436.0774  0.045555049  0.045330289            4 
 2628000   0.83632616   -4.8780409    1434.8294  0.045498142  0.045320307            4 
 2629000   0.80911572   -4.8834753    1438.6496  0.045601927  0.045310258            3 
 2630000   0.84318652   -4.9041789    1431.2558   0.04535031  0.045300156            5 
 2631000   0.84104118   -4.9049856    1433.8797  0.045416182  0.045289897            5 
 2632000   0.83994143   -4.8835434     1437.214  0.045504497  0.045279913            5 
 2633000    0.8316588     -4.88229    1433.8862  0.045381891    0.0452699            3 
 2634000   0.81087979   -4.9114637     1437.507  0.045479214  0.045259805            6 
 2635000   0.82781302   -4.9122465    1437.3079  0.045455658  0.045249779            8 
 2636000    0.8317882   -4.9091775    1437.2041  0.045435131  0.045239696            6 
 2637000   0.82662009   -4.9107185    1434.5597  0.045334334  0.045229497            5 
 2638000    0.8339055   -4.8982998    1435.2281  0.045338266  0.045219378            2 
 2639000   0.80892029   -4.8887562    1438.7559  0.045432483  0.045209253            5 
 2640000   0.82712113   -4.8965463    1436.2251  0.045335389   0.04519919            4 
 2641000   0.82212252   -4.9168881    1437.1539  0.045347529  0.045189114            7 
 2642000   0.82988436   -4.8840441    1439.7991  0.045413799   0.04517906            4 
 2643000   0.81406721   -4.8920392    1441.7132  0.045456967  0.045169065            5 
 2644000   0.83549356   -4.9041251    1438.4538  0.045337046  0.045158863            5 
 2645000   0.82995588    -4.893399    1441.1672  0.045405395  0.045148824            5 
 2646000   0.81758479   -4.9050626    1440.3205  0.045361569  0.045138822            5 
 2647000   0.81446317   -4.8714481    1438.7304  0.045294372  0.045128686            2 
 2648000   0.84247195    -4.887867    1440.0042  0.045317354  0.045118615            6 
 2649000   0.82206868   -4.9113473     1441.774  0.045355921    0.0451085            5 
 2650000   0.84598152   -4.9111965     1435.638  0.045145849  0.045098312            3 
 2651000   0.82315116    -4.904494    1436.7306  0.045163165  0.045088265            4 
 2652000   0.82988122   -4.9067379    1437.1327   0.04515877  0.045078035            3 
 2653000   0.82502321   -4.8956009    1442.1119  0.045298151  0.045067781            4 
 2654000    0.8289549   -4.8960761    1440.7372  0.045237916   0.04505759            3 
 2655000   0.82103617   -4.8906457    1437.7194  0.045126159  0.045047423            2 
 2656000   0.82165965   -4.9008244    1441.8042  0.045237331  0.045037365            5 
 2657000    0.8338844   -4.9221338    1442.2327  0.045233745  0.045027179            2 
 2658000   0.83629353   -4.8821834    1442.3535  0.045220512  0.045016969            2 
 2659000   0.81804414   -4.8751311    1442.2501  0.045200266  0.045006748            6 
 2660000   0.81287071   -4.9209172    1442.5298  0.045192036  0.044996437            3 
 2661000   0.82248129   -4.8969023    1441.2785  0.045135868  0.044986248            6 
 2662000   0.83094542    -4.872029    1442.0474  0.045142982  0.044976051            5 
 2663000   0.84820139   -4.8853436    1435.9267  0.044934493  0.044965863            7 
 2664000   0.81899929    -4.895823    1439.6695  0.045034707  0.044955566           22 
 2665000   0.82921649   -4.9084405    1440.5915  0.045046638    0.0449452            4 
 2666000   0.82258024   -4.8975152    1440.2616  0.045019429  0.044934918            5 
 2667000   0.78609248    -4.898772    1442.9806  0.045087509  0.044924717            6 
 2668000   0.82883172   -4.9060958    1441.7213  0.045031274   0.04491456            6 
 2669000   0.82950774    -4.930472    1437.3759  0.044878729  0.044904333            5 
 2670000    0.8385345   -4.8973147    1440.4889   0.04495908  0.044894144            8 
 2671000   0.82635468   -4.9118832    1441.1456  0.044962736  0.044883979            7 
 2672000   0.80846734   -4.9269532    1441.8629  0.044968278  0.044873656            8 
 2673000   0.82138262   -4.9399015    1439.8065  0.044887346  0.044863311           12 
 2674000   0.83178405   -4.8985827    1445.8991   0.04506043  0.044852956            2 
 2675000   0.82659788    -4.932701    1442.2263  0.044929169  0.044842691           12 
 2676000   0.82036954   -4.8950033    1443.7132  0.044958681  0.044832518            4 
 2677000   0.81380547   -4.8871758    1446.1731  0.045018462  0.044822276            4 
 2678000    0.8439399    -4.914465    1442.8396  0.044897921  0.044812041            5 
 2679000   0.82780417   -4.9089246    1441.1515   0.04482865  0.044801768            7 
 2680000    0.8296232   -4.8894401    1447.0508  0.044995361  0.044791485            3 
 2681000   0.82268391   -4.9001819    1445.2184   0.04492162  0.044781267            3 
 2682000   0.81864368   -4.9119135    1446.8451  0.044955417  0.044771183            3 
 2683000   0.83718299   -4.9264052     1443.613  0.044838271  0.044760955            8 
 2684000   0.83602772   -4.9161149    1444.1003  0.044836697  0.044750767           12 
 2685000   0.80626815   -4.9159504    1447.3786  0.044921745  0.044740601            4 
 2686000   0.81497967   -4.9365936    1443.9588  0.044798919  0.044730479            4 
 2687000   0.82659682   -4.9209754    1449.3427  0.044949222  0.044720275            7 
 2688000   0.84201295   -4.9069429    1448.3629  0.044902123  0.044710155            3 
 2689000    0.8112435   -4.9116869    1448.9691  0.044904211  0.044700024           10 
 2690000   0.82091214   -4.9114812    1445.4665  0.044779013  0.044689777            8 
 2691000   0.80022822   -4.8875739    1447.2965  0.044819043  0.044679599            3 
 2692000    0.8124576   -4.9176744    1449.4372  0.044868659  0.044669409            6 
 2693000   0.83551365   -4.9126627    1447.7724  0.044800482  0.044659273            4 
 2694000   0.80511438   -4.9298267    1446.0662  0.044731076  0.044648996            4 
 2695000   0.81462763    -4.888878    1447.0963  0.044746329   0.04463878            5 
 2696000   0.79495232   -4.9005755    1445.5286  0.044681275  0.044628531            4 
 2697000   0.81841167   -4.8962626    1449.7151  0.044794064  0.044618266           10 
 2698000   0.82268918   -4.9344943    1443.6997  0.044591665  0.044607952            6 
 2699000   0.82207105   -4.9096172    1450.3635   0.04478089  0.044597616            4 
 2700000   0.82547162   -4.8871989    1449.5714  0.044739858  0.044587274            9 
 2701000   0.81100535    -4.898276    1445.5104  0.044598002  0.044576948            8 
 2702000   0.81720926   -4.8999495    1447.7748  0.044651332  0.044566529            5 
 2703000   0.82386185   -4.9214228    1450.9757  0.044733496  0.044556146            7 
 2704000    0.8312992   -4.9334534    1444.6044  0.044520601  0.044545824            9 
 2705000   0.82238489     -4.91623    1446.7461   0.04457012  0.044535418            6 
 2706000   0.82241744   -4.9193339    1450.4219  0.044666848  0.044524975            9 
 2707000   0.82594218   -4.9611614    1443.2956  0.044430971  0.044514549            4 
 2708000   0.80473864   -4.9051857    1455.0448  0.044776121  0.044504242            5 
 2709000   0.82031285   -4.9062176    1451.1061   0.04463843   0.04449395            6 
 2710000   0.83882228   -4.9151324    1447.8208  0.044520935  0.044483702            4 
 2711000   0.81788335   -4.9284488    1446.1873  0.044454301  0.044473333            7 
 2712000    0.8159191   -4.9416681    1446.5542  0.044449182  0.044462925            8 
 2713000   0.81262818    -4.884452    1452.2589  0.044608025  0.044452655            5 
 2714000   0.80532482   -4.9145894    1450.7569  0.044545471  0.044442408            5 
 2715000   0.81356912   -4.9157843    1449.0773  0.044477512  0.044432061            4 
 2716000   0.80795072    -4.914219    1452.0869  0.044553476  0.044421902            5 
 2717000   0.81759754   -4.9230391    1455.0133  0.044626835  0.044411599           15 
 2718000    0.7951615   -4.8861478    1453.8477  0.044574677  0.044401402            5 
 2719000   0.81923855   -4.9243243     1454.496  0.044578154  0.044391219            7 
 2720000   0.81851708   -4.9348094    1449.9293  0.044421855  0.044381033            9 
 2721000    0.8367191    -4.919383    1452.8929   0.04449629  0.044370664            6 
 2722000   0.82529606   -4.9422695    1452.4112  0.044465196  0.044360377            9 
 2723000   0.82230983   -4.9185419    1452.2474  0.044443855    0.0443501           10 
 2724000   0.82750304   -4.8860032    1452.9383  0.044448674  0.044339924            5 
 2725000   0.80804124   -4.9376936    1455.1585  0.044500261  0.044329667           11 
 2726000   0.81160755   -4.9003385    1456.6578  0.044529767  0.044319524            8 
 2727000   0.82510316   -4.9500666    1451.7587  0.044363731   0.04430932           11 
 2728000   0.78898438   -4.9456465    1455.9965  0.044476922  0.044299118            4 
 2729000   0.82351043   -4.9443277    1453.1721  0.044374377  0.044288928            5 
 2730000   0.81521152   -4.9079737    1457.5672  0.044492284  0.044278638           11 
 2731000    0.8116431   -4.9204031    1456.9249  0.044456392   0.04426846            5 
 2732000   0.80151425   -4.9319163    1455.2807  0.044389967  0.044258287            4 
 2733000   0.82543087   -4.9105981    1459.6972  0.044508391  0.044248025            6 
 2734000   0.82490558   -4.9192866     1459.652  0.044490734  0.044237815            3 
 2735000   0.81564062   -4.9306384    1456.3602  0.044374167  0.044227671            8 
 2736000    0.8288712   -4.9254518    1456.9761  0.044376709  0.044217509            5 
 2737000   0.80956498   -4.9338783    1456.9778  0.044360546  0.044207334            6 
 2738000   0.81345724   -4.9197852    1458.3483  0.044386058  0.044197061            5 
 2739000   0.79984255   -4.9288724    1463.4271  0.044524372  0.044186834            8 
 2740000   0.81007119   -4.9260619    1458.9982  0.044373425  0.044176698            9 
 2741000   0.80788861   -4.9303986    1457.5689  0.044313782  0.044166405            5 
 2742000   0.80106042   -4.9306374    1456.1838  0.044255526  0.044156156            3 
 2743000   0.81531538   -4.9366106     1453.502  0.044157916  0.044145977            4 
 2744000   0.82435177   -4.9410414    1458.6072  0.044296865  0.044135712            4 
 2745000   0.82381437   -4.9420987    1455.0833  0.044173748  0.044125475            5 
 2746000   0.80650307   -4.9460344    1455.7555  0.044178061  0.044115103            3 
 2747000    0.8081826   -4.9273751    1457.3384  0.044209999  0.044104762            6 
 2748000   0.80879333   -4.9425761    1456.0035  0.044153429  0.044094549            4 
 2749000   0.80214467   -4.9297363    1457.2841  0.044176189  0.044084264            5 
 2750000   0.82908841   -4.9343283     1457.582  0.044169151  0.044074006            8 
 2751000   0.79797873   -4.9429528    1459.4858  0.044210766  0.044063856            5 
 2752000   0.81248874   -4.9129723    1460.0789  0.044212661  0.044053639            5 
 2753000   0.79461569   -4.9448782    1459.1564  0.044168677  0.044043358            4 
 2754000   0.79830939   -4.9537926     1461.459  0.044222314  0.044033098            7 
 2755000   0.80383132   -4.9530994    1458.4545  0.044115382  0.044022901            5 
 2756000    0.8074623   -4.9198034    1461.3668  0.044187435  0.044012711            7 
 2757000   0.81610986    -4.947411    1462.7101  0.044212008  0.044002531            5 
 2758000   0.83250619   -4.9300905    1460.4622  0.044128059  0.043992303            7 
 2759000   0.80417019    -4.937415    1460.3554  0.044108836  0.043982185            6 
 2760000    0.8248096   -4.9256133    1465.5833  0.044250705  0.043972108            5 
 2761000   0.79671842   -4.9379561    1459.3105  0.044045349  0.043961978            7 
 2762000   0.82070236   -4.9142834    1461.4882  0.044095105  0.043951782           10 
 2763000   0.80981612   -4.9317048    1457.7596  0.043966691  0.043941534            7 
 2764000   0.80349754   -4.9659744    1460.1918  0.044024114  0.043931415            6 
 2765000   0.81206686   -4.9178248     1462.434  0.044075768   0.04392119            6 
 2766000   0.81161033    -4.956435    1463.2462  0.044084305  0.043911012            5 
 2767000    0.8118451   -4.9450366    1457.7934  0.043904151  0.043900744            4 
 2768000   0.80201411   -4.9260572    1463.4494  0.044058568  0.043890485            5 
 2769000    0.8132702   -4.9373726    1455.4744  0.043802648  0.043880158            8 
 2770000   0.81453685   -4.9425785    1465.1744  0.044078654  0.043869935            3 
 2771000   0.80491029    -4.941974    1460.3874  0.043918784  0.043859652            7 
 2772000   0.78888174   -4.9443806    1460.6487  0.043910794  0.043849261            6 
 2773000   0.82427677   -4.9200891    1460.0871  0.043878084  0.043838925            5 
 2774000     0.792502   -4.9413716    1459.9114  0.043856986   0.04382868            4 
 2775000   0.80604471   -4.9319613    1465.5655  0.044010976  0.043818411            5 
 2776000   0.79875171   -4.9536043    1463.7021  0.043939184  0.043808293            5 
 2777000   0.81425339   -4.9454331    1463.5872  0.043919914  0.043798191            6 
 2778000   0.79632708   -4.9581344    1462.8855  0.043883055  0.043787918            8 
 2779000   0.81982442   -4.9591541    1461.6157  0.043829187  0.043777678            7 
 2780000   0.80404101   -4.9451279    1467.8794   0.04400118  0.043767409           10 
 2781000   0.82208565   -4.9402739    1460.2907  0.043757962  0.043757337            6 
 2782000    0.8108122     -4.95344    1465.7941  0.043907085  0.043747126            4 
 2783000   0.80354719   -4.9364985    1464.8699  0.043863634   0.04373698            9 
 2784000    0.8321932   -4.9465866    1465.5776  0.043869062  0.043726773            9 
 2785000   0.80122469   -4.9572983     1467.042  0.043897127   0.04371655            3 
 2786000   0.81099517   -4.9379021    1463.1518  0.043765009  0.043706428            6 
 2787000   0.82308335   -4.9327171    1464.2814  0.043783082  0.043696339           10 
 2788000   0.80240652   -4.9392846     1468.254  0.043886118   0.04368611            6 
 2789000    0.8337427   -4.9566672    1466.7409  0.043825172  0.043675779            5 
 2790000   0.79498259   -4.9358932    1462.3309  0.043677745  0.043665565            5 
 2791000   0.80225691   -4.9426073    1469.5619  0.043877997  0.043655356            7 
 2792000   0.79153806   -4.9590743    1463.5524  0.043682917  0.043645215            4 
 2793000   0.80915806   -4.9791837    1461.0067   0.04359132  0.043634939            4 
 2794000   0.80536259   -4.9528586    1470.1856  0.043849486  0.043624668           11 
 2795000   0.81899032   -4.9446727     1467.019  0.043739385   0.04361446            5 
 2796000    0.7935316   -4.9220599    1465.4845  0.043678009  0.043604297           14 
 2797000   0.79601065   -4.9467663    1466.9013  0.043704604  0.043594179            9 
 2798000   0.79043901   -4.9448234    1468.1689  0.043726736  0.043584008            3 
 2799000   0.81661596   -4.9450182    1470.9371   0.04379353  0.043573855            4 
 2800000   0.80924681   -4.9244383     1471.985  0.043809076  0.043563731            6 
 2801000   0.81560397    -4.960426    1463.9123  0.043553265  0.043553533           11 
 2802000   0.81784418    -4.976078    1468.8472  0.043684488  0.043543284            3 
 2803000   0.78464905   -4.9554511    1466.3039   0.04359329  0.043533038            3 
 2804000   0.82165426   -4.9468712    1469.3489   0.04366824  0.043522813            6 
 2805000   0.80230694   -4.9232773    1473.0294  0.043762014   0.04351276            3 
 2806000   0.78980248   -4.9267587     1469.469   0.04364068  0.043502699            8 
 2807000     0.815394   -4.9449958    1472.3582  0.043710906  0.043492557            7 
 2808000   0.81456861   -4.9454717    1472.6921  0.043705251  0.043482405            7 
 2809000    0.7838997   -4.9488099    1475.1359  0.043762191  0.043472443            7 
 2810000   0.78900085    -4.939719    1472.1213  0.043657215  0.043462336            9 
 2811000   0.78584851   -4.9308982    1472.0799  0.043640458  0.043452204            6 
 2812000   0.81150158   -4.9629061    1472.0549  0.043624196  0.043441937            9 
 2813000   0.79410681   -4.9386236    1472.0713  0.043609175  0.043431732            5 
 2814000   0.80419791   -4.9656446    1469.3521  0.043513153  0.043421471            5 
 2815000   0.81197553   -4.9490612    1469.8187  0.043511508  0.043411165            4 
 2816000   0.81707332   -4.9568473    1474.7723  0.043642646  0.043400991            4 
 2817000   0.79736228    -4.953782    1472.8157  0.043569272  0.043390725            6 
 2818000    0.8007161   -4.9422039    1474.6864  0.043609131  0.043380611            3 
 2819000   0.79894454   -4.9585832    1468.9136  0.043423011  0.043370387            7 
 2820000   0.79502938   -4.9787409    1467.5763  0.043368093  0.043360022           11 
 2821000    0.7951796   -4.9334489    1474.0307  0.043543386  0.043349765            4 
 2822000    0.7997982   -4.9370197    1472.6982  0.043488606    0.0433396            5 
 2823000   0.81641416   -4.9525625    1474.4662  0.043525393  0.043329407            2 
 2824000    0.7932844   -4.9273055     1477.981  0.043613699  0.043319188           15 
 2825000   0.81854193   -4.9678966    1472.4955  0.043436444  0.043308981            6 
 2826000   0.80212214   -4.9340647    1477.6067  0.043571795  0.043298856            4 
 2827000   0.78698488   -4.9494233     1473.144  0.043424833  0.043288725            6 
 2828000   0.81370906   -4.9253909    1478.9129  0.043579471   0.04327867            6 
 2829000   0.80028298   -4.9568223    1477.9532  0.043535797  0.043268557            7 
 2830000   0.79132972   -4.9744279    1474.6321  0.043422618  0.043258549            3 
 2831000    0.7965042   -4.9090173    1480.3807  0.043576495  0.043248504            8 
 2832000   0.79519263   -4.9740703    1476.0786  0.043434517  0.043238428            6 
 2833000   0.79607113    -5.013444    1478.7618  0.043498111  0.043228307            5 
 2834000   0.80647181   -4.9913001    1470.7347  0.043246728   0.04321825            6 
 2835000   0.81192508   -4.9859419    1476.7534   0.04340839  0.043208119            4 
 2836000   0.80336805   -4.9565559    1475.1956   0.04334731  0.043198017           11 
 2837000   0.79578284   -4.9535812    1479.8424  0.043468522  0.043187941            8 
 2838000   0.81566896   -4.9580416    1477.3382  0.043379674  0.043177871           12 
 2839000   0.80202426   -4.9697757    1473.3848  0.043248351  0.043167732            9 
 2840000   0.78697704   -4.9662681    1475.2285   0.04328722  0.043157569            5 
 2841000   0.78106573   -4.9739569     1474.067  0.043237914  0.043147476            4 
 2842000   0.77808287   -4.9807943    1474.0048  0.043220878  0.043137319            8 
 2843000   0.79823748   -4.9736444     1477.243  0.043300591  0.043127241            3 
 2844000   0.78348325   -4.9465186    1479.3094  0.043345914  0.043117104            5 
 2845000   0.79212084   -4.9807423     1476.165  0.043238578  0.043106926            4 
 2846000   0.79960135   -5.0043197    1477.6833  0.043267842  0.043096787            9 
 2847000   0.79645743   -4.9776136    1476.0787  0.043205676  0.043086562            7 
 2848000   0.79985896   -4.9730005    1477.9309  0.043244701  0.043076381            3 
 2849000   0.80624799   -4.9458256    1482.6637  0.043367956  0.043066288            3 
 2850000   0.80423254   -4.9613384    1477.3945   0.04319867  0.043056242            5 
 2851000   0.80265743   -4.9596224    1473.8996  0.043081364  0.043046109           14 
 2852000   0.78622249   -4.9775718     1478.257  0.043193577  0.043035972            7 
 2853000   0.79506166   -4.9619875    1475.8269  0.043107456  0.043025828           12 
 2854000   0.80027517   -4.9535563    1482.8742  0.043298125  0.043015702            3 
 2855000   0.78973471   -4.9449327    1480.7243  0.043220206  0.043005737            5 
 2856000   0.79981518   -4.9583286    1479.9173  0.043181527  0.042995717            8 
 2857000    0.7981244   -4.9667829    1480.9959  0.043197874  0.042985679            8 
 2858000   0.80681912   -4.9620788     1484.057  0.043272015   0.04297567            3 
 2859000   0.80025955   -4.9328214    1484.6142  0.043273119  0.042965729            8 
 2860000   0.78323952   -4.9696087    1481.3825  0.043163825  0.042955729            3 
 2861000    0.7905541    -4.982695    1484.8179  0.043248801  0.042945716           25 
 2862000   0.78589356   -4.9718683    1480.4236  0.043105741   0.04293574            7 
 2863000   0.78899146   -4.9680282    1479.7598  0.043071363  0.042925667            8 
 2864000   0.79759549   -4.9812182    1481.7063  0.043112961  0.042915612            6 
 2865000   0.79208226   -4.9796829    1481.6261  0.043095582  0.042905557            6 
 2866000   0.78485263   -4.9663486    1483.7538   0.04314241  0.042895486            7 
 2867000   0.79045901    -4.955978     1480.611  0.043036014  0.042885534            3 
 2868000   0.79355981   -4.9644097    1483.2622  0.043098042  0.042875455            4 
 2869000   0.81160144   -4.9397879    1485.4839  0.043147551  0.042865493            5 
 2870000   0.78835308   -4.9635318    1477.3553  0.042896496  0.042855473            5 
 2871000   0.80019009   -4.9605606     1485.894  0.043129397  0.042845559            6 
 2872000   0.79282585   -4.9923057    1481.5414  0.042988086  0.042835544            9 
 2873000   0.77766538   -4.9792273    1481.6237   0.04297551  0.042825396            7 
 2874000   0.79869301   -4.9577758    1480.5787  0.042930257  0.042815357            5 
 2875000   0.79583589   -4.9826837    1480.7319  0.042919766  0.042805342            8 
 2876000   0.78563112   -4.9848478    1479.4579  0.042867927  0.042795337            3 
 2877000   0.79432201   -4.9410998    1487.2826  0.043079671  0.042785379            3 
 2878000   0.81550738   -4.9961935    1484.2251  0.042976173  0.042775353            7 
 2879000   0.78937242    -4.972174    1481.0083  0.042868133  0.042765385           11 
 2880000   0.78563311   -4.9669982    1486.7367     0.043019  0.042755254           12 
 2881000   0.77223178   -4.9834183    1482.1138  0.042870351  0.042745209            6 
 2882000   0.77843053    -4.976551    1482.3162  0.042861329  0.042735053            4 
 2883000   0.79534543   -4.9838735    1485.7702  0.042946301   0.04272499            3 
 2884000   0.78961409    -4.966003    1482.6879  0.042842345  0.042714949            3 
 2885000   0.79982771   -4.9674032    1486.5884  0.042940161  0.042704966            7 
 2886000   0.80471843   -4.9543116    1483.1325  0.042825494  0.042694896            8 
 2887000   0.80774954   -4.9747519    1485.8249  0.042888376  0.042684953            5 
 2888000   0.77193018     -4.96471    1484.0632  0.042822691  0.042674927            8 
 2889000   0.81120231   -4.9872491    1482.6911  0.042768291  0.042664832           10 
 2890000   0.80908289    -4.962676       1489.3   0.04294406  0.042654894            6 
 2891000    0.8013475   -4.9693311    1488.2852  0.042899955  0.042644964           10 
 2892000   0.78998403   -4.9680959    1490.3025  0.042943249  0.042634967            4 
 2893000   0.78559864   -4.9642348    1488.5773  0.042878711   0.04262494            6 
 2894000   0.79072076   -4.9878698     1488.262  0.042854814  0.042614928            7 
 2895000   0.79254818   -4.9586367     1495.105  0.043036988  0.042605022            6 
 2896000    0.7919685   -4.9733558    1487.4987  0.042803254  0.042595019            3 
 2897000   0.79463463    -4.984225     1488.535  0.042818289  0.042585105            5 
 2898000   0.76385761   -4.9619527    1493.7856  0.042954497  0.042575168            3 
 2899000   0.78584751   -4.9952376     1487.803  0.042767706   0.04256514            7 
 2900000    0.8027127   -5.0256326    1486.2207  0.042707492  0.042555099            6 
 2901000   0.79556084   -4.9687227    1490.4873   0.04281533  0.042545121            4 
 2902000   0.78856079   -4.9734396    1491.4587   0.04282847  0.042535148            8 
 2903000   0.77559418   -4.9789367    1492.1611  0.042833881  0.042525222            6 
 2904000   0.77858864   -4.9946526    1491.0695  0.042787806  0.042515297            5 
 2905000   0.78473607   -4.9722961    1494.5838  0.042873891    0.0425054            8 
 2906000   0.79083376   -4.9675927    1491.1698  0.042761235  0.042495437           10 
 2907000   0.77456617   -4.9799264    1494.6156  0.042845304  0.042485521            7 
 2908000   0.78693246    -4.993277    1489.1504  0.042673956   0.04247562            4 
 2909000   0.78135255   -4.9995319    1490.5513  0.042699419  0.042465695           15 
 2910000   0.78395889   -4.9519077    1497.3259  0.042878749  0.042455802            6 
 2911000   0.78629895   -4.9822401    1491.2539  0.042690195  0.042445895            7 
 2912000   0.78165103   -4.9841364    1490.5897  0.042656528  0.042435963            9 
 2913000   0.78709253   -4.9714578    1494.5615  0.042755506  0.042426069            8 
 2914000   0.77515574   -4.9652662    1493.2965  0.042704659  0.042416202            3 
 2915000   0.78760831   -4.9862959    1489.5207  0.042582066  0.042406178            8 
 2916000   0.79302582   -4.9997051    1489.9402  0.042579453  0.042396149           14 
 2917000   0.80233043    -4.943065    1490.3181   0.04257565  0.042386108            3 
 2918000   0.78265912   -4.9906767     1489.205  0.042529272  0.042376117            3 
 2919000   0.77605521    -4.990709    1496.1925  0.042714186  0.042366144            3 
 2920000   0.80049687   -4.9878197    1490.8001  0.042545666  0.042356121            4 
 2921000   0.78847883    -4.984555     1487.604  0.042439919  0.042346153            7 
 2922000   0.77946157   -4.9913238    1493.0789  0.042581535  0.042336192            4 
 2923000   0.79168989   -4.9714231    1498.3758  0.042717977  0.042326332            7 
 2924000   0.78553491   -5.0015404    1491.5572  0.042509039  0.042316535            8 
 2925000   0.79462753   -5.0000945    1488.7288  0.042413926  0.042306695           10 
 2926000   0.78898746   -5.0169932    1495.0497  0.042579451  0.042296816            5 
 2927000   0.77970956   -5.0026073    1497.3341  0.042629942   0.04228695            9 
 2928000   0.78815786   -4.9718163    1494.1986  0.042526145  0.042277093            3 
 2929000   0.75678784   -4.9638206    1494.8004  0.042528748  0.042267187            5 
 2930000     0.796008   -4.9991947    1496.8875  0.042573591  0.042257306            6 
 2931000   0.78244893   -4.9866921    1492.0801  0.042422386  0.042247387            5 
 2932000   0.78611459   -5.0005729    1499.2506  0.042611717  0.042237443            3 
 2933000   0.80446598   -4.9748247    1497.3003  0.042541774  0.042227478            8 
 2934000   0.76965969   -5.0431553    1493.8471  0.042429195  0.042217467            3 
 2935000   0.77253719   -4.9821628    1497.0455  0.042505551   0.04220748           10 
 2936000   0.77423529   -4.9941938    1494.3783  0.042415369  0.042197497            7 
 2937000   0.77386357   -5.0046427     1494.855  0.042414454  0.042187624            7 
 2938000    0.7880527   -4.9845461    1500.3188  0.042554993  0.042177769            7 
 2939000   0.78219762   -4.9664221    1500.4561  0.042544406  0.042168003            3 
 2940000   0.78322334   -4.9817143    1501.4065  0.042556874  0.042158155            4 
 2941000   0.78908903   -5.0180216    1496.3636  0.042399512   0.04214831            3 
 2942000   0.78021379   -4.9970361    1498.1731  0.042436355  0.042138429            5 
 2943000   0.77583019    -4.985412    1496.9333   0.04238683  0.042128588            7 
 2944000   0.75936184   -4.9823039    1496.2683  0.042353608  0.042118787            8 
 2945000   0.79420294   -5.0062491     1496.152  0.042335937  0.042108881            3 
 2946000   0.77966236   -4.9836914    1502.8915  0.042512206  0.042099008            5 
 2947000   0.78879273   -4.9967578    1500.0388  0.042417114  0.042089312            6 
 2948000   0.78836916   -4.9844513    1501.9091  0.042455595  0.042079507            8 
 2949000   0.78947758   -5.0035181    1498.3823  0.042341536   0.04206966            6 
 2950000   0.77704809   -4.9798316    1505.6627  0.042532844  0.042059864            5 
 2951000   0.78002736   -5.0039149     1502.082  0.042417316  0.042050043            5 
 2952000   0.75858371   -4.9926239    1499.6219  0.042333499  0.042040187           11 
 2953000   0.77111603   -5.0115859    1500.9624  0.042356992  0.042030278            6 
 2954000   0.79158766    -5.027871    1499.4109  0.042298887   0.04202039            9 
 2955000   0.78860695   -4.9888476    1499.3581  0.042283082  0.042010517            3 
 2956000   0.77771858   -5.0084559    1502.0356   0.04234426  0.042000639           11 
 2957000   0.77083998   -5.0037097    1500.8085   0.04229536  0.041990821            6 
 2958000   0.77970839   -5.0033624    1498.0249  0.042202639  0.041980845            4 
 2959000    0.7815118   -5.0013769    1502.5831  0.042316749  0.041970901            3 
 2960000   0.78274783   -4.9850849     1502.656  0.042304504  0.041961086            5 
 2961000   0.78029521   -4.9899593    1504.3698   0.04233845  0.041951207            5 
 2962000   0.77027953   -5.0129764    1501.7762  0.042251187  0.041941347            5 
 2963000   0.77448754   -4.9877886    1498.9809  0.042158311  0.041931428            6 
 2964000   0.76697075   -4.9912275    1499.3095  0.042153327  0.041921463            7 
 2965000   0.78179658   -5.0039689    1504.2756  0.042278684  0.041911605            7 
 2966000   0.78480279   -5.0095331    1503.5173  0.042243125  0.041901616            9 
 2967000   0.78401238   -4.9793482    1502.4397   0.04219862  0.041891652            6 
 2968000   0.77177063   -5.0055663    1499.0833  0.042090164  0.041881742            5 
 2969000   0.78050527   -4.9992542    1497.9203  0.042043345  0.041871752            4 
 2970000   0.75138734   -4.9874841    1504.8521  0.042223685  0.041861805            6 
 2971000   0.77928869   -5.0000875    1500.5586  0.042089043  0.041851958            5 
 2972000   0.79273137   -5.0160135    1501.5903  0.042103809  0.041842103            8 
 2973000   0.77311579   -4.9920643     1502.515  0.042115567  0.041832144            8 
 2974000   0.75950576   -5.0178695    1501.3616  0.042069087  0.041822298            4 
 2975000   0.76143333   -5.0109009    1501.5071  0.042059023  0.041812422            8 
 2976000   0.76158206   -5.0284018     1499.197  0.041980202  0.041802444            7 
 2977000   0.76501027   -5.0323752    1502.4435  0.042056979  0.041792429            6 
 2978000   0.78424543   -5.0167576    1500.8837  0.041999209  0.041782469            6 
 2979000   0.78041092   -4.9862257    1505.1037  0.042103159  0.041772592            7 
 2980000   0.77518997   -4.9893961    1499.9102  0.041943797    0.0417627            6 
 2981000   0.74615296   -5.0019736    1500.9479  0.041958736  0.041752771            3 
 2982000   0.76424644   -4.9684441    1503.1543  0.042006323  0.041742899            4 
 2983000   0.78090433   -5.0040067    1502.7976  0.041982276  0.041733017            8 
 2984000   0.76201446   -4.9982553    1503.7017  0.041993456  0.041723228            5 
 2985000   0.76222554   -4.9897359    1501.5834   0.04192025  0.041713292            9 
 2986000   0.76132194   -5.0078048     1503.553   0.04196118  0.041703414            9 
 2987000   0.78483038     -4.97494     1507.587  0.042059676  0.041693491            4 
 2988000   0.76809889   -5.0105705      1505.21  0.041979307   0.04168354            3 
 2989000    0.7851982   -4.9847993    1503.0152   0.04190407  0.041673619            4 
 2990000   0.75944963   -5.0262762     1505.553  0.041960785  0.041663796            6 
 2991000   0.78106534    -5.019613    1502.0673  0.041849639  0.041653874           10 
 2992000   0.76651885   -5.0415279    1503.9449  0.041887949  0.041643983            7 
 2993000   0.77083423   -4.9997086      1505.77  0.041924768  0.041634084            7 
 2994000   0.77714863   -5.0189564    1505.7711  0.041910797  0.041624132            4 
 2995000    0.7765562   -4.9919164    1504.6211  0.041864805  0.041614201            9 
 2996000   0.76683115   -5.0004123    1507.8577  0.041940858  0.041604188            8 
 2997000    0.7729898   -4.9970865    1503.3366   0.04180115  0.041594287            6 
 2998000   0.77859382   -5.0316846    1504.1785  0.041810611  0.041584262            7 
 2999000   0.77180154   -5.0250395    1503.9048  0.041789062  0.041574322            7 
 3000000   0.76706374   -5.0029527     1507.769  0.041882472  0.041564505            5 
 3001000   0.78148749   -4.9884428    1508.0442  0.041876157  0.041554642            4 
 3002000   0.78609198   -5.0005609     1505.328  0.041786809  0.041544862            9 
 3003000   0.78263999   -5.0265646    1504.5339  0.041750858  0.041534983            7 
 3004000   0.76915885   -5.0101233     1512.244  0.041950845  0.041525137           14 
 3005000   0.77770565   -4.9939943    1509.9369  0.041872903  0.041515251            8 
 3006000   0.76042454   -5.0016002    1516.4934  0.042040735  0.041505459            3 
 3007000   0.78581021   -5.0281428    1509.4753   0.04183226  0.041495624            5 
 3008000   0.76898019   -5.0216514    1512.2351   0.04189481  0.041485755            3 
 3009000   0.77799767   -5.0417028    1511.1713  0.041851425  0.041475921            4 
 3010000   0.76018478   -5.0340904    1503.2167  0.041617294     0.041466            9 
 3011000   0.76451888   -5.0087751    1510.0854  0.041793572  0.041455996           14 
 3012000   0.77594769   -5.0081984    1509.5037  0.041763604  0.041446184            4 
 3013000   0.78234488   -5.0203165    1507.2483  0.041687363  0.041436282            3 
 3014000   0.74659939   -5.0157881    1511.2479  0.041784117  0.041426307            5 
 3015000   0.75476384    -5.014751    1506.6307  0.041642638  0.041416436            9 
 3016000    0.7639502   -4.9934163    1509.6451  0.041712122    0.0414065           10 
 3017000   0.76621176    -5.026998    1509.5621  0.041696004  0.041396711            8 
 3018000   0.75765032   -5.0160912    1505.1652  0.041560779  0.041386906            7 
 3019000   0.77017997   -5.0108773    1508.5094  0.041639324  0.041376897           10 
 3020000   0.77079568   -5.0093417    1509.0305  0.041639913  0.041367095            4 
 3021000   0.76461108   -5.0128684    1508.9205  0.041623096  0.041357211            9 
 3022000   0.74168507    -5.029914    1508.2996  0.041592202  0.041347346           15 
 3023000   0.76858758   -5.0208269    1509.6855  0.041616647  0.041337398            3 
 3024000   0.75762438   -5.0437184    1507.1434  0.041532831  0.041327412           14 
 3025000   0.78723265   -5.0310135     1508.672  0.041561211  0.041317458            6 
 3026000   0.75456412   -5.0281812     1508.628  0.041546265   0.04130749            4 
 3027000   0.77281822    -5.012157     1512.998  0.041652846  0.041297657            5 
 3028000   0.74923211   -5.0021541    1509.8424  0.041552247  0.041287803            3 
 3029000    0.7786693   -5.0270969    1512.5774  0.041613773  0.041277906            5 
 3030000    0.7744619   -5.0256442    1508.7625  0.041495119  0.041267897           11 
 3031000   0.75715083   -5.0262213    1510.1307  0.041519045  0.041257952            5 
 3032000   0.75346829   -5.0145007    1512.6495   0.04157458  0.041247982           10 
 3033000   0.75996911   -5.0153624    1510.4949  0.041501673  0.041238112            7 
 3034000   0.75360359   -5.0219858    1507.1427  0.041395922  0.041228138            4 
 3035000   0.77803252   -5.0092026     1513.902  0.041567875  0.041218195            3 
 3036000   0.77436563   -5.0427423     1508.464  0.041404918  0.041208304            7 
 3037000   0.77625225   -5.0198468    1509.3095  0.041414486  0.041198423           14 
 3038000    0.7544932   -5.0091738    1513.1499  0.041506197  0.041188485            4 
 3039000   0.74925129   -5.0092349    1514.6685  0.041534181  0.041178548            5 
 3040000   0.78465175   -5.0257436    1511.4738  0.041432943  0.041168625            3 
 3041000   0.76047803   -5.0023569    1513.6692  0.041479481  0.041158707            8 
 3042000   0.77198614   -5.0256458    1512.0936  0.041422682   0.04114885            4 
 3043000   0.77280545   -4.9875478    1510.3453  0.041361193  0.041138975            4 
 3044000   0.75014737   -5.0401223     1513.273  0.041427754  0.041129101           10 
 3045000   0.76359586   -5.0180801    1513.7155   0.04142626  0.041119195           11 
 3046000    0.7662299   -5.0356391    1511.0916  0.041340874  0.041109293            4 
 3047000   0.75316264   -5.0377976    1511.8056  0.041346832  0.041099469            6 
 3048000   0.76751718   -5.0189538     1514.993  0.041420412  0.041089584            4 
 3049000   0.76307444   -5.0267518    1514.5024  0.041393418  0.041079758           12 
 3050000   0.77785013   -5.0457835    1513.0886  0.041341219  0.041069998            7 
 3051000   0.76232235   -5.0281641    1515.3083  0.041388296  0.041060154           11 
 3052000   0.77179815   -5.0321016    1510.9471  0.041255656  0.041050216            5 
 3053000    0.7732661   -5.0382822    1512.2367  0.041277343  0.041040391            6 
 3054000   0.75550725   -5.0506893    1511.6147  0.041246853  0.041030607           15 
 3055000   0.76224283   -5.0635875    1517.7168  0.041399803  0.041020769            8 
 3056000   0.75962883   -5.0523867    1513.3981  0.041268491  0.041010973            7 
 3057000   0.74772306   -5.0353881    1517.6572  0.041371095   0.04100113            9 
 3058000   0.75973587   -5.0385872    1514.3814  0.041268296  0.040991238           10 
 3059000   0.74897951   -5.0342588     1519.774   0.04140171  0.040981426            9 
 3060000   0.77087467   -5.0606772    1508.5003  0.041081162  0.040971561           10 
 3061000   0.74688025   -5.0472183    1514.2481  0.041224222  0.040961709            5 
 3062000   0.75676233   -5.0235355    1517.5488  0.041300589  0.040951895            6 
 3063000   0.76198812   -5.0419023    1514.5076  0.041204363  0.040942027            4 
 3064000   0.77469258   -5.0363579    1518.1777  0.041290734  0.040932087            6 
 3065000   0.77189406   -5.0493079     1514.806  0.041185591  0.040922159            9 
 3066000   0.76631243   -5.0388712    1509.9654  0.041040591  0.040912153            5 
 3067000   0.76926573   -5.0377195    1513.1698  0.041114275  0.040902238           11 
 3068000   0.75893484   -5.0613137    1513.7566  0.041116815  0.040892275           17 
 3069000   0.75462865   -5.0343968    1517.3401  0.041200721  0.040882246            7 
 3070000   0.75309291   -5.0570956    1512.7522  0.041062762  0.040872264            6 
 3071000   0.75866548   -5.0415298    1518.3423  0.041201084   0.04086238            6 
 3072000   0.75785141   -5.0315157    1513.4219  0.041054197  0.040852458           13 
 3073000   0.77263867   -5.0261665    1518.0145   0.04116538  0.040842467            8 
 3074000   0.75596758   -5.0432488    1513.0785  0.041018178  0.040832494            5 
 3075000   0.76065667   -5.0238275    1516.4653   0.04109662   0.04082255            6 
 3076000   0.76202742   -5.0298547    1515.3058  0.041051848  0.040812496            6 
 3077000   0.74929417   -5.0082936     1518.845  0.041134358  0.040802471            6 
 3078000   0.75367958   -5.0603206    1513.6208  0.040979555  0.040792523            4 
 3079000   0.76582033    -5.036351    1519.0202   0.04111238  0.040782567            5 
 3080000   0.77411076   -5.0549784    1512.2127  0.040914847  0.040772557           10 
 3081000   0.77245509   -5.0054582    1517.4643  0.041043608  0.040762561            7 
 3082000   0.75825734    -5.029419    1518.3802  0.041055057  0.040752606           10 
 3083000   0.75402926   -5.0292087    1513.0808  0.040898496  0.040742561            9 
 3084000   0.76824914   -5.0471133     1517.321  0.040999811  0.040732498            5 
 3085000      0.75221   -5.0356387    1516.0217  0.040951423   0.04072254            8 
 3086000   0.75247894   -5.0322991    1513.1277  0.040860005  0.040712452            7 
 3087000    0.7520973   -5.0711245    1512.9306  0.040841449  0.040702489            5 
 3088000   0.75173268    -5.066908    1517.1718  0.040942675  0.040692451            4 
 3089000   0.75417956   -5.0380004     1522.401  0.041070493  0.040682486            5 
 3090000   0.75758988   -5.0364922    1518.4209  0.040949862  0.040672491            8 
 3091000   0.75304698   -5.0135042    1521.1049  0.041008975  0.040662649            8 
 3092000   0.76795158   -5.0540825    1519.0189  0.040939492  0.040652791            5 
 3093000   0.76265611   -5.0332345    1513.6951  0.040782817  0.040642864           11 
 3094000   0.75521529   -5.0476059    1518.2174  0.040891441  0.040632922            5 
 3095000   0.77487681    -5.060689    1514.0633  0.040766378  0.040622915            3 
 3096000   0.75469323   -5.0305003    1518.1159  0.040862291  0.040612994            5 
 3097000   0.75427976   -5.0460676    1519.1629  0.040877272  0.040603013            9 
 3098000   0.75868578   -5.0325334    1518.4052  0.040843695  0.040593092            5 
 3099000   0.76154285   -5.0577452    1514.9237  0.040736897   0.04058312            8 
 3100000   0.73979195    -5.059694      1514.72  0.040718279  0.040573099            5 
 3101000   0.77233175    -5.046452    1514.7882  0.040706981  0.040563098            7 
 3102000     0.750124   -5.0398035     1521.188  0.040865787  0.040553152           11 
 3103000   0.75353251    -5.030826    1523.3178  0.040909814  0.040543185            6 
 3104000   0.75782319   -5.0710675    1514.8877  0.040670309  0.040533267           10 
 3105000   0.74727303   -5.0544676    1520.5226  0.040808443  0.040523332            6 
 3106000   0.76101982   -5.0486346    1522.7901   0.04085614  0.040513412            9 
 3107000   0.74958492   -5.0477085    1521.9998  0.040821794  0.040503497            7 
 3108000   0.77491564   -5.0650373    1518.0631  0.040703107  0.040493519           15 
 3109000   0.74033525   -5.0508918    1518.9383  0.040713476  0.040483613            7 
 3110000   0.74133231   -5.0824976     1524.116   0.04083912  0.040473683            3 
 3111000   0.73746121   -5.0806406    1520.9788  0.040741959  0.040463744            4 
 3112000   0.75567559   -5.0555211    1521.7403  0.040749259  0.040453852            9 
 3113000   0.75041772   -5.0478304     1526.014  0.040850573  0.040444053            3 
 3114000   0.73778714   -5.0573087    1522.2655  0.040737142  0.040434266           10 
 3115000   0.75136646   -5.0313237    1521.5524  0.040704987  0.040424451            9 
 3116000   0.75554233    -5.047537    1521.1075  0.040680025  0.040414576            8 
 3117000   0.77689041   -5.0431602    1526.4771  0.040810531   0.04040468            6 
 3118000   0.76944409   -5.0515975    1523.4739  0.040717177  0.040394859           18 
 3119000   0.75237899   -5.0398349    1527.0873  0.040800664  0.040385053            5 
 3120000   0.73616704   -5.0188216    1524.2837  0.040712707  0.040375264            6 
 3121000   0.74554391   -5.0642487     1524.346  0.040701324  0.040365422            6 
 3122000   0.75670078   -5.0401683    1526.3296  0.040741235  0.040355592           13 
 3123000   0.74510445   -5.0491438    1526.0075  0.040719595  0.040345792            8 
 3124000   0.73650203   -5.0577067    1521.5692  0.040588167  0.040336012            4 
 3125000   0.74847267   -5.0599939    1522.2087  0.040592231  0.040326145           10 
 3126000    0.7537333    -5.053951    1525.6861  0.040671947   0.04031633            3 
 3127000   0.72057678    -5.071449    1521.1089   0.04053696  0.040306456            9 
 3128000   0.75799127   -5.0675212    1521.7047  0.040539874  0.040296528            4 
 3129000   0.74544504   -5.0480932    1525.0506  0.040616029    0.0402866           12 
 3130000   0.75119197   -5.0559771    1523.4713  0.040561003  0.040276619            3 
 3131000   0.74614881   -5.0559899    1529.7809  0.040715981  0.040266731            9 
 3132000   0.77704557   -5.0637716    1523.5647  0.040537587  0.040256847           15 
 3133000   0.76032616    -5.060792    1527.6012  0.040632014  0.040246929           12 
 3134000   0.74348697   -5.0550115    1523.2329  0.040502896  0.040237081            7 
 3135000   0.74458971   -5.0529113    1524.8437  0.040532795  0.040227162            4 
 3136000   0.75553102   -5.0709103    1522.3692  0.040454114   0.04021724            5 
 3137000   0.75296877   -5.0629911    1527.3976  0.040574794  0.040207317           10 
 3138000   0.75928274   -5.0570121    1528.1568  0.040582027  0.040197522            8 
 3139000   0.76209579   -5.0399074    1523.7147   0.04045117  0.040187736            4 
 3140000   0.76630811   -5.0519269     1524.383  0.040456024  0.040177984            8 
 3141000    0.7509113   -5.0454228    1526.1863  0.040490988  0.040168272            5 
 3142000   0.74571037   -5.0896093     1517.237  0.040240744  0.040158429            5 
 3143000   0.74735205    -5.067824    1526.1445  0.040464113  0.040148585            5 
 3144000   0.74892538   -5.0704276    1527.0072  0.040474109  0.040138816           12 
 3145000   0.74129305   -5.0697794    1531.2066  0.040572512  0.040128981            7 
 3146000   0.75578181   -5.0575934    1525.0532   0.04039662  0.040119201            5 
 3147000   0.74716137   -5.0715204    1523.5124  0.040342982  0.040109328            7 
 3148000    0.7465159   -5.0444541    1526.4965  0.040409163  0.040099545            5 
 3149000   0.74013002   -5.0673938    1526.5673  0.040398204  0.040089758            8 
 3150000   0.76083851   -5.0668982    1526.2505  0.040376998  0.040079927            9 
 3151000   0.76166515   -5.0781537    1527.6349  0.040400797  0.040070109            6 
 3152000    0.7468869   -5.0601279    1529.4732  0.040436579  0.040060358            5 
 3153000   0.73893391   -5.0699593    1528.8258  0.040406645   0.04005054            3 
 3154000   0.75392564   -5.0516682    1528.4496  0.040383895  0.040040814            8 
 3155000   0.74151794   -5.0738326    1526.0476   0.04030765  0.040030979            7 
 3156000   0.73812437   -5.0755415    1525.5096  0.040280673  0.040021168            5 
 3157000     0.759351   -5.0625033    1531.4663  0.040425149  0.040011374            6 
 3158000   0.75425934   -5.0664646    1524.0921  0.040217758  0.040001542            8 
 3159000   0.74094818    -5.065445    1530.8054   0.04038212  0.039991808            4 
 3160000    0.7341345   -5.0574539    1531.6922  0.040392726   0.03998204            4 
 3161000   0.74436246   -5.0612209    1530.8912   0.04035883  0.039972375            6 
 3162000   0.73632578   -5.1001741    1527.0995  0.040246139  0.039962588            7 
 3163000   0.74840683   -5.0726547    1529.1485    0.0402874   0.03995275            7 
 3164000   0.75544642   -5.0789696    1526.3996  0.040202265  0.039942883           13 
 3165000   0.75822976   -5.0891795    1525.3354  0.040161543   0.03993305            6 
 3166000   0.73326034   -5.0828152    1528.8589    0.0402416  0.039923286            4 
 3167000   0.75100042   -5.0560875    1532.5345  0.040325611  0.039913548            7 
 3168000   0.74449491   -5.0487911    1529.9487  0.040244862  0.039903838            5 
 3169000   0.75586569   -5.0690578    1528.3001  0.040188812  0.039894118           12 
 3170000    0.7483975   -5.0630477    1526.8935  0.040139155  0.039884439           16 
 3171000   0.75005057   -5.0680046    1529.8221  0.040203461  0.039874715            3 
 3172000   0.74162033   -5.0747038    1529.8799  0.040192306  0.039864984            6 
 3173000   0.74131007   -5.0806952     1527.815  0.040125408  0.039855196            7 
 3174000   0.74305401   -5.0826867    1531.4472  0.040208128  0.039845396            5 
 3175000   0.76548638   -5.0566565    1533.1943  0.040241321  0.039835659            5 
 3176000   0.74504173   -5.0542124    1532.8475   0.04021955  0.039825931            3 
 3177000   0.73430639   -5.0498334    1532.1778  0.040189324  0.039816189            5 
 3178000   0.74856673   -5.0913208    1527.8633  0.040063544  0.039806365           13 
 3179000   0.74524218   -5.0582011    1532.8177  0.040180814  0.039796595           23 
 3180000   0.74765633   -5.0515175    1533.6597  0.040190243  0.039786844           16 
 3181000   0.75155947   -5.0885357    1532.2774  0.040141396  0.039777066            7 
 3182000    0.7528108   -5.0801278    1525.9288  0.039962517  0.039767232            5 
 3183000   0.73668015   -5.0895548    1527.5771  0.039993116  0.039757365            9 
 3184000    0.7445456   -5.0598769     1533.086  0.040124739  0.039747442           10 
 3185000   0.73413882    -5.080332    1531.0031  0.040057643  0.039737555            7 
 3186000   0.75340992   -5.0759615    1528.7953  0.039987323  0.039727772           11 
 3187000   0.76118609   -5.0783385    1527.9695  0.039953183  0.039717952            8 
 3188000   0.73555823   -5.0385197    1529.7984  0.039988457  0.039708137            4 
 3189000   0.73184204   -5.0739101    1531.9912  0.040033219  0.039698376           10 
 3190000   0.72878162   -5.0457786    1532.8113  0.040042093  0.039688662           15 
 3191000   0.75255076   -5.0922471    1533.3235  0.040042921   0.03967887            4 
 3192000   0.73781272   -5.0800489    1529.4087  0.039928173   0.03966909            6 
 3193000   0.72187056   -5.0635345    1530.9047  0.039954711  0.039659444            6 
 3194000   0.73138224   -5.0564205    1529.2209  0.039898271  0.039649684            5 
 3195000   0.74163294   -5.0770492    1531.4334  0.039943491  0.039639961            9 
 3196000   0.73092805   -5.0787622    1533.6812  0.039989602   0.03963021           13 
 3197000   0.73687702   -5.1085239    1526.8184  0.039798206  0.039620391           10 
 3198000    0.7393296   -5.0685321     1529.034  0.039843497   0.03961057            4 
 3199000   0.73144694   -5.0703742    1535.1526  0.039990429  0.039600758            8 
 3200000   0.72330732    -5.066079    1532.8827   0.03991882  0.039590914            7 
 3201000   0.75016701   -5.0706143    1533.0079   0.03990961  0.039581067            4 
 3202000   0.75486458   -5.0942351    1530.0633  0.039820512  0.039571276            4 
 3203000   0.73678015   -5.0824064    1535.9245  0.039960571  0.039561449           13 
 3204000   0.74118824   -5.0815157    1534.9905  0.039923805  0.039551644           16 
 3205000   0.72636934   -5.0891204    1536.3332   0.03994626  0.039541888           10 
 3206000   0.72687766   -5.0909961    1531.2047  0.039800497  0.039532034           13 
 3207000   0.73871014   -5.0694075    1533.4783  0.039847164  0.039522283            6 
 3208000   0.74532921   -5.0922047    1533.3071  0.039830296  0.039512527            4 
 3209000   0.74797261   -5.0794631    1532.3476  0.039792967  0.039502717           11 
 3210000   0.74380648   -5.0585083     1538.709  0.039945716  0.039492937            9 
 3211000   0.72793137   -5.0937841    1531.8029  0.039754045  0.039483147            7 
 3212000   0.72402399   -5.0783414    1536.1278  0.039853876  0.039473344            6 
 3213000   0.73585227   -5.1046372    1533.4853  0.039772936  0.039463576           13 
 3214000   0.74259686   -5.1086778    1533.1732   0.03975247  0.039453687            5 
 3215000   0.74947988   -5.0982668    1535.2637  0.039794289  0.039443896           10 
 3216000    0.7408962   -5.0805707    1534.2969  0.039756864  0.039434072            8 
 3217000   0.74499412    -5.081573    1534.3733  0.039746486  0.039424293            4 
 3218000   0.73255774   -5.0998221    1535.0019  0.039750412  0.039414542            5 
 3219000   0.73618471   -5.0725728      1535.05  0.039739309  0.039404787            7 
 3220000   0.74155599   -5.0837323    1534.4915  0.039712514  0.039395051            8 
 3221000   0.73709657   -5.0714628     1533.127  0.039664881  0.039385317            6 
 3222000   0.75069806   -5.0706655    1533.8394  0.039670995  0.039375565            4 
 3223000   0.72876497   -5.0557295    1533.7325  0.039655924  0.039365771            6 
 3224000   0.72864266     -5.10818    1534.6178  0.039666505  0.039356007           10 
 3225000   0.73679106   -5.1138416    1532.4579  0.039598394  0.039346196            6 
 3226000   0.73497839   -5.0930783    1535.7088  0.039670097  0.039336356            7 
 3227000   0.74056719   -5.0904865    1532.8389  0.039583694  0.039326575            7 
 3228000   0.74019358     -5.09444    1535.6313  0.039643517  0.039316803            4 
 3229000    0.7399583   -5.1030212    1529.0858  0.039462315  0.039306995            9 
 3230000   0.74686785   -5.0767558    1537.5581  0.039668681  0.039297287           10 
 3231000   0.73629051   -5.0860072    1536.8217  0.039637412   0.03928759            7 
 3232000   0.72678477   -5.0785333    1534.9347  0.039576492  0.039277817            5 
 3233000   0.73715848   -5.0939554    1533.7022  0.039532484  0.039267994            5 
 3234000   0.74867944   -5.1004939    1540.2155  0.039688091  0.039258234            5 
 3235000   0.73944834   -5.0964593    1534.6002  0.039531175  0.039248523            4 
 3236000   0.74263689   -5.1212331    1530.4538  0.039412182  0.039238788            4 
 3237000    0.7301206   -5.1059433    1536.9187  0.039566438  0.039229018            4 
 3238000   0.73280877   -5.0970806    1539.2565  0.039614385  0.039219263            5 
 3239000   0.73073553   -5.1257673    1536.4465  0.039529856  0.039209516            7 
 3240000   0.74209904   -5.1045512    1539.2116  0.039588774  0.039199818            8 
 3241000   0.73421586   -5.0938804    1539.9703  0.039596068  0.039190133           11 
 3242000   0.73713681   -5.1102593    1537.3495   0.03951649  0.039180366            8 
 3243000   0.72981472   -5.0950166    1539.5347  0.039560455  0.039170574            9 
 3244000   0.73756647   -5.1172448    1534.2058   0.03941137  0.039160874           10 
 3245000     0.729899   -5.1259967    1534.2155  0.039399474  0.039151051           14 
 3246000   0.72719768    -5.074336    1540.1898  0.039540712  0.039141321            7 
 3247000    0.7445077   -5.1160934    1533.9055  0.039367251  0.039131551            9 
 3248000   0.71944133   -5.0962601    1542.3508  0.039571808   0.03912186            7 
 3249000   0.72234933   -5.1287741    1536.2902   0.03940418  0.039112089            9 
 3250000   0.73022622   -5.1019006    1541.2385  0.039518937   0.03910232            5 
 3251000   0.72202941   -5.0839073    1540.4314  0.039486091  0.039092611            6 
 3252000   0.72930144   -5.0726162    1538.8696  0.039433928  0.039082889            5 
 3253000   0.73395412    -5.092151    1539.9234  0.039448802  0.039073193            3 
 3254000   0.72576865   -5.0903206    1540.6115  0.039454299   0.03906354            4 
 3255000   0.72161897   -5.0711117    1538.4398  0.039386579  0.039053825            4 
 3256000   0.72941399   -5.0781372    1548.6027  0.039634589   0.03904413            7 
 3257000   0.72732699   -5.1088985    1538.5255  0.039364588  0.039034527            7 
 3258000   0.72699888   -5.0769342     1541.388  0.039425723    0.0390249            5 
 3259000    0.7435306   -5.0781531    1541.5401  0.039417514  0.039015192            6 
 3260000   0.73904322   -5.1123702     1536.988  0.039289059  0.039005472            7 
 3261000   0.72011509   -5.0967582     1540.281  0.039361162  0.038995737           10 
 3262000   0.72885046   -5.0801515    1536.5476  0.039253719  0.038986062            6 
 3263000   0.73800049    -5.109802    1535.5371  0.039215883   0.03897631            6 
 3264000   0.72026453   -5.1053024    1539.6245  0.039308224  0.038966631            6 
 3265000   0.72702666   -5.0960651    1540.2301   0.03931164  0.038956899            5 
 3266000   0.73453109     -5.09849    1539.3636  0.039277495  0.038947193            4 
 3267000   0.75830997   -5.1235689    1537.4485  0.039216623  0.038937466            8 
 3268000   0.73483226   -5.1058811    1537.8074  0.039213776  0.038927774            6 
 3269000   0.74556398   -5.1054654    1546.6423  0.039426999  0.038918071            7 
 3270000   0.74584835   -5.1103364    1540.6815  0.039263036  0.038908385           13 
 3271000   0.73149255   -5.1017465    1541.0124  0.039259461  0.038898726           11 
 3272000   0.72491047   -5.1134265    1540.7529  0.039240855  0.038889013            6 
 3273000   0.71955101   -5.1181716     1542.975  0.039285442  0.038879359            9 
 3274000   0.73723767   -5.1079107    1543.6098  0.039289601  0.038869734            7 
 3275000   0.74508378   -5.1065342    1539.4254   0.03917113  0.038860192            5 
 3276000   0.72160918    -5.098074    1541.3187  0.039207335   0.03885053            7 
 3277000   0.73860835   -5.1000488    1543.0047  0.039238243  0.038840869            7 
 3278000   0.72491478   -5.0859757    1544.8872   0.03927413  0.038831305            4 
 3279000    0.7136858   -5.0909405    1543.4821  0.039226443   0.03882167            8 
 3280000   0.72939461   -5.0822342    1541.7966  0.039171663   0.03881208           12 
 3281000   0.71968768   -5.1120346    1538.4954  0.039075876  0.038802412            8 
 3282000   0.74061483   -5.1316789    1543.5915  0.039193365  0.038792774            3 
 3283000   0.70688127   -5.1150097    1545.8695   0.03923925  0.038783095            7 
 3284000   0.72169946   -5.0876891    1542.2332  0.039135027  0.038773408            8 
 3285000   0.71117792   -5.1003701    1541.5306  0.039105292  0.038763751            9 
 3286000   0.73063611   -5.1072612    1543.5721  0.039145163  0.038754089           10 
 3287000   0.73269619   -5.1372151    1542.3381  0.039101971  0.038744393            7 
 3288000   0.72861397   -5.1104639    1546.4923  0.039195365  0.038734806            9 
 3289000   0.72357156   -5.1310969    1544.4163  0.039130847  0.038725223            9 
 3290000   0.71159574   -5.0954672    1547.3978  0.039194474  0.038715635            5 
 3291000   0.73057606   -5.1156942    1544.0868  0.039098723  0.038706119           15 
 3292000   0.73160651   -5.1021979      1548.42  0.039196537  0.038696556           12 
 3293000   0.73433914   -5.1078903    1547.1102  0.039151488  0.038687028           13 
 3294000    0.7222197   -5.0879447    1556.2563  0.039370985  0.038677512            7 
 3295000   0.72545359   -5.0990085    1546.6755   0.03911673  0.038668008            7 
 3296000   0.72444255   -5.1138623     1547.428  0.039123887  0.038658502            6 
 3297000   0.74138971   -5.0896617    1544.7071  0.039043249  0.038649058            4 
 3298000   0.71964062   -5.1010071    1547.0838  0.039091465  0.038639531            5 
 3299000   0.72925954   -5.1048304    1548.6264   0.03911858  0.038630071            5 
 3300000   0.73245388   -5.1077646    1544.2104  0.038995211  0.038620577            7 
 3301000    0.7295336   -5.0950259    1549.9454  0.039128178  0.038610931            9 
 3302000   0.71999462   -5.0921892    1548.0726  0.039069065  0.038601331           11 
 3303000   0.71691409   -5.1215841    1546.7441  0.039023717  0.038591734            9 
 3304000   0.73227885   -5.1327441    1545.8213  0.038988631  0.038582088            5 
 3305000   0.73028017   -5.0965132    1547.9022  0.039029305  0.038572533            3 
 3306000   0.73074664   -5.1107019    1549.5667  0.039059456   0.03856296            8 
 3307000   0.73262416    -5.114519     1544.208  0.038912609   0.03855335           11 
 3308000   0.72669284   -5.1022023    1545.4457  0.038932027  0.038543729           18 
 3309000   0.71812672    -5.115428    1544.5091  0.038896674  0.038534133           12 
 3310000   0.71562124   -5.0921822    1547.6203  0.038963249  0.038524534            7 
 3311000   0.72054358    -5.122229    1550.7028  0.039029064  0.038514957           10 
 3312000   0.72055532   -5.1195457     1546.818  0.038919535  0.038505381           14 
 3313000   0.72018761    -5.126329    1545.2383  0.038868053  0.038495758            4 
 3314000   0.70222411   -5.1325221    1543.5445  0.038813732  0.038486152            6 
 3315000   0.72742626   -5.1215157    1544.2563  0.038819918  0.038476464            7 
 3316000   0.71022264   -5.1372967    1547.6024  0.038892301  0.038466821            7 
 3317000   0.73208996   -5.1005412    1549.8024  0.038935846  0.038457254           13 
 3318000    0.7239852   -5.1308094    1545.6514  0.038819856  0.038447597           11 
 3319000   0.71944084   -5.1044026    1550.3969  0.038927311  0.038437925           10 
 3320000   0.72362642   -5.1080525    1546.4317  0.038816056   0.03842836            6 
 3321000   0.73061762   -5.1048948    1547.8136  0.038839045  0.038418795            4 
 3322000   0.71021845   -5.1184812    1546.6281  0.038797614  0.038409229           11 
 3323000   0.72359457     -5.12565    1547.4335  0.038806135  0.038399612            6 
 3324000   0.71469178    -5.125158    1549.2319  0.038839549  0.038389977           16 
 3325000   0.71903981    -5.126935    1542.9781   0.03867113  0.038380397            7 
 3326000    0.7193453   -5.1045616    1548.1249  0.038788457  0.038370729           12 
 3327000   0.71024106   -5.1475746    1550.1327   0.03882709  0.038361169            6 
 3328000   0.72434475   -5.1135514    1547.6324  0.038752815   0.03835166            8 
 3329000   0.71215304   -5.1236611    1550.0872  0.038802623  0.038342126            4 
 3330000    0.6957925   -5.1216885    1550.6809  0.038805829  0.038332588            7 
 3331000   0.71963175   -5.1526995     1544.155  0.038630916  0.038322917           11 
 3332000     0.723371   -5.1216239    1546.6342  0.038681328  0.038313299            8 
 3333000    0.7080555   -5.1217013    1550.3468  0.038762545  0.038303738           16 
 3334000   0.71596907   -5.1231678    1548.6997  0.038709751   0.03829414            4 
 3335000   0.71297744   -5.1207437    1548.5881  0.038695355  0.038284569            7 
 3336000   0.71550279   -5.1442422    1547.6373  0.038660004  0.038274916           15 
 3337000    0.7218823   -5.1064459    1552.6302  0.038773106  0.038265371            6 
 3338000   0.70121406   -5.1249287      1550.61  0.038711055  0.038255779           17 
 3339000   0.72394933    -5.123191    1548.0065  0.038634484  0.038246208            9 
 3340000   0.73143295   -5.1378041    1546.6841  0.038589922  0.038236649            6 
 3341000   0.74701879    -5.133228    1551.8645  0.038707584  0.038227051            8 
 3342000   0.72978708   -5.1454928    1547.5737   0.03858901  0.038217483            8 
 3343000   0.73202986   -5.1165263    1550.8862   0.03866004  0.038207889            5 
 3344000   0.71573204   -5.1450499    1547.6068  0.038566755  0.038198297            9 
 3345000   0.71943857   -5.1225878    1547.2026  0.038545157  0.038188656            8 
 3346000   0.69627023   -5.0980322     1548.293  0.038560794  0.038179065            9 
 3347000     0.708704   -5.1389014    1548.6059  0.038557064  0.038169498            9 
 3348000   0.71418128   -5.1611636    1549.4423  0.038566365  0.038159972           10 
 3349000    0.7274342   -5.1253572     1548.601  0.038533915  0.038150382            9 
 3350000   0.71181642   -5.1317834    1550.8967   0.03857952  0.038140795            8 
 3351000   0.71561204   -5.1434988    1549.4203  0.038531292  0.038131212            8 
 3352000   0.71891857    -5.134177     1546.681  0.038451695  0.038121674            7 
 3353000   0.72647304   -5.1213331    1552.2129  0.038577715  0.038112153            5 
 3354000   0.72754145   -5.1537501    1552.1089  0.038563628  0.038102624           15 
 3355000   0.73183471   -5.1248205    1553.7621  0.038593197  0.038093124            8 
 3356000   0.73216649   -5.1015553    1557.9768  0.038686352  0.038083676            5 
 3357000   0.70342403   -5.1402095     1554.022  0.038576656  0.038074212           12 
 3358000   0.71682463   -5.1264188    1549.6445  0.038456535   0.03806471            5 
 3359000   0.72397749   -5.1562456    1552.2832  0.038510549  0.038055267            9 
 3360000    0.7144811   -5.1325263    1554.7609  0.038560538  0.038045856            6 
 3361000   0.71816437   -5.1392205    1554.6151   0.03854545  0.038036418            6 
 3362000   0.70040958   -5.1650732    1553.2087  0.038499126  0.038026971            4 
 3363000    0.7215322    -5.135403     1552.136  0.038461097  0.038017506            6 
 3364000   0.72996219   -5.1319413    1554.2799  0.038502771  0.038008024            5 
 3365000    0.7191801   -5.1429708    1554.1535  0.038488199  0.037998537            5 
 3366000   0.72249837   -5.1518363    1555.7071  0.038515229  0.037989056           12 
 3367000   0.70965626   -5.1322229    1551.9751  0.038411423  0.037979667            7 
 3368000    0.7176409   -5.1435406    1557.0198  0.038524836  0.037970229            8 
 3369000    0.7119177   -5.1248866    1554.4476  0.038449778  0.037960764            6 
 3370000   0.71353237   -5.1383433     1551.978  0.038377299  0.037951302            5 
 3371000   0.72019604   -5.1495008    1555.2279  0.038446255  0.037941882           12 
 3372000   0.71266151   -5.1295581    1557.8107  0.038498683  0.037932451           14 
 3373000   0.71510674   -5.1109083    1553.0479  0.038369598  0.037923021           11 
 3374000   0.70748268   -5.1187905    1558.0444  0.038481635  0.037913654            9 
 3375000   0.69978655   -5.1501371    1553.9763  0.038369785  0.037904179            8 
 3376000   0.70764886   -5.1504911    1553.4983  0.038346621   0.03789471            4 
 3377000   0.71947028   -5.1267344    1555.0192  0.038372797  0.037885264            9 
 3378000   0.71926905   -5.1558372    1551.4636  0.038273721  0.037875822            5 
 3379000   0.71433373   -5.1524262    1555.3646  0.038358602  0.037866292            9 
 3380000   0.70403375   -5.1439848      1556.12  0.038365878  0.037856889           13 
 3381000   0.70263988   -5.1451684    1557.7179  0.038393915  0.037847513            9 
 3382000   0.70497693   -5.1327704    1556.4173  0.038350514  0.037838157            7 
 3383000    0.7161717   -5.1437863    1556.0776  0.038330811  0.037828774            7 
 3384000   0.71460012   -5.1334104    1557.3639  0.038351159  0.037819406            4 
 3385000   0.69287054    -5.132043    1561.0263  0.038429992  0.037810114            5 
 3386000   0.69846295   -5.1388246    1560.7301  0.038411352  0.037800767            9 
 3387000   0.71656489   -5.1116466    1558.9178  0.038355422  0.037791454            6 
 3388000   0.70660569   -5.1435554    1560.8383  0.038391341  0.037782153            7 
 3389000   0.70553392   -5.1518721    1556.2796  0.038267917  0.037772784            3 
 3390000   0.70166133   -5.1323274     1559.242   0.03832945  0.037763496           15 
 3391000   0.71196157    -5.135738    1560.1906  0.038341459  0.037754186            4 
 3392000   0.72965528   -5.1370089    1557.3491  0.038260344  0.037744844            5 
 3393000    0.7176937   -5.1613094    1559.6897  0.038306554  0.037735459           12 
 3394000   0.71030174   -5.1455224    1556.7068  0.038222029  0.037726094            6 
 3395000    0.6959434   -5.1450183    1559.8946  0.038289019  0.037716784            5 
 3396000   0.70007382   -5.1871398    1558.7062  0.038248582  0.037707394           12 
 3397000   0.73220756   -5.1556874    1556.5044  0.038183308  0.037698033            6 
 3398000   0.72478435   -5.1418595    1558.8223  0.038228918  0.037688716            5 
 3399000   0.71458547   -5.1499129     1559.305  0.038229504  0.037679328           10 
 3400000   0.70084533   -5.1632945    1558.2541  0.038192502  0.037669973           11 
 3401000   0.70503504   -5.1521794    1562.0847  0.038275131  0.037660633            5 
 3402000   0.70805006    -5.157388    1556.5488  0.038128279  0.037651233            9 
 3403000   0.70156984    -5.139454    1561.9353  0.038248978  0.037641871            6 
 3404000   0.72454596   -5.1353207     1567.985  0.038385846  0.037632551            8 
 3405000   0.71597327   -5.1296923    1560.4858  0.038191038  0.037623224            6 
 3406000    0.7124906   -5.1570907    1559.1641  0.038147488   0.03761388            6 
 3407000   0.72658502     -5.14633    1557.5001  0.038095589  0.037604456            6 
 3408000   0.70556172   -5.1448923    1559.7786  0.038140127  0.037595084            5 
 3409000   0.71413209   -5.1549806    1556.0672  0.038038212  0.037585703            5 
 3410000   0.71502804   -5.1705477    1557.1755  0.038054142  0.037576355           18 
 3411000   0.71259802   -5.1703756    1555.8873  0.038011514  0.037566978            6 
 3412000    0.6989124    -5.156611    1559.6202  0.038091544  0.037557595           12 
 3413000   0.69941312   -5.1441381    1560.8894  0.038111372   0.03754825            4 
 3414000   0.70019924   -5.1367382    1560.3303  0.038086562  0.037538932           12 
 3415000   0.71685307   -5.1553259    1562.1677  0.038120246    0.0375296           13 
 3416000   0.71437841    -5.147497    1562.7065  0.038122232  0.037520278           13 
 3417000   0.70999816   -5.1447974    1556.7777  0.037966485  0.037511002            7 
 3418000   0.70879436   -5.1173624    1564.2182  0.038136782  0.037501786            6 
 3419000   0.67907485   -5.1637664    1561.8561  0.038068053  0.037492501           10 
 3420000   0.70250893   -5.1640508    1559.6421  0.038002975  0.037483167           11 
 3421000   0.70471998   -5.1715804    1564.2455  0.038104002  0.037473875            9 
 3422000   0.68628396   -5.1677707    1562.3209     0.038046  0.037464555            5 
 3423000   0.71051521   -5.1557674    1564.2154  0.038081006  0.037455294            5 
 3424000   0.70661374   -5.1631076    1559.7041  0.037960087  0.037445976           15 
 3425000   0.68570978   -5.1627762    1563.6379  0.038044717   0.03743669            5 
 3426000   0.68623409    -5.153036     1563.495  0.038030136  0.037427437            5 
 3427000    0.7047726   -5.1450833    1565.1942   0.03806036  0.037418217            9 
 3428000   0.70842275   -5.1357509    1565.4375   0.03805517  0.037408976            6 
 3429000   0.71619688   -5.1458481    1564.9683  0.038032671   0.03739976            7 
 3430000   0.69416626   -5.1644871    1564.8303  0.038018228  0.037390556           17 
 3431000   0.68632171   -5.1336026     1564.095   0.03798929  0.037381355           10 
 3432000   0.69774126   -5.1397038    1567.5099  0.038061137  0.037372168            4 
 3433000   0.68399127   -5.1565005    1567.0418  0.038038688  0.037363009            5 
 3434000   0.70608151   -5.1403646    1565.1914  0.037982708  0.037353784            6 
 3435000   0.70325992   -5.1750196    1565.9191  0.037989305  0.037344628            6 
 3436000   0.71627448    -5.160842    1565.9668  0.037979404  0.037335394            6 
 3437000   0.69941262   -5.1404742    1567.8586  0.038014222  0.037326234            6 
 3438000   0.69504364   -5.1571351    1567.1907  0.037986977  0.037317128            9 
 3439000   0.68598185   -5.1406471    1565.8775   0.03794411  0.037307977            8 
 3440000   0.70251777   -5.1689852    1564.6775  0.037904008  0.037298797            6 
 3441000    0.6901861   -5.1436931    1566.4487  0.037935887  0.037289624            9 
 3442000   0.70082039   -5.1410189     1568.066  0.037964022  0.037280467            9 
 3443000    0.7124539    -5.168035    1568.7161  0.037968731  0.037271311            6 
 3444000   0.69731233   -5.1656033    1567.7139  0.037933457  0.037262147           14 
 3445000   0.69847337     -5.18088    1566.8242  0.037900924  0.037252942           10 
 3446000   0.69453233   -5.1666076    1566.5001  0.037882087  0.037243742            6 
 3447000   0.69186506    -5.196712    1563.9068  0.037808402  0.037234602           13 
 3448000   0.70054879    -5.169731    1566.4049  0.037857813  0.037225396           24 
 3449000   0.69400455   -5.1518552    1566.7953   0.03785627  0.037216198            5 
 3450000   0.70303414   -5.1790591    1569.4396  0.037909168  0.037207064           11 
 3451000   0.69067593   -5.1503164    1568.6372  0.037878809  0.037197883           11 
 3452000   0.69689254   -5.1717141    1568.1326  0.037855654  0.037188703            8 
 3453000   0.69093796   -5.1704092    1570.3214  0.037897514  0.037179557           11 
 3454000   0.70200273   -5.1679447    1565.5383  0.037771141  0.037170346           12 
 3455000   0.69515127   -5.1545677    1562.1725  0.037679028  0.037161217            5 
 3456000   0.69646599    -5.149474     1564.757  0.037730444  0.037152026           10 
 3457000   0.68664429   -5.1514485    1569.4789  0.037833354  0.037142919           15 
 3458000   0.69419936   -5.1832626    1565.9688  0.037737825  0.037133709           12 
 3459000    0.7043305   -5.1596605    1564.0732  0.037681246   0.03712445           11 
 3460000   0.69018727   -5.1828651    1565.1699  0.037696771   0.03711527            9 
 3461000   0.69245663    -5.167168    1570.9551  0.037825173  0.037106076            7 
 3462000   0.70673574   -5.1632314    1566.9375  0.037717541  0.037096842            7 
 3463000   0.69301354   -5.1711509    1565.5591   0.03767348   0.03708765           13 
 3464000   0.69272071   -5.1802017    1569.0064  0.037745534  0.037078472            7 
 3465000   0.68930694   -5.1496634    1567.6032  0.037700895  0.037069325            6 
 3466000   0.69581987   -5.1722328    1567.5698  0.037689214  0.037060115            8 
 3467000   0.70073617   -5.1821164    1567.7603  0.037682922  0.037050882           14 
 3468000   0.70479474   -5.1786118    1567.2917  0.037660797  0.037041656            8 
 3469000    0.6880398   -5.1949009    1565.4622  0.037605992  0.037032432           14 
 3470000   0.70627592    -5.169335    1571.4146  0.037738103   0.03702321           12 
 3471000   0.70956714   -5.1813574     1571.203  0.037722151  0.037014076            6 
 3472000   0.67384383   -5.1732811    1570.3047  0.037689725  0.037004841           10 
 3473000   0.68824287   -5.1463576    1570.9186  0.037693603  0.036995744            9 
 3474000   0.70307376   -5.1681646    1569.2661  0.037643113  0.036986605            6 
 3475000   0.68316531   -5.1972563    1567.3747  0.037586923  0.036977405            7 
 3476000   0.69651226   -5.1875045    1566.9039  0.037564824  0.036968192            7 
 3477000   0.70068456    -5.182844    1566.4857  0.037543996  0.036959039           15 
 3478000   0.69900102   -5.1722052    1569.5922  0.037607634  0.036949872            5 
 3479000   0.69848921   -5.1927525    1569.0104  0.037582888  0.036940706            6 
 3480000   0.70603669   -5.1508946    1574.4571  0.037702516  0.036931584           13 
 3481000   0.68505355   -5.1485213    1572.3101  0.037640287  0.036922514           12 
 3482000   0.69462216   -5.2098426    1569.0681  0.037551889  0.036913406           20 
 3483000   0.67319224   -5.1510975    1571.7319   0.03760484  0.036904267            9 
 3484000   0.69989907   -5.1827021    1574.2456  0.037654172  0.036895184            8 
 3485000   0.68434943   -5.2067272    1571.3337  0.037573738  0.036886108           12 
 3486000   0.68098717   -5.1877003    1572.4048  0.037588564  0.036876952           15 
 3487000   0.69353861   -5.1710976    1570.5183  0.037532701   0.03686787           15 
 3488000   0.70645695   -5.1755708    1567.7261   0.03745523  0.036858664            6 
 3489000    0.7059163   -5.1961857    1569.9674  0.037498028  0.036849538            7 
 3490000   0.69016325   -5.1601508    1569.6743  0.037480283  0.036840342            9 
 3491000   0.68986768   -5.1667604    1573.9704    0.0375721  0.036831224           10 
 3492000   0.69429234   -5.2047334    1569.1969  0.037447424  0.036822114           13 
 3493000   0.69743271   -5.1822659    1571.8584    0.0375002  0.036812944            3 
 3494000   0.68241797   -5.1789342    1574.1979  0.037545265  0.036803817            4 
 3495000    0.6851455   -5.1830647    1567.7627  0.037381084  0.036794687            9 
 3496000   0.68144263   -5.1649504    1572.0957  0.037473678  0.036785512           12 
 3497000   0.68090497   -5.2040713    1565.6054  0.037308297  0.036776336            6 
 3498000   0.68584027    -5.173834    1571.0465  0.037427255  0.036767107           10 
 3499000    0.6862894   -5.1692365    1570.4684  0.037402792  0.036757977           11 
 3500000   0.69570853   -5.1936782    1572.3795  0.037437608  0.036748839           17 
 3501000   0.67432604   -5.1787834    1574.4162  0.037475393  0.036739733            7 
 3502000   0.68023874    -5.180498    1571.0803  0.037385312  0.036730654            8 
 3503000   0.69311307     -5.18388    1572.4303  0.037406753  0.036721587            8 
 3504000   0.68388536   -5.2143438    1574.4096   0.03744315  0.036712486            3 
 3505000   0.71076363   -5.1862629    1572.1162  0.037377942  0.036703428           14 
 3506000   0.67792202   -5.1859869    1570.7703  0.037335289   0.03669435            6 
 3507000   0.68141985   -5.1817482    1572.5033  0.037365823  0.036685331            7 
 3508000   0.68816664   -5.1569689    1573.7891  0.037385716  0.036676307           13 
 3509000   0.69164229   -5.1982199    1572.4631  0.037343572  0.036667306           11 
 3510000   0.69492779   -5.1833353    1573.5489   0.03735871  0.036658323            8 
 3511000   0.68318429   -5.1659467    1577.4196  0.037439942  0.036649354            5 
 3512000   0.69318248   -5.1820494    1573.4863  0.037335951  0.036640351            9 
 3513000   0.69787451   -5.1621344    1576.6454  0.037400262  0.036631368           14 
 3514000    0.6828752     -5.17113    1574.6667  0.037342693  0.036622374            8 
 3515000   0.69090931    -5.176649    1576.8631  0.037384142  0.036613365            9 
 3516000   0.69946034   -5.1679067    1573.3925  0.037291253  0.036604384            7 
 3517000   0.69163637    -5.191096    1577.0653  0.037367673  0.036595389            6 
 3518000   0.68313713   -5.1876403    1572.4507  0.037247744  0.036586364            7 
 3519000   0.68474728   -5.1839268    1574.5996  0.037288045  0.036577324            6 
 3520000   0.69247877   -5.2162275    1577.1728  0.037338372  0.036568313            5 
 3521000   0.68898891   -5.1829554    1576.0395  0.037300945  0.036559282            7 
 3522000   0.67116276   -5.2081706    1577.8262  0.037332629  0.036550252            8 
 3523000   0.69425059    -5.177244    1574.7604  0.037249512  0.036541225            9 
 3524000   0.69215661   -5.2159105    1574.8999  0.037242241  0.036532173           18 
 3525000   0.69131952   -5.1876798    1575.3866  0.037243183  0.036523118           13 
 3526000   0.69040527   -5.1970325    1577.2741   0.03727723  0.036514033            5 
 3527000   0.68614968   -5.1855034    1574.5667  0.037202691  0.036505001            5 
 3528000   0.67316853   -5.1692555    1574.5643  0.037192088  0.036495929            8 
 3529000    0.6723613   -5.1904474    1571.3797  0.037106349  0.036486896            8 
 3530000     0.700124   -5.2067531     1576.314  0.037212323  0.036477872           14 
 3531000   0.67349045   -5.1992534     1576.209  0.037199307  0.036468823            9 
 3532000   0.69399504   -5.2260748    1571.9021  0.037087157  0.036459772            8 
 3533000   0.69492499    -5.207142    1574.6836  0.037142268  0.036450666           11 
 3534000   0.69849176   -5.1969448     1578.679  0.037225971  0.036441609            7 
 3535000   0.69630068   -5.1978197    1577.0851  0.037177867  0.036432636           14 
 3536000    0.6942261   -5.1917035    1576.2533   0.03714775  0.036423588            4 
 3537000   0.68380442   -5.1790103    1578.4694   0.03718946  0.036414572            6 
 3538000    0.6973119   -5.2039146    1576.4016  0.037130243  0.036405558            8 
 3539000   0.67036834   -5.1890303     1571.641  0.037007654  0.036396573           16 
 3540000    0.6728848   -5.2320306    1571.8189  0.037001386  0.036387514            9 
 3541000   0.67934446   -5.2039271    1569.9763  0.036947574  0.036378416            8 
 3542000   0.67018009    -5.211745     1576.352  0.037087146  0.036369355            7 
 3543000   0.69150026   -5.2008572     1577.647  0.037107137  0.036360343            9 
 3544000   0.68531302   -5.2168448    1572.2949  0.036970817  0.036351287            8 
 3545000   0.67252497   -5.1748324    1581.3108  0.037172326  0.036342281           11 
 3546000   0.68769577   -5.2135484    1575.8729  0.037034051  0.036333247           24 
 3547000   0.67046888   -5.1950824    1576.4623  0.037037457  0.036324219            4 
 3548000   0.68251483    -5.194099     1572.396  0.036931511   0.03631521            7 
 3549000   0.68288967    -5.212829    1572.7523  0.036929471   0.03630618           12 
 3550000   0.69030287   -5.2009088    1576.0674  0.036996887  0.036297174           10 
 3551000   0.69576383   -5.2049978    1579.5611  0.037068457  0.036288152            9 
 3552000   0.69280745   -5.1924461    1577.0559  0.036999247  0.036279174           10 
 3553000   0.67808476   -5.2044456    1579.8322  0.037053951   0.03627022           11 
 3554000   0.67483661   -5.2128721    1576.0682  0.036955266  0.036261189           12 
 3555000     0.679218   -5.2128678    1577.4824  0.036978023   0.03625217           15 
 3556000   0.67625196   -5.2020848    1570.9629   0.03681484  0.036243146           10 
 3557000   0.69755902   -5.2046127    1574.9274  0.036897371  0.036234086            5 
 3558000   0.67942828   -5.2074664    1576.5717  0.036925514  0.036225033            8 
 3559000   0.66752545   -5.1972922    1578.3341  0.036956404  0.036216008           11 
 3560000   0.67996151   -5.2066857    1577.5543  0.036927769  0.036206952           13 
 3561000   0.68511722   -5.2017584    1578.8195  0.036947008  0.036197851           14 
 3562000   0.67402799   -5.1926914    1576.0625  0.036872133  0.036188802            5 
 3563000   0.68418494   -5.1706742    1578.2294  0.036912466  0.036179759           10 
 3564000   0.68151082   -5.1970329    1578.2631  0.036902897  0.036170756           12 
 3565000   0.70037076   -5.1883003     1576.696  0.036855913  0.036161726            9 
 3566000   0.66911456   -5.1862291    1575.6195  0.036820421  0.036152688            7 
 3567000    0.6834313   -5.1985364    1574.4779   0.03678343  0.036143643            5 
 3568000   0.68104645   -5.2023341    1575.0442  0.036786345  0.036134608            8 
 3569000   0.68299147   -5.2059832    1573.9796  0.036751181  0.036125539           11 
 3570000    0.6812877   -5.1992671     1579.135  0.036861229  0.036116538            6 
 3571000   0.68581282   -5.2112866    1576.8225   0.03679694   0.03610749            7 
 3572000   0.69203029   -5.2029074    1577.8408  0.036810396  0.036098462           10 
 3573000   0.67752589   -5.2183345    1583.0614  0.036921853  0.036089457           16 
 3574000   0.67323255   -5.1964422      1575.79  0.036741979   0.03608047           12 
 3575000   0.67746624   -5.2161354    1578.0005  0.036783229  0.036071482            6 
 3576000   0.68933739   -5.2123675    1577.6287  0.036764277  0.036062459            7 
 3577000   0.68745052   -5.2193258    1579.4137  0.036795585  0.036053441            6 
 3578000   0.68811565   -5.2127985    1576.4085  0.036715309  0.036044458            6 
 3579000   0.67507479    -5.225996    1577.9422   0.03674076  0.036035475           11 
 3580000   0.67723663   -5.2073631    1581.5567  0.036814634    0.0360265            7 
 3581000   0.67759632    -5.216077    1581.5567  0.036804355  0.036017532            8 
 3582000   0.67919673   -5.2041839    1577.9623  0.036710458  0.036008512           10 
 3583000   0.66898887   -5.2314011    1575.7104  0.036647837  0.035999486           10 
 3584000    0.6670592   -5.2130092    1580.7789  0.036755463  0.035990418            5 
 3585000    0.6833525   -5.2124597    1577.7866  0.036675653   0.03598141            7 
 3586000    0.6810678   -5.2146603    1576.4104  0.036633444  0.035972369           12 
 3587000   0.67704291   -5.2146748    1578.5014  0.036671811  0.035963382            6 
 3588000   0.68613181   -5.2067998    1579.1679   0.03667707  0.035954364            6 
 3589000   0.66174172   -5.2131478    1577.9505  0.036638584  0.035945399            9 
 3590000   0.69769615   -5.2094543     1578.294  0.036636351  0.035936396           15 
 3591000   0.68721065   -5.2092961    1580.9843   0.03668858  0.035927395           12 
 3592000    0.6749018    -5.232598    1574.9153  0.036537566  0.035918295           11 
 3593000   0.68642679   -5.2095324    1574.6726  0.036521769  0.035909206           18 
 3594000   0.67923202   -5.2311298    1578.0287  0.036589425  0.035900121           12 
 3595000   0.67036465   -5.2284132    1578.1188  0.036581335  0.035891028            8 
 3596000   0.67861461    -5.223873    1577.9996    0.0365684  0.035881948            7 
 3597000   0.67022158   -5.2220261    1576.3064  0.036519008  0.035872845           11 
 3598000    0.6584357   -5.2302989    1573.9024  0.036453177   0.03586372           15 
 3599000   0.67750307   -5.2414692    1575.8781  0.036488796  0.035854605           10 
 3600000   0.66949239   -5.2181671    1577.7876   0.03652286  0.035845528            8 
 3601000    0.6643042   -5.2100985    1582.3171  0.036617539  0.035836481           16 
 3602000   0.67267437   -5.2353724    1576.4852   0.03647245  0.035827416           19 
 3603000   0.68138451   -5.2084127    1577.3937  0.036483339  0.035818375           14 
 3604000    0.6676877   -5.2269264    1580.0251  0.036534063  0.035809343            8 
 3605000   0.67193355   -5.1873806    1573.9831   0.03638426  0.035800328           14 
 3606000   0.66252446   -5.2201312     1578.714  0.036483499  0.035791296            5 
 3607000   0.66717716   -5.2138231    1580.8872  0.036523593  0.035782256            7 
 3608000   0.67015107   -5.2359078    1576.6568  0.036415761  0.035773237           13 
 3609000   0.66579427    -5.207178     1575.727  0.036384201  0.035764195           14 
 3610000   0.66279142   -5.2061644    1578.1251  0.036429481  0.035755169            7 
 3611000   0.67811596   -5.2262458    1580.6955  0.036478712  0.035746121            8 
 3612000   0.67333188   -5.2352189    1572.4487  0.036278348   0.03573698           15 
 3613000   0.68507849   -5.2453955    1576.2996  0.036357127  0.035727905            9 
 3614000   0.67747213    -5.218717    1582.3496  0.036486571  0.035718864            8 
 3615000    0.6576677    -5.214531    1580.3152  0.036429581  0.035709844           12 
 3616000   0.68041784   -5.2139084    1581.4686  0.036446087  0.035700878            9 
 3617000   0.68159583   -5.2692002     1577.161  0.036336765  0.035691881           12 
 3618000   0.67788336   -5.2198173    1583.2284  0.036466474  0.035682872           12 
 3619000   0.66329109   -5.2268053    1583.2546  0.036456999  0.035673857           22 
 3620000   0.67288447   -5.2004053    1580.1336  0.036375083  0.035664865            8 
 3621000   0.68343773   -5.2462178    1579.2791  0.036345373  0.035655837           13 
 3622000   0.66872124   -5.2220616    1579.2931  0.036335658  0.035646771           11 
 3623000   0.67829388   -5.2110992    1580.0589  0.036343245  0.035637726           11 
 3624000    0.6852198   -5.1961774    1581.9481  0.036376657  0.035628737            7 
 3625000   0.66350075   -5.1868663    1582.6425  0.036382587  0.035619725            7 
 3626000   0.68114952   -5.2241677    1579.1523   0.03629234  0.035610697            5 
 3627000    0.6797669   -5.2491202    1577.6248  0.036247238    0.0356016            9 
 3628000   0.67815617   -5.2419528    1575.8877  0.036197348    0.0355925            8 
 3629000   0.67676072    -5.218767    1578.0919  0.036237987  0.035583476           18 
 3630000   0.67388144   -5.2516443    1575.6024  0.036170854  0.035574382            8 
 3631000    0.6530196   -5.2318994    1582.2818  0.036314187  0.035565378            8 
 3632000   0.67348929   -5.2236329    1579.5517  0.036241549  0.035556362           11 
 3633000   0.66367743   -5.2351675     1579.899  0.036239539  0.035547303            9 
 3634000   0.66565733   -5.2559641    1570.7169  0.036019008  0.035538196           11 
 3635000   0.66826299   -5.2505815    1579.8689  0.036218912  0.035529175            9 
 3636000   0.67544301   -5.2297744    1580.1957   0.03621644  0.035520173           11 
 3637000   0.66525445   -5.2267433    1579.9017  0.036199746  0.035511168            7 
 3638000   0.66334796    -5.211252    1580.3691  0.036200501  0.035502198           18 
 3639000   0.66879756     -5.22906    1583.2957  0.036257573  0.035493239           12 
 3640000   0.67347552   -5.2224057    1580.7567  0.036189484  0.035484269           10 
 3641000   0.68528541   -5.2581485    1577.4805  0.036104562  0.035475193            9 
 3642000   0.65346542   -5.2400281    1581.3917  0.036184141  0.035466156           15 
 3643000   0.66403944   -5.2672451    1578.0083  0.036096814  0.035457142           11 
 3644000   0.67114579   -5.2315971    1582.0474  0.036179277  0.035448135            3 
 3645000   0.65843001   -5.2334896    1581.9076  0.036166155  0.035439163           11 
 3646000    0.6673678   -5.2261958    1578.1731  0.036070879  0.035430211           14 
 3647000    0.6619102   -5.2047774    1583.6263  0.036185592   0.03542129            4 
 3648000   0.64847845   -5.2299998      1583.59  0.036174844  0.035412404            6 
 3649000   0.66559114   -5.2195449    1587.6531  0.036257722    0.0354035            6 
 3650000   0.66289664   -5.2298608    1579.4066  0.036059512   0.03539459            8 
 3651000   0.67878535   -5.2252488    1584.2768  0.036160797  0.035385617            9 
 3652000   0.66113066   -5.2389326    1581.8565  0.036095666   0.03537664            7 
 3653000   0.66707255   -5.2327774    1583.1227  0.036114671   0.03536772           12 
 3654000   0.66156751   -5.2287359    1578.5886  0.036001382  0.035358773            7 
 3655000   0.66962216   -5.2492437    1584.7699  0.036132464  0.035349697           10 
 3656000   0.66178903   -5.2448442    1581.2817  0.036043072  0.035340636           25 
 3657000   0.65853088   -5.2626596    1579.2947  0.035987938  0.035331615           14 
 3658000   0.65802287   -5.2183594    1580.8698  0.036013983   0.03532266            8 
 3659000   0.65223586    -5.228986    1582.1111  0.036032411  0.035313676            7 
 3660000   0.64863217    -5.245583    1583.1426  0.036046053  0.035304697           11 
 3661000   0.66211021   -5.2284998    1581.9023  0.036007975  0.035295724            4 
 3662000   0.65880366   -5.2127137    1584.6927  0.036061641  0.035286798           12 
 3663000    0.6771303   -5.2227746    1587.4026  0.036113444  0.035277896           20 
 3664000   0.65687172   -5.2423904    1585.1162  0.036051587  0.035268968            8 
 3665000   0.67383575   -5.2294323    1584.7953  0.036034453  0.035260044            7 
 3666000    0.6866668   -5.2062197    1582.6261  0.035975315  0.035251087           16 
 3667000    0.6639821   -5.2197158    1586.6973  0.036058025  0.035242177            8 
 3668000   0.66636719   -5.2213665    1583.6801  0.035979645  0.035233217           11 
 3669000    0.6777428    -5.239473    1583.7396  0.035971191  0.035224276           10 
 3670000   0.65479303   -5.2235806    1580.7595  0.035893721  0.035215309            6 
 3671000   0.68242868   -5.2181369    1584.5826   0.03597073  0.035206363           10 
 3672000   0.65443662   -5.2347219    1584.1116  0.035950245  0.035197497            8 
 3673000   0.65468173    -5.252092    1585.0182  0.035961025  0.035188553           10 
 3674000   0.66828458    -5.232454    1582.8224  0.035901433  0.035179632           11 
 3675000   0.67517101   -5.2287556    1581.2347  0.035855663  0.035170666           11 
 3676000   0.65533682   -5.2799382    1584.7326  0.035925203  0.035161655           14 
 3677000   0.67807659   -5.2465127    1585.3931  0.035930402   0.03515269           13 
 3678000    0.6536575   -5.2444321    1578.9812  0.035775359  0.035143722           33 
 3679000   0.65143813   -5.2298821    1583.3488  0.035864565  0.035134746            9 
 3680000   0.65770745    -5.244438    1588.8783  0.035980033  0.035125762            5 
 3681000   0.67477271    -5.266563    1577.5831  0.035714551  0.035116806            9 
 3682000   0.66519936   -5.2552832     1582.124  0.035807622  0.035107818           18 
 3683000   0.66175845   -5.2699255    1580.8104  0.035768179   0.03509881           16 
 3684000   0.67447574    -5.260955    1580.7201  0.035756427  0.035089791           18 
 3685000   0.66935787   -5.2672806    1583.3667  0.035806574  0.035080837            9 
 3686000   0.67599978   -5.2509886    1584.4477  0.035821299  0.035071931           16 
 3687000   0.65881708   -5.2487694    1584.3484   0.03580934  0.035063015            7 
 3688000   0.64737151    -5.253185    1584.7059  0.035807707  0.035054032           18 
 3689000   0.66519211   -5.2413241    1583.8091  0.035777742  0.035045098           11 
 3690000   0.66866526   -5.2510028    1583.9273  0.035770716  0.035036183           23 
 3691000   0.67348187    -5.231703    1586.8449  0.035826898  0.035027311           14 
 3692000   0.64245656    -5.244082    1583.2437  0.035735909  0.035018412           17 
 3693000   0.66561235   -5.2416624     1586.354  0.035796417  0.035009531            5 
 3694000   0.66784236   -5.2384543    1584.7502  0.035750547  0.035000643           19 
 3695000   0.68120353   -5.2785318    1581.6432  0.035670798  0.034991722            9 
 3696000   0.66276547   -5.2330289    1585.0464   0.03573788  0.034982809            8 
 3697000   0.66098672   -5.2303499    1586.3841  0.035758365  0.034973931           14 
 3698000     0.663525    -5.287201    1585.1225  0.035720265  0.034965019            7 
 3699000   0.66770716   -5.2647839    1587.0013  0.035752935  0.034956098            7 
 3700000    0.6670656   -5.2538797    1587.9273  0.035764127  0.034947186           11 
 3701000   0.65393107   -5.2501007    1584.1662  0.035669779    0.0349383           15 
 3702000   0.66606944   -5.2521511    1584.5244  0.035668206   0.03492938           10 
 3703000   0.66404113   -5.2765959    1580.9379  0.035577861  0.034920503            9 
 3704000   0.65949696   -5.2466442    1585.7462  0.035676434  0.034911586            6 
 3705000   0.65810717   -5.2408713    1589.2134  0.035744792   0.03490273            9 
 3706000    0.6432069    -5.243562    1584.7805  0.035635468  0.034893872           23 
 3707000   0.65400631   -5.2306523    1584.0005   0.03560832  0.034885008           21 
 3708000   0.64877871   -5.2399821    1588.5502  0.035700966  0.034876128           13 
 3709000   0.65323547   -5.2335916    1585.6243  0.035625603   0.03486726           13 
 3710000   0.65020899   -5.2335819    1587.0384  0.035647764  0.034858401           10 
 3711000   0.65437282    -5.239687    1586.2474  0.035620395  0.034849546           12 
 3712000   0.65852478   -5.2596392    1584.4392  0.035570204  0.034840648           13 
 3713000   0.66765797   -5.2551658    1589.0751  0.035664672  0.034831752           18 
 3714000   0.65948992   -5.2643682    1585.5109  0.035575096  0.034822835            9 
 3715000   0.65162339   -5.2705237    1587.7571  0.035615907   0.03481394            7 
 3716000   0.64816687   -5.2568263    1583.5527  0.035512035  0.034805037           20 
 3717000   0.64416476   -5.2635612    1584.2831  0.035518857  0.034796092           13 
 3718000   0.65845733   -5.2894894    1584.1572  0.035506481  0.034787119           19 
 3719000   0.65284711   -5.2842797    1585.8057  0.035533873   0.03477818            8 
 3720000   0.65424438   -5.2322507    1586.1147  0.035531243  0.034769306            7 
 3721000   0.64108048   -5.2529414    1586.4456  0.035529104  0.034760445           17 
 3722000     0.645754    -5.265016    1581.5193  0.035409262  0.034751548           12 
 3723000   0.65202258   -5.2504019    1589.5136   0.03557869  0.034742646            8 
 3724000   0.66306507   -5.2535679    1583.0786  0.035425138  0.034733733            8 
 3725000   0.65557621   -5.2468774     1586.274  0.035487114  0.034724776           10 
 3726000   0.66132064    -5.244357     1589.768  0.035555734  0.034715879           11 
 3727000   0.65615247   -5.2745083    1582.1454  0.035375759  0.034706992            9 
 3728000   0.65514826   -5.2513356    1588.4298  0.035506746   0.03469808           11 
 3729000   0.66880839   -5.2691404    1577.7195  0.035257878  0.034689195           10 
 3730000   0.65428016   -5.2575319    1589.2898  0.035506922  0.034680277            8 
 3731000   0.65710866    -5.278849    1585.5182  0.035413164  0.034671383           10 
 3732000    0.6634828   -5.2583241    1584.9653  0.035391329  0.034662503            5 
 3733000   0.66084937   -5.2730805     1585.352   0.03539048  0.034653637            7 
 3734000   0.65517788   -5.2684416    1588.3039  0.035446882  0.034644716           13 
 3735000   0.65896164   -5.2784346    1584.9522  0.035362611  0.034635822           11 
 3736000   0.65691999   -5.2657041    1589.8028  0.035461339  0.034626938           14 
 3737000   0.64184977   -5.2502339    1587.5652  0.035401954  0.034618063           18 
 3738000   0.66365128   -5.2677133      1586.62   0.03537141  0.034609166            7 
 3739000   0.65974281   -5.2384518     1588.261  0.035398525  0.034600278            5 
 3740000   0.64469239    -5.243645    1588.5881  0.035396348  0.034591434           11 
 3741000   0.64910587   -5.2491016    1586.2716  0.035335286  0.034582619            7 
 3742000     0.654127   -5.2828829    1583.4392  0.035262764  0.034573754           13 
 3743000   0.65461132   -5.2464632    1590.2234  0.035404387  0.034564852           13 
 3744000   0.66109711   -5.2617611    1585.8054  0.035296596  0.034555976           13 
 3745000   0.66017249   -5.2822221    1586.1231  0.035294239  0.034547065           23 
 3746000   0.65134012   -5.2794879     1586.928  0.035302722  0.034538175           13 
 3747000   0.65106999   -5.2553686    1593.0472  0.035429393  0.034529375            8 
 3748000   0.65904317   -5.2648974    1585.0216  0.035241497  0.034520603           30 
 3749000   0.63984125   -5.2623532    1587.1938  0.035280382  0.034511804            5 
 3750000     0.650254   -5.2858019    1588.3237  0.035296082  0.034502951            7 
 3751000   0.65058525   -5.2752385    1585.8396  0.035231484  0.034494128           10 
 3752000   0.64947053   -5.2604879    1589.6316  0.035306316   0.03448533            9 
 3753000   0.64707452   -5.2589819    1591.8945  0.035347155  0.034476503           11 
 3754000   0.66428835   -5.2603501       1587.8  0.035246848  0.034467698           16 
 3755000   0.66065966   -5.2583212    1588.3528   0.03524973  0.034458923           11 
 3756000   0.64316924   -5.2713979     1588.813  0.035250555  0.034450169            9 
 3757000   0.64589627    -5.263635    1587.4914  0.035211857   0.03444138           13 
 3758000   0.63958022   -5.2714174    1587.7727  0.035208727  0.034432548            7 
 3759000   0.64892319   -5.2752664    1587.5411  0.035194225  0.034423719           12 
 3760000   0.64187472   -5.2779325    1585.6487  0.035142922  0.034414837           13 
 3761000   0.65343098   -5.2868767    1590.6094  0.035243494  0.034406035            8 
 3762000   0.65554368   -5.3009077    1584.6605   0.03510235  0.034397249           14 
 3763000   0.64791197   -5.2867909    1588.3322  0.035174334  0.034388402           15 
 3764000    0.6621963   -5.2836239    1589.8157  0.035197833  0.034379597           14 
 3765000     0.645899    -5.286993    1587.6493  0.035140533  0.034370784            8 
 3766000   0.63542321    -5.258553    1589.5335  0.035172895  0.034362004            9 
 3767000    0.6533936   -5.2938938    1590.9829  0.035195621  0.034353249           12 
 3768000   0.65111261   -5.2845709    1590.9352  0.035185226  0.034344492           14 
 3769000   0.64957127    -5.262591    1590.5984  0.035168445  0.034335732            9 
 3770000   0.66629966     -5.26627    1598.2948  0.035329241  0.034326968           18 
 3771000   0.65894273   -5.2836569    1591.0992  0.035160859   0.03431823           19 
 3772000   0.64987101   -5.2826902    1588.5212  0.035094582  0.034309511            7 
 3773000   0.65387824   -5.2805275    1590.3731  0.035126183    0.0343007           15 
 3774000   0.64182286   -5.2547422    1591.6031  0.035144036  0.034291965            9 
 3775000   0.63939147   -5.2619884    1590.8494  0.035118088  0.034283227            9 
 3776000   0.65733286    -5.282969    1588.6135  0.035059443  0.034274445            5 
 3777000   0.66052716   -5.2819047    1591.6408  0.035116954  0.034265642           21 
 3778000   0.64610448   -5.2734345    1592.6656  0.035130263  0.034256817           14 
 3779000   0.64893426   -5.2692675    1587.8721  0.035015261  0.034248036            5 
 3780000   0.62635013   -5.2789084    1590.3042  0.035059616  0.034239195           13 
 3781000   0.63574535   -5.2941303     1591.537  0.035077514   0.03423032            9 
 3782000   0.65639643    -5.318711    1586.8727  0.034965466  0.034221441           10 
 3783000   0.64314263   -5.3130211    1590.1231  0.035027825  0.034212647            6 
 3784000   0.65054368    -5.276177    1590.7645  0.035032691  0.034203885           16 
 3785000   0.63741565   -5.2894707    1589.4307  0.034994071  0.034195124            7 
 3786000   0.64186258   -5.2902527    1594.3106   0.03509224  0.034186389           25 
 3787000    0.6456311   -5.2728073      1590.68   0.03500308  0.034177673            7 
 3788000   0.65400324   -5.2904414    1588.9113   0.03495493  0.034168888           11 
 3789000   0.65851367    -5.298317     1590.836  0.034988035  0.034160111           10 
 3790000   0.66031119   -5.2999933    1587.6265  0.034908235  0.034151338            8 
 3791000   0.65650596   -5.2943192    1589.6021  0.034942454  0.034142586            9 
 3792000   0.64661065    -5.280905    1590.7016  0.034957402  0.034133834           12 
 3793000    0.6470236   -5.2881422    1593.4944  0.035009545  0.034125052            8 
 3794000   0.64417606   -5.3023184    1589.2618   0.03490735  0.034116275           21 
 3795000   0.64765098   -5.2823754    1594.3867  0.035010687  0.034107519           19 
 3796000   0.64833578   -5.2779713    1593.1767  0.034974902  0.034098784            9 
 3797000   0.65246701   -5.2741399    1597.9846   0.03507121  0.034090089            8 
 3798000   0.63611011   -5.2904855    1591.6159  0.034922238  0.034081355           13 
 3799000   0.63785534   -5.2737483     1592.061  0.034922808  0.034072636            8 
 3800000    0.6423747   -5.3015669    1593.5924  0.034947203  0.034063894           15 
 3801000   0.64439503   -5.3043157    1590.6049  0.034872509  0.034055123           12 
 3802000   0.63387162   -5.2762343    1590.5716  0.034862607  0.034046417           19 
 3803000   0.64983703   -5.2839289    1594.8167  0.034946462  0.034037689            9 
 3804000     0.661873   -5.2704531    1595.5516  0.034953373  0.034028966           13 
 3805000   0.64082158    -5.263166    1594.3167  0.034917142    0.0340203            8 
 3806000   0.64341237   -5.2776091    1594.1343  0.034903975  0.034011625           12 
 3807000    0.6385092   -5.3150909    1591.0698  0.034827726  0.034002897           11 
 3808000   0.63488331   -5.2909345    1589.3296  0.034780498  0.033994154            6 
 3809000    0.6390036   -5.2955608    1594.7877  0.034890778  0.033985454           16 
 3810000   0.64950634   -5.2718813    1592.6081  0.034833947  0.033976813           12 
 3811000   0.64882442   -5.3280791    1590.9258  0.034788022  0.033968112           13 
 3812000   0.64909081   -5.3081114    1592.2735  0.034808357  0.033959315            7 
 3813000   0.65501141   -5.2960943    1593.5831  0.034827851  0.033950567            8 
 3814000   0.64900347   -5.3152143    1589.9647  0.034739658  0.033941836           15 
 3815000   0.64057802   -5.2862382    1593.6116  0.034810215  0.033933135           10 
 3816000   0.63454627   -5.2897319    1590.1689  0.034725911  0.033924456            6 
 3817000   0.63768943   -5.3127386    1590.5299  0.034724695  0.033915715           10 
 3818000   0.64476873   -5.3024522    1593.3158  0.034776406  0.033907019           11 
 3819000   0.63730347   -5.2902892    1593.5417  0.034772229  0.033898313           17 
 3820000   0.62556538   -5.2846749    1595.1731  0.034798715    0.0338896           14 
 3821000   0.64810266   -5.2835407    1595.1708  0.034789558  0.033880866            7 
 3822000   0.63079558   -5.3220911    1591.0478  0.034690559  0.033872141            7 
 3823000   0.66025859   -5.3052027    1591.2605  0.034686122  0.033863387           12 
 3824000   0.63524491   -5.3184364    1591.8776  0.034690499  0.033854646           15 
 3825000   0.64744458   -5.2875462    1596.4945  0.034782014  0.033845931           17 
 3826000   0.64311002    -5.284448    1596.1405  0.034765214  0.033837275           31 
 3827000   0.61942509   -5.3215826    1589.6807  0.034615466   0.03382857           19 
 3828000   0.64721047   -5.2935771    1594.1322  0.034703332  0.033819874           10 
 3829000   0.63669346    -5.296715     1594.361  0.034699247  0.033811147            5 
 3830000    0.6363319   -5.3026998    1590.2783  0.034601356  0.033802451           21 
 3831000   0.64557736   -5.2994053    1590.5942  0.034599195  0.033793729            7 
 3832000    0.6390834   -5.2976779    1592.6768  0.034635456  0.033784999           21 
 3833000    0.6257065   -5.2649128    1597.3631  0.034728305  0.033776311           12 
 3834000   0.63639902   -5.2906889    1590.9355   0.03457954  0.033767632            6 
 3835000   0.63237126    -5.313041    1592.8723  0.034612609  0.033758929           15 
 3836000   0.63093591   -5.3111515      1597.33  0.034700427  0.033750236           10 
 3837000   0.64476905   -5.2907264    1593.6441   0.03461133  0.033741523           10 
 3838000   0.63591039   -5.3328896    1592.9081  0.034586332  0.033732802            8 
 3839000   0.63194009   -5.3321971    1591.9888  0.034557368  0.033724077            9 
 3840000   0.63190251   -5.3106718    1591.6781  0.034541625  0.033715395            9 
 3841000   0.62815113   -5.2972752    1594.7249  0.034598735  0.033706693           10 
 3842000      0.64273   -5.3006645    1591.8821  0.034528068  0.033698016           14 
 3843000    0.6336014   -5.3227821    1593.9153  0.034563173  0.033689313            8 
 3844000   0.63591751   -5.2884313    1594.2381  0.034561179  0.033680642           13 
 3845000   0.63615766   -5.3262641    1592.7645  0.034520253  0.033671981           15 
 3846000   0.63190559   -5.3128442    1594.3285  0.034545165  0.033663283           13 
 3847000   0.63398226   -5.3108707    1593.8609  0.034526058  0.033654577            9 
 3848000   0.63242667   -5.3178083    1592.8224  0.034494595  0.033645849           20 
 3849000   0.64193837   -5.3065043    1590.4318  0.034433875  0.033637107           11 
 3850000   0.62341527   -5.3061276    1595.2734  0.034529728  0.033628387           12 
 3851000   0.65731155   -5.3125402    1592.2672  0.034455709   0.03361967           13 
 3852000   0.64100412   -5.2998719    1594.9305  0.034504381  0.033610967            7 
 3853000    0.6312531   -5.3023576    1593.1356  0.034456605  0.033602262           17 
 3854000   0.63154235   -5.3267016     1593.758  0.034461123  0.033593538           11 
 3855000   0.63872295   -5.3179911    1594.8611  0.034476028  0.033584848           10 
 3856000   0.62794371   -5.3076515    1592.6155  0.034418557  0.033576183           23 
 3857000   0.63276535    -5.314848    1597.4545  0.034514184  0.033567472           11 
 3858000   0.62197482   -5.3027475    1594.2276  0.034435536  0.033558813           19 
 3859000   0.64226174   -5.3105585    1592.8628   0.03439714  0.033550105           12 
 3860000   0.64593771   -5.3215811    1593.6606  0.034405452  0.033541411           24 
 3861000    0.6313729   -5.3295761    1592.7517  0.034376926  0.033532752           15 
 3862000   0.62990411   -5.3212519    1594.8798  0.034413945  0.033524112           12 
 3863000   0.63197181   -5.3124922    1595.8954  0.034426944  0.033515512            8 
 3864000   0.62696455   -5.3043749    1596.6828  0.034435016  0.033506944           11 
 3865000   0.63559317    -5.305521    1596.4542  0.034421178  0.033498312           12 
 3866000   0.62900814   -5.2961148    1598.8449  0.034463806  0.033489716           12 
 3867000   0.63436117   -5.2974908    1592.9001  0.034326785  0.033481106           19 
 3868000    0.6324594    -5.309703    1598.3685  0.034435723   0.03347249           16 
 3869000   0.62376423   -5.3175512    1591.4529  0.034277869  0.033463886           10 
 3870000   0.63420559   -5.3152265    1590.3907  0.034246139  0.033455266            4 
 3871000   0.62496464   -5.3227083    1594.3052  0.034321563   0.03344661           10 
 3872000   0.62067999   -5.3305486     1591.819  0.034259189  0.033437901           17 
 3873000   0.62892278     -5.31632    1594.7736  0.034313917  0.033429267           10 
 3874000   0.61341941   -5.3084403    1598.4692  0.034384555  0.033420666           20 
 3875000   0.63281973   -5.3107144    1593.1767  0.034261864  0.033412022            9 
 3876000   0.63154969   -5.3315465     1596.676   0.03432826  0.033403401           23 
 3877000   0.63941646   -5.2990596    1597.2073  0.034330825  0.033394796           11 
 3878000   0.62947945   -5.3304877     1592.317  0.034216885  0.033386141            9 
 3879000   0.62188717   -5.3250113    1596.9012  0.034306549  0.033377518            8 
 3880000   0.62649797   -5.3115095     1594.125  0.034238079  0.033368864            8 
 3881000    0.6361919   -5.3209049    1589.1517   0.03412247  0.033360232           12 
 3882000   0.62286833   -5.3314499    1594.6841  0.034232442  0.033351575           14 
 3883000   0.61783182   -5.3052356    1596.4015  0.034260484  0.033342946           11 
 3884000   0.62874625   -5.3121212    1595.9632  0.034242259  0.033334309           10 
 3885000   0.63071665   -5.2857419    1593.5646  0.034181995   0.03332568           10 
 3886000   0.64033564   -5.3326025    1594.6298  0.034196042  0.033317019           22 
 3887000   0.62239011   -5.3249906    1592.0303  0.034131514  0.033308363            7 
 3888000   0.63483829   -5.3108113    1596.0807  0.034209549  0.033299727           14 
 3889000   0.62414076   -5.3100213    1589.0405  0.034049894  0.033291098           26 
 3890000   0.64350587   -5.3175788    1593.8016  0.034143137  0.033282463           15 
 3891000   0.63793633   -5.3086969    1593.8866  0.034136182  0.033273838           14 
 3892000   0.63191455    -5.327468    1595.4929  0.034161804   0.03326522           13 
 3893000   0.63376421   -5.2983616    1592.2115  0.034082787  0.033256619            5 
 3894000   0.63168267   -5.3122213    1596.1206  0.034157692  0.033247989           10 
 3895000   0.63780053   -5.3399417    1594.3487  0.034111012  0.033239371            7 
 3896000   0.63033415   -5.3118839    1599.4906  0.034212239  0.033230741           12 
 3897000   0.62896152   -5.3329762    1593.0494  0.034065722  0.033222121           15 
 3898000   0.63315572   -5.3350503    1591.3898  0.034021503  0.033213443           16 
 3899000   0.62801123   -5.3287818    1596.9694   0.03413203  0.033204822           11 
 3900000   0.63339382   -5.3536749    1593.7068  0.034053563  0.033196176           19 
 3901000    0.6247116   -5.3255602    1595.6663  0.034086693  0.033187515            8 
 3902000   0.61770588   -5.3112633    1597.1745  0.034110168  0.033178921           10 
 3903000   0.62248505   -5.3468438    1591.8509  0.033987764  0.033170287           17 
 3904000   0.65037215   -5.3119478    1595.9684  0.034066949  0.033161687           15 
 3905000   0.62909399   -5.3321355    1596.8393   0.03407681   0.03315312           19 
 3906000   0.63151876   -5.3510088    1597.7375  0.034087248  0.033144539           15 
 3907000   0.63403149   -5.3329044     1594.895  0.034017896  0.033135943           13 
 3908000   0.61932625   -5.3152745    1599.8945    0.0341158  0.033127368           10 
 3909000    0.6219206   -5.3254435    1594.2781   0.03398734  0.033118788           10 
 3910000   0.63360503   -5.3062649    1597.9669  0.034057265  0.033110247            7 
 3911000   0.63014406   -5.3196185    1597.7991  0.034044981  0.033101692           10 
 3912000   0.62341174   -5.3445099    1592.6736  0.033927096  0.033093101           10 
 3913000   0.63267377   -5.3208139    1598.1115  0.034034235  0.033084521           10 
 3914000    0.6290593   -5.3213657    1597.0791  0.034003557  0.033075948            9 
 3915000   0.62995417   -5.3400124    1595.9047  0.033969875  0.033067377           22 
 3916000   0.61617698   -5.3296089     1594.218  0.033925306  0.033058798           30 
 3917000   0.63404074   -5.3357644     1597.915  0.033995297  0.033050254           18 
 3918000   0.62956392   -5.3327812    1596.9948   0.03396705  0.033041724           38 
 3919000   0.62691776   -5.3451435    1594.0614  0.033896007  0.033033168           11 
 3920000   0.63201348   -5.3333058    1599.2741  0.033998174  0.033024596            8 
 3921000   0.62080392    -5.344307    1596.1547  0.033923205  0.033016026            8 
 3922000    0.6307048   -5.3432851    1596.1479  0.033914413  0.033007469           21 
 3923000   0.62991313   -5.3253167     1598.516   0.03395607   0.03299894            7 
 3924000   0.62850797    -5.340956    1601.6443  0.034013853  0.032990425           15 
 3925000   0.64023246   -5.3366861    1598.5518  0.033939529  0.032981917           12 
 3926000    0.6142043   -5.3262166    1598.0809  0.033920889  0.032973388           10 
 3927000    0.6256741   -5.3340627    1596.6414  0.033881703  0.032964825            7 
 3928000   0.64046242   -5.3409648    1599.8076  0.033940249  0.032956267            7 
 3929000   0.61457765   -5.3246765    1602.8486  0.033996109   0.03294773           11 
 3930000   0.61315179   -5.3359001    1597.7467  0.033879277  0.032939213            7 
 3931000   0.61738398   -5.3095071    1598.8968   0.03389504  0.032930676           21 
 3932000   0.62942777   -5.3172409    1602.1784  0.033955969  0.032922231           12 
 3933000   0.62776153   -5.3269797    1600.6496  0.033914943  0.032913738           14 
 3934000   0.63142476   -5.3482732    1595.6153   0.03379968  0.032905197           11 
 3935000   0.62741017   -5.3322688    1596.6576  0.033813163  0.032896667            6 
 3936000   0.61330614   -5.3514564    1596.8676  0.033809019  0.032888123           23 
 3937000   0.61891972   -5.3384219    1600.7478  0.033882563  0.032879568           11 
 3938000    0.6258009   -5.3500506    1599.4054  0.033845552  0.032871006            7 
 3939000   0.63142473   -5.3271317    1598.7812  0.033823755  0.032862491           16 
 3940000   0.62507376   -5.3463935    1598.4287  0.033807714  0.032853977           15 
 3941000   0.60666145   -5.3381965    1594.6627  0.033719503  0.032845438           10 
 3942000    0.6212573   -5.3466563    1600.2283  0.033828603  0.032836932            7 
 3943000   0.62972821   -5.3432358    1594.7764  0.033704801  0.032828438           17 
 3944000   0.61939919   -5.3439262    1599.0577  0.033786716  0.032819936            8 
 3945000   0.60700158   -5.3260683    1601.0859  0.033820996  0.032811431           12 
 3946000   0.61943778     -5.29987    1600.3699  0.033797302  0.032802985            9 
 3947000   0.59720606   -5.3445568    1600.1081  0.033783212  0.032794524            6 
 3948000   0.61268701    -5.355516    1593.8089  0.033641694  0.032786018           12 
 3949000   0.61327911   -5.3374181    1599.8907  0.033761516  0.032777531           20 
 3950000   0.62609287   -5.3339558    1602.3677  0.033805227  0.032769096           12 
 3951000   0.60525329   -5.3147931    1599.2403  0.033730707  0.032760651            8 
 3952000   0.61883177   -5.3157742    1600.4689  0.033748079  0.032752243           10 
 3953000   0.60852328   -5.3268186    1603.0958   0.03379492  0.032743824           11 
 3954000   0.63114583   -5.3489859    1603.5969  0.033796933  0.032735367           11 
 3955000   0.63583133   -5.3630151     1592.339   0.03355118   0.03272688           28 
 3956000   0.62165549    -5.334986    1597.0639  0.033642229  0.032718422           22 
 3957000   0.59904149   -5.3315176    1598.4304  0.033662505  0.032709998            9 
 3958000   0.62348877   -5.3437139    1601.8069   0.03372509   0.03270155           11 
 3959000   0.62968209   -5.3294999    1600.9803  0.033699173  0.032693124           33 
 3960000   0.61916661   -5.3440593    1600.5387  0.033681371  0.032684709           19 
 3961000   0.62281848   -5.3469694    1603.4502  0.033734119  0.032676298            7 
 3962000   0.62733341   -5.3437158    1600.5646  0.033664914  0.032667881           15 
 3963000   0.61149056   -5.3504789    1601.8753   0.03368398  0.032659421            7 
 3964000   0.60011564   -5.3468892    1599.6431  0.033628554  0.032650946           19 
 3965000   0.61902254   -5.3476771    1600.1102  0.033629891  0.032642483           11 
 3966000   0.61932038   -5.3442168    1598.2658  0.033582656  0.032634033            8 
 3967000      0.62001   -5.3532601    1599.8987  0.033608494  0.032625527            7 
 3968000   0.63010758   -5.3547011    1603.4687  0.033674998  0.032617087           11 
 3969000   0.62534541   -5.3401712    1603.7368  0.033672141  0.032608634           10 
 3970000   0.61483492   -5.3572888    1598.2692  0.033548892  0.032600157           10 
 3971000   0.61924026   -5.3661723    1594.2724  0.033456569  0.032591672           18 
 3972000   0.60408009   -5.3780641    1600.4207  0.033577137  0.032583126           10 
 3973000   0.60036419   -5.3510301    1600.0554  0.033561024  0.032574608            8 
 3974000    0.6261765   -5.3456135     1601.879   0.03359082  0.032566107           20 
 3975000   0.60432029   -5.3437796    1601.9751  0.033584384  0.032557627           13 
 3976000   0.61293445   -5.3391834    1601.1813    0.0335593  0.032549169            6 
 3977000   0.62254872   -5.3439077    1600.8469  0.033543854  0.032540713           12 
 3978000   0.61030461   -5.3566648    1600.5697  0.033529614  0.032532284           36 
 3979000   0.61038997   -5.3833815    1599.1977  0.033492454  0.032523847            8 
 3980000   0.62455535   -5.3348656     1599.875   0.03349822   0.03251539           14 
 3981000   0.61557294   -5.3398574    1600.5043  0.033502978   0.03250693           75 
 3982000    0.6135518   -5.3640598    1602.8891  0.033544473  0.032498505           61 
 3983000   0.61728046   -5.3602184    1598.8418  0.033451372  0.032490061          126 
 3984000   0.62172527   -5.3347852    1601.9324  0.033507621  0.032481636           74 
 3985000   0.60520598   -5.3707405     1598.388  0.033425094  0.032473164           70 
 3986000    0.6141681   -5.3525004    1598.3497  0.033415908  0.032464717           31 
 3987000   0.61003172   -5.3595948    1601.3768  0.033470797   0.03245625           37 
 3988000   0.61438145   -5.3536945    1600.8844  0.033452115  0.032447823           19 
 3989000   0.60528838   -5.3634949    1601.1997  0.033450315  0.032439406           26 
 3990000   0.60950999   -5.3533696    1599.7358  0.033411357   0.03243097           18 
 3991000   0.61227269   -5.3803696    1601.1259  0.033432011  0.032422476           24 
 3992000   0.62666677   -5.3594607    1598.8674   0.03337649  0.032413995           25 
 3993000    0.6087968   -5.3738025     1600.665  0.033405646  0.032405534           23 
 3994000   0.60631547   -5.3933241    1597.8804  0.033339184  0.032397052           15 
 3995000    0.6044319   -5.3660388    1601.7481  0.033411516  0.032388584           27 
 3996000   0.61335318   -5.3629864     1601.084  0.033389307  0.032380133           12 
 3997000   0.61190359   -5.3489794    1601.1063  0.033381417  0.032371693           20 
 3998000   0.60095665   -5.3895667     1598.807  0.033325141  0.032363267           12 
 3999000   0.61256458   -5.3639302    1597.3842   0.03328716  0.032354808           41 
 4000000   0.60402476   -5.3849625    1600.9825  0.033353803  0.032346363           27 
 4001000   0.62272722   -5.3783016    1599.1127   0.03330652    0.0323379           11 
 4002000   0.61553576   -5.3635005    1604.1435  0.033402955  0.032329487            9 
 4003000   0.61363405    -5.335577    1601.2506  0.033334386  0.032321088           35 
 4004000    0.5999736   -5.3600783    1597.6155  0.033250407  0.032312647            7 
 4005000   0.61385006   -5.3720039    1597.8948  0.033247915  0.032304224           13 
 4006000   0.60880752   -5.3805615     1596.515  0.033210912  0.032295767           18 
 4007000   0.62388681   -5.3941758    1595.2981  0.033177316  0.032287317           16 
 4008000   0.60487586   -5.3687149    1602.1157  0.033310788   0.03227887           17 
 4009000   0.61007082   -5.3497974    1601.4828  0.033289324  0.032270447           13 
 4010000   0.60581946   -5.3465137    1602.7706  0.033307786  0.032262058           16 
 4011000   0.59862192   -5.3579463    1602.2726  0.033289134  0.032253706            9 
 4012000   0.59791148   -5.3697923    1598.3581  0.033199529  0.032245329            7 
 4013000   0.61982115   -5.3789837    1602.4803  0.033276857  0.032236903            7 
 4014000   0.60945876   -5.3433582    1603.5792   0.03329138  0.032228516           11 
 4015000   0.60177384   -5.3601927    1604.8997  0.033310497  0.032220129            6 
 4016000   0.61628348   -5.3531965    1604.6403  0.033296819   0.03221179           10 
 4017000   0.61561174    -5.347917    1603.4589  0.033264022  0.032203425            7 
 4018000   0.61416326   -5.3614856    1600.3725  0.033191731  0.032195099           20 
 4019000   0.60413601   -5.3542459    1601.7325  0.033211671  0.032186755           14 
 4020000   0.61961016   -5.3507523    1603.7315   0.03324485   0.03217836           16 
 4021000   0.60400726   -5.3878866    1601.2904  0.033185991  0.032169995            8 
 4022000    0.6095484   -5.3579128     1600.528  0.033161943   0.03216162           28 
 4023000   0.60779083   -5.3660717    1600.4978  0.033153074  0.032153222           31 
 4024000   0.61841528   -5.3609681    1602.2045   0.03318018  0.032144808           11 
 4025000   0.58986457   -5.3619039     1598.901   0.03310354   0.03213644           11 
 4026000     0.606768   -5.3809364    1601.7091  0.033153441   0.03212804           12 
 4027000   0.59180018   -5.3670242    1603.4072  0.033180349  0.032119625           15 
 4028000   0.60912895   -5.3729894    1598.4515  0.033069585  0.032111267           23 
 4029000   0.60230173   -5.3499528    1602.4668  0.033144428   0.03210287           24 
 4030000   0.60504802   -5.3636599    1601.8575  0.033123604  0.032094476           20 
 4031000   0.61135205   -5.3651518    1602.5884  0.033130497  0.032086067           13 
 4032000   0.61721121   -5.3691063    1600.5983  0.033081149  0.032077664           20 
 4033000   0.60347412   -5.3577654    1600.0921  0.033062486  0.032069279           18 
 4034000   0.60835355    -5.389568    1598.2048  0.033015303  0.032060828           17 
 4035000   0.60918559   -5.3904191    1598.2329  0.033007702  0.032052372           15 
 4036000   0.60298227   -5.3832739    1598.5734  0.033006553  0.032043972           11 
 4037000   0.60726563   -5.3715849    1599.9206  0.033026188  0.032035602            9 
 4038000   0.60630889   -5.3707753    1603.0659  0.033082918  0.032027249            8 
 4039000   0.61003806   -5.3597873    1602.1311   0.03305544   0.03201892           19 
 4040000   0.59359185   -5.3730474    1600.8256   0.03302033  0.032010567           10 
 4041000   0.60160631   -5.3862757     1597.713  0.032947972  0.032002177           15 
 4042000   0.60560032    -5.388619    1597.9341  0.032944379  0.031993789           11 
 4043000   0.61632224   -5.3627482    1600.1338  0.032981569  0.031985435           20 
 4044000   0.60474841   -5.3636621    1603.4284  0.033041305  0.031977079            7 
 4045000   0.60528242   -5.3767319    1600.2193  0.032967022  0.031968728           17 
 4046000   0.59374926    -5.356536    1605.8845  0.033075558  0.031960386           23 
 4047000   0.61355283   -5.3733961    1598.9937  0.032925494  0.031952047            9 
 4048000   0.60960488   -5.3927739    1600.1609  0.032941389  0.031943725           11 
 4049000   0.60453661    -5.391901    1601.0921  0.032952419  0.031935346           31 
 4050000   0.60073226   -5.3555307    1600.6853  0.032935911  0.031926948           16 
 4051000   0.60940174   -5.3868305    1599.2144  0.032897524  0.031918558           16 
 4052000   0.60364779   -5.3975599    1599.4212  0.032893658   0.03191014           28 
 4053000   0.62086092   -5.3991235    1597.8576  0.032853392  0.031901713           14 
 4054000   0.59736283   -5.3886527    1597.8226   0.03284457  0.031893309           11 
 4055000   0.58788394   -5.3891668    1602.4191  0.032930931  0.031884909           11 
 4056000   0.60598055   -5.3993853    1601.3617  0.032901087  0.031876519            5 
 4057000   0.61252161   -5.3714445    1602.9412  0.032925422  0.031868167           16 
 4058000   0.60397835   -5.3862919    1602.3261  0.032904676  0.031859841           10 
 4059000   0.59986098   -5.3856648    1601.6655  0.032883006  0.031851486            9 
 4060000   0.59883097   -5.3843639    1601.4582  0.032870652  0.031843139           11 
 4061000   0.60079895     -5.36423    1600.7078  0.032847159  0.031834816           20 
 4062000   0.59763324   -5.3963975    1601.0013  0.032845094  0.031826484            8 
 4063000   0.59769505   -5.3818143    1601.8237  0.032853879  0.031818164           12 
 4064000   0.62008385   -5.3878613    1606.2145  0.032935829  0.031809853           17 
 4065000   0.60617592   -5.3699608    1602.8364  0.032858475  0.031801537            8 
 4066000   0.60116496   -5.3825526    1601.8247  0.032829658  0.031793238           16 
 4067000   0.60080321   -5.3722141    1600.5472   0.03279541  0.031784912            9 
 4068000   0.59799882   -5.3923333    1601.7817  0.032812638  0.031776568           27 
 4069000   0.59642183   -5.4001969    1600.3178  0.032774593  0.031768216           19 
 4070000   0.60532357   -5.4033777    1603.9649  0.032841213  0.031759895           12 
 4071000    0.5990038   -5.3695507     1604.191  0.032837774  0.031751556           11 
 4072000   0.60476727   -5.4041144    1602.5986  0.032797123  0.031743234           16 
 4073000   0.61937918   -5.4219559    1601.0559  0.032757508  0.031734894           18 
 4074000   0.60763376    -5.408896    1600.4778  0.032737641   0.03172655           10 
 4075000   0.60360689    -5.369804     1609.732  0.032918855  0.031718235           25 
 4076000   0.58885337   -5.3993815    1603.2222  0.032777687  0.031709912           26 
 4077000   0.60759327    -5.379492    1599.2595  0.032688649  0.031701591           12 
 4078000   0.59803824   -5.3983226    1601.2623  0.032721562  0.031693273           16 
 4079000    0.6060442   -5.3984327    1600.2571  0.032693002  0.031684926           14 
 4080000   0.59701099   -5.3896532    1605.8346   0.03279891  0.031676619           20 
 4081000    0.6006378   -5.3888646    1604.5424  0.032764485  0.031668365           35 
 4082000    0.5902642    -5.374864    1604.3227  0.032751974  0.031660121           20 
 4083000   0.60771311   -5.3981768    1602.0971  0.032698529   0.03165187           16 
 4084000   0.60563992   -5.3961063     1604.933  0.032748387  0.031643595           13 
 4085000   0.59864875   -5.3859299    1600.5076  0.032650094  0.031635299           30 
 4086000   0.60431802   -5.3802904    1605.5133  0.032744193  0.031626999           49 
 4087000   0.60608225   -5.3980956    1605.2384  0.032730577  0.031618706           10 
 4088000   0.61016408   -5.3985507    1604.6379  0.032710329  0.031610435           19 
 4089000   0.59530846   -5.3997412    1605.1806  0.032713389  0.031602149           10 
 4090000    0.6056157   -5.4127366    1601.3391  0.032627121   0.03159387            9 
 4091000   0.60379208   -5.3940301    1605.0408  0.032694549  0.031585609           11 
 4092000   0.60003976   -5.3956738    1603.7633  0.032660544  0.031577328           14 
 4093000   0.60525472   -5.4086816     1605.099  0.032679757  0.031569099           12 
 4094000   0.60362041   -5.3874459    1602.4383  0.032617618  0.031560831           21 
 4095000   0.59075348   -5.3807028     1602.749  0.032615975  0.031552585           12 
 4096000   0.60612883     -5.37294    1605.9057  0.032672234  0.031544404            8 
 4097000   0.59459717   -5.4053889    1603.7816  0.032621055  0.031536136            9 
 4098000   0.60572402   -5.4056048    1603.6962  0.032611359  0.031527858           57 
 4099000   0.60198958   -5.3972459    1602.7886  0.032584952  0.031519581           18 
 4100000   0.59436296   -5.4177614    1602.6325  0.032573831   0.03151129            9 
 4101000   0.59594531   -5.4039463    1608.0653  0.032676284   0.03150306           17 
 4102000   0.59374438   -5.3855427    1606.9205  0.032645062  0.031494853           22 
 4103000   0.58537997   -5.3979357    1605.9872   0.03261815  0.031486626           12 
 4104000   0.58747274   -5.4139484     1606.812  0.032626949  0.031478419           17 
 4105000   0.60210815   -5.3795296    1607.4729  0.032632418   0.03147021           13 
 4106000   0.60345236   -5.3931991    1604.5264   0.03256467  0.031461989            9 
 4107000   0.59733353   -5.3955753    1610.0587  0.032668994  0.031453772           15 
 4108000   0.59194355   -5.4169865    1605.4045  0.032566628   0.03144558            8 
 4109000   0.60138188   -5.4070905    1604.6873  0.032544157  0.031437353           13 
 4110000   0.59173779   -5.3850024    1606.9796  0.032582717  0.031429134           14 
 4111000   0.58135673   -5.4080025    1607.8461  0.032592356  0.031420974            8 
 4112000   0.59344644   -5.3810922    1610.2031  0.032632196   0.03141282           16 
 4113000   0.60089096   -5.4011275     1601.222  0.032442297  0.031404625           35 
 4114000   0.59540087   -5.4021155     1607.232  0.032556149  0.031396415           26 
 4115000   0.59087268   -5.4058128    1604.5723  0.032494377  0.031388215           14 
 4116000   0.59265974   -5.4075458    1604.7248   0.03248957  0.031380012           11 
 4117000   0.59859405   -5.3959775     1608.981  0.032567829  0.031371815           28 
 4118000   0.59564613    -5.395177    1606.1994   0.03250363  0.031363627           21 
 4119000    0.5914195   -5.4058502    1605.7024  0.032485684  0.031355425           11 
 4120000   0.58235852     -5.42113    1604.2222   0.03244786   0.03134719           14 
 4121000   0.58979136   -5.4009653     1605.289  0.032461559  0.031338948           11 
 4122000   0.60147845   -5.4187851    1605.9757  0.032467566  0.031330711           17 
 4123000   0.59142484   -5.4127116    1605.5803    0.0324517  0.031322497           13 
 4124000   0.59813773   -5.4105476    1603.6487  0.032404799  0.031314265           14 
 4125000   0.59409818    -5.420278    1601.6632  0.032356832  0.031306017           15 
 4126000    0.6060216    -5.413307    1603.7582  0.032391302  0.031297775           21 
 4127000   0.59673101   -5.4159654    1602.4752  0.032357547  0.031289541            9 
 4128000   0.59681065   -5.3907548    1605.4717  0.032410201  0.031281301           13 
 4129000   0.60258317   -5.4015743    1602.5447  0.032343278  0.031273064           11 
 4130000   0.60580929   -5.4036796    1601.8416  0.032321258   0.03126483            9 
 4131000   0.59459493   -5.4047061    1606.7687  0.032412828  0.031256574           28 
 4132000    0.5987007   -5.4170576    1604.6794  0.032362847  0.031248379           14 
 4133000   0.58666184   -5.4354403    1607.4787  0.032411459  0.031240186           15 
 4134000   0.59863587   -5.3913641    1604.5325  0.032344229   0.03123201           15 
 4135000   0.58976691   -5.4070559    1606.6206  0.032378489  0.031223822           32 
 4136000   0.59763045   -5.4229177    1606.7504  0.032373275  0.031215626           13 
 4137000   0.58707914   -5.4034516    1608.4539  0.032399764  0.031207435           21 
 4138000    0.5966975   -5.4384395    1605.9415  0.032341338  0.031199216           15 
 4139000   0.59579447   -5.4156933    1600.7281  0.032228559  0.031191016           16 
 4140000   0.59977212   -5.4065646    1606.6606  0.032340189  0.031182829           14 
 4141000   0.59533308   -5.4261745    1606.8223  0.032335634  0.031174636           10 
 4142000   0.59461493   -5.4077134    1607.2762  0.032336959  0.031166482           14 
 4143000   0.59533761   -5.3809495    1602.6017  0.032235129  0.031158324           16 
 4144000   0.58259387   -5.4165678    1607.8979  0.032333854  0.031150141           17 
 4145000    0.5912062   -5.4334713    1605.2927  0.032273678  0.031141955           21 
 4146000    0.5911356   -5.4031483    1606.6875  0.032293929  0.031133776           42 
 4147000     0.578916    -5.401261    1608.1829   0.03231619  0.031125586           23 
 4148000   0.59202011   -5.4233466    1605.3341  0.032251168  0.031117414           17 
 4149000    0.5836774   -5.3765508    1608.8069  0.032313146   0.03110926           14 
 4150000   0.58426634   -5.3834528    1608.6888  0.032302987  0.031101181           17 
 4151000    0.5910883   -5.4350068    1607.9295  0.032279962  0.031093069           15 
 4152000   0.58108528   -5.3900427    1607.2644  0.032258839   0.03108495           20 
 4153000   0.58547428   -5.4162567     1605.027  0.032206176  0.031076824           12 
 4154000   0.59838071    -5.409374    1604.4313  0.032186472  0.031068679           11 
 4155000   0.58520792   -5.4177072    1607.7406  0.032245097   0.03106053           10 
 4156000   0.59125168   -5.4300352    1606.6216  0.032214903  0.031052406           10 
 4157000   0.59587716   -5.4104541    1609.2434   0.03225971  0.031044295           13 
 4158000   0.58406476   -5.4131628    1607.0469   0.03220793  0.031036174           18 
 4159000   0.58716628   -5.4228293    1607.6839  0.032212949  0.031028082            8 
 4160000   0.58353218   -5.4231403    1607.5485  0.032202494  0.031019941           20 
 4161000   0.59326699   -5.4419921    1608.7363  0.032218543  0.031011799           13 
 4162000    0.5883903   -5.4266382    1609.1701  0.032219487  0.031003608           24 
 4163000   0.58352773   -5.4382597    1605.4883  0.032138047  0.030995448           19 
 4164000    0.5940823   -5.4360554    1606.0303  0.032141176  0.030987307           20 
 4165000     0.603498   -5.4240174    1607.7538  0.032167942  0.030979163           17 
 4166000   0.59675646   -5.4243727    1601.4204  0.032033534  0.030971035            9 
 4167000   0.59147133   -5.4461468     1604.315  0.032083733   0.03096288           14 
 4168000   0.58789191   -5.4214254    1604.8828  0.032087388  0.030954707           14 
 4169000   0.59003207   -5.4315696     1606.889  0.032119793  0.030946564           24 
 4170000   0.58792606   -5.4195493    1602.0281  0.032014951   0.03093841           15 
 4171000   0.57750911   -5.4191778    1602.2262  0.032011232  0.030930297           15 
 4172000    0.5938764   -5.4131106    1608.7147  0.032133163  0.030922185           14 
 4173000   0.58062247   -5.4463164    1605.7136  0.032065533  0.030914077           15 
 4174000   0.58493142   -5.4314119    1608.8533  0.032120533   0.03090597            7 
 4175000   0.58558121   -5.4013525    1608.4805  0.032105399  0.030897867            9 
 4176000   0.58904291    -5.409635    1607.3767  0.032075684  0.030889804            9 
 4177000   0.58450747   -5.4339477    1607.7475  0.032075403  0.030881703           10 
 4178000   0.58322856   -5.4033348    1609.8754  0.032110168  0.030873624            7 
 4179000   0.57346756   -5.4176005     1605.323  0.032011705  0.030865548           12 
 4180000   0.58256135   -5.4258215    1604.8139  0.031993898  0.030857465           11 
 4181000   0.59178977   -5.4365975     1609.985  0.032089312  0.030849377           10 
 4182000   0.57707833   -5.4376493     1607.411  0.032030348  0.030841306           16 
 4183000   0.59612939   -5.4258141    1606.3815  0.032002181  0.030833247           16 
 4184000   0.57232273   -5.4375981    1608.3083  0.032032909   0.03082518           12 
 4185000   0.57421642   -5.4249581     1609.971  0.032058363  0.030817104           15 
 4186000   0.59231476    -5.392404    1610.2894  0.032057044  0.030809085            8 
 4187000   0.58927611   -5.4279235    1609.6375  0.032036412  0.030801066           12 
 4188000   0.58697586   -5.4141283    1613.4772  0.032105166  0.030793022            8 
 4189000   0.59112925   -5.4118787     1608.318  0.031994868  0.030784954           13 
 4190000   0.59035298   -5.4234855    1609.9489  0.032019667  0.030776893           14 
 4191000   0.58830652   -5.4307728    1607.9433  0.031972149   0.03076881           19 
 4192000   0.58420795   -5.4615274    1606.9831  0.031945433  0.030760718           19 
 4193000    0.5762668   -5.4149062    1609.6403  0.031990626  0.030752653           15 
 4194000   0.57902165   -5.4245495    1606.6556  0.031923692  0.030744587           26 
 4195000    0.5712516   -5.4401808    1606.3178  0.031909373  0.030736533           10 
 4196000    0.5770557   -5.4141378    1606.0869  0.031897182  0.030728444           40 
 4197000   0.58648097   -5.4255351    1608.4569  0.031936639  0.030720379            8 
 4198000   0.57274182   -5.4315872    1608.1606   0.03192315  0.030712324            6 
 4199000   0.58232252   -5.4445385    1605.2557  0.031857897  0.030704244           13 
 4200000   0.58059583   -5.4256398    1606.8279  0.031881506  0.030696137           12 
 4201000   0.56815996   -5.4296825    1606.5485  0.031868375  0.030688074           15 
 4202000    0.5947076   -5.4367053     1611.293  0.031954883  0.030679994           39 
 4203000   0.57234172   -5.4295954    1610.2546  0.031926692  0.030671972           10 
 4204000   0.57850002   -5.4205652    1611.3503  0.031940816  0.030663947           13 
 4205000   0.58033897   -5.4344122    1608.6949  0.031880596  0.030655885            9 
 4206000   0.58494018   -5.4261405    1609.0722  0.031880493  0.030647843           10 
 4207000    0.5792441    -5.428103    1609.4375   0.03188015  0.030639794           28 
 4208000   0.57618251   -5.4262917    1606.6962  0.031818286  0.030631743           27 
 4209000   0.58074694   -5.4238875    1611.7556  0.031910898  0.030623699            8 
 4210000   0.57647558    -5.439382    1602.1852  0.031713879  0.030615669           26 
 4211000    0.5844751   -5.4623054    1604.4228  0.031750629  0.030607589           20 
 4212000    0.5858791   -5.4289454    1605.4408  0.031763232  0.030599484           36 
 4213000   0.57130478   -5.4488097    1605.9504  0.031765772  0.030591407           14 
 4214000   0.56166819    -5.440898    1609.6939  0.031832264  0.030583348           34 
 4215000   0.57599306   -5.4619515    1606.4301  0.031760184  0.030575281           20 
 4216000   0.57882162   -5.4286698    1609.5696  0.031814705  0.030567272           12 
 4217000   0.58212586   -5.4437989    1611.5848  0.031846985  0.030559262           16 
 4218000   0.58873845   -5.4168873    1612.1862  0.031851316  0.030551285            8 
 4219000   0.58099915   -5.4395537    1606.3425  0.031728342  0.030543286           24 
 4220000   0.56073314   -5.4354295     1606.204  0.031718088  0.030535259           14 
 4221000   0.56717735   -5.4377526    1608.4243  0.031754409  0.030527245            9 
 4222000   0.56536353   -5.4487333    1608.8726  0.031755737  0.030519212           11 
 4223000     0.590487   -5.4238813    1611.3771  0.031797638   0.03051121            9 
 4224000   0.56713001   -5.4309669    1605.1617  0.031667489  0.030503215            7 
 4225000   0.58353482   -5.4376358    1609.3828   0.03174325  0.030495195           25 
 4226000    0.5814795   -5.4446088     1604.683  0.031643062  0.030487161           19 
 4227000   0.57834764   -5.4294914    1607.4586  0.031690297  0.030479128           12 
 4228000   0.57232143   -5.4488955    1607.8411   0.03169034  0.030471064            9 
 4229000   0.58278826   -5.4616072    1606.7196  0.031660746  0.030463005           10 
 4230000   0.57845248   -5.4390737    1608.7706  0.031693668   0.03045499           11 
 4231000   0.57707425   -5.4382838    1605.3439  0.031618686  0.030446951            8 
 4232000   0.56247129   -5.4254451    1612.5354  0.031752824  0.030438947           18 
 4233000   0.58897967   -5.4706109    1603.3872  0.031565226  0.030430926            9 
 4234000   0.57163389   -5.4317496    1607.0564  0.031629988  0.030422866           25 
 4235000   0.57340551   -5.4426318    1604.8866  0.031579824  0.030414823           12 
 4236000   0.58748835   -5.4329307    1609.5024  0.031663172   0.03040679           21 
 4237000   0.56871271   -5.4422181    1608.8995  0.031643842   0.03039877           38 
 4238000   0.57501977   -5.4384873    1606.5507  0.031590189  0.030390755           32 
 4239000   0.57445633   -5.4332642    1606.7715  0.031587079  0.030382766           19 
 4240000   0.58612743   -5.4349434    1609.2533  0.031628405  0.030374766            6 
 4241000   0.57353178   -5.4580166    1606.3212  0.031563333  0.030366778           24 
 4242000   0.56626312   -5.4488996    1610.4177  0.031636369  0.030358763           16 
 4243000   0.57187124   -5.4661925    1609.2095  0.031605184  0.030350756           18 
 4244000   0.57485758   -5.4607903    1605.4853  0.031524608  0.030342746           10 
 4245000   0.56983783   -5.4482609     1610.254  0.031610796  0.030334721           16 
 4246000   0.55513141   -5.4288197    1607.3095  0.031545563  0.030326717           13 
 4247000   0.57569906   -5.4699049    1608.7398  0.031566199   0.03031871           22 
 4248000    0.5632299   -5.4471287    1607.0468  0.031525558  0.030310703           27 
 4249000    0.5651683   -5.4453367    1607.3921   0.03152491  0.030302692           43 
 4250000   0.57118417   -5.4561116     1607.813  0.031525745   0.03029467           12 
 4251000   0.57917981    -5.444621    1609.2691  0.031546873   0.03028667           19 
 4252000   0.57874301   -5.4506708    1607.0524   0.03149601  0.030278693           27 
 4253000   0.56292411   -5.4413274    1609.6861  0.031540209  0.030270711           11 
 4254000   0.56729132   -5.4518913    1608.6475  0.031512448  0.030262728           16 
 4255000   0.56453258   -5.4432182    1609.7682  0.031526992  0.030254703            9 
 4256000   0.56739551    -5.430836    1612.6069  0.031575167  0.030246711           23 
 4257000   0.58372866   -5.4625401      1607.39  0.031465626  0.030238721            9 
 4258000   0.55966543   -5.4649889    1608.3099  0.031476239  0.030230743           14 
 4259000   0.56110227   -5.4618378    1610.3601  0.031508963  0.030222758           10 
 4260000   0.56291319   -5.4428163     1606.985  0.031435544  0.030214777           16 
 4261000   0.56250172   -5.4686918    1610.9611  0.031505927  0.030206793           23 
 4262000   0.56656171   -5.4731206    1604.5062  0.031372325  0.030198792           25 
 4263000   0.57298067    -5.444732    1604.6123   0.03136704  0.030190817           12 
 4264000   0.56268246   -5.4548509    1609.3149  0.031451589  0.030182851           11 
 4265000   0.58034745   -5.4550206    1611.5042  0.031486992  0.030174913           12 
 4266000   0.57222902   -5.4510666    1606.7256  0.031386263  0.030166957           18 
 4267000    0.5704166    -5.443136    1606.2409  0.031369443  0.030158995           18 
 4268000   0.56447882   -5.4476451     1608.672   0.03140956  0.030151034           36 
 4269000   0.56130092   -5.4608694    1607.8225  0.031385619  0.030143088           26 
 4270000   0.57386624   -5.4327122    1609.8988   0.03141879  0.030135151           23 
 4271000   0.55771215   -5.4551252    1607.0894  0.031356617  0.030127208           29 
 4272000   0.58068291   -5.4534536    1609.9682  0.031405434  0.030119251           10 
 4273000    0.5655129   -5.4543616    1609.5983   0.03139087  0.030111338           11 
 4274000   0.56257849   -5.4473709    1606.8194  0.031329344  0.030103423           18 
 4275000   0.56266127   -5.4470947    1611.3137  0.031409624  0.030095493            6 
 4276000   0.56353118   -5.4501961    1605.3529   0.03128611  0.030087554           11 
 4277000   0.58137803   -5.4554398    1611.2102  0.031392919  0.030079639           20 
 4278000   0.57232137    -5.439039    1608.3247  0.031329373  0.030071715           20 
 4279000   0.57752753   -5.4504402    1607.7583  0.031311022  0.030063798            5 
 4280000   0.56815985   -5.4585225    1611.8429  0.031383235  0.030055861           23 
 4281000   0.56091321   -5.4672321    1610.1124  0.031342218  0.030047941           19 
 4282000   0.56112819   -5.4703056    1607.3743  0.031281611  0.030040014           10 
 4283000   0.56383705   -5.4764779    1604.6785  0.031221856  0.030032069           28 
 4284000    0.5526621   -5.4788364    1605.7887  0.031236164  0.030024085           16 
 4285000   0.56937698   -5.4665965    1604.4057  0.031201978  0.030016061            8 
 4286000   0.56466981   -5.4704299    1606.0014  0.031225724  0.030008068           11 
 4287000   0.56225624    -5.502794    1601.7425  0.031135653  0.030000078           12 
 4288000   0.56068381   -5.4692465     1607.678  0.031243743   0.02999211           10 
 4289000   0.55516943   -5.4776386    1608.2811  0.031248176  0.029984147           11 
 4290000   0.56593047   -5.4787309    1606.3783   0.03120393  0.029976167           30 
 4291000   0.55942707   -5.4720108    1604.3046  0.031156386  0.029968217            9 
 4292000   0.56866401   -5.4819976    1608.7701  0.031235828  0.029960263           17 
 4293000   0.55778998   -5.4743006     1604.181  0.031139472  0.029952326           13 
 4294000   0.56326614   -5.4628752    1607.2662  0.031192093  0.029944371           24 
 4295000   0.56784551   -5.4764075    1609.9832  0.031237547  0.029936403           18 
 4296000   0.56626116   -5.4834376    1603.5067  0.031104646  0.029928445           17 
 4297000   0.56386531   -5.4860738    1605.4346  0.031134795  0.029920486            9 
 4298000    0.5656985   -5.4709179     1608.589  0.031188712  0.029912537           32 
 4299000   0.56754105   -5.4581277    1606.7133  0.031145098   0.02990459           24 
 4300000   0.57337041   -5.4829026    1607.6501  0.031156011  0.029896642           33 
 4301000   0.55414832   -5.4579825    1605.7042  0.031111063  0.029888706           29 
 4302000   0.56177746   -5.4733128    1610.8539  0.031203586   0.02988079           10 
 4303000   0.56348375   -5.4535974    1606.8834   0.03111944  0.029872861           24 
 4304000   0.55380148   -5.4737032    1606.7402  0.031109437  0.029864945           29 
 4305000   0.54961113   -5.4391184    1612.4648  0.031213023  0.029857055           33 
 4306000   0.56580659   -5.4685755    1609.8555  0.031155278  0.029849174           26 
 4307000   0.55965941   -5.4702316    1614.8683  0.031245034  0.029841304           14 
 4308000   0.55357947   -5.4788032    1610.5941  0.031155102  0.029833431            6 
 4309000   0.56743561   -5.4765321    1607.2618  0.031083425  0.029825536           24 
 4310000   0.56979268   -5.4772809    1611.0575  0.031149604  0.029817655           16 
 4311000   0.54960226    -5.475429    1611.0588  0.031142404  0.029809767           14 
 4312000   0.58179357   -5.4874939    1604.0205   0.03099916  0.029801892           22 
 4313000   0.56415533   -5.4890296    1609.2843  0.031093676   0.02979398           17 
 4314000   0.55576559   -5.4981614    1607.5245  0.031052475  0.029786075           31 
 4315000   0.56151336   -5.4888715    1607.1578  0.031038196  0.029778184           27 
 4316000   0.56707578   -5.4798649    1608.1682  0.031050513  0.029770273           16 
 4317000   0.54498585   -5.4905428    1610.6809  0.031091824  0.029762361           13 
 4318000   0.56584544   -5.4818573    1606.8809  0.031011288  0.029754456           23 
 4319000   0.55417219   -5.4934541    1609.4476  0.031053632  0.029746554           10 
 4320000   0.56150301   -5.4890702    1609.6259  0.031049882  0.029738643           13 
 4321000   0.55663549   -5.4877606    1608.7489  0.031025783  0.029730754           19 
 4322000   0.56173753   -5.4457891    1609.3408  0.031030016  0.029722893           22 
 4323000   0.56690643    -5.473303    1609.6051  0.031027933  0.029715042           10 
 4324000   0.56641547   -5.4799545    1607.6456  0.030982993   0.02970718           14 
 4325000   0.55280839   -5.4794063    1608.4161  0.030990675  0.029699313           13 
 4326000   0.57300174   -5.4851707    1608.7255  0.030989473   0.02969141           28 
 4327000    0.5614048   -5.4812595    1609.9462   0.03100582  0.029683518            8 
 4328000   0.56253867    -5.479958    1608.9851  0.030980151  0.029675685           12 
 4329000   0.56190627   -5.4827085    1610.6807  0.031005635  0.029667836           15 
 4330000   0.55400684     -5.47397    1614.7607  0.031076995  0.029660012           11 
 4331000   0.54421338   -5.4730703    1606.3276  0.030907558  0.029652178           12 
 4332000   0.56191579   -5.4694102    1610.3235  0.030977291   0.02964433           49 
 4333000   0.56743094   -5.4747709    1607.2054  0.030910173  0.029636495           20 
 4334000   0.55081801    -5.480309    1607.6279  0.030911166  0.029628681           20 
 4335000   0.55862671   -5.4791996    1610.9567  0.030968026  0.029620847           15 
 4336000   0.56010609   -5.4755652    1611.3951   0.03096931  0.029613035           20 
 4337000   0.54744275   -5.4925286    1610.5043  0.030945052  0.029605245           26 
 4338000   0.55229484   -5.4844507    1609.8892  0.030926103  0.029597417           22 
 4339000   0.55467284   -5.4958956    1611.0774  0.030941796    0.0295896           10 
 4340000   0.56683051   -5.4852211    1610.7705  0.030928773  0.029581796           16 
 4341000   0.54711017   -5.4638636    1612.5233  0.030955297  0.029574004            9 
 4342000   0.56809779   -5.4721821    1607.5885  0.030853456  0.029566242           25 
 4343000   0.55265595   -5.4850644    1608.0646  0.030855488  0.029558449           25 
 4344000   0.56973145   -5.4864619    1612.2782  0.030929216  0.029550663           14 
 4345000   0.55281483   -5.4800133    1610.7522  0.030892831   0.02954289           35 
 4346000   0.56180512    -5.478822    1610.3873  0.030878726  0.029535148           27 
 4347000   0.55641958    -5.457563    1612.2807  0.030907919  0.029527389           18 
 4348000     0.552879   -5.4631447    1614.1067  0.030935807  0.029519636           28 
 4349000   0.54999414   -5.4711723    1612.1946  0.030892056  0.029511867           18 
 4350000   0.56114505   -5.4736688    1613.5955  0.030911791  0.029504087           33 
 4351000   0.57444059   -5.5047938    1610.0448  0.030836682  0.029496318           85 
 4352000   0.55363135   -5.5104348    1612.0446  0.030867888  0.029488552           13 
 4353000   0.56228993   -5.4887425    1610.5155  0.030831524  0.029480776            7 
 4354000   0.56248844   -5.4818156    1612.8592  0.030869301  0.029472994           45 
 4355000   0.55659994   -5.5225584    1610.3634  0.030814455  0.029465207           41 
 4356000   0.56291325   -5.4868154    1613.1197   0.03086011  0.029457426           31 
 4357000   0.57151409   -5.4927316     1609.239  0.030778804   0.02944967           29 
 4358000   0.54840741   -5.4822878    1608.6074  0.030759664  0.029441911           36 
 4359000   0.56135801   -5.4838341    1611.4401  0.030806763  0.029434159           35 
 4360000   0.55994325   -5.5041073    1610.1074  0.030774224  0.029426395           16 
 4361000   0.54641885   -5.4662339    1614.4667  0.030850469  0.029418679           15 
 4362000   0.54300941   -5.4985815    1611.1981  0.030780952  0.029410932           42 
 4363000   0.54286936   -5.5008313    1608.1649  0.030715963  0.029403177           23 
 4364000   0.56065836   -5.4892005    1610.4871  0.030753268  0.029395409           19 
 4365000   0.55587393   -5.5131239    1610.7174  0.030750618  0.029387631           88 
 4366000    0.5535214    -5.507814    1608.0449  0.030692566  0.029379849           15 
 4367000   0.55498015   -5.5223317    1610.9307  0.030740606  0.029372063           27 
 4368000   0.55287422   -5.5071114    1612.0661   0.03075523  0.029364298           23 
 4369000   0.55884235   -5.4989599    1611.8424  0.030743924  0.029356565           15 
 4370000   0.55632117   -5.4959867    1614.5068  0.030787697  0.029348825           14 
 4371000   0.54671843   -5.5009235    1613.8939  0.030768968  0.029341099           11 
 4372000   0.55011199   -5.4992179    1612.6796  0.030738784  0.029333385           37 
 4373000   0.54623009   -5.5019083    1612.9269  0.030736467  0.029325647           31 
 4374000   0.56184835   -5.5058982    1614.0636  0.030751098  0.029317915           17 
 4375000   0.54059549   -5.4837978    1608.7902  0.030643622   0.02931018           18 
 4376000    0.5641996   -5.4896046     1612.446  0.030706238  0.029302429           12 
 4377000   0.55033809   -5.5077593    1608.7402   0.03062867  0.029294694           14 
 4378000   0.55609153   -5.5046883    1612.2958  0.030689351  0.029286952           31 
 4379000   0.55368189   -5.5038693    1610.6934   0.03065185  0.029279215           22 
 4380000   0.55553511   -5.5103792    1610.8392  0.030647626   0.02927145           19 
 4381000   0.55284825   -5.4937508    1606.3788  0.030555786  0.029263676           25 
 4382000   0.54442677   -5.5304564    1608.6901  0.030592767  0.029255885           25 
 4383000   0.54721707   -5.5020182    1610.6913  0.030623837  0.029248135           32 
 4384000   0.55062977   -5.4926826    1612.9307  0.030659419  0.029240411           30 
 4385000   0.53192457    -5.504184    1604.8029  0.030497964  0.029232688           47 
 4386000   0.55345682   -5.4918222    1610.1131  0.030591904  0.029224962           44 
 4387000   0.55807683   -5.5138188    1612.4938  0.030630154  0.029217245           34 
 4388000   0.54649357   -5.4996977    1611.1604  0.030597851  0.029209505           35 
 4389000   0.54399105   -5.5111587    1607.9438  0.030529806  0.029201742           56 
 4390000   0.54058758   -5.5128337    1610.3004  0.030567585  0.029194007           28 
 4391000   0.55780588   -5.4966274    1609.4117  0.030543759  0.029186263           20 
 4392000   0.55011365   -5.5216393    1612.6037  0.030597369  0.029178546           23 
 4393000   0.55345226   -5.4935282    1612.5334   0.03058907  0.029170821           21 
 4394000   0.54587784   -5.5022072    1607.3967  0.030484689  0.029163087           34 
 4395000   0.54785923   -5.5211207    1612.7261  0.030578804  0.029155369            9 
 4396000   0.55069102   -5.5267246    1611.3387  0.030545547  0.029147649           13 
 4397000   0.55814475   -5.5214687    1606.9008  0.030454492  0.029139913           17 
 4398000   0.53893706   -5.5220383    1610.2111   0.03051029  0.029132162           23 
 4399000   0.53629848   -5.5195163    1611.8238  0.030533906  0.029124427           36 
 4400000   0.55261474   -5.5102435    1611.5304  0.030521408  0.029116708           50 
 4401000   0.55843484   -5.5151533    1608.8748  0.030464191  0.029108978           48 
 4402000   0.55131759   -5.4978629    1611.3559  0.030504239  0.029101256           49 
 4403000   0.54654764   -5.5077859    1611.9588  0.030508721   0.02909356           45 
 4404000   0.54372796   -5.5079548    1613.8999  0.030538524  0.029085849           50 
 4405000   0.54731667   -5.5039461    1610.2894  0.030463289  0.029078152           34 
 4406000   0.54831126   -5.5053583    1610.4939  0.030460241  0.029070431           39 
 4407000   0.54906274   -5.5060144      1607.89  0.030404092  0.029062739           20 
 4408000    0.5425464   -5.4909821    1611.7064  0.030469344  0.029055053           21 
 4409000   0.54421346   -5.5194441    1612.9854  0.030486606   0.02904739           18 
 4410000   0.53377105    -5.505282    1613.2303  0.030484322  0.029039721           18 
 4411000   0.54009161   -5.5063894    1610.5899  0.030427527  0.029032048           39 
 4412000   0.53898342   -5.5203865    1609.8067  0.030405839  0.029024363           33 
 4413000   0.54410568   -5.5148858    1610.2172    0.0304067  0.029016688           38 
 4414000   0.53647187   -5.5152522    1611.5029  0.030424085  0.029008998           43 
 4415000   0.55280873   -5.5099922    1608.2775  0.030356314  0.029001343           74 
 4416000   0.54126722   -5.5202974    1609.6153  0.030374685  0.028993683           51 
 4417000   0.54815082   -5.5180771     1610.454  0.030383632  0.028986009           88 
 4418000    0.5492429    -5.516807    1612.7537  0.030420132  0.028978356           43 
 4419000   0.54719203   -5.5098781    1611.8926  0.030397009  0.028970705           47 
 4420000    0.5376137   -5.5024859     1615.614  0.030460294  0.028963086           55 
 4421000   0.53939887   -5.5080181    1611.9761  0.030384832  0.028955431           70 
 4422000   0.54734765   -5.5034378    1614.9447  0.030433904  0.028947781           66 
 4423000   0.52832918   -5.5043236    1611.7622  0.030367063  0.028940142           54 
 4424000   0.55471519   -5.5179617    1612.6203  0.030376362  0.028932479          102 
 4425000   0.55575906   -5.5105151    1608.3866  0.030289767  0.028924822          122 
 4426000   0.55119785   -5.5235327    1609.6658  0.030307007  0.028917164           68 
 4427000   0.54322042   -5.5170884    1613.1188  0.030365161  0.028909534           72 
 4428000   0.54682913   -5.5186865     1609.923  0.030298159  0.028901909           27 
 4429000   0.54452926   -5.5077002    1610.1765  0.030296089  0.028894282           28 
 4430000   0.55745702   -5.5135834     1608.857  0.030264428  0.028886587           37 
 4431000   0.54082885   -5.5071662    1609.9004  0.030277221    0.0288789           38 
 4432000   0.55395717   -5.5187999    1611.9332  0.030308612  0.028871229           53 
 4433000   0.55278757   -5.5011075    1607.8299  0.030224639  0.028863579           37 
 4434000    0.5303132   -5.5182637    1610.0802  0.030260116  0.028855942           17 
 4435000    0.5331815   -5.5231407    1609.9289   0.03025045  0.028848304           12 
 4436000   0.55150233   -5.5099395    1610.8745  0.030261394  0.028840666           31 
 4437000   0.53638447   -5.5225538    1613.8023  0.030309562   0.02883305           13 
 4438000   0.54763858   -5.4829893    1610.5422  0.030241517  0.028825427           11 
 4439000   0.53812513   -5.5267421    1611.7757  0.030257861   0.02881781           10 
 4440000   0.54583391   -5.5015301     1613.911  0.030291123  0.028810221           14 
 4441000   0.55595416   -5.5392525    1613.6268  0.030278969  0.028802619           24 
 4442000   0.54926916     -5.52321    1611.9967  0.030241571   0.02879501           15 
 4443000   0.53901103   -5.5160634    1613.4978  0.030262919  0.028787423           18 
 4444000   0.54892778   -5.5222599    1614.0928  0.030267267  0.028779824           42 
 4445000   0.54886393   -5.5093512    1612.1333  0.030223722  0.028772254           19 
 4446000   0.53581887   -5.5203982     1612.379  0.030221529  0.028764657           51 
 4447000   0.53876433   -5.5202345    1613.7375   0.03024019  0.028757029           18 
 4448000   0.54372194   -5.5174744    1612.5046  0.030210293  0.028749441           19 
 4449000   0.53799039    -5.507522    1614.0121  0.030231739  0.028741836           19 
 4450000   0.54276888   -5.5125613    1608.6553  0.030124631   0.02873421           16 
 4451000   0.53417431   -5.5309186    1612.8041  0.030195538  0.028726581           33 
 4452000   0.52423906   -5.5306479    1611.4184  0.030162818  0.028718957           19 
 4453000   0.54718605   -5.5248224    1612.4182  0.030174756  0.028711361           14 
 4454000   0.53422518    -5.539039    1608.9526   0.03010314  0.028703746           23 
 4455000   0.53441123   -5.5391628    1611.6517  0.030146871  0.028696123           22 
 4456000   0.53366218   -5.5333322    1608.5879  0.030082809  0.028688497           15 
 4457000   0.54743474   -5.5396111    1610.7321  0.030116148  0.028680868           21 
 4458000   0.54686693   -5.5393018    1610.3847    0.0301029  0.028673237           19 
 4459000   0.53785807   -5.5150341     1609.316  0.030076175  0.028665614           15 
 4460000   0.54015272   -5.5405795    1610.3119   0.03008804  0.028657979           16 
 4461000   0.54319469   -5.5345126    1611.3451  0.030100596  0.028650346           14 
 4462000   0.53333116    -5.541725    1611.1874  0.030090905   0.02864272           17 
 4463000   0.54059096   -5.5240897    1613.4658  0.030126705  0.028635118           10 
 4464000    0.5445697    -5.530588    1610.4512  0.030063681  0.028627494           18 
 4465000   0.53193597    -5.532983    1606.8163  0.029989106  0.028619886           20 
 4466000   0.54375412   -5.5306787    1611.2903  0.030065874  0.028612266           15 
 4467000   0.53605844   -5.5318962    1611.6564  0.030065972  0.028604638           19 
 4468000   0.54360674   -5.5421371    1609.6069  0.030021018  0.028597031           42 
 4469000   0.55080737   -5.5377661    1611.2347  0.030044654  0.028589412           22 
 4470000   0.53938402   -5.5363789    1605.9211  0.029938873  0.028581802           23 
 4471000   0.54475198   -5.5169077    1610.1915   0.03001177  0.028574197           53 
 4472000   0.53170234   -5.5218487    1608.9286  0.029981525  0.028566595           31 
 4473000   0.53353916    -5.541414    1607.2299  0.029943175  0.028558977           54 
 4474000   0.53787355   -5.5461932    1611.1663  0.030009802  0.028551343           22 
 4475000   0.53791774   -5.5244557     1610.147  0.029984115  0.028543727           37 
 4476000   0.54065396   -5.5255833    1608.7548  0.029951496   0.02853611           68 
 4477000     0.530873   -5.5516903    1607.0339  0.029912774  0.028528462           32 
 4478000   0.54256176   -5.5238498    1609.0174  0.029943006  0.028520812           22 
 4479000   0.53561493   -5.5449119    1609.6496  0.029948084   0.02851318           20 
 4480000   0.52719084   -5.5336436     1611.584  0.029977381   0.02850557           34 
 4481000   0.53569421   -5.5329599    1607.4768  0.029894309  0.028497965           77 
 4482000   0.53195695    -5.517908    1611.1733  0.029956368  0.028490363           18 
 4483000   0.52824845   -5.5179633    1610.4331  0.029935927  0.028482759           42 
 4484000   0.53355752   -5.5342534    1612.5803  0.029969155   0.02847514           34 
 4485000   0.54392991   -5.5442316     1606.324  0.029846229  0.028467507           21 
 4486000   0.53385529   -5.5397193    1611.3748  0.029933399  0.028459888           23 
 4487000   0.53310601   -5.5408162    1612.8019  0.029953234  0.028452257           57 
 4488000    0.5400949   -5.5246485    1612.4903  0.029940773   0.02844469           37 
 4489000   0.52333274   -5.5304061    1609.3633  0.029876055   0.02843713           29 
 4490000   0.53674897   -5.5378066    1611.4119  0.029907421   0.02842956           29 
 4491000   0.54032511   -5.5396216    1609.6775  0.029868579  0.028421977           18 
 4492000   0.52501243   -5.5219752    1611.8012  0.029901328  0.028414432           20 
 4493000   0.54152585   -5.5543361    1612.9316   0.02991564  0.028406867           23 
 4494000   0.53393073   -5.5202217    1612.0968  0.029893502   0.02839931           15 
 4495000   0.54116534   -5.5367627    1609.5006   0.02983872  0.028391773           13 
 4496000   0.53673135   -5.5238259    1612.8096  0.029893417  0.028384228           20 
 4497000   0.52420741   -5.5304365     1610.244  0.029839227  0.028376651           23 
 4498000   0.52474424   -5.5316889    1609.9444  0.029827042  0.028369083           26 
 4499000   0.53155092   -5.5387582    1613.6791  0.029889589  0.028361499           11 
 4500000   0.53846982   -5.5379135    1612.8041  0.029866743  0.028353945            6 
 4501000   0.53213969   -5.5220481    1614.7672  0.029896452  0.028346403           10 
 4502000   0.52964978   -5.5127563    1615.8581  0.029910006  0.028338849           14 
 4503000   0.54461212   -5.5273566    1608.6097  0.029769222  0.028331308           58 
 4504000    0.5211619   -5.5254922    1610.4459  0.029796587  0.028323769           22 
 4505000    0.5264777   -5.5369335    1611.7025  0.029813218  0.028316251           15 
 4506000   0.52698399    -5.536853    1614.4919  0.029858187  0.028308706           22 
 4507000   0.53393324    -5.532485    1612.7658  0.029819647  0.028301167           14 
 4508000   0.51981842   -5.5426743    1614.8105   0.02985083  0.028293631           23 
 4509000    0.5268786   -5.5413012    1609.6371  0.029748598  0.028286078           28 
 4510000   0.53334896   -5.5469999    1607.4402  0.029701407  0.028278496           21 
 4511000   0.53486055   -5.5450921    1608.3864  0.029712304  0.028270901           25 
 4512000   0.53852459   -5.5738071    1603.8162  0.029621311  0.028263287           17 
 4513000   0.51454898   -5.5501694    1607.9339  0.029690781   0.02825567           24 
 4514000    0.5228544   -5.5541509    1605.6111  0.029641322  0.028248065           17 
 4515000   0.53225886    -5.550368    1610.3268  0.029721794   0.02824044           43 
 4516000   0.53779745   -5.5603555     1607.222   0.02965792  0.028232844           20 
 4517000   0.52817965   -5.5624685    1606.3019   0.02963438  0.028225244           19 
 4518000   0.52337968   -5.5473388    1607.9216  0.029657695  0.028217634           35 
 4519000   0.53232151   -5.5517822    1608.1303  0.029654981  0.028210031           24 
 4520000   0.52818761   -5.5483331    1612.5126  0.029729214  0.028202442           14 
 4521000   0.52577874   -5.5636639    1607.1359  0.029623533   0.02819484           29 
 4522000   0.52962198   -5.5562528    1608.2464  0.029637447  0.028187244           37 
 4523000   0.52323881   -5.5586608       1607.9  0.029624511  0.028179665           20 
 4524000   0.54119029   -5.5384179    1608.8623   0.02963569  0.028172116           29 
 4525000   0.53406523   -5.5516867    1612.1033  0.029688826  0.028164588           49 
 4526000    0.5277689   -5.5364909     1613.351  0.029705241  0.028157056           57 
 4527000   0.52951512   -5.5504266    1608.8593  0.029615995  0.028149523           30 
 4528000   0.52733872   -5.5374282    1608.8782  0.029609802  0.028141991           23 
 4529000   0.53656118   -5.5387227    1606.5241  0.029559949  0.028134486           32 
 4530000   0.52601774   -5.5573059    1611.1868  0.029639198  0.028126966           22 
 4531000   0.52250478   -5.5407958    1608.1321  0.029576475  0.028119423           29 
 4532000   0.52523894   -5.5538972    1606.6062  0.029541891  0.028111882           13 
 4533000   0.52865426   -5.5680075    1609.3657  0.029586104   0.02810434           29 
 4534000   0.52332054   -5.5553129    1608.9506  0.029571949  0.028096785           13 
 4535000   0.52071485   -5.5496675    1611.8129  0.029618025  0.028089232           23 
 4536000   0.52333426   -5.5435799    1607.8726  0.029539106  0.028081679           26 
 4537000   0.52662092     -5.54887    1607.9387  0.029533808  0.028074142           19 
 4538000   0.52574231    -5.549864    1609.3549  0.029553307  0.028066614           27 
 4539000   0.51774666   -5.5592883    1611.4105  0.029584536  0.028059088           12 
 4540000   0.53683036   -5.5498227    1608.7792  0.029529721  0.028051562           17 
 4541000   0.52849325   -5.5311288      1610.82  0.029560669   0.02804405           39 
 4542000   0.51632215   -5.5468178    1608.2159  0.029506383  0.028036543           18 
 4543000   0.52621267    -5.559193    1608.8329  0.029511207  0.028029015           21 
 4544000   0.53635841   -5.5476172    1611.9291  0.029561493  0.028021484           14 
 4545000   0.52414865   -5.5653361    1605.1655  0.029430978  0.028013945           22 
 4546000   0.53087739   -5.5767973    1607.6063  0.029469246  0.028006384           48 
 4547000   0.52978166   -5.5704413    1606.3175  0.029439144  0.027998806           23 
 4548000    0.5254993   -5.5598942     1607.754  0.029458994  0.027991236           13 
 4549000   0.52808224   -5.5928005    1606.7455  0.029434042  0.027983663           20 
 4550000   0.51552907   -5.5661207     1607.232  0.029436483  0.027976095           22 
 4551000   0.52418422   -5.5784923    1604.8639  0.029386653  0.027968518           36 
 4552000   0.52099914   -5.5756766    1604.9012   0.02938088   0.02796094           68 
 4553000   0.53907865   -5.5695827    1607.4965  0.029421929  0.027953356           20 
 4554000   0.52258173   -5.5628371    1609.2811  0.029448125  0.027945803           15 
 4555000   0.51411214   -5.5705419    1604.2356  0.029349352  0.027938245           20 
 4556000   0.52220771   -5.5842507    1608.1854  0.029415155  0.027930689           17 
 4557000    0.5135129   -5.5682716    1606.8468  0.029384222  0.027923131           24 
 4558000   0.52496918   -5.5702922    1604.3171  0.029331524  0.027915579           18 
 4559000   0.53103127    -5.570681    1607.7982  0.029388723  0.027907996           21 
 4560000   0.53084289   -5.5586729    1608.5929  0.029396799  0.027900449           23 
 4561000   0.52844233   -5.5737578    1606.0573  0.029344028  0.027892906           16 
 4562000   0.52144284   -5.5600351    1602.0756  0.029264862   0.02788536           13 
 4563000   0.52431894   -5.6026946     1605.176   0.02931507  0.027877809           21 
 4564000   0.52059997   -5.5474976    1610.3765  0.029403602   0.02787028           50 
 4565000   0.52642032   -5.5592422    1605.9122  0.029315667  0.027862774           29 
 4566000   0.51807045   -5.5427116     1610.998  0.029402067  0.027855261           20 
 4567000   0.52233259   -5.5680276    1608.1135  0.029342995   0.02784777           24 
 4568000   0.51225996   -5.5730304    1608.2726  0.029339473  0.027840257           42 
 4569000   0.52769092   -5.5770898    1607.9668  0.029327476  0.027832733           22 
 4570000   0.51579538   -5.5751568    1605.0997  0.029268777  0.027825237           61 
 4571000   0.51432667   -5.5713716    1608.5725  0.029325685  0.027817722           40 
 4572000   0.51620619   -5.5542864    1606.7226  0.029285554  0.027810198           29 
 4573000   0.52548248   -5.5797424    1605.2511  0.029252334   0.02780266           39 
 4574000   0.52363075   -5.5893733    1604.3457  0.029229444  0.027795148           63 
 4575000   0.52141439    -5.570556    1607.5872  0.029282098  0.027787625           41 
 4576000   0.52696584   -5.5723902    1608.9523   0.02930056  0.027780131           28 
 4577000   0.51901476   -5.5728994    1605.0887  0.029223813  0.027772623           45 
 4578000   0.51252453   -5.5828983     1607.953  0.029269568  0.027765096           49 
 4579000   0.51145949   -5.5681982     1608.415  0.029271583  0.027757582           66 
 4580000   0.51063978   -5.5686823    1609.2412  0.029280225  0.027750067           53 
 4581000   0.51273772   -5.5791745    1609.3481  0.029275779   0.02774257           36 
 4582000   0.51599023   -5.5521345    1608.7481  0.029258477  0.027735071           43 
 4583000   0.51967771    -5.567547    1606.9821  0.029219981  0.027727567           49 
 4584000   0.51723978   -5.5646496     1605.883  0.029193626  0.027720081           58 
 4585000   0.51818081   -5.5623628    1604.6286   0.02916446  0.027712568           48 
 4586000   0.51476181   -5.5697632    1605.6924  0.029177431  0.027705042           43 
 4587000   0.52119221   -5.5835793    1607.8928  0.029211045  0.027697525           43 
 4588000   0.51629696   -5.5981183    1608.0328  0.029207221  0.027690012           52 
 4589000   0.51088224   -5.5763705    1607.6772    0.0291944  0.027682489           32 
 4590000    0.5190103   -5.5761798    1608.2191  0.029197877  0.027674985           19 
 4591000   0.50906626   -5.5800179    1607.2088  0.029173179   0.02766748           25 
 4592000   0.51770792    -5.574868    1606.1677  0.029147934  0.027659977           24 
 4593000   0.51727952   -5.5767563    1601.6821  0.029060202  0.027652476           57 
 4594000   0.51893943   -5.5720005    1606.4183   0.02913979   0.02764499           68 
 4595000   0.51675575   -5.5824706    1605.9424  0.029124817  0.027637477           78 
 4596000   0.51679703   -5.5800445    1607.4866  0.029146479  0.027629953           29 
 4597000   0.50634295    -5.593279    1602.8876  0.029056769  0.027622435           52 
 4598000    0.5159978   -5.5779803     1604.911  0.029087121  0.027614918           29 
 4599000   0.52189969   -5.5885656    1604.4475  0.029072397  0.027607398           24 
 4600000   0.50463587   -5.6042929    1605.6524  0.029087907  0.027599881           21 
 4601000   0.51266395   -5.5890155    1604.1094  0.029053636  0.027592381           33 
 4602000   0.51962401   -5.5640864    1607.9661  0.029117161  0.027584885            9 
 4603000   0.51506544   -5.5938338    1606.5382  0.029084985  0.027577389           13 
 4604000    0.5103971     -5.57756    1604.0279   0.02903323  0.027569909           32 
 4605000   0.51746561   -5.5899366    1607.6687   0.02909281  0.027562423           13 
 4606000   0.51544425   -5.5865928    1607.9418  0.029091435  0.027554953           31 
 4607000    0.5153651    -5.585497    1605.7709  0.029045852   0.02754749           44 
 4608000   0.52634035      -5.5838    1607.4495  0.029069905  0.027540015           51 
 4609000   0.51413138   -5.5749917    1607.5895  0.029066129  0.027532554           63 
 4610000   0.51458921   -5.5723313    1605.8448  0.029028286  0.027525102           68 
 4611000   0.51755772   -5.5764223    1604.7066   0.02900142  0.027517634           50 
 4612000   0.49577813   -5.5960634    1606.1264  0.029020786  0.027510148           50 
 4613000   0.50825301   -5.6094083    1604.4289  0.028983831  0.027502672           98 
 4614000   0.51815478   -5.5845404    1605.8118  0.029002525   0.02749522           72 
 4615000   0.51082402   -5.5877614    1609.9587  0.029071121   0.02748778           89 
 4616000    0.5163277   -5.5893917     1607.107  0.029013342  0.027480351           65 
 4617000   0.51289592   -5.5779444    1607.4126  0.029012574   0.02747293           60 
 4618000   0.51639627   -5.5863496    1608.7745  0.029030866  0.027465498           54 
 4619000   0.52184703   -5.5715651     1608.816  0.029025331  0.027458075          115 
 4620000   0.51364581   -5.5561635    1605.2895  0.028955438  0.027450668           42 
 4621000   0.50936451   -5.5853445    1607.2206  0.028983996   0.02744328           34 
 4622000   0.52104995   -5.5784381    1608.1207  0.028993954  0.027435862           59 
 4623000   0.51082779   -5.5839716    1608.0443  0.028986305  0.027428439           24 
 4624000   0.51054817   -5.6001837    1608.8115  0.028993863  0.027421003           66 
 4625000   0.49891275   -5.5858583    1606.5381  0.028946632  0.027413582           18 
 4626000   0.51128635   -5.5908433     1604.239   0.02889896   0.02740616           26 
 4627000   0.50898542   -5.5968557    1604.8569  0.028903842  0.027398734           36 
 4628000   0.51288593   -5.5948289    1605.3666  0.028906774  0.027391297          116 
 4629000   0.51628389   -5.5813315    1604.5099  0.028885107  0.027383861           76 
 4630000   0.51816785   -5.6106818    1605.4584   0.02889594  0.027376422          104 
 4631000   0.50570739   -5.5959433     1604.299  0.028868836  0.027368971           87 
 4632000   0.52687988   -5.6007816    1602.5994  0.028832027  0.027361526           42 
 4633000   0.50426649   -5.6103514    1606.2149  0.028890835  0.027354073          135 
 4634000   0.51405435   -5.5958068    1606.3271  0.028886619  0.027346632          118 
 4635000   0.51217685    -5.610266    1603.1323  0.028822946    0.0273392           52 
 4636000   0.50254502   -5.5958057    1604.9365   0.02884916   0.02733177           65 
 4637000   0.51110385   -5.5875445    1604.5713  0.028836377  0.027324334           47 
 4638000   0.50520138   -5.6007829    1603.9994  0.028819884  0.027316919           56 
 4639000     0.505802    -5.588715    1604.6993  0.028826244  0.027309511           59 
 4640000    0.5175304   -5.5762307    1608.4815  0.028887957  0.027302095           34 
 4641000   0.50017751   -5.5812434    1605.9512    0.0288363  0.027294686           37 
 4642000    0.5166985   -5.5904319    1605.8383  0.028828061  0.027287294           91 
 4643000   0.49922918   -5.5837249    1609.4406  0.028886507   0.02727991           52 
 4644000   0.49926357   -5.5854039    1608.6853  0.028866733  0.027272539           29 
 4645000   0.50855048    -5.596957    1605.2261   0.02879846  0.027265143           30 
 4646000   0.52043473   -5.5967705    1605.2292  0.028792316  0.027257727           38 
 4647000   0.50475952   -5.5844381    1603.9993  0.028764064  0.027250346           22 
 4648000   0.50314081   -5.5854192    1605.6923   0.02878823  0.027242969           27 
 4649000    0.5234808   -5.5949371    1601.3451  0.028704113  0.027235576           37 
 4650000   0.50996708    -5.591344    1606.7515   0.02879483  0.027228166           40 
 4651000   0.50717279   -5.5952136    1608.1699  0.028814052  0.027220755           28 
 4652000   0.49945713   -5.6048695    1603.3535  0.028721581  0.027213346           33 
 4653000   0.50905497   -5.6061203    1605.2227  0.028748885  0.027205937           47 
 4654000   0.49818292   -5.6183635    1607.2638  0.028779254  0.027198531           31 
 4655000    0.5009175   -5.6049344    1605.2968  0.028737859  0.027191111           43 
 4656000   0.50088733   -5.6105802    1604.9722  0.028725877  0.027183687           23 
 4657000   0.50168356   -5.6090635    1605.7458  0.028733551   0.02717627           46 
 4658000    0.5039466   -5.5994058    1604.1585  0.028698986  0.027168859           33 
 4659000   0.50494875   -5.6153286    1604.4705  0.028698407  0.027161453           61 
 4660000   0.50105387   -5.6236395    1602.6157  0.028659078  0.027154029           57 
 4661000    0.5153626    -5.604869    1606.3018  0.028718834  0.027146607           18 
 4662000   0.48859745   -5.6119437    1604.1491  0.028674193  0.027139206           25 
 4663000   0.51123998     -5.61084    1602.3584  0.028636042  0.027131805           23 
 4664000   0.51317102   -5.6264753    1603.1136  0.028643397  0.027124401           30 
 4665000   0.50794612   -5.6002858    1607.2357  0.028710891  0.027117002           24 
 4666000    0.5057987   -5.5963564     1604.875  0.028662577  0.027109591           22 
 4667000   0.50456489   -5.6162651     1606.869  0.028692039  0.027102211           35 
 4668000   0.50397928   -5.5879728    1602.6092  0.028609848  0.027094832           17 
 4669000   0.50632285   -5.6166441    1603.6966  0.028623128  0.027087457           26 
 4670000   0.50332801   -5.6006431    1605.9398  0.028657028  0.027080082           10 
 4671000   0.51749137   -5.5932575    1605.3688  0.028640704  0.027072698           24 
 4672000   0.50066101   -5.5881517    1603.4948  0.028601149  0.027065322           19 
 4673000   0.49260306   -5.6302131    1602.2996  0.028573714  0.027057926           66 
 4674000   0.49859052   -5.6091341    1605.9118  0.028632003  0.027050536           23 
 4675000   0.51439049   -5.6112655    1606.9587   0.02864454  0.027043154           29 
 4676000   0.49279554   -5.6124188    1602.3677  0.028556597  0.027035769           29 
 4677000   0.49968496   -5.6406917    1605.6794  0.028609497  0.027028371           18 
 4678000   0.51282831   -5.6127299    1603.4046  0.028562858  0.027020965           17 
 4679000    0.5012831   -5.6171315    1604.4822  0.028575946  0.027013586           17 
 4680000   0.50440085   -5.6272149    1605.5954  0.028589663  0.027006196           29 
 4681000   0.49512161   -5.6160355    1606.0513   0.02859167  0.026998819           14 
 4682000   0.50771547   -5.6278817    1602.7038  0.028525982  0.026991429           15 
 4683000    0.5022599   -5.6185478    1604.0578  0.028543984  0.026984059           29 
 4684000   0.50205716   -5.6180328    1606.4473  0.028580403  0.026976684           25 
 4685000   0.50568834   -5.6333175    1605.3271  0.028554378  0.026969329           48 
 4686000   0.50760502   -5.6224013     1606.294  0.028565479  0.026961964           29 
 4687000    0.5004896   -5.6053727    1602.8625  0.028498374  0.026954622           36 
 4688000   0.50905583   -5.6107134    1604.9124  0.028528734  0.026947277           30 
 4689000   0.50417313      -5.6313    1605.2056  0.028527859  0.026939934           57 
 4690000   0.51071343   -5.6185325    1606.4431  0.028543766  0.026932586           32 
 4691000   0.49983736   -5.6233209     1607.207   0.02855125  0.026925253           69 
 4692000   0.51923037    -5.612792    1606.5711  0.028533872  0.026917924           64 
 4693000   0.49611365   -5.6245472    1603.1762  0.028467508  0.026910581           24 
 4694000    0.4957601   -5.6253852    1607.2769  0.028534243  0.026903259           54 
 4695000   0.50464568   -5.6364924    1602.6418  0.028445896  0.026895925           93 
 4696000   0.51249644   -5.6164657    1606.8283  0.028514131  0.026888572           69 
 4697000   0.49893604   -5.6345301    1603.4324  0.028447811  0.026881235           57 
 4698000   0.50786011   -5.6360529    1601.9807  0.028416006  0.026873878           77 
 4699000   0.50086234   -5.6285094    1606.1598  0.028484072  0.026866546           36 
 4700000   0.50928722   -5.6318084    1603.5236  0.028431269  0.026859207           38 
 4701000   0.50451942    -5.610179    1606.6717  0.028481027  0.026851865           26 
 4702000   0.48715099   -5.6281789    1604.5813  0.028437923  0.026844538           40 
 4703000   0.50854165   -5.6281142    1606.1682  0.028459993  0.026837223           98 
 4704000   0.49631297   -5.6065948     1601.525  0.028371688  0.026829913           65 
 4705000   0.49271726   -5.6267841    1603.8175   0.02840626    0.0268226           39 
 4706000   0.49953132   -5.6300565    1606.2597  0.028443471  0.026815298          122 
 4707000   0.50367604   -5.6240721    1603.0736  0.028381021  0.026807991          113 
 4708000   0.49671523    -5.620081    1603.9028   0.02838967  0.026800702           78 
 4709000   0.50028088   -5.6161086    1606.4342  0.028428438  0.026793419           91 
 4710000   0.48633899   -5.6107286    1607.6549  0.028443999  0.026786153           71 
 4711000   0.50525143   -5.6064704    1606.0657   0.02840985   0.02677891          107 
 4712000   0.50000612   -5.6200869    1608.0868  0.028439565  0.026771648           71 
 4713000   0.49421292   -5.6228715    1606.4137  0.028403949  0.026764396           54 
 4714000   0.50709557   -5.6343279    1606.5496  0.028400326  0.026757129          109 
 4715000    0.4926741   -5.6291413    1603.9015  0.028347498   0.02674984           94 
 4716000   0.48888998   -5.6327667    1606.0615  0.028379656  0.026742586           74 
 4717000   0.50138218   -5.6402756    1606.5521  0.028382307   0.02673533          102 
 4718000   0.49944712    -5.626549     1607.364  0.028390632  0.026728076           73 
 4719000   0.49397482   -5.6175794    1606.0123  0.028360746  0.026720821           96 
 4720000   0.50162177   -5.6344582    1606.6406  0.028365831  0.026713558           74 
 4721000    0.4858921   -5.6373092    1602.4092  0.028285131  0.026706281           71 
 4722000   0.49364702   -5.6403519    1604.7866  0.028321097  0.026699008          136 
 4723000   0.48422279   -5.6132124    1607.6576  0.028365756  0.026691743           83 
 4724000   0.50506991   -5.6307667    1605.2714  0.028317658   0.02668446          160 
 4725000   0.50309701   -5.6382605    1601.0507  0.028237225  0.026677183           39 
 4726000   0.49212987   -5.6389769    1604.0875  0.028284799  0.026669916           82 
 4727000   0.49820699   -5.6316543    1606.6404  0.028323821  0.026662632           68 
 4728000   0.49548155   -5.6367009    1603.1017  0.028255459  0.026655355           61 
 4729000    0.4895901   -5.6234269    1606.5189    0.0283097  0.026648082          112 
 4730000   0.48830664   -5.6132918    1602.7997  0.028238191  0.026640826           78 
 4731000   0.48843505   -5.6439644    1602.2433  0.028222421   0.02663356          154 
 4732000   0.49633853   -5.6345836    1600.7388  0.028189962  0.026626277          118 
 4733000   0.49537242   -5.6495548    1600.3429  0.028177035  0.026618983          244 
 4734000   0.49642139   -5.6446836    1601.9359  0.028199125  0.026611686          170 
 4735000   0.49689238   -5.6314318    1605.9666  0.028264108   0.02660439          208 
 4736000   0.48749668   -5.6245812     1603.069  0.028207155  0.026597107          200 
 4737000   0.49842143   -5.6594971    1601.2358   0.02816895  0.026589832           92 
 4738000   0.49848508   -5.6347265    1606.0056  0.028246898  0.026582553          270 
 4739000   0.49570404   -5.6508155    1606.7829  0.028254605  0.026575286          107 
 4740000   0.49005369   -5.6460997    1602.4996  0.028173341  0.026568013          163 
 4741000    0.4813591   -5.6405013    1609.1354  0.028284037   0.02656074          202 
 4742000   0.48851754   -5.6618493    1601.6838  0.028147121  0.026553444          155 
 4743000   0.49616921   -5.6614908    1601.5313  0.028138507  0.026546156          301 
 4744000   0.48702899    -5.666794    1602.2957  0.028146003  0.026538854          226 
 4745000   0.49922817   -5.6594243    1605.9084  0.028203519  0.026531578          377 
 4746000   0.49060862   -5.6593404    1602.5952  0.028139402  0.026524308          175 
 4747000    0.4960966   -5.6472654    1601.7921  0.028119376  0.026517024          222 
 4748000    0.4864582   -5.6374288    1604.3486  0.028158323  0.026509741          194 
 4749000   0.48885573   -5.6602217     1600.414  0.028083351  0.026502481          187 
 4750000   0.48950648   -5.6458987    1603.1385  0.028125237  0.026495217          221 
 4751000   0.49568509   -5.6320032    1601.9045  0.028097673  0.026487947          278 
 4752000   0.49145701    -5.649482    1601.5387  0.028085346  0.026480674          292 
 4753000   0.49230664   -5.6466046    1601.1919  0.028073355  0.026473419          191 
 4754000   0.49758057   -5.6667099     1601.733  0.028076935  0.026466168          340 
 4755000   0.49234637   -5.6428623    1606.3071  0.028151193  0.026458939          336 
 4756000   0.49053558   -5.6402852    1598.3195  0.028005318  0.026451695          195 
 4757000    0.4916138   -5.6542686    1601.2085   0.02805004  0.026444443          237 
 4758000   0.49763436   -5.6575741    1604.2254  0.028096983  0.026437192          315 
 4759000   0.48760621   -5.6411909    1603.0922  0.028071237  0.026429946          275 
 4760000   0.48232326   -5.6587675    1603.1321  0.028066039  0.026422697          197 
 4761000   0.48369139   -5.6469756    1602.1779  0.028043442  0.026415448          272 
 4762000   0.48944735   -5.6544947    1602.7236  0.028047102  0.026408193          316 
 4763000   0.48458633   -5.6512527    1603.9361  0.028062428  0.026400941          266 
 4764000   0.48740682   -5.6570942    1605.8255  0.028089587  0.026393713          118 
 4765000   0.49428655   -5.6490934    1603.2161  0.028038057  0.026386486          301 
 4766000   0.49164519   -5.6611397    1608.3482  0.028121908   0.02637927          280 
 4767000   0.48994732   -5.6566713    1604.3298  0.028045762  0.026372067          353 
 4768000   0.48400264   -5.6453509    1603.5263  0.028025837  0.026364846          391 
 4769000   0.48713761   -5.6472188    1603.7899  0.028024567  0.026357608          441 
 4770000   0.48183785      -5.6761    1599.6813  0.027946913  0.026350376          310 
 4771000   0.49217068   -5.6591463    1601.9162  0.027980092   0.02634313          373 
 4772000   0.48747702   -5.6585773    1599.6926  0.027935398  0.026335911          308 
 4773000   0.49232946   -5.6612668    1602.3958  0.027976741   0.02632868          408 
 4774000     0.491913   -5.6776766    1603.0277   0.02798191  0.026321445          175 
 4775000   0.49346345   -5.6697681    1604.1285  0.027995262  0.026314191          332 
 4776000   0.48464792   -5.6588872    1602.2262  0.027956208  0.026306948          378 
 4777000   0.49252055    -5.661598    1602.7805  0.027960025  0.026299715          331 
 4778000    0.4844017   -5.6737435    1603.1889  0.027961297   0.02629249          159 
 4779000   0.47921568   -5.6603457    1603.5752  0.027962182  0.026285278          288 
 4780000   0.49687847   -5.6554163    1604.3089  0.027969123  0.026278068          309 
 4781000   0.48750451   -5.6459964    1601.6854  0.027917545  0.026270868          307 
 4782000   0.49438092   -5.6442822    1602.8605  0.027932184  0.026263671          302 
 4783000   0.49161736    -5.669289     1602.819  0.027925623  0.026256464          242 
 4784000   0.48764448   -5.6653751    1602.1233  0.027907666  0.026249239          281 
 4785000   0.49025372   -5.6745246    1601.3868  0.027889008  0.026242026          188 
 4786000   0.48533178   -5.6609203    1605.9512  0.027962655  0.026234817          168 
 4787000   0.47094685   -5.6598863    1599.2139   0.02783953  0.026227605          308 
 4788000   0.47160849   -5.6649317    1600.7998  0.027861316  0.026220393          354 
 4789000   0.49104137   -5.6738606    1597.7218  0.027801939  0.026213181          401 
 4790000   0.47197419   -5.6634958    1601.2965  0.027858324  0.026205981          347 
 4791000   0.48414307   -5.6618878    1601.9816  0.027864426  0.026198783          306 
 4792000   0.49252374   -5.6610992    1599.4546  0.027814667  0.026191578          402 
 4793000   0.48969408    -5.674177    1601.0249  0.027836166  0.026184386          408 
 4794000   0.49182496   -5.6712971    1602.9542  0.027863896  0.026177187          401 
 4795000     0.490137   -5.6701766    1602.6287  0.027852428  0.026169972          486 
 4796000   0.48321713     -5.63671     1600.382  0.027807583  0.026162762          483 
 4797000   0.48064224    -5.665499    1601.7663  0.027825834  0.026155568          506 
 4798000   0.48091056   -5.6642548    1601.8531  0.027821542  0.026148366          553 
 4799000   0.48710063   -5.6596812    1602.3013  0.027823528  0.026141167          403 
 4800000   0.47726433   -5.6773605    1600.3884  0.027784521  0.026133963          393 
 4801000   0.48242248   -5.6723277    1601.7165  0.027801787  0.026126771          426 
 4802000     0.469779   -5.6685132    1599.5146  0.027757784  0.026119591          394 
 4803000   0.47649289   -5.6597657    1599.0809  0.027744481  0.026112394          426 
 4804000   0.48178729    -5.678277    1601.3643  0.027778314    0.0261052          438 
 4805000   0.47138468   -5.6804061    1600.0644   0.02774999  0.026098006          448 
 4806000   0.47340459   -5.6680048    1597.7353  0.027703831  0.026090804          489 
 4807000   0.48427415   -5.6726494    1599.8699  0.027735072  0.026083614          490 
 4808000    0.4849776   -5.6766637    1599.1626  0.027717045  0.026076433          538 
 4809000   0.47113626   -5.6659451    1599.8427  0.027723066  0.026069252          498 
 4810000   0.48198252   -5.6591133    1602.4226  0.027761999   0.02606208          501 
 4811000   0.47967104   -5.6750801    1601.3574  0.027737778  0.026054886          469 
 4812000   0.48853502   -5.6798773    1598.5917  0.027684119  0.026047686          546 
 4813000   0.48379406   -5.6922052    1598.2976  0.027673274    0.0260405          485 
 4814000   0.48369921   -5.6889337     1598.176  0.027665421  0.026033307          477 
 4815000   0.48321485   -5.6786495    1600.1625  0.027694055  0.026026115          469 
 4816000   0.48695481   -5.6757104    1599.7611   0.02768136  0.026018909          493 
 4817000   0.47893811   -5.6673881    1599.2261  0.027666358   0.02601173          464 
 4818000   0.47925812   -5.6799726     1597.595  0.027632403  0.026004546          452 
 4819000   0.48033645   -5.6896587    1598.6883  0.027645575  0.025997378          468 
 4820000   0.49349245   -5.6727834    1599.3981  0.027652111  0.025990196          434 
 4821000   0.46973386   -5.6772746    1600.1289  0.027659008  0.025983001          438 
 4822000   0.47461012   -5.6877862    1598.4902  0.027624952  0.025975813          428 
 4823000   0.47489696   -5.6826925    1597.5732  0.027603379  0.025968636          441 
 4824000   0.48233067   -5.6851761    1596.1476   0.02757303  0.025961445          506 
 4825000   0.48696271   -5.6867863    1600.4197    0.0276411  0.025954266          572 
 4826000   0.47633327    -5.694099    1599.2682   0.02761549  0.025947079          555 
 4827000   0.47738971   -5.6967414    1598.9205  0.027603766  0.025939886          484 
 4828000   0.49069801   -5.6896168    1600.5128  0.027625532  0.025932684          501 
 4829000   0.47670295   -5.6969196    1599.0535  0.027594629  0.025925483          592 
 4830000   0.47224784   -5.7056698    1597.9828  0.027570443  0.025918279          561 
 4831000   0.48060928   -5.6984111     1596.913  0.027546281  0.025911085          613 
 4832000   0.47077854    -5.698284    1598.7747  0.027572687   0.02590388          547 
 4833000   0.47717735   -5.7023164    1596.0041   0.02751921  0.025896679          586 
 4834000   0.48097436   -5.6973438    1597.4823  0.027538999  0.025889483          582 
 4835000   0.48149296   -5.7115607     1597.425  0.027532317  0.025882292          674 
 4836000   0.48422657   -5.6983403    1598.4917  0.027545005   0.02587511          575 
 4837000   0.48290191   -5.6995116    1597.9916  0.027530694   0.02586794          585 
 4838000   0.48169407   -5.7021916    1599.2018  0.027545849  0.025860771          609 
 4839000   0.47560253   -5.7088052    1596.8181  0.027499106  0.025853587          585 
 4840000   0.47498149   -5.7062354    1597.0299  0.027497071  0.025846403          583 
 4841000   0.47799536   -5.6989234     1599.903  0.027540848   0.02583922          611 
 4842000   0.47655455   -5.6981038    1595.1136  0.027452734  0.025832047          621 
 4843000   0.47867288   -5.6999025    1599.7292  0.027526485  0.025824882          568 
 4844000   0.47813235   -5.6882279    1596.0982  0.027458337  0.025817725          584 
 4845000   0.48489928   -5.6936999    1596.7649  0.027464136   0.02581056          634 
 4846000   0.48209609   -5.6973672    1595.4973  0.027436671  0.025803397          615 
 4847000   0.48747174    -5.684248    1597.6208   0.02746752  0.025796242          579 
 4848000   0.46947866   -5.7082649    1596.1584  0.027436715  0.025789093          665 
 4849000   0.47137785   -5.7142127    1598.1154  0.027464689  0.025781938          622 
 4850000   0.47635277   -5.7074641    1595.0729  0.027406751  0.025774792          593 
 4851000    0.4708939   -5.6885836    1604.4304   0.02756185  0.025767645          560 
 4852000   0.47883203   -5.6914543    1599.8371  0.027477279  0.025760526          428 
 4853000   0.46794073   -5.7017223    1597.0051  0.027422988  0.025753387          596 
 4854000   0.48276659   -5.6964185    1594.6552  0.027376995  0.025746241          608 
 4855000    0.4743169   -5.6870534    1598.1998  0.027432197  0.025739101          559 
 4856000   0.47404649   -5.7094656    1599.3131  0.027445653  0.025731953          658 
 4857000   0.47196963   -5.6971179    1597.7982  0.027414011  0.025724823          643 
 4858000   0.48020646   -5.7044329    1601.3142   0.02746868  0.025717703          650 
 4859000   0.47380924   -5.7011168    1597.6377  0.027399975  0.025710584          623 
 4860000   0.47999163   -5.6995606    1600.2099  0.027438442  0.025703459          654 
 4861000   0.47297736   -5.7096259    1600.5184  0.027438085  0.025696351          637 
 4862000   0.47070635   -5.7014516    1600.2124  0.027427197  0.025689244          569 
 4863000   0.48130758   -5.6982933    1598.0313  0.027384182  0.025682151          627 
 4864000   0.46992593   -5.7025925     1600.254  0.027416632  0.025675038          611 
 4865000   0.47013689   -5.7009138    1598.8193  0.027386421  0.025667933          626 
 4866000    0.4734602   -5.7084362    1600.5474  0.027410388  0.025660821          634 
 4867000   0.46317406   -5.7005036    1597.1782  0.027347069  0.025653713          539 
 4868000   0.47456182   -5.7052853    1601.4702  0.027414925   0.02564661          664 
 4869000    0.4753556    -5.686998    1599.1994  0.027370428  0.025639511          695 
 4870000   0.46867832   -5.6836127    1599.6205  0.027372014  0.025632421          714 
 4871000   0.47197969   -5.7008241    1596.6584  0.027315719  0.025625333          648 
 4872000   0.47162431     -5.70464    1598.4413  0.027340609  0.025618241          681 
 4873000   0.46832854   -5.6930152     1599.605  0.027354897   0.02561115          615 
 4874000   0.47683359   -5.6946404    1598.2154  0.027325527  0.025604073          638 
 4875000   0.46337561   -5.7008059    1602.9052  0.027400089  0.025596998          598 
 4876000   0.46724746     -5.69325    1599.6492  0.027338823  0.025589914          654 
 4877000   0.45717582   -5.6972287    1597.0643  0.027289049  0.025582839          642 
 4878000   0.47630973   -5.7187849    1598.0388  0.027300102  0.025575754          654 
 4879000    0.4657136   -5.7086951    1600.0864   0.02732948  0.025568678          668 
 4880000   0.46752214   -5.7157821    1599.3202  0.027310796  0.025561606          617 
 4881000   0.46474983   -5.7050057    1600.1471  0.027319317  0.025554532          609 
 4882000   0.46125908   -5.7082736    1598.0607  0.027278108  0.025547453          526 
 4883000   0.47107081   -5.7063723     1598.256  0.027275854  0.025540374          627 
 4884000   0.46260705   -5.7001867    1603.0705  0.027352417  0.025533296          587 
 4885000   0.47222604   -5.7088503    1595.0735  0.027210397   0.02552622          725 
 4886000   0.46523023   -5.7173518    1595.3453  0.027209465  0.025519133          736 
 4887000    0.4650215   -5.7085413    1598.8764  0.027264109   0.02551205          735 
 4888000     0.472606   -5.6997323    1598.0632  0.027244667  0.025504981          646 
 4889000   0.47322232   -5.7126718    1596.3532  0.027209948    0.0254979          754 
 4890000   0.46092459   -5.7187474    1600.5632  0.027276128   0.02549084          714 
 4891000   0.46977165   -5.6979792    1596.8813  0.027207819  0.025483787          773 
 4892000   0.46625533     -5.69429    1599.9916   0.02725524  0.025476737          658 
 4893000   0.45644139   -5.7150734    1599.9323  0.027248659  0.025469686          631 
 4894000   0.46434706   -5.7165273    1598.5388  0.027219364  0.025462627          581 
 4895000   0.46908711   -5.7142885    1594.8659  0.027151275  0.025455558          637 
 4896000   0.46526073   -5.7002979    1596.9888  0.027181863  0.025448508          581 
 4897000   0.46554542   -5.7183469    1596.4368  0.027166919  0.025441458          631 
 4898000   0.47609162   -5.7113747    1597.8429  0.027185295  0.025434401          603 
 4899000   0.47649827   -5.7280197    1594.6692   0.02712576  0.025427349          617 
 4900000    0.4589433   -5.7202716    1597.9993   0.02717686  0.025420295          656 
 4901000   0.46169505   -5.7122359    1596.0965  0.027138959  0.025413241          672 
 4902000   0.46817757   -5.6989821    1597.9253  0.027164513  0.025406206          620 
 4903000   0.46836177   -5.7104121    1600.4122   0.02720124  0.025399155          600 
 4904000   0.46679457   -5.7127039    1597.9522  0.027153892  0.025392109          551 
 4905000   0.46766013   -5.7133707    1597.2116  0.027135773  0.025385067          597 
 4906000   0.47497309   -5.7212619    1596.5061  0.027118258  0.025378035          597 
 4907000   0.45479708   -5.7244999    1594.5359  0.027079273  0.025370988          659 
 4908000   0.46142228   -5.7240613    1596.4265  0.027105856   0.02536395          647 
 4909000   0.45737078   -5.7015197    1597.3479  0.027115975  0.025356909          654 
 4910000   0.45527787   -5.7174255     1597.637   0.02711536  0.025349873          537 
 4911000    0.4619969    -5.712371    1596.3305   0.02708767  0.025342841          669 
 4912000   0.46993696   -5.7188133    1599.4059   0.02713433  0.025335806          611 
 4913000   0.46850878   -5.7157854    1596.8578  0.027085586  0.025328776          752 
 4914000   0.46893093   -5.7236815    1596.4749   0.02707358  0.025321748          699 
 4915000   0.45950777   -5.7301196    1593.3993  0.027015925  0.025314723          661 
 4916000   0.46111976   -5.7118956    1595.7633  0.027050503  0.025307675          627 
 4917000   0.45973138    -5.714868    1597.3699  0.027072231  0.025300641          662 
 4918000   0.45855037   -5.7285909    1597.6865  0.027072091  0.025293612          688 
 4919000   0.46962043    -5.728918    1595.7282  0.027033412  0.025286576          698 
 4920000    0.4667731   -5.7105911    1597.4642  0.027057321  0.025279551          612 
 4921000   0.46503113   -5.6843408    1598.5465   0.02707015  0.025272538          682 
 4922000   0.46952974   -5.7134262    1594.5214  0.026996502  0.025265519          727 
 4923000   0.47330936   -5.7006148    1594.9453  0.026998194  0.025258488          646 
 4924000   0.45785259   -5.7332191    1595.5979  0.027003755  0.025251457          731 
 4925000   0.46612849   -5.7266502    1594.3374  0.026976945  0.025244429          823 
 4926000   0.45896169   -5.7169904    1593.5376  0.026957937  0.025237393          770 
 4927000   0.45163161    -5.734967     1595.656  0.026988296  0.025230358          754 
 4928000   0.45379849   -5.7232603    1591.8476  0.026918419  0.025223324          778 
 4929000   0.45682484   -5.7138607    1596.4566  0.026990881  0.025216302          731 
 4930000   0.47093447   -5.7396727    1597.3729  0.027000894  0.025209293          630 
 4931000   0.47230134   -5.7335968    1595.8785  0.026970163  0.025202261          603 
 4932000   0.46525699    -5.728879    1596.3786  0.026973145  0.025195247          666 
 4933000   0.46893097   -5.7234881    1596.1858   0.02696442  0.025188228          566 
 4934000   0.45934566   -5.7345646    1595.5645  0.026948461  0.025181223          698 
 4935000   0.46746212   -5.7196109    1595.5195   0.02694224  0.025174212          631 
 4936000    0.4693262   -5.7290218    1597.4565  0.026969484  0.025167203          512 
 4937000   0.45942163   -5.7313015    1592.9179  0.026887412  0.025160194          664 
 4938000   0.45774193    -5.736838    1597.8818  0.026965738  0.025153187          566 
 4939000   0.46256795   -5.7215759    1596.4288  0.026935764  0.025146198          631 
 4940000   0.46751383   -5.7412725    1596.3692  0.026929305  0.025139197          566 
 4941000   0.45566327   -5.7354675    1594.4559  0.026891586  0.025132199          604 
 4942000   0.46607778   -5.7260652    1595.9103   0.02691067  0.025125192          639 
 4943000     0.451886   -5.7500101     1595.273   0.02689448  0.025118197          591 
 4944000   0.45897222   -5.7212994    1594.3047  0.026872719  0.025111198          747 
 4945000   0.46544737   -5.7365755    1595.7105  0.026890975  0.025104185          829 
 4946000   0.46136658   -5.7356563    1595.4367  0.026880925  0.025097175          794 
 4947000   0.46282872   -5.7288215    1594.2042   0.02685473  0.025090171          765 
 4948000   0.45562965   -5.7425453    1594.6037  0.026856031  0.025083157          835 
 4949000   0.44748697   -5.7301126    1595.3757  0.026863604  0.025076157          837 
 4950000   0.45974119   -5.7380423    1593.4832  0.026826317  0.025069161          814 
 4951000   0.46348908   -5.7265001    1593.7704  0.026825733  0.025062171          829 
 4952000   0.46107549   -5.7410468    1594.8963  0.026839262  0.025055169          809 
 4953000   0.45210717   -5.7535942    1594.5465  0.026827958  0.025048173          772 
 4954000   0.46866341   -5.7268367    1592.4195  0.026786763  0.025041177          777 
 4955000   0.45051018   -5.7458384    1592.9146  0.026789684   0.02503418          776 
 4956000   0.46860281   -5.7458946    1593.3069  0.026790874   0.02502719          861 
 4957000   0.46494076   -5.7454316     1594.144  0.026799542  0.025020185          900 
 4958000   0.45466883   -5.7407323    1591.9432  0.026757147  0.025013195          841 
 4959000   0.47033525   -5.7478002     1595.449  0.026810664  0.025006208          620 
 4960000   0.47057781   -5.7176281    1593.7558  0.026776812  0.024999238          657 
 4961000   0.45770728   -5.7423131    1594.4689  0.026783391  0.024992261          686 
 4962000    0.4613834   -5.7364432    1589.4146  0.026693111  0.024985283          747 
 4963000   0.46146935   -5.7385014    1592.4536   0.02673876  0.024978298          791 
 4964000   0.45311197   -5.7364466    1590.2339   0.02669611  0.024971313          779 
 4965000    0.4643433   -5.7428651    1593.5396  0.026746217  0.024964337          753 
 4966000   0.44987238    -5.758054    1594.3779  0.026754899  0.024957356          734 
 4967000   0.46744264    -5.736663     1596.097  0.026778354  0.024950378          725 
 4968000   0.46042373   -5.7509827    1592.5364  0.026713238   0.02494341          759 
 4969000   0.46208126   -5.7295249     1594.109  0.026734236  0.024936436          762 
 4970000   0.45083137   -5.7406183    1591.3551  0.026682681  0.024929464          904 
 4971000    0.4499044   -5.7435436    1591.6361  0.026682024  0.024922485          826 
 4972000   0.45046517   -5.7484874    1590.1021  0.026650947  0.024915508          796 
 4973000   0.46467232   -5.7451229    1592.5589  0.026686756  0.024908533          929 
 4974000   0.45340616   -5.7496752    1595.1585  0.026724945  0.024901578          787 
 4975000   0.45404564   -5.7473884    1593.5348  0.026692375  0.024894604          856 
 4976000   0.44572032   -5.7499105    1593.4216  0.026685114  0.024887646          818 
 4977000   0.45488588    -5.739808    1591.6053  0.026649342   0.02488068          823 
 4978000   0.44696088   -5.7507372    1592.4519   0.02665816  0.024873718          807 
 4979000    0.4494082   -5.7715491    1592.9463  0.026661081  0.024866753          796 
 4980000   0.44593757   -5.7387602    1594.2843  0.026678117  0.024859799          831 
 4981000    0.4466235   -5.7298333    1596.3969  0.026708105  0.024852861          688 
 4982000   0.45122677   -5.7258151    1596.0507  0.026696954  0.024845933          777 
 4983000   0.45870414   -5.7458999     1595.833  0.026687957  0.024838993          636 
 4984000   0.44850682   -5.7422062    1592.3052  0.026623615  0.024832046          784 
 4985000   0.45628231   -5.7384467    1589.8286  0.026576874  0.024825095          852 
 4986000   0.45119571   -5.7409432      1594.44  0.026648617  0.024818158          932 
 4987000   0.46712058    -5.756249    1591.4119  0.026592672  0.024811214          867 
 4988000   0.44846317   -5.7501594    1593.1657  0.026616642   0.02480428          891 
 4989000   0.44936238   -5.7389486    1593.9105  0.026623747  0.024797345          826 
 4990000   0.44896332   -5.7471627    1594.5131  0.026628476  0.024790413          749 
 4991000   0.45128409   -5.7512497    1592.5119  0.026589726  0.024783488          675 
 4992000   0.45641794   -5.7471248    1593.1882  0.026595689  0.024776558          796 
 4993000   0.45719216   -5.7439399    1592.4136  0.026577435  0.024769637          770 
 4994000   0.45078598    -5.749279    1592.4117  0.026572081   0.02476273          880 
 4995000   0.45072121   -5.7456427    1595.8268  0.026623737  0.024755819          953 
 4996000   0.45614368    -5.738052    1592.6272  0.026565038  0.024748891          875 
 4997000   0.45541275   -5.7363713    1593.7771  0.026578899  0.024741983          968 
 4998000   0.45310231   -5.7543204    1593.2415   0.02656465  0.024735066          955 
 4999000   0.45627122   -5.7501163    1593.0913  0.026556833  0.024728152          947 
 5000000   0.45509964   -5.7308221    1592.1241  0.026535402  0.024721239         1028 
 5001000   0.45119359   -5.7483309    1592.8072  0.026541479  0.024714322         1065 
 5002000   0.44668642   -5.7451582    1596.3259  0.026594794  0.024707418         1068 
 5003000   0.46062615   -5.7595086    1592.1946  0.026520665  0.024700511         1046 
 5004000   0.45522345   -5.7556542    1592.9556  0.026528038  0.024693601         1060 
 5005000   0.45665715    -5.739823    1591.5735  0.026499725  0.024686694         1021 
 5006000   0.45195113   -5.7483952    1592.6345  0.026512093  0.024679798          966 
 5007000   0.45453106   -5.7339554    1592.8821   0.02651092  0.024672901          999 
 5008000   0.45499179   -5.7323763    1591.8962  0.026489221  0.024665994         1129 
 5009000   0.44631556   -5.7525652    1591.1337  0.026471247  0.024659095         1061 
 5010000   0.44393397   -5.7551443    1591.8989  0.026478691  0.024652206          934 
 5011000     0.454806   -5.7503476     1590.244  0.026445886   0.02464532         1036 
 5012000   0.44389872   -5.7397664    1593.4006  0.026493094  0.024638424          931 
Loop time of 12675.4 on 48 procs for 5000000 steps with 4000 atoms

Performance: 68163.426 tau/day, 394.464 timesteps/s
99.4% CPU use with 48 MPI tasks x no OpenMP threads

MPI task timing breakdown:
Section |  min time  |  avg time  |  max time  |%varavg| %total
---------------------------------------------------------------
Pair    | 894.05     | 954.56     | 1024.3     | 101.4 |  7.53
Neigh   | 85.195     | 88.854     | 92.929     |  22.0 |  0.70
Comm    | 805.71     | 876.31     | 945.66     | 118.8 |  6.91
Output  | 14.285     | 14.307     | 14.402     |   0.4 |  0.11
Modify  | 10594      | 10625      | 10661      |  13.1 | 83.82
Other   |            | 116.5      |            |       |  0.92

Nlocal:        83.3333 ave          92 max          76 min
Histogram: 2 5 5 10 4 9 6 4 1 2
Nghost:        2328.67 ave        2353 max        2301 min
Histogram: 1 2 1 6 10 13 3 9 1 2
Neighs:        15919.2 ave       17798 max       14228 min
Histogram: 5 2 6 8 3 5 9 5 1 4
FullNghs:      31838.1 ave       35451 max       28771 min
Histogram: 2 3 7 10 4 9 6 4 1 2

Total # of neighbors = 1528228
Ave neighs/atom = 382.05700
Neighbor list builds = 269219
Dangerous builds = 0

#clear
#
#next RN
#
#jump SELF
Total wall time: 3:31:18
