
units lj                  # Use reduced LJ style units
atom_style atomic         # Uncharged point particles
atom_modify map hash      # Needed for indexing of clusters etc
                          # Used to be able to find where atoms are in relation to each other.

lattice fcc 1.0 spacing 1 1 1
Lattice spacing in x,y,z = 1.5874011 1.5874011 1.5874011
region box block 0 10 0 10 0 10 units lattice
create_box 2 box
Created orthogonal box = (0.0000000 0.0000000 0.0000000) to (15.874011 15.874011 15.874011)
  3 by 4 by 4 MPI processor grid
create_atoms 1 box
Created 4000 atoms
  using lattice units in orthogonal box = (0.0000000 0.0000000 0.0000000) to (15.874011 15.874011 15.874011)
  create_atoms CPU = 0.003 seconds
set type 1 type/fraction 2 0.23 78393
Setting atom values ...
  954 settings made for type/fraction
mass 1 1.0
mass 2 1.0
pair_style lj/cut  3.5
pair_modify tail  yes
pair_coeff 1  1  1.0  1.0   # Intearaction between 1 and 1 set with epsilon = 1 and sigma = 1
pair_coeff 1  2  1.5  0.8
pair_coeff 2  2  0.5  0.88

write_data data.0
System init for write_data ...
Neighbor list info ...
  update every 1 steps, delay 10 steps, check yes
  max neighbors/atom: 2000, page size: 100000
  master list distance cutoff = 3.8
  ghost atom cutoff = 3.8
  binsize = 1.9, bins = 9 9 9
  1 neighbor lists, perpetual/occasional/extra = 1 0 0
  (1) pair lj/cut, perpetual
      attributes: half, newton on
      pair build: half/bin/atomonly/newton
      stencil: half/bin/3d
      bin: standard
WARNING: Not all mixed pair coeffs generated from mixing. Use write_data with 'pair ij' option to store all pair coeffs. (../write_data.cpp:312)


#############################
#   M E L T   S Y S T E M   #
#############################

velocity all create 2.4 9580093 mom yes dist gaussian # Assign velocities
                                                    # Temperature 2.4, random number seed, zero linear momentum
                                                                                # Gaussian distribution

timestep 0.002   # simulation timestep
thermo 1000       # output thermodynamic data every 1000 steps bf 100

# Define a fix  in this case with index 1 applied to all
# particles in the simulation. This fix is for simulations
# in the anisotropic NPT ensemble. Note that we use the MTK
# correction.
fix 1 all npt temp 2.4 2.4 0.1 iso 5.68 5.68 0.5 mtk yes tchain 5 pchain 5 # Use NPT ensemble
                                                                         # Set temperature and pressure and damping
                                                                         # Numbers of thermostats in chain and in barostat
run 10000          # run for 10000 steps
Per MPI rank memory allocation (min/avg/max) = 3.642 | 3.644 | 3.648 Mbytes
Step Temp E_pair E_mol TotEng Press Volume 
       0          2.4   -6.8530311            0   -3.2539311   -3.7471165         4000 
    1000    2.3965353    -4.885912            0   -1.2920077    5.5901794    4379.6769 
    2000    2.4517084   -4.8558825            0   -1.1792393    5.8783137    4367.0887 
    3000    2.3947399   -4.8790864            0   -1.2878746    5.5020644    4392.8713 
    4000    2.4013526   -4.8444247            0   -1.2432962    5.6436999    4390.3971 
    5000    2.4556894   -4.9006738            0   -1.2180606    5.5835308    4379.4425 
    6000    2.3509431   -4.9445397            0   -1.4190066    5.5713945    4357.5826 
    7000    2.3821583   -4.8440097            0   -1.2716656    5.6361005    4406.1837 
    8000     2.435349   -4.8711542            0   -1.2190439    5.6039785    4384.4532 
    9000    2.4601388   -4.9123853            0   -1.2230998    5.6251445    4365.7267 
   10000    2.4494042   -4.8945029            0   -1.2213152    5.6341972    4374.3972 
Loop time of 2.35869 on 48 procs for 10000 steps with 4000 atoms

Performance: 732608.763 tau/day, 4239.634 timesteps/s
99.6% CPU use with 48 MPI tasks x no OpenMP threads

MPI task timing breakdown:
Section |  min time  |  avg time  |  max time  |%varavg| %total
---------------------------------------------------------------
Pair    | 0.98714    | 1.0637     | 1.2442     |   4.5 | 45.10
Neigh   | 0.19706    | 0.20813    | 0.24199    |   1.8 |  8.82
Comm    | 0.63939    | 0.83279    | 0.93111    |   6.3 | 35.31
Output  | 0.0002405  | 0.00024731 | 0.00041638 |   0.0 |  0.01
Modify  | 0.19158    | 0.23912    | 0.30411    |   6.0 | 10.14
Other   |            | 0.0147     |            |       |  0.62

Nlocal:        83.3333 ave          91 max          76 min
Histogram: 4 5 4 4 9 4 7 2 3 6
Nghost:        1546.88 ave        1571 max        1515 min
Histogram: 1 0 2 5 6 15 8 7 3 1
Neighs:        8722.12 ave        9957 max        7601 min
Histogram: 2 5 7 7 5 5 7 5 1 4

Total # of neighbors = 418662
Ave neighs/atom = 104.66550
Neighbor list builds = 909
Dangerous builds = 221

# Equilibrate just above the melting temperature to avoid step fn in T

fix 1 all npt temp 1.25 1.25 0.1 iso 5.68 5.68 0.5 mtk yes tchain 5 pchain 5
run 2000
Per MPI rank memory allocation (min/avg/max) = 3.643 | 3.645 | 3.649 Mbytes
Step Temp E_pair E_mol TotEng Press Volume 
   10000    2.4494042   -4.8945029            0   -1.2213152    5.6341972    4374.3972 
   11000    1.2322236   -6.6227858            0   -4.7749124    5.5972553     3563.328 
   12000    1.2439066   -6.6389284            0   -4.7735349     5.362714    3572.5475 
Loop time of 0.509957 on 48 procs for 2000 steps with 4000 atoms

Performance: 677704.031 tau/day, 3921.898 timesteps/s
99.6% CPU use with 48 MPI tasks x no OpenMP threads

MPI task timing breakdown:
Section |  min time  |  avg time  |  max time  |%varavg| %total
---------------------------------------------------------------
Pair    | 0.22738    | 0.251      | 0.2776     |   2.0 | 49.22
Neigh   | 0.03224    | 0.034695   | 0.03769    |   0.6 |  6.80
Comm    | 0.14461    | 0.17119    | 0.20279    |   2.8 | 33.57
Output  | 4.873e-05  | 4.9759e-05 | 6.378e-05  |   0.0 |  0.01
Modify  | 0.041235   | 0.048536   | 0.057906   |   2.0 |  9.52
Other   |            | 0.004489   |            |       |  0.88

Nlocal:        83.3333 ave          91 max          74 min
Histogram: 2 4 4 4 7 4 5 11 4 3
Nghost:        1768.35 ave        1790 max        1738 min
Histogram: 1 2 4 7 2 10 3 6 10 3
Neighs:        10720.0 ave       11974 max        9218 min
Histogram: 2 2 4 5 9 3 10 4 5 4

Total # of neighbors = 514559
Ave neighs/atom = 128.63975
Neighbor list builds = 142
Dangerous builds = 13

#############################
# L I N E A R  Q U E N C H  #
#############################

# Define solid atoms. This closely follows ten Wolde  Ruiz-Montero and Frenkel  Faraday Discuss  1996  104  93-110
# Compute components of the per-atom q6 vector
compute q6 all orientorder/atom degrees 1 6 components 6 nnn NULL cutoff 1.3 # compute the Q6 parameter.
                                                                             # Use all neighbours within 1.3 unit cell.

# get number of connections
compute coord_number all coord/atom orientorder q6 0.5

# An atom is solid if it has 8 or more connections (of a possible 14)
variable is_solid atom c_coord_number>=8
group solid dynamic all var is_solid    # Must be dynamic to update
dynamic group solid defined

# do clustering
compute cluster solid cluster/atom 1.3 # Create a cluster where all atoms within are solid and max 1.3 units from another member

# define chunks one chunk per cluster
compute clus_chunks solid chunk/atom c_cluster nchunk every compress yes  # Says which atoms are in which chunk

# count the size of each chunk
compute size_chunks solid property/chunk clus_chunks count


# Find the maximum entry in the vector of chunk sizes
variable max_n equal max(c_size_chunks)


# Thermo style which includes this variable
# thermo_style custom step temp pe vol v_max_n

thermo ${N}  # Print the thermo information every 100 steps
thermo 1000  

# Reset the npt fix at a lower temperature (below freezing)
fix 1  all npt temp  ${temp} ${temp}  0.1  iso  5.68  5.68  0.5  mtk yes tchain  5  pchain  5
fix 1  all npt temp  0.45 ${temp}  0.1  iso  5.68  5.68  0.5  mtk yes tchain  5  pchain  5
fix 1  all npt temp  0.45 0.45  0.1  iso  5.68  5.68  0.5  mtk yes tchain  5  pchain  5

dump dmp2 all dcd ${N} traj.dcd
dump dmp2 all dcd 1000 traj.dcd


compute msd all msd com yes
variable twopoint equal c_msd[4]/6/(step*dt+1.0e-6)
fix 9 all vector 10 c_msd[4]
variable fit equal slope(f_9)/6/(10*dt)
thermo_style custom step temp pe c_msd[4] v_twopoint v_fit v_max_n

fix 1 all npt temp 1.25 ${temp} 0.1 iso 5.68 5.68 0.5 mtk yes tchain 5 pchain 5
fix 1 all npt temp 1.25 0.45 0.1 iso 5.68 5.68 0.5 mtk yes tchain 5 pchain 5
run 500000 # 5000000  # Run for this many steps
Neighbor list info ...
  update every 1 steps, delay 10 steps, check yes
  max neighbors/atom: 2000, page size: 100000
  master list distance cutoff = 3.8
  ghost atom cutoff = 3.8
  binsize = 1.9, bins = 9 9 9
  4 neighbor lists, perpetual/occasional/extra = 1 3 0
  (1) pair lj/cut, perpetual
      attributes: half, newton on
      pair build: half/bin/atomonly/newton
      stencil: half/bin/3d
      bin: standard
  (2) compute orientorder/atom, occasional
      attributes: full, newton on
      pair build: full/bin/atomonly
      stencil: full/bin/3d
      bin: standard
  (3) compute coord/atom, occasional
      attributes: full, newton on
      pair build: full/bin/atomonly
      stencil: full/bin/3d
      bin: standard
  (4) compute cluster/atom, occasional
      attributes: full, newton on
      pair build: full/bin/atomonly
      stencil: full/bin/3d
      bin: standard
Per MPI rank memory allocation (min/avg/max) = 9.778 | 9.784 | 9.790 Mbytes
Step Temp PotEng c_msd[4] v_twopoint v_fit v_max_n 
   12000    1.2439066   -6.6389284 5.9164568e-34 4.1086504e-36 8.3333333e+20            1 
   13000    1.2475212   -6.6770302   0.56004949 0.0035900607   0.04605322            1 
   14000    1.2594605    -6.630259    1.0940825 0.0065123958  0.045700897            1 
   15000    1.2560839   -6.6980179    1.6534541 0.0091858558  0.045287109            1 
   16000    1.2533457    -6.672197    2.1743656  0.011324821  0.045347126            2 
   17000    1.2342382   -6.6579847    2.6602715  0.013040546  0.044780537            4 
   18000    1.2550283   -6.6649881     3.134768  0.014512814  0.043935359            2 
   19000    1.2517796   -6.6945687    3.6485286  0.016002318  0.043204396            3 
   20000    1.2483683   -6.6885945    4.1088736  0.017120306  0.042623976            1 
   21000    1.2221052   -6.7054197    4.6884557  0.018604983  0.042565086            2 
   22000    1.2071247   -6.6887527    5.2363326  0.019834593  0.042698666            1 
   23000    1.2431174   -6.6813203    5.7265691  0.020748438  0.042731179            1 
   24000    1.2250794   -6.7033053    6.2268504  0.021621008   0.04274246            1 
   25000    1.2444856    -6.725524    6.8092153  0.022697384  0.042811551            2 
   26000    1.2128039   -6.6756552    7.3666289   0.02361099  0.043042199            1 
   27000    1.2084003   -6.7170783    7.7859667  0.024030761  0.043105087            6 
   28000    1.2241607   -6.7200324    8.2321775  0.024500528  0.043010891            2 
   29000    1.2217219   -6.7003782    8.7482268  0.025138582  0.042850106            1 
   30000    1.2086882    -6.739626    9.2328444   0.02564679  0.042763741            3 
   31000    1.2094265   -6.7017422    9.7150834  0.026115815   0.04265182            3 
   32000     1.224409   -6.7451391    10.098853  0.026299097  0.042440585            1 
   33000    1.2434653   -6.7542887    10.481291  0.026467907  0.042135955            1 
   34000    1.2324256    -6.740121    10.864434  0.026628515  0.041846796            1 
   35000    1.2234503   -6.7530025    11.320747  0.026954158  0.041561488            2 
   36000    1.2105097   -6.7264625    11.979517  0.027730363  0.041355933            1 
   37000    1.2140643   -6.7722983    12.473932  0.028094441  0.041227271            1 
   38000    1.2031395   -6.7549086    12.905551  0.028301647  0.041115316            1 
   39000    1.2076912   -6.7346257    13.417088   0.02866899  0.041019969            6 
   40000    1.1760738    -6.780194    13.727127  0.028598181  0.040909545            3 
   41000    1.2210851   -6.7363986    14.235206  0.028933346  0.040776127            2 
   42000    1.2041452    -6.736009     14.80043  0.029365932   0.04065601            2 
   43000    1.2197948   -6.7825511    15.101996  0.029267433  0.040570663            2 
   44000    1.1879508   -6.7482032    15.551684  0.029453947   0.04043345            3 
   45000    1.1868291   -6.7900234    15.891791  0.029429242  0.040289122            4 
   46000    1.1784004   -6.7705606    16.323034  0.029570714  0.040126532            1 
   47000    1.1863363   -6.8085452    16.792098  0.029773223  0.039978199            4 
   48000     1.181034   -6.7391838    17.291745   0.03002039  0.039833045            1 
   49000    1.1795299   -6.8183382    17.626448  0.029976953  0.039717575            3 
   50000    1.2036446   -6.7549699    18.199167  0.030331945    0.0396022            1 
   51000    1.1770105   -6.7826362    18.748295  0.030634468  0.039518403            2 
   52000    1.1775475   -6.7740258     19.10122   0.03061093  0.039441789            3 
   53000    1.1883493   -6.7809126    19.501407  0.030662589  0.039329363            1 
   54000    1.1719086   -6.7987029      19.9512  0.030788889  0.039230474            2 
   55000    1.1672968   -6.8016915    20.385051  0.030886441  0.039141209            2 
   56000    1.2036733   -6.8118643    20.619163  0.030683279  0.039044495            2 
   57000    1.1664623   -6.8136231    21.176645  0.030960008  0.038952966            1 
   58000    1.2029743   -6.8199989    21.716843  0.031202361  0.038863495            1 
   59000    1.1695452   -6.8071526    22.187953  0.031338917  0.038789841            1 
   60000    1.1879097   -6.8219921    22.590712  0.031375989  0.038734104            3 
   61000    1.1681611   -6.8059269    23.065013   0.03150958   0.03867052            3 
   62000    1.1855439   -6.8186054    23.440038  0.031505427  0.038623941            2 
   63000    1.1627644   -6.7959603    23.778579  0.031453147  0.038552488            3 
   64000    1.1612385   -6.8458821    24.069023  0.031339874  0.038466614            4 
   65000     1.171316    -6.815326    24.553919  0.031479383  0.038387954            2 
   66000    1.1647768   -6.8217386    24.893076  0.031430651   0.03830487            3 
   67000    1.1634408   -6.8049823    25.454184  0.031659433  0.038220145            3 
   68000    1.1648058   -6.8263844    25.735982  0.031539194  0.038141807            4 
   69000     1.171961   -6.8017346    26.202957  0.031646083  0.038056228            1 
   70000    1.1605468    -6.836386    26.646122  0.031721574  0.037975774            1 
   71000    1.1426021   -6.8573934    27.170657  0.031890443   0.03790867            2 
   72000     1.178555   -6.8795707    27.539231  0.031874109  0.037854114            2 
   73000    1.1630805    -6.872118    27.896521  0.031845343  0.037788828            1 
   74000    1.1414824   -6.8935682    28.257156  0.031821121  0.037715263            1 
   75000      1.14761   -6.8766508    28.594838  0.031772042  0.037637664            2 
   76000    1.1519392   -6.8645007    28.932347  0.031724065  0.037553343            5 
   77000    1.1393046   -6.8795875    29.285997  0.031694802  0.037455348            2 
   78000    1.1360034   -6.8798501    29.438468  0.031451355  0.037351636            1 
   79000    1.1324042   -6.8751888    29.607439  0.031231475  0.037218289            2 
   80000    1.1303641   -6.8965018    30.018392  0.031269159  0.037088102            3 
   81000    1.1129746   -6.8845859    30.400734  0.031276475  0.036963428            2 
   82000     1.157974   -6.8920302    30.775505  0.031275919  0.036842311            1 
   83000    1.1387483    -6.935142     31.07343  0.031198223  0.036710007            2 
   84000    1.1149424   -6.9132092    31.237795  0.030989876  0.036579062            3 
   85000    1.1476709   -6.8825488    31.894546  0.031269162  0.036446688            2 
   86000    1.1341292   -6.9111666    32.268337  0.031267769  0.036330718            3 
   87000    1.1489573   -6.8814002    32.438697  0.031071548  0.036214637            1 
   88000    1.1190327   -6.9599521    32.654726  0.030923036  0.036088538            3 
   89000    1.1240901   -6.9191167    33.163602  0.031052061  0.035964869            3 
   90000    1.1465685   -6.9123676      33.6146   0.03112463  0.035848587            4 
   91000    1.1117185   -6.9064599    33.782515  0.030936369  0.035735365            3 
   92000    1.1027262   -6.9275263    34.183432  0.030963253  0.035620706            2 
   93000    1.1157211   -6.8981962    34.452844  0.030871724   0.03551019            3 
   94000    1.0997525   -6.9099658    34.828327  0.030876176   0.03539735            3 
   95000    1.1109177   -6.9364698    35.320601  0.030982983  0.035290374            1 
   96000    1.0897794   -6.9296113    35.730925  0.031016428  0.035195642            2 
   97000    1.1177791   -6.9107453    36.051609  0.030972173  0.035107371            1 
   98000    1.0791244   -6.9255983    36.209584  0.030790463  0.035011275            3 
   99000    1.1023398   -6.9675872     36.55403  0.030769386  0.034912669            2 
  100000    1.1185153    -6.939292    37.093951  0.030911626  0.034818927            5 
  101000     1.115036   -7.0023823    37.488078  0.030930757  0.034733501            5 
  102000     1.093421   -6.9573836    37.961516   0.03101431  0.034654299            3 
  103000    1.1073514   -6.9575421    38.066474  0.030798118  0.034572534            5 
  104000    1.1040556   -6.9449377    38.450483  0.030809681  0.034489848            1 
  105000    1.1044994   -6.9453443    38.815185  0.030805702  0.034404812            1 
  106000    1.1322141   -6.9563878    38.992723  0.030654657  0.034320802            1 
  107000    1.0852317   -6.9869289     39.18604  0.030518723  0.034232322            3 
  108000    1.0970492   -6.9960654    39.528483  0.030500373  0.034142395            1 
  109000    1.0982582    -6.981833    39.949279  0.030542262  0.034048912            1 
  110000    1.0717798   -6.9523521    40.320038  0.030545483  0.033955185            1 
  111000    1.0807139   -6.9974126    40.522413  0.030422232  0.033867277            2 
  112000    1.0999571   -6.9903221    40.701151  0.030283594  0.033775134            2 
  113000    1.0765698   -7.0000317    41.026366  0.030255432  0.033679869            2 
  114000    1.1053611   -6.9886032    41.375464  0.030245222   0.03359233            2 
  115000    1.0767702    -6.951724    41.921138  0.030377636   0.03351195            1 
  116000    1.0781493   -7.0042634    42.330931  0.030410151  0.033434377            2 
  117000    1.0763858    -6.977154    42.536856  0.030296906  0.033357082            1 
  118000    1.0828191   -7.0045135    42.657498  0.030125351  0.033274443            1 
  119000      1.09824   -6.9921737    43.127522  0.030201346  0.033189506            2 
  120000    1.0746061   -6.9826157    43.257265  0.030039768   0.03310191            1 
  121000    1.0875419   -6.9985146     43.25321  0.029788712  0.033009954            2 
  122000    1.0757708   -7.0205324    43.624521   0.02979817  0.032916172            2 
  123000    1.0793131   -7.0271664      43.9116  0.029750406  0.032822225            1 
  124000     1.101107   -7.0768028    44.165759   0.02968129  0.032731662            4 
  125000    1.0690086   -7.0294824    44.543649  0.029695766  0.032641889            5 
  126000    1.0536828   -7.0564557    44.876698  0.029680356   0.03255581            1 
  127000    1.0643547   -7.0419723    45.224963  0.029675173  0.032472576            1 
  128000      1.05888   -7.0209691    45.817157  0.029828878  0.032398014            2 
  129000    1.0678213   -7.0635919    46.210937  0.029852026  0.032328539            3 
  130000    1.0731107   -7.0359934    46.683509  0.029925326  0.032260804            3 
  131000    1.0641275    -7.044024    46.862302  0.029810625  0.032196504            2 
  132000    1.0461756   -7.0128205     47.33854  0.029885442  0.032132892            2 
  133000    1.0640321   -7.0438934    47.514067  0.029770719  0.032068657            3 
  134000    1.0753922   -7.0518844    47.498846  0.029539083  0.032003358            1 
  135000    1.0648027   -7.0224344    47.937274   0.02959091  0.031935495            1 
  136000    1.0377185    -7.059481    48.034865  0.029433128  0.031864847            1 
  137000    1.0474026   -7.0248409    48.482651  0.029490663  0.031793625            2 
  138000    1.0575668   -7.0684206    48.595323  0.029345001   0.03171857            3 
  139000    1.0482399   -7.0624192    48.853224  0.029288504  0.031644158            3 
  140000    1.0622825   -7.0859237    48.996141   0.02916437  0.031570605            1 
  141000    1.0337211   -7.0924734    49.230197  0.029095861  0.031490338            2 
  142000    1.0569325   -7.1056431    49.332862   0.02895121  0.031407315            2 
  143000    1.0246884   -7.0784639    49.676303  0.028948894  0.031325892            3 
  144000    1.0367352   -7.0775711    49.919217  0.028888436   0.03124683            3 
  145000    1.0302992   -7.0925863    50.141007  0.028816671  0.031166862            2 
  146000    1.0449547   -7.0532573    50.462854  0.028802999  0.031086482            3 
  147000    1.0364405   -7.0863147    50.691277  0.028736552  0.031006898            1 
  148000     1.034108   -7.1020642    50.778917  0.028591732  0.030924616            1 
  149000    1.0383656   -7.0518935    51.298323  0.028690337  0.030846206            1 
  150000    1.0234886   -7.1229072    51.244623  0.028469235  0.030768008            4 
  151000     1.025911    -7.107686    51.766273  0.028568584  0.030693064            3 
  152000    1.0353579   -7.1296928    51.878557  0.028442192  0.030616063            4 
  153000    1.0030037   -7.1191528     52.29943  0.028485528  0.030540781            3 
  154000    1.0363418    -7.113308    52.686737  0.028510139  0.030467256            2 
  155000   0.99928526   -7.1478829    53.029825  0.028510658  0.030396841            3 
  156000    1.0388842   -7.1520977    53.247188   0.02844401  0.030324502            2 
  157000    1.0240877   -7.1456409    53.453761  0.028372485  0.030253388            5 
  158000   0.99204711   -7.1264921    53.789583  0.028370033  0.030185894            3 
  159000    1.0237674    -7.156022    53.893156  0.028245889  0.030118231            1 
  160000    1.0044451   -7.1546915     54.43769  0.028352964   0.03005093            2 
  161000    1.0048935   -7.1793132    54.656691  0.028290213  0.029984026            3 
  162000     1.025388   -7.1542154    55.117139  0.028352437  0.029921168            1 
  163000    1.0185083   -7.1290855    55.449445  0.028348387  0.029857489            1 
  164000    1.0180686   -7.1313448    55.534278  0.028218637  0.029794573            2 
  165000    1.0164468   -7.1445234     55.55893  0.028060066   0.02973095            2 
  166000    1.0084069    -7.165263    55.891574  0.028058019   0.02966684            3 
  167000   0.98801186   -7.1674047    56.066972  0.027977531   0.02960225            2 
  168000   0.98644756    -7.182459    56.219462  0.027886638  0.029535713            6 
  169000    0.9872892   -7.1689379    56.646576  0.027932237  0.029469189            3 
  170000   0.99307182   -7.1710299    56.620243  0.027755021  0.029402201            3 
  171000   0.98131376   -7.1724181     57.15738  0.027854474  0.029338671            2 
  172000    1.0033426   -7.1521383    57.588103  0.027901213  0.029274947            2 
  173000   0.96833189   -7.1863441    57.387145  0.027643133  0.029210759            2 
  174000   0.98241502   -7.1963424    57.536919  0.027555996  0.029145626            2 
  175000    1.0091469   -7.2283696    57.771035  0.027510017  0.029077083            2 
  176000    1.0190317   -7.1928307    58.140663  0.027528723  0.029011304            2 
  177000   0.97128078   -7.2022753     58.17173   0.02738782  0.028944124            2 
  178000    1.0118807   -7.2300215    58.153056  0.027225213   0.02887475            4 
  179000   0.99174957   -7.1972373     58.67506  0.027316136  0.028804291            4 
  180000   0.96513434   -7.2020548    58.761731  0.027204505  0.028735507            2 
  181000   0.98462166   -7.1977055    58.817032  0.027079665  0.028665005            5 
  182000   0.98777824    -7.210503    59.011443  0.027019892   0.02859378            2 
  183000   0.98115937   -7.2952448    59.103239  0.026914043  0.028522523            2 
  184000   0.96969144   -7.2153337    59.695014  0.027035785  0.028452094            3 
  185000   0.96609652   -7.2265227    59.835402  0.026952884  0.028383107            3 
  186000    0.9810804   -7.1988812    60.062601  0.026909767  0.028315233            1 
  187000   0.96284019    -7.259698    60.301919  0.026872513  0.028248355            1 
  188000   0.98654394   -7.2162568    60.573838  0.026850106  0.028181831            3 
  189000   0.96087641   -7.2107161    60.716831   0.02677109  0.028114707            2 
  190000   0.94636858   -7.2009357    61.006541  0.026757255   0.02804795            2 
  191000   0.97620082   -7.2630804    61.043253  0.026633182  0.027980804            2 
  192000   0.97198806   -7.2758215    61.212115  0.026567758  0.027912924            2 
  193000    0.9671242   -7.2686554    61.330501  0.026481218  0.027845809            2 
  194000   0.98098392   -7.2873485    61.311006  0.026336343  0.027777976            3 
  195000   0.97295287   -7.2668422    61.703585  0.026369053  0.027708254            2 
  196000   0.92698647   -7.2329513    61.964662  0.026345519  0.027639857            3 
  197000   0.95902172   -7.2733033    62.052324  0.026248868  0.027571111            2 
  198000   0.94091628   -7.2908397    62.244953  0.026197371  0.027501684            6 
  199000   0.96309885   -7.2933446     62.43557  0.026145548  0.027433234            2 
  200000   0.95266734   -7.2460539    62.703536  0.026126473  0.027365733            2 
  201000   0.94422263   -7.2138326    62.965265  0.026105002  0.027298194            1 
  202000   0.95094636   -7.2782595    63.066578  0.026017565  0.027230859            2 
  203000    0.9574452   -7.3138476    63.112661  0.025908317  0.027164168            2 
  204000   0.94051453   -7.2950543    63.570311  0.025968264   0.02709837            4 
  205000    0.9288556   -7.3016816    63.652523  0.025875009  0.027033049            2 
  206000   0.93719805   -7.2805217    64.072308  0.025919218  0.026969894            2 
  207000   0.92934489   -7.3379791    64.412431   0.02593093  0.026906969            2 
  208000   0.94299978   -7.3050462    64.396713  0.025799965  0.026844393            3 
  209000   0.93636436   -7.2910848    64.652334  0.025778442  0.026781795            2 
  210000   0.91668018   -7.3166437    64.888252  0.025749306  0.026720155            4 
  211000   0.92531181   -7.3237763    64.978504  0.025662916  0.026658041            3 
  212000   0.92811943   -7.3296201    65.166728  0.025615852  0.026596718            2 
  213000   0.93011219   -7.3316392    65.248934  0.025527752  0.026534446            1 
  214000    0.9199898   -7.2930883    65.762598  0.025608488   0.02647219            2 
  215000   0.91633366   -7.3318965    65.690586  0.025461467  0.026412414            1 
  216000   0.93060835   -7.3771128    66.049507  0.025482063  0.026350996            1 
  217000   0.94026961   -7.3441772    66.168342   0.02541027  0.026290727            2 
  218000   0.91753191   -7.3695543    66.200368  0.025305951  0.026230099            3 
  219000   0.92907382   -7.3251832    66.312911  0.025233223  0.026167822            4 
  220000   0.90097026   -7.3596965    66.541324  0.025205047  0.026105806            3 
  221000   0.91100967   -7.3693763    66.504467  0.025077099  0.026043435            3 
  222000   0.89824925   -7.3726799    66.817317  0.025081575  0.025979952            2 
  223000   0.92116108   -7.3512933    66.734782  0.024938259  0.025916776            2 
  224000   0.90117797   -7.3594858    66.650873  0.024795712  0.025852283            2 
  225000   0.90709414   -7.3873354     66.87143  0.024767196  0.025785899            2 
  226000   0.91509279     -7.39595     66.94576  0.024685015  0.025720422            3 
  227000     0.909546   -7.3721723    67.234938  0.024682429  0.025654745            3 
  228000   0.88573558   -7.3848095    67.435423   0.02464745  0.025590246            4 
  229000   0.90658545   -7.3804367    67.430227  0.024537928  0.025524936            5 
  230000   0.88622404   -7.3538841     67.50459  0.024458185  0.025458318            3 
  231000   0.90198779   -7.3896862    67.703193  0.024423951  0.025391908            5 
  232000   0.90456828   -7.3678617    68.057717  0.024446019  0.025326825            2 
  233000    0.8778855   -7.4161003    67.949859  0.024302525  0.025261948            2 
  234000   0.89331444   -7.4124903    68.353411  0.024342383  0.025197758            2 
  235000   0.88804177    -7.447361    68.217444  0.024190583  0.025132642            2 
  236000   0.90148543   -7.3976341    68.315346   0.02412265  0.025066214            3 
  237000    0.8717623   -7.4060419    68.451434  0.024068718  0.024998913            3 
  238000   0.89521916   -7.4109205    68.464267  0.023972082  0.024931031            1 
  239000   0.87902164   -7.3924449    68.652351  0.023937361  0.024863103            2 
  240000   0.89796939   -7.4253842    68.524683  0.023793293  0.024795891            4 
  241000   0.87874705   -7.4232803    68.855678  0.023809017   0.02472883            6 
  242000   0.87177446   -7.4488348    69.032326  0.023771462  0.024662657            3 
  243000    0.8777383   -7.4135623    69.202716   0.02373207  0.024596743            4 
  244000   0.88087074   -7.4332561    69.221957  0.023641379  0.024531095            3 
  245000   0.85823403   -7.4811373    69.293291  0.023569146  0.024465013            1 
  246000   0.89179144   -7.4336094    69.749783  0.023627975  0.024399179            3 
  247000   0.87687803    -7.457212    69.635511  0.023493762  0.024333988            1 
  248000   0.87392704   -7.4829594    69.843952   0.02346907  0.024268749            8 
  249000   0.86177805   -7.4629649    69.875026  0.023385216  0.024203374            5 
  250000   0.86440501    -7.449804    69.979324  0.023326441  0.024137669            3 
  251000   0.85747918   -7.4694183    70.231219  0.023317138  0.024073351            3 
  252000   0.84222392   -7.4718566    70.475723  0.023305464  0.024009738            3 
  253000   0.86272892   -7.4929795    70.828521  0.023329552  0.023947414            2 
  254000   0.87582231   -7.4995559    70.813722  0.023232849  0.023885559            4 
  255000   0.86625146   -7.4702935    70.796646  0.023136159  0.023823241            2 
  256000   0.85523144    -7.458851    71.049774  0.023128182  0.023761221            4 
  257000   0.85410527   -7.4983647    70.815424    0.0229622  0.023699029            6 
  258000   0.85557369   -7.4898238     71.09553  0.022963673  0.023636205            3 
  259000   0.85572248   -7.5039297    71.192659  0.022906261  0.023573418            3 
  260000   0.85315379   -7.4860918    71.582591  0.022943138  0.023510885            2 
  261000   0.85862166   -7.4949851     71.66946  0.022882969  0.023449212            8 
  262000   0.86132792   -7.5249517    71.610487  0.022776872  0.023388383            3 
  263000   0.85398106   -7.4932556    71.778526  0.022743513  0.023327091            3 
  264000   0.84321023   -7.5411694    71.927214  0.022704297  0.023265771            4 
  265000   0.83620007   -7.5029434    72.201737  0.022704949  0.023205224            2 
  266000   0.85293915   -7.5079484    71.990919  0.022553546  0.023144118            4 
  267000    0.8325519   -7.5081882    72.226978  0.022542752   0.02308272            4 
  268000   0.85443738   -7.5445961    72.100668  0.022419362  0.023021529            3 
  269000   0.84258064   -7.5010474    72.507734  0.022462123   0.02296096            2 
  270000   0.83916963    -7.550128    72.334665  0.022325514  0.022899512            2 
  271000    0.8460734    -7.541364    72.508092  0.022296461  0.022837769            2 
  272000   0.83876964   -7.4987245    72.565494  0.022232075  0.022776325            3 
  273000   0.83989779   -7.5581088     72.78431  0.022217433  0.022714709            3 
  274000   0.82273346   -7.5630278    72.595544  0.022078937  0.022653096            2 
  275000   0.83019697   -7.5480904    72.772675  0.022052326  0.022591329            2 
  276000   0.83088039    -7.579545    72.641379  0.021932783  0.022529642            1 
  277000   0.82452463   -7.5635176    72.776056   0.02189412  0.022467391            3 
  278000   0.82055155   -7.5851784    72.642642  0.021775372  0.022404799            2 
  279000   0.82964733   -7.5844446    73.005417   0.02180568  0.022342147            5 
  280000    0.8314473   -7.5563583     73.08979  0.021752914  0.022279515            4 
  281000   0.82787053   -7.5716628    72.748324  0.021574236  0.022217125            3 
  282000   0.82682664   -7.5808672    73.050241   0.02158695  0.022153994            4 
  283000   0.82361813   -7.5951097    73.115086  0.021529766  0.022091001            8 
  284000   0.82183921   -7.5749263     73.22858  0.021487259  0.022028327            3 
  285000   0.79845998   -7.5666773    73.491514  0.021488747  0.021966018            3 
  286000   0.79854322   -7.5990191    73.372083  0.021378812  0.021903689            2 
  287000   0.81445964   -7.5823859    73.247089  0.021268028  0.021840524            2 
  288000   0.81148375   -7.6001064    73.421675  0.021244698   0.02177719            2 
  289000   0.78650848   -7.5795613    73.608692  0.021225113  0.021714135            4 
  290000   0.79901334   -7.6094987    73.744634  0.021190987  0.021651792            2 
  291000   0.79891772   -7.5817695    73.645661  0.021089823  0.021589629            4 
  292000   0.80831271   -7.6461695    73.743239  0.021045445  0.021527275            2 
  293000   0.80833588   -7.6043155    73.933828  0.021027824  0.021465027            5 
  294000   0.79096116   -7.6270089    73.700013  0.020890026  0.021402834            3 
  295000   0.79307607   -7.6324364    73.944509  0.020888279  0.021341117            1 
  296000    0.8041052   -7.6470691    74.114748  0.020865639  0.021279441            4 
  297000   0.79428855   -7.6310728    74.083657   0.02078666   0.02121824            6 
  298000   0.78578225   -7.6367826    74.161886  0.020738782  0.021156821            3 
  299000   0.78182977   -7.6450257    74.237599  0.020690524  0.021096145            2 
  300000   0.78645548   -7.6619356    74.373199  0.020659222  0.021035709            1 
  301000   0.79291359   -7.6868346    74.558756  0.020641959   0.02097556            4 
  302000   0.78861305   -7.6851882    74.487852  0.020554043  0.020915479            3 
  303000   0.79781074   -7.6810974    74.574257  0.020509972  0.020855306            5 
  304000   0.79663759   -7.6731629    74.752424  0.020491344   0.02079482            2 
  305000   0.79381786   -7.6605407     74.59781  0.020381915   0.02073455            4 
  306000   0.79598736    -7.673691     74.72415  0.020349714  0.020674921            3 
  307000   0.77157518   -7.6627472    74.742712  0.020288467  0.020615325            3 
  308000   0.77863584   -7.7006502    74.601732  0.020184451  0.020555238            3 
  309000   0.78756073   -7.6807135    74.683355  0.020141142  0.020494737            3 
  310000   0.77858898   -7.6895373    74.889792  0.020131664  0.020434803            3 
  311000   0.79331124   -7.6786296    74.878309  0.020063855  0.020375417            4 
  312000   0.77360974   -7.6850309    74.989365  0.020029211  0.020315906            2 
  313000   0.77392711   -7.6604155    75.008643  0.019970352   0.02025613            4 
  314000   0.77396647   -7.6915666    74.921948  0.019883744  0.020196675            2 
  315000   0.75486261   -7.7131641    74.992441   0.01983927  0.020136482            5 
  316000   0.78461684   -7.7153702    74.838236  0.019735822  0.020076314            3 
  317000   0.75186439   -7.7120057    74.978178  0.019710352  0.020015757            2 
  318000   0.75579241   -7.7283805    75.084271  0.019676171  0.019955382            3 
  319000   0.76257159   -7.7158772     75.05393  0.019606565  0.019895246            3 
  320000   0.75100212    -7.725164    75.024661  0.019537672  0.019835605            3 
  321000    0.7514306   -7.7307076    75.160389  0.019512043  0.019775925            3 
  322000    0.7373284   -7.7227365    75.238722  0.019471719  0.019716604            2 
  323000   0.75067822    -7.744358    75.125368   0.01938219   0.01965674            3 
  324000   0.76465844   -7.7227221    75.170574  0.019333995  0.019596906            5 
  325000   0.74117586   -7.7398751    75.345362  0.019319324  0.019537437            2 
  326000    0.7349381   -7.7344582     75.30987  0.019250989  0.019478319            3 
  327000   0.74153922   -7.7449772    75.673398   0.01928476  0.019419986            6 
  328000   0.75554147   -7.7528588    75.509493  0.019184322  0.019361733            7 
  329000   0.74302809    -7.762529    75.444843  0.019109636  0.019303612            5 
  330000   0.73964641   -7.7604782    75.432659  0.019048651  0.019245302            4 
  331000   0.72196704   -7.7360599    75.288892  0.018954907  0.019186617            3 
  332000   0.73503534   -7.7705052    75.472757  0.018943965  0.019128208            3 
  333000   0.74686042    -7.746358    75.523178  0.018899694  0.019069878            2 
  334000   0.72631371   -7.7725429     75.68529  0.018883555  0.019011676            3 
  335000    0.7296638   -7.7717715    75.795975   0.01885472  0.018953764            5 
  336000   0.73236816   -7.8079321     75.54381  0.018736064  0.018895825            6 
  337000   0.73400086   -7.7948011    75.542504  0.018680144  0.018837698            7 
  338000   0.72253841   -7.8201371    75.513474   0.01861772   0.01877971            3 
  339000   0.72065923   -7.8290725    75.450244  0.018547258  0.018721424            3 
  340000   0.71698189   -7.8147366     75.53245  0.018512855  0.018663152            2 
  341000    0.7141063   -7.8298072    75.405569  0.018427558  0.018604993            3 
  342000   0.72961611   -7.8180435    75.645804  0.018432213  0.018546965            3 
  343000   0.72356382   -7.8081485     75.82399  0.018421766  0.018489363            3 
  344000   0.70930464   -7.8131066    75.674362  0.018331968  0.018432204            3 
  345000   0.72714274   -7.8078033    75.819311  0.018313843  0.018375289            3 
  346000   0.73099856   -7.8406291    75.940998  0.018290221  0.018318643            4 
  347000   0.71242173   -7.8138776    75.866597  0.018219644  0.018262204            4 
  348000   0.72453356   -7.8207628    76.018552  0.018203676  0.018206021            5 
  349000   0.69809058   -7.8202326    75.921049  0.018128235  0.018149766            4 
  350000   0.70637632    -7.817287    75.980179  0.018090519  0.018093302            3 
  351000   0.70691989   -7.8570684     75.76644  0.017988234   0.01803701            6 
  352000   0.71225258    -7.842063    75.853686  0.017957785  0.017980739            3 
  353000   0.69461499   -7.8448982    75.888971  0.017915243  0.017924684            3 
  354000    0.7001989   -7.8519826    75.905797  0.017868596  0.017868589            3 
  355000   0.68379258   -7.8687943    76.128591  0.017870561   0.01781301            4 
  356000   0.69821172   -7.8654948    75.872398  0.017760393   0.01775716            7 
  357000   0.69169153   -7.8447591    75.992301  0.017738632  0.017701314            4 
  358000   0.70076792   -7.8638514    76.016038  0.017694609  0.017645994            8 
  359000   0.68760454   -7.8594713    76.036264  0.017650015  0.017590705            8 
  360000   0.69648983   -7.8539595    76.050197  0.017604212  0.017535516            3 
  361000   0.69304791   -7.8780804    76.017253  0.017547842  0.017480632            5 
  362000   0.69186584   -7.8942085    76.158563  0.017531898  0.017425649            3 
  363000   0.67997641   -7.8857118    76.202882  0.017493775  0.017370972            2 
  364000   0.69716355   -7.8772368    76.154192  0.017434568  0.017316406            3 
  365000   0.69689798   -7.8944592    76.186327  0.017394138  0.017262183            6 
  366000   0.68043615   -7.8919281    76.250816  0.017361297  0.017207963            5 
  367000   0.67948716   -7.8756594    76.175802  0.017296958  0.017153964            2 
  368000   0.68508755   -7.9131115    76.198103  0.017255005  0.017100138            4 
  369000   0.68104405   -7.8752202      76.3857   0.01725061  0.017046791            3 
  370000   0.68349778   -7.9088595    76.299475  0.017184566  0.016993566            7 
  371000   0.68169691   -7.9148194     76.25459  0.017128165  0.016940492            3 
  372000   0.65877987   -7.9137196    76.153939  0.017059574  0.016887295            7 
  373000   0.67913261   -7.9284502    76.226998   0.01703016  0.016834077            5 
  374000   0.67246911   -7.9381203    76.111661  0.016958926  0.016780779            3 
  375000   0.67373601   -7.9520102    76.136749  0.016919278  0.016727594            6 
  376000   0.67363664    -7.926359    76.193424   0.01688684  0.016674523            4 
  377000    0.6663561   -7.9313696     76.23783  0.016851863  0.016621619            4 
  378000    0.6688776   -7.9387901     76.28719  0.016818164  0.016569018            5 
  379000   0.66602574   -7.9264838    76.130353  0.016739304  0.016516544            3 
  380000    0.6751337   -7.9663419    76.168495  0.016703617  0.016464218            2 
  381000   0.65910936   -7.9598799    76.213104  0.016669533  0.016411929            5 
  382000   0.66885295   -7.9520317    76.234424  0.016630546  0.016359683            7 
  383000   0.64213159   -7.9726726    76.063185  0.016549866  0.016307636            3 
  384000   0.67268316   -7.9576148    76.127046  0.016520626  0.016255486            4 
  385000   0.65194111   -7.9834285    76.194199  0.016492251  0.016203287            8 
  386000   0.65886446   -8.0009082    76.246504  0.016460817  0.016151346            2 
  387000   0.63187632   -7.9946705    76.173087  0.016402474   0.01609981            4 
  388000   0.66038286   -7.9533997    76.176777  0.016360992  0.016048283            4 
  389000   0.62817995   -7.9664907    76.139201  0.016310883  0.015997038            5 
  390000   0.64855144   -7.9680141    76.075232  0.016255392  0.015945845            3 
  391000   0.63463143   -8.0006812    76.053892  0.016209269  0.015894531            3 
  392000    0.6422363    -7.994105    76.150149  0.016188382  0.015843266            2 
  393000   0.64723371   -7.9969306    76.144441   0.01614598  0.015792377            4 
  394000   0.62956698   -7.9819072    76.002349  0.016074947  0.015741662            3 
  395000   0.63425552   -8.0211349     76.04733  0.016043741  0.015691002            4 
  396000   0.63586322   -8.0086463     75.99481  0.015992174  0.015640482            2 
  397000   0.63895513   -7.9889892    76.233215  0.016001934  0.015590161            5 
  398000   0.61953984   -8.0134119    76.177927  0.015950152  0.015540204            4 
  399000   0.63726006   -8.0363879    76.033609  0.015880035  0.015490249            7 
  400000   0.62402597   -8.0310688    76.232522  0.015881775  0.015440359            5 
  401000   0.63746298   -8.0175203    76.173957  0.015829999  0.015390549            3 
  402000   0.62256067   -8.0271554    76.150683  0.015785797  0.015340827            3 
  403000   0.62052705   -8.0325375    76.102798  0.015736724  0.015291318            4 
  404000   0.63214642   -8.0301768    76.101206  0.015697443  0.015241938            5 
  405000   0.62013448   -8.0312821    76.088739  0.015656119  0.015192831            6 
  406000   0.61672684   -8.0341855    76.224622  0.015645448  0.015143899            3 
  407000    0.6116144   -8.0313342    76.190215  0.015599962  0.015095137            9 
  408000   0.61755496   -8.0413252    76.119807  0.015547346  0.015046469            5 
  409000    0.6134398   -8.0446267    76.180006  0.015521599  0.014998122            4 
  410000   0.62743971    -8.057264    76.231006  0.015494107  0.014949809            4 
  411000   0.60326232   -8.0572344    76.211305  0.015452414  0.014901852            2 
  412000   0.61244039   -8.0481806    76.161994  0.015404934  0.014854151            7 
  413000   0.61246921   -8.0925779    76.171772  0.015369607   0.01480647            3 
  414000   0.60216423   -8.0719436    76.069561  0.015311908  0.014758919            7 
  415000   0.61320482   -8.0628867    76.296404  0.015320563  0.014711657            5 
  416000   0.61032482   -8.0595844    76.232868  0.015271007  0.014664398            7 
  417000   0.60016213   -8.0719913     76.09401  0.015206637  0.014617329            6 
  418000   0.60268134    -8.087034    76.123935  0.015176223   0.01457026            6 
  419000    0.5936299   -8.0692671    76.164664  0.015148103  0.014523588            3 
  420000   0.59026803   -8.0768218     76.13876  0.015106897   0.01447684            6 
  421000   0.59354974   -8.0928119     76.14545  0.015072338  0.014430316            6 
  422000   0.59658379   -8.0948152    76.172414  0.015041946  0.014383963            4 
  423000   0.58135965    -8.069595    76.122839  0.014996619  0.014337731            3 
  424000   0.60956288   -8.0893439    76.093918  0.014955566  0.014291748            5 
  425000   0.60298302    -8.090008    76.059758  0.014913678  0.014245904            6 
  426000   0.58424622   -8.0913687    76.165644  0.014899383  0.014200139            4 
  427000   0.57024479   -8.1234381    76.084112  0.014848578  0.014154537            4 
  428000   0.57981543   -8.1060896    76.245817  0.014845369  0.014109066            6 
  429000   0.58861177   -8.1191894    76.068802  0.014776379  0.014063778            3 
  430000   0.58971324   -8.1149903    76.078319   0.01474386  0.014018487            8 
  431000   0.57735537   -8.1424866    75.991138  0.014692795  0.013973303            5 
  432000   0.57885887   -8.1317467    75.878957  0.014637144  0.013928235            5 
  433000   0.60153914    -8.122367    76.035987  0.014633562  0.013883273            7 
  434000   0.56820226   -8.1062504    76.007566  0.014594387  0.013838526            3 
  435000    0.5754679   -8.1392761    75.979151  0.014555393  0.013793724            3 
  436000   0.56524243   -8.1499693    75.849423  0.014497214  0.013749152            5 
  437000   0.56499992   -8.1223079    75.900735  0.014473824  0.013704728            4 
  438000   0.57028814   -8.1597632    75.924897  0.014445376  0.013660492            4 
  439000   0.55960201   -8.1335736    75.896631  0.014407105  0.013616348            5 
  440000   0.56964155   -8.1401986    75.894731  0.014374002  0.013572347            3 
  441000   0.55704506   -8.1629288    75.884542  0.014339483  0.013528564            4 
  442000    0.5433184   -8.1630431    75.850305  0.014300585  0.013484825            5 
  443000   0.57944666   -8.1619209    75.832507  0.014264956  0.013441197            4 
  444000   0.56874824   -8.1722107    75.696253  0.014207255  0.013397734            5 
  445000    0.5558788   -8.1585016    75.794119  0.014193655  0.013354385            3 
  446000   0.53402137   -8.1643456    75.795448  0.014162079  0.013311121            6 
  447000   0.54190641   -8.1716528    75.839168  0.014138547  0.013268124            4 
  448000   0.54637575   -8.1569827    75.775352  0.014095118  0.013225193            9 
  449000    0.5480462   -8.1458999    75.867597  0.014080846  0.013182454            4 
  450000   0.55067173   -8.1745633    75.862289  0.014048572  0.013139839            5 
  451000   0.56606797   -8.1707598    75.796294  0.014005228  0.013097432            4 
  452000   0.55155081   -8.1780839    75.751936  0.013966065  0.013055331            3 
  453000   0.54324011   -8.1888605     75.83857  0.013951172   0.01301339            8 
  454000   0.54565761   -8.1823381    75.883708  0.013928728  0.012971536            5 
  455000   0.54003573   -8.1968767    75.836862  0.013889535  0.012929848            4 
  456000     0.545254   -8.2041092    75.926328  0.013875425  0.012888229            4 
  457000   0.54076271   -8.1943585    75.800335  0.013822089  0.012846774            4 
  458000   0.52391041   -8.2001005    75.800288  0.013791901  0.012805425            7 
  459000   0.52162527   -8.2070203    75.821424  0.013765691  0.012764192            4 
  460000    0.5286171    -8.212322    75.744712  0.013721868  0.012723061            3 
  461000   0.52220821   -8.2170678    75.667618  0.013678167  0.012682061            4 
  462000   0.53212195   -8.2110624    75.715456  0.013657189  0.012641233            2 
  463000   0.52886948   -8.2114451    75.689477  0.013623016  0.012600551            6 
  464000   0.52573684   -8.2120816    75.695539  0.013594745  0.012559988            5 
  465000    0.5224985   -8.2250019    75.564443  0.013542015  0.012519632            4 
  466000   0.52461655   -8.2198797    75.636678  0.013525872  0.012479534            3 
  467000     0.532384   -8.2347712    75.583684  0.013487452  0.012439488            3 
  468000   0.52086153   -8.2281596    75.544933  0.013451733  0.012399538            5 
  469000   0.52517326   -8.2205482    75.569372  0.013427394  0.012359719            4 
  470000    0.5176723   -8.2237227    75.693092  0.013420761  0.012320132            6 
  471000   0.51902421   -8.2286049    75.641627  0.013383161  0.012280715            3 
  472000   0.52006612   -8.2435887    75.663461  0.013358662  0.012241468            6 
  473000   0.51759303   -8.2396682    75.574113  0.013314678  0.012202307            8 
  474000   0.51734919   -8.2437324     75.67179  0.013303761  0.012163305            5 
  475000   0.51391988   -8.2238219    75.501504  0.013245878  0.012124442            4 
  476000   0.50850541   -8.2478162    75.557915  0.013227926  0.012085672            3 
  477000   0.50267863   -8.2599061    75.524033  0.013194276  0.012047063            9 
  478000   0.51071966   -8.2410204    75.457094  0.013155002  0.012008585            8 
  479000   0.50541324   -8.2397884    75.561393  0.013145684  0.011970247           13 
  480000   0.50560766   -8.2685784    75.477572  0.013103745  0.011932035            7 
  481000   0.50441002   -8.2539666    75.530836   0.01308573  0.011893936            9 
  482000   0.48752778   -8.2729021    75.605668  0.013071519   0.01185608           12 
  483000   0.50455608   -8.2857634    75.590918  0.013041911  0.011818313            7 
  484000   0.48679435   -8.2536514    75.536243  0.013005551  0.011780688            6 
  485000   0.49675889   -8.2669481    75.573873  0.012985202  0.011743258            8 
  486000   0.48604618   -8.2846929    75.491921  0.012944431    0.0117059           10 
  487000   0.48324256   -8.2758285    75.436622  0.012908388  0.011668723            7 
  488000     0.491415   -8.2803854    75.513902  0.012895133  0.011631678            5 
  489000   0.48945358   -8.2850583    75.484339  0.012863725    0.0115948           11 
  490000   0.48622325   -8.2668759    75.446848  0.012831097  0.011557979           11 
  491000   0.47659392   -8.2808214    75.396441  0.012796409  0.011521264            5 
  492000   0.47322349   -8.2999147    75.465478  0.012782093  0.011484738            3 
  493000   0.48427865   -8.2978009    75.350417  0.012736717  0.011448299            6 
  494000   0.47256094    -8.289569    75.368818  0.012714038   0.01141201           16 
  495000   0.47864655   -8.2906262    75.401084  0.012693785  0.011375899            7 
  496000   0.47778255   -8.2912809    75.455833  0.012677391  0.011339898            5 
  497000    0.4771806   -8.2956991    75.400152  0.012642547  0.011304078            8 
  498000   0.46400334   -8.3103058    75.301732  0.012600691  0.011268341            9 
  499000    0.4783433   -8.3225244    75.386741  0.012589636  0.011232766           12 
  500000   0.46990914    -8.298981    75.376391  0.012562732   0.01119732            8 
  501000   0.47340668   -8.3231598    75.390584  0.012540017  0.011162031            6 
  502000   0.47165331   -8.3150111    75.248891  0.012491516  0.011126873            5 
  503000   0.46158356   -8.3202398    75.241373  0.012465436  0.011091774            5 
  504000   0.47035343   -8.3261026    75.245797  0.012441435  0.011056849            6 
  505000   0.46673753   -8.3179375    75.267929   0.01242045  0.011022018            4 
  506000   0.46558425   -8.3453551    75.214403  0.012387089  0.010987276            4 
  507000    0.4550555   -8.3470465    75.258404  0.012369889  0.010952729            4 
  508000   0.45219755   -8.3322323    75.226439  0.012340295  0.010918327            4 
  509000   0.44942155   -8.3296548     75.15333  0.012304082  0.010884095            4 
  510000   0.46012145   -8.3511916    75.338324  0.012310184  0.010850017            7 
  511000   0.45877307   -8.3305691    75.211147  0.012265353  0.010816048            6 
  512000   0.44571739    -8.349446    75.403921  0.012272774  0.010782251            4 
Loop time of 1159.22 on 48 procs for 500000 steps with 4000 atoms

Performance: 74532.784 tau/day, 431.324 timesteps/s
99.4% CPU use with 48 MPI tasks x no OpenMP threads

MPI task timing breakdown:
Section |  min time  |  avg time  |  max time  |%varavg| %total
---------------------------------------------------------------
Pair    | 71.064     | 75.889     | 80.837     |  29.2 |  6.55
Neigh   | 7.5218     | 7.8918     | 8.2185     |   5.2 |  0.68
Comm    | 71.676     | 77.509     | 84.405     |  33.2 |  6.69
Output  | 0.82445    | 0.82495    | 0.83505    |   0.2 |  0.07
Modify  | 982.46     | 986.2      | 989.51     |   5.9 | 85.07
Other   |            | 10.9       |            |       |  0.94

Nlocal:        83.3333 ave          90 max          75 min
Histogram: 1 2 4 5 6 7 8 4 9 2
Nghost:        1962.75 ave        1980 max        1934 min
Histogram: 1 0 2 3 4 8 14 8 6 2
Neighs:        12501.3 ave       13822 max       11220 min
Histogram: 4 2 6 6 5 6 8 6 3 2
FullNghs:      25002.3 ave       27083 max       22335 min
Histogram: 1 2 6 4 6 10 4 5 7 3

Total # of neighbors = 1200109
Ave neighs/atom = 300.02725
Neighbor list builds = 26837
Dangerous builds = 0

#clear
#
#next RN
#
#jump SELF
Total wall time: 0:19:22
