
units lj                  # Use reduced LJ style units
atom_style atomic         # Uncharged point particles
atom_modify map hash      # Needed for indexing of clusters etc
                          # Used to be able to find where atoms are in relation to each other.

lattice fcc 1.0 spacing 1 1 1
Lattice spacing in x,y,z = 1.5874011 1.5874011 1.5874011
region box block 0 10 0 10 0 10 units lattice
create_box 2 box
Created orthogonal box = (0.0000000 0.0000000 0.0000000) to (15.874011 15.874011 15.874011)
  3 by 4 by 4 MPI processor grid
create_atoms 1 box
Created 4000 atoms
  using lattice units in orthogonal box = (0.0000000 0.0000000 0.0000000) to (15.874011 15.874011 15.874011)
  create_atoms CPU = 0.034 seconds
set type 1 type/fraction 2 0.2 78393
Setting atom values ...
  836 settings made for type/fraction
mass 1 1.0
mass 2 1.0
pair_style lj/cut  3.5
pair_modify tail  yes
pair_coeff 1  1  1.0  1.0   # Intearaction between 1 and 1 set with epsilon = 1 and sigma = 1
pair_coeff 1  2  1.5  0.8
pair_coeff 2  2  0.5  0.88

write_data data.0
System init for write_data ...
Neighbor list info ...
  update every 1 steps, delay 10 steps, check yes
  max neighbors/atom: 2000, page size: 100000
  master list distance cutoff = 3.8
  ghost atom cutoff = 3.8
  binsize = 1.9, bins = 9 9 9
  1 neighbor lists, perpetual/occasional/extra = 1 0 0
  (1) pair lj/cut, perpetual
      attributes: half, newton on
      pair build: half/bin/atomonly/newton
      stencil: half/bin/3d
      bin: standard
WARNING: Not all mixed pair coeffs generated from mixing. Use write_data with 'pair ij' option to store all pair coeffs. (../write_data.cpp:312)


#############################
#   M E L T   S Y S T E M   #
#############################

velocity all create 2.4 1741580 mom yes dist gaussian # Assign velocities
                                                    # Temperature 2.4, random number seed, zero linear momentum
                                                                                # Gaussian distribution

timestep 0.002   # simulation timestep
thermo 1000       # output thermodynamic data every 1000 steps bf 100

# Define a fix  in this case with index 1 applied to all
# particles in the simulation. This fix is for simulations
# in the anisotropic NPT ensemble. Note that we use the MTK
# correction.
fix 1 all npt temp 2.4 2.4 0.1 iso 5.68 5.68 0.5 mtk yes tchain 5 pchain 5 # Use NPT ensemble
                                                                         # Set temperature and pressure and damping
                                                                         # Numbers of thermostats in chain and in barostat
run 10000          # run for 10000 steps
Per MPI rank memory allocation (min/avg/max) = 3.642 | 3.644 | 3.648 Mbytes
Step Temp E_pair E_mol TotEng Press Volume 
       0          2.4   -7.0365901            0   -3.4374901   -3.6176696         4000 
    1000    2.3622718   -4.8946675            0   -1.3521457    5.2451511    4487.7682 
    2000    2.3478744   -4.8305676            0   -1.3096364     5.712388    4463.5006 
    3000    2.4311838   -4.7541492            0   -1.1082853    5.7802812    4502.8739 
    4000    2.4662722   -4.8160841            0   -1.1176007    6.0723767    4451.0364 
    5000     2.406573   -4.7792893            0   -1.1703322    5.8793517     4474.082 
    6000    2.3983421   -4.8888395            0   -1.2922257    5.2497997    4476.9595 
    7000    2.3266699   -4.8540507            0   -1.3649184     5.418892    4476.4814 
    8000    2.4181133   -4.8744122            0    -1.248149    5.8545095    4430.7219 
    9000    2.4047729   -4.8382804            0   -1.2320228    5.2871545    4505.7788 
   10000    2.3975759   -4.8275746            0   -1.2321099    5.7784331    4461.0265 
Loop time of 2.34153 on 48 procs for 10000 steps with 4000 atoms

Performance: 737979.167 tau/day, 4270.713 timesteps/s
99.6% CPU use with 48 MPI tasks x no OpenMP threads

MPI task timing breakdown:
Section |  min time  |  avg time  |  max time  |%varavg| %total
---------------------------------------------------------------
Pair    | 0.95844    | 1.0358     | 1.1646     |   3.9 | 44.24
Neigh   | 0.19722    | 0.20549    | 0.2315     |   1.3 |  8.78
Comm    | 0.69514    | 0.80758    | 0.88825    |   5.1 | 34.49
Output  | 0.00024128 | 0.00024517 | 0.00030918 |   0.0 |  0.01
Modify  | 0.23212    | 0.27791    | 0.32584    |   4.5 | 11.87
Other   |            | 0.01451    |            |       |  0.62

Nlocal:        83.3333 ave          95 max          73 min
Histogram: 2 4 6 7 6 8 10 1 3 1
Nghost:        1523.46 ave        1560 max        1485 min
Histogram: 2 1 5 5 7 10 9 6 2 1
Neighs:        8547.21 ave        9664 max        7478 min
Histogram: 2 7 6 4 5 7 7 3 2 5

Total # of neighbors = 410266
Ave neighs/atom = 102.56650
Neighbor list builds = 911
Dangerous builds = 234

# Equilibrate just above the melting temperature to avoid step fn in T

fix 1 all npt temp 1.25 1.25 0.1 iso 5.68 5.68 0.5 mtk yes tchain 5 pchain 5
run 2000
Per MPI rank memory allocation (min/avg/max) = 3.642 | 3.645 | 3.649 Mbytes
Step Temp E_pair E_mol TotEng Press Volume 
   10000    2.3975759   -4.8275746            0   -1.2321099    5.7784331    4461.0265 
   11000    1.2484202   -6.5547797            0   -4.6826176    5.5438363    3650.2311 
   12000    1.2342124   -6.5407694            0   -4.6899137    5.5811026    3651.9765 
Loop time of 0.502808 on 48 procs for 2000 steps with 4000 atoms

Performance: 687339.468 tau/day, 3977.659 timesteps/s
99.7% CPU use with 48 MPI tasks x no OpenMP threads

MPI task timing breakdown:
Section |  min time  |  avg time  |  max time  |%varavg| %total
---------------------------------------------------------------
Pair    | 0.22731    | 0.24458    | 0.26891    |   2.3 | 48.64
Neigh   | 0.032197   | 0.034695   | 0.039092   |   0.7 |  6.90
Comm    | 0.13778    | 0.16994    | 0.19074    |   3.1 | 33.80
Output  | 4.9237e-05 | 5.0484e-05 | 6.4447e-05 |   0.0 |  0.01
Modify  | 0.045066   | 0.049157   | 0.059997   |   1.9 |  9.78
Other   |            | 0.004389   |            |       |  0.87

Nlocal:        83.3333 ave          91 max          75 min
Histogram: 1 1 5 6 6 14 8 1 4 2
Nghost:        1747.15 ave        1782 max        1717 min
Histogram: 2 4 7 2 11 6 9 5 1 1
Neighs:        10491.2 ave       11734 max        9115 min
Histogram: 2 3 3 3 10 11 5 5 4 2

Total # of neighbors = 503577
Ave neighs/atom = 125.89425
Neighbor list builds = 144
Dangerous builds = 7

#############################
# L I N E A R  Q U E N C H  #
#############################

# Define solid atoms. This closely follows ten Wolde  Ruiz-Montero and Frenkel  Faraday Discuss  1996  104  93-110
# Compute components of the per-atom q6 vector
compute q6 all orientorder/atom degrees 1 6 components 6 nnn NULL cutoff 1.3 # compute the Q6 parameter.
                                                                             # Use all neighbours within 1.3 unit cell.

# get number of connections
compute coord_number all coord/atom orientorder q6 0.5

# An atom is solid if it has 8 or more connections (of a possible 14)
variable is_solid atom c_coord_number>=8
group solid dynamic all var is_solid    # Must be dynamic to update
dynamic group solid defined

# do clustering
compute cluster solid cluster/atom 1.3 # Create a cluster where all atoms within are solid and max 1.3 units from another member

# define chunks one chunk per cluster
compute clus_chunks solid chunk/atom c_cluster nchunk every compress yes  # Says which atoms are in which chunk

# count the size of each chunk
compute size_chunks solid property/chunk clus_chunks count


# Find the maximum entry in the vector of chunk sizes
variable max_n equal max(c_size_chunks)


# Thermo style which includes this variable
# thermo_style custom step temp pe vol v_max_n

thermo ${N}  # Print the thermo information every 100 steps
thermo 1000  

# Reset the npt fix at a lower temperature (below freezing)
fix 1  all npt temp  ${temp} ${temp}  0.1  iso  5.68  5.68  0.5  mtk yes tchain  5  pchain  5
fix 1  all npt temp  0.45 ${temp}  0.1  iso  5.68  5.68  0.5  mtk yes tchain  5  pchain  5
fix 1  all npt temp  0.45 0.45  0.1  iso  5.68  5.68  0.5  mtk yes tchain  5  pchain  5

dump dmp2 all dcd ${N} traj.dcd
dump dmp2 all dcd 1000 traj.dcd


compute msd all msd com yes
variable twopoint equal c_msd[4]/6/(step*dt+1.0e-6)
fix 9 all vector 10 c_msd[4]
variable fit equal slope(f_9)/6/(10*dt)
thermo_style custom step temp pe c_msd[4] v_twopoint v_fit v_max_n

fix 1 all npt temp 1.25 ${temp} 0.1 iso 5.68 5.68 0.5 mtk yes tchain 5 pchain 5
fix 1 all npt temp 1.25 0.45 0.1 iso 5.68 5.68 0.5 mtk yes tchain 5 pchain 5
run 2000000 # 5000000  # Run for this many steps
Neighbor list info ...
  update every 1 steps, delay 10 steps, check yes
  max neighbors/atom: 2000, page size: 100000
  master list distance cutoff = 3.8
  ghost atom cutoff = 3.8
  binsize = 1.9, bins = 9 9 9
  4 neighbor lists, perpetual/occasional/extra = 1 3 0
  (1) pair lj/cut, perpetual
      attributes: half, newton on
      pair build: half/bin/atomonly/newton
      stencil: half/bin/3d
      bin: standard
  (2) compute orientorder/atom, occasional
      attributes: full, newton on
      pair build: full/bin/atomonly
      stencil: full/bin/3d
      bin: standard
  (3) compute coord/atom, occasional
      attributes: full, newton on
      pair build: full/bin/atomonly
      stencil: full/bin/3d
      bin: standard
  (4) compute cluster/atom, occasional
      attributes: full, newton on
      pair build: full/bin/atomonly
      stencil: full/bin/3d
      bin: standard
Per MPI rank memory allocation (min/avg/max) = 9.771 | 9.779 | 9.785 Mbytes
Step Temp PotEng c_msd[4] v_twopoint v_fit v_max_n 
   12000    1.2342124   -6.5407694 1.1128855e-30 7.7283714e-33 8.3333333e+20            2 
   13000    1.2364861   -6.5769045   0.52330313 0.0033545071  0.042809192            2 
   14000     1.232969    -6.620771    1.0376751 0.0061766371  0.042682735            1 
   15000    1.2565784   -6.5762425    1.6104329  0.008946849  0.043928849            2 
   16000    1.2370156   -6.5659648    2.0760509  0.010812765  0.043864448            2 
   17000    1.2305349   -6.5461897    2.5689933  0.012593104  0.043076541            3 
   18000     1.254004   -6.5879032    3.0749996  0.014236109  0.042583981            2 
   19000    1.2704541   -6.5785669    3.5949769  0.015767442  0.042595867            1 
   20000    1.2439808   -6.5587126    4.0962896  0.017067873  0.042527183            2 
   21000    1.2240396   -6.5475193    4.5662065  0.018119867  0.042292883            1 
   22000    1.2445489    -6.584253    5.0774593    0.0192328  0.042153892            2 
   23000    1.2478079   -6.5503328    5.6158793  0.020347388  0.042152251            1 
   24000    1.2284741   -6.5792104     6.073182  0.021087437  0.042168797            2 
   25000    1.2606568   -6.5424093    6.6189776  0.022063258  0.042178462            1 
   26000     1.231306   -6.5857308     7.039556  0.022562679  0.042188375            1 
   27000    1.2112802   -6.5506652    7.5490781  0.023299623  0.042020886            1 
   28000    1.2453282   -6.5365907    8.0752458  0.024033469  0.041926096            2 
   29000    1.2581489   -6.5624266    8.5596722  0.024596759  0.041833875            1 
   30000    1.2720274   -6.5948429    9.0481034   0.02513362  0.041749733            1 
   31000    1.2763237    -6.577015    9.4839661  0.025494532   0.04161897            2 
   32000    1.2637075   -6.5772821     9.963602   0.02594688  0.041502744            2 
   33000    1.2380505   -6.5473516    10.463147  0.026422089  0.041410228            3 
   34000    1.2105326   -6.5532289    11.019404  0.027008342  0.041377588            4 
   35000    1.2504491   -6.6000433    11.469177  0.027307564  0.041363975            2 
   36000    1.2172065   -6.5839766    12.089751  0.027985534  0.041356379            1 
   37000    1.2513438   -6.5892549    12.460023  0.028063115  0.041368667            3 
   38000    1.2200815   -6.5403266    12.923477  0.028340958   0.04133531            2 
   39000    1.2515517   -6.5998669    13.298536  0.028415674  0.041262666            2 
   40000    1.2615702   -6.5735703    13.841955  0.028837406  0.041173169            1 
   41000    1.2038442   -6.6098223    14.230816  0.028924423  0.041074783            5 
   42000    1.2375429   -6.6079412    14.748345  0.029262589  0.040999636            2 
   43000    1.2245846   -6.5984143    15.218398  0.029493018   0.04093082            5 
   44000    1.2261314    -6.589567    15.660708  0.029660432  0.040846921            2 
   45000    1.2552864   -6.5996149    16.085233  0.029787468  0.040758416            2 
   46000    1.1995625   -6.5888231    16.694708  0.030244036  0.040681912            1 
   47000    1.2226618   -6.5867815    17.153351  0.030413742  0.040647225            2 
   48000    1.2556741   -6.5767132    17.665409  0.030669112  0.040606136            6 
   49000    1.2358251   -6.5794103    18.164508  0.030892019  0.040593392            1 
   50000    1.1858861    -6.588488    18.569293  0.030948822  0.040568595            1 
   51000    1.2475354   -6.5841574    19.045827  0.031120631  0.040539323            3 
   52000    1.2339748   -6.5967563    19.670679  0.031523524  0.040535463            1 
   53000    1.2402887   -6.6244206    20.228366  0.031805606  0.040561293            1 
   54000    1.2297756   -6.5784726    20.895643  0.032246362  0.040608464            1 
   55000    1.2330298   -6.6150895     21.38248  0.032397697  0.040681946            1 
   56000     1.231838   -6.6009562    21.843757   0.03250559  0.040729369            2 
   57000    1.2168705   -6.5939666    22.282102  0.032576172  0.040771997            3 
   58000    1.2447724   -6.5475994    22.747326   0.03268294  0.040800094            1 
   59000    1.2018583   -6.6054943    23.317203  0.032933902  0.040827105            3 
   60000    1.2341342   -6.5650897    23.788398  0.033039442  0.040857171            5 
   61000    1.2362541   -6.6060645     24.17096  0.033020437  0.040869622            1 
   62000    1.2430691   -6.5856326    24.559243  0.033009735  0.040853689            3 
   63000    1.2391566   -6.6070984    24.960675  0.033016765  0.040842522            3 
   64000    1.2376618   -6.6262547    25.374878  0.033040206   0.04079884            3 
   65000    1.2164476   -6.5564425     26.09561   0.03345591  0.040774422            2 
   66000    1.2102412   -6.5990483    26.492253  0.033449814  0.040765929            2 
   67000    1.2269272   -6.5638665    27.120496   0.03373196   0.04077243            3 
   68000    1.2202283   -6.5879507    27.614778  0.033841639  0.040791621            2 
   69000    1.2059661   -6.6031202    28.108367  0.033947303  0.040803582            2 
   70000    1.2110156    -6.601851    28.844352  0.034338514   0.04082168            2 
   71000    1.2160539   -6.6642365    29.124813  0.034184053  0.040839063            1 
   72000    1.2398641   -6.6362518    29.515858  0.034161873   0.04084654            2 
   73000     1.212805   -6.6237915    29.967754  0.034209765  0.040833238            2 
   74000    1.2137999   -6.5971246    30.620755  0.034482832  0.040831858            3 
   75000    1.2281555   -6.6256255    31.148652  0.034609613   0.04084063            1 
   76000    1.2200356   -6.6295479    31.740424  0.034803097  0.040870514            2 
   77000    1.2293951   -6.5953416    32.419712  0.035086268  0.040899986            2 
   78000    1.2360648   -6.5940966    33.024309  0.035282381  0.040942261            2 
   79000     1.211061   -6.5960368    33.565061  0.035406182  0.040991782            3 
   80000     1.226068   -6.5822371    34.225583  0.035651649  0.041052325            2 
   81000    1.2466006   -6.6252707     34.54436  0.035539465  0.041119049            2 
   82000    1.1979524   -6.6009941    34.989504  0.035558439  0.041158627            2 
   83000    1.2287415   -6.5961527    35.519971  0.035662622  0.041186053            1 
   84000    1.2075679   -6.6131902    35.756987  0.035473201  0.041212242            3 
   85000    1.2178377   -6.5723125    36.308353  0.035596424  0.041220485            2 
   86000    1.2575315   -6.6116393    36.719726   0.03558113  0.041227954            3 
   87000    1.2147273   -6.5730228    37.078112  0.035515433   0.04123257            3 
   88000    1.2094127   -6.6144761    37.741788   0.03574033  0.041233458            2 
   89000    1.2346592   -6.6698916    38.261581   0.03582545  0.041245119            2 
   90000    1.2196903   -6.6201098    38.874423  0.035994836   0.04125663            1 
   91000    1.2298402   -6.6058295     39.40561  0.036085723  0.041271918            2 
   92000    1.2116309   -6.5948727    40.102222  0.036324476  0.041294394            3 
   93000     1.253689   -6.6274316    40.432068  0.036229451  0.041315066            2 
   94000    1.2292591   -6.6129093    40.838374  0.036204232  0.041328573            6 
   95000    1.2422276   -6.6157829    41.348279   0.03627042  0.041341941            1 
   96000    1.2415495   -6.5975549    41.937433  0.036404022  0.041355115            5 
   97000    1.2278021   -6.6403814    42.381993  0.036410647  0.041366097            2 
   98000    1.2234949   -6.7035507     42.94356  0.036516632  0.041381137            2 
   99000    1.2142787   -6.6438571    43.426908  0.036554636  0.041398432            2 
  100000    1.2111602   -6.6015785    44.138832   0.03678236  0.041422402            2 
  101000     1.217794   -6.6477082    44.576469  0.036779264  0.041443075            2 
  102000     1.195831   -6.6053221    45.081747  0.036831493  0.041463807            1 
  103000    1.1844104      -6.6861    45.280217   0.03663448  0.041473035            3 
  104000    1.1786135   -6.6395943    45.710917  0.036627338  0.041477971            2 
  105000    1.2221454   -6.6335059    46.200303  0.036666907  0.041476029            3 
  106000    1.2276952   -6.6333769    46.464999  0.036529087  0.041469096            1 
  107000     1.211121   -6.6472461    46.943923  0.036560687  0.041453557            2 
  108000    1.2044977   -6.6249606    47.396551  0.036571413  0.041434037            3 
  109000    1.2256959   -6.6304065    48.078957  0.036757612  0.041420112            1 
  110000    1.2033876   -6.6425466    48.698739  0.036892984  0.041410147            2 
  111000      1.19391   -6.6529337    49.066705  0.036836865  0.041408049            2 
  112000     1.220639   -6.6732226    49.709983  0.036986594  0.041403005            2 
  113000    1.1960635   -6.6457638    50.037931  0.036901129  0.041397528            1 
  114000    1.2208139   -6.6728707    50.407222  0.036847385  0.041393228            5 
  115000    1.2087595   -6.5988426    51.038885  0.036984699  0.041390659            3 
  116000    1.2005359   -6.6320351    51.618571  0.037082307  0.041385471            2 
  117000    1.2182074   -6.6135674    52.176684   0.03716288  0.041382661            2 
  118000    1.1934484   -6.6456851    52.419999  0.037019773  0.041375236            3 
  119000     1.232277   -6.6904387    52.757518   0.03694504  0.041363871            1 
  120000    1.2021935   -6.6824102    53.525114  0.037170218  0.041359234            2 
  121000    1.2131962   -6.6292446     53.80584  0.037056363  0.041354051            1 
  122000    1.2167069   -6.6480186    54.514923  0.037236969  0.041350316            2 
  123000    1.2221696   -6.6377012    54.906206  0.037199327  0.041344767            1 
  124000    1.2183993   -6.6748435    55.233612  0.037119362  0.041335513            3 
  125000    1.2096758   -6.6461132    55.617679  0.037078453  0.041321369            1 
  126000    1.2121241   -6.6728097    55.922427  0.036985732  0.041299274            1 
  127000    1.1806475   -6.6200232    56.489042  0.037066301  0.041278669            2 
  128000     1.195493     -6.68644     56.99808  0.037108125  0.041260463            2 
  129000    1.2126826   -6.6921372     57.31534  0.037025413  0.041247583            2 
  130000    1.2116689   -6.7168626    57.855484  0.037086848  0.041229225            2 
  131000    1.2088892   -6.6758331    58.446807  0.037179903  0.041213003            2 
  132000    1.1979645    -6.662637    58.990899  0.037241729  0.041197558            3 
  133000    1.1868861   -6.6649334    59.537524  0.037304213  0.041178567            1 
  134000    1.1950906   -6.6491553    59.880966  0.037239407  0.041162581            3 
  135000    1.1688052   -6.6701932    60.325045  0.037237682   0.04114596            2 
  136000     1.200123   -6.6172062    61.161562  0.037476447  0.041131795            2 
  137000    1.1816846    -6.631633    61.432594  0.037367758  0.041118411            1 
  138000    1.2230471   -6.6121063    61.980994  0.037428137  0.041105956            1 
  139000    1.1766996   -6.6292576    62.604396  0.037532611  0.041094495            1 
  140000    1.2295686   -6.6518479    62.955513   0.03747352  0.041084402            1 
  141000    1.1982742   -6.7044489     63.25107  0.037382429  0.041076003            2 
  142000    1.1736507   -6.6920102    63.839271  0.037464361  0.041065918            2 
  143000    1.1997562   -6.7010445    64.193058  0.037408542  0.041050303            1 
  144000    1.2095467    -6.685808     64.51533   0.03733526  0.041032036            2 
  145000    1.2110227   -6.6290482    64.859501  0.037275575  0.041012333            2 
  146000    1.1884504    -6.655306    64.950657  0.037072293   0.04098522            1 
  147000    1.1945966   -6.6501861    65.126948  0.036920038  0.040951492            1 
  148000    1.1965874   -6.6589067    65.551219   0.03690947   0.04091405            4 
  149000    1.1873398   -6.6753683    65.940042  0.036879218  0.040873992            2 
  150000    1.1733037     -6.66454    66.223742  0.036790968  0.040830858            3 
  151000     1.198889   -6.6479579    66.658953  0.036787502  0.040787696            2 
  152000    1.1761666    -6.656214    67.545531  0.037031541  0.040747316            2 
  153000    1.1749776   -6.7044345    67.957401  0.037013835  0.040712824            4 
  154000    1.1729965    -6.689436    68.558782  0.037098908  0.040685891            4 
  155000    1.1846092   -6.6448782    69.262604  0.037237959  0.040663404            1 
  156000    1.2137998   -6.6782301    70.028084  0.037408165  0.040641933            1 
  157000    1.1957155   -6.6830539    70.645717  0.037497726  0.040625408            2 
  158000    1.1828272   -6.7077396    71.112244  0.037506458  0.040613139            3 
  159000    1.1927396   -6.7071848    71.700836  0.037579055  0.040603017            2 
  160000    1.1878082   -6.6618967     71.97689  0.037487963  0.040594375            3 
  161000    1.2000477   -6.6797267    72.535281  0.037544141  0.040584043            1 
  162000    1.1756936   -6.6722471    72.987432  0.037544975  0.040571687            1 
  163000    1.1797506    -6.676502    73.372468  0.037511486  0.040558516            1 
  164000    1.2009039   -6.6874715    73.901425  0.037551537  0.040545482            2 
  165000    1.1957377   -6.6709188    73.947654    0.0373473  0.040530942            2 
  166000    1.1940993   -6.6961734    74.203374   0.03725069  0.040509395            2 
  167000    1.1641336   -6.6582253    74.769916  0.037310337  0.040486243            1 
  168000    1.1788276   -6.6727013    75.354546  0.037378247  0.040464221            3 
  169000     1.197462   -6.7268835    75.744063  0.037349144  0.040445589            2 
  170000    1.2029067   -6.6444964    76.501138  0.037500558  0.040428186            3 
  171000     1.178624   -6.6980726    76.657756  0.037357581  0.040413947            5 
  172000    1.1845369   -6.6857684    77.192507   0.03739947  0.040398821            1 
  173000    1.1865143   -6.6724697     77.98404  0.037564567  0.040382495            3 
  174000    1.2080191   -6.6976165    78.304998  0.037502394  0.040366658            4 
  175000    1.1842409   -6.6608676    78.569022   0.03741382  0.040349494            1 
  176000    1.1772837   -6.7232373    78.757929  0.037290686  0.040331292            1 
  177000    1.1914065    -6.707903    79.116298  0.037248728  0.040310556            2 
  178000    1.2127458    -6.716203    79.847717   0.03738189  0.040290309            3 
  179000    1.1977784   -6.7128451    80.131533  0.037305183  0.040271815            4 
  180000    1.1833765    -6.691034    80.582984  0.037306937  0.040252528            4 
  181000    1.1991623   -6.6612576    81.159845  0.037366411  0.040230482            2 
  182000    1.1622454   -6.6854544    81.473575  0.037304751  0.040207489            2 
  183000    1.1608546    -6.726813    81.492298  0.037109425  0.040182138            1 
  184000     1.166795   -6.7142632    82.198444  0.037227556  0.040157901            4 
  185000    1.2196402   -6.6762873    82.679376  0.037242962   0.04013303            3 
  186000    1.1908399   -6.6693803    83.324821  0.037331909  0.040108689            1 
  187000    1.1895503   -6.7382764    83.733543  0.037314413  0.040086433            2 
  188000    1.1875419   -6.6817059    84.553013  0.037479172   0.04007004            4 
  189000    1.1743236   -6.7113746    84.919792  0.037442589  0.040056259            1 
  190000    1.1771442   -6.7105519    85.542054  0.037518445  0.040042698            2 
  191000     1.161826    -6.719169    85.828087  0.037446809  0.040029599            2 
  192000    1.1484364   -6.7177489    86.444378  0.037519261   0.04001669            1 
  193000    1.1644365   -6.7245729     86.67484   0.03742437  0.040005731            2 
  194000     1.167461   -6.7047397    87.237636  0.037473211  0.039991454            1 
  195000    1.1702474   -6.6817635    87.570946  0.037423481  0.039977736            4 
  196000    1.1828901   -6.6744765    88.274055  0.037531486   0.03996237            2 
  197000    1.1631795   -6.7108207    88.400833  0.037394599  0.039946953            3 
  198000     1.177816   -6.7048684    89.003132  0.037459231  0.039931662            1 
  199000    1.1597017   -6.7032025    89.090907   0.03730775  0.039915188            2 
  200000    1.1792877     -6.72054    89.481556  0.037283982   0.03989591            3 
  201000    1.1466804   -6.7009106    89.827444  0.037241892   0.03987476            3 
  202000    1.1830505   -6.7383559    89.838183  0.037061957  0.039852292            1 
  203000    1.1493705   -6.6941306    91.020151  0.037364594   0.03982994            2 
  204000    1.1614244   -6.7319453    90.828653  0.037103208  0.039808997            1 
  205000    1.1785579   -6.7177724    91.543333  0.037212737  0.039785078            4 
  206000    1.1842365   -6.6826433    91.843466  0.037153506  0.039762701            2 
  207000    1.1913607   -6.6903245    92.380891  0.037190375  0.039739612            3 
  208000    1.1836294   -6.7217827      92.4073  0.037022155  0.039714577            1 
  209000    1.1513728   -6.6778561    93.007924  0.037084499  0.039686831            1 
  210000    1.1866202   -6.7122723    93.261511  0.037008536  0.039660083            6 
  211000    1.1612663   -6.7236965    93.414208  0.036893447  0.039631356            1 
  212000    1.1649732   -6.6879166    93.725655  0.036841845  0.039602875            4 
  213000    1.1831792   -6.7414354    94.085677  0.036809733  0.039575343            1 
  214000    1.1561771   -6.7034736    94.795594  0.036914172   0.03954938            2 
  215000    1.1675023   -6.7110051    95.179115   0.03689113   0.03952261            2 
  216000    1.1363358   -6.7552088    95.632654  0.036895314  0.039495532            4 
  217000    1.1888982   -6.7599358    95.707446  0.036754011  0.039466433            2 
  218000      1.16645   -6.6963909    96.515901  0.036894458  0.039438719            5 
  219000    1.1861507   -6.7464934     96.33445  0.036656944  0.039411327            5 
  220000    1.1841509    -6.713399    97.367112  0.036881482  0.039382321            1 
  221000    1.1814673   -6.7332005    97.811575  0.036882193  0.039354594            3 
  222000    1.1375237   -6.7451977    97.784802  0.036706007   0.03932703            4 
  223000    1.1529264   -6.7013391    98.425624  0.036780876  0.039299174            1 
  224000    1.1829371   -6.7820642    98.406364   0.03660951  0.039270596            2 
  225000    1.1537935   -6.7443702    99.064809   0.03669067  0.039241733            1 
  226000    1.1694654   -6.7530769    99.185393  0.036572785  0.039212668            1 
  227000    1.1546325    -6.718155    99.580215  0.036556613  0.039182363            2 
  228000    1.1617386   -6.6764902    100.46602  0.036720038  0.039154455            1 
  229000    1.1871941   -6.7233523    100.68047  0.036637727  0.039125605            2 
  230000     1.168049   -6.7067974    101.30535  0.036704836  0.039096418            2 
  231000    1.1374363   -6.7086679    101.56525  0.036639699  0.039067936            3 
  232000    1.1778639   -6.7379616    101.99584  0.036636435  0.039040996            1 
  233000    1.1648224   -6.7149449    102.63857  0.036709073  0.039013597            3 
  234000    1.1475728   -6.7070319    103.12505  0.036725446  0.038988721            4 
  235000    1.1605514   -6.7321339    103.86478  0.036831483   0.03896724            2 
  236000    1.1598765   -6.7319736     104.3398  0.036843149   0.03894591            2 
  237000    1.1347553   -6.7251131    104.48964  0.036740379  0.038924211            2 
  238000    1.1631362   -6.7474291    105.27553   0.03686118  0.038901017            1 
  239000    1.1741361   -6.7172799    106.19986   0.03702924  0.038879716            1 
  240000    1.1512553   -6.7520756    106.07561  0.036831809  0.038858261            2 
  241000    1.1841603   -6.7208619    106.49509  0.036824028  0.038838309            2 
  242000    1.1558227   -6.7497884    107.04829  0.036862358  0.038818379            1 
  243000    1.1827256   -6.7441934    107.15635  0.036747718  0.038797668            1 
  244000    1.1518422    -6.746751    107.22401  0.036620223  0.038777187            2 
  245000    1.1661069   -6.7223194    108.11486  0.036773762  0.038756977            5 
  246000    1.1721525   -6.7591453    108.39063  0.036717692   0.03873725            2 
  247000    1.1381295   -6.7845737    108.62115   0.03664681  0.038717341            5 
  248000     1.146222   -6.7882189    108.87785    0.0365853  0.038696229            2 
  249000    1.1438806   -6.7533502    109.68733   0.03670928  0.038676817            1 
  250000     1.152201   -6.7932834    109.96875  0.036656248  0.038656357            2 
  251000    1.1733383   -6.7550605    110.57982  0.036713087   0.03863443            2 
  252000    1.1568416   -6.7973679    110.51054  0.036544491  0.038612209            1 
  253000     1.132708   -6.7693596    110.88224  0.036522478  0.038590171            1 
  254000    1.1603964   -6.7436109    111.62576  0.036622626  0.038567507            5 
  255000    1.1555598    -6.723331    111.94873  0.036584552  0.038545625            2 
  256000    1.1376874   -6.7036365    112.50372  0.036622304  0.038523144            1 
  257000    1.1480147   -6.7600497     112.7526  0.036560505  0.038502805            3 
  258000    1.1422788   -6.7564228    112.96961  0.036488891  0.038482174            3 
  259000    1.1729491   -6.7794923    113.49056  0.036515625  0.038461817            3 
  260000    1.1597384   -6.7656687    114.11872  0.036576513  0.038441372            1 
  261000    1.1338366   -6.7384812    114.17101  0.036453069  0.038420762            2 
  262000    1.1591476   -6.7359097    114.86114  0.036533443  0.038399076            4 
  263000    1.1538333     -6.77106    115.16005  0.036489243  0.038376282            2 
  264000    1.1638425   -6.7813553    115.47929  0.036451795  0.038353712            2 
  265000    1.1258165   -6.7705887    115.52783  0.036329505  0.038332099            1 
  266000    1.1319919   -6.7213801    116.53951  0.036509873  0.038311074            3 
  267000    1.1521831   -6.7799383    116.74979  0.036438761  0.038290512            5 
  268000    1.1413568   -6.7548015    117.01461   0.03638514   0.03826911            2 
  269000    1.1510193   -6.7172761     117.5849  0.036426548  0.038247756            2 
  270000    1.1424522   -6.7472684    117.82887  0.036366935   0.03822797            5 
  271000    1.1365476   -6.7614067    118.34886  0.036392639  0.038206902            1 
  272000    1.1520201   -6.7857189    118.53042  0.036314468  0.038184155            3 
  273000    1.1299671   -6.7453799    118.96451  0.036313953  0.038160638            2 
  274000     1.136827   -6.7612613     118.8844  0.036157055  0.038137396            3 
  275000    1.1472604   -6.7544053    119.83519  0.036313695  0.038115597            1 
  276000    1.1477543   -6.7393381    119.88929  0.036198458   0.03809216            2 
  277000    1.1188643   -6.8131744     120.0353  0.036111702   0.03806892            3 
  278000    1.1819784   -6.7782052    120.55861  0.036138671  0.038045442            2 
  279000    1.1342316   -6.8080944    120.95396  0.036127228   0.03802149            1 
  280000    1.1499262   -6.7646909    121.52956  0.036169512  0.037998536            2 
  281000    1.1600578   -6.7779905    122.19246  0.036237383  0.037977113            4 
  282000    1.1426632   -6.7710867    122.17069   0.03610245  0.037955597            2 
  283000    1.1452777   -6.7523926    122.83193  0.036169592  0.037933373            2 
  284000    1.1539489   -6.7762169    122.99165  0.036089098  0.037910581            2 
  285000    1.1417657   -6.8094858    123.21258  0.036027071   0.03788786            2 
  286000    1.1625284   -6.7769685    123.61886  0.036019483  0.037863289            1 
  287000     1.131035   -6.8114814    123.79024   0.03594374  0.037839633            2 
  288000    1.1429178   -6.7837527     124.4144  0.035999538  0.037816135            1 
  289000    1.1452352   -6.7583174    125.40387  0.036160284  0.037793117            4 
  290000    1.1369943   -6.7437366    125.56032  0.036080551  0.037771942            3 
  291000    1.1516871   -6.7927545    126.01768  0.036087536  0.037751584            3 
  292000    1.1301415    -6.811031    125.89852  0.035929944  0.037730453            4 
  293000    1.1314263   -6.7833483    126.43483  0.035959851  0.037708664            3 
  294000     1.152903   -6.7548133    127.27361  0.036075286  0.037687087            2 
  295000    1.1223558   -6.7821745    127.06886  0.035895158  0.037665314            2 
  296000    1.1338227      -6.8057    128.18359  0.036087722   0.03764295            3 
  297000    1.1544969   -6.8406999    128.58287  0.036078246  0.037621264            1 
  298000    1.1473314   -6.7923258    128.61968  0.035967471  0.037600555            3 
  299000    1.1386792   -6.7730334     129.8775  0.036197743  0.037580325            2 
  300000    1.1205976    -6.799852    129.49282  0.035970228  0.037561313            2 
  301000    1.1244759   -6.8091719    129.81406  0.035939663  0.037541551            5 
  302000    1.1301867   -6.7928915    130.11932   0.03590489  0.037522302            5 
  303000    1.1424818   -6.7953404    131.24009  0.036094634  0.037501452            2 
  304000    1.1248992   -6.7841987    130.98199  0.035905151  0.037481888            3 
  305000    1.1329668   -6.8060773    131.45113  0.035915608    0.0374615            2 
  306000    1.1657787    -6.764335    131.93801  0.035930829  0.037440918            2 
  307000    1.1350841   -6.8185516    132.34474  0.035924195  0.037420747            5 
  308000    1.1308655   -6.8098201    132.69866  0.035903317  0.037400976            2 
  309000    1.1024658   -6.8185253    133.16899  0.035913968  0.037381595            2 
  310000    1.1274242   -6.7960601    133.84304  0.035979312  0.037363198            2 
  311000     1.146375   -6.8207052    133.76845  0.035843636  0.037344003            2 
  312000    1.1075578   -6.8077308    133.85525  0.035751938  0.037323742            4 
  313000    1.1136097    -6.806579     135.3244  0.036028861  0.037305035            4 
  314000    1.1266565   -6.8285772    135.34623  0.035919913  0.037287836            1 
  315000    1.1282043   -6.7724673    136.23228  0.036040285  0.037271073            4 
  316000    1.1494326   -6.7985229    136.15087  0.035904765  0.037255056            1 
  317000     1.116713   -6.8259351    136.01818  0.035756619  0.037236958            1 
  318000    1.1134393   -6.7551498    136.98957  0.035898734  0.037218539            2 
  319000    1.1243002   -6.7858609    136.96325  0.035779323  0.037200569            2 
  320000    1.1146891   -6.8217572    137.30969  0.035757731  0.037182527            2 
  321000    1.1298318   -6.8491308    137.69073  0.035745256  0.037164031            1 
  322000     1.116402   -6.8145748    138.26743  0.035783496  0.037145725            3 
  323000    1.1218035   -6.7699473    139.17704   0.03590739  0.037128347            1 
  324000    1.1337772   -6.8414646    139.33123  0.035836222  0.037111065            2 
  325000    1.1280712   -6.8274901    139.63761  0.035804516  0.037095447            2 
  326000    1.1021483   -6.7842838    140.88976  0.036014764  0.037079551            2 
  327000    1.1124987   -6.7934885    140.78844  0.035878808  0.037065428            1 
  328000    1.1216125   -6.7682697     141.5695  0.035967861  0.037051082            1 
  329000    1.1314971   -6.8459932    142.19912  0.036018015  0.037037447            2 
  330000    1.1003018   -6.8235619    142.45853  0.035974377  0.037023923            1 
  331000    1.1328859   -6.8082097    142.00133  0.035750588    0.0370104            2 
  332000    1.1246739   -6.7712987    142.94027  0.035878582  0.036994964            2 
  333000    1.1324014   -6.7974606    143.14987  0.035823292  0.036979191            2 
  334000     1.108884    -6.807006    143.65051  0.035840945  0.036963224            3 
  335000    1.1215822   -6.8563877    143.20459  0.035623032  0.036946423            3 
  336000    1.1436416   -6.8306445    143.44337  0.035576232  0.036929144            2 
  337000    1.1111575   -6.8083649    144.47931  0.035726832  0.036912984            1 
  338000    1.1185644   -6.8206524     144.6402  0.035660799   0.03689651            3 
  339000    1.1275103   -6.8428169    144.83333  0.035603079  0.036880026            4 
  340000    1.1250479   -6.8105977    145.38844  0.035634421  0.036863717            1 
  341000    1.1077479   -6.7826769    145.99931  0.035679207  0.036847237            2 
  342000    1.0967186   -6.7744839    146.79251  0.035768154  0.036832022            2 
  343000     1.122561   -6.8264086    146.89655  0.035689153  0.036816682            3 
  344000     1.145918   -6.8628685    146.53233  0.035497172  0.036800717            2 
  345000    1.0891895   -6.8061689    147.16402  0.035546864  0.036784018            3 
  346000    1.1324116   -6.8066197    148.09861  0.035669222  0.036767035            6 
  347000     1.107133   -6.8776812     147.7918  0.035492748  0.036749517            3 
  348000    1.1172545   -6.8137114    148.77054  0.035625129  0.036733208            1 
  349000    1.1473007   -6.8368045    149.43449  0.035681589  0.036717958            2 
  350000    1.1215191   -6.8045143    149.77607  0.035660969  0.036702681            3 
  351000    1.1098476    -6.816778    150.18808   0.03565719   0.03668817            3 
  352000    1.0934225   -6.8175536    150.76911  0.035693444  0.036674486            1 
  353000    1.1132738   -6.7919903    150.98562  0.035643442  0.036660881            2 
  354000    1.1244917   -6.8450395    151.47757  0.035658562  0.036646663            2 
  355000    1.1119214   -6.7823102    151.84295  0.035643884  0.036632342            4 
  356000    1.1122616   -6.8412635    151.52713  0.035469833  0.036618196            3 
  357000    1.0928623   -6.8118684    152.49256  0.035595835  0.036603914            1 
  358000     1.132043   -6.8364731    152.54831  0.035509382  0.036590312            3 
  359000      1.12618   -6.8473908    152.95328  0.035504476  0.036576551            2 
  360000     1.114772   -6.8346122    153.69187  0.035576821  0.036563274            1 
  361000    1.1040426   -6.8138763    154.28206   0.03561451  0.036549649            1 
  362000    1.1078369   -6.8343256    154.28926  0.035517785  0.036535677            1 
  363000    1.1028007   -6.8499892    154.68347  0.035510438  0.036521138            1 
  364000    1.1403558   -6.8524494    154.64309  0.035403637  0.036506755            1 
  365000    1.1237397   -6.8628366    155.85948  0.035584357  0.036492649            1 
  366000      1.11397   -6.8659271    156.01737  0.035523082   0.03647954            3 
  367000    1.1046289   -6.8297655    156.90414  0.035627643   0.03646652            3 
  368000    1.1195401   -6.8546075    157.08051  0.035570766   0.03645357            1 
  369000    1.1426218   -6.8227967    157.23945  0.035510265   0.03643998            3 
  370000    1.1200321    -6.859028    157.38488  0.035447046  0.036426352            2 
  371000    1.0946202   -6.8706098    157.47989  0.035372842  0.036412086            1 
  372000    1.1210642   -6.8714699    157.86952  0.035365036  0.036397265            3 
  373000    1.0569493   -6.8484685    158.32228  0.035371376   0.03638266            2 
  374000     1.095257   -6.8619032    158.75922  0.035374158  0.036368374            2 
  375000    1.1124308   -6.8549481    158.81662  0.035292583  0.036353191            1 
  376000    1.1109957   -6.8541439    158.94742  0.035227708  0.036336663            2 
  377000    1.0939019   -6.8701689     159.6247  0.035283974  0.036320569            3 
  378000    1.0866572   -6.8237221    159.47203  0.035156972  0.036304554            2 
  379000    1.1134392   -6.8560321    160.41312  0.035271134  0.036288496            2 
  380000    1.1065107   -6.8538798    160.31038  0.035155786    0.0362721            2 
  381000    1.0969604   -6.8379481    160.67102  0.035142394  0.036255663            2 
  382000    1.1073514   -6.8406773    161.07881  0.035139356  0.036237936            1 
  383000    1.1034915   -6.8118139    161.50524  0.035140392  0.036220657            2 
  384000    1.0823776   -6.8332883    161.17276  0.034976728   0.03620248            1 
  385000     1.103038   -6.8864996    161.42511  0.034940499  0.036184309            2 
  386000    1.1029357   -6.8500395    161.92842  0.034958639  0.036164969            3 
  387000    1.1009589   -6.8368858    162.41415  0.034972901  0.036145904            4 
  388000    1.0670316    -6.858197    162.44268  0.034888892  0.036126668            2 
  389000    1.1135429   -6.8563564    162.39475  0.034788935  0.036107411            5 
  390000    1.0605489   -6.8507839    163.13418   0.03485773  0.036087516            2 
  391000    1.1096291   -6.8694864    163.25705  0.034794769  0.036067494            2 
  392000    1.1310441   -6.8604648    163.90347  0.034843425  0.036047426            3 
  393000    1.0995367    -6.885404    164.00059  0.034775358  0.036028378            3 
  394000    1.0958541    -6.835597    164.55618  0.034804607   0.03600827            3 
  395000     1.086047   -6.8455958    164.87778  0.034784341  0.035988493            2 
  396000    1.0981568    -6.906648    165.20327  0.034764998  0.035969007            2 
  397000    1.0809013    -6.882274    165.55082  0.034750383  0.035949287            2 
  398000    1.0933072   -6.8673913     166.1971  0.034798387  0.035930263            1 
  399000    1.0954403   -6.8614782    166.27049  0.034726503  0.035911391            2 
  400000    1.1133849   -6.8852436    166.83995  0.034758323  0.035892222            3 
  401000    1.1056239   -6.8333705    166.99038  0.034702906  0.035873151            1 
  402000    1.0905764   -6.8832562    166.90149  0.034598154  0.035852976            2 
  403000    1.1056729   -6.8201737    167.87062  0.034712701   0.03583262            3 
  404000    1.0718896   -6.9019302    166.81049  0.034408105  0.035812099            6 
  405000    1.0940894   -6.8432225    167.84115  0.034535216  0.035790893            2 
  406000    1.0871667   -6.8522868    168.15957   0.03451551   0.03576941            1 
  407000    1.1068315   -6.8796747    168.13596  0.034425873  0.035746981            1 
  408000    1.1025363   -6.8812845    168.73686  0.034464227  0.035725341            3 
  409000    1.0818091   -6.8485164     168.4681  0.034325204  0.035702834            2 
  410000     1.095327   -6.8650568    168.55061  0.034258254  0.035679805            2 
  411000    1.1073095   -6.8587371    169.01082  0.034268212  0.035656821            2 
  412000    1.1062523   -6.8895158    169.53445  0.034290948   0.03563436            3 
  413000    1.0834312   -6.8590047    170.49609  0.034401955  0.035612596            6 
  414000    1.0882664   -6.8818214    170.87862  0.034395857  0.035591465            5 
  415000    1.0975988   -6.8790774    170.71683  0.034280488  0.035570276            5 
  416000    1.0731691   -6.9114715    170.50892  0.034156434  0.035548829            2 
  417000    1.0872373   -6.8843862    171.64795  0.034302148  0.035527066            3 
  418000    1.0937608   -6.8593076    171.58313  0.034207163  0.035506295            2 
  419000    1.0902167   -6.9332723    171.74954   0.03415862  0.035484918            3 
  420000    1.0830781   -6.8371544    172.80052  0.034285818  0.035464037            3 
  421000    1.0780738   -6.8947395    172.92265  0.034228553  0.035442894            6 
  422000    1.0840226    -6.898404    173.23388  0.034208901  0.035421233            5 
  423000    1.1225406   -6.8878986    173.32787  0.034146546  0.035399943            3 
  424000    1.0771014   -6.8841828    174.01135  0.034200344  0.035378412            2 
  425000     1.085688   -6.8646474    174.53292  0.034222142  0.035357344            2 
  426000    1.0979152   -6.8813724    174.05137  0.034047607  0.035336077            2 
  427000    1.0900892   -6.8735613    174.66357  0.034087347  0.035314484            2 
  428000    1.0872656    -6.901403    175.03405  0.034079838  0.035293321            2 
  429000    1.0615113   -6.9308358    175.47715  0.034086471  0.035272209            2 
  430000    1.0656862   -6.8891904    175.26841  0.033966745  0.035250408            2 
  431000    1.0571316   -6.9155298    175.67116  0.033965808  0.035228305            2 
  432000    1.0811973    -6.882886    176.12606  0.033974934  0.035205693            3 
  433000    1.0708747   -6.8941474    176.38217  0.033945761  0.035183144            4 
  434000     1.091147   -6.8748058    176.81577  0.033950801  0.035160425            6 
  435000    1.0445734   -6.9009449    176.84017  0.033877428  0.035137518            2 
  436000    1.0826419   -6.9162725    176.78481  0.033789146  0.035114879            2 
  437000    1.0661717   -6.9007123          177   0.03375286  0.035092116            2 
  438000    1.0992653   -6.9094718    177.57968  0.033786087  0.035069346            3 
  439000    1.1101296    -6.880215    178.38856  0.033862673  0.035046096            2 
  440000    1.0510222   -6.9055717    177.59436  0.033635295  0.035022776            2 
  441000    1.0793131   -6.9081962    178.77562  0.033782241  0.034998992            5 
  442000    1.0519851   -6.8895341    178.77529  0.033705748  0.034975387            3 
  443000    1.0915615   -6.8315013    179.35851  0.033739374  0.034952287            1 
  444000    1.0718678   -6.8966902    178.85139  0.033568204  0.034928869            3 
  445000    1.0893389   -6.8637242    179.67031  0.033646125  0.034905364            4 
  446000    1.1058897   -6.9176114    179.70236  0.033576674  0.034882024            4 
  447000    1.0973721   -6.8939609    180.09791    0.0335753  0.034859362            3 
  448000    1.0680091   -6.9131479    180.40608  0.033557679  0.034836169            4 
  449000    1.0712156   -6.8950207    180.63058  0.033524606  0.034812615            2 
  450000    1.0903057   -6.9185311    180.99703  0.033517969  0.034789796            2 
  451000     1.095648   -6.8511766    182.17327  0.033660989  0.034767274            3 
  452000    1.0654266   -6.9060196     181.8971    0.0335356  0.034744403            2 
  453000    1.0603882   -6.9167769    181.44901  0.033379141  0.034720373            2 
  454000    1.0620482   -6.8834199    181.91818  0.033391736  0.034695982            3 
  455000    1.0779917   -6.8551089    181.98997  0.033331497  0.034671273            3 
  456000    1.0918482   -6.9194722    182.47794  0.033347576  0.034646299            3 
  457000    1.0880498   -6.9528822    181.65409  0.033124379   0.03462021            3 
  458000    1.0629889    -6.931427     181.9447  0.033104931  0.034593793            3 
  459000    1.0362291   -6.9088558    182.24775  0.033087826  0.034567046            4 
  460000    1.0610593   -6.9294465    182.41251  0.033045745  0.034540479            5 
  461000     1.066992   -6.9056197    182.69884  0.033025821  0.034513573            2 
  462000      1.05037   -6.9206621    183.25419  0.033054508  0.034487145            3 
  463000    1.0757303   -6.9177194    183.34783  0.032999969  0.034460716            3 
  464000    1.0878814   -6.9451194    183.58147   0.03297081  0.034433329            2 
  465000    1.0498522   -6.9191586    183.96648  0.032968904  0.034406339            7 
  466000    1.0741756    -6.931727    183.69099   0.03284889  0.034379527            3 
  467000    1.0567862   -6.9081638    184.35826   0.03289762  0.034352664            4 
  468000    1.0646976   -6.9498188    184.77936  0.032902307  0.034325694            2 
  469000    1.0732675    -6.903568    185.10829  0.032890598  0.034299668            2 
  470000    1.0848476   -6.9035465    185.96991  0.032973388  0.034274485            2 
  471000    1.0798982   -6.9340595    185.76136  0.032866483  0.034249166            3 
  472000    1.0670245   -6.9191505    186.66884  0.032957069  0.034223292            1 
  473000    1.0577036   -6.9292824     186.6671  0.032887086  0.034198875            2 
  474000    1.0677689    -6.948129    187.11223  0.032895962  0.034173659            2 
  475000    1.0611619   -6.9248417    187.41772  0.032880302  0.034148528            2 
  476000    1.0678141   -6.9498342    186.81893  0.032706395  0.034123029            6 
  477000    1.0462896    -6.953474    187.32592    0.0327264  0.034096999            1 
  478000     1.033754   -6.9503201    188.01837  0.032778656  0.034071199            1 
  479000    1.0663062   -6.9330845    188.25363  0.032751154  0.034046135            2 
  480000    1.0567098   -6.9012234    188.66179  0.032753783  0.034021136            1 
  481000    1.0702381   -6.9080896    189.21336  0.032781247  0.033996526            2 
  482000    1.0507291   -6.9537683    189.13727  0.032700081   0.03397177            2 
  483000    1.0513846   -6.9459076    189.85308   0.03275588  0.033947081            5 
  484000    1.0549524   -6.9335307    190.25676  0.032757707  0.033922958            3 
  485000    1.0525971   -6.9458299    190.15092  0.032671979  0.033899001            2 
  486000    1.0492798   -6.9238475    190.62916  0.032686755  0.033874161            3 
  487000    1.0476893   -6.9350118    190.66247  0.032625336  0.033848945            1 
  488000    1.0541517   -7.0009249    190.17153  0.032474647  0.033824334            2 
  489000    1.0636656   -6.8978312    191.34669  0.032608502  0.033799581            2 
  490000    1.0580322   -6.9267923     192.4391  0.032727738  0.033775868            2 
  491000    1.0696414   -6.8966771    191.95674  0.032579216   0.03375266            2 
  492000    1.0528756   -6.9495952    192.48037  0.032601688  0.033728967            4 
  493000    1.0365278   -6.9250225    193.09498  0.032639449  0.033705771            2 
  494000    1.0710624   -6.9346039    192.71175   0.03250873  0.033682533            6 
  495000    1.0392736   -6.9388203    193.20678  0.032526393  0.033658861            1 
  496000    1.0793025   -6.9515815    193.25566  0.032469029  0.033635243            1 
  497000    1.0692545   -6.9572816     193.2985  0.032410881  0.033611474            3 
  498000    1.0501714   -6.9623526     194.1235  0.032483852  0.033587394            4 
  499000    1.0631068   -6.9772959    194.47516  0.032477481  0.033562956            5 
  500000    1.0536125   -6.9398792    193.75204  0.032292007  0.033538054            1 
  501000    1.0464448   -6.9469164    194.06479  0.032279572     0.033513            2 
  502000    1.0410104   -6.9596313    194.95232  0.032362604  0.033488711            2 
  503000    1.0704108   -6.9451452    194.91159  0.032291515  0.033464326            1 
  504000     1.052279   -6.9440317    194.88372  0.032222837   0.03343985            3 
  505000    1.0565813   -6.9658569     195.8274  0.032314752  0.033415352            2 
  506000    1.0548514   -6.9508755    195.54365  0.032204158  0.033391427            3 
  507000    1.0244977   -6.9552614    195.46094  0.032127045  0.033367262            3 
  508000    1.0516689   -6.9168296    196.81118  0.032285299  0.033343302            2 
  509000    1.0509671   -6.9503263    197.28615  0.032299631  0.033319624            2 
  510000     1.062188    -6.936452     197.0424  0.032196471  0.033296061            2 
  511000     1.037484   -6.9533797    197.63234  0.032229671  0.033272056            2 
  512000    1.0540617   -6.9683567    197.85113  0.032202332  0.033248699            3 
  513000    1.0459404    -6.974608    197.98236  0.032160877  0.033224906            2 
  514000    1.0473016   -6.9615607    197.68858  0.032050678  0.033201258            4 
  515000    1.0480324   -6.9826959    198.82937  0.032173038  0.033177426            2 
  516000    1.0573219   -6.9231556     198.8738  0.032117862  0.033154005            3 
  517000    1.0472682   -6.9863873    198.83801  0.032049969  0.033130221            2 
  518000    1.0506273    -6.982588    198.90831  0.031999406  0.033106383            1 
  519000    1.0390795   -6.9562474    199.41072  0.032018421  0.033082683            1 
  520000    1.0444085   -6.9271251    199.76379  0.032013428  0.033058569            2 
  521000    1.0256483   -6.9847183    199.43696  0.031899705  0.033034655            4 
  522000    1.0276049   -6.9381289    199.39623  0.031832092  0.033010022            2 
  523000    1.0415198   -6.9361622    200.53476  0.031952638  0.032985492            2 
  524000    1.0410144   -6.9666309    199.36401  0.031705472  0.032960376            3 
  525000     1.033106   -6.9488635    200.11202  0.031763813  0.032935528            6 
  526000    1.0664332   -6.9469866    200.71685  0.031799247  0.032910519            2 
  527000    1.0420148    -6.983079    200.67182  0.031731787  0.032886145            1 
  528000    1.0429403   -7.0052216    200.82293  0.031695538  0.032860747            1 
  529000     1.044584   -7.0156672    200.77468  0.031628022  0.032835457            3 
  530000    1.0348853   -6.9850873    201.33517  0.031656474  0.032810339            2 
  531000    1.0381483   -6.9714034    201.93119  0.031690395  0.032785623            3 
  532000    1.0426754   -7.0061336    202.31751  0.031691339  0.032760916            2 
  533000    1.0408409   -6.9523739    202.87123  0.031718454  0.032736837            4 
  534000    1.0580319   -6.9516761    203.03159  0.031684081  0.032712837            2 
  535000     1.037064   -7.0092937    202.98837  0.031618126  0.032689072            3 
  536000    1.0260739   -7.0056716      203.703  0.031670243  0.032665164            2 
  537000    1.0539923   -6.9563523    204.22883  0.031692866  0.032641648            3 
  538000    1.0331863   -6.9785854    204.64059  0.031697737   0.03261867            6 
  539000    1.0303442   -6.9745855    204.67098  0.031643628  0.032595409            3 
  540000    1.0397941   -6.9720002    205.27953  0.031678939  0.032571824            4 
  541000    1.0511208   -6.9700338    205.64312  0.031676389  0.032548863            2 
  542000    1.0321995   -6.9720051    206.52514  0.031753557  0.032526658            2 
  543000    1.0432644   -6.9910602    206.59814  0.031706283  0.032504769            3 
  544000    1.0403753   -6.9738293    207.18455  0.031737829  0.032483419            2 
  545000    1.0294782   -7.0433179    207.07196  0.031662379  0.032461581            2 
  546000     1.056927   -6.9722599    207.25693   0.03163262  0.032440061            3 
  547000    1.0429331    -6.977525      207.979  0.031684795  0.032418431            2 
  548000    1.0392592   -6.9746023    207.62537  0.031573201  0.032397015            3 
  549000    1.0332448    -6.989193    207.99055  0.031571122  0.032375331            3 
  550000     1.012563    -6.984866    207.94519  0.031506847  0.032353908            3 
  551000     1.040198   -6.9668204    209.06247  0.031618644  0.032332354            6 
  552000    1.0373508   -6.9738519      208.662  0.031500906  0.032310364            2 
  553000    1.0325228   -7.0148337    208.94047  0.031485906  0.032288287            3 
  554000    1.0196213   -6.9942792     209.3405  0.031489245  0.032266036            2 
  555000    1.0321861   -6.9753034    209.81361  0.031503546  0.032243972            1 
  556000     1.017639   -6.9721069    209.53145  0.031404593  0.032222074            1 
  557000     1.040171   -7.0035862    209.38255  0.031325934  0.032200129            4 
  558000    1.0443538   -7.0131111    209.78127  0.031329341  0.032178509            1 
  559000    1.0284306   -7.0076569    210.72213  0.031413555  0.032156788            3 
  560000    1.0416173    -6.976612    211.18699  0.031426636   0.03213512            2 
  561000    1.0162932   -6.9821733    210.74632  0.031305158  0.032113622            2 
  562000    1.0331019   -6.9949194    211.30576  0.031332408  0.032091632            1 
  563000    1.0163461   -7.0100982    210.86512  0.031211533  0.032069293            2 
  564000    1.0093787   -6.9978684    210.97382  0.031172255   0.03204673            2 
  565000    1.0465079   -6.9991781    211.16566  0.031145378   0.03202441            1 
  566000    1.0386623    -6.976481     212.0921  0.031226752  0.032002234            2 
  567000      1.01642   -6.9968243    212.32018    0.0312052  0.031980393            2 
  568000    1.0298528   -6.9979219    212.88316  0.031232858  0.031958963            3 
  569000    1.0232454    -7.009498    213.28277  0.031236493  0.031937374            1 
  570000    1.0306324   -7.0106794    213.35596  0.031192391   0.03191564            3 
  571000    1.0574627   -7.0200264    213.30206  0.031129897  0.031894031            1 
  572000    1.0461879   -6.9957647    213.50511  0.031105057  0.031872624            6 
  573000    1.0108963    -6.999118    213.97659  0.031119342  0.031851398            4 
  574000    1.0203929   -7.0167743    213.75916   0.03103356  0.031830078            2 
  575000    1.0002976   -6.9722318    214.90857  0.031146169  0.031809247            2 
  576000    1.0190016   -7.0466376    214.97952   0.03110236  0.031788641            3 
  577000    1.0153652   -7.0045361     215.4192  0.031111958  0.031767912            2 
  578000    1.0255846    -7.041879    215.31911  0.031043701  0.031747496            5 
  579000    1.0168156    -7.028072    215.42825  0.031005793  0.031726823            3 
  580000    1.0170804   -6.9866136    216.94803  0.031170694  0.031706147            1 
  581000    1.0402464   -7.0379719    216.29487   0.03102336  0.031686177            2 
  582000    1.0167992   -7.0541447    216.67039  0.031023824  0.031665959            4 
  583000    1.0241854    -7.014559     217.0482  0.031024614  0.031645505            4 
  584000    1.0301222   -7.0506774    217.01758   0.03096712  0.031625107           12 
  585000    1.0274343   -7.0484103    217.12389  0.030929329  0.031604752            2 
  586000   0.99719127   -7.0198847    218.01708  0.031003566  0.031584515            2 
  587000    1.0381046   -7.0213794    217.93763  0.030939471  0.031564549            1 
  588000    1.0272107   -7.0281295    218.94048  0.031028979  0.031545074            4 
  589000    1.0248565   -7.0181053     218.7817  0.030953834  0.031525802            3 
  590000    1.0222957   -7.0309438    218.80696  0.030904938  0.031505855            3 
  591000    1.0222002   -7.0161402    219.02574  0.030883494  0.031485368            3 
  592000    1.0279107   -7.0178189    219.24087  0.030861609  0.031464623            3 
  593000   0.97835894   -7.0491524    219.12911  0.030793861  0.031444217            2 
  594000    1.0311304   -7.0343206    219.63422  0.030812882  0.031423379            6 
  595000    1.0130931   -7.0061453    220.16148  0.030834942  0.031402678            3 
  596000    1.0059341   -7.0039959    220.17952  0.030785726  0.031382307            3 
  597000    1.0084902   -7.0059104    220.16938  0.030732745  0.031361364            3 
  598000    1.0367465   -7.0426339    220.74223   0.03076118   0.03134098            4 
  599000    1.0135036   -7.0551907    220.92041  0.030734615  0.031320575            2 
  600000    1.0229222   -7.0196753    220.97829  0.030691429  0.031300222            4 
  601000   0.99360224   -7.0179863    221.70833  0.030741588   0.03128024            2 
  602000    1.0148687   -6.9579585    222.73371  0.030832462  0.031260712            5 
  603000    1.0032753   -7.0481686    222.24154  0.030713314   0.03124128            8 
  604000    1.0078874   -7.0340063    222.69009   0.03072435  0.031221682            4 
  605000     1.019732   -7.0368275    222.18442  0.030603914  0.031202132            4 
  606000    1.0171502   -7.0428251    222.47527  0.030593409  0.031182527            1 
  607000   0.99366144   -7.0841415    222.77071  0.030583569  0.031162264            1 
  608000    1.0108548   -7.0452822    223.23427  0.030596803  0.031142313            4 
  609000    1.0199355   -7.0213204    223.93129  0.030641938  0.031122841            7 
  610000    1.0226754   -7.0588265    223.73758  0.030565243  0.031103449            2 
  611000    1.0068284   -7.0074401    224.64225  0.030638604  0.031084365            2 
  612000    1.0219384   -7.0326039    225.01945  0.030639904  0.031065174            2 
  613000   0.99998672   -7.0445185    224.61237   0.03053458  0.031045651            2 
  614000   0.99528208   -7.0413065      224.596  0.030482628  0.031025973            1 
  615000    1.0241115   -7.0215337    225.23619  0.030519809  0.031006025            3 
  616000   0.98502699   -6.9968374    224.45403  0.030364452  0.030986121            3 
  617000    1.0163759   -7.0580015    224.88702   0.03037372  0.030966025            2 
  618000   0.99578935   -7.0847889    225.11646   0.03035551  0.030945728            3 
  619000   0.98635563   -7.0363118    225.31594  0.030333325  0.030925406            3 
  620000    1.0193395   -7.0595181    226.05492  0.030383726  0.030905365            3 
  621000     1.010751   -7.0399225    226.22388  0.030357472  0.030885382            5 
  622000   0.98175155   -7.0606379    225.17975  0.030168777  0.030865205            5 
  623000    1.0175233   -7.0399703    226.34235  0.030275863   0.03084453            2 
  624000    1.0131245   -7.0514102    226.74597  0.030281246  0.030823805            2 
  625000   0.99237744   -7.0663672    226.76976  0.030235968  0.030803218            4 
  626000    1.0190506   -7.0322763    226.90446  0.030205599  0.030783008            3 
  627000   0.99306724   -7.0626076     227.4587  0.030231087  0.030762991            5 
  628000     0.993612   -7.0477784    227.83258  0.030232561  0.030742671            3 
  629000     1.015764   -7.0516817    227.96651   0.03020224  0.030722583            3 
  630000   0.99316192   -7.0500175    228.00889  0.030159907  0.030702846            2 
  631000    1.0158208    -7.098487    227.56307  0.030053231  0.030682521            3 
  632000    1.0021079   -7.0665791    227.94808  0.030056445  0.030661702            4 
  633000    1.0100539   -7.0502761    229.49758  0.030212952  0.030640962            2 
  634000    1.0170727   -7.0411263    227.76849  0.029938024  0.030620271            2 
  635000    1.0019563   -7.0693232     228.3601  0.029968517  0.030599311            2 
  636000     1.007964   -7.0702999    228.67323  0.029962426  0.030578421            2 
  637000   0.98476371   -7.0363614    228.95191  0.029951846  0.030557931            3 
  638000   0.99977865   -7.0913191    229.22686  0.029940812    0.0305373            3 
  639000    1.0185107     -7.02896    230.16403  0.030016175  0.030516495            2 
  640000    1.0025656   -7.0812848    229.60126  0.029895997  0.030495966            2 
  641000      1.00565   -7.0520226    230.59994  0.029979192  0.030475289            3 
  642000   0.99704805   -7.0994662    229.51561  0.029791745  0.030454653            3 
  643000    1.0077509   -7.1138435    230.73144  0.029902986  0.030434036            4 
  644000    1.0187219   -7.0679861    231.06812  0.029900119  0.030413325            3 
  645000    1.0147746    -7.082047    230.62495  0.029796506  0.030392688            2 
  646000    1.0164929   -7.0317337    231.29013  0.029836187   0.03037191            3 
  647000   0.99984513   -7.0760181    230.92528  0.029743081  0.030351443            7 
  648000   0.98874393   -7.0846639    231.71455  0.029798682  0.030331028            5 
  649000   0.99937059   -7.0603649    231.84532  0.029769558  0.030311031            2 
  650000    1.0193297   -7.1029528     232.9975  0.029871474  0.030290992            2 
  651000     0.993126   -7.0447998    232.69244  0.029786539  0.030271223            5 
  652000   0.98933219   -7.0927804    232.56397  0.029724433  0.030251101            3 
  653000    0.9941757   -7.0864185    232.70822  0.029697322  0.030231421            4 
  654000   0.98128833   -7.0641243    233.34663  0.029733261  0.030211623            3 
  655000   0.98823717   -7.0671444    233.66201  0.029727991  0.030191582            2 
  656000   0.99055543   -7.0449015    234.35806  0.029771095  0.030171562            4 
  657000   0.99548149   -7.0888617    233.57252  0.029626144  0.030151472            2 
  658000   0.97498831   -7.0701742    233.68227  0.029595019  0.030131359            5 
  659000   0.98264387   -7.0597527    234.11528  0.029604866   0.03011101            2 
  660000   0.98473963   -7.0843812    234.40391  0.029596454  0.030091222            2 
  661000   0.97746565   -7.0526874    235.10684  0.029640298  0.030071434            5 
  662000   0.97519107   -7.1114618    235.43708  0.029637094  0.030052066            4 
  663000   0.99295452   -7.0693078    235.49476  0.029599643  0.030032391            3 
  664000   0.98232703   -7.0866454    235.28315  0.029528508  0.030012656            4 
  665000   0.99645187   -7.0983227     235.9116  0.029562857   0.02999269            3 
  666000   0.96755995    -7.069913    236.68178  0.029614837  0.029973058            3 
  667000   0.99108197   -7.0910401    236.05087  0.029491613  0.029953946            3 
  668000   0.98187266   -7.1177292    236.78916  0.029539566  0.029934692            3 
  669000   0.98409459   -7.0793462    237.26207  0.029554319  0.029915516            2 
  670000   0.97829949   -7.0759541     238.0352  0.029606368  0.029896747            2 
  671000    0.9896457   -7.0682296    237.45352  0.029490005  0.029877995            2 
  672000   0.96446328   -7.0742521    238.44631  0.029569235  0.029859552            3 
  673000   0.98392969   -7.0781896    238.34173  0.029512349  0.029841159            2 
  674000   0.99006377   -7.0945795    238.28495  0.029461542  0.029822685            2 
  675000   0.97161507   -7.0974675    238.70079  0.029469233  0.029804299            2 
  676000    0.9779579   -7.0991457    239.56435  0.029532094  0.029785891            3 
  677000    0.9770633   -7.0754992    240.44996  0.029597484   0.02976793            4 
  678000   0.99027123   -7.0965013    239.27817  0.029409805  0.029750092            2 
  679000   0.99476459   -7.0871302    240.78153  0.029550998  0.029732006            2 
  680000   0.97736073   -7.0756353    240.38874  0.029459405  0.029713653            1 
  681000   0.97893553    -7.091915    240.75724  0.029461238  0.029695347            2 
  682000   0.95792329   -7.0734907    240.78461  0.029421384  0.029677085            2 
  683000   0.99408457   -7.0758121    241.37669  0.029450548   0.02965913            2 
  684000   0.98002628   -7.1023513    240.68303  0.029322981  0.029640965            3 
  685000   0.98330232   -7.1075176    241.53894  0.029384299  0.029622924            4 
  686000    1.0005379   -7.0868363    241.19047  0.029299134   0.02960475            4 
  687000   0.98223414   -7.1013314    242.24419  0.029384303  0.029586641            2 
  688000    0.9825607   -7.0986782    242.38789  0.029358999  0.029568766            2 
  689000   0.97310268   -7.1261731    241.54354  0.029214264  0.029550912            3 
  690000   0.99330164   -7.1371932    242.36297   0.02927089   0.02953272            3 
  691000   0.99716753   -7.1352635    242.67863  0.029266597  0.029514622            3 
  692000   0.96909756   -7.0965359    242.70092  0.029226989  0.029496919            2 
  693000   0.98708519   -7.1392326     243.4158  0.029270779  0.029479347            2 
  694000   0.97544322   -7.0910284    243.86435  0.029282462  0.029461659            2 
  695000   0.97437115   -7.1224353    243.76211  0.029228071  0.029443869            2 
  696000   0.98505155    -7.079328    244.56475  0.029282177  0.029426332            4 
  697000    0.9901671   -7.1377491    244.67353  0.029253172  0.029408644            7 
  698000    0.9742908   -7.1457521    244.36029  0.029173865  0.029390712            4 
  699000   0.99145646   -7.0951287    245.24288  0.029237349  0.029372883            3 
  700000    0.9579911   -7.1207682    244.67438  0.029127903  0.029355116            2 
  701000   0.97437143   -7.1048971    244.94796  0.029118873   0.02933727            2 
  702000    0.9704414   -7.1048703    245.47911  0.029140445  0.029319085            2 
  703000   0.95511249   -7.0963405    246.00947  0.029161862  0.029301291            2 
  704000   0.99086223   -7.1140489    244.81722  0.028979311  0.029283374           10 
  705000   0.97531058   -7.1226263    245.60649    0.0290315  0.029265479            2 
  706000   0.95237188   -7.1152068    245.82669   0.02901637  0.029247436            2 
  707000   0.98657718   -7.1278891    245.43908  0.028929641   0.02922952            3 
  708000   0.96001689   -7.1282152    246.11922  0.028968835   0.02921153            3 
  709000   0.94642015   -7.1653001    245.58142  0.028864765  0.029193147            3 
  710000     0.989189   -7.1557649    245.83844  0.028854277  0.029174595            2 
  711000    0.9838282   -7.1431311    245.60381  0.028786195  0.029156242            2 
  712000    0.9729586   -7.1169791    246.34741  0.028832796  0.029137543            4 
  713000   0.97808139   -7.1398019    246.33246   0.02879061  0.029118767            4 
  714000    0.9715837   -7.1132675    246.72758  0.028796403  0.029100404            2 
  715000   0.98103318   -7.1173449    246.93682  0.028780515  0.029081916            2 
  716000   0.97824196   -7.1353805    247.40672  0.028795009  0.029063454            3 
  717000   0.96412191   -7.1549394    247.56191  0.028772886  0.029044934            2 
  718000   0.98601277   -7.0991825    247.37119  0.028710676  0.029026717            3 
  719000   0.96716388   -7.1233006    247.51616  0.028687548  0.029008321            4 
  720000   0.96873658   -7.1379939    247.62762  0.028660604  0.028989557            3 
  721000   0.96900527    -7.140325    248.44118  0.028714885  0.028970698            2 
  722000    0.9713998   -7.1620143      247.216  0.028533703  0.028952063            2 
  723000   0.98857345   -7.1160032     248.8395  0.028681362   0.02893341            3 
  724000   0.97585932   -7.1313077    248.09678  0.028556259  0.028914857            3 
  725000   0.97285383   -7.1493984    248.47431  0.028560266  0.028896474            3 
  726000   0.97311758   -7.1322287    248.87601  0.028567036  0.028877955            2 
  727000    0.9630793   -7.1492888    248.72148  0.028510028  0.028859581            3 
  728000   0.96549035   -7.1682854    249.58247  0.028569422  0.028841048            2 
  729000   0.95457191   -7.1226372    250.16974  0.028597364  0.028822663            5 
  730000   0.98976984   -7.1646274    249.97425  0.028535873  0.028804293            8 
  731000   0.97527098   -7.1514713    250.13455  0.028515111  0.028785705            2 
  732000   0.96029529   -7.1156862    250.71009  0.028541677  0.028767427            1 
  733000   0.95912478   -7.1863949    250.27175  0.028452904  0.028748759            4 
  734000   0.96098264   -7.1696989     250.6586   0.02845806  0.028729999            4 
  735000   0.97639504   -7.1524908    250.19042  0.028366261  0.028711294            2 
  736000   0.93431438   -7.1160065    250.47255  0.028359664  0.028692674            2 
  737000   0.98027419   -7.1393665    250.27032  0.028298317  0.028673898            2 
  738000   0.95219956   -7.1439973    250.91445  0.028332707  0.028655068            2 
  739000   0.98584905   -7.1530348    251.22039  0.028328866  0.028636156            3 
  740000   0.96003062    -7.140741    251.18252  0.028286319  0.028617355            5 
  741000   0.98352617   -7.1673488    251.26338   0.02825724  0.028598569            2 
  742000   0.96605998   -7.1126373    252.12157   0.02831554  0.028579771            4 
  743000   0.96540245   -7.1679233    250.82958  0.028132524  0.028560992            2 
  744000   0.96783523   -7.1495542    251.45835  0.028165137   0.02854202           10 
  745000   0.97256125   -7.1798093    251.96368  0.028183856  0.028523193            3 
  746000    0.9452274     -7.12309    252.75121   0.02823405  0.028504262            6 
  747000   0.94205647   -7.1432918    252.75745  0.028196949   0.02848578            3 
  748000   0.97699075   -7.1252197    253.32126  0.028222066  0.028467405            3 
  749000   0.93270306   -7.1639832    253.44454  0.028198102  0.028448775            3 
  750000   0.93949675   -7.1392257    253.55244  0.028172493  0.028430225            3 
  751000   0.94761161   -7.1488078    253.50767  0.028130012  0.028411848            2 
  752000   0.95987569   -7.1278372    254.60836  0.028214579  0.028393775            2 
  753000   0.94711346   -7.1746154    254.38065  0.028151909  0.028375414            4 
  754000   0.97010842   -7.1903158    253.75876   0.02804584  0.028356892            2 
  755000   0.93689884    -7.170155    254.12841  0.028049494  0.028338372            2 
  756000   0.94416277   -7.1756545    254.91411  0.028098997  0.028319966            2 
  757000   0.95430511   -7.1570631    254.69928  0.028038229   0.02830132            2 
  758000   0.95348065   -7.1896812    254.57841  0.027987952  0.028282788            5 
  759000   0.95669804   -7.1241229    255.16551  0.028015537  0.028264194            5 
  760000    0.9393588    -7.140932    254.59522  0.027916143  0.028245593            1 
  761000   0.96714752   -7.1923036    254.64546  0.027884961  0.028226931            4 
  762000   0.94759098   -7.1855726    254.99009  0.027886055  0.028208264            3 
  763000   0.94409955   -7.1741041    255.69707  0.027926723  0.028189552            3 
  764000   0.93994464   -7.1820166     255.7717  0.027898309   0.02817087            3 
  765000   0.94988062   -7.1502523    256.35741  0.027925644  0.028152381            4 
  766000   0.94202714   -7.1557246    256.00544  0.027850896  0.028133886            4 
  767000   0.95870536     -7.17902    256.08378  0.027823096  0.028115238            2 
  768000   0.94258321   -7.2109835    256.60905  0.027843864  0.028096668            3 
  769000   0.93299638   -7.2008011    257.28796  0.027881227  0.028078009            4 
  770000   0.94690811   -7.1822858    257.14836  0.027829909  0.028059728            6 
  771000   0.95195572   -7.1927783    256.68174  0.027743379  0.028041583            2 
  772000    0.9355854   -7.1779153    257.59621  0.027806153  0.028023496            6 
  773000   0.94086492   -7.1908164    257.67846  0.027779049  0.028005361            2 
  774000   0.95385869   -7.1912637    258.02368  0.027780327  0.027986931            2 
  775000   0.94072665   -7.1749476    257.84035  0.027724769  0.027968476            2 
  776000    0.9505218   -7.1677373    258.21656  0.027729442  0.027950271            3 
  777000   0.92875865   -7.2004196    257.84274  0.027653662  0.027932087            3 
  778000    0.9381986    -7.144918    258.44854  0.027683005  0.027913741            2 
  779000   0.94908812   -7.1991493    258.59652  0.027663299  0.027895346            2 
  780000   0.95201477   -7.1901059    258.74589  0.027643792  0.027876973            3 
  781000   0.93707497   -7.2079246    259.10042  0.027646225  0.027858744            4 
  782000   0.93770095   -7.2034307    258.29835    0.0275254  0.027840353            2 
  783000   0.93738132   -7.1758392    258.90687  0.027555009  0.027821674            3 
  784000   0.94417544   -7.1473035    260.03866  0.027640163  0.027803319            3 
  785000    0.9529766   -7.1311177    260.01362  0.027602295  0.027785133            3 
  786000   0.92742337   -7.1705411    259.65191  0.027528828  0.027766948            2 
  787000   0.96339738   -7.2160062    259.48607  0.027476288  0.027748293            3 
  788000   0.94121524   -7.1720199    259.83818  0.027478657  0.027729629            2 
  789000   0.92450864   -7.1951483    259.90562  0.027450953   0.02771103            3 
  790000   0.93699192   -7.1919651    259.87835  0.027413328  0.027692325            3 
  791000   0.93936623   -7.2041822    260.46048      0.02744  0.027673695            2 
  792000   0.92536781   -7.1982914    260.87828  0.027449313  0.027655047            5 
  793000     0.932126    -7.153867    261.44755  0.027474522  0.027636701            5 
  794000   0.92777187   -7.1797815    260.74505  0.027366189  0.027618334            5 
  795000   0.94377251   -7.1924265    260.56786  0.027313192  0.027599788            6 
  796000   0.94789533   -7.2214015    260.83158  0.027306489  0.027581125            4 
  797000    0.9472112   -7.2250762    261.58365  0.027350863  0.027562442            3 
  798000   0.93936125   -7.2155731    261.45537  0.027303192  0.027543679            2 
  799000   0.92649908   -7.1873369    261.96541  0.027322216  0.027524925            2 
  800000   0.92601221   -7.1928849    262.08826  0.027300861  0.027506423            4 
  801000   0.95082218   -7.1917768    261.36438  0.027191467  0.027487827            3 
  802000   0.94783363    -7.217732    262.33496  0.027258412  0.027469145            3 
  803000   0.93480923   -7.2222758    261.82238  0.027171273  0.027450333            4 
  804000   0.93179162   -7.2047271    261.88924  0.027144407  0.027431544            2 
  805000   0.93991921    -7.206829    262.50729  0.027174668  0.027412831            5 
  806000   0.93047283   -7.1578163    263.00702   0.02719262  0.027394375            4 
  807000   0.91802015   -7.2151636    262.67622  0.027124765  0.027375909            3 
  808000   0.94114687   -7.2031136     263.0995   0.02713485  0.027357363            3 
  809000   0.91702335   -7.1934102    263.51625  0.027144237   0.02733882            3 
  810000   0.92250512   -7.2111204    262.84829  0.027042005  0.027320167            3 
  811000   0.89238719   -7.2166584    263.21521  0.027046364  0.027301513            4 
  812000   0.92773917   -7.1882398    263.58724  0.027051236  0.027282825            3 
  813000   0.94326656   -7.1762162     264.2322  0.027084071  0.027264313            4 
  814000   0.90007109   -7.2025526     263.9769  0.027024663  0.027245981            3 
  815000   0.94309374   -7.1885714    263.33525  0.026925894   0.02722739            9 
  816000   0.92795087   -7.2183331    264.27137  0.026988498  0.027208911            3 
  817000   0.94020991   -7.2031091    264.20839   0.02694904  0.027190535            5 
  818000   0.92081429   -7.2064702    264.67735  0.026963871   0.02717197            4 
  819000   0.92302459   -7.2312558    264.62258  0.026925374  0.027153266            2 
  820000   0.92848391   -7.2398525    264.98526  0.026929397  0.027134557            2 
  821000   0.92360878   -7.2007928    264.90881  0.026888836  0.027116033            9 
  822000   0.92394841   -7.2500764    265.18954  0.026884584  0.027097468            4 
  823000   0.94999656   -7.2416376    264.80569   0.02681305  0.027078722            4 
  824000   0.93455441   -7.2147497    264.20641  0.026719904  0.027060055            2 
  825000   0.92720149   -7.1935262    265.59956  0.026828238   0.02704141            5 
  826000   0.94650259   -7.2123119    265.81764  0.026817761  0.027022759            2 
  827000   0.93296143   -7.1991419     265.5967  0.026763069  0.027004081            6 
  828000   0.92267191   -7.2212969    265.99902  0.026771238  0.026985591            6 
  829000    0.9204271   -7.2419422    265.69947  0.026708833  0.026967066            4 
  830000   0.93335563   -7.2112606     266.8144  0.026788595  0.026948513            4 
  831000   0.92505738   -7.2070432    266.50236  0.026725066  0.026930269            6 
  832000   0.92245028   -7.2111493    267.30626  0.026773464  0.026912171            2 
  833000   0.91444547   -7.1911234    267.49978  0.026760682  0.026894004            4 
  834000   0.92533105   -7.2042197    267.20813  0.026699454  0.026876142            8 
  835000   0.95566559   -7.2764507    267.30757  0.026677402  0.026857896            2 
  836000   0.94543941   -7.2332789    267.55345  0.026670001  0.026839383            2 
  837000   0.90744061    -7.223378    267.00388  0.026583421  0.026821013            3 
  838000   0.92927596   -7.2680516    267.53253  0.026604269  0.026802723            3 
  839000   0.93983511   -7.2619561    267.58897  0.026578166  0.026784412            3 
  840000   0.91578525   -7.2334056    267.86508  0.026573916  0.026766125            1 
  841000   0.93311714   -7.2673872    267.42619   0.02649883  0.026747689            3 
  842000   0.92049022   -7.2353655    267.93154  0.026517373  0.026729185            5 
  843000   0.91543051   -7.2328367    268.57609  0.026549633  0.026710984            4 
  844000   0.91497985   -7.2122351    268.33187  0.026494063  0.026692641            3 
  845000   0.92202021    -7.244249    268.64884  0.026493968  0.026674062            2 
  846000   0.91856687   -7.2540331    268.68793  0.026466502   0.02665555            2 
  847000    0.8988632   -7.2487764    268.53252  0.026419964  0.026637222            3 
  848000   0.90522576   -7.2688004    268.72611  0.026407833  0.026618581            3 
  849000   0.89916253   -7.2470337    269.42604  0.026445429  0.026600122            4 
  850000   0.94143336   -7.2416111    268.81906   0.02635481  0.026581894            5 
  851000   0.93233278   -7.2629578    269.32912  0.026373788  0.026563579            7 
  852000   0.90634358   -7.2467519    269.97089  0.026405603  0.026545441            3 
  853000   0.91854714   -7.2544489    269.69695  0.026347885  0.026527172            2 
  854000   0.93205122   -7.2134273    270.40248  0.026385878  0.026509306            2 
  855000   0.91396666   -7.2585641    269.97557  0.026313409  0.026491219            6 
  856000   0.90564627   -7.2396051    270.50214  0.026333931  0.026473199            4 
  857000   0.89294131   -7.2517078    270.55569   0.02630841  0.026455235            6 
  858000    0.9062721   -7.2179553    270.37161  0.026259869  0.026437359            6 
  859000   0.92093726    -7.227453     271.1096  0.026300892  0.026419392            3 
  860000   0.91581121    -7.273546    269.41433  0.026106039  0.026401346            6 
  861000   0.92596247    -7.238563    270.66336  0.026196608  0.026383057            2 
  862000   0.91864193   -7.2716201    270.95555  0.026194465    0.0263649            4 
  863000   0.91440965    -7.257506    271.06041  0.026174238  0.026346858            3 
  864000   0.89161227   -7.2736072    271.29845  0.026166903  0.026328761            2 
  865000   0.91851476   -7.2475664    272.21252  0.026224712  0.026310785            4 
  866000   0.90677475   -7.2745293    272.00901  0.026174847  0.026292806            4 
  867000   0.91795834   -7.2378165    272.42797  0.026184926  0.026274825            6 
  868000   0.90045579   -7.2684068    272.03484  0.026117016  0.026256804            4 
  869000   0.87062585   -7.2439722    271.90313  0.026074332  0.026238587            7 
  870000   0.90142896   -7.2915813    271.36213  0.025992541  0.026220412            3 
  871000   0.89928334   -7.2815025    272.51127  0.026072644  0.026202289            2 
  872000   0.90158406   -7.2862995    272.61582  0.026052735  0.026184246            5 
  873000    0.8925047   -7.2809051    272.64856  0.026026018   0.02616632            2 
  874000   0.92012044   -7.2550432    273.12967  0.026042112  0.026148469            7 
  875000   0.88586366   -7.2500545    273.32923  0.026031355  0.026130577            3 
  876000   0.90429398   -7.2842195    273.49615  0.026017518  0.026112672            5 
  877000   0.91343856   -7.2458194    272.94217  0.025935211  0.026095093            3 
  878000   0.89795152   -7.2753433    273.54429  0.025962822  0.026077278            3 
  879000   0.89678673   -7.2264917     274.2353  0.025998796  0.026059439            2 
  880000   0.91232046    -7.245646     273.4995  0.025899574  0.026041559            9 
  881000   0.89826103   -7.2475891    273.86042  0.025904315  0.026023666            3 
  882000   0.90874826   -7.2947839    274.19527  0.025906583  0.026005701            2 
  883000   0.90697778   -7.2558045    274.73565  0.025928242  0.025987728            4 
  884000   0.89895555   -7.2819734    275.34643  0.025956488  0.025969983            3 
  885000    0.9068012   -7.2802818    275.25247  0.025918312  0.025952287            3 
  886000   0.89962632   -7.2465826    275.11455  0.025876086   0.02593473            5 
  887000   0.88760073   -7.2673199    275.62433  0.025894807  0.025917143            5 
  888000   0.91414349   -7.2917088    274.94873  0.025802245  0.025899701            3 
  889000   0.89618845   -7.2749697    276.33917  0.025903559  0.025882311            3 
  890000   0.89077931   -7.2857322    276.03606  0.025846073  0.025865088            5 
  891000    0.9124863    -7.287295    276.28408  0.025840262  0.025847795            3 
  892000   0.88926345   -7.2576428    276.25493   0.02580857  0.025830628            2 
  893000   0.89460628   -7.2464742    276.76454  0.025827225  0.025813494            3 
  894000   0.87886412   -7.2617932    276.67111  0.025789626  0.025796303            3 
  895000   0.89809991   -7.2746933    276.72902  0.025766203  0.025779219            3 
  896000   0.90751086   -7.2967244    276.77904  0.025742098  0.025762122            3 
  897000    0.8844132   -7.3063928    276.91983   0.02572648  0.025744891            3 
  898000   0.90399196   -7.2744506    277.62122  0.025762919  0.025727692            2 
  899000   0.90152539   -7.3050304    276.81908  0.025659907  0.025710456            2 
  900000   0.89677827   -7.2806301    277.14944  0.025661985  0.025693304            3 
  901000   0.89063703   -7.2709766    277.57063  0.025672459  0.025676212            5 
  902000   0.89015147   -7.3059644    277.39388  0.025627668  0.025659048            4 
  903000    0.8843578   -7.2871302    277.57115  0.025615647  0.025641871            5 
  904000   0.89522204   -7.3361229    277.42802  0.025574116  0.025624569            5 
  905000   0.87886501   -7.2774321    278.55563  0.025649689  0.025607398            2 
  906000   0.88481021   -7.3113006    278.02637  0.025572698  0.025590295            5 
  907000   0.90341624   -7.2973664     277.2655  0.025474595  0.025572972            3 
  908000   0.89914712   -7.2687116    278.31511   0.02554287  0.025555566            5 
  909000   0.87954196   -7.3214373     278.0895  0.025494086  0.025538344            4 
  910000   0.89118193   -7.3203034    278.19138  0.025475401  0.025520972            2 
  911000   0.88906093   -7.3161733    278.59913  0.025484736  0.025503694            3 
  912000   0.88556872   -7.3170624     278.9117  0.025485353  0.025486579            4 
  913000   0.87885576   -7.2747536    279.58627  0.025519009  0.025469573            2 
  914000   0.87995544   -7.3000291    279.19479  0.025455397  0.025452641            3 
  915000    0.8705353     -7.29089      279.806  0.025483242  0.025435698            1 
  916000   0.88302524   -7.2731876    279.85297  0.025459695  0.025418997            2 
  917000   0.88199985    -7.295651    280.22041  0.025465322  0.025402294            2 
  918000   0.89198865   -7.3108153    279.93599  0.025411764  0.025385571            4 
  919000   0.88829209   -7.3217947    280.54649  0.025439471  0.025368546            3 
  920000   0.88582364   -7.3165034    280.82996  0.025437497  0.025351649            3 
  921000   0.86850929   -7.3244568    280.94351  0.025420151  0.025334834            4 
  922000   0.88643968    -7.289516    280.78343  0.025378112  0.025318125            3 
  923000   0.87665649   -7.3074715    280.55361  0.025329867  0.025301298            4 
  924000   0.87926747   -7.3252853    280.64519  0.025310713  0.025284532            4 
  925000   0.87141862   -7.3124447    281.36844  0.025348508  0.025267759            2 
  926000   0.88405301   -7.3083168    280.91541  0.025280364  0.025251083            5 
  927000   0.89167919   -7.3004944    280.97785  0.025258706  0.025234485            8 
  928000   0.87252474   -7.3059918    281.50414  0.025278748  0.025217539            2 
  929000   0.87736264    -7.269576    281.83395  0.025281122  0.025200869            2 
  930000   0.87201842     -7.27635    281.62079  0.025234837  0.025184115            2 
  931000   0.89317986   -7.3282766    281.30646  0.025179597  0.025167306            3 
  932000   0.88004157    -7.324098    282.42684  0.025252757  0.025150446            4 
  933000    0.9002678   -7.3321521    281.41114  0.025134971  0.025133441            4 
  934000   0.88644704   -7.3049895    281.89724  0.025151431  0.025116515           12 
  935000   0.88241545   -7.3092702    282.31618   0.02516187  0.025099587            5 
  936000   0.87901361   -7.2871626    282.78964   0.02517714  0.025082814            2 
  937000    0.8808946   -7.3089393    282.98316  0.025167481  0.025066022            1 
  938000   0.89331677   -7.3177053    282.33639  0.025083191  0.025049052            1 
  939000   0.87161096   -7.3389691    281.93624  0.025020965  0.025032125            3 
  940000   0.89057795    -7.290947    282.98354  0.025087194  0.025015291            5 
  941000   0.87137334   -7.3038699    282.88313  0.025051641  0.024998518            4 
  942000   0.88399219   -7.3155591    283.30656  0.025062505  0.024981813            4 
  943000   0.87446816    -7.354266    282.85282  0.024995831  0.024964885            3 
  944000   0.86821163   -7.3331166    282.89841  0.024973376  0.024947843            2 
  945000   0.86750398   -7.3569847    282.38641    0.0249018  0.024930778            7 
  946000   0.88263202    -7.324639    283.24826  0.024951397  0.024913927            4 
  947000    0.8894527   -7.3682593    282.69104  0.024876015  0.024897033            9 
  948000   0.88068768   -7.3415314    283.35011   0.02490771  0.024880051            6 
  949000   0.85071866   -7.3314676    284.04453  0.024942442  0.024863159            4 
  950000   0.87330087   -7.3676362    283.54512  0.024872379  0.024846209            3 
  951000    0.8764116   -7.3223864    284.11397  0.024896071  0.024829468            2 
  952000   0.87833604   -7.3484748    283.99139   0.02485919   0.02481259            4 
  953000   0.86587698   -7.3406216    284.97403   0.02491903  0.024795733            2 
  954000    0.8906572   -7.3169747    284.80359  0.024878022  0.024778967            6 
  955000   0.87933779   -7.3309816    284.73191  0.024845716  0.024762135            2 
  956000   0.85929793    -7.326966    284.77058  0.024823098  0.024745229            3 
  957000   0.88481202   -7.3162083    284.32434  0.024758302  0.024728314            4 
  958000   0.87130545   -7.3547382    284.89405  0.024782015  0.024711235            2 
  959000   0.87501614    -7.358815    284.36934  0.024710578  0.024694156            7 
  960000   0.87678865   -7.3331946    285.56317   0.02478847  0.024677193            3 
  961000   0.86366632   -7.3365612    284.64826  0.024683339  0.024660383            5 
  962000   0.86305542   -7.3376056    284.95032  0.024683846  0.024643582            3 
  963000   0.87933342   -7.3412788    284.78876  0.024644233   0.02462666            5 
  964000   0.85808956   -7.3635286    284.85081  0.024624033  0.024609605            2 
  965000   0.86434588   -7.3632416    285.01025  0.024612284  0.024592521            4 
  966000   0.87289736   -7.3226988    285.22777   0.02460557  0.024575438            2 
  967000   0.86499998   -7.3560014    285.50557  0.024604065  0.024558349            4 
  968000   0.85387851   -7.3414578    285.86811  0.024609858  0.024541439            1 
  969000   0.85743994    -7.338479    285.85471  0.024583308  0.024524579            3 
  970000   0.87588011   -7.3561641    285.86989  0.024559269  0.024507706            4 
  971000   0.86762892   -7.3570707     286.3386  0.024574202  0.024490951            6 
  972000   0.87248222   -7.3416619    286.26529  0.024542635  0.024474115            2 
  973000   0.86950211   -7.3290535    286.64505  0.024549936   0.02445717            3 
  974000   0.87975171   -7.3296833    285.70352  0.024444175  0.024440324            3 
  975000   0.86826475   -7.3354377      285.935  0.024438889  0.024423357            4 
  976000   0.85403796   -7.3495468    286.62596  0.024472845  0.024406422            4 
  977000   0.88636322   -7.3715585    286.26923  0.024417369  0.024389487            6 
  978000   0.87376594   -7.3570585    286.90937  0.024446947  0.024372558            1 
  979000   0.85548143   -7.3540501    287.52561   0.02447443   0.02435573            5 
  980000   0.85823504   -7.3467544     287.1435  0.024416964  0.024339079            2 
  981000   0.88602946   -7.4034682    287.08844  0.024387397  0.024322336            3 
  982000   0.86646051   -7.3484391    287.51292  0.024398584  0.024305579            3 
  983000   0.86242114    -7.387201    287.81066  0.024399005  0.024288842            2 
  984000   0.88274738   -7.3467095    288.57564  0.024438994  0.024272091            6 
  985000   0.86174936   -7.3613484    287.72854  0.024342516  0.024255338            3 
  986000   0.85494763   -7.3829583    287.59835  0.024306825  0.024238469            3 
  987000   0.86757071   -7.3767483    287.59643  0.024282035  0.024221654            3 
  988000    0.8519586   -7.3512123    288.13591  0.024302962  0.024204779            2 
  989000   0.85290483   -7.3643717     288.2755   0.02429015  0.024187979            3 
  990000   0.86975232   -7.3881129    287.46206  0.024197143  0.024171261            5 
  991000   0.85043432   -7.3681112    288.06998  0.024223846  0.024154496            3 
  992000   0.85014964   -7.3708694    288.27247  0.024216438  0.024137858            4 
  993000   0.86512349   -7.3660489    288.05998  0.024174218  0.024121316            2 
  994000   0.84856263   -7.3818932    288.08376  0.024151892  0.024104747            3 
  995000   0.85984456    -7.378738    288.67226  0.024176906  0.024088147            4 
  996000   0.85979433   -7.3848062    288.96959  0.024177509  0.024071593            5 
  997000   0.85828799   -7.3603033    288.83036  0.024141622  0.024055059            2 
  998000   0.84805629    -7.362978    288.89485  0.024122817  0.024038341            4 
  999000   0.84365079    -7.400974    288.77178  0.024088404  0.024021653            6 
 1000000   0.85655995   -7.3727179     288.8093  0.024067441  0.024004804            3 
 1001000   0.85882288   -7.3742732    289.34543  0.024088031  0.023988024            5 
 1002000   0.85078465   -7.3740121    289.94851  0.024114148   0.02397132            3 
 1003000   0.83319133   -7.3748875    290.19038  0.024110201  0.023954685            9 
 1004000   0.87134957   -7.4341186    289.13478  0.023998571  0.023938091           16 
 1005000   0.87376892   -7.3759585    290.05764  0.024051214  0.023921418            5 
 1006000   0.83513667   -7.4109506    289.60567  0.023989867  0.023904659            6 
 1007000   0.85985027   -7.3850621    289.76415  0.023979159  0.023887905            4 
 1008000    0.8741834   -7.3993982    289.32121  0.023918751  0.023871132            2 
 1009000   0.85602332   -7.4048748    289.61086  0.023918968  0.023854381            4 
 1010000    0.8472795   -7.4103103    289.65751  0.023899134  0.023837366            4 
 1011000   0.83592352   -7.4049621     289.6666  0.023876245  0.023820461            5 
 1012000   0.86549328   -7.3719193    289.99513  0.023879705  0.023803697            4 
 1013000   0.87275334   -7.4168057    289.99837  0.023856398  0.023786885            5 
 1014000   0.83877805   -7.3668053    289.77916  0.023814855  0.023770081            4 
 1015000   0.85650729   -7.4039264    289.57438   0.02377458  0.023753245            5 
 1016000   0.84108122   -7.3994601    289.94205  0.023781336  0.023736497            3 
 1017000   0.83519932   -7.3944034    290.38813  0.023794505  0.023719745            6 
 1018000   0.82756982   -7.4015395    290.53486  0.023783141  0.023703075            2 
 1019000   0.85776342   -7.3917192    291.15337  0.023810384  0.023686523            6 
 1020000   0.85633985   -7.4037934    291.08778  0.023781682  0.023669829            6 
 1021000   0.83228864   -7.3954808    291.34492  0.023779377  0.023653214            2 
 1022000   0.84626049   -7.3908156    291.01174  0.023728942  0.023636669            4 
 1023000   0.85042708   -7.3915347    291.67337  0.023759642  0.023620243            2 
 1024000   0.83391872   -7.4080075    291.12283  0.023691636  0.023603649            3 
 1025000   0.83900079   -7.3878927    291.62145  0.023709061  0.023587072            3 
 1026000   0.83764793   -7.4142093    291.81054  0.023701311  0.023570598            9 
 1027000   0.85396248   -7.4237896    291.62703  0.023663342  0.023554108            5 
 1028000    0.8308589   -7.3995616    291.78208  0.023652892  0.023537627            3 
 1029000   0.83492633   -7.3917372     292.1603  0.023660536   0.02352109            6 
 1030000   0.85526912   -7.4229038    292.25595  0.023645303  0.023504617            3 
 1031000   0.86582772   -7.4235064    292.09113  0.023609047  0.023488194            5 
 1032000   0.86485895   -7.4124686    292.16778   0.02359236  0.023471794            6 
 1033000   0.85488667   -7.4381868    292.13602  0.023566959  0.023455341           11 
 1034000   0.84172172   -7.4016801    292.46817  0.023570936  0.023439012            5 
 1035000   0.82771942   -7.3985191    293.16352  0.023604148   0.02342269            3 
 1036000    0.8543859   -7.3972854    293.14372  0.023579771  0.023406444            2 
 1037000   0.82661206   -7.3921969    292.34829  0.023493112  0.023390064            5 
 1038000   0.83564435   -7.4118289    292.24381  0.023462092  0.023373726            3 
 1039000   0.84478607   -7.4006794     293.3708  0.023529901  0.023357211            3 
 1040000   0.85109319   -7.3960504    293.97844  0.023555965  0.023340845            6 
 1041000    0.8460955    -7.395992    293.26348  0.023476103  0.023324515            2 
 1042000    0.8316883   -7.4030062    293.88792  0.023503512  0.023308244            2 
 1043000   0.82913324   -7.4145708    293.18318  0.023424671  0.023291877            5 
 1044000   0.83420788   -7.4319659    293.06438   0.02339275  0.023275493            6 
 1045000   0.83033811   -7.4475357    293.22425  0.023383114  0.023258983            2 
 1046000   0.82094123    -7.421754    293.02099  0.023344566  0.023242451            4 
 1047000   0.83192333   -7.4342443    293.58616  0.023367252  0.023225901            3 
 1048000   0.84338935    -7.389998    293.72773  0.023356213  0.023209535            2 
 1049000   0.83452106   -7.3948558     294.0324  0.023358151  0.023193217            3 
 1050000   0.84011538   -7.4363873     293.7822  0.023316048  0.023176827            4 
 1051000   0.84640781   -7.4253069    293.68903  0.023286476  0.023160388            5 
 1052000   0.83305863    -7.418811     294.1738  0.023302741  0.023144022            2 
 1053000   0.83432929   -7.4459693    293.11443  0.023196774  0.023127564            2 
 1054000   0.82129969    -7.427557    293.74458  0.023224587  0.023111034            3 
 1055000   0.83752297   -7.4044651     294.3982  0.023254202  0.023094605            8 
 1056000   0.85712418   -7.4225395    294.18814  0.023215604  0.023078398            3 
 1057000   0.84073037   -7.4158216    294.92424  0.023251675  0.023062198            3 
 1058000   0.81893492   -7.4073119     294.8861  0.023226693  0.023046053            4 
 1059000   0.82715998   -7.4358062    294.44763  0.023170257  0.023029865            3 
 1060000   0.84092151    -7.449344    294.27519  0.023134842   0.02301355            2 
 1061000   0.83068433   -7.4593316     294.5967   0.02313829  0.022997193            3 
 1062000   0.83079416   -7.4493504    294.69117  0.023123915  0.022980848            4 
 1063000   0.82374892   -7.4476342    294.76477  0.023107931  0.022964549            3 
 1064000   0.82637526   -7.4342818    294.42406  0.023059528  0.022948206            7 
 1065000   0.81712822   -7.4548708    293.90797  0.022997494  0.022931755            4 
 1066000   0.82330617   -7.4614893    294.60671  0.023030543  0.022915342            3 
 1067000   0.83029611   -7.4158447    295.11585  0.023048723  0.022899039            4 
 1068000     0.820906    -7.408989    295.04565  0.023021664  0.022882754            4 
 1069000    0.8190113   -7.4709805    294.87782  0.022987046  0.022866336            2 
 1070000   0.82847268   -7.4584908     295.3193  0.022999946  0.022849959            8 
 1071000   0.83180304   -7.4220363    295.79223  0.023015269  0.022833736            5 
 1072000   0.82229579   -7.3986482    296.32158  0.023034948  0.022817562            4 
 1073000   0.82933521   -7.4486958    295.43399  0.022944547    0.0228014            4 
 1074000   0.83139958   -7.4230427    295.19034  0.022904278  0.022785053            1 
 1075000   0.85104863   -7.4444685    295.01824  0.022869631  0.022768576            2 
 1076000   0.82297826   -7.4550263    295.86184  0.022913711  0.022752018           14 
 1077000   0.84322861   -7.4411458    295.89138  0.022894722  0.022735552            4 
 1078000   0.81578897   -7.5116048    295.99995  0.022881876   0.02271906            6 
 1079000   0.82840614   -7.4523055    295.35188  0.022810618  0.022702572            7 
 1080000    0.8243815   -7.4234393    295.35715  0.022789904  0.022686037            3 
 1081000   0.84890814   -7.4879303    295.61328  0.022788566  0.022669407            4 
 1082000   0.83058274   -7.4342002    294.97512  0.022718355  0.022652764            6 
 1083000   0.81031035   -7.4701975    294.57054  0.022666247  0.022636142            3 
 1084000    0.8084173   -7.4484525    295.56425  0.022721729  0.022619587            3 
 1085000   0.82531905   -7.4338489    295.25007  0.022676657  0.022603029            5 
 1086000   0.81636601   -7.4677295    296.00983  0.022714075  0.022586572            3 
 1087000   0.81598147   -7.4509811    296.20915   0.02270846  0.022570216            2 
 1088000   0.83509156   -7.4342227    297.17126  0.022761279  0.022553803            7 
 1089000   0.82733494   -7.4534478    295.68064  0.022626312  0.022537326            4 
 1090000   0.82622315   -7.4692405    296.78855  0.022690256  0.022520878            3 
 1091000   0.81978162   -7.4339089    296.62783  0.022657182  0.022504512            7 
 1092000   0.81992471   -7.4418137    296.97498  0.022662926  0.022488183            5 
 1093000   0.82846149   -7.4356418    296.77286  0.022626781  0.022472009            4 
 1094000   0.81868881   -7.4438153    297.34762   0.02264988  0.022455616            3 
 1095000   0.81755055    -7.491216    296.18068  0.022540387  0.022439213            4 
 1096000   0.80786693   -7.4511863    296.83821  0.022569815  0.022422797            4 
 1097000   0.82469939   -7.4544841    296.98457  0.022560359  0.022406508            5 
 1098000   0.81345861   -7.4748406    297.60072  0.022586576  0.022390109            3 
 1099000   0.82267597   -7.4763824    297.18469  0.022534478  0.022373715            2 
 1100000   0.79958631    -7.471854    297.02508    0.0225019  0.022357372            2 
 1101000   0.80957723   -7.4608173    297.09954  0.022487098  0.022340966            3 
 1102000   0.82983658   -7.4863608    296.89194  0.022450994  0.022324695            5 
 1103000   0.83739268   -7.4590262    296.99221  0.022438215  0.022308348            6 
 1104000    0.8287372   -7.4781794    297.23532  0.022436241  0.022292062            2 
 1105000    0.8078007   -7.4519138    297.70176  0.022451113  0.022275759            4 
 1106000   0.79272002   -7.4837972    297.21999  0.022394514  0.022259454            3 
 1107000   0.80406449   -7.4946734    297.58675  0.022401894  0.022243119            4 
 1108000   0.82386312   -7.4749525    297.50906  0.022375832  0.022226796            2 
 1109000   0.81690869   -7.5005943     297.9313  0.022387383  0.022210515            3 
 1110000    0.8076504   -7.4437654    298.76206  0.022429584  0.022194411            4 
 1111000     0.807042   -7.4712944     297.9399  0.022347727  0.022178246            6 
 1112000    0.8091531   -7.4926333    298.18981  0.022346359  0.022161964            4 
 1113000    0.8269889   -7.4782398    298.76628  0.022369443  0.022145783            2 
 1114000   0.81413432   -7.4670081    298.04153  0.022295147  0.022129592            5 
 1115000   0.80868466   -7.4954685    297.54164   0.02223779  0.022113501            6 
 1116000   0.80130499   -7.4715167    298.78354  0.022310599  0.022097414            4 
 1117000   0.79096438   -7.4785689    298.88353  0.022298085  0.022081418            4 
 1118000   0.80416546   -7.4582115    299.03134  0.022289157   0.02206542            3 
 1119000   0.82094904   -7.4882787    298.94235  0.022262611  0.022049485            7 
 1120000   0.80415454   -7.4934657    299.70103  0.022299184  0.022033578            3 
 1121000    0.8192882   -7.4795138    299.92084  0.022295632  0.022017723            7 
 1122000   0.81322074   -7.4956548    299.34832  0.022233238  0.022001799            4 
 1123000   0.80632576   -7.4843265     299.0731  0.022193017  0.021985939            3 
 1124000   0.80121333   -7.5104072    299.85111  0.022230954   0.02197006            6 
 1125000   0.80163663   -7.4850873    300.07157  0.022227524   0.02195419            3 
 1126000   0.78183147    -7.505524    300.02086   0.02220403  0.021938372            4 
 1127000   0.79892615   -7.4769732    300.23277  0.022199998  0.021922592            5 
 1128000   0.80115232   -7.4776518     300.4342  0.022195198  0.021906882            5 
 1129000   0.78708534   -7.4586636    300.43889  0.022175885  0.021891208            6 
 1130000   0.80504179   -7.5009517    301.29748  0.022219578   0.02187549            3 
 1131000   0.78444346   -7.4645483    300.81732  0.022164553  0.021859919            4 
 1132000    0.8107422   -7.5143982    300.45071  0.022117985  0.021844434            2 
 1133000   0.80447812    -7.499815    300.67577  0.022115017   0.02182888            4 
 1134000   0.80155643   -7.4929521    301.20924  0.022134717  0.021813379            3 
 1135000   0.79346243   -7.4949559    301.13279  0.022109603  0.021797941            8 
 1136000   0.79023754   -7.5101291    300.29431  0.022028632  0.021782388            3 
 1137000   0.80242206   -7.5083386      300.906   0.02205409  0.021766921            2 
 1138000   0.78320934    -7.483135     301.5622  0.022082762  0.021751505            4 
 1139000   0.79868474   -7.4698064    302.13943  0.022105607  0.021736261            7 
 1140000   0.80188093   -7.5268446    301.43842  0.022034972  0.021720908            6 
 1141000   0.80593385   -7.5120225    301.39322  0.022012359  0.021705481            7 
 1142000   0.78799518   -7.5010761    301.81781  0.022024067  0.021690085            5 
 1143000   0.81429134   -7.5058144    302.33245  0.022042319  0.021674854            5 
 1144000   0.79736567   -7.4924225    302.04533  0.022002137  0.021659641            4 
 1145000   0.80281987   -7.5207177    302.31316  0.022002414   0.02164445            5 
 1146000   0.79478659   -7.5036596     302.0067   0.02196093  0.021629211            4 
 1147000   0.79188314   -7.4997766    301.73233  0.021921849  0.021613934            5 
 1148000   0.78097331   -7.5203921    302.12798  0.021931474  0.021598578            2 
 1149000      0.78676   -7.5298136    301.54139  0.021869842  0.021583172            3 
 1150000   0.77846141   -7.5245753    301.45072  0.021844255  0.021567752            3 
 1151000   0.80020098   -7.5269921    302.37471  0.021892174  0.021552343            4 
 1152000   0.79781077   -7.5010987    301.76354   0.02182896  0.021536922            5 
 1153000   0.80076184   -7.5148029    302.02205  0.021828712  0.021521447            6 
 1154000   0.81249951   -7.5058903    302.40903  0.021837741  0.021506092            4 
 1155000   0.80558833   -7.4991024    302.65969  0.021836919  0.021490803            5 
 1156000    0.7909211   -7.5256433    302.81668  0.021829346  0.021475497            2 
 1157000   0.79763708   -7.5103764     302.9472  0.021819879  0.021460214            4 
 1158000   0.78367735   -7.5045498    302.21887  0.021748623   0.02144489            7 
 1159000   0.78875763    -7.527716    302.46619  0.021747641  0.021429566            4 
 1160000   0.78607441   -7.5166313    302.52583  0.021733178  0.021414285            6 
 1161000   0.79052229   -7.5181414    302.52858  0.021714656  0.021398966            5 
 1162000   0.79744397   -7.5465792    302.83659  0.021718057  0.021383576            3 
 1163000    0.7949844   -7.5313535    302.92649  0.021705825  0.021368199            2 
 1164000   0.80094855   -7.5345696    302.47989  0.021655204   0.02135292            2 
 1165000   0.80101784   -7.5407711    302.72465  0.021654124  0.021337522            6 
 1166000    0.7893168   -7.5341383    302.48256   0.02161825  0.021322067            5 
 1167000   0.80410111    -7.513092    302.57976  0.021606667  0.021306673            2 
 1168000   0.77774842   -7.5115292      303.957   0.02168643  0.021291238            4 
 1169000   0.80799544   -7.5153499    302.42211  0.021558463  0.021275772            2 
 1170000   0.79962512   -7.5087704    303.29078  0.021601908  0.021260314            5 
 1171000   0.78034854   -7.5122657    303.10102  0.021569956   0.02124481            4 
 1172000   0.78614661   -7.5233717    303.45858  0.021576975  0.021229373            5 
 1173000   0.78846281   -7.5313342    303.12774  0.021535077  0.021213996            7 
 1174000   0.79076386   -7.5266446    303.23655  0.021524457   0.02119854            2 
 1175000   0.77999438   -7.5595189    302.77513  0.021473414  0.021183101            3 
 1176000   0.78915054   -7.5415861    303.24402   0.02148838  0.021167697            3 
 1177000   0.77484285   -7.5230828    303.47482  0.021486464  0.021152236            2 
 1178000   0.78117095   -7.5444331    302.89817  0.021427432  0.021136793            3 
 1179000   0.79806075   -7.5331292    302.32622  0.021368831  0.021121332            3 
 1180000   0.78704842   -7.5268088    303.19223  0.021411881  0.021105911            5 
 1181000    0.7787853   -7.5210107    304.05327  0.021454507  0.021090525            5 
 1182000   0.79016656   -7.5218653    303.52289  0.021398963  0.021075204            3 
 1183000    0.7904201   -7.5417515    303.45655  0.021376201  0.021059856            3 
 1184000   0.77770622   -7.5466253    303.43454  0.021356598  0.021044585            5 
 1185000   0.77266465   -7.5277666    304.19758  0.021392235  0.021029271            4 
 1186000    0.7853947   -7.5576054    304.12799  0.021369308  0.021013941            5 
 1187000   0.79245152   -7.5197181    304.71431  0.021392467  0.020998748            9 
 1188000   0.77379647   -7.5838779    303.79795  0.021310182  0.020983441            6 
 1189000   0.79303772   -7.5678915    303.60117  0.021278467  0.020968174            5 
 1190000     0.765682   -7.5313069     304.2084  0.021303109  0.020952977            6 
 1191000   0.79137049    -7.508615    304.88005  0.021332217  0.020937791            6 
 1192000   0.79521945   -7.5320092    304.31426  0.021274766  0.020922671            7 
 1193000   0.76183158   -7.5408553    305.40905  0.021333407  0.020907512            4 
 1194000   0.78790692   -7.5323332    304.93608  0.021282529  0.020892423            4 
 1195000   0.79643339   -7.5520309     304.8278  0.021257168  0.020877248            3 
 1196000   0.79255731   -7.5832083    304.94744  0.021247731  0.020862098            4 
 1197000   0.77236506   -7.5256826    304.77997  0.021218321  0.020847012            3 
 1198000   0.79559974   -7.5289672    305.71833  0.021265883     0.020832            3 
 1199000   0.79444336   -7.5963586    304.30519   0.02114993  0.020817024            2 
 1200000   0.76845602   -7.5774969    304.87617  0.021171956  0.020802008            6 
 1201000   0.78126353   -7.5286379    305.91172  0.021226181  0.020787036            3 
 1202000   0.76239754   -7.5716187    305.11646  0.021153387  0.020772137            5 
 1203000   0.78040691   -7.5494906    305.52687  0.021164233  0.020757228            4 
 1204000   0.77949587   -7.5727223    305.53171   0.02114699  0.020742338            3 
 1205000   0.76756652   -7.5853915    306.38863  0.021188702  0.020727474            7 
 1206000   0.77270104   -7.5502231    305.85589   0.02113432  0.020712651            8 
 1207000   0.77663084   -7.5400438    306.26681  0.021145182  0.020697828            3 
 1208000   0.75918779   -7.5619297    306.21145  0.021123858   0.02068291            5 
 1209000   0.77326746    -7.560386    306.52134  0.021127746  0.020668022           12 
 1210000   0.77128018   -7.5637102    306.30454  0.021095354  0.020653264            3 
 1211000   0.76164752   -7.5580377    306.82841  0.021113984  0.020638459            3 
 1212000   0.75084642    -7.554981    306.43556  0.021069552  0.020623654            3 
 1213000    0.7779252   -7.5582404    306.48418  0.021055522  0.020608883            5 
 1214000   0.78697079   -7.5898305    306.21913  0.021019984  0.020594148            3 
 1215000   0.75524656   -7.6056993    305.94131  0.020983629  0.020579422            6 
 1216000   0.77739352   -7.5807052    306.38742  0.020996945    0.0205646            5 
 1217000   0.76687241   -7.5679234    306.44208  0.020983435  0.020549803            5 
 1218000   0.76231709   -7.5855883    306.42377  0.020964954  0.020534967            3 
 1219000   0.76598004   -7.5968856    306.83444   0.02097583  0.020520117            2 
 1220000   0.75100546   -7.6136132    306.45787  0.020932914  0.020505333            2 
 1221000   0.77472548   -7.5927706    305.91061   0.02087842  0.020490548            6 
 1222000   0.78073896    -7.589702    306.56226  0.020905773  0.020475798            7 
 1223000   0.75822984   -7.5673402    306.10212  0.020857326  0.020461014            9 
 1224000   0.75106075   -7.5850013    306.44734   0.02086379  0.020446237            7 
 1225000   0.77232158   -7.6035612    306.66397  0.020861494  0.020431429            4 
 1226000   0.76305414   -7.6230563    305.93086  0.020794648  0.020416579            5 
 1227000   0.76615314   -7.6109644    306.65904  0.020827156  0.020401675            4 
 1228000   0.75663584    -7.613808    307.07369  0.020838334  0.020386802            5 
 1229000   0.74934826   -7.5919544    306.53045  0.020784544  0.020371953            6 
 1230000   0.77422377   -7.6021742    306.77964  0.020784529  0.020357136            3 
 1231000   0.76625113   -7.6059569    306.40942  0.020742582   0.02034231            5 
 1232000   0.75537613   -7.5773603    306.62697  0.020740461  0.020327545            4 
 1233000   0.77059977   -7.5899923    306.54832  0.020718324   0.02031273            7 
 1234000    0.7511842   -7.5734572    306.87895  0.020723862  0.020297977            4 
 1235000   0.76586775   -7.5821394    307.31353  0.020736406  0.020283288            6 
 1236000   0.74546206   -7.5479564    307.57271  0.020737103  0.020268655            9 
 1237000   0.75749768   -7.5888799    306.92663  0.020676814  0.020254015            2 
 1238000   0.75442711   -7.5714171    307.96461  0.020729982  0.020239416            4 
 1239000   0.77563688   -7.5730597    308.15577  0.020726108  0.020224828            4 
 1240000   0.77865071    -7.575019    308.17884  0.020710944  0.020210377            4 
 1241000    0.7721805   -7.5934034    308.39088  0.020708493  0.020195958            5 
 1242000   0.76746972   -7.5712864     308.3406  0.020688446  0.020181642            3 
 1243000   0.76205479   -7.5845612    308.68122  0.020694638  0.020167265            8 
 1244000   0.75308456   -7.5904341    308.41313  0.020660043  0.020152871            6 
 1245000   0.74319483    -7.610763    308.27359  0.020634109  0.020138471            3 
 1246000   0.76851224   -7.6184471    308.56524  0.020637054  0.020124066            5 
 1247000   0.74552395   -7.5905696    308.26378   0.02060036  0.020109707            3 
 1248000   0.76428201   -7.6106169     308.2826   0.02058511  0.020095365            5 
 1249000   0.74420058   -7.6047341    309.09936  0.020623122  0.020080996            3 
 1250000   0.77554646   -7.5984814    308.84751  0.020589834  0.020066563           13 
 1251000   0.74984237   -7.6067186    308.15505  0.020527248    0.0200521            5 
 1252000   0.73306641   -7.6132664    308.25476  0.020517489  0.020037609            3 
 1253000    0.7810206   -7.5728821     308.4775  0.020515928   0.02002319            4 
 1254000   0.76214586   -7.6194493    308.64837  0.020510923   0.02000876            4 
 1255000   0.76662522   -7.5992447    308.80135  0.020504737  0.019994308            4 
 1256000   0.74137255   -7.6263687    309.04502  0.020504579  0.019979885            3 
 1257000   0.75097822   -7.6084105    308.39137  0.020444933  0.019965511            5 
 1258000   0.77328836   -7.5872749    308.44322  0.020432115  0.019951188            3 
 1259000   0.76569407   -7.6001907    309.16105    0.0204634  0.019936899            6 
 1260000   0.74873461   -7.5951151    308.44972  0.020400113  0.019922542            3 
 1261000   0.74740814   -7.6185678    309.71652  0.020467652  0.019908315            4 
 1262000   0.74135521   -7.6084365    309.92443  0.020465163  0.019894099            5 
 1263000   0.75024529   -7.6128349     308.9018  0.020381486  0.019879911            7 
 1264000   0.74245347   -7.6036232    309.32306  0.020393134  0.019865721            3 
 1265000   0.75137118   -7.6218357    309.11231   0.02036313   0.01985147            3 
 1266000   0.76120078   -7.6040608    309.17151  0.020350942  0.019837135            2 
 1267000   0.74179913   -7.6175536    309.08342  0.020329086  0.019822859            5 
 1268000   0.76351383   -7.6286921    309.34439  0.020330204   0.01980857            3 
 1269000   0.75207303   -7.6024865    309.04266  0.020294369  0.019794416            3 
 1270000   0.74570583   -7.6106087    309.70793  0.020322043  0.019780194            5 
 1271000   0.75599543    -7.609302    309.44958  0.020289115  0.019765956            5 
 1272000   0.72966522   -7.6228071    309.43116  0.020271957  0.019751672            4 
 1273000    0.7514294   -7.6133649    309.52367  0.020262089  0.019737346            6 
 1274000   0.74944211   -7.6173097    309.51511  0.020245625  0.019723033            3 
 1275000   0.74309065   -7.6399843    309.20495  0.020209474  0.019708653            5 
 1276000   0.74617183   -7.6328773    308.83419  0.020169422  0.019694283            4 
 1277000   0.74191694   -7.6225384     309.3761  0.020188991  0.019679916            3 
 1278000    0.7308224   -7.6308366    309.94631  0.020210375   0.01966563            2 
 1279000   0.74194058   -7.6262127    309.06026  0.020136842  0.019651232            4 
 1280000   0.75822622   -7.6348855    309.12627  0.020125408  0.019636913            3 
 1281000   0.76095837   -7.6516211    309.13067  0.020109984  0.019622561            3 
 1282000   0.74621729   -7.6573113    309.21703  0.020099911  0.019608227            4 
 1283000   0.72898136   -7.6381933    309.07946  0.020075309  0.019593837           11 
 1284000   0.74589744   -7.6242242    309.63771  0.020095906   0.01957948            4 
 1285000   0.74558724   -7.6473391    309.30955  0.020058985  0.019565086           14 
 1286000   0.73184896   -7.6604485    309.43262  0.020051362   0.01955075            3 
 1287000   0.74491767   -7.6488806    310.00193  0.020072645  0.019536425            8 
 1288000   0.73687057   -7.6517938    309.37696  0.020016625  0.019522036            6 
 1289000   0.74098163   -7.6400596    309.93055  0.020036886  0.019507707            6 
 1290000   0.73511109   -7.6471267      309.296  0.019980362  0.019493414            6 
 1291000   0.73789151   -7.6603852    309.95001  0.020007101  0.019479125            3 
 1292000    0.7428478   -7.6350836    309.51772  0.019963733  0.019464828            2 
 1293000   0.73270125    -7.655901    309.69681  0.019959835  0.019450548            3 
 1294000    0.7477813   -7.6420074    310.07785   0.01996895  0.019436363            9 
 1295000   0.73233414    -7.665159    310.27911  0.019966481  0.019422146            6 
 1296000   0.74064224   -7.6373213    310.31629  0.019953465  0.019407879            5 
 1297000   0.71060859   -7.6690222    310.06289    0.0199218  0.019393579            3 
 1298000   0.74102787    -7.650336    309.46022  0.019867759  0.019379337            3 
 1299000   0.75097899   -7.6412018     309.9541  0.019884148  0.019365055            3 
 1300000    0.7188833   -7.6580632    310.60864   0.01991081  0.019350785            5 
 1301000   0.73268291   -7.6521206    310.06865  0.019860918  0.019336503            3 
 1302000   0.73619871   -7.6558219    309.76201  0.019826038  0.019322254            3 
 1303000   0.72966201   -7.6488369    310.06672  0.019830309  0.019308061            4 
 1304000   0.72978878   -7.6703412    310.89453  0.019868004  0.019293842            6 
 1305000   0.73525765   -7.6724046    310.25821  0.019812146  0.019279613            3 
 1306000   0.74591214   -7.6615983    309.83332  0.019769865  0.019265386            2 
 1307000   0.73200887   -7.6743819    309.35745  0.019724398  0.019251111            6 
 1308000   0.74594882   -7.6780075    309.44941  0.019715176  0.019236766            7 
 1309000   0.73450438    -7.694252    309.54368  0.019706117  0.019222399            5 
 1310000   0.73366737   -7.6975552    309.93086  0.019715703  0.019208082            6 
 1311000   0.72183576   -7.6773356    310.16169  0.019715337  0.019193839            3 
 1312000   0.72616982   -7.6793677    310.08196  0.019695247  0.019179569            2 
 1313000   0.72530747   -7.6580597    310.48932  0.019706101  0.019165387            6 
 1314000    0.7397684   -7.6926465    310.22431  0.019674296  0.019151197            4 
 1315000   0.73143752    -7.671742     310.3425  0.019666825  0.019137069            8 
 1316000   0.72302417   -7.6908713    310.98131  0.019692332  0.019122977            6 
 1317000   0.72808874   -7.6617257    311.16399  0.019688939  0.019108856            3 
 1318000   0.72321546    -7.692207    310.60138  0.019638428  0.019094788            8 
 1319000   0.72220907   -7.6851438    310.80455  0.019636375  0.019080638            6 
 1320000   0.72669015   -7.6917063    311.08077  0.019638937   0.01906659            4 
 1321000   0.72372482   -7.7177016    310.23422  0.019570668  0.019052509            3 
 1322000   0.71589294   -7.7246257    310.38763  0.019565534  0.019038375            3 
 1323000   0.72383845   -7.7171053    310.90965  0.019583626  0.019024186            6 
 1324000   0.73774987   -7.6892845     311.1395  0.019583302  0.019010055            7 
 1325000   0.71985227   -7.7027071    310.95977  0.019557219  0.018996003            3 
 1326000   0.73624603   -7.6763634    311.30473  0.019564148   0.01898197            2 
 1327000   0.73601595   -7.7029163    310.87035  0.019522127  0.018967911            6 
 1328000   0.72372303   -7.6717484    311.75705  0.019563068  0.018953968            5 
 1329000   0.73071944    -7.692166    310.80381  0.019488576  0.018939996            4 
 1330000   0.72508859   -7.6799598    311.78193  0.019535208  0.018926063            2 
 1331000   0.73144963   -7.6550934    311.72483  0.019516957  0.018912144            4 
 1332000   0.71909957   -7.6716487    312.01239  0.019520295  0.018898245            3 
 1333000    0.7290678   -7.6924064     311.3813  0.019466198  0.018884368            5 
 1334000   0.72313973      -7.7196    311.10563  0.019434384   0.01887042            8 
 1335000    0.7268232   -7.6968222    311.14203  0.019422099  0.018856479            3 
 1336000   0.73844631   -7.7006533    310.77654  0.019384764  0.018842519            6 
 1337000   0.72236415   -7.6859146     311.3902  0.019408514  0.018828595            5 
 1338000   0.71266721   -7.6555235    311.57938  0.019405791  0.018814716            3 
 1339000   0.72323912   -7.6579001    311.98822  0.019416743  0.018800845            5 
 1340000   0.72654578   -7.7004719    311.03312  0.019342855  0.018786982            6 
 1341000   0.72384963   -7.6924776    312.31508  0.019408096  0.018773179            3 
 1342000   0.71806174   -7.6737605    312.54946  0.019408188  0.018759365            5 
 1343000   0.70192982   -7.6955938    311.64459  0.019337589  0.018745558            4 
 1344000   0.71951282   -7.6834613    312.28511  0.019362916  0.018731754            9 
 1345000   0.72050635   -7.6795789    313.03531  0.019395001   0.01871804            4 
 1346000   0.70660755   -7.6798438     312.8451  0.019368815  0.018704376            4 
 1347000   0.72830308   -7.6583633    312.31255  0.019321489  0.018690679            5 
 1348000   0.71707888   -7.6886043    312.36474  0.019310382  0.018676973            6 
 1349000     0.709214    -7.696849    311.71723  0.019256068  0.018663301            4 
 1350000   0.70469072   -7.6793471    312.56968  0.019294425    0.0186496            6 
 1351000   0.72239399   -7.6754311    311.69931  0.019226457  0.018635892           10 
 1352000   0.72098247   -7.7093622    312.39702   0.01925524  0.018622167            7 
 1353000    0.7178747   -7.6865981    312.27552  0.019233525  0.018608455            4 
 1354000   0.72581113   -7.7195346    311.44617  0.019168277  0.018594729            6 
 1355000    0.7222531   -7.6758171    312.65405  0.019228417  0.018581039            5 
 1356000   0.70354127   -7.6901662    312.21974  0.019187545   0.01856736            5 
 1357000   0.71423411    -7.711917    312.09937  0.019166014  0.018553641           10 
 1358000   0.71386171   -7.6958481    312.64935   0.01918565   0.01853989            6 
 1359000   0.70957073   -7.6837287    312.17023  0.019142153  0.018526183            6 
 1360000   0.71232573   -7.7250318    312.55077  0.019151395  0.018512506            3 
 1361000   0.71908288   -7.7097426    312.91785    0.0191598  0.018498806            5 
 1362000     0.728079   -7.6850381    312.55738  0.019123677   0.01848516            3 
 1363000   0.70835796   -7.6813421    312.18625  0.019086956   0.01847151            3 
 1364000   0.70383879    -7.677503     313.0519  0.019125849  0.018457839            2 
 1365000   0.72626347   -7.7117663    312.35584  0.019069343  0.018444181            2 
 1366000   0.71207396   -7.6851345    312.32433  0.019053461  0.018430519            6 
 1367000   0.70474297   -7.6914125     312.5513  0.019053359   0.01841682            3 
 1368000   0.71933463   -7.7320633    313.04324  0.019069398  0.018403163            4 
 1369000   0.70918441   -7.6890068    312.27064  0.019008439  0.018389485            3 
 1370000   0.68646512   -7.7189891    312.33915  0.018998732  0.018375751            3 
 1371000    0.6975367   -7.7277206    311.43104  0.018929677  0.018361993            3 
 1372000   0.71064833   -7.7302516    312.05179  0.018953583   0.01834826            6 
 1373000   0.71478389    -7.738077     311.9284  0.018932289  0.018334464            5 
 1374000    0.7085336   -7.7205582    312.47678   0.01895177  0.018320682            3 
 1375000   0.71132575   -7.7518296    312.47257  0.018937731   0.01830691            6 
 1376000   0.70116629   -7.7525169    312.42904  0.018921333  0.018293138            3 
 1377000   0.69840796    -7.737338    312.26214  0.018897491  0.018279374            4 
 1378000   0.71327682   -7.7634399    312.07434   0.01887242  0.018265592            4 
 1379000   0.69582424   -7.7590815     311.9905  0.018853668  0.018251814            5 
 1380000   0.69749735    -7.734674    312.35473  0.018862001  0.018238053            2 
 1381000   0.72051465   -7.7415922    312.36999  0.018849263  0.018224298            3 
 1382000   0.70392105   -7.7364812    311.51866   0.01878429  0.018210531            5 
 1383000   0.70509182   -7.7450671    311.88514   0.01879279   0.01819676            3 
 1384000   0.69860315   -7.7093897    312.71399  0.018829118  0.018183077            4 
 1385000   0.72058343   -7.7516913    311.87124  0.018764816  0.018169389            8 
 1386000   0.69255829   -7.7340828    312.00587  0.018759372  0.018155697            3 
 1387000   0.69353352    -7.732194     311.8507  0.018736523  0.018142071            6 
 1388000   0.69047702   -7.7000841    312.28686  0.018749211  0.018128464            9 
 1389000   0.70430088    -7.729503    312.23592  0.018732657  0.018114832            3 
 1390000   0.70724582   -7.7459754    312.86805  0.018757077  0.018101172            4 
 1391000   0.70485505   -7.7052027    312.29107  0.018709026  0.018087521            3 
 1392000    0.6923043    -7.760561    312.14951  0.018687111  0.018073857            5 
 1393000   0.69577187   -7.7530195    311.96313  0.018662546  0.018060191            4 
 1394000    0.6929341   -7.7461153    311.68161  0.018632329  0.018046563            4 
 1395000   0.69719767   -7.7465667    312.07003  0.018642176  0.018032943            4 
 1396000   0.70231592   -7.7276042    311.83221  0.018614626  0.018019306            6 
 1397000    0.6936757   -7.7543483    312.57259  0.018645466  0.018005704            8 
 1398000   0.68988906   -7.7533337    312.63954   0.01863612  0.017992121            4 
 1399000    0.6921916    -7.740871    312.39234  0.018608074  0.017978571            6 
 1400000   0.70802327   -7.7470461    313.24159  0.018645333  0.017964982            3 
 1401000   0.69897481   -7.7598733    312.80591  0.018606109  0.017951412            4 
 1402000   0.69495494   -7.7433867    312.59248  0.018580152  0.017937858            4 
 1403000   0.69778858   -7.7215361    313.12368   0.01859846  0.017924371            4 
 1404000   0.68532609   -7.7476426    313.02736  0.018579497  0.017910872            5 
 1405000   0.69680608   -7.7369027    312.63072  0.018542747  0.017897353            3 
 1406000   0.68936584   -7.7326704    312.40598  0.018516239  0.017883819            2 
 1407000   0.68798421   -7.7610617    312.36166  0.018500454   0.01787029            5 
 1408000   0.67769082   -7.7433455    312.39146  0.018489078  0.017856782            4 
 1409000    0.6952989   -7.7614795    312.75113  0.018497228  0.017843286            5 
 1410000   0.69175473   -7.7697463    312.15896  0.018449111  0.017829793            4 
 1411000   0.68605387   -7.7496597    311.90672  0.018421139  0.017816282            4 
 1412000    0.6951597   -7.7644818     312.7997  0.018460795  0.017802819           10 
 1413000   0.69324384   -7.7673199    312.63029  0.018437738  0.017789356            4 
 1414000   0.70283456   -7.7585438    312.92287  0.018441942  0.017775843            8 
 1415000   0.69299911   -7.7710792    312.61544  0.018410803  0.017762386            5 
 1416000   0.68127143   -7.7747731    313.13134  0.018428163  0.017748857            2 
 1417000   0.68919498   -7.7552288    312.53104  0.018379854  0.017735371            4 
 1418000   0.69083176    -7.771749    312.84174  0.018385152   0.01772193           13 
 1419000   0.68838149   -7.7529626    312.27527  0.018338928  0.017708452            7 
 1420000   0.68226076   -7.7685521    312.41594  0.018334269  0.017694976            5 
 1421000    0.6853373   -7.7920717    312.62569  0.018333667  0.017681478           11 
 1422000   0.69934683    -7.781958    312.32586  0.018303203  0.017667972            4 
 1423000   0.68415762   -7.7676178    313.27926  0.018346173  0.017654507            5 
 1424000   0.68227889   -7.7574347    312.40422  0.018282082  0.017641053            4 
 1425000   0.68794649   -7.7721371    312.21938  0.018258443  0.017627597            6 
 1426000   0.65862201   -7.7686306    312.58269   0.01826687  0.017614104            5 
 1427000   0.67938617   -7.7607347    313.11078  0.018284909  0.017600632            8 
 1428000   0.68945125   -7.7703977    311.78161  0.018194538  0.017587132            4 
 1429000   0.68408853   -7.7897573    312.30482  0.018212317  0.017573597            5 
 1430000    0.6881262   -7.7829783    312.45225  0.018208173  0.017560056            6 
 1431000   0.69457219   -7.7714304    312.28915  0.018185951  0.017546528            6 
 1432000    0.6960273   -7.7741214    312.29784  0.018173757  0.017533047            8 
 1433000    0.6677074   -7.7688589    312.82644  0.018191814  0.017519625            4 
 1434000   0.66303554    -7.790175    312.23864   0.01814497  0.017506163            8 
 1435000   0.68832204   -7.7663608    312.54552  0.018150147  0.017492694            5 
 1436000    0.6794818   -7.7678574     313.3816  0.018186026  0.017479256            7 
 1437000   0.68646991   -7.7846554    312.52965  0.018123965  0.017465825           11 
 1438000   0.67670704   -7.7760813      311.988  0.018079972  0.017452351            6 
 1439000   0.68048886   -7.7704556    312.98505  0.018125148  0.017438898            9 
 1440000   0.69267081    -7.810149    312.27361  0.018071389  0.017425405            6 
 1441000   0.67330192   -7.7820421    311.92753  0.018038835   0.01741194            7 
 1442000   0.69295009   -7.7932725    312.33261  0.018049735  0.017398447            5 
 1443000   0.69651541   -7.8015278    312.15129  0.018026755  0.017384979            4 
 1444000   0.67384897    -7.796671    312.33037  0.018024606  0.017371564            3 
 1445000   0.69271753   -7.7809942    312.67211   0.01803184  0.017358158            6 
 1446000   0.67607733   -7.8220035    313.11112   0.01804467   0.01734474           10 
 1447000   0.68377669   -7.7935542    312.71682  0.018009492  0.017331411            3 
 1448000   0.66532753   -7.7867438    312.30335  0.017973259  0.017318066            3 
 1449000    0.6739858   -7.7783748     312.9108   0.01799579  0.017304751            3 
 1450000   0.66363382   -7.7759738    312.60137  0.017965596  0.017291417            6 
 1451000   0.69391298   -7.7796283    313.00876  0.017976611  0.017278141            2 
 1452000   0.67978751   -7.7757596    313.01298  0.017964473  0.017264859            4 
 1453000   0.66529431   -7.7904448    312.87699   0.01794431  0.017251569            7 
 1454000    0.6722233   -7.7983037    313.03527   0.01794104  0.017238305            5 
 1455000   0.66288861   -7.7623367    313.13595  0.017934476  0.017225043            5 
 1456000   0.65989554   -7.8249859    313.49193  0.017942533  0.017211792            9 
 1457000    0.6735741   -7.7783734    312.74817  0.017887679  0.017198553            6 
 1458000   0.68125378   -7.8061862    313.18421  0.017900332   0.01718533            3 
 1459000   0.66809706   -7.7811997    312.87796  0.017870571   0.01717213            3 
 1460000   0.67389273   -7.8099186    312.79005  0.017853313  0.017158925            3 
 1461000   0.66858063   -7.8121291    312.69528  0.017835688  0.017145697            5 
 1462000   0.68582362    -7.800636    313.05729  0.017844123  0.017132499            5 
 1463000   0.67432872    -7.805614     312.5711  0.017804232  0.017119288            2 
 1464000   0.66615435   -7.8033747    312.65949  0.017797102  0.017106099            6 
 1465000   0.68641053   -7.7968425    313.15715  0.017813262  0.017092921            5 
 1466000   0.65949132   -7.8068273    312.71669  0.017776074  0.017079698            3 
 1467000   0.66204251   -7.8120544     312.8328  0.017770552   0.01706648            6 
 1468000   0.66364372   -7.7999613     312.2425  0.017724938  0.017053265            6 
 1469000   0.66663781   -7.8085835    313.23657  0.017769263  0.017040015            4 
 1470000   0.66070426    -7.812331    312.84492  0.017734973  0.017026824            7 
 1471000   0.65976376   -7.7951871    312.45938  0.017701075  0.017013656           10 
 1472000   0.67210053   -7.8364256    312.50064  0.017691386  0.017000505            6 
 1473000   0.66432765   -7.8254005    312.22399  0.017663724   0.01698733            3 
 1474000   0.65266519    -7.822431    312.41903  0.017662768  0.016974179            3 
 1475000    0.6707907   -7.8028046    313.58162  0.017716476  0.016961037            8 
 1476000   0.66290796   -7.8308819    312.47983  0.017642267  0.016947913            3 
 1477000   0.66605575   -7.8261231     312.8726  0.017652482  0.016934797            5 
 1478000   0.65886861   -7.8172733    312.51496  0.017620375  0.016921665            4 
 1479000   0.67093323   -7.8255104     312.5761  0.017611906  0.016908521            4 
 1480000   0.66749045   -7.8329603    312.78171  0.017611583  0.016895389            6 
 1481000   0.66791486   -7.8238821    312.98312  0.017611024  0.016882224            8 
 1482000   0.66821687   -7.8321016    312.73406  0.017585136  0.016869104            5 
 1483000   0.65515949   -7.8332114    312.95398  0.017585636  0.016855952            6 
 1484000   0.67213291   -7.8253578    312.89549  0.017570502   0.01684282            4 
 1485000    0.6574801   -7.8214474    312.83881  0.017555489   0.01682967            4 
 1486000   0.66506895   -7.8226718    312.29326  0.017513081  0.016816534            4 
 1487000   0.67056372   -7.8125274    312.73866  0.017526264  0.016803432            6 
 1488000   0.67007508   -7.8453744    312.83157  0.017519689  0.016790358            3 
 1489000    0.6670956   -7.8149095    312.78366  0.017505242  0.016777278            5 
 1490000   0.65997282   -7.8426863    312.83025  0.017496099  0.016764232            4 
 1491000   0.65177853   -7.8298998    313.02843  0.017495441  0.016751187            4 
 1492000   0.65084827   -7.8263847    312.71886  0.017466424  0.016738136            6 
 1493000   0.65413098   -7.8290573    313.23157  0.017483343  0.016725106            6 
 1494000   0.65512093   -7.8152601    312.92527  0.017454555  0.016712106            4 
 1495000   0.64313197   -7.8277622    313.42802  0.017470904  0.016699082            6 
 1496000   0.65294573   -7.8628148    312.81485  0.017425069  0.016686076            7 
 1497000   0.64671479   -7.8594436    312.61662  0.017402395  0.016673051            4 
 1498000   0.65285852   -7.8484582    312.60108  0.017389913   0.01666001            4 
 1499000   0.64988155   -7.8419819    312.76793  0.017387588  0.016646977            7 
 1500000   0.65205767   -7.8434304    313.13886  0.017396603  0.016634019            8 
 1501000   0.65273793   -7.8537519    313.01707  0.017378252  0.016621077            4 
 1502000   0.65479688   -7.8385057    313.56521  0.017397093  0.016608107            6 
 1503000   0.64921855   -7.8422021    312.99263  0.017353772  0.016595204           22 
 1504000   0.66592937   -7.8501472    312.80993  0.017332111  0.016582344            9 
 1505000   0.66409632   -7.8174006    313.26581  0.017345836  0.016569452            6 
 1506000   0.65415968    -7.859567    312.74127  0.017305294  0.016556588           10 
 1507000   0.65706419   -7.8501576     312.8827  0.017301631  0.016543701            6 
 1508000   0.63848719   -7.8362695    312.89635  0.017290912  0.016530821           13 
 1509000   0.66018019   -7.8507936    312.85596  0.017277223  0.016517924           10 
 1510000   0.65454748   -7.8576447    312.60802  0.017252098  0.016505028           10 
 1511000   0.64997914   -7.8339862    312.15077  0.017215463  0.016492134           13 
 1512000   0.65572443   -7.8580951    312.61286  0.017229545  0.016479244           14 
 1513000   0.65028888   -7.8469466    312.91771  0.017234948  0.016466381           15 
 1514000    0.6548939   -7.8603852    312.45209  0.017197935   0.01645354            9 
 1515000   0.64965779   -7.8554755    312.86571  0.017209335  0.016440723            9 
 1516000   0.65344142   -7.8503655    312.87505  0.017198497  0.016427902            6 
 1517000   0.65545714   -7.8575424    313.10605  0.017199849  0.016415101            5 
 1518000   0.65868827   -7.8650849    313.30581  0.017199485   0.01640231            4 
 1519000   0.64700363   -7.8517378    313.05393  0.017174344  0.016389507            7 
 1520000   0.63884409   -7.8683364    312.91815    0.0171556  0.016376708            9 
 1521000   0.64052233   -7.8553061     312.0319  0.017095765  0.016363907           15 
 1522000   0.64436301   -7.8561588    313.01189  0.017138189  0.016351103            9 
 1523000   0.64456326   -7.8550862    312.78366  0.017114448  0.016338287            8 
 1524000   0.63849289   -7.8636593    312.57636  0.017091883  0.016325517           12 
 1525000   0.64453257   -7.8555801    313.46103  0.017129018  0.016312767            9 
 1526000    0.6496185   -7.8407625    312.42306  0.017061111  0.016300016            7 
 1527000   0.63997509   -7.8646432      312.506  0.017054464  0.016287277            9 
 1528000    0.6548354   -7.8718337    312.50984  0.017043512  0.016274576            4 
 1529000   0.65218656   -7.8895052    312.29645  0.017020735  0.016261866            5 
 1530000   0.62695207   -7.8598228    313.39899  0.017069662  0.016249189           10 
 1531000   0.65321681   -7.8636093    312.82138  0.017027073  0.016236473            5 
 1532000   0.65257885   -7.8747153    312.94639  0.017022758  0.016223771            5 
 1533000   0.63863222   -7.8606143    312.75147  0.017001058  0.016211032            8 
 1534000   0.64920972   -7.8660419    312.37275  0.016969402  0.016198292            4 
 1535000    0.6448154   -7.8794076    312.52139  0.016966416  0.016185559            4 
 1536000   0.64285189   -7.8771513    312.70428  0.016965293  0.016172849            7 
 1537000   0.64683691   -7.8871131    312.49369  0.016942837  0.016160138           18 
 1538000   0.64799037   -7.8650217    312.65623  0.016940628  0.016147426            4 
 1539000   0.63947649   -7.8660003    312.28238  0.016909377  0.016134755            4 
 1540000   0.64974519   -7.8875103    312.76854  0.016924705  0.016122068           12 
 1541000   0.63572351   -7.8653724    312.99216  0.016925815   0.01610936            3 
 1542000   0.62834846   -7.8724321    312.24256  0.016874328   0.01609669            7 
 1543000   0.63946795     -7.87815     312.8846  0.016898067  0.016084016            7 
 1544000   0.61349434   -7.8986729    312.38342  0.016860073  0.016071382            4 
 1545000   0.63394825   -7.8753373    313.31178  0.016899233  0.016058758            7 
 1546000   0.63570586    -7.888748    312.33802  0.016835814  0.016046155            6 
 1547000   0.64395422   -7.8817943     313.1304  0.016867615  0.016033543            6 
 1548000   0.64104333    -7.893169    313.23084  0.016862125  0.016020948            4 
 1549000   0.64017716   -7.8827004    312.89536  0.016833191  0.016008384            4 
 1550000   0.62244477    -7.881526    312.10315  0.016779739  0.015995814            6 
 1551000   0.64233173   -7.8908701     313.0747  0.016821121  0.015983235            6 
 1552000    0.6170049   -7.8740938    312.03813  0.016754625   0.01597068           10 
 1553000    0.6388641    -7.901023    313.02263  0.016796664  0.015958123            8 
 1554000    0.6330506   -7.8728759    312.54294  0.016760132  0.015945578            3 
 1555000    0.6386297    -7.893088    312.77911   0.01676201  0.015933002           11 
 1556000   0.61740909   -7.9058957    313.13377  0.016770232  0.015920455            6 
 1557000   0.62673863   -7.9258133    312.70633  0.016736583  0.015907898            6 
 1558000   0.63543362   -7.9025119    312.81749  0.016731787  0.015895368           16 
 1559000   0.63638947   -7.9065393    312.47892  0.016702957  0.015882826           14 
 1560000   0.61955903   -7.9004582    312.65499  0.016701655   0.01587028            4 
 1561000    0.6433628   -7.9007514    312.23438  0.016668502  0.015857742            3 
 1562000   0.63033172   -7.8806357    312.72584   0.01668405  0.015845219            6 
 1563000   0.63055339   -7.8896644    312.96033  0.016685878  0.015832726            4 
 1564000   0.62322318   -7.8973968    312.61665  0.016656897  0.015820258            6 
 1565000   0.63145104   -7.8989487    313.01581  0.016667509  0.015807758            6 
 1566000   0.63094309   -7.9198784    311.91981  0.016598543  0.015795286            7 
 1567000    0.6341807   -7.9004796    312.85717  0.016637799  0.015782842            4 
 1568000   0.61938572   -7.9100767    312.66411  0.016616928  0.015770409            4 
 1569000   0.62990862   -7.8761567    312.64174  0.016605149  0.015757967            5 
 1570000    0.6391136   -7.9160729    312.68269  0.016596746  0.015745567            6 
 1571000   0.62340547   -7.9123781    313.20262  0.016613761  0.015733171            4 
 1572000    0.6201176   -7.9077112    313.15382  0.016600605  0.015720788            6 
 1573000   0.62937507   -7.9293143    312.92413  0.016577884  0.015708389            4 
 1574000   0.62316343   -7.9232983    312.87915   0.01656497  0.015696041            5 
 1575000   0.62363925    -7.919201    312.51248  0.016535052  0.015683675            8 
 1576000    0.6249749   -7.9223282    312.41745  0.016519535  0.015671313            7 
 1577000   0.61704416   -7.9150511     312.3767  0.016506907   0.01565893            6 
 1578000   0.61105483   -7.9277453    312.75926  0.016516649   0.01564653            6 
 1579000   0.61623821   -7.9222972    312.55184  0.016495242  0.015634119            5 
 1580000   0.62046468   -7.9212603    313.20451  0.016519225  0.015621742            6 
 1581000    0.6197037    -7.898049    312.76838  0.016485789  0.015609382            6 
 1582000   0.63388322   -7.9179019    312.71508   0.01647256  0.015597044            7 
 1583000   0.62383524   -7.8924827    313.05139  0.016479859    0.0155847            5 
 1584000   0.61684794   -7.9071535    312.56176  0.016443695   0.01557238            8 
 1585000   0.62468358   -7.9200957    311.86515  0.016396696  0.015560057            4 
 1586000   0.61458362   -7.9319443     312.5163  0.016420571   0.01554776            8 
 1587000     0.623391    -7.913111    312.38976  0.016403579  0.015535431            4 
 1588000   0.60461333   -7.9174524    313.41151  0.016446868  0.015523148            5 
 1589000   0.63301809   -7.9065675    312.71668  0.016400078  0.015510907            6 
 1590000   0.61252959   -7.8764307    313.05607  0.016407551  0.015498683            5 
 1591000   0.63268613   -7.9280322    312.68113  0.016377599   0.01548645            3 
 1592000   0.61805843   -7.9053709    313.43146  0.016406588  0.015474246            4 
 1593000    0.6140211   -7.9325372    313.03922   0.01637577  0.015462069            2 
 1594000   0.61971555   -7.9175421     313.4444  0.016386679  0.015449891            3 
 1595000   0.61229514   -7.8922671     312.9943  0.016352889  0.015437687            5 
 1596000   0.61544329   -7.9378319     313.0865  0.016347457  0.015425506            4 
 1597000   0.60746161      -7.9317    312.02462  0.016281811  0.015413305            4 
 1598000    0.6115767   -7.9444708    312.47194  0.016294949  0.015401116            4 
 1599000   0.62282322   -7.9276616    313.03737  0.016314226  0.015388926           10 
 1600000   0.60461131   -7.9230973    312.77761  0.016290501  0.015376759            4 
 1601000   0.60604487   -7.9357563    312.93468  0.016288501  0.015364633            5 
 1602000   0.62286001   -7.9372807    312.88043  0.016275512  0.015352499            3 
 1603000    0.6033967   -7.9419213    312.66334  0.016254072  0.015340376            3 
 1604000   0.61841327   -7.9106333    313.21824  0.016272768  0.015328268            7 
 1605000   0.61593797   -7.9155233     313.0571  0.016254263  0.015316175            2 
 1606000    0.6028739   -7.9613732    313.15418  0.016249179  0.015304102            3 
 1607000    0.6018134   -7.9467309    312.56967  0.016208757  0.015291995            5 
 1608000   0.62357309   -7.9161734    312.27459  0.016183385  0.015279893            6 
 1609000   0.61867956   -7.9272748     312.5303   0.01618657  0.015267808            3 
 1610000   0.60616739   -7.9381106    311.98747   0.01614842  0.015255735            4 
 1611000   0.61553815    -7.965137     312.9853  0.016190012  0.015243644            5 
 1612000   0.61133621   -7.9420991    312.62589  0.016161388  0.015231588            3 
 1613000   0.60422547   -7.9426686    313.38737  0.016190709  0.015219559            6 
 1614000   0.60717969   -7.9638553    312.13672  0.016116105  0.015207542            7 
 1615000   0.59467399    -7.958547    311.98915  0.016098512  0.015195495           10 
 1616000   0.60874211   -7.9516017    312.03676  0.016091004  0.015183454            5 
 1617000   0.59862052   -7.9451641    313.09684  0.016135685  0.015171441            9 
 1618000   0.62285843   -7.9536293    313.28611  0.016135461  0.015159457           10 
 1619000   0.61280998   -7.9571664    312.16699  0.016067891  0.015147458            9 
 1620000   0.61520512   -7.9808783    312.75536  0.016088238  0.015135466            6 
 1621000   0.60599697   -7.9409003    312.84925   0.01608314  0.015123508            4 
 1622000   0.59920792   -7.9526371    312.66179  0.016063594  0.015111586            9 
 1623000   0.60994054   -7.9461836     313.2241  0.016082568  0.015099715            8 
 1624000   0.61278606   -7.9681066    313.06468  0.016064485  0.015087826            7 
 1625000   0.60600293   -7.9592907    312.57252   0.01602936  0.015075923            4 
 1626000   0.61173793    -7.926449    313.10298  0.016046688  0.015064027            5 
 1627000   0.60800824   -7.9492402    312.93198  0.016028067  0.015052161            2 
 1628000    0.6129527   -7.9629718    312.28644  0.015985178  0.015040286           12 
 1629000   0.60585088   -7.9461183    313.01281  0.016012524  0.015028428            4 
 1630000   0.61811702   -7.9570111    312.88686  0.015996261  0.015016548            3 
 1631000   0.59683565   -7.9396352    312.45668  0.015964474  0.015004706            6 
 1632000   0.62000997   -7.9537406    312.62895  0.015963488   0.01499287            4 
 1633000   0.60995673   -7.9717936    312.67505  0.015956065  0.014981059            6 
 1634000   0.59601901   -7.9562153    312.72339  0.015948765  0.014969233            6 
 1635000    0.5982293   -7.9606459    312.71542  0.015938605  0.014957427            5 
 1636000   0.59745175   -7.9635184    312.66473   0.01592628  0.014945646            4 
 1637000   0.59690124   -7.9576757    313.21343  0.015944483  0.014933874            6 
 1638000   0.60081306   -7.9700003    313.45752  0.015947167  0.014922107            6 
 1639000   0.60082579   -7.9788781    312.43476  0.015885436  0.014910367            4 
 1640000   0.60514513    -7.962562    313.37113   0.01592333  0.014898648            8 
 1641000   0.58150529   -7.9740385    313.13302  0.015901534  0.014886916            4 
 1642000   0.60595019   -7.9650978    312.98865  0.015884523  0.014875197            7 
 1643000   0.60030705   -7.9600461    313.02771  0.015876837  0.014863487            6 
 1644000   0.60179011   -7.9761293    313.08827  0.015870249  0.014851797            5 
 1645000   0.59611049   -7.9747161    312.56306  0.015833995  0.014840091            5 
 1646000   0.59297774   -7.9682514    312.74962  0.015833821  0.014828392            4 
 1647000   0.60702175    -7.954934    312.49544  0.015811346  0.014816696            5 
 1648000   0.58865505   -7.9723453    312.70313  0.015812254  0.014805017            6 
 1649000   0.58288503   -7.9597894     312.7617  0.015805625   0.01479334            6 
 1650000   0.60026482   -7.9632264    312.80149  0.015798055  0.014781677            6 
 1651000   0.59230595   -7.9721636    312.49495  0.015773014  0.014770034            6 
 1652000   0.59223766   -7.9714748    312.40013  0.015758683  0.014758399            7 
 1653000   0.59251424   -7.9740633    312.50984   0.01575468  0.014746742            5 
 1654000   0.58154018    -7.973238    312.78619  0.015759078  0.014735089            6 
 1655000   0.59074016   -7.9799186    312.39152  0.015729684  0.014723437            7 
 1656000   0.58853357   -7.9775907    312.72297  0.015736865  0.014711813            4 
 1657000   0.59577028   -7.9939748    312.65394  0.015723895  0.014700199            5 
 1658000   0.60158116   -7.9776372    312.76697  0.015720093  0.014688579           12 
 1659000   0.59590765   -7.9765121    312.52623  0.015698525  0.014676952            4 
 1660000   0.58202799   -7.9944861    313.06274  0.015716001  0.014665333            4 
 1661000   0.57139641   -8.0001739    312.19259  0.015662883  0.014653694            5 
 1662000   0.56943995   -7.9906646    312.89305  0.015688581   0.01464209            4 
 1663000   0.57692081     -7.97374     312.7948  0.015674223    0.0146305            5 
 1664000   0.58655474     -7.96221    313.01361  0.015675762  0.014618933            7 
 1665000   0.58054353   -7.9948008    312.30608  0.015630935   0.01460735            5 
 1666000   0.58026384   -7.9872834    312.17912  0.015615202  0.014595757            8 
 1667000   0.57809236   -7.9900559    312.35013  0.015614384  0.014584193            7 
 1668000   0.58956903   -7.9888806    311.93801  0.015584433  0.014572642            6 
 1669000   0.58041376   -7.9838141    311.77515  0.015566964  0.014561084            7 
 1670000   0.59035325    -7.976925    312.28125  0.015582896  0.014549548            8 
 1671000   0.58652332   -7.9996069    312.23494  0.015571262  0.014538004            5 
 1672000   0.58216656   -8.0184439    312.20915  0.015560663  0.014526453            9 
 1673000   0.59073095   -7.9806976    312.32882  0.015557323  0.014514918           12 
 1674000   0.59793151   -8.0091529    312.33825  0.015548499  0.014503403            5 
 1675000   0.58509347   -7.9999286    312.04427  0.015524591  0.014491883            7 
 1676000    0.5769847   -7.9867597    312.36617  0.015531333  0.014480373            5 
 1677000   0.57881082   -7.9949663     311.6572  0.015486842  0.014468868           11 
 1678000   0.58382633   -7.9979723    311.78672  0.015484044  0.014457357            6 
 1679000   0.58866707   -7.9885585    312.05893  0.015488333  0.014445886            8 
 1680000     0.576352   -8.0023919    311.83784  0.015468147  0.014434389            6 
 1681000   0.58269238   -8.0088995    312.30725  0.015482215  0.014422904            5 
 1682000   0.58760317   -7.9886991    312.64117  0.015489554   0.01441144            8 
 1683000   0.58720712   -8.0059813    311.97991  0.015447609  0.014399973            8 
 1684000    0.5752998   -7.9807298    312.13385  0.015446054    0.0143885            6 
 1685000   0.57625934   -7.9901695    311.41137  0.015401156  0.014377084            9 
 1686000   0.57628602   -7.9978772    312.34891  0.015438361   0.01436566            8 
 1687000   0.57426847   -7.9960048    312.51593   0.01543746  0.014354262            4 
 1688000   0.56815291   -8.0129218    312.19614  0.015412527  0.014342868           10 
 1689000   0.57453895   -8.0127948    312.16168  0.015401701   0.01433148            4 
 1690000   0.59274751   -8.0122494    311.73516  0.015371556  0.014320092            4 
 1691000   0.56968115   -8.0061469    311.98652  0.015374853  0.014308721            5 
 1692000   0.58422997   -8.0017805    311.84822  0.015358955  0.014297332           10 
 1693000    0.5802149   -7.9961012    311.79638  0.015347331   0.01428596            4 
 1694000   0.57591346    -8.007266    312.20016  0.015358135  0.014274621            6 
 1695000   0.57775778   -8.0089231    312.25609  0.015351824  0.014263299            8 
 1696000   0.57953848   -8.0135381     312.6857  0.015363881  0.014251989            6 
 1697000   0.58277277   -8.0064125     311.9426  0.015318336  0.014240668            6 
 1698000   0.57513977   -8.0175456    312.30391  0.015327047  0.014229356            4 
 1699000   0.57755704   -8.0329898    312.40716   0.01532309  0.014218059            8 
 1700000   0.57360014   -8.0293184    312.10243  0.015299139   0.01420674            6 
 1701000   0.58672431    -8.022218    311.91609  0.015281015  0.014195447            6 
 1702000   0.58025984   -8.0226386    311.83203  0.015267922   0.01418417           12 
 1703000   0.58592838   -8.0316971     311.8993  0.015262248  0.014172885            5 
 1704000   0.56556953   -8.0168158    311.91882  0.015254246  0.014161631            8 
 1705000   0.56560625   -8.0200516    311.76084  0.015237578  0.014150378            8 
 1706000   0.56708853   -8.0377161    311.92206  0.015236521   0.01413915           11 
 1707000   0.57472081   -8.0205087    312.40235  0.015251042  0.014127915           12 
 1708000   0.58670342   -8.0529519    311.64138  0.015204985  0.014116686            6 
 1709000   0.55606944   -8.0138715    312.06705  0.015216845  0.014105444            8 
 1710000   0.57081555   -8.0137355     311.9307  0.015201301   0.01409422            5 
 1711000   0.57193949   -8.0143495     311.9306  0.015192412  0.014083017            8 
 1712000   0.56807291   -8.0248355     312.2912   0.01520109  0.014071803            5 
 1713000   0.56712913   -8.0144253    311.80752  0.015168687  0.014060606            7 
 1714000   0.56098718   -7.9985546    312.53555  0.015195233  0.014049441           15 
 1715000   0.56989982   -8.0094687    311.99017  0.015159872   0.01403828            6 
 1716000   0.57055251   -8.0348545    311.97245  0.015150177   0.01402713            3 
 1717000   0.57824849   -8.0058403    311.47211   0.01511707  0.014015978            5 
 1718000   0.56763917   -8.0043739    312.55227  0.015160665   0.01400484            8 
 1719000   0.56237335   -8.0381163    311.81553   0.01511613  0.013993711           11 
 1720000   0.56192887   -8.0264931    312.11143  0.015121678  0.013982586            5 
 1721000   0.58165893   -8.0244771    311.10124  0.015063976  0.013971467           12 
 1722000   0.56167175   -8.0241343    311.35102  0.015067316   0.01396036            7 
 1723000   0.57615284   -8.0347371    312.07754   0.01509371  0.013949239            9 
 1724000   0.57334974   -8.0414401    311.85044  0.015073977  0.013938132            6 
 1725000   0.56398839   -8.0342519    311.26035  0.015036732  0.013927032            6 
 1726000   0.56902796   -8.0349543    311.35102  0.015032398   0.01391594            6 
 1727000   0.55803351   -8.0313405    311.48974  0.015030387  0.013904853            7 
 1728000   0.55386394   -8.0340046    312.14593  0.015053334  0.013893787            6 
 1729000   0.56259001     -8.04427    311.61554  0.015019064  0.013882731           10 
 1730000   0.57423949   -8.0540825    312.15179  0.015036213  0.013871673            8 
 1731000   0.55339085   -8.0272689    311.75717  0.015008529  0.013860626            4 
 1732000    0.5586282   -8.0337523    311.31434  0.014978558  0.013849581           10 
 1733000   0.57346166   -8.0364844    311.88885  0.014997541  0.013838552            7 
 1734000   0.56213284   -8.0397321    311.67127  0.014978435  0.013827554            7 
 1735000   0.56485413    -8.032215    311.15886   0.01494519  0.013816545            6 
 1736000   0.56783587   -8.0449111    311.90439  0.014972369  0.013805547            5 
 1737000   0.55798488   -8.0449899    311.50032  0.014944364  0.013794541            8 
 1738000   0.56387439   -8.0545594    311.11263  0.014917176  0.013783556            7 
 1739000   0.55541284   -8.0523539    312.09933  0.014955881  0.013772577            5 
 1740000   0.54044211   -8.0525046    311.80247  0.014933068  0.013761616            6 
 1741000   0.55256906   -8.0364294    311.37473  0.014904017   0.01375065            9 
 1742000   0.55815747   -8.0422258    311.82306  0.014916909    0.0137397            7 
 1743000   0.55762221   -8.0460004    311.88909  0.014911507   0.01372877           11 
 1744000    0.5567967   -8.0581853     311.8622  0.014901672  0.013717853            9 
 1745000   0.54558668   -8.0314925    311.94272  0.014896978  0.013706949            7 
 1746000   0.55344049   -8.0840892    311.12197  0.014849273  0.013696031            5 
 1747000   0.55808209   -8.0590236    311.03682  0.014836712  0.013685133            9 
 1748000   0.56372121   -8.0677413    311.70073  0.014859874  0.013674255            5 
 1749000   0.55366771   -8.0432006    311.87849  0.014859848  0.013663384            3 
 1750000   0.55005782   -8.0635254    311.60436  0.014838303  0.013652508            9 
 1751000   0.55847469   -8.0494263    311.29026   0.01481488  0.013641632            5 
 1752000   0.55228718   -8.0575891    311.86536  0.014833779  0.013630767            8 
 1753000   0.55996062    -8.055188    311.80627  0.014822508  0.013619901            5 
 1754000   0.55607937   -8.0538457    311.12378  0.014781631  0.013609065            3 
 1755000   0.55996701   -8.0695993    311.09816  0.014771993  0.013598247            5 
 1756000   0.53927549   -8.0439861    311.51969  0.014783585  0.013587436            5 
 1757000   0.55859132   -8.0682708     311.0208  0.014751508  0.013576629            4 
 1758000   0.55296116   -8.0617485     311.5344  0.014767463  0.013565834            4 
 1759000   0.55204548   -8.0631897     311.7315  0.014768405  0.013555044            5 
 1760000   0.54653667   -8.0584715    310.83681  0.014717652  0.013544242            8 
 1761000   0.53838761    -8.039317      311.326  0.014732444  0.013533456            3 
 1762000   0.54575844   -8.0752771    311.13798   0.01471519  0.013522672            4 
 1763000   0.55448429   -8.0774317    311.11148  0.014705591  0.013511894            4 
 1764000   0.54670099   -8.0685901    311.33631  0.014707876  0.013501125            4 
 1765000   0.54805613   -8.0754101    311.06422  0.014686696   0.01349037            9 
 1766000   0.56812335   -8.0761597    311.70762   0.01470874  0.013479621            7 
 1767000   0.55281118   -8.0797088    310.98569  0.014666369   0.01346888            4 
 1768000   0.55432814   -8.0600132    311.14146  0.014665415  0.013458154            4 
 1769000   0.54785982   -8.0715053    311.30339  0.014664753  0.013447441            6 
 1770000   0.54104452   -8.0563676    311.21531  0.014652322  0.013436755            7 
 1771000    0.5287004   -8.0746337     311.0396   0.01463578  0.013426054           14 
 1772000   0.53605251    -8.058603     311.2854   0.01463908  0.013415354            3 
 1773000   0.53932103    -8.089864    311.32583  0.014632724  0.013404663            4 
 1774000   0.54827246   -8.0769529    311.52285   0.01463373  0.013393982            6 
 1775000   0.55794294   -8.0722892    310.97381  0.014599709  0.013383321            5 
 1776000   0.54907204   -8.0893879    311.48202  0.014615335  0.013372651            7 
 1777000   0.53414121   -8.1009316    310.81587  0.014575871  0.013361989            5 
 1778000    0.5475374   -8.0778575    310.95929  0.014574395   0.01335134            5 
 1779000   0.55266762   -8.0919632    311.29055   0.01458172   0.01334072            5 
 1780000   0.54917546   -8.0756567     311.4896  0.014582847  0.013330111            5 
 1781000   0.55330295   -8.0726544     311.2204  0.014562063    0.0133195           10 
 1782000   0.54242316   -8.0983567    310.86583   0.01453731  0.013308887            5 
 1783000    0.5346677   -8.0793417    311.69112  0.014567728   0.01329829            6 
 1784000   0.53037648   -8.0849138    311.28623   0.01454065  0.013287708            3 
 1785000   0.54474694   -8.0765588    311.37965  0.014536865  0.013277137            6 
 1786000   0.54175688   -8.0851307    310.97536  0.014509862  0.013266576            4 
 1787000   0.54300376   -8.0856392     310.8498  0.014495887  0.013256014            8 
 1788000   0.54236624   -8.0897888    310.86382  0.014488433  0.013245467            6 
 1789000   0.53904198   -8.0792044    310.94879  0.014484293  0.013234939            5 
 1790000   0.53599371   -8.0860523    311.13185  0.014484723  0.013224416           10 
 1791000   0.54346518   -8.0917825    311.29692  0.014484316  0.013213902           12 
 1792000   0.54836196   -8.1018263    311.33169   0.01447785  0.013203396           10 
 1793000   0.54606322   -8.0689535    311.27523  0.014467151  0.013192907            7 
 1794000   0.53434848   -8.0948415    311.15426  0.014453468   0.01318243            4 
 1795000   0.54028967   -8.0849979    310.73999  0.014426183  0.013171963           10 
 1796000   0.53956455   -8.0822071    311.32753  0.014445412   0.01316151           15 
 1797000   0.53905396   -8.0925365    310.89835  0.014417471  0.013151059            6 
 1798000   0.54830407   -8.1091514    311.22374  0.014424534  0.013140618            8 
 1799000   0.55492513   -8.0902875    310.55096  0.014385351  0.013130182            3 
 1800000   0.52218924    -8.093986    311.19415  0.014407137  0.013119763           10 
 1801000   0.53640559   -8.0893135    311.10578  0.014395048  0.013109353            6 
 1802000    0.5343839   -8.1044208    311.02008  0.014383097   0.01309894            4 
 1803000   0.53052005   -8.0933055    310.46714  0.014349563  0.013088528            6 
 1804000   0.52214247   -8.1007456     310.7484  0.014354601  0.013078132           10 
 1805000   0.53973996   -8.1108483    310.91199  0.014354201  0.013067754            5 
 1806000   0.53821831   -8.0927776    310.78952  0.014340602  0.013057378            4 
 1807000   0.53758279   -8.0976072     311.0739   0.01434578  0.013047015            6 
 1808000   0.51975283   -8.1119245    311.27918  0.014347307  0.013036657            6 
 1809000   0.52792413   -8.1195443     310.9644  0.014324875  0.013026318            8 
 1810000    0.5114276   -8.1022102    311.00464  0.014318814  0.013015981            5 
 1811000   0.52016447   -8.0998735    310.81447  0.014302157  0.013005652            5 
 1812000   0.52618764   -8.0922709    311.59843  0.014330318  0.012995336            7 
 1813000   0.52355117   -8.1021986    310.98873  0.014294389  0.012985017            4 
 1814000   0.53257456   -8.0855444    310.83091  0.014279259  0.012974701            7 
 1815000   0.52728125   -8.1020145    310.65109  0.014263135  0.012964402            5 
 1816000   0.53540244   -8.1170007    310.65942  0.014255664  0.012954123            9 
 1817000   0.52341825   -8.1289471    310.79692  0.014254124  0.012943839            8 
 1818000   0.53346218    -8.119489    311.18144  0.014263909  0.012933567            7 
 1819000   0.52477391   -8.1014569    310.37615  0.014219175  0.012923294            5 
 1820000   0.54074045   -8.1128884    310.61341  0.014222226  0.012913038            7 
 1821000   0.53999833   -8.1206134    310.57451  0.014212635  0.012902794           10 
 1822000   0.53371326   -8.1148437     310.5566  0.014204016  0.012892554            5 
 1823000   0.52361826   -8.1189653    311.01257  0.014217067  0.012882321            6 
 1824000   0.52615104   -8.1188044    310.86863  0.014202697  0.012872099           11 
 1825000   0.52182797    -8.119797    310.75586  0.014189765  0.012861897            6 
 1826000   0.51934272   -8.0920827    311.13726    0.0141994  0.012851708           18 
 1827000   0.52448825   -8.1085521    310.90265  0.014180927  0.012841508            7 
 1828000   0.52346215   -8.1135705    310.72853  0.014165232  0.012831322            9 
 1829000   0.52077974   -8.1104698    309.91021  0.014120203  0.012821149            7 
 1830000   0.51861593   -8.1038971    310.58179  0.014143069  0.012810976            7 
 1831000   0.52240901   -8.1203994    310.67733  0.014139693  0.012800818            9 
 1832000   0.53101189   -8.1071595    311.20994  0.014156202  0.012790667            5 
 1833000   0.52365017   -8.1366492    310.59111  0.014120345   0.01278053            7 
 1834000   0.53100737   -8.0964724    310.59755  0.014112938    0.0127704           12 
 1835000    0.5229025   -8.1141794    310.80745   0.01411478  0.012760286           12 
 1836000   0.52830733   -8.0946648    310.69699  0.014102078  0.012750185            6 
 1837000   0.52845797   -8.1206648    310.90049  0.014103633  0.012740086           15 
 1838000   0.51634807   -8.1081327    310.73036  0.014088246  0.012730005            6 
 1839000   0.52381093   -8.1154162    310.68373  0.014078472   0.01271992           11 
 1840000   0.50822885   -8.1184551    310.78791  0.014075539  0.012709841            4 
 1841000   0.51666612   -8.1275316    310.63255  0.014060861   0.01269977            3 
 1842000   0.51293526    -8.117791    310.38198  0.014041892   0.01268971            7 
 1843000    0.5169531   -8.1305018    310.25992  0.014028754  0.012679664           22 
 1844000   0.51287732   -8.1236043    310.69425  0.014040774  0.012669616            7 
 1845000   0.52014527     -8.12405    310.77482  0.014036803  0.012659588            9 
 1846000   0.51516803   -8.1309097    310.97077  0.014038045  0.012649578            8 
 1847000   0.52160182   -8.1357875    310.91283   0.01402783  0.012639572            9 
 1848000   0.52375208   -8.1301103    310.59976  0.014006122  0.012629565            8 
 1849000   0.50144218   -8.1242925    310.69302   0.01400275  0.012619576            4 
 1850000   0.51477659   -8.1395405    310.51192  0.013987023  0.012609601            6 
 1851000   0.50517533   -8.1315933    310.60719  0.013983756  0.012599632            7 
 1852000   0.51950113   -8.1384943    310.75375    0.0139828   0.01258967            7 
 1853000   0.52329427     -8.13793    310.74617  0.013974913  0.012579714            9 
 1854000   0.51492491   -8.1310195    310.46347  0.013954669  0.012569767            6 
 1855000   0.52183338   -8.1367028    310.72377   0.01395884  0.012559839           10 
 1856000   0.51968402   -8.1308907     310.4829  0.013940504  0.012549905            7 
 1857000   0.50507601    -8.144376    310.42574  0.013930432  0.012539995           11 
 1858000   0.51385142   -8.1337014    310.31926  0.013918158  0.012530063            7 
 1859000   0.51681948   -8.1510913    310.41882  0.013915135  0.012520155           17 
 1860000   0.51671246    -8.150797    310.11404  0.013893998   0.01251025           19 
 1861000   0.51152311   -8.1416879    310.20193  0.013890468  0.012500366           10 
 1862000   0.50437078   -8.1414185    310.59677  0.013900679  0.012490481           11 
 1863000   0.50654805   -8.1358646    310.20259  0.013875586  0.012480602           11 
 1864000   0.50412784   -8.1594973    310.42913  0.013878269   0.01247074            8 
 1865000   0.50515625   -8.1371882    310.53197  0.013875423  0.012460883           12 
 1866000   0.50540479    -8.127189    310.37615  0.013861028  0.012451035           12 
 1867000   0.50433615   -8.1502264    311.05161  0.013883753  0.012441196            9 
 1868000   0.50667093   -8.1659774    310.29641  0.013842631   0.01243137            8 
 1869000   0.50299488   -8.1482764     310.3231  0.013836414  0.012421544            9 
 1870000   0.50688595   -8.1461095    310.54791  0.013839033  0.012411721            8 
 1871000   0.50106248   -8.1492177    310.78101  0.013842019  0.012401902           13 
 1872000   0.50282522   -8.1474691     310.0535  0.013802239  0.012392099           12 
 1873000   0.50124474   -8.1513671    309.94907  0.013790224  0.012382305            9 
 1874000   0.49476054   -8.1513844    310.85571  0.013823182  0.012372533           17 
 1875000   0.50906082   -8.1415561    310.54174  0.013801855  0.012362767           24 
 1876000   0.49747988   -8.1480001    310.06163  0.013773171  0.012352999           15 
 1877000   0.49720273   -8.1470571    310.05048  0.013765338  0.012343245            8 
 1878000   0.49514258   -8.1456214    310.37688  0.013772492  0.012333498           13 
 1879000   0.50824168   -8.1431539    310.54857  0.013772777  0.012323755           10 
 1880000   0.49737907   -8.1573226    309.64496  0.013725397   0.01231402            7 
 1881000   0.50776523   -8.1684246    310.11452  0.013738903  0.012304297           19 
 1882000   0.51177688   -8.1313183    310.11435  0.013731595  0.012294595            8 
 1883000   0.50193982   -8.1656943    309.85241  0.013712711  0.012284887           14 
 1884000   0.50820178   -8.1828315     310.1383  0.013718078  0.012275188            9 
 1885000   0.50660862   -8.1450749    309.98725  0.013704122  0.012265498           13 
 1886000   0.50056561    -8.156705    310.43522   0.01371665   0.01225582           10 
 1887000   0.49401159   -8.1568913     310.3211  0.013704341  0.012246156           10 
 1888000   0.50671718   -8.1443971    310.26463   0.01369459  0.012236497           10 
 1889000   0.49756049   -8.1559123    309.91348  0.013671849  0.012226852            8 
 1890000   0.50771809   -8.1658663    310.20784  0.013677594  0.012217214            7 
 1891000   0.49666951   -8.1586774    310.01695  0.013661949   0.01220759            8 
 1892000   0.49484968   -8.1749847    310.47643  0.013674966  0.012197978           15 
 1893000    0.4986353   -8.1592007    309.87065  0.013641075  0.012188358           12 
 1894000   0.51619331   -8.1657006    310.62727  0.013667162  0.012178753            9 
 1895000   0.49744071   -8.1856212    310.16108   0.01363945  0.012169161           11 
 1896000   0.50776022     -8.15218    309.84032  0.013618157  0.012159577           11 
 1897000   0.49670244   -8.1702727    310.56252  0.013642704  0.012150002            8 
 1898000   0.48386706   -8.1685209    309.88262  0.013605665   0.01214044           10 
 1899000   0.50479146   -8.1766315    309.85924  0.013597474  0.012130878            7 
 1900000    0.4841504   -8.1573038    309.75448  0.013585723  0.012121323            5 
 1901000    0.4864031   -8.1678365    310.27817  0.013601533  0.012111778           11 
 1902000   0.48665221   -8.1727294    310.07265  0.013585377  0.012102249           12 
 1903000   0.49782905   -8.1843949    309.92241  0.013571659  0.012092709            7 
 1904000    0.4956995   -8.1730235    309.97851  0.013566986  0.012083184            5 
 1905000   0.49429464   -8.1661083    309.98264  0.013560046  0.012073661            9 
 1906000   0.49643011   -8.1653817    309.91889  0.013550144  0.012064154           11 
 1907000   0.48646901   -8.1659985    310.45985  0.013566678  0.012054662            9 
 1908000   0.49421987   -8.1797844      309.986  0.013538871   0.01204517           14 
 1909000   0.49127131   -8.1569706    310.20387   0.01354129  0.012035691           11 
 1910000    0.4846896   -8.1704042    309.83542  0.013518125  0.012026228           10 
 1911000    0.4911736    -8.175105    309.96445  0.013516677   0.01201677            6 
 1912000   0.49651998   -8.1538385    310.01413  0.013511773  0.012007323           10 
 1913000   0.49004219   -8.1681695    309.76466  0.013493843   0.01199788           11 
 1914000   0.49847223    -8.167526    309.67085  0.013482709  0.011988442           10 
 1915000   0.48477139   -8.1806435    310.16325  0.013497095  0.011979017           12 
 1916000   0.48342418   -8.1765007    309.63909  0.013467253  0.011969602           10 
 1917000     0.482999   -8.1932126    309.56037  0.013456806  0.011960195            6 
 1918000   0.47821389   -8.1692369    309.31245  0.013439018  0.011950788           14 
 1919000    0.4918386   -8.1734548    310.02178  0.013462818  0.011941393           11 
 1920000   0.49833134   -8.1902801    310.29576  0.013467698  0.011932008            8 
 1921000   0.49218312   -8.1749233    309.86962  0.013442201  0.011922618           13 
 1922000   0.48625603   -8.1810719    309.77905   0.01343128   0.01191324            4 
 1923000   0.48887978   -8.2012033    309.94731  0.013431588  0.011903874           14 
 1924000   0.49125852   -8.1844409    309.99545  0.013426691  0.011894514           10 
 1925000   0.47572159   -8.1957639    309.65233  0.013404863  0.011885167           14 
 1926000   0.48676673   -8.1891762    310.01444   0.01341357  0.011875828           14 
 1927000   0.49350881   -8.1843623    309.86288  0.013400055  0.011866501           10 
 1928000   0.49350017   -8.1857153    309.64424  0.013383655  0.011857189            5 
 1929000   0.48059845   -8.1837594    310.40299  0.013409495  0.011847882           12 
 1930000   0.47952024   -8.1796903    309.89791  0.013380739  0.011838589            7 
 1931000   0.48857644     -8.18789    309.86102  0.013372217  0.011829293           10 
 1932000   0.47786726   -8.1822441    309.57862  0.013353115  0.011820009            9 
 1933000   0.48133182   -8.1779433    309.79732  0.013355635  0.011810744            9 
 1934000   0.47267112   -8.1997866    309.86384  0.013351596  0.011801473           11 
 1935000   0.47537322   -8.1965892    309.33944  0.013322112   0.01179221            6 
 1936000   0.47337075   -8.1805512    309.73262  0.013332155  0.011782965            6 
 1937000   0.47548172    -8.179835    309.39734  0.013310848  0.011773724            5 
 1938000   0.47775902   -8.1901051    310.24595  0.013340469   0.01176449            6 
 1939000   0.48307086    -8.193431    309.81132   0.01331491  0.011755275           12 
 1940000   0.46435479   -8.1841045    309.58137  0.013298169  0.011746064           12 
 1941000   0.48899444   -8.2014776    309.88019  0.013304147  0.011736855           10 
 1942000   0.46313731    -8.200906    309.40696   0.01327699  0.011727661            5 
 1943000   0.47704468   -8.1909222    310.03297  0.013297005  0.011718472           17 
 1944000   0.47692107   -8.2010939    310.25966  0.013299883  0.011709296            7 
 1945000   0.46798105   -8.2060331    309.70041  0.013269084  0.011700137            9 
 1946000   0.46368198    -8.204748    309.91819  0.013271591  0.011690981           10 
 1947000    0.4752165   -8.1929764    309.16811   0.01323267  0.011681828           13 
 1948000   0.48026852   -8.1977355     309.8771  0.013256207  0.011672683           12 
 1949000   0.47083971   -8.1835429    309.93422  0.013251848  0.011663545           12 
 1950000   0.48203818   -8.1886399    309.58787  0.013230251  0.011654423           13 
 1951000   0.47696321    -8.196011    309.70597  0.013228514  0.011645302            8 
 1952000   0.47989519   -8.2025905    309.05941  0.013194135   0.01163619           11 
 1953000    0.4765855   -8.2113309    309.84805   0.01322103  0.011627087            7 
 1954000   0.46776958   -8.1872769    309.68194  0.013207179  0.011617988           11 
 1955000   0.47506295    -8.216737    309.49539  0.013192472  0.011608896           11 
 1956000   0.46898136   -8.2152909    309.51799   0.01318669  0.011599806           11 
 1957000   0.47514043    -8.204641    309.53984  0.013180882  0.011590723            8 
 1958000   0.46370032    -8.194153    309.23169  0.013161036  0.011581643           13 
 1959000   0.47146156   -8.2050343    310.03812  0.013188622  0.011572581           10 
 1960000   0.47784643   -8.2204245      309.198  0.013146173  0.011563531           10 
 1961000   0.47110007   -8.1816034    309.62457  0.013157597  0.011554489           12 
 1962000   0.46721387   -8.2036791    308.83199  0.013117227  0.011545458            7 
 1963000    0.4669854   -8.2121051     309.4968  0.013138767  0.011536429            9 
 1964000   0.47568621   -8.2071986    309.77486  0.013143876  0.011527413            7 
 1965000   0.46954711   -8.2211786    309.79428   0.01313801  0.011518403            8 
 1966000     0.476292   -8.2082685    309.17462  0.013105062  0.011509403           11 
 1967000   0.46097708   -8.2010879     309.4495  0.013110045  0.011500412            7 
 1968000   0.46363583   -8.2002318     309.1785  0.013091908  0.011491424           13 
 1969000   0.47116012   -8.2078627    309.43904  0.013096286  0.011482451           11 
 1970000   0.46766432   -8.1921756    309.69275   0.01310037  0.011473484            8 
 1971000   0.47235121    -8.219729    309.23286   0.01307428   0.01146452           10 
 1972000   0.46511642   -8.2093318    309.11698  0.013062753  0.011455563            8 
 1973000   0.45835492   -8.2088689     309.1489   0.01305748  0.011446621            8 
 1974000   0.46416356   -8.2154267    309.25115  0.013055182  0.011437685           11 
 1975000   0.47120754   -8.2218997    309.20049  0.013046434  0.011428757            8 
 1976000   0.46569558   -8.1967211     309.2746  0.013042957  0.011419836           10 
 1977000   0.47536297   -8.2265507    309.46741  0.013044487  0.011410915            8 
 1978000   0.45134243   -8.2016318    309.44308  0.013036867   0.01140201            9 
 1979000   0.47747605   -8.2155866    309.85177  0.013047489  0.011393114           14 
 1980000   0.46151754   -8.2197069    309.35607  0.013020036  0.011384231           10 
 1981000   0.47164136   -8.2100294    308.92059  0.012995145  0.011375345            9 
 1982000    0.4597277   -8.2108611    309.39966  0.013008731  0.011366478            8 
 1983000   0.46334197   -8.2090933    309.17003  0.012992521  0.011357616            9 
 1984000   0.46001956   -8.2253696    309.19551  0.012987043  0.011348759            8 
 1985000   0.45488327   -8.2199956    309.62969  0.012998727  0.011339911           19 
 1986000   0.47080829   -8.2102846    309.10468  0.012970153  0.011331068            9 
 1987000   0.46047006   -8.2140151    308.97097  0.012958018  0.011322238           13 
 1988000   0.47158332   -8.2213952    309.12958  0.012958148  0.011313412           11 
 1989000   0.46071131   -8.2158066    309.12664   0.01295151  0.011304595           12 
 1990000   0.46076884   -8.2048738    308.71006  0.012927557  0.011295786           11 
 1991000   0.45928008   -8.2179182    309.44134  0.012951672  0.011286981            9 
 1992000   0.46551246   -8.2124332    308.87504  0.012921479   0.01127819            8 
 1993000   0.46190732   -8.2223686    309.49928  0.012941097  0.011269403           10 
 1994000   0.45644279   -8.2335808      309.043  0.012915538  0.011260634           15 
 1995000   0.46564989   -8.2201827    309.31702  0.012920511  0.011251869           12 
 1996000   0.46398387    -8.223235    309.05743  0.012903199  0.011243107           12 
 1997000   0.46330404   -8.2287432    309.37908   0.01291016  0.011234356           10 
 1998000   0.45627437    -8.223695    309.08305  0.012891352  0.011225612            9 
 1999000   0.45192539   -8.2213177    308.91278  0.012877805  0.011216886           12 
 2000000   0.45377903   -8.2161823    308.92292  0.012871788  0.011208171           18 
 2001000   0.44990407   -8.2213461    309.31394   0.01288164  0.011199457           10 
 2002000   0.45078594   -8.2183122    308.86301  0.012856436  0.011190756           11 
 2003000   0.44671573   -8.2101097    309.51715  0.012877232  0.011182064           13 
 2004000   0.45132383   -8.2367515    308.96404  0.012847806  0.011173372           10 
 2005000   0.44397988   -8.2227158    308.95594  0.012841061  0.011164692           13 
 2006000   0.45461915   -8.2297908    309.10117  0.012840693  0.011156023           14 
 2007000   0.45233919   -8.2164341    308.61769  0.012814221  0.011147353           10 
 2008000    0.4456915    -8.241636    308.93287  0.012820919  0.011138695           13 
 2009000   0.45196765   -8.2350872    309.12965    0.0128227  0.011130055            8 
 2010000   0.44697767   -8.2167444    308.63528  0.012795824  0.011121416           12 
 2011000   0.46047033   -8.2315728    308.54338  0.012785653  0.011112792           10 
 2012000   0.45494653   -8.2290254    308.88853  0.012793594  0.011104169           10 
Loop time of 4548.62 on 48 procs for 2000000 steps with 4000 atoms

Performance: 75979.018 tau/day, 439.693 timesteps/s
99.4% CPU use with 48 MPI tasks x no OpenMP threads

MPI task timing breakdown:
Section |  min time  |  avg time  |  max time  |%varavg| %total
---------------------------------------------------------------
Pair    | 276.3      | 299.81     | 322.01     |  61.9 |  6.59
Neigh   | 29.478     | 30.619     | 31.869     |   9.9 |  0.67
Comm    | 269.92     | 295.61     | 322.68     |  67.3 |  6.50
Output  | 4.2793     | 4.2812     | 4.3143     |   0.2 |  0.09
Modify  | 3863.2     | 3874       | 3885.2     |   8.5 | 85.17
Other   |            | 44.26      |            |       |  0.97

Nlocal:        83.3333 ave          89 max          76 min
Histogram: 1 1 4 7 5 4 15 4 3 4
Nghost:        1930.19 ave        1949 max        1907 min
Histogram: 2 6 3 8 3 4 4 3 7 8
Neighs:        12224.2 ave       13940 max       11176 min
Histogram: 4 5 9 10 8 6 1 2 2 1
FullNghs:      24448.6 ave       26671 max       22180 min
Histogram: 1 4 4 6 8 8 7 8 1 1

Total # of neighbors = 1173534
Ave neighs/atom = 293.38350
Neighbor list builds = 107388
Dangerous builds = 0

#clear
#
#next RN
#
#jump SELF
Total wall time: 1:15:51
