
units lj                  # Use reduced LJ style units
atom_style atomic         # Uncharged point particles
atom_modify map hash      # Needed for indexing of clusters etc
                          # Used to be able to find where atoms are in relation to each other.

lattice fcc 1.0 spacing 1 1 1
Lattice spacing in x,y,z = 1.5874011 1.5874011 1.5874011
region box block 0 10 0 10 0 10 units lattice
create_box 2 box
Created orthogonal box = (0.0000000 0.0000000 0.0000000) to (15.874011 15.874011 15.874011)
  3 by 4 by 4 MPI processor grid
create_atoms 1 box
Created 4000 atoms
  using lattice units in orthogonal box = (0.0000000 0.0000000 0.0000000) to (15.874011 15.874011 15.874011)
  create_atoms CPU = 0.029 seconds
set type 1 type/fraction 2 0.37 78393
Setting atom values ...
  1496 settings made for type/fraction
mass 1 1.0
mass 2 1.0
pair_style lj/cut  3.5
pair_modify tail  yes
pair_coeff 1  1  1.0  1.0   # Intearaction between 1 and 1 set with epsilon = 1 and sigma = 1
pair_coeff 1  2  1.5  0.8
pair_coeff 2  2  0.5  0.88

write_data data.0
System init for write_data ...
Neighbor list info ...
  update every 1 steps, delay 10 steps, check yes
  max neighbors/atom: 2000, page size: 100000
  master list distance cutoff = 3.8
  ghost atom cutoff = 3.8
  binsize = 1.9, bins = 9 9 9
  1 neighbor lists, perpetual/occasional/extra = 1 0 0
  (1) pair lj/cut, perpetual
      attributes: half, newton on
      pair build: half/bin/atomonly/newton
      stencil: half/bin/3d
      bin: standard
WARNING: Not all mixed pair coeffs generated from mixing. Use write_data with 'pair ij' option to store all pair coeffs. (../write_data.cpp:312)


#############################
#   M E L T   S Y S T E M   #
#############################

velocity all create 2.4 9580093 mom yes dist gaussian # Assign velocities
                                                    # Temperature 2.4, random number seed, zero linear momentum
                                                                                # Gaussian distribution

timestep 0.002   # simulation timestep
thermo 1000       # output thermodynamic data every 1000 steps bf 100

# Define a fix  in this case with index 1 applied to all
# particles in the simulation. This fix is for simulations
# in the anisotropic NPT ensemble. Note that we use the MTK
# correction.
fix 1 all npt temp 2.4 2.4 0.1 iso 5.68 5.68 0.5 mtk yes tchain 5 pchain 5 # Use NPT ensemble
                                                                         # Set temperature and pressure and damping
                                                                         # Numbers of thermostats in chain and in barostat
run 10000          # run for 10000 steps
Per MPI rank memory allocation (min/avg/max) = 3.642 | 3.644 | 3.648 Mbytes
Step Temp E_pair E_mol TotEng Press Volume 
       0          2.4   -6.0326183            0   -2.4335183   -4.1254262         4000 
    1000    2.3810108    -5.012118            0   -1.4414947    5.5625313    3979.2692 
    2000      2.40597   -4.9980508            0   -1.3899981    5.3215253    4006.0231 
    3000    2.3810434   -5.0670058            0   -1.4963335    5.6138855     3953.547 
    4000    2.3735325   -5.0242691            0   -1.4648604    5.5823566    3971.9867 
    5000    2.3705507   -5.0668312            0   -1.5118941    5.5404735    3959.2865 
    6000     2.410371   -5.0110404            0   -1.3963879    5.7215394    3973.0685 
    7000    2.3929769   -5.0722287            0   -1.4836607    5.5272687    3956.8167 
    8000    2.4358384   -4.9741944            0   -1.3213502    5.8035648    3981.1213 
    9000    2.4245842   -5.0205188            0   -1.3845518    5.7753205    3957.8277 
   10000    2.4073754   -5.0597809            0   -1.4496206    5.4750132    3974.2336 
Loop time of 2.50841 on 48 procs for 10000 steps with 4000 atoms

Performance: 688881.317 tau/day, 3986.582 timesteps/s
99.6% CPU use with 48 MPI tasks x no OpenMP threads

MPI task timing breakdown:
Section |  min time  |  avg time  |  max time  |%varavg| %total
---------------------------------------------------------------
Pair    | 1.0796     | 1.1612     | 1.3001     |   3.3 | 46.29
Neigh   | 0.20458    | 0.21309    | 0.24088    |   1.1 |  8.50
Comm    | 0.73988    | 0.85793    | 0.99844    |   5.3 | 34.20
Output  | 0.00024698 | 0.00025219 | 0.00034702 |   0.0 |  0.01
Modify  | 0.20068    | 0.26054    | 0.32183    |   6.9 | 10.39
Other   |            | 0.01542    |            |       |  0.61

Nlocal:        83.3333 ave          91 max          73 min
Histogram: 1 1 5 6 4 6 6 13 4 2
Nghost:        1644.54 ave        1677 max        1604 min
Histogram: 1 1 4 6 5 9 11 8 1 2
Neighs:        9591.58 ave       10928 max        8373 min
Histogram: 2 3 4 9 7 7 9 6 0 1

Total # of neighbors = 460396
Ave neighs/atom = 115.09900
Neighbor list builds = 899
Dangerous builds = 160

# Equilibrate just above the melting temperature to avoid step fn in T

fix 1 all npt temp 1.25 1.25 0.1 iso 5.68 5.68 0.5 mtk yes tchain 5 pchain 5
run 2000
Per MPI rank memory allocation (min/avg/max) = 3.643 | 3.645 | 3.649 Mbytes
Step Temp E_pair E_mol TotEng Press Volume 
   10000    2.4073754   -5.0597809            0   -1.4496206    5.4750132    3974.2336 
   11000    1.2571627   -7.0006653            0   -5.1153927     5.458396    3165.8068 
   12000    1.2454787   -7.0670604            0   -5.1993094    5.8484061    3131.8142 
Loop time of 0.601044 on 48 procs for 2000 steps with 4000 atoms

Performance: 574999.143 tau/day, 3327.541 timesteps/s
99.7% CPU use with 48 MPI tasks x no OpenMP threads

MPI task timing breakdown:
Section |  min time  |  avg time  |  max time  |%varavg| %total
---------------------------------------------------------------
Pair    | 0.26376    | 0.28785    | 0.32345    |   2.1 | 47.89
Neigh   | 0.038759   | 0.040723   | 0.046584   |   0.7 |  6.78
Comm    | 0.1843     | 0.2232     | 0.2494     |   2.8 | 37.14
Output  | 5.0876e-05 | 5.2219e-05 | 6.8223e-05 |   0.0 |  0.01
Modify  | 0.039335   | 0.044381   | 0.048839   |   1.0 |  7.38
Other   |            | 0.004833   |            |       |  0.80

Nlocal:        83.3333 ave          95 max          75 min
Histogram: 1 5 6 6 10 12 3 3 1 1
Nghost:        1936.06 ave        1972 max        1911 min
Histogram: 2 8 2 9 13 9 2 2 0 1
Neighs:        12188.2 ave       13995 max       10424 min
Histogram: 2 2 5 7 10 8 4 6 3 1

Total # of neighbors = 585036
Ave neighs/atom = 146.25900
Neighbor list builds = 142
Dangerous builds = 15

#############################
# L I N E A R  Q U E N C H  #
#############################

# Define solid atoms. This closely follows ten Wolde  Ruiz-Montero and Frenkel  Faraday Discuss  1996  104  93-110
# Compute components of the per-atom q6 vector
compute q6 all orientorder/atom degrees 1 6 components 6 nnn NULL cutoff 1.3 # compute the Q6 parameter.
                                                                             # Use all neighbours within 1.3 unit cell.

# get number of connections
compute coord_number all coord/atom orientorder q6 0.5

# An atom is solid if it has 8 or more connections (of a possible 14)
variable is_solid atom c_coord_number>=8
group solid dynamic all var is_solid    # Must be dynamic to update
dynamic group solid defined

# do clustering
compute cluster solid cluster/atom 1.3 # Create a cluster where all atoms within are solid and max 1.3 units from another member

# define chunks one chunk per cluster
compute clus_chunks solid chunk/atom c_cluster nchunk every compress yes  # Says which atoms are in which chunk

# count the size of each chunk
compute size_chunks solid property/chunk clus_chunks count


# Find the maximum entry in the vector of chunk sizes
variable max_n equal max(c_size_chunks)


# Thermo style which includes this variable
# thermo_style custom step temp pe vol v_max_n

thermo ${N}  # Print the thermo information every 100 steps
thermo 1000  

# Reset the npt fix at a lower temperature (below freezing)
fix 1  all npt temp  ${temp} ${temp}  0.1  iso  5.68  5.68  0.5  mtk yes tchain  5  pchain  5
fix 1  all npt temp  0.45 ${temp}  0.1  iso  5.68  5.68  0.5  mtk yes tchain  5  pchain  5
fix 1  all npt temp  0.45 0.45  0.1  iso  5.68  5.68  0.5  mtk yes tchain  5  pchain  5

dump dmp2 all dcd ${N} traj.dcd
dump dmp2 all dcd 1000 traj.dcd


compute msd all msd com yes
variable twopoint equal c_msd[4]/6/(step*dt+1.0e-6)
fix 9 all vector 10 c_msd[4]
variable fit equal slope(f_9)/6/(10*dt)
thermo_style custom step temp pe c_msd[4] v_twopoint v_fit v_max_n

fix 1 all npt temp 1.25 ${temp} 0.1 iso 5.68 5.68 0.5 mtk yes tchain 5 pchain 5
fix 1 all npt temp 1.25 0.45 0.1 iso 5.68 5.68 0.5 mtk yes tchain 5 pchain 5
run 2000000 # 5000000  # Run for this many steps
Neighbor list info ...
  update every 1 steps, delay 10 steps, check yes
  max neighbors/atom: 2000, page size: 100000
  master list distance cutoff = 3.8
  ghost atom cutoff = 3.8
  binsize = 1.9, bins = 8 8 8
  4 neighbor lists, perpetual/occasional/extra = 1 3 0
  (1) pair lj/cut, perpetual
      attributes: half, newton on
      pair build: half/bin/atomonly/newton
      stencil: half/bin/3d
      bin: standard
  (2) compute orientorder/atom, occasional
      attributes: full, newton on
      pair build: full/bin/atomonly
      stencil: full/bin/3d
      bin: standard
  (3) compute coord/atom, occasional
      attributes: full, newton on
      pair build: full/bin/atomonly
      stencil: full/bin/3d
      bin: standard
  (4) compute cluster/atom, occasional
      attributes: full, newton on
      pair build: full/bin/atomonly
      stencil: full/bin/3d
      bin: standard
Per MPI rank memory allocation (min/avg/max) = 9.822 | 9.827 | 9.832 Mbytes
Step Temp PotEng c_msd[4] v_twopoint v_fit v_max_n 
   12000    1.2454787   -7.0670604 3.1595851e-30 2.1941563e-32 8.3333333e+20            1 
   13000    1.2426218   -7.0287687   0.48249136 0.0030928932  0.039112545            2 
   14000    1.2328515   -7.0248136   0.92465532 0.0055039005   0.03821431            2 
   15000    1.2612969   -7.0628868    1.3588108 0.0075489487  0.037207797            1 
   16000    1.2463283   -7.0334953      1.79576 0.0093529165  0.036715051            1 
   17000    1.2454702    -7.074028    2.2854579  0.011203225  0.037359731            2 
   18000    1.2369991    -7.077889    2.7028921  0.012513389  0.037586839            1 
   19000    1.2730396   -7.0424485    3.1188564  0.013679194  0.037190681            4 
   20000    1.2490886   -7.0167607    3.5937509  0.014973962  0.037034878            2 
   21000    1.2309388   -7.0076297    4.0997746  0.016268946  0.037094265            2 
   22000    1.2567381   -7.0450411    4.5733201  0.017323182  0.037332333            1 
   23000    1.2445867   -7.0528096    5.0231262  0.018199732  0.037602121            1 
   24000    1.2363688   -7.0269265    5.4065856  0.018772866  0.037702712            1 
   25000    1.2373646   -7.0755931    5.7696506  0.019232168  0.037541282            1 
   26000    1.2485946   -7.0428837    6.2446327  0.020014848  0.037284941            2 
   27000    1.2754178   -7.0596698    6.6949824  0.020663525   0.03721806            2 
   28000    1.2336495   -7.0513025    7.2572095  0.021598838  0.037339409            1 
   29000    1.2577896    -7.089243    7.7440168  0.022252921  0.037448042            2 
   30000    1.2515813   -7.0274689    8.2060321  0.022794533  0.037489275            1 
   31000    1.2697432   -7.0664673    8.6759428  0.023322427  0.037620086            2 
   32000    1.2323293   -7.0223286    9.2490615  0.024086097  0.037796245            1 
   33000    1.2313229   -7.0798295    9.7677913  0.024666139  0.038035481            1 
   34000    1.2336344   -7.0532707    10.136727  0.024844918  0.038221253            1 
   35000    1.2219664   -7.0890078    10.487899  0.024971187  0.038274756            1 
   36000    1.2390157     -7.04245    11.027004  0.025525471  0.038270527            2 
   37000    1.2165784   -7.0379886    11.358055  0.025581205  0.038241052            2 
   38000    1.2309445   -7.1001722    11.799144  0.025875315  0.038180347            3 
   39000    1.2071345   -7.0382078    12.329911  0.026345964  0.038165973            2 
   40000    1.2424527   -7.0834899    12.944359  0.026967414  0.038203006            1 
   41000    1.2411554   -7.1023242    13.487901  0.027414432  0.038328018            1 
   42000    1.2418599   -7.1086845    13.915368  0.027609857  0.038419013            1 
   43000    1.2366272   -7.0786703    14.218372  0.027554984  0.038452654            2 
   44000    1.2300027   -7.1177169    14.620313  0.027689986  0.038425153            4 
   45000    1.2455604   -7.0976881     15.08083  0.027927463  0.038396129            1 
   46000    1.2716676   -7.1072512    15.446506  0.027982801  0.038359949            2 
   47000    1.2180324   -7.0966695    15.782611  0.027983352  0.038264104            1 
   48000    1.2557941   -7.0657999    16.207712  0.028138388  0.038158918            1 
   49000    1.2167895    -7.090691    16.688768  0.028382258  0.038076603            2 
   50000    1.2284258   -7.0492748    17.125111  0.028541852  0.038014249            1 
   51000    1.2221357   -7.1106749    17.462998  0.028534309  0.037933885            1 
   52000    1.2214964   -7.1128123    17.902814  0.028690408  0.037851365            2 
   53000     1.251022   -7.0986504    18.365079   0.02887591  0.037765852            2 
   54000    1.2382897   -7.1219311    18.812293  0.029031316  0.037699288            2 
   55000    1.2376446   -7.0716807     19.30982  0.029257302   0.03763992            1 
   56000    1.2521035   -7.0963987    19.587357  0.029147852  0.037575037            1 
   57000    1.2397512   -7.0767256    20.001551  0.029242033  0.037475844            1 
   58000    1.2460682   -7.0693303    20.394996  0.029303155  0.037389827            2 
   59000    1.2234463   -7.1046965    20.769712  0.029335751  0.037298006            1 
   60000    1.2534131   -7.0912277     21.18135  0.029418541  0.037206589            1 
   61000    1.2084222   -7.1248662    21.555914  0.029447969  0.037121706            1 
   62000    1.2320554   -7.0898461    21.965145  0.029523044  0.037038123            2 
   63000    1.2310662   -7.0878477     22.46011   0.02970914  0.036957873            2 
   64000    1.2608786   -7.0695696    22.852524   0.02975589   0.03687807            1 
   65000    1.2133384   -7.0882212    23.124381  0.029646642  0.036802873            1 
   66000    1.2281335   -7.0936164    23.515899  0.029691792   0.03671318            2 
   67000    1.2146777   -7.0587176    24.039775  0.029900218  0.036625195            2 
   68000    1.2075223   -7.1085108    24.389976  0.029889676  0.036558269            1 
   69000    1.2168559   -7.1170481    24.759939  0.029903308  0.036492353            3 
   70000    1.2182805   -7.1058067    25.279917  0.030095139  0.036426471            1 
   71000    1.2383979   -7.0981892    25.708461  0.030174249  0.036379333            1 
   72000    1.2327512   -7.0525439    26.280537  0.030417288  0.036347539            1 
   73000    1.2272519   -7.1076523    26.734704  0.030519068  0.036321275            1 
   74000    1.2133195   -7.0957051    27.085617   0.03050182  0.036291905            3 
   75000    1.2052316   -7.0493249     27.59061  0.030656233   0.03625933            3 
   76000    1.2100423     -7.13901    27.818016   0.03050221  0.036218732            1 
   77000    1.2523836    -7.120684    28.020715  0.030325449  0.036168788            1 
   78000    1.2167999   -7.0184588    28.541743  0.030493314  0.036104092            1 
   79000    1.2251086   -7.0921379    28.774972  0.030353346  0.036044426            2 
   80000     1.198495   -7.1144013      29.1967  0.030413229  0.035977993            3 
   81000    1.1911978   -7.0944387    29.583591  0.030435793  0.035911073            1 
   82000    1.2070092   -7.0911721    30.181594  0.030672352  0.035858173            2 
   83000    1.2184204   -7.1246247    30.524285  0.030646873  0.035818986            2 
   84000    1.2112713   -7.0676314    31.021292  0.030775091  0.035784347            2 
   85000     1.224783   -7.1382887    31.334524  0.030720121  0.035740609            2 
   86000    1.1960722   -7.1502978     31.80335  0.030817199  0.035701591            2 
   87000    1.2182253   -7.1011613    32.272957  0.030912794  0.035671395            5 
   88000    1.2292653      -7.1008    32.734399  0.030998483  0.035641152            1 
   89000    1.2177157   -7.1394917    33.017584   0.03091534  0.035614162            2 
   90000    1.2140583   -7.0519793    33.705414  0.031208716  0.035600567            1 
   91000    1.2034964   -7.1182061    34.145744  0.031268996  0.035585999            1 
   92000    1.2043368   -7.1108476    34.424786  0.031181872  0.035564223            2 
   93000    1.2271777   -7.1385787     34.63781  0.031037464  0.035539152            1 
   94000    1.2213782   -7.0981634    35.376485  0.031362132    0.0355138            1 
   95000    1.2296164   -7.0974937    35.339153  0.030999257   0.03547888            2 
   96000    1.2201641   -7.1357421    35.548481  0.030858056  0.035436598            1 
   97000     1.218844   -7.1057551    36.091705   0.03100662  0.035393239            2 
   98000    1.2109184    -7.102013    36.484781  0.031024473  0.035352026            2 
   99000    1.2158844   -7.1432969     36.66853  0.030865766   0.03531011            1 
  100000    1.2113072    -7.124115    37.121802  0.030934835  0.035257809            3 
  101000    1.2027232   -7.1456624    37.468049  0.030914232  0.035206471            2 
  102000    1.2062243    -7.123124    37.960438   0.03101343  0.035161589            1 
  103000    1.2132201   -7.1150076    38.404177   0.03107134  0.035115738            1 
  104000    1.2162923   -7.1445284    38.653631  0.030972461  0.035069986            1 
  105000    1.2206134   -7.1348932    39.091183  0.031024748   0.03502741            3 
  106000    1.2127925   -7.1664042    39.413938    0.0309858  0.034984649            6 
  107000    1.2083495   -7.1265461    39.840814  0.031028671  0.034942579            2 
  108000    1.1915516   -7.1101699    40.234568  0.031045191  0.034899922            1 
  109000    1.2287618   -7.1418866    40.751374  0.031155485  0.034865986            1 
  110000    1.2030659   -7.0880618    41.184233  0.031200176  0.034834452            1 
  111000    1.2030517   -7.1472687    41.373909  0.031061493  0.034802029            2 
  112000    1.2147527   -7.1050129    42.049644  0.031286937  0.034766084            1 
  113000    1.2155645   -7.0794664      42.6046  0.031419321  0.034740018            1 
  114000    1.2131986   -7.1417686    42.710037  0.031220787  0.034715794            1 
  115000    1.2294178   -7.1104726    43.298124  0.031375452  0.034686929            1 
  116000    1.2145008   -7.1275564    43.613254  0.031331361  0.034663182            1 
  117000    1.2110149   -7.1598695    43.966459  0.031315142  0.034642803            2 
  118000    1.1974651   -7.1198763     44.52232  0.031442316  0.034621625            8 
  119000    1.2107268   -7.1490775    45.032814  0.031535584  0.034601728            1 
  120000    1.2263276   -7.1825944    45.416017  0.031538901  0.034589625            2 
  121000    1.1831239   -7.1411118    45.786957  0.031533717  0.034580887            1 
  122000    1.2052101   -7.1720397    46.123638  0.031505217  0.034569875            1 
  123000     1.188064   -7.1473414    46.457061  0.031474973  0.034554484            2 
  124000    1.1961249   -7.1414165    46.896967  0.031516779  0.034536016            2 
  125000    1.1805832   -7.1414026    47.217035  0.031478023  0.034519604            2 
  126000    1.2077959   -7.1067603    47.691439  0.031541957  0.034500951            1 
  127000    1.1951151    -7.115941    48.225366  0.031643941  0.034486193            1 
  128000    1.1675333   -7.1393058    48.481601  0.031563542  0.034469534            3 
  129000    1.1954033   -7.1561083    48.743094  0.031487787  0.034452089       -1e+20 
  130000    1.1857712   -7.1509578     49.09602  0.031471808  0.034432099            1 
  131000    1.1870464   -7.1558709    49.325089  0.031377283  0.034409315            4 
  132000    1.2095884   -7.2021007    49.942983  0.031529661  0.034388981            1 
  133000    1.2011833   -7.1405121    50.314958  0.031525663  0.034368655            1 
  134000    1.2299062   -7.1659992    50.642042  0.031493807  0.034347239            1 
  135000    1.2076434   -7.1652337    51.056143  0.031516137  0.034325823            1 
  136000    1.2136858   -7.1595781    51.420089  0.031507408  0.034307244            1 
  137000    1.1863386   -7.1626354    51.998673  0.031629363   0.03429072            3 
  138000    1.1848261   -7.1750964    52.466959  0.031682946  0.034272375            2 
  139000    1.1945325   -7.1771944    52.643271  0.031560714   0.03425588            1 
  140000     1.203476   -7.1347238    53.478268  0.031832302  0.034242957            1 
  141000    1.1975476   -7.1226378    53.799276  0.031796262  0.034231771            3 
  142000    1.1977083   -7.1450178    54.151439  0.031779013  0.034223914            2 
  143000    1.1999692   -7.1240496    54.449905  0.031730714  0.034212167            2 
  144000    1.2228566   -7.1707013    54.669695  0.031637555  0.034197861            2 
  145000    1.2005022   -7.1304218    55.061309   0.03164443  0.034181332            1 
  146000    1.1811754   -7.1699926    55.229078  0.031523446  0.034163755            1 
  147000    1.1985012   -7.1888085    55.520121  0.031473991  0.034143954            1 
  148000    1.1946625   -7.2177192     55.85508  0.031449933  0.034116709            1 
  149000    1.1701794   -7.1306939    56.464487  0.031579691  0.034091142            1 
  150000     1.210904   -7.1381793    56.805852  0.031558806  0.034069374            1 
  151000    1.1826186   -7.1765579    57.125143  0.031526017  0.034051652            1 
  152000    1.1773243   -7.1913567    57.728294  0.031649284    0.0340341            2 
  153000    1.2143092   -7.1584408    58.040299  0.031612363  0.034015505            3 
  154000    1.1783921   -7.1641243    58.826726  0.031832644  0.034003498            2 
  155000    1.1813886   -7.1755692    59.045183  0.031744722  0.033993517            2 
  156000    1.1952104   -7.1843338    59.580435  0.031827156  0.033982699            1 
  157000    1.1948208   -7.1719156    60.088555  0.031894137  0.033974213            2 
  158000    1.1843114   -7.1612577    60.654016  0.031990515  0.033967138            3 
  159000     1.175457   -7.1670506     61.03202  0.031987432  0.033962297            3 
  160000    1.2024146   -7.1755601    61.285216  0.031919383  0.033957947            1 
  161000    1.1979338    -7.159427    61.662188  0.031916246  0.033952563            2 
  162000    1.1929567   -7.1767166    62.053712  0.031920634  0.033946482            3 
  163000     1.193053   -7.1376397      62.3224  0.031862168  0.033939852            3 
  164000    1.1857249   -7.1967116    62.325323  0.031669372  0.033929011            2 
  165000    1.1598233   -7.1770047    62.779514  0.031706825   0.03391531            5 
  166000    1.2016544    -7.185765    63.248192    0.0317511  0.033899136            3 
  167000    1.1981575   -7.1595854    63.727768  0.031800283  0.033884126            2 
  168000     1.174946   -7.1660141    64.307669  0.031898645  0.033871428            5 
  169000    1.1672506   -7.2225301    64.139587  0.031627015  0.033854392            2 
  170000    1.1982995    -7.207467    64.378345  0.031558012  0.033836208            2 
  171000    1.2054596   -7.1828745     65.00715  0.031679898  0.033818645            1 
  172000     1.186234   -7.1875977    65.307144  0.031641058  0.033801988            2 
  173000    1.2038115   -7.2212411    65.647146  0.031621939  0.033784026            2 
  174000    1.1848427   -7.1978118    65.935892  0.031578492  0.033765195            2 
  175000     1.178946   -7.1884137    66.526724  0.031679392  0.033747806            2 
  176000    1.2040682   -7.2388459    66.402249  0.031440459  0.033726929            1 
  177000    1.2098931   -7.2338391    67.123632  0.031602463   0.03370489            1 
  178000    1.1798091   -7.2646824    67.349584  0.031530704   0.03368584            3 
  179000    1.1655251   -7.1587197    68.204539  0.031752579  0.033667896            2 
  180000    1.1681946   -7.1739088    68.186812  0.031567968  0.033650204            1 
  181000    1.1809354   -7.1588976    68.665296  0.031613856  0.033633132            1 
  182000    1.1677355   -7.2147358    68.889635  0.031542873  0.033611266            1 
  183000    1.1813652   -7.1965614    69.151926  0.031489948  0.033590058            1 
  184000    1.1641305   -7.1894304    69.456043  0.031456541  0.033569679            1 
  185000    1.1765342   -7.2258172     69.98582  0.031525144  0.033549294            1 
  186000    1.1642701   -7.1898707    70.100038  0.031406827  0.033528403            1 
  187000    1.1687732   -7.1676494    70.238033  0.031300371  0.033505022            2 
  188000    1.1768444   -7.2212664    70.791746   0.03137932  0.033480577            4 
  189000    1.1654391   -7.2220331     71.17091  0.031380472  0.033456661            1 
  190000    1.1793705   -7.2019573     71.71149  0.031452408  0.033433825            2 
  191000    1.1696802   -7.2384797     72.10019  0.031457325  0.033411643            1 
  192000    1.1732373   -7.2283905    72.264529  0.031364813  0.033391222            1 
  193000    1.2007503   -7.1715425    73.199432  0.031605972  0.033372408            2 
  194000    1.1738224   -7.2124921     73.11572  0.031407096   0.03335416            3 
  195000    1.1800596   -7.2158997    73.715262  0.031502249  0.033334001            2 
  196000    1.1730312   -7.2252606    73.975951   0.03145236   0.03331599            1 
  197000    1.1780773   -7.1995886    74.401709  0.031472804   0.03329751            1 
  198000    1.2088982   -7.1799165    74.627283  0.031408789  0.033277501            1 
  199000    1.1614694   -7.2770359    74.715985  0.031288101  0.033257364            1 
  200000    1.1717193   -7.1730928    75.480561  0.031450234  0.033239134            1 
  201000    1.1462396   -7.2367063    75.486939  0.031296409  0.033218339            2 
  202000    1.1915692   -7.2301038    76.000061  0.031353161  0.033198732            1 
  203000    1.1956798    -7.222818    76.525596  0.031414448  0.033180961            1 
  204000    1.1708249   -7.2111356    76.898694  0.031412865  0.033163021            2 
  205000    1.1943273    -7.194749    77.260792  0.031406826  0.033142117            1 
  206000    1.1892237   -7.1718352    77.523962  0.031360826  0.033123363            2 
  207000    1.1617639   -7.1891506    77.715559  0.031286457  0.033104589            1 
  208000    1.1978506   -7.2085189    78.111987  0.031294866  0.033083111            1 
  209000    1.1652392   -7.1973856     78.07827  0.031131687    0.0330617            1 
  210000    1.1653585   -7.1988366     78.80291  0.031270996   0.03304114            2 
  211000    1.1490863   -7.2398467    78.990607  0.031196922  0.033020461            1 
  212000    1.1612631   -7.2448565    79.223642  0.031141369   0.03299938            1 
  213000     1.178212   -7.2072283    79.969568  0.031286998  0.032980251            1 
  214000    1.1677407   -7.2304852    80.470537  0.031335879  0.032963991            2 
  215000    1.1626371    -7.223631    80.805826  0.031320088  0.032949496            2 
  216000    1.1562241   -7.2178661    81.033407  0.031262888  0.032933872            2 
  217000    1.1729642   -7.2922911    81.532639  0.031310537  0.032916668            2 
  218000    1.1688492   -7.2635039    82.069838  0.031372262  0.032899411            1 
  219000     1.168724   -7.2270709    82.353383  0.031336904  0.032885823            1 
  220000    1.1616646   -7.2567526    82.435993  0.031225755  0.032871528            2 
  221000    1.1600109    -7.251046    82.649664  0.031165032  0.032854541            1 
  222000    1.1511823   -7.2235956    83.537596  0.031357956  0.032838321            1 
  223000    1.1823244   -7.2586166    84.052822  0.031409874  0.032823449            1 
  224000     1.165419   -7.2187693    84.328543  0.031372226  0.032810595            1 
  225000    1.1415224   -7.2062859    84.788745  0.031403239  0.032798528            3 
  226000    1.1561978   -7.2619741    84.831873  0.031280189   0.03278559            3 
  227000    1.1745231   -7.2512768    85.707053  0.031463676  0.032773402            3 
  228000    1.1568713   -7.2932359    85.497368  0.031249038  0.032760171            1 
  229000    1.1406108   -7.2297658    86.191318  0.031365108  0.032745939            1 
  230000    1.1748577   -7.2075726    86.258864  0.031253212   0.03273039            1 
  231000    1.1532962   -7.1910686    86.418352  0.031175451   0.03271417            1 
  232000    1.1486009   -7.2904512    86.635595  0.031119107  0.032696835            1 
  233000    1.1436652   -7.2338199    87.256243  0.031207526  0.032680612            1 
  234000     1.161628   -7.2869965    87.615063  0.031201945    0.0326657            2 
  235000    1.1418665   -7.1945044    88.585627  0.031413343  0.032650937            2 
  236000    1.1654491   -7.2561864    88.064091  0.031096077    0.0326373            2 
  237000    1.1601219   -7.2331682    88.825441  0.031232574  0.032622474            2 
  238000    1.1664788   -7.2718319    89.083244  0.031191612  0.032607698            2 
  239000    1.1460985    -7.243209    89.206379  0.031104037   0.03259124            2 
  240000    1.1602568   -7.2668685    89.589767  0.031107558  0.032572311            3 
  241000     1.151307   -7.2794721    89.866061  0.031074018  0.032554468            1 
  242000     1.158408   -7.2399828    90.494704  0.031162088  0.032536766            2 
  243000    1.1380129   -7.2793518    90.687264  0.031099885  0.032520018            1 
  244000    1.1592587   -7.2211525     91.19888  0.031147159  0.032501938            2 
  245000    1.1507052   -7.2815088    91.195972  0.031019038  0.032484021            1 
  246000     1.136475   -7.2967411    91.434383  0.030973707  0.032465371            6 
  247000    1.1807632   -7.2798875    91.939026  0.031018565  0.032447018            1 
  248000    1.1395656   -7.2356742    92.232457  0.030992089  0.032429899            2 
  249000    1.1677204   -7.2708962    92.619895  0.030997287  0.032412763            1 
  250000    1.1531991   -7.2503744    93.011409  0.031003803  0.032394163            1 
  251000    1.1525501   -7.2746088    93.007557  0.030879003  0.032376188            4 
  252000    1.1364528   -7.2685946    93.689717  0.030982049  0.032359122            1 
  253000    1.1547495    -7.301814    94.270696  0.031050954  0.032342935            2 
  254000    1.1487645   -7.2661867    94.269842  0.030928426  0.032326241            2 
  255000    1.1583756   -7.2714377    95.249542  0.031127301  0.032310882            2 
  256000    1.1374754   -7.2877052    95.359068  0.031041363   0.03229661            2 
  257000    1.1398755   -7.2648899     95.75445  0.031048784  0.032280709            1 
  258000    1.1519966    -7.294801    96.030139  0.031017487  0.032266239            1 
  259000    1.1411767   -7.2289077    96.359324  0.031003643  0.032252276            2 
  260000    1.1685948   -7.2956321    96.634314  0.030972536  0.032237057            2 
  261000    1.1582721   -7.2868229    96.985625  0.030966036  0.032222453            1 
  262000    1.1379883   -7.2583279    97.574036  0.031034999  0.032208356            2 
  263000    1.1447662   -7.2662785     97.84514  0.031002896  0.032192573            2 
  264000     1.137618   -7.2537826    98.072637  0.030957272  0.032177818            1 
  265000    1.1522547   -7.2642609    98.195809  0.030879185  0.032161917            2 
  266000    1.1443648   -7.2842508    98.174805  0.030756518  0.032144513            2 
  267000    1.1448115   -7.2706985    98.863054  0.030856134  0.032126658            2 
  268000    1.1480655    -7.243354    98.960479  0.030771293  0.032107519            2 
  269000    1.1484252   -7.2855829    99.118282  0.030705788  0.032089361            1 
  270000    1.1725534   -7.2765545     99.54507  0.030723787  0.032070091            2 
  271000    1.1285559   -7.2947933    99.993748  0.030748385  0.032051708            2 
  272000    1.1603088   -7.2788637    100.57364  0.030813003  0.032034719            2 
  273000    1.1065649   -7.2914581    100.71836   0.03074431  0.032016949            1 
  274000    1.1579742   -7.2549456    101.34092  0.030821449  0.031999092            2 
  275000    1.1330665   -7.2666003    101.38838  0.030723752  0.031982587            2 
  276000    1.1551673   -7.2592952    102.08273  0.030822079  0.031965275            3 
  277000    1.1309954   -7.2554029    102.06659  0.030705955  0.031948883            1 
  278000    1.1177625   -7.3028591    102.17642  0.030628422  0.031930535            1 
  279000    1.1622906    -7.287253    102.23653  0.030536599  0.031911944            2 
  280000    1.1387756   -7.3035385    102.96771  0.030645152  0.031893625            2 
  281000    1.1321911   -7.2788918    103.44865  0.030678722   0.03187576            1 
  282000    1.1319656   -7.2858078    103.63704  0.030625602  0.031859046            1 
  283000    1.1657631    -7.274742    104.09753  0.030652984  0.031842176            2 
  284000    1.1134334   -7.2576869    104.38381  0.030629052  0.031826595            2 
  285000    1.1362517    -7.299809     104.5429  0.030568099  0.031809751            1 
  286000    1.1239304   -7.3058958    104.63805  0.030488941  0.031792368            1 
  287000    1.1326764   -7.3247906    104.73971  0.030412227  0.031773422            1 
  288000    1.1608127   -7.2730918    105.43427  0.030507601  0.031753828            1 
  289000    1.1535527   -7.3604681    105.34444  0.030376136   0.03173383            1 
  290000    1.1511901   -7.3447981    106.15434  0.030504121  0.031714914            2 
  291000    1.1219815   -7.2919915    106.65464  0.030542565  0.031696917            2 
  292000     1.143076   -7.2333202     107.0941  0.030563385  0.031680253            3 
  293000    1.1682215   -7.2754837    107.69849  0.030630971  0.031664033            2 
  294000    1.1289177   -7.2857932    108.02767  0.030620088  0.031647913            3 
  295000    1.1210219   -7.2885165    108.12753  0.030544501  0.031631326            1 
  296000    1.1277032   -7.3008224    108.62394  0.030581064  0.031614872            2 
  297000    1.1237398   -7.3164169    108.92324  0.030562078  0.031599036            1 
  298000    1.1279854   -7.3215163    109.12319  0.030515433  0.031584967            1 
  299000    1.1434797   -7.3100974     109.5236  0.030524972  0.031569671            2 
  300000     1.135586   -7.3016833    109.62734  0.030452039  0.031553854            1 
  301000    1.1356625   -7.3084662    110.23924  0.030520276  0.031538681            1 
  302000    1.1187411     -7.33401    110.78436  0.030569635  0.031522809            2 
  303000    1.1337069    -7.282127    111.06449   0.03054579   0.03150766            2 
  304000    1.1429441   -7.3254856    110.89922  0.030400006  0.031492194            1 
  305000    1.1408213   -7.3247307    111.39499  0.030435789  0.031475827            2 
  306000    1.1336037   -7.3326463     111.4314  0.030346242  0.031459744            2 
  307000    1.1255311   -7.3296375    111.91044  0.030377425  0.031442851            1 
  308000    1.1077105   -7.3315249    111.99677  0.030302156  0.031425411            1 
  309000    1.0987759   -7.3038586    111.97347  0.030197807   0.03140808            2 
  310000     1.094812   -7.2781879    112.81973  0.030327884  0.031390152            3 
  311000    1.1262758   -7.3092279    113.19392  0.030330632  0.031372528            1 
  312000     1.115211   -7.3252436    112.64333   0.03008636  0.031354726            1 
  313000     1.120072   -7.3507771    113.16527  0.030129198  0.031335246            1 
  314000    1.1074098   -7.3840921    113.38426  0.030091365  0.031316087            1 
  315000    1.1173355   -7.3009243    114.28925  0.030235252  0.031296255            2 
  316000    1.1250316   -7.3326106    114.20459  0.030117244  0.031277876            1 
  317000    1.1063785   -7.2904817    114.65672  0.030141093  0.031259725            1 
  318000    1.1125573   -7.3265201    115.09614  0.030161463   0.03124242            2 
  319000    1.1661707   -7.3249296    115.09148  0.030065694  0.031224343            2 
  320000    1.1504589   -7.3329943    115.54886   0.03009085  0.031206765            2 
  321000    1.1071636   -7.3241185    115.64388  0.030021776  0.031188511            1 
  322000    1.1210006   -7.2900209    116.63946  0.030186196  0.031170506            3 
  323000    1.1013582   -7.3223315    116.56109   0.03007252  0.031152483            1 
  324000    1.1023115   -7.3221938    116.69553  0.030014283   0.03113386            1 
  325000    1.1275072   -7.3080263    116.84879  0.029961228  0.031114443            1 
  326000    1.1325061   -7.3174896    117.11197  0.029936598  0.031095495            4 
  327000    1.1472283   -7.3170811     117.4992  0.029943731  0.031076311            1 
  328000    1.1246847   -7.3678168    118.24089  0.030040875  0.031058318            3 
  329000    1.1325643   -7.3271203    118.21257  0.029942394  0.031039589            1 
  330000    1.1114857   -7.3474386      118.279  0.029868434  0.031020789            1 
  331000    1.1215315   -7.3382359    119.02617  0.029966306   0.03100203            1 
  332000    1.1107001   -7.2956176    119.35855  0.029959476  0.030983829            2 
  333000    1.1080557   -7.3547498    118.79542  0.029728583  0.030964388            1 
  334000    1.1134381   -7.3372168    119.60741  0.029842169  0.030944847            3 
  335000    1.1455197    -7.360542    120.00948  0.029853105  0.030925767            1 
  336000    1.1468352   -7.3300034    120.32759  0.029843153  0.030907662            1 
  337000    1.1236784   -7.3728853    120.45475  0.029786042  0.030889515            4 
  338000    1.1258853   -7.3246853    120.94635   0.02981912   0.03087085            3 
  339000    1.1231839   -7.3738656    121.20193  0.029793986  0.030851691            1 
  340000    1.1556396   -7.3184711    121.38148  0.029750362  0.030831273            1 
  341000    1.0677995    -7.399963     121.5946  0.029715201  0.030810655            2 
  342000    1.1292685   -7.2982551    122.04193  0.029737312  0.030790307            2 
  343000    1.1322254   -7.3469205    121.61258  0.029546303  0.030769492            1 
  344000     1.128147    -7.351629    122.29787  0.029626422  0.030750024            3 
  345000    1.1287605   -7.3617103    122.39626  0.029564313  0.030729598            2 
  346000    1.1050885   -7.3002586    122.75113  0.029564339   0.03070887            2 
  347000    1.0944558   -7.3184346    122.80541  0.029492173  0.030688306            4 
  348000    1.1095412   -7.2909716     123.4656  0.029565517  0.030667101            1 
  349000    1.0838675   -7.3783682     123.5069  0.029490664  0.030646223            2 
  350000    1.1143768   -7.3753121    123.66143  0.029443197  0.030624022            2 
  351000    1.1085266   -7.3882183    124.55128  0.029570579  0.030602757            2 
  352000    1.1261337   -7.3638193     124.6721  0.029515175  0.030582058            1 
  353000    1.1208931   -7.3428911    124.83707  0.029470507  0.030562197            6 
  354000    1.1045141   -7.3582606    124.98896  0.029423014  0.030541585            4 
  355000    1.1063243   -7.3607221    125.39572  0.029435615    0.0305206            1 
  356000    1.0947868   -7.3784668     125.2857  0.029327176  0.030499117            1 
  357000    1.1119331   -7.3546177     125.6364  0.029326891  0.030477639            1 
  358000    1.1151269   -7.3871597     125.7411  0.029269343  0.030456014            2 
  359000    1.1041742   -7.3371336    126.77868  0.029428663  0.030435057            1 
  360000    1.1222576   -7.3149085    126.85873  0.029365446  0.030414223            2 
  361000    1.1093969   -7.3629336    126.64547  0.029234872  0.030392603            2 
  362000    1.1127867   -7.3664306    127.00973  0.029237967  0.030370315            1 
  363000    1.1083962   -7.3613278    127.56825  0.029285642  0.030347699            1 
  364000    1.0965897   -7.3450859     127.6189  0.029216781  0.030325371            3 
  365000    1.1059396   -7.3778889    128.20793  0.029271216  0.030303679            1 
  366000    1.1103343    -7.352015     128.2868  0.029209198  0.030282247            1 
  367000    1.0937218   -7.3363277    128.80316  0.029246857  0.030260218            1 
  368000    1.1224763   -7.3614054    128.95009  0.029200655  0.030238041            1 
  369000    1.1191041   -7.3996969    128.83798  0.029096201  0.030216297            1 
  370000    1.1156421    -7.370027    129.38949  0.029141777  0.030194643            1 
  371000    1.1176671   -7.3533473    129.56606  0.029102888  0.030173534            2 
  372000    1.0798483   -7.3958715    129.75408  0.029066775  0.030152612            1 
  373000    1.0986645   -7.3167486    130.73836  0.029208749  0.030132271            1 
  374000    1.1273215   -7.3954008    130.93488  0.029174439  0.030112281            3 
  375000    1.1062088   -7.4062404    130.52603  0.029005785  0.030092542            2 
  376000    1.0887568   -7.3763264    131.37519  0.029116841  0.030072017            4 
  377000    1.1032794   -7.3577809    131.49295  0.029065638  0.030051672            3 
  378000    1.0984708   -7.3971339    131.55352  0.029002099  0.030030831            1 
  379000    1.1072403   -7.3880299    132.10674  0.029047215  0.030010106            5 
  380000      1.12314   -7.3471905    132.20744   0.02899286   0.02998901            2 
  381000    1.0990266   -7.3737052    132.05212  0.028882792  0.029968207            1 
  382000    1.0962494   -7.4165371    132.47494  0.028899419  0.029946391            1 
  383000    1.0970892   -7.4123686    132.55346  0.028841048  0.029924639            2 
  384000    1.1362811   -7.3772937      132.848   0.02882986  0.029902516            1 
  385000    1.0900969    -7.409062    133.15887  0.028822266  0.029880342            2 
  386000    1.0826673   -7.3968566    133.07594  0.028729693    0.0298575            2 
  387000    1.1049686   -7.3776524    133.32954  0.028710064  0.029835197            3 
  388000    1.1092688   -7.3917183    133.85463  0.028748846  0.029811856            1 
  389000    1.1100648   -7.3644964    133.55372  0.028610479  0.029788925            3 
  390000    1.1101922   -7.3537241    134.31184   0.02869911  0.029766313            3 
  391000    1.1159378   -7.3878433     134.6256  0.028692582  0.029743717            1 
  392000    1.1123042   -7.4149178    134.62869  0.028620044  0.029720925            2 
  393000     1.077142   -7.3652679    134.73439  0.028569633  0.029697294            2 
  394000    1.0912614   -7.4255297    134.91359  0.028535024  0.029673548            2 
  395000      1.08075   -7.4267099    135.41693  0.028568972  0.029649924            2 
  396000    1.0772406   -7.4326042    135.75636  0.028568258  0.029626898            2 
  397000    1.1075703   -7.4127736    136.45946  0.028643884  0.029603499            2 
  398000     1.117316   -7.3876465    136.35378  0.028549787  0.029580804            3 
  399000    1.1082758   -7.4171628    136.65604  0.028541361  0.029558063            5 
  400000    1.0864537   -7.4355075    136.35852  0.028408025  0.029534883            2 
  401000    1.1166032   -7.3963493    136.75575  0.028419732  0.029511739            2 
  402000    1.1021264   -7.3921436    137.60843  0.028525794   0.02948893            2 
  403000    1.0666488   -7.4401339     137.1618  0.028362654  0.029466154            1 
  404000    1.0933775   -7.3836599    138.07405   0.02848062  0.029443723            1 
  405000    1.0918195   -7.4281076    138.04747  0.028404829  0.029420803            3 
  406000    1.0806202   -7.4155122    138.28385  0.028383385  0.029398311            2 
  407000    1.1039457    -7.402868    138.83165   0.02842581  0.029376145            1 
  408000    1.0910086   -7.3900737    138.65985  0.028321049  0.029353615            1 
  409000    1.1085458   -7.4313702    138.66046  0.028251927  0.029330527            1 
  410000    1.0857383   -7.4100642    139.62709   0.02837949  0.029307949            1 
  411000    1.0770178   -7.4022541    139.86784  0.028359254  0.029285782            1 
  412000     1.084645   -7.4608437    139.38934  0.028193637  0.029263433            2 
  413000    1.1014888   -7.4425164    139.69074  0.028186186  0.029240579            1 
  414000    1.0809224   -7.4117235    140.15127  0.028210804  0.029218185            1 
  415000    1.1027376   -7.3885494    140.76133  0.028265327  0.029196514            2 
  416000    1.0902332   -7.4033542    140.71538  0.028188177  0.029174251       -1e+20 
  417000    1.1012523   -7.3960422    140.99919  0.028177295   0.02915147            3 
  418000     1.075784   -7.3678708    141.36631  0.028183075   0.02912921            3 
  419000    1.0957932   -7.4227054    141.53903  0.028150165  0.029107121            2 
  420000    1.0799413   -7.4227325    141.76306  0.028127592  0.029084543            2 
  421000    1.0888532   -7.4346915    142.20417  0.028148094  0.029062232            1 
  422000    1.0798554   -7.4270483    142.69806  0.028178921  0.029040657            2 
  423000    1.0764188   -7.4074366    142.72747  0.028118099  0.029018965            1 
  424000    1.1096664   -7.4629606    142.33206  0.027974068  0.028996799            1 
  425000    1.0907203   -7.4229536    142.91533  0.028022614  0.028975258            1 
  426000    1.0990943   -7.4501009    143.02329  0.027977952  0.028952711            2 
  427000    1.0928485   -7.4031807    143.43931   0.02799362  0.028930593            1 
  428000    1.0809069   -7.4228817    143.46186  0.027932606  0.028908857            2 
  429000    1.0669847    -7.378198    143.93998  0.027960368  0.028886655            2 
  430000    1.0633868   -7.4397077    144.19056  0.027943908   0.02886383            1 
  431000    1.0737841    -7.452018     143.7584  0.027795515  0.028840879            1 
  432000    1.0863616   -7.4146668    144.48997  0.027872294  0.028817094            1 
  433000    1.0527783   -7.4422526    144.58016   0.02782528  0.028793932            2 
  434000    1.0809645   -7.4655066    144.10273  0.027669495   0.02877002            5 
  435000    1.0869194   -7.4897238    144.77215  0.027734128  0.028746416            3 
  436000    1.0748651   -7.4693501    145.03604  0.027720956  0.028722585            1 
  437000    1.0860277   -7.4332682    145.04717  0.027659643  0.028699097            1 
  438000      1.07217   -7.4417801    145.68744   0.02771831  0.028675535            1 
  439000    1.0989963   -7.4848568    145.53793   0.02762679  0.028652027            4 
  440000    1.0832606   -7.4259983    146.33699  0.027715338  0.028629244            2 
  441000    1.0717118   -7.4531111    146.61257  0.027704567  0.028606952            1 
  442000    1.0915414     -7.41867    147.04763  0.027723912  0.028584725            2 
  443000    1.0642698   -7.4675441    146.84434  0.027623088  0.028561968            3 
  444000    1.0932826   -7.4517617    147.37799  0.027661035  0.028539073            3 
  445000    1.0855351    -7.481652    147.73286   0.02766533  0.028516921            1 
  446000    1.0851854   -7.4649486    147.37448  0.027536339  0.028494729            2 
  447000    1.0725457   -7.4488567    148.33042   0.02765295  0.028472549            2 
  448000     1.072398   -7.5256897    147.65719  0.027465995  0.028450346            1 
  449000    1.0987923   -7.3913159    148.51421  0.027563885  0.028428742            3 
  450000    1.0729765   -7.4581553    148.62935  0.027523954  0.028406861            1 
  451000     1.058838   -7.4380799    148.98306  0.027528282  0.028384582            1 
  452000    1.0805476   -7.4641781    149.15801  0.027499632  0.028362655            1 
  453000     1.092823   -7.4722141    149.40477  0.027484322  0.028339948            2 
  454000    1.0963405   -7.5177297    149.42609  0.027427697  0.028317815            4 
  455000    1.0782041   -7.4565043    149.76098  0.027428752  0.028295393            1 
  456000     1.052992   -7.4523901    149.84093  0.027383212  0.028272954            1 
  457000    1.0584053   -7.4186947    150.40274  0.027425736  0.028250592            1 
  458000    1.0917105   -7.4282798    151.07904  0.027488908  0.028229192            1 
  459000    1.0812907   -7.4361249    150.90797  0.027397961  0.028207779            2 
  460000    1.0689252   -7.4421948    150.92499  0.027341483  0.028186072            3 
  461000    1.0853414   -7.4519154    151.79017  0.027438571  0.028164672            2 
  462000     1.080801   -7.4312007    151.96845  0.027411336  0.028143363            3 
  463000     1.074706   -7.4512466    151.91354   0.02734225  0.028122544            2 
  464000    1.0943767   -7.4364161    152.22675  0.027339573  0.028101557            2 
  465000    1.0893796   -7.4509726    153.37799  0.027487094   0.02808106            2 
  466000    1.0910352    -7.460286    153.25274  0.027405711  0.028060927            2 
  467000    1.0944163   -7.4904641    153.14316  0.027327473  0.028040403            3 
  468000    1.0715927   -7.4953889    153.62753  0.027355329  0.028019767            2 
  469000    1.0565388   -7.4834126    153.15815  0.027213601  0.027999027            2 
  470000    1.0815341   -7.4628029     153.6582  0.027244362  0.027977852            1 
  471000    1.0732522   -7.4745612    153.96817  0.027241361  0.027956517            2 
  472000    1.0488571   -7.4542656    154.27828  0.027238397  0.027935214            2 
  473000    1.0647108   -7.4819416    153.84512  0.027104495    0.0279141            1 
  474000    1.0724353    -7.488184    153.88176  0.027053756  0.027892539            2 
  475000    1.0514077   -7.4478801     155.0386  0.027199754  0.027871463            2 
  476000    1.0371791   -7.4944686    155.15773  0.027163468  0.027851178            1 
  477000    1.0637254   -7.4998479    154.99421  0.027077955  0.027830132            1 
  478000    1.0595469   -7.4721244    155.35412  0.027084051  0.027808841            2 
  479000    1.0602448   -7.4290832    155.14479  0.026991091  0.027787144            1 
  480000     1.069438   -7.5005547    155.18574  0.026941968  0.027765875            1 
  481000    1.0545931   -7.4695586    156.19003  0.027059949  0.027744736            1 
  482000    1.0623244   -7.4759675    155.85246  0.026945446  0.027723679            2 
  483000    1.1069485   -7.4709188    156.55045  0.027010085  0.027702909            1 
  484000    1.0352196   -7.4170881    157.05044  0.027040365  0.027682294            2 
  485000    1.0518664   -7.4920498    156.76694    0.0269359  0.027662221            3 
  486000    1.0766896   -7.4441363    157.46523   0.02700021  0.027641521            1 
  487000    1.0677273   -7.5165662    157.26522  0.026910544   0.02762116            3 
  488000    1.0664062   -7.4736648    157.75156   0.02693845  0.027600252            1 
  489000    1.0633896   -7.4981584    157.48988  0.026838765  0.027579133            1 
  490000    1.0640229   -7.4848318    157.85015  0.026845263  0.027558372            1 
  491000    1.0718367   -7.4708293    158.10986  0.026834667  0.027537359            4 
  492000    1.0748056   -7.4785981    159.11206  0.026949875  0.027516703            2 
  493000    1.0487672   -7.4743237    159.22465  0.026914241  0.027496757            2 
  494000    1.0613219   -7.4963648     159.0679  0.026833316  0.027476687            3 
  495000    1.0655934   -7.4967779    159.13575   0.02679053  0.027456537            2 
  496000    1.0642007   -7.4564724    159.64131  0.026821456  0.027436193            2 
  497000    1.0666928   -7.4989308    160.01444  0.026830054  0.027416682            1 
  498000      1.07974   -7.5029712    160.53172  0.026862738   0.02739759            2 
  499000    1.0447347   -7.4956643    160.98244  0.026884174  0.027378415            1 
  500000    1.0460819   -7.4744137    160.90256  0.026817094  0.027359338            1 
  501000    1.0664319   -7.5058885    160.79297  0.026745338  0.027339662            1 
  502000    1.0547857   -7.5549215     161.1207  0.026746464  0.027319818            1 
  503000    1.0612782   -7.4906963    161.20507  0.026707269   0.02729985            6 
  504000    1.0475161   -7.5076485    161.72683  0.026740547  0.027280631            2 
  505000    1.0284534    -7.500953    161.71284  0.026685287  0.027261484            1 
  506000    1.0601395   -7.5109478    162.24095  0.026719523  0.027242087            4 
  507000    1.0114223   -7.5287814    161.90455   0.02661153  0.027222252            5 
  508000    1.0421837   -7.5284242    162.61271  0.026675312  0.027202518            4 
  509000    1.0478028   -7.5345475    162.47141  0.026599772  0.027182433            1 
  510000    1.0564192   -7.5398164    162.10056   0.02648702  0.027162164            2 
  511000    1.0368973   -7.4989626     162.6331  0.026522032  0.027142089            2 
  512000    1.0403639   -7.4880016    163.75942  0.026653551  0.027122639            3 
  513000    1.0671414   -7.5045307      163.543  0.026566439  0.027102971            1 
  514000    1.0472916   -7.4521505    164.09631   0.02660446  0.027083586            1 
  515000    1.0376807   -7.5159209    164.16483  0.026563888  0.027064442            3 
  516000    1.0533736   -7.4847817    164.64163   0.02658941  0.027045039            4 
  517000    1.0193615   -7.5302864    164.40058  0.026499126  0.027026215            2 
  518000    1.0593029   -7.5267268     165.3102  0.026594304   0.02700717            2 
  519000    1.0324719   -7.5223799     164.8515  0.026469413  0.026988071            1 
  520000    1.0411504    -7.495094    164.50344   0.02636273  0.026968698            3 
  521000    1.0361778     -7.51823    164.95506  0.026384366  0.026948793            2 
  522000    1.0635784   -7.5349175    165.40801  0.026406132  0.026928797            2 
  523000    1.0627106   -7.5163794    165.52187  0.026373784  0.026908797            2 
  524000    1.0541305   -7.5057467    165.57045  0.026331178  0.026888776            5 
  525000    1.0510848   -7.5541268    165.53403  0.026275243  0.026868728            3 
  526000    1.0413167   -7.5265363    166.21208  0.026332712  0.026848776            1 
  527000    1.0488878   -7.5282891    166.15316  0.026273429  0.026828814            3 
  528000     1.039454   -7.5559551    166.00217  0.026199838  0.026808992            3 
  529000    1.0444903   -7.5241001    166.49214  0.026227495  0.026789238            2 
  530000    1.0198382   -7.5603161    166.22107  0.026135388  0.026769111            4 
  531000    1.0571175   -7.5153724    167.07595  0.026220331  0.026749302            1 
  532000    1.0281171   -7.5556905    167.31736   0.02620886  0.026730127            2 
  533000    1.0601035   -7.5445703    167.59112  0.026202489   0.02671091            2 
  534000    1.0470886   -7.5353449    167.86613  0.026196338  0.026691704            1 
  535000    1.0354487   -7.5401417    168.02252  0.026171732  0.026673066            2 
  536000    1.0452993   -7.5239291    168.66193  0.026222315  0.026654137            2 
  537000    1.0468654   -7.5306641    168.73335  0.026184567  0.026635297            3 
  538000     1.070194   -7.5360601    168.93188  0.026166648  0.026616849            2 
  539000    1.0314308   -7.5191194    169.53594  0.026211494  0.026597944            3 
  540000     1.049793   -7.5497724    169.92188  0.026222512  0.026579793            1 
  541000    1.0195525   -7.5023623    170.25844  0.026225884  0.026561867            3 
  542000    1.0332953   -7.5188758    170.14332  0.026159797  0.026543911            1 
  543000    1.0367932   -7.5427509    170.45777  0.026159879  0.026525781            2 
  544000    1.0241845   -7.5505765    171.18067  0.026222529  0.026507996            3 
  545000    1.0621295   -7.5135485    171.29964  0.026192606  0.026490512            1 
  546000    1.0454376   -7.5635049    171.59476  0.026189676   0.02647322            2 
  547000    1.0205351   -7.5846737    171.03932  0.026057179  0.026455779            2 
  548000    1.0515113    -7.580423    171.25891  0.026043022  0.026438214            2 
  549000    1.0644331   -7.5650161    171.57369  0.026043366  0.026420594            2 
  550000    1.0310699   -7.5771857    171.73406  0.026020312  0.026402932            1 
  551000    1.0449273   -7.5673615    172.42553  0.026077666  0.026385099            2 
  552000    1.0264407   -7.5467818    172.25535  0.026004732  0.026367471            1 
  553000    1.0240347   -7.5383237    172.26676  0.025959428  0.026349442            3 
  554000     1.064437   -7.5509595    172.72504  0.025981504  0.026331717            2 
  555000    1.0145877   -7.5219127    173.00349    0.0259765  0.026313868            2 
  556000    1.0310522   -7.5490554    173.19869  0.025959037  0.026296262            1 
  557000    1.0348173   -7.5636477    173.54514  0.025964264  0.026278891            2 
  558000      1.03061   -7.5407131    173.75553  0.025949154  0.026261475            2 
  559000    1.0312792   -7.5881704    173.89202   0.02592308   0.02624412            2 
  560000    1.0012631   -7.5577172    174.07085    0.0259034  0.026226031            1 
  561000    1.0507794   -7.5379849    174.30093  0.025891403  0.026208504            1 
  562000    1.0436637   -7.5608183    174.50107  0.025875011  0.026190995            1 
  563000    1.0166619   -7.5871651     173.9745   0.02575111  0.026172689            1 
  564000    1.0457409   -7.5860634    174.39051  0.025766919  0.026154481            1 
  565000    1.0240827   -7.5659833    174.91813  0.025799134  0.026136158            1 
  566000    1.0200371   -7.5451032    175.26863  0.025805157  0.026117951            3 
  567000    1.0109977   -7.5403778    174.85855  0.025699376  0.026099803            1 
  568000    1.0213096   -7.5791037    175.14278  0.025695831  0.026081326            1 
  569000     1.007607   -7.5931193    174.93257  0.025619884  0.026062669            1 
  570000    1.0352108   -7.5220379    175.31649  0.025631066  0.026044091            2 
  571000    1.0302264   -7.5887444    175.28576  0.025581693  0.026025007            2 
  572000    1.0109228   -7.5571294    175.86254  0.025620999  0.026006257            2 
  573000    1.0213856   -7.5470755    175.87839  0.025578591    0.0259876            2 
  574000    1.0152076   -7.5229537    176.45115  0.025617182  0.025969057            2 
  575000    1.0649891   -7.5826272    176.53391  0.025584625  0.025950347            3 
  576000    1.0260042   -7.5570587    176.42173  0.025523977  0.025931726            1 
  577000    1.0388638   -7.5227238    176.89968  0.025548769  0.025913099            2 
  578000    1.0276386   -7.6026776    176.46238  0.025441519  0.025894547            1 
  579000    1.0426785   -7.5232211    177.91406  0.025606515   0.02587582            1 
  580000    1.0393339   -7.5997217     176.6381  0.025379038  0.025857269            2 
  581000   0.99657169   -7.5872325    177.73482  0.025492659  0.025838483            2 
  582000    1.0361101    -7.530875    178.01369  0.025488787  0.025819976            1 
  583000    1.0215597   -7.5804372    177.91929  0.025431574  0.025801617            2 
  584000    1.0126188   -7.6117642    177.61095  0.025344028  0.025782915            2 
  585000    1.0164937   -7.5830974    178.32717  0.025402731  0.025764078            3 
  586000    1.0336681   -7.5907542    178.14636  0.025333668  0.025745457            2 
  587000    1.0257009   -7.5668969    178.68844  0.025367467  0.025726853            2 
  588000    1.0368895   -7.5706114    178.65495  0.025319579  0.025708313            1 
  589000     1.019435   -7.5851667    178.60928   0.02527013  0.025689978       -1e+20 
  590000    1.0237931   -7.5297376    179.63726  0.025372494  0.025671642            2 
  591000    1.0250463   -7.6004808    179.30522  0.025282744  0.025653243            4 
  592000    1.0143102   -7.6195623    178.96178  0.025191691  0.025634723            3 
  593000     1.007091   -7.5772571     179.8223  0.025270138  0.025616191            2 
  594000    1.0285349   -7.5486818    180.28927  0.025293107  0.025597948            1 
  595000    1.0394669   -7.5882252    180.18609  0.025236147  0.025579895            2 
  596000    1.0071467   -7.5707466    181.02808  0.025311532   0.02556171            1 
  597000    1.0028238   -7.5919134     180.4848    0.0251933  0.025543441            1 
  598000    1.0092686   -7.6479036    180.60685  0.025168178  0.025524934            1 
  599000    1.0247475   -7.6031319    180.86858  0.025162574  0.025506438            2 
  600000    1.0164664    -7.576334    181.23096  0.025170966  0.025488088            4 
  601000   0.99359294   -7.5806538    181.61335  0.025182106  0.025469977            1 
  602000    1.0371246   -7.6141892     181.2003  0.025083099  0.025451904            2 
  603000    1.0104512   -7.6213246    181.52008  0.025085694  0.025433356            2 
  604000    1.0145653   -7.6061992    181.17144  0.024996059  0.025414458            2 
  605000    1.0034507   -7.6285973    181.89389  0.025054255  0.025396291            1 
  606000    1.0245081   -7.5899282     182.8818  0.025148762  0.025377898            3 
  607000    1.0193884   -7.5780973    183.11615  0.025139504  0.025359857            2 
  608000    1.0047404   -7.5863766    182.40565  0.025000774  0.025341917            2 
  609000   0.99691637   -7.5913913    182.73132  0.025004286  0.025324084            1 
  610000    1.0405912   -7.6085019    182.81378  0.024974561  0.025306077            2 
  611000    1.0334295   -7.6008542    183.20634  0.024987226  0.025288001            2 
  612000    1.0076954   -7.6200422    183.66299  0.025008578  0.025269955            2 
  613000   0.99362734   -7.5647025    184.56467  0.025090358  0.025252025            1 
  614000   0.98990964   -7.6320968    183.52433  0.024908296  0.025234327            1 
  615000   0.99847931   -7.6107509    183.91879  0.024921245   0.02521662            2 
  616000    1.0144193   -7.6087757    184.59403  0.024972136  0.025199077            1 
  617000    1.0116344   -7.6039165    184.52469  0.024922297  0.025181512            3 
  618000    1.0020403   -7.6266859    185.41817  0.025002451  0.025164226            1 
  619000   0.99648556   -7.6156686    185.23833  0.024937848  0.025147205            1 
  620000    1.0076335   -7.5830812    185.83416   0.02497771  0.025130468            2 
  621000   0.97976558   -7.6236933     185.8866  0.024944525   0.02511372            1 
  622000   0.99526976   -7.6226322    185.36518  0.024834564  0.025096687            3 
  623000    1.0120527    -7.633359    185.63328  0.024830562  0.025079121            2 
  624000     1.011668   -7.6306489    185.84941  0.024819633  0.025061763            2 
  625000    1.0059932   -7.6385536     186.3295  0.024843934   0.02504458            2 
  626000    1.0375117    -7.624831    186.68874  0.024852069  0.025027646            1 
  627000   0.98338292   -7.6341763    186.60404  0.024801175  0.025010639            3 
  628000    1.0263363   -7.5991223    186.82776  0.024791369  0.024993267            1 
  629000   0.98657633   -7.6354365    186.98195  0.024772383  0.024976212            3 
  630000   0.99955838   -7.6546692    187.13013  0.024752663  0.024959153            1 
  631000   0.98576065   -7.6261594    187.19795  0.024722391  0.024941948            3 
  632000     1.008483    -7.601371    188.04526  0.024794998  0.024925032            2 
  633000   0.99880865   -7.6059532    187.75457  0.024717558  0.024908376            3 
  634000    1.0016765   -7.6271585    188.06876  0.024719868  0.024891847            1 
  635000   0.98434859   -7.6031539    188.77982  0.024774255  0.024875439            1 
  636000   0.98146695   -7.6359339    188.32971  0.024676325   0.02485887            1 
  637000    1.0001774   -7.6534217    188.77379  0.024695682  0.024842329            2 
  638000    0.9801663   -7.6142463    189.14373  0.024705294  0.024825987            2 
  639000    1.0039499   -7.6442911    189.85527  0.024759425  0.024809648            3 
  640000   0.99265597   -7.6759502    188.99316  0.024608484  0.024793251            2 
  641000    1.0134063   -7.6806498    189.45348  0.024629937  0.024776931            2 
  642000   0.99491781   -7.6363025    190.12464  0.024678691  0.024760567            4 
  643000    1.0283916   -7.5963337    190.05301  0.024631027   0.02474452            3 
  644000    1.0252418    -7.592518     190.3262  0.024628132  0.024728673            4 
  645000   0.97441364   -7.6591498    190.81469   0.02465306  0.024712536            3 
  646000    1.0183103   -7.6110393      191.106  0.024652477  0.024696711            2 
  647000    1.0127594   -7.6196821    191.01676   0.02460288  0.024680545            5 
  648000    1.0022302   -7.6398086     191.1397  0.024580723  0.024664273            3 
  649000   0.98868355   -7.6661809    191.06886  0.024533752  0.024648094            2 
  650000     1.012901   -7.6235072    191.63731  0.024568886  0.024632014            1 
  651000   0.98562189   -7.6234667    191.34935  0.024494284  0.024616168            1 
  652000    1.0275162   -7.6133176    191.48982   0.02447467  0.024600165            1 
  653000   0.98305546   -7.6515731    192.37726  0.024550442  0.024584305            3 
  654000    0.9911138   -7.6325433    192.00922  0.024466006  0.024568754            1 
  655000    1.0168842   -7.6447283    192.63158  0.024507834  0.024552918            2 
  656000   0.99085928   -7.6523406    192.37465  0.024437836  0.024536997            2 
  657000   0.97805576   -7.6289721    192.42695  0.024407275  0.024521016            2 
  658000   0.99561019   -7.6588179    192.90058  0.024430165  0.024505197            4 
  659000   0.99641811   -7.6326509    193.55092  0.024475331  0.024489542            2 
  660000   0.97531036   -7.6626196    192.65909  0.024325643  0.024473776            3 
  661000    1.0041305   -7.6742343    193.40438  0.024382801  0.024457672            1 
  662000    1.0071892   -7.6670911    193.40089   0.02434553  0.024441492            2 
  663000   0.97138549   -7.6881709    193.18615  0.024281819  0.024425439            3 
  664000   0.98182988    -7.686521    193.57898  0.024294551  0.024409408            3 
  665000    1.0075868   -7.6705625    193.55842  0.024255441  0.024392673            4 
  666000   0.98050802   -7.7027347    193.75964    0.0242442  0.024376227            2 
  667000   0.98443994   -7.6622044    193.58138  0.024185579   0.02435962            1 
  668000   0.97762302   -7.6349855    194.77506  0.024298286  0.024343329            1 
  669000   0.99980761   -7.6035235     194.7893  0.024263739  0.024327125            2 
  670000   0.99277643   -7.6342593    194.45295   0.02418569  0.024310591            2 
  671000    1.0046084   -7.6797367    193.78235  0.024066362  0.024293676            2 
  672000   0.95912942   -7.6198786    195.34346  0.024224139  0.024276744            3 
  673000     1.006209   -7.6861303    194.41294  0.024072925  0.024259689            3 
  674000   0.99039198   -7.6341792    194.43804  0.024040311  0.024242347            1 
  675000    1.0045609   -7.6590851    194.98845  0.024072648  0.024225015            1 
  676000   0.98571298   -7.6653877    194.88015  0.024023687  0.024208017            4 
  677000   0.99243926   -7.7111331    194.81143  0.023979743  0.024190941            2 
  678000   0.97957736   -7.6711995    195.25738  0.023999187  0.024173819            1 
  679000   0.99484967   -7.6721595    194.99596  0.023931757  0.024156689            4 
  680000   0.97320871   -7.7068361    195.54201  0.023963482  0.024139654            2 
  681000    1.0122985   -7.6826909    195.46572  0.023918958   0.02412278            1 
  682000   0.96670533   -7.6724834    195.60228  0.023900572  0.024105774            1 
  683000   0.99810839   -7.7139997    195.58389  0.023863334  0.024088708            7 
  684000   0.97263079   -7.7300245    195.63669  0.023834879  0.024071186            2 
  685000    0.9812381   -7.6833467    196.05063  0.023850442  0.024053669            2 
  686000   0.97290408   -7.6775326    195.92459  0.023800364  0.024036328            1 
  687000   0.98005485   -7.7140058    195.87353  0.023759525   0.02401878            3 
  688000   0.97482266   -7.6925289     196.2896  0.023775388  0.024001217            2 
  689000   0.97536421   -7.7084231    196.46924  0.023762608  0.023983775            2 
  690000   0.99959638   -7.6988676    196.46074  0.023727142  0.023966312            3 
  691000   0.96926775   -7.6859296    196.89699  0.023745416  0.023948761            1 
  692000    0.9745735   -7.6512018    196.95865  0.023718527  0.023931147            8 
  693000   0.97693586   -7.6930098     196.9091  0.023678343  0.023913646            2 
  694000   0.97047459   -7.7292906     197.1055  0.023667807  0.023896063            4 
  695000   0.97114055   -7.6879256    197.60498  0.023693643   0.02387869            2 
  696000   0.97795702   -7.6934855    197.29707  0.023622733   0.02386122            2 
  697000   0.97185514   -7.6826222    198.57057  0.023741101  0.023843891            2 
  698000    1.0069145    -7.689943     197.9227  0.023629739  0.023826753            2 
  699000   0.97142969   -7.7069452     198.2717  0.023637542   0.02380966            2 
  700000   0.98572504   -7.6947555       198.73  0.023658334  0.023792639            2 
  701000   0.97500032   -7.7190911     198.9633  0.023652318  0.023775668            2 
  702000   0.98136997   -7.6844539    199.07106  0.023631417  0.023758567            6 
  703000   0.96449729   -7.7176011    198.56544  0.023537867  0.023741612            1 
  704000   0.97522443   -7.7144438     198.6864   0.02351875  0.023724758            2 
  705000   0.98061128   -7.6864135    199.11607  0.023536178  0.023707831            2 
  706000   0.97280847   -7.6976724    199.68233   0.02356968  0.023690676            2 
  707000   0.96792719   -7.6990796    199.43248  0.023506893  0.023673738            2 
  708000     0.966965   -7.7174375     199.5748  0.023490443  0.023656799            1 
  709000   0.97407603   -7.7036102    199.75397   0.02347837  0.023640175            1 
  710000   0.97660596   -7.7295913    200.54818  0.023538518  0.023623399            2 
  711000   0.97742785   -7.6822599    201.19582   0.02358132  0.023606818            2 
  712000     0.969699   -7.7110059    200.53052  0.023470333  0.023590262            2 
  713000   0.96260625   -7.6974326    201.05457  0.023498664  0.023573752            7 
  714000   0.96065897   -7.6810012    200.89272  0.023446862  0.023557084            1 
  715000   0.97323577   -7.7690829    200.80352  0.023403673  0.023540239            2 
  716000   0.95281503   -7.7556087     200.9976  0.023393575  0.023523429            1 
  717000   0.96904859   -7.7218433    201.19857  0.023384306  0.023506854            3 
  718000    0.9674534    -7.747391    201.00986  0.023329835  0.023490231            3 
  719000   0.95900339    -7.695092    201.69065  0.023376292  0.023473576            5 
  720000   0.98316247    -7.704217    201.89754  0.023367771  0.023457015            2 
  721000   0.99512269   -7.6867379     202.4398  0.023398035   0.02344055            2 
  722000   0.96984328   -7.7199545    202.34353  0.023354517  0.023424161            2 
  723000   0.97634051   -7.7365227    201.83359  0.023263438  0.023407619            7 
  724000   0.94087749   -7.7458484    202.29524  0.023284443   0.02339063            5 
  725000   0.96030697   -7.7313825    202.05087  0.023224238  0.023373925            1 
  726000   0.96596061   -7.7329601    202.38537  0.023230644   0.02335719            3 
  727000   0.94841473   -7.7288415     202.3418  0.023193695  0.023340202            3 
  728000   0.96820983   -7.7624223    202.31399  0.023158652  0.023323182            3 
  729000   0.98058053    -7.691749    203.32294  0.023242219  0.023306257            5 
  730000   0.97653314   -7.7089538    202.87576  0.023159333  0.023289416            2 
  731000   0.95928536   -7.7557717    202.56363  0.023092069  0.023272589            1 
  732000   0.97230278    -7.726557    202.87678  0.023096172  0.023255713            1 
  733000   0.94748478   -7.7192364    203.44964  0.023129791  0.023238835            2 
  734000    0.9561581   -7.7329965    204.29173  0.023193883  0.023222031            1 
  735000   0.93615516   -7.7341216     203.9284  0.023121133  0.023205147            2 
  736000   0.94976228    -7.743006    203.75107  0.023069641  0.023188255            7 
  737000   0.96832309   -7.7475935    203.84021  0.023048418  0.023171401            1 
  738000   0.94475803    -7.720353    203.94725  0.023029274  0.023154559            1 
  739000   0.95803766   -7.7315344    204.31926  0.023040061  0.023137536            2 
  740000   0.95470328   -7.7610872    204.26348  0.023002644  0.023120737            1 
  741000   0.95635942   -7.7395878    204.35598  0.022982004  0.023103901            2 
  742000   0.96871289   -7.7481459    204.44798  0.022961364  0.023087042            2 
  743000   0.97012346   -7.7387259     204.3918  0.022924159  0.023070058            3 
  744000   0.98824742   -7.6968569    205.02718  0.022964514  0.023053064            2 
  745000   0.97459984   -7.7603321    203.97277  0.022815746  0.023036128            3 
  746000   0.94250112   -7.7331884    205.14156  0.022915724  0.023019328            3 
  747000   0.95598147   -7.7447357    205.60577  0.022936833  0.023002672            1 
  748000   0.93792346    -7.721481     205.6673  0.022913024  0.022986012            1 
  749000   0.96281586   -7.7932022     204.9284  0.022800222  0.022969125            4 
  750000    0.9616569   -7.7621855    205.56217  0.022840241   0.02295204            1 
  751000   0.94674281   -7.7836168    205.10815  0.022759449  0.022934907            2 
  752000   0.95514066   -7.7959409    205.42489  0.022764283  0.022917989            3 
  753000    0.9716767   -7.7318836    206.26393  0.022826907  0.022901222            3 
  754000   0.95081362   -7.7263131    206.59416   0.02283313  0.022884756            2 
  755000   0.95927895   -7.7913722    206.01314  0.022738758  0.022868237            1 
  756000   0.93821379   -7.7412393    206.96782  0.022813913  0.022851831            1 
  757000   0.94194174   -7.7391435    206.54108  0.022736798  0.022835551            2 
  758000   0.96683384    -7.723846    207.51328  0.022813685  0.022819363            3 
  759000   0.97750246   -7.7393591    207.67138  0.022800986  0.022803007            5 
  760000    0.9480137   -7.7243553    207.83172  0.022788566  0.022786778            4 
  761000   0.94247369   -7.7407838    207.67051  0.022740967   0.02277056            1 
  762000   0.96393653   -7.7310731    208.16714  0.022765436  0.022754469            2 
  763000   0.96245468    -7.748677    207.69512  0.022684046  0.022738437            2 
  764000   0.94371237     -7.77514    207.48511  0.022631447  0.022722295            1 
  765000   0.96575031   -7.7075682     208.5131  0.022713845  0.022706306            1 
  766000   0.95264396   -7.7689792    208.53348   0.02268641  0.022690254            1 
  767000   0.94438272   -7.7911659    208.23165  0.022624038  0.022674031            1 
  768000   0.91945035   -7.7693889    208.45763  0.022619101   0.02265794            1 
  769000   0.92800949   -7.7437401    208.86223  0.022633532  0.022641886            3 
  770000   0.94171444   -7.8197865    208.56249  0.022571699  0.022625688            2 
  771000   0.96778605   -7.8151635    208.72332  0.022559805  0.022609693            3 
  772000   0.94629481   -7.7917695    209.45165  0.022609203   0.02259372            1 
  773000   0.95425274   -7.7675699    209.50884  0.022586119  0.022577713            1 
  774000   0.95119661   -7.7713519     209.4329  0.022548762  0.022561736            2 
  775000   0.94931792   -7.8126805    210.08052  0.022589304   0.02254576            2 
  776000   0.92831162   -7.8005593    209.50685  0.022498588  0.022529824            1 
  777000   0.94452845   -7.7695397    209.79191  0.022500205   0.02251393            4 
  778000   0.95729264   -7.7849034    210.36554  0.022532727  0.022497957            2 
  779000   0.95497306   -7.7821779    210.23579  0.022489922  0.022482012            1 
  780000   0.93646184   -7.7915614    210.46078  0.022485126  0.022466133            1 
  781000   0.93644736   -7.7841428    210.64105  0.022475571  0.022450432            5 
  782000   0.94840103   -7.7978915    210.93955   0.02247864  0.022434748            2 
  783000   0.92076832   -7.7645692    210.96978  0.022453148  0.022419145            3 
  784000   0.93269011   -7.7960077     211.1965  0.022448607  0.022403415            2 
  785000   0.94301944    -7.800741    211.08081   0.02240773  0.022387817            3 
  786000   0.93464068   -7.8050506    211.26989  0.022399267   0.02237228            1 
  787000   0.94136595   -7.7737568    211.58727  0.022404412  0.022356846            1 
  788000   0.94333291   -7.7732665    211.62157  0.022379608  0.022341127            2 
  789000   0.92733228    -7.782804    211.80381  0.022370491  0.022325511            2 
  790000   0.92923718   -7.7923065    212.16888  0.022380683  0.022309736            2 
  791000   0.94652081   -7.7953395    211.73591  0.022306775  0.022294181            1 
  792000   0.93355973   -7.8151618    212.46849  0.022355692  0.022278441            2 
  793000   0.92802501   -7.7897493    212.27831  0.022307515  0.022262747            3 
  794000   0.95161977   -7.8076305    212.34843  0.022286779  0.022246963            2 
  795000   0.95511505   -7.7860612      212.334  0.022257233  0.022231169            2 
  796000   0.94286425   -7.8432162    212.32983  0.022228835  0.022215378            2 
  797000   0.94772053   -7.8110054    212.15191  0.022182341  0.022199765            3 
  798000    0.9340057   -7.8138626    212.43996  0.022184624   0.02218394            2 
  799000   0.93276063   -7.8032912    212.64322  0.022178058  0.022168056            2 
  800000   0.93613863   -7.7791182    212.66919  0.022153041  0.022152081            1 
  801000    0.9650422   -7.8356872    212.43476  0.022100995   0.02213597            4 
  802000    0.9346178   -7.7920478    213.33103  0.022166565  0.022119913            1 
  803000   0.92854982   -7.8197881    213.05702  0.022110525  0.022103935            1 
  804000     0.955015   -7.7978517    213.82078  0.022162187  0.022088067            3 
  805000    0.9537032   -7.7969807    213.48892  0.022100302  0.022072296            3 
  806000   0.93190234   -7.8048803     214.0141  0.022127182  0.022056629            4 
  807000   0.91076476   -7.7877827    214.05756   0.02210425  0.022041016            1 
  808000   0.92112954   -7.7938653    213.90371  0.022061027  0.022025429            2 
  809000   0.92427583   -7.8374001    213.63272  0.022005843  0.022009831            2 
  810000   0.95472369   -7.8092755    214.09613  0.022026351  0.021994112            1 
  811000    0.9169217   -7.7890985    214.57718  0.022048621  0.021978656            3 
  812000   0.93726289   -7.7806317    214.90782    0.0220554  0.021963388            9 
  813000    0.9227585   -7.7974852    214.96411  0.022034042  0.021948013            3 
  814000   0.94617615   -7.8424086    214.60558  0.021970269  0.021932489            2 
  815000   0.92690553   -7.8435542    214.28923  0.021910964  0.021916843            3 
  816000   0.91537322    -7.818323    214.91101  0.021947611  0.021900955            1 
  817000   0.93060128   -7.8208378    215.32965  0.021963449  0.021885203            1 
  818000   0.93235834   -7.8168283    215.53687  0.021957709  0.021869636            1 
  819000   0.91302045   -7.8390736    214.85721  0.021861743  0.021853954            2 
  820000   0.95337274   -7.7973811    215.84205  0.021935168  0.021838192            3 
  821000   0.93381733   -7.8315382    215.47127  0.021870815  0.021822423            2 
  822000   0.91620033   -7.8144902    215.18935  0.021815627  0.021806684            1 
  823000   0.91660347   -7.8104224    215.75267  0.021846159   0.02179113            3 
  824000   0.93127245   -7.7955834    215.62434  0.021806668  0.021775721            3 
  825000   0.92745765   -7.7995144    216.63933   0.02188276  0.021760373            3 
  826000   0.92648154   -7.8332258    216.44618  0.021836782  0.021744978            3 
  827000   0.91783728   -7.8575561    216.53725  0.021819554  0.021729557            2 
  828000   0.92747247   -7.8255866    216.22761  0.021762038   0.02171415            5 
  829000    0.9221443   -7.8523295    216.11743  0.021724711  0.021698737            3 
  830000   0.90688299   -7.8218548    216.47256  0.021734193   0.02168306            1 
  831000   0.92588546   -7.8398822    216.32433  0.021693174  0.021667601            2 
  832000   0.92481124   -7.7958256    217.21501  0.021756312   0.02165228            2 
  833000   0.91102346   -7.7820993    217.61999  0.021770707  0.021637068            2 
  834000    0.9227778   -7.7968189    218.02677  0.021785249  0.021621927            2 
  835000   0.91162907    -7.820864    217.64015  0.021720574  0.021606854            4 
  836000   0.92436103   -7.8309191    217.94455  0.021724935  0.021591692            5 
  837000   0.91689182   -7.8396657    217.75981  0.021680586   0.02157655            2 
  838000   0.91419115   -7.8372055    217.91456  0.021670103  0.021561447            1 
  839000   0.92589553   -7.8491645    217.86097  0.021638952  0.021546393            3 
  840000   0.92444713   -7.8305417    217.88713  0.021615787  0.021531243            2 
  841000   0.90168401   -7.7765903    218.75943  0.021676519  0.021516122            1 
  842000   0.89728058   -7.8446882    218.19882  0.021595291  0.021500858            2 
  843000   0.91352035   -7.8512687    218.82526  0.021631599  0.021485376            5 
  844000   0.91507806   -7.8523961    218.48341  0.021572217  0.021470038            3 
  845000   0.90501191   -7.8076718    218.42997  0.021541417  0.021454425            1 
  846000   0.91173528   -7.8362038    218.29743  0.021502899  0.021438991            3 
  847000   0.91090814   -7.8549463    218.56781  0.021504113  0.021423427            1 
  848000   0.92278585   -7.8385698    219.02047  0.021523238  0.021408088            1 
  849000   0.91677805   -7.8562253     218.1879  0.021416166  0.021392686            1 
  850000   0.90832267   -7.8426969    218.22282  0.021394395  0.021377423            2 
  851000   0.91687698   -7.8661379    219.16059  0.021461084  0.021362002            1 
  852000   0.91936459   -7.8472445     219.4787  0.021467009  0.021346675            2 
  853000   0.91132624   -7.8309788    219.23799  0.021418326  0.021331362            1 
  854000   0.91136745   -7.8573501    219.98608  0.021466245  0.021316115            1 
  855000   0.90233412   -7.8708337    218.78362   0.02132394   0.02130065            1 
  856000   0.89375384   -7.8458122    218.99995  0.021320089  0.021284991            2 
  857000   0.91580095   -7.8440197      219.318  0.021326138  0.021269369            2 
  858000   0.91744612   -7.8588159    219.53014  0.021321886  0.021253723            3 
  859000   0.90052588   -7.8386553    220.15858   0.02135803  0.021238264            2 
  860000   0.88811394   -7.8339308    220.21724   0.02133888  0.021222947            2 
  861000   0.88637447   -7.8387593    220.96082  0.021386065  0.021207789            4 
  862000   0.92930394   -7.8653382    220.32234   0.02129953  0.021192635            2 
  863000   0.91751804   -7.8926561    219.91452   0.02123547  0.021177291            2 
  864000   0.90910404   -7.8226841    220.65755  0.021282557  0.021161802            3 
  865000   0.92206297   -7.8418966    220.39971  0.021233113  0.021146516            2 
  866000   0.90223747   -7.8593271    220.95678    0.0212622  0.021131099            2 
  867000   0.91348244   -7.8582512    219.77895  0.021124467   0.02111563            2 
  868000   0.89835962   -7.8663518    220.37425  0.021157282  0.021100082            3 
  869000   0.90458641    -7.850821    220.19519  0.021115764  0.021084473            2 
  870000   0.89891493   -7.8940051    220.15944  0.021088069  0.021068727            1 
  871000   0.90655555    -7.896674    220.33518  0.021080672  0.021052642            2 
  872000   0.91236547   -7.8866942    220.35205  0.021058108   0.02103661            1 
  873000   0.90460224   -7.8846953    220.61409  0.021059001  0.021020506            4 
  874000   0.94041986    -7.870121    219.98795  0.020975205  0.021004504            2 
  875000   0.90037178   -7.8585416    221.14137  0.021061083  0.020988697            1 
  876000   0.91087721   -7.8948207    220.53621  0.020979472  0.020972798            2 
  877000    0.8948755   -7.8245932    221.21896  0.021020426  0.020956988            2 
  878000   0.91335598   -7.8481541    221.14752  0.020989704  0.020941427            4 
  879000   0.87405741   -7.8310502    221.49077  0.020998367  0.020925842            3 
  880000   0.89178156    -7.883988    221.27054   0.02095365  0.020910112            3 
  881000   0.89580997   -7.9055189    220.74743  0.020880385  0.020894339            1 
  882000   0.91053096   -7.8698474    221.43463  0.020921639   0.02087866            1 
  883000   0.90894788   -7.8793509    221.83293  0.020935535  0.020862793            1 
  884000   0.88268735   -7.8862729    221.69399  0.020898754  0.020847108            2 
  885000   0.89613901   -7.9022901     221.9012  0.020894652  0.020831525            3 
  886000   0.88716599    -7.919174     221.7245  0.020854449  0.020815904            1 
  887000    0.8986086    -7.898105    222.23399  0.020878804  0.020800363            1 
  888000   0.90523476   -7.9426736    222.11556  0.020844178  0.020784816            2 
  889000   0.89547179    -7.925651    221.32336  0.020746472  0.020769096            2 
  890000   0.89857258   -7.8867984    221.95013  0.020781848  0.020753496            1 
  891000   0.90252295   -7.8959125    222.51832  0.020811665  0.020738016            9 
  892000   0.89535504    -7.907533    222.20192  0.020758775  0.020722353            2 
  893000   0.91241686   -7.8888737    222.83035  0.020794172  0.020706801            1 
  894000   0.90157387   -7.9001486    222.43971    0.0207345  0.020691246            3 
  895000   0.88343927   -7.8790249    223.11316  0.020774037  0.020675688            2 
  896000   0.90170646   -7.8827642     222.8812  0.020729278  0.020660234            2 
  897000   0.91125512   -7.9108666    223.47492  0.020761327  0.020644534            1 
  898000   0.87909276   -7.9011956    222.68022   0.02066446  0.020628745            3 
  899000     0.889297   -7.9028927    222.80987  0.020653492  0.020613183            3 
  900000   0.88283009   -7.8596807    223.43932  0.020688826  0.020597708            2 
  901000   0.90955842   -7.8773986    223.22943  0.020646451   0.02058224            2 
  902000   0.88357689   -7.8732764    223.57578   0.02065556  0.020566655            1 
  903000   0.87795127   -7.8578949     223.8292  0.020656072  0.020551172            1 
  904000   0.90067889    -7.932056    223.46209  0.020599381   0.02053568            3 
  905000   0.89748436   -7.9241796     224.0724  0.020632818  0.020520137            4 
  906000   0.86716108   -7.9069944    224.14911    0.0206171  0.020504695            1 
  907000   0.89810979   -7.8982848    224.02432  0.020582903  0.020489305            3 
  908000   0.90205397   -7.9066154    223.93976  0.020552474  0.020473972            1 
  909000   0.89063474   -7.8930107    224.28226  0.020561263  0.020458665            1 
  910000   0.89948736   -7.8730194    224.45859  0.020554816  0.020443458            2 
  911000   0.89130607    -7.873377    225.20448  0.020600483  0.020428193            2 
  912000   0.87921786   -7.9097234    224.86766  0.020547118  0.020412902            2 
  913000   0.89546038   -7.8920982    224.47084  0.020488393  0.020397682            2 
  914000   0.90149735   -7.8815399    225.14496   0.02052744  0.020382535            5 
  915000   0.87985317   -7.9178437    225.20684  0.020510641  0.020367429            2 
  916000   0.89569663   -7.8995123    224.93202  0.020463248  0.020352308            1 
  917000   0.87601706   -7.9256918    224.64491  0.020414841  0.020337299            2 
  918000   0.87786965   -7.9110118    225.08222    0.0204323  0.020322048            3 
  919000    0.9091898    -7.867097    225.08078  0.020409937  0.020306892            3 
  920000    0.8900548   -7.9418637    225.08942  0.020388534   0.02029167            1 
  921000   0.89848756    -7.935309    225.16525  0.020373259  0.020276418            3 
  922000   0.89419735   -7.9197658    226.04179  0.020430386  0.020261195            3 
  923000   0.88536676   -7.9389552    226.16099  0.020419013  0.020246042            2 
  924000   0.89715491   -7.9322169    225.17102  0.020307632  0.020230873            1 
  925000   0.90189265   -7.9180693    226.10273  0.020369615  0.020215802            3 
  926000   0.87312839   -7.9156524    225.66539   0.02030826  0.020200664            6 
  927000   0.87597823   -7.9254762    225.90031  0.020307471  0.020185487            2 
  928000   0.88604974   -7.9148999    225.84405  0.020280536  0.020170257            2 
  929000   0.87894388   -7.9362248     225.6212  0.020238715  0.020154922            1 
  930000   0.88460859   -7.9822034    225.62244  0.020217064  0.020139556            1 
  931000   0.88829036   -7.9618614    225.41201  0.020176514   0.02012412            3 
  932000   0.88725486   -7.9418223     226.1992  0.020225251  0.020108655            1 
  933000   0.88461549   -7.9475636    226.20292  0.020203905  0.020093217            3 
  934000   0.89497886   -7.9584501    225.99819  0.020164007  0.020077812            2 
  935000   0.86951612   -7.9238669    226.21606  0.020161859  0.020062494            3 
  936000   0.87560325   -7.9516724    226.27349  0.020145431  0.020047177            2 
  937000   0.86678429   -7.9205767    226.15648  0.020113525  0.020031836            2 
  938000   0.88348691   -7.9003082    226.72072  0.020142211  0.020016519            1 
  939000   0.86618427   -7.9066212    227.48228  0.020188345  0.020001296            2 
  940000   0.86414082   -7.9432788    226.83031   0.02010907  0.019986095            1 
  941000   0.86683541   -7.9290945    226.38212  0.020048009  0.019970859            2 
  942000   0.87964369   -7.9291611    226.47839  0.020035243  0.019955509            1 
  943000   0.88163883   -7.9388076     226.8109  0.020043381  0.019940071            6 
  944000   0.86504798   -7.9507581    226.88093  0.020028331  0.019924668            2 
  945000   0.87183001   -7.9263105    227.50465  0.020062138   0.01990927            1 
  946000   0.87933123   -7.9463462    226.48472  0.019951085   0.01989385            3 
  947000   0.87356809   -7.9394896     226.8126   0.01995887  0.019878342            1 
  948000   0.87012138   -7.9874866    226.98165  0.019952677   0.01986281            1 
  949000   0.87355442    -7.977171    226.35776  0.019876867  0.019847254            3 
  950000   0.87737817   -7.9496092    227.37186    0.0199449  0.019831636            2 
  951000   0.86299003   -7.9511987    227.12012  0.019901868  0.019816092            2 
  952000   0.89016493   -7.9881979    227.10712  0.019879825  0.019800533            2 
  953000   0.87650221   -7.9564397     227.4791  0.019891492  0.019785126            2 
  954000   0.86190881   -7.9565313    227.77802  0.019896752  0.019769755            1 
  955000   0.88326882   -7.9638524    227.75602  0.019873998  0.019754514            1 
  956000   0.86863717    -7.967225    228.38565  0.019908093  0.019739377            4 
  957000   0.86270852   -7.9349861    228.31991  0.019881566  0.019724227            2 
  958000    0.8627562    -7.962163     228.1353  0.019844754  0.019709058            1 
  959000   0.87010494   -7.9431056    228.59287  0.019863823  0.019693952            1 
  960000   0.86526552   -7.9883696    228.12836  0.019802809  0.019678743            2 
  961000   0.88797117   -7.9942687    228.00474  0.019771483  0.019663524            3 
  962000   0.87293036   -7.9792587    228.38332  0.019783725  0.019648209            6 
  963000   0.85353759   -7.9673154    228.38534  0.019763356  0.019633014            5 
  964000     0.845749   -7.9787247    228.58294  0.019759936   0.01961772            2 
  965000   0.86329357   -7.9654315    228.41169  0.019724671  0.019602504            2 
  966000   0.86397704    -7.973593     228.1922  0.019685318  0.019587252            2 
  967000   0.87031339   -7.9609864    228.63248  0.019702903  0.019571944       -1e+20 
  968000   0.87108558   -7.9620057    228.50148  0.019671271  0.019556751            2 
  969000   0.86440886   -7.9691106    228.92953  0.019687782  0.019541593            1 
  970000   0.86233009   -7.9691064    228.66492  0.019644753  0.019526476            4 
  971000   0.85160502   -7.9913414    228.27954  0.019591447  0.019511138            2 
  972000   0.85458079   -8.0383177    228.37973  0.019579881  0.019495719            4 
  973000   0.87585355   -8.0366575    228.55346  0.019574637  0.019480352            3 
  974000   0.87876877   -7.9983493    228.99421  0.019592249  0.019465014            3 
  975000    0.8617905   -8.0176741    228.93136  0.019566783  0.019449639            1 
  976000   0.87267889   -7.9711252    228.99267   0.01955197  0.019434414            2 
  977000    0.8654482   -7.9707689    229.44146  0.019570237  0.019419306            7 
  978000   0.88731787   -7.9463861    229.85832  0.019585747  0.019404312            2 
  979000   0.85958595   -7.9665106    230.23814  0.019598071  0.019389402            3 
  980000   0.87130048   -8.0198869    229.66013  0.019528922  0.019374579            3 
  981000    0.8626286   -7.9694533    229.63188  0.019506616  0.019359665            2 
  982000   0.85537777   -7.9908629    229.73117  0.019495177  0.019344651            4 
  983000   0.85864397   -8.0103284    230.55409  0.019545108  0.019329829            2 
  984000   0.85529953   -7.9642764    231.09397  0.019570966  0.019315215            2 
  985000   0.86293561   -7.9766591    231.85621  0.019615584  0.019300662            2 
  986000   0.88210327   -7.9696646    231.27115  0.019546243  0.019286111            3 
  987000   0.84708048   -7.9933579    231.02149  0.019505361  0.019271471            2 
  988000   0.86141807   -7.9693251    230.64926  0.019454222  0.019256736            3 
  989000    0.8585652   -8.0228126    230.52872  0.019424395  0.019241978            1 
  990000   0.87215337   -7.9807588    230.76729  0.019424856  0.019227186            4 
  991000   0.84986335   -7.9756406    230.85594  0.019412709  0.019212338            2 
  992000   0.84625835   -7.9604549    230.99625  0.019404927  0.019197621            2 
  993000   0.86676314   -7.9765548    230.86617  0.019374469  0.019182844            1 
  994000   0.87777811   -7.9947813    230.92228  0.019359681  0.019168077            1 
  995000   0.85389128   -8.0203971    230.73583  0.019324609  0.019153198            3 
  996000   0.84977519   -8.0115023    230.92671  0.019321177  0.019138298            1 
  997000   0.85971015    -7.977806     231.4426  0.019344918  0.019123486            3 
  998000   0.86795424   -8.0200169    231.22071  0.019307006  0.019108721            3 
  999000   0.86113897   -8.0233581    230.69446  0.019243782  0.019093938            2 
 1000000   0.86683778   -8.0275663    231.33792   0.01927816  0.019079185            2 
 1001000   0.85680232   -7.9905753    231.93562   0.01930866  0.019064506            3 
 1002000   0.84425994    -8.014761    231.85707  0.019282857  0.019049826            1 
 1003000   0.87346532   -8.0350791    231.65748  0.019247049   0.01903518            1 
 1004000   0.85692852   -7.9820063    232.15505  0.019269178  0.019020673            2 
 1005000   0.85890995   -7.9873974    231.96019  0.019233847  0.019006185            4 
 1006000   0.86399363   -8.0025195    232.77825  0.019282492  0.018991814            4 
 1007000   0.83002482   -7.9913153    232.00298  0.019199187   0.01897749            2 
 1008000   0.84751599   -8.0010667    232.41957  0.019214581  0.018963043            6 
 1009000   0.83677939   -8.0004693    233.35576  0.019272858  0.018948761            1 
 1010000   0.84627977   -8.0193466    232.89346  0.019215632  0.018934415            5 
 1011000   0.84768064    -8.046017    232.40678   0.01915651  0.018919969            2 
 1012000   0.86072975   -8.0126472    232.70099  0.019161807  0.018905649            2 
 1013000   0.85212454   -8.0204994    233.05335  0.019171878  0.018891357            7 
 1014000   0.84345814   -8.0431302    232.44552  0.019103017  0.018876926            3 
 1015000   0.86104198   -8.0399235    233.09436  0.019137468  0.018862536            2 
 1016000   0.86919098    -8.000689    233.55524  0.019156433  0.018848135            2 
 1017000    0.8432672   -8.0030631    232.57241  0.019057064  0.018833702            2 
 1018000   0.85799682   -8.0124341    233.26086  0.019094701  0.018819311            1 
 1019000   0.83672568   -8.0103897    233.35625  0.019083763  0.018804841            6 
 1020000   0.84098232   -8.0404666    232.57082  0.019000884  0.018790427            1 
 1021000   0.84398437   -8.0290696    232.94695  0.019012974   0.01877586            3 
 1022000    0.8315138   -8.0470246    232.78253  0.018980963  0.018761283            3 
 1023000   0.84830837   -8.0357456    233.58728  0.019027963  0.018746685            3 
 1024000   0.83928783   -8.0474637    232.97581   0.01895962  0.018732065            6 
 1025000   0.85359251   -8.0326106    232.70837   0.01891938  0.018717523            3 
 1026000   0.84331185   -8.0275403    233.66211  0.018978404   0.01870294            2 
 1027000   0.82582957   -8.0386552    233.46508  0.018943937  0.018688371            2 
 1028000   0.84365628   -8.0529044    233.24034  0.018907291  0.018673801            3 
 1029000   0.85499839   -8.0397703    233.31042  0.018894592  0.018659083            4 
 1030000   0.84651251   -8.0369103    233.16779  0.018864708  0.018644501            1 
 1031000   0.86250088   -8.0582335    233.16082  0.018845847   0.01862991            1 
 1032000   0.84810528   -8.0672172    232.55773  0.018778886   0.01861518            2 
 1033000   0.83959311   -8.0320038    233.21559  0.018813778  0.018600471            2 
 1034000   0.84792378   -8.0476479    233.08605  0.018785142  0.018585792            3 
 1035000   0.83975726   -8.0286991    233.57494  0.018806356  0.018571185            2 
 1036000   0.84940409   -8.0369849     233.2003  0.018758068  0.018556654            2 
 1037000   0.83546006   -8.0597206    233.20929  0.018740702  0.018542082            4 
 1038000   0.83879945   -8.0507522    233.65011  0.018758037  0.018527436            1 
 1039000   0.86836118   -8.0880528    233.06445   0.01869301   0.01851272            1 
 1040000   0.83417576   -8.0569983    233.63457  0.018720719  0.018498129            2 
 1041000   0.83070204    -8.047076    233.50223  0.018692141   0.01848358            1 
 1042000   0.85756558   -8.0442936    233.82706  0.018700181  0.018469105            2 
 1043000   0.84000028   -8.0053229    234.11749  0.018705456  0.018454616            2 
 1044000   0.84797676    -8.044233    234.51512  0.018719279  0.018440148            3 
 1045000   0.84329189   -8.0586069    233.92486  0.018654295  0.018425628            2 
 1046000   0.83102205   -8.0584997    233.88817  0.018633538  0.018411003            2 
 1047000   0.84017944   -8.0674984     233.6227  0.018594612  0.018396316            1 
 1048000   0.84140298   -8.0421958    234.37711  0.018636856  0.018381674            4 
 1049000   0.82631173   -8.0442012    234.06748  0.018594493  0.018367048            1 
 1050000   0.83373899   -8.0499515    234.67696  0.018625155  0.018352576            3 
 1051000   0.83756711    -8.043094    234.66045  0.018606125  0.018338072            2 
 1052000   0.82713152   -8.0581517    234.82354  0.018601358  0.018323637            1 
 1053000   0.83412526   -8.0454715    234.33055  0.018544678  0.018309147            1 
 1054000   0.85155345   -8.0702563    234.39885  0.018532484  0.018294616            2 
 1055000   0.83694963   -8.0815504    234.52513  0.018524892  0.018280127            1 
 1056000   0.82547669    -8.091223    234.30231  0.018489765  0.018265683            2 
 1057000   0.84155444   -8.0671098    234.62362  0.018497605  0.018251189            2 
 1058000   0.84186741   -8.0479782    235.39349   0.01854076  0.018236771            2 
 1059000   0.80101055   -8.0528636    234.56987  0.018458441  0.018222348            3 
 1060000   0.82950509   -8.0693108    234.86109  0.018463922  0.018207946            2 
 1061000   0.81687355   -8.0295544    234.76526  0.018438993  0.018193611            1 
 1062000   0.83935968    -8.074038    234.99643   0.01843977  0.018179319            2 
 1063000   0.82345205   -8.0962585    235.14042  0.018433711  0.018164857            2 
 1064000   0.84281203   -8.0759815    235.14237  0.018416539  0.018150351            4 
 1065000   0.83256282   -8.1047074    234.90382   0.01838058    0.0181359            2 
 1066000   0.82286665   -8.1306687    234.67041  0.018345092  0.018121478            3 
 1067000   0.81416173   -8.0799248    235.41196  0.018385814  0.018106949            5 
 1068000   0.83157336   -8.0329795    235.55905  0.018380076  0.018092513            3 
 1069000   0.83541109   -8.0579024    235.23787  0.018337844   0.01807813            1 
 1070000   0.83916521   -8.0820555    235.18072  0.018316256  0.018063708            2 
 1071000    0.8379921   -8.0662182    235.28883  0.018307565  0.018049367            2 
 1072000   0.83998487   -8.1083477    235.14063  0.018278967  0.018034984            5 
 1073000   0.83164197   -8.0816461    235.42552  0.018284057  0.018020544            5 
 1074000   0.81662018   -8.0752182    234.99288  0.018233464  0.018006113            3 
 1075000     0.810217   -8.0979297    234.76498  0.018198836   0.01799174            3 
 1076000   0.81874126   -8.0663902    235.53764  0.018241763  0.017977332            2 
 1077000   0.83575517   -8.0951255    235.36608   0.01821155  0.017962941            7 
 1078000    0.8147291   -8.1234574    235.09041  0.018173347   0.01794852            2 
 1079000   0.82814017   -8.0917449    236.14842  0.018238216  0.017934077            3 
 1080000   0.81016713   -8.0944047    235.50076  0.018171355  0.017919649            4 
 1081000   0.84041821   -8.0994021    235.14675  0.018127255  0.017905117            2 
 1082000   0.82602406   -8.0986627    235.43341  0.018132579  0.017890721            1 
 1083000   0.81159358   -8.0731061    236.13534  0.018169847  0.017876494            3 
 1084000   0.80869551   -8.1036191    235.79723  0.018127093  0.017862253            2 
 1085000   0.81354013   -8.0770056    236.10101  0.018133718  0.017847994            4 
 1086000    0.8335199   -8.0805557    235.85495  0.018098139  0.017833807            3 
 1087000   0.82804461   -8.0869428    235.99325  0.018092092  0.017819531            3 
 1088000   0.81064854   -8.0853185    235.89107  0.018067637  0.017805201            2 
 1089000   0.79849419   -8.0946894    236.35161  0.018086288  0.017790943            1 
 1090000   0.80552373   -8.0726692    236.27491  0.018063831  0.017776695            1 
 1091000   0.81162121   -8.0951828    236.42698  0.018058889  0.017762471            1 
 1092000   0.83424723   -8.1157476    236.99102  0.018085395  0.017748314            2 
 1093000   0.81762107   -8.0930395    237.06076  0.018074166  0.017734188            3 
 1094000   0.82734402   -8.0980718     236.8474  0.018041392  0.017720123            1 
 1095000   0.81406402    -8.081097    236.94991  0.018032718  0.017705946            2 
 1096000   0.81926374   -8.0971577    236.36528  0.017971812   0.01769174            2 
 1097000   0.82673395   -8.1169635     236.6516   0.01797718  0.017677515            2 
 1098000   0.80017977   -8.0887316    236.90812  0.017980277  0.017663317            2 
 1099000   0.81871658   -8.1010842    236.43877  0.017928327  0.017649267            2 
 1100000   0.81061702    -8.100472    236.78947  0.017938596  0.017635207            1 
 1101000   0.82221075   -8.0948625    237.10378  0.017946093  0.017621201            4 
 1102000   0.82721581   -8.1217458    237.00262  0.017922158  0.017607094            3 
 1103000   0.80002154   -8.1369333    236.89571  0.017897833  0.017593015            1 
 1104000   0.82394966    -8.136913    236.54659  0.017855268  0.017578904            5 
 1105000   0.81362051   -8.1290875    237.22742  0.017890454    0.0175649            2 
 1106000   0.81909094    -8.138617     237.7483  0.017913525  0.017550911            3 
 1107000   0.81553772   -8.1599577     237.4958  0.017878335  0.017536933            2 
 1108000   0.79034799    -8.140252    237.46649  0.017859995  0.017522944            2 
 1109000   0.81584312   -8.1551618    237.17319  0.017821851  0.017508994            2 
 1110000   0.80849983   -8.1236499    238.08457  0.017874217  0.017495092            1 
 1111000   0.79632738   -8.1138134     238.0939  0.017858829  0.017481207            3 
 1112000   0.80397731   -8.0958722    237.96816  0.017833345  0.017467337            1 
 1113000    0.8242073   -8.1175546    237.27381  0.017765335  0.017453476            3 
 1114000   0.81070966   -8.1476535    237.20654  0.017744355  0.017439576            1 
 1115000   0.82128734   -8.1279069    237.39733  0.017742701  0.017425679            1 
 1116000   0.81222948   -8.1229539    237.41535  0.017728147  0.017411799            4 
 1117000   0.82295837   -8.1445893    237.04607  0.017684726  0.017397879            2 
 1118000   0.81754278   -8.1223677    238.16927  0.017752629  0.017384037            2 
 1119000   0.80829747   -8.1347563    238.28899   0.01774568  0.017370141            2 
 1120000   0.82322193   -8.1574289    237.74814  0.017689594  0.017356258            2 
 1121000   0.80387858    -8.159742    237.58933  0.017662008  0.017342319            2 
 1122000   0.80778097   -8.1420762    237.08261  0.017608631  0.017328369            1 
 1123000   0.81023492   -8.1394132    237.44728  0.017620012  0.017314494            2 
 1124000   0.82322508   -8.1252981    237.79034   0.01762977  0.017300586            2 
 1125000   0.80098089   -8.1226036    237.84547  0.017618183  0.017286718            1 
 1126000     0.788445   -8.1313628    238.05683  0.017618178  0.017272822            2 
 1127000   0.79585001   -8.1545489    238.32133  0.017622103  0.017258872            3 
 1128000   0.79289984   -8.1523269    237.90702  0.017575873  0.017244906            2 
 1129000   0.79704228   -8.1589624     238.2207  0.017583459  0.017230965            1 
 1130000   0.80855096    -8.136265     238.0188  0.017553009  0.017217054            2 
 1131000   0.81266719   -8.1353582    238.59861   0.01758021  0.017203325            7 
 1132000   0.79620659   -8.1681754    238.43824  0.017552874  0.017189583            4 
 1133000   0.79563697   -8.1728447    238.07498  0.017510663   0.01717575            1 
 1134000   0.81948087   -8.1671956    238.97206  0.017561145  0.017161901            3 
 1135000   0.80730838   -8.1610287    237.69498  0.017451908   0.01714802            2 
 1136000   0.79669247   -8.1411356    238.04505  0.017462225    0.0171342            6 
 1137000   0.78263479   -8.1221017    237.75883  0.017425889  0.017120296            1 
 1138000   0.79016888   -8.1760626    238.44869  0.017461093  0.017106395            2 
 1139000   0.79271396   -8.1379597    238.31984  0.017436336  0.017092525            4 
 1140000   0.79424529   -8.1490968     238.2464  0.017415672  0.017078653            1 
 1141000   0.79136905   -8.1676212    238.05198   0.01738621  0.017064742            2 
 1142000   0.79549066    -8.124158    238.17519  0.017379976   0.01705083            1 
 1143000   0.79818233   -8.1841166    238.38096  0.017379772   0.01703696            3 
 1144000    0.8119086   -8.1252046    238.33454  0.017361199  0.017023126            5 
 1145000    0.7983752   -8.1403321     238.3415  0.017346543  0.017009348            2 
 1146000   0.80577479   -8.1347375    238.70258  0.017357663  0.016995585            1 
 1147000   0.81672262     -8.17306    238.24658    0.0173094  0.016981827            2 
 1148000   0.79698755   -8.1551391    238.37966  0.017303983  0.016967984            2 
 1149000   0.79376833   -8.1599607    238.98395  0.017332749  0.016954114            1 
 1150000   0.80664116   -8.1638211    238.44836  0.017278867  0.016940337            3 
 1151000   0.81709702   -8.1925289    238.88815  0.017295696  0.016926563            2 
 1152000   0.79712255   -8.1870499    238.62569  0.017261696  0.016912772            3 
 1153000   0.81447878   -8.1265856    239.12742  0.017282988  0.016899038            1 
 1154000    0.7958625   -8.1510054    238.49779  0.017222544  0.016885314            5 
 1155000   0.79664134    -8.193896    238.31382   0.01719436  0.016871614            2 
 1156000   0.79355154   -8.1650946    238.64526  0.017203378  0.016857913            4 
 1157000   0.80423105   -8.1841574    238.39346  0.017170373  0.016844117            2 
 1158000   0.78248637   -8.1606774    239.08759  0.017205497  0.016830391            4 
 1159000    0.7794228   -8.1745843    239.20547  0.017199128  0.016816654            4 
 1160000   0.81734033   -8.1998004    238.97983  0.017168091  0.016802868            2 
 1161000   0.79694344   -8.1912631    239.27088  0.017174195  0.016789075            2 
 1162000   0.78896876   -8.2018645    239.11681  0.017148365  0.016775252            2 
 1163000   0.77835159   -8.1740347     238.6142  0.017097607  0.016761484            4 
 1164000   0.78905182   -8.1505063    238.92929  0.017105476  0.016747684            2 
 1165000   0.79707296    -8.181755    239.40285  0.017124667  0.016733947            7 
 1166000   0.79442882   -8.1435049    239.62273  0.017125695  0.016720288            2 
 1167000   0.79651114   -8.1847346    238.52356   0.01703253  0.016706589            3 
 1168000   0.81178078   -8.2081148    239.14725  0.017062447  0.016692828            3 
 1169000   0.79235737    -8.163642    239.45658  0.017069902  0.016679124            2 
 1170000   0.78997831   -8.1633175    239.25423    0.0170409  0.016665403            2 
 1171000   0.78059524   -8.1766733    238.90148  0.017001244  0.016651712            2 
 1172000   0.79440511   -8.1943125    239.51205  0.017030151  0.016637926            1 
 1173000    0.7838708   -8.2068621    239.24005  0.016996309  0.016624168            1 
 1174000   0.78260687   -8.1919682    239.25937  0.016983204  0.016610351            3 
 1175000   0.76755673   -8.1778869    239.27782  0.016970058  0.016596622            2 
 1176000   0.78510133   -8.1845412    239.66511  0.016983072  0.016582965            2 
 1177000   0.79288936   -8.2289431    239.00877  0.016922173  0.016569197            2 
 1178000   0.78119387   -8.1901311    238.97574  0.016905471  0.016555424            5 
 1179000   0.79911519   -8.1888787    239.16248  0.016904331  0.016541743            3 
 1180000   0.78458691   -8.1880534    239.42401  0.016908475  0.016528023            6 
 1181000   0.77533675    -8.229595    239.03435  0.016866663  0.016514299            3 
 1182000   0.77521819   -8.1962341    239.26264  0.016868489  0.016500661            6 
 1183000   0.77625051   -8.2126116    239.34601  0.016860102  0.016487057            5 
 1184000   0.77913463   -8.2002669      239.223  0.016837205  0.016473448            6 
 1185000   0.78557144   -8.1856995    239.44269  0.016838445  0.016459918            2 
 1186000   0.78715217   -8.1983436    239.57203  0.016833335  0.016446314            1 
 1187000   0.77747195   -8.2186175    239.42146  0.016808583  0.016432703            3 
 1188000   0.78193601   -8.2011415    239.51976   0.01680133   0.01641914            2 
 1189000   0.78249893   -8.2011669    239.69988  0.016799823  0.016405574            1 
 1190000   0.78614499   -8.1949077    239.94834  0.016803105  0.016392086            4 
 1191000   0.77471637   -8.2256846    239.93932  0.016788366  0.016378557            1 
 1192000    0.7596713   -8.2147399    239.75071  0.016761095  0.016365035            2 
 1193000   0.79491551   -8.1838852    240.23607   0.01678095   0.01635153            2 
 1194000   0.75981828   -8.2273636     239.1763   0.01669293  0.016338057            5 
 1195000   0.78198963   -8.2175836    239.82963  0.016724521   0.01632453            3 
 1196000   0.77528313    -8.193921    239.50498  0.016687917  0.016311049            1 
 1197000    0.7723136   -8.1997716    240.49574   0.01674295  0.016297575            6 
 1198000   0.75820864   -8.2079486    239.99903  0.016694423  0.016284085            3 
 1199000   0.78119389   -8.2223555    239.97101  0.016678552  0.016270549            3 
 1200000    0.7847874   -8.2209768    240.05103   0.01667021  0.016257062            1 
 1201000   0.77994933    -8.183566    240.55499  0.016691298  0.016243714            4 
 1202000   0.75860924   -8.2159728    240.41429  0.016667658  0.016230333            1 
 1203000   0.77305177   -8.2295205    240.09654  0.016631791  0.016216936            5 
 1204000   0.77855001   -8.2314043     240.1712  0.016623145  0.016203497            2 
 1205000    0.7792128   -8.2223652    239.88866  0.016589811  0.016190091            3 
 1206000   0.77124267   -8.2490154    240.20748  0.016598084  0.016176644            1 
 1207000   0.76724408   -8.2570503    239.85499  0.016559996  0.016163186            3 
 1208000   0.77741368   -8.2383237    239.89483  0.016549036  0.016149652            2 
 1209000   0.77886315   -8.2370644    239.89761  0.016535539  0.016136183            1 
 1210000   0.77330971   -8.2600065    240.08707  0.016534922  0.016122693            1 
 1211000   0.76606853   -8.2488338    240.10071  0.016522207  0.016109249            1 
 1212000   0.77145226   -8.2356155    240.01226  0.016502493  0.016095778            2 
 1213000   0.76898683   -8.2543609    239.55434   0.01645743  0.016082308            4 
 1214000   0.79023762   -8.2525877    240.05417  0.016478183   0.01606886            1 
 1215000   0.77727031   -8.2243114    240.23795  0.016477225  0.016055434            3 
 1216000   0.76836995   -8.2503646    240.26212  0.016465332  0.016042007            2 
 1217000   0.75686829   -8.2581766    239.56706  0.016404209  0.016028591            5 
 1218000   0.77057915   -8.2319676    240.55336  0.016458221  0.016015226            4 
 1219000   0.77625018    -8.236879    239.87458  0.016398317  0.016001849            2 
 1220000    0.7720755   -8.2642369    240.10057  0.016400312  0.015988467            4 
 1221000   0.77030686   -8.2302041    241.19029  0.016461254  0.015975175            1 
 1222000   0.78331224   -8.2276249    240.47286  0.016398859  0.015961884            3 
 1223000   0.77447127   -8.2390356    240.39359  0.016380049  0.015948565            2 
 1224000    0.7602155   -8.2202671    240.92842  0.016403079  0.015935305            2 
 1225000   0.75876141   -8.2608756    240.37843  0.016352274  0.015922036            2 
 1226000   0.75392843   -8.2584957    240.71912  0.016362093  0.015908716            3 
 1227000    0.7579156   -8.2519957    240.38669  0.016326181  0.015895446            1 
 1228000   0.76916205   -8.2741648    240.37231   0.01631191  0.015882136            1 
 1229000   0.77081733   -8.2565125    240.94312  0.016337342  0.015868828            3 
 1230000   0.75939881   -8.2837546    240.48478  0.016293007  0.015855504            3 
 1231000    0.7385561   -8.2672702    240.64724  0.016290769  0.015842138            3 
 1232000   0.75207184   -8.2461505    240.55213  0.016271112  0.015828807            3 
 1233000   0.76915455   -8.2805348     239.6577  0.016197466  0.015815484            1 
 1234000   0.75776411   -8.2728385    240.04464   0.01621047   0.01580219            1 
 1235000    0.7451109   -8.2539347    240.52617  0.016229836  0.015788956            2 
 1236000   0.75399133   -8.2476115    240.60511  0.016222027  0.015775705            2 
 1237000   0.75608086   -8.2496001    240.16333  0.016179152  0.015762446            2 
 1238000   0.75810118   -8.2688295    240.30201  0.016175418  0.015749155            1 
 1239000   0.75321478   -8.2240546     240.8039  0.016196119  0.015735921            2 
 1240000   0.78022035   -8.2391977    240.54102  0.016165391  0.015722741            2 
 1241000   0.75963117   -8.2502953    240.67165  0.016161137  0.015709574            2 
 1242000   0.75354852   -8.2500056    240.64155  0.016146105  0.015696378            2 
 1243000   0.75797404   -8.2650276    240.84265  0.016146598  0.015683197            3 
 1244000   0.76191978   -8.2892262    240.29063  0.016096639  0.015669952            1 
 1245000   0.73847132   -8.2873265    240.13495   0.01607329  0.015656674            4 
 1246000   0.75419255   -8.2760141    240.25131  0.016068172  0.015643436            4 
 1247000   0.75379817   -8.2585724    240.33109  0.016060618  0.015630237            4 
 1248000   0.75084669   -8.2808435    240.46254  0.016056527  0.015616995            4 
 1249000   0.75195397   -8.2843274    240.60855  0.016053413  0.015603771            3 
 1250000   0.73943412   -8.3234828    240.32646  0.016021764  0.015590457            1 
 1251000   0.76993346   -8.2925767    240.92161  0.016048602  0.015577244            3 
 1252000   0.75916604   -8.2764753    240.95724  0.016038155  0.015564114            2 
 1253000   0.74622251   -8.2982242    239.79523  0.015948074  0.015550931            2 
 1254000   0.76500541   -8.2653916    240.73268  0.015997653  0.015537706            2 
 1255000   0.74147981   -8.2879013     240.7974  0.015989203  0.015524543            1 
 1256000   0.75835002   -8.3002578    240.28313  0.015942352  0.015511364            2 
 1257000   0.76566733   -8.2635234    240.88476  0.015969555  0.015498216            2 
 1258000   0.74442658   -8.3112667      240.057  0.015902027  0.015485069            3 
 1259000   0.76335039   -8.2997862    240.75211  0.015935406  0.015471897            4 
 1260000   0.75289143    -8.286366     240.6715  0.015917427  0.015458778            1 
 1261000   0.75481944   -8.2929326    240.60222  0.015900226  0.015445694            4 
 1262000    0.7341096   -8.2784259    240.59758   0.01588732  0.015432537            2 
 1263000   0.74990806   -8.2697869    240.79415  0.015887711  0.015419405            4 
 1264000   0.74836532   -8.2924906    240.34384  0.015845453  0.015406247            3 
 1265000   0.75411428   -8.3185848    239.92955  0.015805636  0.015393073            1 
 1266000   0.75893608   -8.2687705    240.49702  0.015830505  0.015379887            3 
 1267000    0.7504543   -8.3202994    240.15949   0.01579581  0.015366721            9 
 1268000   0.75117085   -8.2905474    240.37579  0.015797568  0.015353524            6 
 1269000    0.7364691   -8.2932921    240.22554  0.015775252  0.015340355            2 
 1270000   0.74232831   -8.3096481    239.84484  0.015737851  0.015327124            3 
 1271000    0.7364811   -8.3013014    240.37317  0.015760108   0.01531391            2 
 1272000   0.73950958   -8.2837561    240.36278  0.015747038  0.015300712            3 
 1273000   0.74908362     -8.33887    240.37538  0.015735493  0.015287534            1 
 1274000   0.75591496   -8.2845265    241.08897  0.015769817  0.015274449            2 
 1275000   0.75809934    -8.261677    241.22264  0.015766185  0.015261381            1 
 1276000   0.72502034   -8.2858071    240.66538  0.015717436  0.015248354            2 
 1277000   0.75156986   -8.2928144    240.59953  0.015700831  0.015235318            6 
 1278000   0.75834207   -8.2646333    240.45424  0.015679071  0.015222301            3 
 1279000   0.75501751   -8.2713549    240.97378  0.015700663    0.0152093            3 
 1280000   0.73681493   -8.2659638    240.96206  0.015687634    0.0151963            2 
 1281000   0.73852315   -8.2847517    241.19881  0.015690789  0.015183321            2 
 1282000    0.7316287   -8.3031147    241.07364  0.015670414  0.015170328            2 
 1283000   0.74442496   -8.3009428    241.06781  0.015657821  0.015157358            3 
 1284000   0.74698944    -8.303013    240.87937  0.015633396  0.015144438            2 
 1285000   0.74794619   -8.2983098    241.15015   0.01563879  0.015131536            1 
 1286000   0.71384321   -8.2985441    241.03647  0.015619263  0.015118658            3 
 1287000   0.74272394   -8.3263084    240.68845  0.015584593  0.015105781            2 
 1288000   0.74929734   -8.2932224    241.58363  0.015630411  0.015092891            1 
 1289000   0.73730738   -8.3277094    240.91744  0.015575216  0.015079982            2 
 1290000   0.73523069   -8.3135456    241.05792  0.015572217   0.01506707            2 
 1291000     0.750684   -8.2946879    241.67735  0.015600139  0.015054241            3 
 1292000    0.7151439   -8.3275189    241.33781  0.015566164  0.015041416            4 
 1293000   0.74745574    -8.339666    241.46939  0.015562606  0.015028593            1 
 1294000   0.74521534   -8.3208025    240.91721  0.015515018  0.015015843            1 
 1295000   0.73790099   -8.3584262    240.76554  0.015493278  0.015003005            1 
 1296000   0.74814576    -8.305741    241.47274  0.015526796  0.014990184            3 
 1297000   0.73301945   -8.3031208     241.4878  0.015515793   0.01497736            2 
 1298000   0.74128921   -8.3493337    241.08388  0.015477907  0.014964558            2 
 1299000   0.73127891   -8.3161953    241.29831  0.015479748  0.014951777            2 
 1300000   0.73393182   -8.3747494    241.00664  0.015449144  0.014938984            3 
 1301000    0.7532559    -8.337667    241.04555  0.015439761  0.014926201            2 
 1302000   0.73692059   -8.3428039    241.22036  0.015439091  0.014913469            1 
 1303000   0.74085427   -8.3318467     241.8014  0.015464402  0.014900735            2 
 1304000   0.74352285   -8.3256711     241.4177  0.015428022  0.014888039            1 
 1305000   0.72248026   -8.3238315    241.20838  0.015402834  0.014875349            2 
 1306000   0.72096324   -8.3313399    241.39942   0.01540323  0.014862661            2 
 1307000   0.72249553   -8.3510634    242.28816   0.01544811  0.014849974            1 
 1308000    0.7402031    -8.345989    241.76071  0.015402696  0.014837284            4 
 1309000   0.74165872   -8.3348926    241.42804  0.015369751   0.01482456            2 
 1310000   0.74733889   -8.3591755    241.34843  0.015352954  0.014811835            3 
 1311000   0.73871053   -8.3254115    241.16331  0.015329475  0.014799132            4 
 1312000   0.74083852   -8.3631996    241.18678  0.015319282  0.014786447            3 
 1313000   0.73387305   -8.3448884    241.15144  0.015305372  0.014773755            2 
 1314000   0.73291167    -8.344949     241.6354  0.015324416  0.014761097            3 
 1315000   0.72722896   -8.3787112     241.1651  0.015282959  0.014748434            7 
 1316000   0.72817191   -8.3482314    241.53894  0.015295019  0.014735796            3 
 1317000   0.70504725    -8.344198    241.31476   0.01526922   0.01472315            8 
 1318000   0.70698134   -8.3646979    241.32072  0.015258012  0.014710522            2 
 1319000   0.71468762   -8.3773861     240.6096  0.015201516  0.014697867            3 
 1320000   0.74297566    -8.333326    241.89589  0.015271205  0.014685232            1 
 1321000   0.72440296   -8.3519155    241.80807  0.015254105  0.014672645            3 
 1322000   0.72816353   -8.3489227    241.16998  0.015202344   0.01466008            6 
 1323000   0.71039631   -8.3154387    241.67551  0.015222695  0.014647466            4 
 1324000   0.73393733   -8.3448823    241.19052  0.015180672  0.014634887            5 
 1325000     0.726317   -8.3527787    241.81072  0.015208221  0.014622329            1 
 1326000   0.72487607   -8.3523347    241.59204  0.015183009  0.014609748            1 
 1327000   0.71740985   -8.3341482    241.20123  0.015147025  0.014597151            2 
 1328000   0.73794364   -8.3456001    241.18467   0.01513458  0.014584532            4 
 1329000    0.7150502   -8.3573249    241.24737  0.015127124  0.014571893            3 
 1330000   0.70390984   -8.3625535    240.66886  0.015079503  0.014559274            3 
 1331000   0.70624727   -8.3527732    240.79287  0.015075937  0.014546642            2 
 1332000   0.71755263   -8.3606388    240.87063  0.015069484  0.014534056            2 
 1333000   0.72574854   -8.3573529    241.73547  0.015112245  0.014521535            2 
 1334000   0.72902384   -8.3629702    241.07677  0.015059768  0.014508971            2 
 1335000   0.72467516    -8.345431    241.23134  0.015058136  0.014496412            2 
 1336000    0.7254762    -8.384011    241.21874  0.015046079  0.014483879            3 
 1337000   0.71408458   -8.3696681    241.32478  0.015041435  0.014471323            4 
 1338000   0.71036262    -8.367835    241.47231  0.015039382  0.014458764            2 
 1339000   0.72077622   -8.3709542     241.0356  0.015000971  0.014446191            2 
 1340000   0.72829151   -8.3679958     240.7644   0.01497291  0.014433577            2 
 1341000   0.71855889   -8.3728629    241.11281  0.014983396  0.014421002            2 
 1342000   0.71851585   -8.3789959     240.9135  0.014959855  0.014408452            2 
 1343000    0.7174805   -8.3604769    241.00348  0.014954299  0.014395947            5 
 1344000   0.71996825   -8.3802354    241.05983  0.014946666  0.014383423            3 
 1345000   0.71961127   -8.4027241    240.89385  0.014925269  0.014370904            6 
 1346000   0.71568094   -8.3690561    241.33692  0.014941612  0.014358368            2 
 1347000    0.7098534   -8.3816239    241.34449  0.014930988  0.014345857            2 
 1348000   0.71816696   -8.4016353    240.99756  0.014898465  0.014333295            4 
 1349000   0.71256498   -8.3860609    240.96428  0.014885364  0.014320714            3 
 1350000    0.7121927   -8.3974738    241.11974  0.014883934  0.014308175            4 
 1351000   0.71605604   -8.3972318    240.97446  0.014863956  0.014295636            2 
 1352000   0.71590087   -8.3967355    240.82476  0.014843735  0.014283075            4 
 1353000    0.7171134   -8.4054435     241.3067  0.014862447  0.014270577            2 
 1354000   0.72754116   -8.3930275    241.13104   0.01484066  0.014258113            3 
 1355000    0.7121722   -8.4088601    240.71545  0.014804148   0.01424564            4 
 1356000   0.72252898   -8.3943477     241.6457    0.0148504  0.014233174            3 
 1357000   0.70858195   -8.3753232    241.05901  0.014803427  0.014220718            3 
 1358000   0.70682097   -8.3875953    241.19725   0.01480101  0.014208298            2 
 1359000   0.69762673   -8.4193704    240.52281  0.014748762  0.014195893            1 
 1360000   0.71364193   -8.4171231    240.46708  0.014734502  0.014183472            2 
 1361000   0.70164149   -8.4051892    240.99152  0.014755787  0.014171059            4 
 1362000   0.70951426   -8.3933688    240.90218  0.014739487  0.014158638            3 
 1363000   0.72167279   -8.4275868    240.67898  0.014715027  0.014146234            3 
 1364000   0.70612855   -8.4004457    241.15584  0.014733373  0.014133866            1 
 1365000   0.71126562   -8.4081791     241.2364  0.014727497  0.014121484            4 
 1366000   0.71170557   -8.3835374    241.11603  0.014709372  0.014109094            3 
 1367000   0.69616789   -8.4317016    240.63831   0.01466949  0.014096761            2 
 1368000   0.69621357   -8.4174982    241.00933  0.014681367  0.014084444            2 
 1369000   0.70268762   -8.3989896    241.37437  0.014692864  0.014072136            1 
 1370000   0.70360355   -8.4031347    241.37223  0.014682009  0.014059831            2 
 1371000   0.69793812   -8.4226174    240.69087  0.014629885  0.014047525            1 
 1372000   0.72573608   -8.4128286    241.46914  0.014666493  0.014035211            2 
 1373000   0.70895912   -8.4302471    241.15983  0.014637038  0.014022964            2 
 1374000   0.71023296   -8.4281197    240.93039  0.014612469  0.014010702            5 
 1375000   0.70711241   -8.4186671    240.82655  0.014595549  0.013998448            3 
 1376000   0.69461615   -8.4347571    241.05729  0.014598915  0.013986232            3 
 1377000   0.70168755   -8.3991895    241.39081  0.014608498  0.013974008            1 
 1378000   0.70595944   -8.4105996    241.37376  0.014596865  0.013961832            2 
 1379000   0.70882282   -8.4102389    241.15411  0.014573007  0.013949662            2 
 1380000   0.69563722   -8.4325419    241.26683  0.014569253  0.013937529            2 
 1381000   0.70077053   -8.4290123    241.04725  0.014545453  0.013925388            2 
 1382000   0.68638752   -8.4199186    241.29908  0.014550113  0.013913269            4 
 1383000   0.69229488   -8.4203336    241.69263  0.014563306  0.013901125            1 
 1384000   0.70771034   -8.4450145    241.19579  0.014522868  0.013889019            4 
 1385000   0.69478854   -8.4068286    241.47425  0.014529137   0.01387691            1 
 1386000    0.6877944   -8.4099543    241.63954  0.014528592  0.013864806            2 
 1387000   0.69022209   -8.4418624     241.1903  0.014491126   0.01385271            3 
 1388000   0.69756944   -8.4225684    241.50165  0.014499379  0.013840599            3 
 1389000   0.71156504   -8.4458076    241.63052  0.014496671  0.013828515            2 
 1390000   0.70976016   -8.4136294    241.43491  0.014474515  0.013816429            2 
 1391000   0.70922092   -8.4267201    241.28276  0.014454994  0.013804337            3 
 1392000   0.69156286   -8.4377204    241.13817  0.014435953  0.013792234            4 
 1393000    0.7099418   -8.3947965    241.60203   0.01445334  0.013780206            2 
 1394000   0.69403328   -8.4269907    240.91093  0.014401658  0.013768192            2 
 1395000   0.69540034   -8.4356472     241.2161  0.014409564  0.013756153            1 
 1396000   0.70808785   -8.4517918    240.71223  0.014369163  0.013744128            2 
 1397000   0.69912254   -8.4336383    241.16537  0.014385909  0.013732125            3 
 1398000    0.6990901   -8.4449763    241.18164  0.014376588  0.013720113            5 
 1399000   0.70097293   -8.4546559    241.09436  0.014361113  0.013708121            3 
 1400000   0.68991317   -8.4288576    241.78381  0.014391893  0.013696133            4 
 1401000   0.69896885   -8.4152574    241.07858  0.014339673  0.013684159            5 
 1402000   0.69496826   -8.4415393    240.52029  0.014296261  0.013672175            3 
 1403000   0.69835819    -8.448849    240.86866  0.014306763  0.013660171            2 
 1404000   0.68306411   -8.4408746    241.55989  0.014337601  0.013648202            1 
 1405000   0.71489325   -8.4402044     240.8001  0.014282331  0.013636261            5 
 1406000   0.70418939   -8.4789496    240.75231   0.01426934  0.013624284            3 
 1407000   0.69397878   -8.4278923    241.63471  0.014311461  0.013612301            3 
 1408000   0.69550092   -8.4127158    241.41972  0.014288572  0.013600386            2 
 1409000   0.68332905   -8.4400457    241.08583  0.014258684   0.01358849            5 
 1410000   0.68112267   -8.4533861    241.44453  0.014269771  0.013576608            2 
 1411000   0.68974057   -8.4579943    241.55056   0.01426592  0.013564741            1 
 1412000   0.69860628   -8.4280311    241.03529  0.014225407  0.013552877            4 
 1413000   0.67542923   -8.4556143    241.15062  0.014222141  0.013540991            3 
 1414000   0.70634569    -8.449231    241.16512  0.014212937  0.013529162            6 
 1415000   0.70323174   -8.4399461    241.23315  0.014206899  0.013517314            2 
 1416000   0.68973947   -8.4331274     241.1849  0.014194027  0.013505423            2 
 1417000   0.69849596   -8.4644872    241.35342   0.01419392  0.013493542            1 
 1418000   0.68961742   -8.4680665    241.55907  0.014195996  0.013481698            2 
 1419000   0.67978392   -8.4359132    241.43917  0.014178951  0.013469862            3 
 1420000    0.6996725   -8.4673265    240.73153  0.014127437  0.013458009            3 
 1421000   0.68299307   -8.4783764    240.74895  0.014118517  0.013446121            2 
 1422000    0.6838721   -8.4523939    240.91618  0.014118389  0.013434254            1 
 1423000   0.68854761   -8.4551686    241.54574  0.014145335  0.013422403            2 
 1424000   0.68296495   -8.4801689    240.81493  0.014092634  0.013410564            2 
 1425000    0.6942018   -8.4689021    241.31124  0.014111768  0.013398765            3 
 1426000   0.68991305   -8.4634369    240.77009  0.014070248  0.013386959            1 
 1427000   0.67378414   -8.4614492    241.48789  0.014102306  0.013375147            2 
 1428000   0.68767936   -8.4825459    240.70631   0.01404682   0.01336334            1 
 1429000   0.67533694   -8.4690779    240.33266  0.014015201  0.013351513            1 
 1430000   0.68327105   -8.4712707    240.88479  0.014037575    0.0133397            3 
 1431000   0.67383476   -8.4820926    241.00113   0.01403454  0.013327901            1 
 1432000   0.69740542   -8.4859989    241.31058  0.014042748  0.013316104            2 
 1433000   0.66602511   -8.4874697    240.76083  0.014000979  0.013304301            1 
 1434000   0.69565889   -8.4976763    241.07202  0.014009299  0.013292478            2 
 1435000   0.67493973   -8.4583767    241.00048  0.013995382  0.013280696            3 
 1436000   0.68859101   -8.4978313    240.40475  0.013951065  0.013268924            2 
 1437000   0.66853358   -8.4637729     240.2082  0.013929958  0.013257168            2 
 1438000   0.67417106   -8.4916287    241.00096  0.013966212  0.013245407            1 
 1439000   0.66869717   -8.4857819    241.03049  0.013958217   0.01323366            2 
 1440000   0.67820431    -8.488722    241.02555  0.013948238  0.013221947            2 
 1441000   0.67966082   -8.4898315    240.79354  0.013925141  0.013210247            2 
 1442000    0.6812216    -8.498243      240.452  0.013895747  0.013198561            2 
 1443000    0.6597956   -8.4910345    240.91521  0.013912867   0.01318683            1 
 1444000   0.67587195   -8.5088904    240.81939  0.013897702  0.013175113            2 
 1445000   0.66997726   -8.5109399    240.88261  0.013891731  0.013163415            4 
 1446000    0.6846641   -8.5285825    240.60419  0.013866078   0.01315171            4 
 1447000   0.67045946    -8.504978    240.75121  0.013864962  0.013140038            2 
 1448000   0.68038749   -8.4979774    240.74441  0.013854996  0.013128368            4 
 1449000   0.68044414   -8.4921721    240.82873  0.013850283   0.01311669            1 
 1450000     0.670601   -8.5294607    240.53872  0.013824065  0.013105039            2 
 1451000    0.6693803   -8.5087933    240.86462  0.013833254  0.013093406            5 
 1452000     0.676032   -8.5305987    240.58659   0.01380777  0.013081748            2 
 1453000   0.67515556   -8.4992887    240.77239  0.013808924  0.013070135            2 
 1454000   0.65969689   -8.5113923    240.45643  0.013781318  0.013058547            1 
 1455000   0.66143716   -8.4726935    240.86077  0.013795004  0.013046957            2 
 1456000   0.67586988   -8.4860639    240.89345    0.0137874  0.013035386            3 
 1457000   0.67167664   -8.5114184    241.05089  0.013786942  0.013023811            2 
 1458000   0.68286823   -8.5093539    240.42494  0.013741709  0.013012219            2 
 1459000   0.65909895   -8.5234778    240.61527  0.013743161  0.013000638            1 
 1460000   0.66526932   -8.5351536    240.63597   0.01373493  0.012989107            5 
 1461000   0.65318052   -8.5244307     240.9059  0.013740925  0.012977556            4 
 1462000   0.66210228   -8.5103316    240.74809  0.013722531  0.012965997            4 
 1463000    0.6763923   -8.5301016    240.76956  0.013714375  0.012954448            2 
 1464000   0.66835647   -8.5096886    240.51548  0.013690544  0.012942923            1 
 1465000    0.6664352   -8.5169454    241.03895  0.013710975  0.012931414       -1e+20 
 1466000   0.66144832   -8.5038805    240.76067  0.013685805  0.012919933            2 
 1467000   0.67939318   -8.5087774    240.86667  0.013682497  0.012908454            4 
 1468000   0.66326886    -8.522662    240.25476   0.01363844  0.012896992            1 
 1469000   0.68078697   -8.5134603    240.42267  0.013638681  0.012885542            1 
 1470000   0.65016255   -8.5038078    241.00378  0.013662346    0.0128741            1 
 1471000     0.664973   -8.4916583     240.9915  0.013652363  0.012862686            1 
 1472000    0.6558269   -8.5263113    241.03181   0.01364537  0.012851251            1 
 1473000   0.65180655   -8.5331754    240.68566  0.013616523  0.012839841            6 
 1474000   0.65574516   -8.5296514    240.29275  0.013585072  0.012828425            1 
 1475000   0.66589177   -8.5475992    240.47392  0.013586097  0.012817037            2 
 1476000   0.65703102   -8.5271449    240.70199  0.013589769  0.012805651            1 
 1477000   0.65483819   -8.5254014     241.0605  0.013600795  0.012794269            1 
 1478000    0.6834387   -8.5423874     240.5131  0.013560729  0.012782907            2 
 1479000   0.64381341   -8.5401973    241.01627  0.013579912  0.012771543            2 
 1480000   0.64632402   -8.5454742    240.53633  0.013543712  0.012760198            3 
 1481000   0.66357537   -8.5358495    240.77881  0.013548211  0.012748877            3 
 1482000   0.66588509   -8.5488372    240.97136  0.013549896  0.012737569            3 
 1483000   0.66048596   -8.5285644    240.39185  0.013508196  0.012726265            4 
 1484000   0.66270212   -8.5524909     240.8167   0.01352295  0.012714975            3 
 1485000   0.65574637   -8.5307903    240.67791  0.013506055  0.012703674            5 
 1486000   0.65905988   -8.5519322    240.87049  0.013507766  0.012692393            2 
 1487000   0.66428709   -8.5327711    240.79095  0.013494225  0.012681134            3 
 1488000    0.6495736   -8.5492858    240.24947  0.013454831  0.012669875            2 
 1489000   0.64521451   -8.5452392    240.77462  0.013475186  0.012658647            1 
 1490000   0.65730252   -8.5481169    240.48198  0.013449775  0.012647399            3 
 1491000   0.67247118   -8.5453621    240.67332  0.013451449  0.012636162            1 
 1492000    0.6451533   -8.5435809    240.34444  0.013424064  0.012624969            3 
 1493000   0.66726209   -8.5528867    240.41249  0.013418871  0.012613784            4 
 1494000   0.64420319   -8.5681136    240.55333  0.013417745  0.012602602            2 
 1495000   0.65791406   -8.5265829    240.62386  0.013412701  0.012591386            1 
 1496000   0.64732302   -8.5416582    240.72987  0.013409641  0.012580191            1 
 1497000   0.64780419   -8.5701487     240.2052  0.013371476  0.012568992            1 
 1498000   0.65357023    -8.539743    240.46115  0.013376788  0.012557809            1 
 1499000   0.66224375   -8.5544656    240.49214  0.013369587  0.012546632            4 
 1500000   0.65472192   -8.5532735    240.23823  0.013346568  0.012535464            1 
 1501000   0.66899113   -8.5616387    240.46419  0.013350222  0.012524319            3 
 1502000   0.66303513   -8.5753744    240.31214  0.013332897   0.01251317            4 
 1503000    0.6486903   -8.5743701    240.29049  0.013322826  0.012502009            1 
 1504000    0.6374226   -8.5652235    240.47121  0.013323981  0.012490861            1 
 1505000   0.66140436   -8.5761891     240.2424  0.013302458  0.012479746            2 
 1506000   0.64508133   -8.5688784    240.59361   0.01331306  0.012468629            2 
 1507000   0.64385308   -8.5714038    240.33848  0.013290117  0.012457546            2 
 1508000   0.65592168   -8.5664516    240.82064  0.013307949  0.012446471            2 
 1509000   0.62681088   -8.5703771    240.75668  0.013295597  0.012435413            3 
 1510000    0.6612777   -8.5493676    240.59149  0.013277676  0.012424359            1 
 1511000   0.64512497   -8.5847597    240.47029  0.013262204  0.012413324            2 
 1512000   0.65876063   -8.5883555    240.24259  0.013240883  0.012402275            1 
 1513000   0.66337671   -8.5739087    240.37679  0.013239524  0.012391251            1 
 1514000   0.65367676   -8.5512435    240.65751   0.01324623  0.012380234            2 
 1515000   0.64126905    -8.579578    240.44399  0.013225742  0.012369212            2 
 1516000   0.64276383   -8.5657409    240.50538  0.013220392  0.012358212            1 
 1517000    0.6530589    -8.584233    240.49576  0.013211149  0.012347207            1 
 1518000   0.64982851   -8.5767501    240.25205  0.013189067  0.012336223            3 
 1519000   0.64666157    -8.596112    240.10098  0.013172097  0.012325212            2 
 1520000   0.66160915   -8.5741479    240.19874   0.01316879  0.012314208            4 
 1521000   0.64987007   -8.5904706    240.06275  0.013152682  0.012303212            2 
 1522000   0.64251337   -8.5978973    239.74008  0.013126373   0.01229223            2 
 1523000   0.64390083   -8.5775974    240.25788  0.013146087  0.012281262            1 
 1524000   0.64947236   -8.5836519    239.73368  0.013108797  0.012270317            6 
 1525000   0.63738422   -8.5872608    240.60488  0.013147808  0.012259396            2 
 1526000   0.65540748   -8.5568862    240.24489  0.013119533  0.012248481            1 
 1527000   0.64768172   -8.5789509    240.16637  0.013106656  0.012237568            1 
 1528000   0.63703106   -8.5645231    240.52513  0.013117645   0.01222665            2 
 1529000   0.62662252   -8.5849457    240.44058  0.013104457   0.01221575            2 
 1530000   0.62715259   -8.5876659     240.0024  0.013072026  0.012204867            3 
 1531000   0.65141525   -8.5925943    239.52804  0.013037668  0.012193991            1 
 1532000   0.65319363   -8.5971406    240.11071  0.013060852  0.012183127            2 
 1533000   0.66533415   -8.5761417    240.46489  0.013071586  0.012172284            3 
 1534000   0.63012861   -8.5892741    240.50752   0.01306538  0.012161466            1 
 1535000   0.64803587   -8.5972444    240.41956  0.013052093   0.01215064            1 
 1536000   0.65715378   -8.5872461    240.28791  0.013036453  0.012139819            1 
 1537000   0.63320192   -8.5778757    240.28061  0.013027576  0.012128992            1 
 1538000   0.63533899   -8.6042342    239.87342  0.012997043  0.012118187            1 
 1539000   0.64629517   -8.5987967    240.53848  0.013024609  0.012107385            2 
 1540000   0.65795772   -8.5820017    240.64384  0.013021853  0.012096627            2 
 1541000   0.63913797   -8.6140422    240.41032  0.013000774   0.01208585            1 
 1542000   0.61939144   -8.5885436    240.22149  0.012982138   0.01207506            1 
 1543000   0.64130744   -8.6092255    239.63539  0.012942071  0.012064296            2 
 1544000   0.62848708     -8.60599    240.16257  0.012962142  0.012053534            2 
 1545000   0.64410878   -8.6040087    240.05282  0.012947833  0.012042791            3 
 1546000   0.64596569   -8.6069292    239.91887  0.012932238  0.012032048            1 
 1547000   0.64247267   -8.6003414     239.7332  0.012913876  0.012021316            2 
 1548000    0.6389505   -8.5775443    239.74708  0.012906281  0.012010596            4 
 1549000   0.64850354   -8.5988522    240.07837  0.012915772  0.011999887            1 
 1550000   0.63333186   -8.6168464    239.84127  0.012894692    0.0119892            2 
 1551000   0.63663987   -8.6138076     240.6367  0.012929116  0.011978531            1 
 1552000    0.6268314   -8.6314219    239.79249  0.012875456  0.011967863            2 
 1553000   0.63532859   -8.6093128    240.49677  0.012904957  0.011957188            4 
 1554000   0.63957941    -8.602617    240.31655  0.012886988  0.011946541            2 
 1555000    0.6516463    -8.616478    240.08228  0.012866146  0.011935903            4 
 1556000   0.63237602   -8.6022011    240.00741  0.012853867  0.011925272            2 
 1557000   0.62183089   -8.6066212    239.81842  0.012835497  0.011914636            1 
 1558000   0.62908017   -8.6223877    239.79875  0.012826206  0.011904009            3 
 1559000   0.63600424   -8.6017752    240.12035   0.01283517  0.011893394            2 
 1560000    0.6349692   -8.6288744    239.68598  0.012803738   0.01188279            2 
 1561000   0.64233634    -8.639243      239.747  0.012798794  0.011872207            4 
 1562000   0.62165118   -8.6298542    239.77319  0.012791997  0.011861616            2 
 1563000   0.61870027   -8.6064334    239.81902  0.012786256  0.011851034            3 
 1564000   0.62513322   -8.6309134     239.5501  0.012763752  0.011840455            2 
 1565000   0.62056864   -8.6080073    239.58684  0.012757553  0.011829893            1 
 1566000   0.62666637     -8.64355    239.58827  0.012749482  0.011819321            1 
 1567000   0.62151031   -8.6286468    239.61751  0.012742901  0.011808759            2 
 1568000   0.63063615   -8.6329722    239.16279  0.012710607  0.011798211            2 
 1569000   0.63070608   -8.6281182    239.69504  0.012730776  0.011787667            4 
 1570000   0.61100344   -8.6220542     239.6213  0.012718752  0.011777128            1 
 1571000   0.63225412   -8.6228172    239.37535   0.01269761    0.0117666            1 
 1572000   0.63976919   -8.6196123    239.73274  0.012708479  0.011756093            1 
 1573000   0.61024075   -8.6460818    239.54493   0.01269045  0.011745585            2 
 1574000   0.62817424   -8.6199075    239.86479  0.012699322  0.011735079            2 
 1575000   0.62951977   -8.6337047    239.61112  0.012677837  0.011724598            3 
 1576000   0.62419619    -8.619871    239.50619  0.012664244  0.011714112            4 
 1577000   0.62319702   -8.6430806    239.64799  0.012663707  0.011703629            3 
 1578000   0.61917429   -8.6479634    239.83203  0.012665401  0.011693164            3 
 1579000    0.6339734   -8.6450321    239.51071  0.012640422   0.01168273            2 
 1580000   0.62563212   -8.6323849    239.50564  0.012632154  0.011672291            2 
 1581000   0.61636746   -8.6189886    239.98864  0.012649623  0.011661879            1 
 1582000   0.62307475   -8.6521366    239.93767  0.012638942  0.011651443            1 
 1583000   0.62337263   -8.6712772    239.60258  0.012613317  0.011641018            2 
 1584000    0.6241273   -8.6630371    239.60461  0.012605462  0.011630606            1 
 1585000    0.6179132   -8.6357608    239.42165  0.012587889  0.011620216            4 
 1586000    0.6176298   -8.6537815    239.48978  0.012583532  0.011609814            2 
 1587000   0.62401827   -8.6305228    239.65794  0.012584433   0.01159943            2 
 1588000   0.61964557   -8.6604491    239.34745  0.012560214   0.01158906            2 
 1589000   0.62415342    -8.652193    239.33357  0.012551582  0.011578702            3 
 1590000   0.62576537   -8.6521913    239.63012  0.012559231  0.011568349            2 
 1591000   0.61148245   -8.6491828     238.9658  0.012516541   0.01155801            2 
 1592000   0.61166101   -8.6543846    239.57517  0.012540576  0.011547661            3 
 1593000   0.62018141   -8.6468046    239.60165  0.012534089  0.011537339            2 
 1594000   0.62711385   -8.6456696    239.59848   0.01252606  0.011527044            3 
 1595000   0.61357928   -8.6482171    239.81875  0.012529715  0.011516738            5 
 1596000   0.59982458   -8.6533795    239.53906  0.012507261  0.011506458            2 
 1597000   0.60415205   -8.6582237    239.76711  0.012511329  0.011496198            1 
 1598000   0.60824035   -8.6538681    239.39196  0.012483936  0.011485936            2 
 1599000    0.6015217   -8.6687311    239.80547  0.012497679   0.01147569            4 
 1600000   0.59781646   -8.6596629    239.41019  0.012469281  0.011465456            2 
 1601000   0.60794023   -8.6473413    239.91542   0.01248779  0.011455232            7 
 1602000   0.60523101   -8.6836797    239.76626  0.012472236  0.011445006            2 
 1603000   0.61809491   -8.6770605    239.11913  0.012430814  0.011434778            2 
 1604000   0.61125608   -8.6610238    239.49395  0.012442537  0.011424558            2 
 1605000   0.61714892   -8.6577184    239.84869  0.012453203  0.011414362            4 
 1606000     0.615085   -8.6580742    239.54634   0.01242976  0.011404181            3 
 1607000   0.60481337   -8.6596391    239.70295  0.012430147  0.011393987            3 
 1608000   0.60060005    -8.672653    239.34909  0.012404078  0.011383815            3 
 1609000   0.60866768   -8.6619368    239.62658  0.012410741  0.011373633            2 
 1610000   0.61236246    -8.665266    238.81579  0.012361066  0.011363476            2 
 1611000   0.60873433   -8.6649701    239.42675  0.012384997   0.01135333            2 
 1612000   0.60915897   -8.6668113    239.28616  0.012370046  0.011343194            4 
 1613000   0.61982172   -8.6869744     239.0791  0.012351679  0.011333064            3 
 1614000   0.61047838   -8.6645252    238.84988  0.012332191  0.011322918            2 
 1615000   0.59692546   -8.6657319    239.72956  0.012369946  0.011312812            3 
 1616000   0.60612832   -8.6770297    238.82924  0.012315864  0.011302698            6 
 1617000   0.60751064   -8.6785051    239.16484  0.012325543  0.011292605            4 
 1618000   0.61502337   -8.6796938    238.84379   0.01230139  0.011282512            3 
 1619000   0.60222749   -8.6831479    239.37691  0.012321233  0.011272435            2 
 1620000   0.60695637   -8.6535332    238.87817  0.012287972  0.011262363            2 
 1621000   0.60723462   -8.6763312    239.34932  0.012304612  0.011252316            2 
 1622000   0.59903189   -8.6766323    239.32911  0.012295988  0.011242266            2 
 1623000   0.60316037   -8.7023885    238.93519  0.012268186  0.011232216            4 
 1624000   0.60279121   -8.6905345    239.56008  0.012292697  0.011222176            2 
 1625000   0.60325205   -8.6982062    239.26766  0.012270137  0.011212167            2 
 1626000   0.60215922   -8.6608029    239.54656  0.012276884  0.011202167            3 
 1627000   0.60393803   -8.6888198    239.17016  0.012250059  0.011192163            3 
 1628000   0.59877956   -8.6832104    239.06602  0.012237204  0.011182163            2 
 1629000   0.60080542   -8.6776125    239.40332  0.012246947  0.011172174            3 
 1630000   0.59201647   -8.6856659    239.17972  0.012228002  0.011162199            6 
 1631000   0.59646135   -8.6849175     239.2239  0.012222762  0.011152246            5 
 1632000   0.58335783   -8.6954106    239.20612  0.012214365  0.011142306            3 
 1633000   0.60860402   -8.7020959    239.31633  0.012212509   0.01113237            3 
 1634000   0.58480635   -8.6910696    239.33312  0.012205891  0.011122433            2 
 1635000   0.59888918   -8.6938245    239.28743  0.012196098  0.011112507            1 
 1636000   0.59237008   -8.6713584    239.29981  0.012189273  0.011102594            3 
 1637000   0.59222981   -8.7040184    239.16716  0.012175074  0.011092707            3 
 1638000   0.60483497   -8.6783192    238.51626  0.012134527  0.011082816            3 
 1639000   0.59818657   -8.6883232     239.3484  0.012169433  0.011072945            2 
 1640000   0.60556108   -8.6849372     239.3123  0.012160178  0.011063086            2 
 1641000   0.60311435   -8.6813863    239.42384  0.012158432  0.011053246            2 
 1642000   0.61831063   -8.7080235    239.02547  0.012130809  0.011043414            4 
 1643000   0.59194164   -8.6790783    239.16186  0.012130344  0.011033594            2 
 1644000   0.59553287   -8.7009238    238.70045  0.012099577  0.011023773            5 
 1645000    0.5985446   -8.6991244     238.9923  0.012107006  0.011013956            4 
 1646000   0.58894533   -8.6706811    239.60215  0.012130526  0.011004153            2 
 1647000   0.59159882   -8.7001347    238.64214  0.012074587  0.010994356            1 
 1648000   0.59456177   -8.7087932    239.34332  0.012102716  0.010984568            3 
 1649000   0.58534303   -8.7230827    238.96283  0.012076149  0.010974783            2 
 1650000   0.59649425   -8.6898196    238.78124  0.012059659  0.010965009            3 
 1651000    0.5889161   -8.7253224    238.97631    0.0120622  0.010955251            4 
 1652000   0.60085927   -8.7244661    238.70773   0.01204135  0.010945496            2 
 1653000   0.60064096   -8.7145279    238.91226  0.012044377  0.010935744            5 
 1654000   0.58933518   -8.6975899    239.24059  0.012053637  0.010926026            2 
 1655000   0.58721494   -8.6916657     239.0339  0.012035947  0.010916301            5 
 1656000   0.58355781   -8.6966455    238.61761   0.01200773  0.010906576            2 
 1657000   0.59776094      -8.6865    238.78271  0.012008786  0.010896866            4 
 1658000   0.58813513   -8.7354923    238.52014  0.011988346  0.010887171            1 
 1659000   0.59276525   -8.7070741      238.869  0.011998644  0.010877476            4 
 1660000   0.57730348   -8.6997892    238.84271  0.011990096   0.01086781            2 
 1661000   0.58591174   -8.7155092    238.96963  0.011989245   0.01085814            1 
 1662000   0.58844102   -8.7153415     239.1383  0.011990489  0.010848475            1 
 1663000   0.58994036   -8.7149002     238.3837  0.011945465  0.010838823            2 
 1664000   0.57895064   -8.7205233    239.04683  0.011971496  0.010829172            3 
 1665000   0.59295917   -8.7340704    238.97073  0.011960497   0.01081954            2 
 1666000   0.58838193   -8.7173499    238.76347  0.011942951  0.010809914            4 
 1667000   0.58854699   -8.7063556    238.89146  0.011942185  0.010800294            1 
 1668000   0.58477872    -8.723707    238.93932  0.011937416  0.010790675            6 
 1669000   0.59702044   -8.6935922    239.13187  0.011939878  0.010781083            2 
 1670000   0.57323644   -8.7144412    238.89225  0.011920771  0.010771518            2 
 1671000    0.5881839   -8.7012816    238.80712  0.011909391  0.010761951            4 
 1672000   0.58338752    -8.717265    238.83987  0.011903901  0.010752393            4 
 1673000   0.59300304   -8.7235001      238.656  0.011887627  0.010742848            4 
 1674000   0.59054575   -8.7156134    238.58562  0.011877022  0.010733286            5 
 1675000   0.57822452    -8.715344    239.35222   0.01190807  0.010723737            1 
 1676000   0.59426283   -8.7284283    238.43205  0.011855213  0.010714208            2 
 1677000   0.57188178   -8.7099323    238.88923  0.011870862  0.010704679            4 
 1678000   0.59823152   -8.7326466    238.75479  0.011857111  0.010695169            1 
 1679000   0.58551336   -8.7199602    238.87054  0.011855794  0.010685669            2 
 1680000   0.57946018   -8.7488008    238.64751  0.011837674   0.01067619            1 
 1681000   0.58142296   -8.7243105    238.61198  0.011828871  0.010666695            4 
 1682000   0.58168996   -8.7379732    238.44896  0.011813762   0.01065721            2 
 1683000   0.57478473   -8.7269606     238.2925  0.011798995  0.010647755            4 
 1684000   0.58447658   -8.7239439    238.68951  0.011811634  0.010638303            2 
 1685000   0.59155445   -8.7279456    238.47393  0.011793963  0.010628859            1 
 1686000   0.58221746   -8.7461075    238.41829  0.011784218  0.010619429            4 
 1687000   0.58353991   -8.7227007    238.43346  0.011777982  0.010609994            2 
 1688000   0.58490093   -8.7384909    238.53895  0.011776212  0.010600579            3 
 1689000   0.58117222    -8.743122    238.74246  0.011779281  0.010591168            1 
 1690000   0.57290804   -8.7366293     238.6099  0.011765774  0.010581763            4 
 1691000   0.58483143   -8.7176128    238.86033  0.011771158  0.010572367            2 
 1692000   0.57763511   -8.7362552    238.74879  0.011758707  0.010562999            4 
 1693000   0.57398184   -8.7111877      238.871  0.011757777  0.010553639            3 
 1694000   0.58383729   -8.7252921    238.89434  0.011751984  0.010544289            2 
 1695000   0.57902678   -8.7345632    238.76997  0.011738936  0.010534942            3 
 1696000   0.56802666    -8.716732    238.91305  0.011739045  0.010525613            2 
 1697000   0.57503172   -8.7370608    238.89347  0.011731166  0.010516288            1 
 1698000   0.57574105   -8.7457853    238.50393   0.01170514  0.010506964            1 
 1699000   0.57775911   -8.7345971    238.39844  0.011693076  0.010497651            3 
 1700000    0.5844474   -8.7473054    238.46781  0.011689599  0.010488355            1 
 1701000   0.56518851   -8.7395109    238.48409  0.011683524  0.010479057            3 
 1702000   0.58075898   -8.7279206    239.03109  0.011703442  0.010469783            2 
 1703000   0.56921405   -8.7493973    238.77214  0.011683898  0.010460517            1 
 1704000   0.58145895   -8.7503631     238.7387  0.011675406  0.010451254            1 
 1705000   0.59045576   -8.7396466    238.44086  0.011654001  0.010442011            2 
 1706000   0.56473152   -8.7418813    238.62052  0.011655946   0.01043277            3 
 1707000   0.56609314   -8.7776304    238.10751  0.011624073  0.010423538            3 
 1708000    0.5832929   -8.7557047    238.69065  0.011645718  0.010414317            2 
 1709000   0.56624753   -8.7412026    238.59106  0.011634048  0.010405116            4 
 1710000   0.57582054   -8.7425328    238.89584  0.011642097  0.010395925            1 
 1711000   0.56634572   -8.7509982    238.67219    0.0116244  0.010386735            2 
 1712000   0.57493401   -8.7448086    238.27492  0.011598273  0.010377545            3 
 1713000   0.56048371   -8.7437769    238.54758  0.011604766  0.010368378            2 
 1714000   0.55870425    -8.737638    238.22019  0.011582078  0.010359215            2 
 1715000   0.57255866   -8.7401543    238.36933  0.011582572  0.010350053            2 
 1716000   0.57426413   -8.7498476     238.6349  0.011588719  0.010340909            2 
 1717000   0.56849538   -8.7509107    238.60439  0.011580489  0.010331769            3 
 1718000   0.56744369   -8.7509742    238.66317  0.011576599  0.010322658            2 
 1719000   0.56078867   -8.7572811    238.50899  0.011562391  0.010313531            2 
 1720000   0.56735264   -8.7663045    238.39172  0.011549987  0.010304428            4 
 1721000   0.56707533   -8.7702716    238.49655  0.011548351  0.010295334            4 
 1722000   0.55968633   -8.7411177    238.23695  0.011529082  0.010286244            2 
 1723000   0.57262888   -8.7505489    238.36544  0.011528605  0.010277164            2 
 1724000   0.57418204   -8.7489761    238.14871  0.011511442   0.01026811            2 
 1725000   0.55907871   -8.7504033    238.34288  0.011514149  0.010259059            1 
 1726000   0.55554176   -8.7400315    238.48019  0.011514107  0.010250018            2 
 1727000    0.5532549   -8.7591036    238.27022  0.011497308  0.010240984            1 
 1728000   0.55649306   -8.7720711    238.31798  0.011492958  0.010231949            2 
 1729000   0.55400703   -8.7596228    238.77122  0.011508156   0.01022293            2 
 1730000   0.55061202   -8.7728463    238.54335  0.011490527  0.010213917            1 
 1731000   0.57387839   -8.7573248    238.14023  0.011464482  0.010204905            1 
 1732000   0.55435408   -8.7711693    237.92854  0.011447678  0.010195901            2 
 1733000   0.55536736   -8.7523365    238.44225  0.011465775  0.010186906            2 
 1734000   0.55743662   -8.7943134    238.39144  0.011456721  0.010177935            3 
 1735000   0.56292035   -8.7521467    238.27743  0.011444641  0.010168972            2 
 1736000   0.56956012   -8.7575927    238.43559  0.011445641  0.010160031            3 
 1737000   0.55579898   -8.7738604    238.33728  0.011434335  0.010151092            2 
 1738000   0.55431812   -8.7740305     238.1286   0.01141775  0.010142157            1 
 1739000   0.55480216   -8.7697043    238.38687  0.011423561  0.010133213            2 
 1740000   0.55529365   -8.7659343    237.94851  0.011396002  0.010124295            2 
 1741000   0.57125496    -8.765242    238.32956  0.011407695  0.010115389            1 
 1742000   0.55435043   -8.7744061    237.83514  0.011377494   0.01010649            2 
 1743000   0.57285432   -8.7563263    238.17325  0.011387132  0.010097609            2 
 1744000   0.56295167   -8.7758862    238.35922  0.011389489  0.010088737            1 
 1745000   0.55786249   -8.7753167    238.15302  0.011373115  0.010079882            1 
 1746000    0.5627981    -8.763504    238.46682  0.011381578  0.010071022            2 
 1747000   0.55738017   -8.7759769     238.4862  0.011375987  0.010062179            3 
 1748000    0.5588733   -8.7594761    238.00498  0.011346538   0.01005334            3 
 1749000   0.55804081   -8.7788017      238.342  0.011356108  0.010044509            4 
 1750000   0.55363065   -8.7855062    237.99904  0.011333287  0.010035688            2 
 1751000   0.56763967   -8.7338367    238.49201  0.011350277  0.010026893            2 
 1752000   0.55780645   -8.7632554     237.9332  0.011317219  0.010018101            2 
 1753000   0.56142481   -8.7500285    237.88804  0.011308616  0.010009308            3 
 1754000    0.5426966   -8.7581203    238.09264  0.011311889  0.010000533            3 
 1755000   0.54057664    -8.779649    238.04347  0.011303109  0.009991759            2 
 1756000   0.55239965   -8.7730786    237.95532  0.011292488 0.0099830018            2 
 1757000   0.54738386   -8.7664706    237.68785  0.011273375 0.0099742526            2 
 1758000   0.55347757   -8.7707423    238.05914  0.011284563 0.0099655111            3 
 1759000   0.54447153   -8.7760741     237.7313  0.011262616 0.0099567724            2 
 1760000   0.54155255   -8.7909538    238.22745  0.011279709 0.0099480419            3 
 1761000   0.56311435   -8.7712168    238.04099   0.01126448 0.0099393346            2 
 1762000   0.55992122   -8.7778847    238.37371  0.011273823 0.0099306255            6 
 1763000   0.55748177   -8.7843564    238.34535  0.011266088 0.0099219112            6 
 1764000   0.55752313   -8.7710464    238.01967  0.011244315 0.0099132148            2 
 1765000   0.54681049   -8.7724751     238.3611  0.011254065 0.0099045282            1 
 1766000    0.5487026   -8.7899713    237.94536  0.011228075 0.0098958532            2 
 1767000   0.54077263   -8.7910119    238.26868  0.011236968 0.0098871897            2 
 1768000    0.5384366   -8.7647101     238.0587  0.011220716 0.0098785344            1 
 1769000   0.53629411   -8.7727488    237.86611    0.0112053 0.0098698836            1 
 1770000    0.5441479   -8.7764824    238.04745  0.011207507 0.0098612447            3 
 1771000   0.54999147   -8.7816512     238.0068  0.011199266 0.0098526143            4 
 1772000   0.54129944   -8.7792621    238.26278  0.011204984 0.0098439861            2 
 1773000   0.55643991   -8.7750904    238.04266  0.011188318 0.0098353836            2 
 1774000   0.53957256   -8.7743309    238.03131  0.011181478 0.0098267754            2 
 1775000   0.54245435   -8.7897621    237.54931   0.01115255 0.0098181774            2 
 1776000   0.54375253   -8.7743705    237.80384  0.011158213 0.0098095839            3 
 1777000   0.54065454   -8.7750035    238.42563  0.011181093 0.0098010021            1 
 1778000   0.54337906   -8.7897615    238.12112  0.011160532 0.0097924408            3 
 1779000   0.54654609   -8.7825791    237.86759  0.011142383 0.0097838785            2 
 1780000   0.55276311   -8.8120815    237.80413  0.011133152 0.0097753229            2 
 1781000   0.54771929   -8.7927749    237.63839  0.011119146 0.0097667837            2 
 1782000   0.53952936   -8.8040615    237.64599  0.011113262 0.0097582508            2 
 1783000    0.5424599   -8.7990723    237.82953  0.011115607 0.0097497299            3 
 1784000   0.52936044   -8.7842908    237.90499  0.011112901  0.009741218            2 
 1785000   0.53501647   -8.8030027    237.58691  0.011091826 0.0097327097            1 
 1786000   0.54183852   -8.7981901    238.24379  0.011116265 0.0097242114            2 
 1787000   0.54357702   -8.7847564    238.11373  0.011103979 0.0097157338            4 
 1788000   0.53836482    -8.798252    238.31061  0.011106945 0.0097072541            2 
 1789000   0.54577291   -8.7871304    237.59041  0.011067189 0.0096987932            2 
 1790000   0.56054803   -8.8031151    237.78007  0.011069835 0.0096903366            3 
 1791000   0.53374502   -8.7859826    237.99538  0.011073673 0.0096818899            2 
 1792000   0.54052447   -8.8112848    238.03476  0.011069325 0.0096734604            2 
 1793000   0.53283972   -8.7959194    238.28663  0.011074857 0.0096650306            2 
 1794000   0.53523724   -8.7927205    237.53079  0.011033575 0.0096566004            1 
 1795000   0.55139617    -8.800482    238.04247  0.011051182 0.0096481869            3 
 1796000   0.52761311   -8.7910517    237.72966  0.011030515 0.0096397688            2 
 1797000   0.53723077   -8.7958526    237.79219  0.011027277 0.0096313669            1 
 1798000   0.52909006   -8.8033499    237.35607   0.01100093 0.0096229639            1 
 1799000   0.54228423   -8.7932842    237.57369  0.011004896 0.0096145831            3 
 1800000   0.53579426   -8.7957952    237.90005  0.011013891 0.0096062034            2 
 1801000   0.53946166   -8.7952172    237.95324  0.011010237 0.0095978407            1 
 1802000   0.53155285   -8.7945127    237.75434  0.010994929 0.0095894921            3 
 1803000   0.53377445    -8.811947    237.60038  0.010981715 0.0095811586            2 
 1804000   0.53002614   -8.8083668    237.85141  0.010987223 0.0095728284            1 
 1805000   0.53616774     -8.81513     237.7002  0.010974155 0.0095645058            2 
 1806000   0.53837254   -8.8059639    237.73485  0.010969677 0.0095561876            3 
 1807000   0.54346337    -8.819012    238.12814  0.010981744 0.0095478816            1 
 1808000   0.53175391   -8.8060849    237.67478  0.010954774 0.0095395829            1 
 1809000   0.53197865   -8.8003704    237.78152  0.010953636 0.0095312931            3 
 1810000   0.53954326   -8.8028047    237.85289   0.01095087 0.0095230102            1 
 1811000   0.53327817    -8.814264    237.93185  0.010948456 0.0095147408            2 
 1812000   0.53335948   -8.8261311      237.772  0.010935062 0.0095064878            3 
 1813000   0.53880654   -8.8152718    237.76385  0.010928656 0.0094982268            4 
 1814000   0.53214208   -8.7915921    237.36003  0.010904081 0.0094899835            3 
 1815000   0.53091965   -8.8074856    237.58151  0.010908242 0.0094817459            1 
 1816000     0.510904   -8.8025556    238.01507   0.01092213  0.009473517            1 
 1817000   0.52071035   -8.7953284    237.58676  0.010896476 0.0094653098            2 
 1818000   0.53256197   -8.8251056    237.33678  0.010879023 0.0094570993            1 
 1819000   0.53766554    -8.801425    237.86022  0.010897023    0.0094489            4 
 1820000   0.53383355   -8.8018463    238.41961  0.010916649 0.0094407088            2 
 1821000   0.52697415   -8.8192197    237.62005  0.010874064 0.0094325192            4 
 1822000   0.53253996   -8.8089483    237.62908  0.010868509 0.0094243425            3 
 1823000   0.52608423   -8.8076376    237.66905  0.010864374 0.0094161701            1 
 1824000    0.5345444   -8.8171925    237.86787  0.010867501 0.0094080095            2 
 1825000   0.52369915   -8.8022318    237.40973  0.010840627 0.0093998661            1 
 1826000   0.51111174   -8.8068901    237.37666  0.010833181 0.0093917257            1 
 1827000   0.51673996   -8.8177114    237.33941  0.010825552 0.0093835827            1 
 1828000   0.51975376   -8.8072144    237.51832  0.010827786 0.0093754569            2 
 1829000   0.52026287   -8.8209636    237.76507  0.010833109 0.0093673415            3 
 1830000   0.51554669   -8.8228461    237.45627  0.010813127 0.0093592312            1 
 1831000   0.52725656   -8.8361038    237.74952  0.010820568 0.0093511346            1 
 1832000   0.51854426    -8.827269    237.41799  0.010799581 0.0093430445            2 
 1833000   0.53199344   -8.8199544    237.47877  0.010796453 0.0093349628            3 
 1834000   0.51679643   -8.8411073    237.44745  0.010789143 0.0093268923            2 
 1835000   0.52713515   -8.8367919    237.30381   0.01077674 0.0093188249            2 
 1836000   0.52096663   -8.8255396    237.81007  0.010793849 0.0093107634            1 
 1837000   0.52585766   -8.8099498    237.69659  0.010782825 0.0093027228            1 
 1838000   0.53172466   -8.8314919     237.4541  0.010765964 0.0092946793            2 
 1839000   0.51755146   -8.8421259    237.49411  0.010761923 0.0092866408            1 
 1840000   0.51928821   -8.8179103    237.04614  0.010735785 0.0092786197            2 
 1841000   0.51188392    -8.832631    237.86695  0.010767108 0.0092706104            2 
 1842000   0.52202258   -8.8344137     237.0793  0.010725629 0.0092626043            2 
 1843000   0.52289755   -8.8394019    237.49976  0.010738821 0.0092546062            1 
 1844000   0.50989024   -8.8197078     237.3773  0.010727463 0.0092466156            2 
 1845000   0.52288749   -8.8175901    237.62672  0.010732914 0.0092386341            3 
 1846000   0.50708906   -8.8218499    237.34463  0.010714366 0.0092306597            2 
 1847000   0.52205688   -8.8130081    237.60376  0.010720256 0.0092226966            2 
 1848000   0.52856646   -8.8207793    237.60983  0.010714729 0.0092147376            2 
 1849000   0.52084014   -8.8262901    237.23153  0.010691884  0.009206796            3 
 1850000   0.51098435   -8.8248718    236.96674  0.010674178  0.009198853            3 
 1851000   0.51651019     -8.82422    237.46257  0.010690733 0.0091909233            2 
 1852000   0.51589467   -8.8248857     237.3758  0.010681057 0.0091829978            4 
 1853000   0.51688066   -8.8231369    237.22409  0.010668469 0.0091750837            2 
 1854000   0.51467056   -8.8278477    237.56788  0.010678168 0.0091671832            4 
 1855000   0.51188278    -8.827699    237.14722  0.010653514 0.0091592917            2 
 1856000   0.50632336   -8.8513474    237.69828  0.010672516 0.0091514117            4 
 1857000   0.51304255   -8.8335301    237.47098  0.010656569 0.0091435308            3 
 1858000   0.51759819   -8.8574186    237.06231  0.010632504 0.0091356583            2 
 1859000   0.50294282    -8.828333    237.51342  0.010647006 0.0091277968            2 
 1860000   0.50760319   -8.8399913    237.22031   0.01062815 0.0091199397            3 
 1861000    0.5078569   -8.8242859     237.4383  0.010632201  0.009112093            1 
 1862000   0.50001734   -8.8510737    237.60604  0.010633998 0.0091042562            3 
 1863000   0.50893886   -8.8494456    237.68664  0.010631895 0.0090964229            2 
 1864000   0.50409668    -8.837763    237.52986  0.010619182 0.0090885989            2 
 1865000   0.49821411   -8.8355411     237.5946  0.010616381 0.0090807867            1 
 1866000   0.50923649    -8.822879    237.36988  0.010600656 0.0090729841            2 
 1867000   0.50843935   -8.8398474    237.09906   0.01058289 0.0090651921            1 
 1868000    0.5155818    -8.851629    237.21415  0.010582358 0.0090574098            1 
 1869000   0.51191574   -8.8385266    237.31708  0.010581286 0.0090496303            3 
 1870000   0.50336455   -8.8395695    237.46999  0.010582442 0.0090418593            4 
 1871000   0.51953363   -8.8588813    237.41928  0.010574527 0.0090340934            2 
 1872000   0.50306728   -8.8550299    237.47946  0.010571557 0.0090263486            3 
 1873000   0.51366101   -8.8419245    237.37422  0.010561231  0.009018609            4 
 1874000   0.51669184   -8.8577264    237.25726  0.010550394   0.00901088            2 
 1875000   0.51125929   -8.8361585    237.31415  0.010547295 0.0090031561            3 
 1876000   0.49437744   -8.8485712    237.34369  0.010542985 0.0089954394            2 
 1877000   0.49674343   -8.8564206    237.19423  0.010530733 0.0089877364            1 
 1878000    0.4999429   -8.8613506    237.14454  0.010522921 0.0089800355            1 
 1879000   0.50209039   -8.8595305    237.03668  0.010512537 0.0089723382            3 
 1880000   0.51579641   -8.8365816    237.11245  0.010510303 0.0089646523            2 
 1881000   0.50584643   -8.8534925    237.36091  0.010515724 0.0089569802            3 
 1882000   0.49882268   -8.8581851    237.41769   0.01051265 0.0089493152            1 
 1883000   0.50445861   -8.8510547    237.15364  0.010495382 0.0089416615            2 
 1884000   0.49945263   -8.8597815    237.65487  0.010511981 0.0089340095            2 
 1885000    0.5001936   -8.8600913    237.22007  0.010487182 0.0089263758            2 
 1886000   0.49302282   -8.8586142    237.19473  0.010480502 0.0089187405            1 
 1887000   0.51109611   -8.8543582    237.48262  0.010487662 0.0089111178            5 
 1888000   0.49002503   -8.8375202    237.40413  0.010478643 0.0089034958            4 
 1889000   0.49881869   -8.8551504     237.0315  0.010456657 0.0088958799            2 
 1890000   0.50542845   -8.8570124    237.01898  0.010450572 0.0088882759            3 
 1891000   0.49809199   -8.8698133    236.97899  0.010443284  0.008880672            2 
 1892000   0.49926754   -8.8642094     237.1912  0.010447111 0.0088730859            2 
 1893000   0.50656492   -8.8454336    236.78046   0.01042351  0.008865505            2 
 1894000   0.49903117   -8.8611556    236.78189   0.01041807 0.0088579327            2 
 1895000   0.49037708   -8.8597891    237.50609  0.010444419 0.0088503707            2 
 1896000    0.5052219   -8.8577306    237.00584  0.010416923 0.0088428211            2 
 1897000   0.49405133    -8.865663    236.87414  0.010405647 0.0088352785            1 
 1898000   0.49863587   -8.8518947    237.51152  0.010428149 0.0088277448            5 
 1899000   0.49767747   -8.8507199    237.19151  0.010408615 0.0088202191            3 
 1900000    0.4949377   -8.8576444    237.20074  0.010403541 0.0088126956            3 
 1901000   0.49532256   -8.8527264    236.93883  0.010386587 0.0088051856            2 
 1902000   0.50030668   -8.8598991    237.04819  0.010385918 0.0087976832            1 
 1903000   0.48559567   -8.8713331    236.75828  0.010367765 0.0087901846            2 
 1904000    0.5016909   -8.8460821    237.01091  0.010373377 0.0087826991            4 
 1905000   0.49761575   -8.8917613    237.08577  0.010371206 0.0087752195            3 
 1906000   0.49157887   -8.8802049    237.10072  0.010366418 0.0087677466            2 
 1907000   0.49056869   -8.8770656    236.80592    0.0103481 0.0087602819            1 
 1908000   0.49330302   -8.8759114    236.83193  0.010343812 0.0087528174            1 
 1909000    0.4967094   -8.8842713    237.04429  0.010347664 0.0087453627            3 
 1910000   0.49115814   -8.8713882     237.2546  0.010351423  0.008737925            2 
 1911000   0.47656367   -8.8680866    237.04526  0.010336877 0.0087304992            3 
 1912000   0.48048209   -8.8791636    237.32281  0.010343567 0.0087230808            3 
 1913000   0.47235051    -8.866296    236.62517   0.01030777  0.008715669            3 
 1914000   0.47790942   -8.8674563     237.3188  0.010332585  0.008708255            3 
 1915000   0.49546936   -8.8858188    236.90373  0.010309127 0.0087008574            3 
 1916000   0.49217983   -8.8740727    236.91208  0.010304109  0.008693462            3 
 1917000   0.48503437   -8.8783002    237.24452  0.010313185 0.0086860779            2 
 1918000   0.48305206   -8.8910551    236.63505  0.010281328 0.0086786971            1 
 1919000   0.48108455   -8.8814078    237.15368  0.010298492 0.0086713234            2 
 1920000   0.50020634   -8.8670322    236.88864  0.010281625 0.0086639629            3 
 1921000   0.49014499   -8.8796103    236.44426  0.010256995 0.0086566095            3 
 1922000   0.47698546    -8.889051    236.90965  0.010271837 0.0086492594            2 
 1923000   0.49181399   -8.8590282    237.01879  0.010271225 0.0086419263            3 
 1924000   0.48453637   -8.8731817    237.47637  0.010285706 0.0086345991            1 
 1925000   0.47760824   -8.8841778    236.78072  0.010250247 0.0086272791            2 
 1926000   0.48097592   -8.8753568    237.17368  0.010261928 0.0086199624            2 
 1927000   0.48444286   -8.8771096    237.05629  0.010251526 0.0086126634            2 
 1928000    0.4921008   -8.8939039    236.94817  0.010241536  0.008605359            4 
 1929000   0.47418917   -8.8921289    236.97318  0.010237307 0.0085980707            2 
 1930000   0.48036744   -8.8750646    236.93955   0.01023055 0.0085907899            1 
 1931000   0.48246704   -8.8701666    237.20294  0.010236619 0.0085835166            3 
 1932000   0.48254245   -8.8783171    236.57904   0.01020441 0.0085762443            4 
 1933000   0.47856045   -8.8904355    236.87335  0.010211819 0.0085689814            1 
 1934000   0.48037893   -8.8907118    236.77679  0.010202378 0.0085617302            1 
 1935000   0.48332381   -8.8856864    237.15866  0.010213551 0.0085544876            3 
 1936000   0.47618393   -8.8808246    236.63552  0.010185758 0.0085472458            2 
 1937000   0.47565266   -8.8859169    236.54478  0.010176595 0.0085400158            3 
 1938000   0.47483606   -8.8694281    236.96113  0.010189247 0.0085328005            2 
 1939000   0.47963271   -8.8920013    236.66872  0.010171425  0.008525587            3 
 1940000   0.47283955   -8.8830882     236.8936  0.010175842 0.0085183829            2 
 1941000   0.48095959   -8.8982981    236.99199  0.010174824 0.0085111853            1 
 1942000   0.46863821   -8.8904867    236.66905  0.010155727  0.008503995            1 
 1943000    0.4723662   -8.8897427    236.50039  0.010143266 0.0084968063            2 
 1944000   0.47675613   -8.8984359    236.82613  0.010152012 0.0084896255            1 
 1945000   0.47712419   -8.8985335    237.05798  0.010156726 0.0084824603            1 
 1946000   0.47492775   -8.8889346     236.7289  0.010137414  0.008475308            3 
 1947000   0.47812939    -8.901366    236.71049   0.01013142 0.0084681648            2 
 1948000   0.46312125   -8.8834181    236.58129  0.010120692 0.0084610238            2 
 1949000    0.4712139   -8.8837479    237.07228  0.010136492 0.0084538895            2 
 1950000   0.48186385   -8.9028788    236.95348  0.010126217 0.0084467612            2 
 1951000   0.48178802    -8.888875    236.83795  0.010116092 0.0084396472            4 
 1952000   0.47261896   -8.8993138    236.98736  0.010117288 0.0084325341            2 
 1953000   0.47281658   -8.8838351    237.00193  0.010112729 0.0084254308            2 
 1954000   0.46996997   -8.8966944    236.49859  0.010086088 0.0084183362            2 
 1955000   0.47947083   -8.8946412    236.73119  0.010090843 0.0084112449            2 
 1956000   0.46779694   -8.9049598    236.76056  0.010086936 0.0084041721            2 
 1957000   0.46993831   -8.9101254    236.62559  0.010076034 0.0083971068            3 
 1958000   0.46447207   -8.8965637    236.36923  0.010059977 0.0083900368            5 
 1959000   0.46731603   -8.8861784    236.84391  0.010075034 0.0083829785            4 
 1960000   0.47900822   -8.9106206    236.65959  0.010062057 0.0083759212            2 
 1961000   0.47365257   -8.9035025    236.64874  0.010056465 0.0083688775            3 
 1962000   0.46605385   -8.9140246    236.37008  0.010039504 0.0083618364            2 
 1963000   0.47476157   -8.9005059     236.5576   0.01004235 0.0083548044            2 
 1964000   0.46528035   -8.8999885    236.93306  0.010053168 0.0083477837            3 
 1965000   0.46727988   -8.8814801    236.79025  0.010041996 0.0083407751            1 
 1966000   0.47117572   -8.9092443    236.48055   0.01002376 0.0083337647            2 
 1967000   0.47099935   -8.9128556    236.49756  0.010019385 0.0083267594            4 
 1968000   0.47177889   -8.9233545    236.47149   0.01001319 0.0083197663            3 
 1969000   0.46174914   -8.9131598    236.35015  0.010002969 0.0083127845            3 
 1970000   0.46502865    -8.913235    236.38257 0.0099992629  0.008305807            4 
 1971000   0.46966376   -8.8903488    236.51913 0.0099999631 0.0082988356            2 
 1972000   0.46921459   -8.9069235     236.5789 0.0099974179 0.0082918709            2 
 1973000   0.47601134   -8.9261895    236.82982  0.010002949  0.008284912            2 
 1974000   0.46499588   -8.9002559    236.64791 0.0099902022 0.0082779673            4 
 1975000   0.47337104    -8.923564    236.74628 0.0099892945  0.008271028            2 
 1976000   0.46095596   -8.9217264    236.24856 0.0099632489 0.0082640939            2 
 1977000   0.45703642   -8.8981671    236.33331 0.0099617815 0.0082571799            2 
 1978000   0.47462815   -8.9101071     236.6582 0.0099704332 0.0082502641            2 
 1979000   0.46534663   -8.9152177     236.8229 0.0099723303 0.0082433495            1 
 1980000   0.45229033   -8.9060342    236.26678 0.0099438881 0.0082364522            4 
 1981000   0.45374815   -8.9274562    236.93102 0.0099668105 0.0082295632            3 
 1982000   0.45560503   -8.9135137    236.22741 0.0099321987 0.0082226796            3 
 1983000   0.45455896   -8.9144798    236.29058 0.0099298445 0.0082157957            1 
 1984000    0.4560211   -8.9242423    236.75879 0.0099445056 0.0082089217            1 
 1985000   0.46470031    -8.919189    236.35847 0.0099226898  0.008202063            2 
 1986000   0.46253916   -8.9161172    236.54942 0.0099257057 0.0081952053            3 
 1987000   0.44960588   -8.9064737    236.37988 0.0099136001 0.0081883577            2 
 1988000   0.46385617   -8.9263443    236.51492 0.0099142741  0.008181516            3 
 1989000   0.46157347   -8.9050952    236.53845 0.0099102752 0.0081746881            1 
 1990000   0.44831072   -8.9321091     236.9337 0.0099218469 0.0081678659            2 
 1991000   0.46517296   -8.9273917    236.35578 0.0098926744 0.0081610418            3 
 1992000   0.46399647   -8.9225158    236.58526 0.0098973084 0.0081542362            2 
 1993000   0.45449015   -8.9301685    236.34887  0.009882458 0.0081474355            1 
 1994000   0.46332242   -8.9130577    236.11194 0.0098676004 0.0081406378            1 
 1995000   0.45548395   -8.9282051    236.62449  0.009884064 0.0081338492            3 
 1996000   0.45614523   -8.9355946    236.60504    0.0098783 0.0081270689            3 
 1997000   0.46156072   -8.9380011    236.35352 0.0098628575 0.0081202904            2 
 1998000   0.46456475   -8.9342217    236.06567 0.0098459153 0.0081135167            2 
 1999000   0.45718366   -8.9405927    236.48947 0.0098586573  0.008106749            1 
 2000000   0.44144392   -8.9265155    236.20293 0.0098417887 0.0080999966            2 
 2001000   0.45641034   -8.9277293    236.40828 0.0098454222 0.0080932457            1 
 2002000   0.44959068   -8.9320084    236.45115 0.0098422889 0.0080865054            2 
 2003000   0.44857405    -8.943229    236.24888 0.0098289598 0.0080797698            4 
 2004000   0.45592491   -8.9525576    236.60174 0.0098387284 0.0080730412            2 
 2005000   0.44243496   -8.9285637    236.09288 0.0098126716 0.0080663222            2 
 2006000   0.45621761   -8.9255129     236.2748 0.0098153374 0.0080596132            2 
 2007000   0.43880427   -8.9181849     236.2402 0.0098090102  0.008052908            3 
 2008000   0.45784373   -8.9453419    236.07635 0.0097973251 0.0080462041            2 
 2009000   0.44645141     -8.93741    236.36573 0.0098044522  0.008039508            1 
 2010000    0.4536414   -8.9254335      236.503 0.0098052654 0.0080328235            2 
 2011000   0.44996991   -8.9415994     236.6952 0.0098083541 0.0080261489            2 
 2012000   0.45112025   -8.9398687    236.04965 0.0097767418 0.0080194807            2 
Loop time of 4875.93 on 48 procs for 2000000 steps with 4000 atoms

Performance: 70878.858 tau/day, 410.179 timesteps/s
99.4% CPU use with 48 MPI tasks x no OpenMP threads

MPI task timing breakdown:
Section |  min time  |  avg time  |  max time  |%varavg| %total
---------------------------------------------------------------
Pair    | 324.18     | 348.3      | 377.78     |  60.9 |  7.14
Neigh   | 31.866     | 33.541     | 35.47      |  14.6 |  0.69
Comm    | 297.68     | 334.31     | 367.41     |  74.2 |  6.86
Output  | 3.9691     | 3.9711     | 4.0111     |   0.3 |  0.08
Modify  | 4098.6     | 4111.9     | 4123.5     |   8.9 | 84.33
Other   |            | 43.85      |            |       |  0.90

Nlocal:        83.3333 ave          90 max          78 min
Histogram: 3 5 6 6 5 12 4 5 1 1
Nghost:        2160.08 ave        2185 max        2138 min
Histogram: 4 2 9 4 7 8 4 3 5 2
Neighs:        14252.6 ave       16404 max       12756 min
Histogram: 2 9 6 6 9 9 3 1 2 1
FullNghs:      28507.3 ave       31257 max       26534 min
Histogram: 3 6 7 7 7 10 3 4 0 1

Total # of neighbors = 1368351
Ave neighs/atom = 342.08775
Neighbor list builds = 106888
Dangerous builds = 0

#clear
#
#next RN
#
#jump SELF
Total wall time: 1:21:19
