
units lj                  # Use reduced LJ style units
atom_style atomic         # Uncharged point particles
atom_modify map hash      # Needed for indexing of clusters etc
                          # Used to be able to find where atoms are in relation to each other.

lattice fcc 1.0 spacing 1 1 1
Lattice spacing in x,y,z = 1.5874011 1.5874011 1.5874011
region box block 0 10 0 10 0 10 units lattice
create_box 2 box
Created orthogonal box = (0.0000000 0.0000000 0.0000000) to (15.874011 15.874011 15.874011)
  3 by 4 by 4 MPI processor grid
create_atoms 1 box
Created 4000 atoms
  using lattice units in orthogonal box = (0.0000000 0.0000000 0.0000000) to (15.874011 15.874011 15.874011)
  create_atoms CPU = 0.002 seconds
set type 1 type/fraction 2 0.84 78393
Setting atom values ...
  3354 settings made for type/fraction
mass 1 1.0
mass 2 1.0
pair_style lj/cut  3.5
pair_modify tail  yes
pair_coeff 1  1  1.0  1.0   # Intearaction between 1 and 1 set with epsilon = 1 and sigma = 1
pair_coeff 1  2  1.5  0.8
pair_coeff 2  2  0.5  0.88

write_data data.0
System init for write_data ...
Neighbor list info ...
  update every 1 steps, delay 10 steps, check yes
  max neighbors/atom: 2000, page size: 100000
  master list distance cutoff = 3.8
  ghost atom cutoff = 3.8
  binsize = 1.9, bins = 9 9 9
  1 neighbor lists, perpetual/occasional/extra = 1 0 0
  (1) pair lj/cut, perpetual
      attributes: half, newton on
      pair build: half/bin/atomonly/newton
      stencil: half/bin/3d
      bin: standard
WARNING: Not all mixed pair coeffs generated from mixing. Use write_data with 'pair ij' option to store all pair coeffs. (../write_data.cpp:312)


#############################
#   M E L T   S Y S T E M   #
#############################

velocity all create 2.4 6229865 mom yes dist gaussian # Assign velocities
                                                    # Temperature 2.4, random number seed, zero linear momentum
                                                                                # Gaussian distribution

timestep 0.002   # simulation timestep
thermo 1000       # output thermodynamic data every 1000 steps bf 100

# Define a fix  in this case with index 1 applied to all
# particles in the simulation. This fix is for simulations
# in the anisotropic NPT ensemble. Note that we use the MTK
# correction.
fix 1 all npt temp 2.4 2.4 0.1 iso 5.68 5.68 0.5 mtk yes tchain 5 pchain 5 # Use NPT ensemble
                                                                         # Set temperature and pressure and damping
                                                                         # Numbers of thermostats in chain and in barostat
run 10000          # run for 10000 steps
Per MPI rank memory allocation (min/avg/max) = 3.642 | 3.644 | 3.648 Mbytes
Step Temp E_pair E_mol TotEng Press Volume 
       0          2.4   -3.4880302            0   0.11106983   -3.0192302         4000 
    1000    2.4095012   -2.7475924            0   0.86575581    5.6773539    3839.5592 
    2000    2.4205382   -2.7438955            0   0.88600401    5.6429685    3874.4627 
    3000    2.3660442     -2.70461            0   0.84356903    5.7936404    3864.3577 
    4000    2.4241715   -2.6902988            0   0.94504947    5.7632137    3889.2784 
    5000    2.4077376   -2.6637123            0   0.94699124    5.5179543     3933.423 
    6000    2.4100013   -2.7194934            0   0.89460482    5.4787298    3909.9739 
    7000    2.4375823   -2.7117302            0    0.9437291    5.9845988    3840.9445 
    8000    2.4347275   -2.6863154            0   0.96486281    5.8404617    3893.9452 
    9000    2.4037514   -2.7374962            0   0.86722945    5.4655227    3894.5606 
   10000     2.414596   -2.7598123            0    0.8611762    5.4443435    3871.9096 
Loop time of 2.51831 on 48 procs for 10000 steps with 4000 atoms

Performance: 686175.451 tau/day, 3970.923 timesteps/s
99.6% CPU use with 48 MPI tasks x no OpenMP threads

MPI task timing breakdown:
Section |  min time  |  avg time  |  max time  |%varavg| %total
---------------------------------------------------------------
Pair    | 1.1068     | 1.1834     | 1.2652     |   2.9 | 46.99
Neigh   | 0.20987    | 0.21639    | 0.23142    |   1.0 |  8.59
Comm    | 0.75797    | 0.86143    | 0.93133    |   4.0 | 34.21
Output  | 0.00023951 | 0.00024465 | 0.00031479 |   0.0 |  0.01
Modify  | 0.20759    | 0.2416     | 0.27179    |   3.3 |  9.59
Other   |            | 0.01522    |            |       |  0.60

Nlocal:        83.3333 ave          93 max          74 min
Histogram: 2 3 6 8 6 4 9 6 3 1
Nghost:        1667.88 ave        1700 max        1639 min
Histogram: 3 1 6 10 4 11 8 2 0 3
Neighs:        9857.60 ave       11017 max        8250 min
Histogram: 1 1 4 5 8 6 5 9 5 4

Total # of neighbors = 473165
Ave neighs/atom = 118.29125
Neighbor list builds = 903
Dangerous builds = 198

# Equilibrate just above the melting temperature to avoid step fn in T

fix 1 all npt temp 1.25 1.25 0.1 iso 5.68 5.68 0.5 mtk yes tchain 5 pchain 5
run 2000
Per MPI rank memory allocation (min/avg/max) = 3.643 | 3.645 | 3.649 Mbytes
Step Temp E_pair E_mol TotEng Press Volume 
   10000     2.414596   -2.7598123            0    0.8611762    5.4443435    3871.9096 
   11000    1.2925885   -4.0413194            0   -2.1029213      5.58555    2985.7849 
   12000    1.2907172   -4.0202436            0   -2.0846519    5.8397186    2985.3287 
Loop time of 0.603883 on 48 procs for 2000 steps with 4000 atoms

Performance: 572296.037 tau/day, 3311.898 timesteps/s
99.7% CPU use with 48 MPI tasks x no OpenMP threads

MPI task timing breakdown:
Section |  min time  |  avg time  |  max time  |%varavg| %total
---------------------------------------------------------------
Pair    | 0.2707     | 0.29771    | 0.31957    |   2.2 | 49.30
Neigh   | 0.039082   | 0.041984   | 0.044789   |   0.5 |  6.95
Comm    | 0.19359    | 0.21813    | 0.24851    |   2.9 | 36.12
Output  | 4.8778e-05 | 4.9814e-05 | 6.6544e-05 |   0.0 |  0.01
Modify  | 0.038301   | 0.041458   | 0.044068   |   0.9 |  6.87
Other   |            | 0.00455    |            |       |  0.75

Nlocal:        83.3333 ave          90 max          72 min
Histogram: 1 0 0 5 3 11 12 8 4 4
Nghost:        2001.85 ave        2026 max        1980 min
Histogram: 5 2 4 9 7 7 5 1 7 1
Neighs:        12783.8 ave       14163 max       10607 min
Histogram: 1 2 0 5 4 13 7 5 6 5

Total # of neighbors = 613623
Ave neighs/atom = 153.40575
Neighbor list builds = 144
Dangerous builds = 21

#############################
# L I N E A R  Q U E N C H  #
#############################

# Define solid atoms. This closely follows ten Wolde  Ruiz-Montero and Frenkel  Faraday Discuss  1996  104  93-110
# Compute components of the per-atom q6 vector
compute q6 all orientorder/atom degrees 1 6 components 6 nnn NULL cutoff 1.3 # compute the Q6 parameter.
                                                                             # Use all neighbours within 1.3 unit cell.

# get number of connections
compute coord_number all coord/atom orientorder q6 0.5

# An atom is solid if it has 8 or more connections (of a possible 14)
variable is_solid atom c_coord_number>=8
group solid dynamic all var is_solid    # Must be dynamic to update
dynamic group solid defined

# do clustering
compute cluster solid cluster/atom 1.3 # Create a cluster where all atoms within are solid and max 1.3 units from another member

# define chunks one chunk per cluster
compute clus_chunks solid chunk/atom c_cluster nchunk every compress yes  # Says which atoms are in which chunk

# count the size of each chunk
compute size_chunks solid property/chunk clus_chunks count


# Find the maximum entry in the vector of chunk sizes
variable max_n equal max(c_size_chunks)


# Thermo style which includes this variable
# thermo_style custom step temp pe vol v_max_n

thermo ${N}  # Print the thermo information every 100 steps
thermo 1000  

# Reset the npt fix at a lower temperature (below freezing)
fix 1  all npt temp  ${temp} ${temp}  0.1  iso  5.68  5.68  0.5  mtk yes tchain  5  pchain  5
fix 1  all npt temp  0.45 ${temp}  0.1  iso  5.68  5.68  0.5  mtk yes tchain  5  pchain  5
fix 1  all npt temp  0.45 0.45  0.1  iso  5.68  5.68  0.5  mtk yes tchain  5  pchain  5

dump dmp2 all dcd ${N} traj.dcd
dump dmp2 all dcd 1000 traj.dcd


compute msd all msd com yes
variable twopoint equal c_msd[4]/6/(step*dt+1.0e-6)
fix 9 all vector 10 c_msd[4]
variable fit equal slope(f_9)/6/(10*dt)
thermo_style custom step temp pe c_msd[4] v_twopoint v_fit v_max_n

fix 1 all npt temp 1.25 ${temp} 0.1 iso 5.68 5.68 0.5 mtk yes tchain 5 pchain 5
fix 1 all npt temp 1.25 0.45 0.1 iso 5.68 5.68 0.5 mtk yes tchain 5 pchain 5
run 2000000 # 5000000  # Run for this many steps
Neighbor list info ...
  update every 1 steps, delay 10 steps, check yes
  max neighbors/atom: 2000, page size: 100000
  master list distance cutoff = 3.8
  ghost atom cutoff = 3.8
  binsize = 1.9, bins = 8 8 8
  4 neighbor lists, perpetual/occasional/extra = 1 3 0
  (1) pair lj/cut, perpetual
      attributes: half, newton on
      pair build: half/bin/atomonly/newton
      stencil: half/bin/3d
      bin: standard
  (2) compute orientorder/atom, occasional
      attributes: full, newton on
      pair build: full/bin/atomonly
      stencil: full/bin/3d
      bin: standard
  (3) compute coord/atom, occasional
      attributes: full, newton on
      pair build: full/bin/atomonly
      stencil: full/bin/3d
      bin: standard
  (4) compute cluster/atom, occasional
      attributes: full, newton on
      pair build: full/bin/atomonly
      stencil: full/bin/3d
      bin: standard
Per MPI rank memory allocation (min/avg/max) = 9.829 | 9.836 | 9.840 Mbytes
Step Temp PotEng c_msd[4] v_twopoint v_fit v_max_n 
   12000    1.2907172   -4.0202436 3.8920425e-30 2.7028072e-32 8.3333333e+20            1 
   13000    1.2532845   -3.9940512   0.87425661 0.0056042088  0.074447232            1 
   14000    1.2465883   -4.0276261    1.8233073  0.010853019  0.076975209            2 
   15000    1.2115418   -4.0078774    2.7326065  0.015181147  0.076260758            2 
   16000    1.2480431   -4.0275974    3.6564171  0.019043839   0.07674914            3 
   17000    1.2400269    -4.039973    4.5972614  0.022535595  0.076831148            5 
   18000    1.2367973    -4.033199    5.5459273  0.025675589  0.077337667            3 
   19000    1.2438331   -4.0262389    6.5169238  0.028582998   0.07768133            1 
   20000    1.2438052   -4.0768576    7.4034147  0.030847561  0.078063608            1 
   21000     1.259732   -4.0499625    8.3068872  0.032963837  0.077981637            3 
   22000    1.2585752   -4.0531745    9.1877047  0.034801911   0.07748275            1 
   23000    1.2407874   -4.0225777    9.9639107  0.036101125  0.076975941            3 
   24000    1.2401135    -4.014533    10.794064  0.037479389  0.076123992            2 
   25000    1.2620854   -4.0694612    11.716506  0.039055019  0.075427546            1 
   26000    1.2673262   -4.0867793    12.475562  0.039985775  0.075096493            2 
   27000    1.2695369   -4.0394542    13.615184  0.042022172  0.075081994            2 
   28000    1.2573957   -4.0585094    14.651387  0.043605319  0.075332527            3 
   29000    1.2173703     -4.04755    15.544432  0.044667907  0.075467525            2 
   30000    1.2236634   -4.0707753    16.452696  0.045701933  0.075563087            1 
   31000    1.2387128   -4.0283739    17.768192  0.047763957  0.075903657            2 
   32000    1.2301215   -4.0401622    18.599067   0.04843507  0.076323487            3 
   33000    1.2175064   -4.0282147    19.521322  0.049296266    0.0766391            2 
   34000    1.2550811   -4.0625624    20.404704   0.05001153  0.076898585            2 
   35000    1.2277339   -4.0466124    21.514048  0.051223922   0.07715891            1 
   36000    1.2203619   -4.0722902    22.344465  0.051723299  0.077324824            3 
   37000    1.2425901   -4.0642835    23.143956  0.052126027  0.077415151            1 
   38000    1.2543022   -4.0701609    23.889166  0.052388521  0.077376281            1 
   39000    1.2437068   -4.0302328     24.74493  0.052873782  0.077275066            2 
   40000     1.244713   -4.0684247    25.465069  0.053052227  0.077102078            2 
   41000    1.2438944   -4.0418109    26.349491  0.053555876  0.076903484            2 
   42000    1.2346343   -4.0424802    27.292823  0.054152425  0.076725124            3 
   43000    1.2237595   -4.0377121    27.966843  0.054199307  0.076551368            7 
   44000    1.2243833   -4.0402791    28.665408  0.054290545  0.076301491            1 
   45000    1.2338595   -4.0402793     29.79374  0.055173592  0.076044915            2 
   46000    1.2463015   -4.0545178    30.647333   0.05552053  0.075875176            1 
   47000     1.270863   -4.0424484    31.462763  0.055785039  0.075743526            1 
   48000     1.218373   -4.0568902    32.370474  0.056198739  0.075569338            1 
   49000    1.2512789   -4.0629225    33.023736  0.056162816  0.075384971            2 
   50000    1.2405791   -4.0812465    33.787283  0.056312138  0.075156055            1 
   51000    1.2539752   -4.0506677     34.79704  0.056857908  0.074990032            2 
   52000    1.2409867   -4.0677666    35.770969  0.057325271  0.074867044            1 
   53000    1.2409294   -4.0552467    36.813912  0.057883509  0.074745766            1 
   54000    1.2125032   -4.0583191    37.558155  0.057960116  0.074657091            1 
   55000    1.2167288   -4.0868095    38.609137  0.058498693  0.074578986            2 
   56000    1.2534373   -4.1045994    39.546999    0.0588497  0.074557141            3 
   57000    1.2457274   -4.0650157    40.501795  0.059213151  0.074565033            1 
   58000     1.217085   -4.0881413    41.305748  0.059347339  0.074526378            3 
   59000    1.2346735    -4.104303    42.052283  0.059395879  0.074511335            2 
   60000    1.2261477   -4.0756048    43.012642   0.05973978  0.074496459            2 
   61000    1.2389438   -4.0878233    43.980253  0.060082313  0.074491409            1 
   62000    1.2269964   -4.0311152     44.73438  0.060126855  0.074468229            2 
   63000    1.2370868   -4.0905622    45.766376  0.060537534   0.07443234            2 
   64000    1.2262655   -4.0896237    46.650277  0.060742548  0.074406774            5 
   65000    1.2385248   -4.1047752    47.432002  0.060810258  0.074354547            2 
   66000    1.2226005   -4.1208538    48.476333  0.061207491  0.074325049            1 
   67000    1.2242998   -4.0988139    49.326172   0.06135096  0.074323829            1 
   68000     1.210019    -4.053867    50.355394  0.061710042  0.074335038            1 
   69000    1.2243141   -4.0200366    51.418729  0.062099914  0.074351143            1 
   70000    1.2343747   -4.0696659    51.994932  0.061898728    0.0743555            4 
   71000     1.251877   -4.0387215     52.74647  0.061909002  0.074343544            2 
   72000    1.2116674   -4.0643925    53.888782  0.062371275  0.074320721            1 
   73000    1.2223191   -4.0914667    54.801895  0.062559241  0.074325709            3 
   74000    1.2181109   -4.0521167    55.997066  0.063059759  0.074351787            2 
   75000    1.2156365   -4.0617975    56.830115  0.063144571  0.074398525            6 
   76000    1.1961496   -4.0354332    57.726379  0.063296468  0.074423545            1 
   77000    1.2058207   -4.0676636     58.36889  0.063169794  0.074419441            3 
   78000    1.2090705   -4.1070607     59.01276   0.06304782  0.074435169            2 
   79000    1.2251208   -4.0439509    60.190058  0.063491622  0.074433128            3 
   80000    1.2144282   -4.0938862    60.936635  0.063475661  0.074427584            4 
   81000    1.2054821   -4.0648659    62.044652  0.063831946  0.074435584            1 
   82000    1.2155538   -4.0707824    62.922982  0.063946119  0.074436705            1 
   83000    1.2262457   -4.0492136    63.601799  0.063857227  0.074439392            3 
   84000    1.2156293   -4.0867006    64.104593  0.063595826  0.074427671            2 
   85000    1.2108283   -4.0963884     65.07019  0.063794303  0.074406097            2 
   86000    1.2140825   -4.0675085    65.946853  0.063901988  0.074370151            1 
   87000    1.2170079   -4.0763071    66.346611  0.063550393    0.0743162            2 
   88000     1.223317   -4.0804188    67.363704  0.063791386  0.074264887            1 
   89000    1.2108863   -4.0814302    67.973498  0.063645597  0.074199619            2 
   90000    1.2330318   -4.0748087    69.062461  0.063946723  0.074139189            2 
   91000    1.1903078   -4.0799252    69.895247  0.064006636  0.074071841            4 
   92000    1.2514623   -4.1025068    70.561974  0.063914831  0.074001231            2 
   93000     1.220405   -4.0785531    71.275864  0.063867261  0.073925801            2 
   94000    1.1856663   -4.0731433    72.336705  0.064128284  0.073846979            1 
   95000    1.2134323    -4.078851    73.115352  0.064136273  0.073772106            2 
   96000    1.2107479   -4.1026162    73.851221  0.064106963  0.073705155            3 
   97000    1.1846962   -4.1134213    74.759074  0.064226008  0.073640559            1 
   98000     1.211292   -4.1053186    75.548735  0.064242122  0.073578318            1 
   99000    1.2472523   -4.1227248    76.100968  0.064058053  0.073507778            2 
  100000    1.2285834   -4.1240046     76.92891  0.064107425  0.073448645            1 
  101000    1.2191529   -4.1102357    78.354133  0.064648624  0.073389419            1 
  102000    1.1915777   -4.0784409    78.552113  0.064176562    0.0733309            5 
  103000    1.1940804   -4.0916855    79.879655  0.064627553  0.073269308            2 
  104000    1.2327895   -4.1141682     80.43713  0.064452828  0.073213235            1 
  105000    1.2363807   -4.1350584     81.22507  0.064464341  0.073157266            1 
  106000    1.2166027   -4.0979896    82.579288  0.064920824  0.073111459            1 
  107000    1.2204624    -4.093688    83.591362  0.065102307  0.073058417            1 
  108000    1.2143802   -4.1011968    83.717547  0.064596872  0.073006184            2 
  109000    1.2258466   -4.0579507    84.634671  0.064705406  0.072950667            1 
  110000    1.1899447   -4.0820582    85.798009  0.064998491  0.072902269            1 
  111000    1.1954116   -4.0602752    86.672591  0.065069513   0.07286598            3 
  112000    1.2094035    -4.111309    87.067736  0.064782541  0.072823317            2 
  113000    1.2200623   -4.1025337    87.905147  0.064826804  0.072768334            2 
  114000    1.2139601   -4.1018412    88.874466  0.064966715  0.072705669            2 
  115000    1.2029719   -4.0684701    89.741131  0.065029805  0.072648015            4 
  116000    1.2149197   -4.0888353    90.400295   0.06494274  0.072590577            2 
  117000    1.1968347   -4.0767039    91.563943  0.065216483  0.072537193            2 
  118000    1.2118135   -4.0758324    91.460484  0.064590737  0.072480651            2 
  119000    1.2210595   -4.0919376    92.078837  0.064480978  0.072417319            6 
  120000    1.2230056   -4.0974893    93.224629  0.064739325  0.072353045            1 
  121000    1.2199503   -4.1123815    93.950707  0.064704343  0.072284885            2 
  122000    1.2126245   -4.1021895    94.406639  0.064485409  0.072214157            2 
  123000     1.204536   -4.1010696    95.620646  0.064783635  0.072143815            2 
  124000    1.1958543   -4.1127319    96.723402  0.065002286   0.07208127            3 
  125000    1.2146001   -4.0932297     97.59469  0.065063126  0.072027203            3 
  126000    1.2134777   -4.1196727    98.441506  0.065106816  0.071975416            5 
  127000    1.2397705   -4.0990722    99.545302  0.065318439  0.071929301            3 
  128000    1.1847249   -4.0751343    100.28526   0.06528988  0.071880802            2 
  129000     1.199636   -4.1026212    101.04505  0.065274581  0.071841916            3 
  130000    1.1823422    -4.077019    101.93356  0.065342028   0.07180495            2 
  131000     1.207416   -4.1059734    102.61702  0.065278004  0.071766942            1 
  132000    1.2158387   -4.1290162    103.49726  0.065339179  0.071730098            1 
  133000    1.2009763   -4.0687789    104.34616  0.065379802   0.07169657            3 
  134000    1.1861292   -4.1100654    104.76587  0.065152904   0.07165238            2 
  135000    1.1707384   -4.0818397    105.41602  0.065071619  0.071602405            4 
  136000    1.2046564   -4.0859797    105.99445  0.064947577   0.07155329            2 
  137000    1.1959977    -4.113796    106.79997  0.064963483  0.071495897            4 
  138000    1.1898131    -4.118292    107.54538  0.064942861  0.071440124            1 
  139000    1.1956472   -4.0933886    108.77879  0.065215104  0.071385426            4 
  140000    1.2082342   -4.1231355    109.90327  0.065418611  0.071343237            3 
  141000    1.2038823   -4.1147704    110.29249  0.065184686  0.071301342            3 
  142000     1.189119   -4.1114796    111.61376   0.06550103  0.071258112            2 
  143000    1.1918289   -4.1181765    112.63317  0.065637045  0.071230473            1 
  144000    1.2311493    -4.103827     113.3788  0.065612734  0.071199787            2 
  145000    1.1948123   -4.1301766    114.46653  0.065785361  0.071173848            2 
  146000    1.2113958   -4.0870925    115.83089  0.066113521  0.071150316            2 
  147000    1.1733915   -4.1175856    115.79473  0.065643269  0.071130648            2 
  148000     1.189281   -4.1476412    115.91308  0.065266373  0.071098431            1 
  149000    1.1888445   -4.1154833    117.11883  0.065502704  0.071060614            3 
  150000    1.2013494   -4.1043216    117.46476  0.065258199  0.071017174            5 
  151000    1.1753306   -4.0993738    118.92519  0.065632001  0.070976313            2 
  152000    1.2030944   -4.1260266    119.58666  0.065562863  0.070937448            4 
  153000    1.2045628    -4.108676    120.32094  0.065534281  0.070899413            1 
  154000      1.21143   -4.1087044    120.69186  0.065309446  0.070854125            2 
  155000    1.1825369   -4.1300243    121.26159  0.065194402  0.070806364            2 
  156000    1.1635832   -4.1433375    122.25791  0.065308711   0.07076602            2 
  157000    1.1897117   -4.1199472    123.01433  0.065294228  0.070722038            2 
  158000    1.1832794   -4.1023078    124.14696  0.065478354  0.070681438            2 
  159000    1.2111043   -4.1236558    124.79231  0.065404775  0.070641659            2 
  160000    1.1836289   -4.1441395    125.56533  0.065398612  0.070601456            1 
  161000    1.1769955   -4.0884133    126.32425  0.065385221  0.070559307            3 
  162000    1.1794898    -4.110983    126.84261  0.065248258  0.070516232            3 
  163000    1.1885302   -4.1353894    127.42053  0.065143419  0.070469987            3 
  164000    1.1998596   -4.1125747    127.91495  0.064997431  0.070421879            4 
  165000    1.1771892   -4.1393729    128.84565  0.065073562  0.070370359            4 
  166000    1.1869249    -4.136782    129.63853  0.065079583  0.070327463            5 
  167000    1.2086143   -4.1295402    130.88787  0.065313306  0.070285117            3 
  168000    1.1659673   -4.1492327    131.23819  0.065098308  0.070239385            2 
  169000    1.1916488    -4.127163    132.23511   0.06520469  0.070189628            1 
  170000    1.1757607   -4.1161152    132.87232  0.065133492  0.070144412            2 
  171000    1.1774263   -4.1532364    133.40329  0.065011348  0.070099751            2 
  172000    1.1665177   -4.1148948    134.49206   0.06516088  0.070050837            2 
  173000    1.1801077   -4.1298727    134.83784  0.064950791  0.070002891            2 
  174000    1.1861625   -4.1407487    136.02239  0.065144824  0.069958153            1 
  175000    1.1860803   -4.1472061    136.75923  0.065123443  0.069913568            1 
  176000    1.1741894   -4.1041943    138.04099  0.065360319  0.069869527            3 
  177000    1.1819523   -4.0986297    138.46496   0.06519066  0.069829794            2 
  178000    1.1855792   -4.1300766    140.06352  0.065572808  0.069788678            1 
  179000    1.1837457   -4.1072627    140.63866  0.065474236  0.069754943            2 
  180000    1.1814943   -4.1204233    141.68348  0.065594204  0.069724121            3 
  181000    1.1973864   -4.1518728    141.75049  0.065262656   0.06969213            1 
  182000    1.2167143   -4.1650819    142.84224  0.065403956  0.069659874            4 
  183000    1.1683368   -4.1621339    143.58083   0.06538289  0.069635258            2 
  184000    1.2054244   -4.1041718    144.42128  0.065408187  0.069605712            2 
  185000     1.183148   -4.1378266    145.22369  0.065416078   0.06957708            3 
  186000    1.2020676   -4.1506639      146.337  0.065563172   0.06954543            2 
  187000    1.1828671    -4.170268    146.33337  0.065210948  0.069512735            6 
  188000    1.1823118   -4.1568144    147.96284  0.065586365  0.069479168            3 
  189000    1.2075687   -4.1363406     148.5452  0.065496121  0.069448614            4 
  190000    1.1754596   -4.1651483    149.01142  0.065355888  0.069415097            3 
  191000    1.1724755   -4.1691324    149.26683  0.065125145  0.069380102            2 
  192000    1.1770882   -4.1483902    149.92407  0.065071211  0.069344703            1 
  193000    1.1953971   -4.1303711    151.23558  0.065300337  0.069312322            4 
  194000    1.1967279   -4.1745236    150.77462   0.06476573  0.069273472            3 
  195000    1.2209367   -4.1488041    152.69545  0.065254468  0.069235285            2 
  196000       1.1737    -4.170878    152.76264  0.064950103  0.069194355            6 
  197000    1.1906907   -4.1589231    153.58104  0.064966599   0.06915576            2 
  198000    1.1737727   -4.1354566    154.11195   0.06486193  0.069117277            2 
  199000    1.1812484   -4.1446107    155.35053  0.065054659  0.069077874            1 
  200000    1.1745638   -4.1412322    155.84979  0.064937413  0.069035197            1 
  201000     1.173763   -4.1545492    156.65348  0.064947544  0.068996282            2 
  202000    1.1897924   -4.0981649    157.47392  0.064964487  0.068954926            1 
  203000    1.1672845   -4.1752634    157.92016  0.064827651  0.068914598            2 
  204000    1.1971935   -4.1674597    159.15425  0.065013989  0.068874308            2 
  205000    1.1547742   -4.1764947    159.50359  0.064838856  0.068832045            1 
  206000    1.1659631   -4.1579074    160.53985  0.064943305  0.068792935            4 
  207000    1.1573691   -4.1646364    161.42839  0.064987274  0.068756313            2 
  208000    1.1605665   -4.1673902    162.05327   0.06492519  0.068717887            2 
  209000    1.1795571   -4.1511961    162.87617  0.064942651  0.068683232            4 
  210000    1.1696733   -4.1610465    163.44474  0.064859025   0.06864971            2 
  211000     1.166004   -4.1242505    164.87385  0.065116055  0.068617199            1 
  212000    1.1829165   -4.1462285    165.27192  0.064965378  0.068586036            2 
  213000    1.1436802   -4.1848353    165.44911  0.064729698  0.068552805            3 
  214000    1.1476695   -4.1590002    166.83541   0.06496706  0.068522319            1 
  215000    1.1457047    -4.163384    168.00823   0.06511947   0.06848929            2 
  216000    1.1852788   -4.1706208    168.65309  0.065066779  0.068462844            2 
  217000    1.1716583   -4.2118844    169.17616  0.064967801  0.068438878            2 
  218000    1.1579092   -4.1290946    170.02297  0.064993489  0.068410711            1 
  219000    1.1548683   -4.1892831    170.60288  0.064917382  0.068380743            2 
  220000    1.1851466   -4.1632335    171.41435   0.06492968  0.068352994            1 
  221000    1.1799227   -4.1210304    172.91994  0.065203598  0.068328594            4 
  222000    1.1590928   -4.1562675    173.06727  0.064965192   0.06829967            1 
  223000    1.1585532   -4.1654676    173.87997  0.064977567  0.068267868            4 
  224000    1.1638779   -4.1848167    174.33999  0.064858626  0.068236143            2 
  225000    1.1782276   -4.1653084    175.43589  0.064976254  0.068205898            1 
  226000    1.2039832   -4.1651142    176.40194  0.065044965  0.068178662            7 
  227000    1.1580904   -4.1674966    177.43443  0.065137455  0.068151593            1 
  228000    1.1720173   -4.1673647    177.23513   0.06477892  0.068127566            1 
  229000    1.1768946   -4.1293585    179.82202  0.065437416  0.068103191            1 
  230000    1.1445485    -4.174483    179.45329  0.065019309  0.068079141            2 
  231000    1.1623226   -4.1495262    180.42976    0.0650901  0.068056488            1 
  232000    1.1601617    -4.120313    181.94557  0.065354013  0.068036549            4 
  233000    1.1435989   -4.1794124    182.83083  0.065390141  0.068021512            2 
  234000    1.1643935   -4.1376381    184.28278  0.065627769  0.068011286            2 
  235000    1.1734322   -4.1681911    184.75794  0.065516998  0.067998106            3 
  236000    1.1685436   -4.1927167    184.47169  0.065138308  0.067983634            2 
  237000    1.1544923   -4.1492864    186.01648  0.065406637  0.067970026            1 
  238000    1.1664246   -4.1996012      185.762  0.065042716  0.067950939            2 
  239000    1.1528003   -4.1732663    187.12867  0.065247096  0.067932281            2 
  240000    1.1586013    -4.158162    188.34836  0.065398737  0.067910173            2 
  241000    1.1493514   -4.1893504    187.71414   0.06490807  0.067887883            4 
  242000    1.1571313   -4.1780595    188.99663  0.065081485  0.067866036            1 
  243000    1.1679525   -4.1876704    188.99263  0.064812286    0.0678411            2 
  244000    1.1605852    -4.196528    189.61893  0.064760565  0.067811598            5 
  245000    1.1642234    -4.165846    190.19882  0.064693477  0.067782074            2 
  246000    1.1782011   -4.1527476    191.11348   0.06474034  0.067751918            2 
  247000    1.1726001   -4.1796232    191.61647  0.064647932  0.067722633            2 
  248000    1.1616453   -4.1675929    191.61733  0.064387545  0.067691913            2 
  249000    1.1683301   -4.2331908    192.55297  0.064442091  0.067661063            2 
  250000    1.1627968   -4.1988376    193.43684  0.064478948  0.067632265            3 
  251000    1.1383709   -4.1874393    194.66251  0.064628987  0.067604408            1 
  252000    1.1528582   -4.1846654    195.64285  0.064696709  0.067575527            2 
  253000    1.1472088    -4.174299    197.35339   0.06500441   0.06754913            7 
  254000    1.1694583   -4.1910993    196.77982  0.064560307  0.067524356            3 
  255000     1.162173   -4.2166398    198.04259  0.064719799   0.06750242            3 
  256000     1.157064   -4.1796404    199.41095  0.064912417  0.067481599            2 
  257000    1.1654777   -4.2000537    199.53587  0.064700348  0.067459723            2 
  258000    1.1372171   -4.1765028    200.62532  0.064801459  0.067438102            3 
  259000    1.1630327    -4.212506    201.67268  0.064888249  0.067419289            1 
  260000    1.1388441   -4.1907331    202.54777  0.064919156    0.0673992            6 
  261000    1.1489161    -4.186046    203.30279  0.064911492  0.067378306            1 
  262000    1.1529767   -4.1732644    204.15833  0.064935854  0.067359107            2 
  263000    1.1597964   -4.1622168    204.48602  0.064792782  0.067338998            2 
  264000    1.1565277   -4.1808899    206.14702  0.065071661  0.067319346            6 
  265000    1.1641689   -4.2293307     205.8823  0.064742862  0.067300325            3 
  266000    1.1631563   -4.1962122    206.70699  0.064757829  0.067281894            3 
  267000    1.1618907   -4.2174697    207.88576  0.064883196  0.067262824            4 
  268000    1.1139842   -4.1985837    208.53411  0.064842695  0.067246236            3 
  269000    1.1300056   -4.1740745    209.95286   0.06504116  0.067231034            3 
  270000    1.1470234   -4.1986697    210.27642  0.064900131  0.067216629            2 
  271000       1.1317    -4.150719    211.44559  0.065020168  0.067197955            2 
  272000    1.1758757     -4.21524    210.85161  0.064599146  0.067177533            3 
  273000    1.1315784   -4.2185811     211.8759  0.064675184  0.067158833            2 
  274000    1.1658628   -4.1730608    212.33727  0.064579462  0.067139054            2 
  275000    1.1608862   -4.2113932    213.65944  0.064745284  0.067117486            5 
  276000    1.1495633   -4.1601578    214.91848  0.064890845  0.067099249            2 
  277000    1.1636442   -4.2000625    215.11257  0.064714973  0.067080535            3 
  278000    1.1149689   -4.1614721     216.2215  0.064814597  0.067060508            2 
  279000    1.1334538   -4.1735177    216.88561  0.064780649  0.067039661            2 
  280000    1.1487142   -4.1915459    217.38006  0.064696446  0.067019559            2 
  281000    1.1488225   -4.1878666    218.98852  0.064943215  0.067002772            2 
  282000    1.1305005   -4.2056086    218.85009  0.064672012  0.066983266            3 
  283000    1.1402558   -4.1942171    220.50349  0.064930357  0.066967258            3 
  284000    1.1650643   -4.2445579    220.86809  0.064808712  0.066946665            4 
  285000    1.1495664   -4.2025237    222.03563    0.0649227  0.066929853            4 
  286000    1.1225593   -4.2097607    221.33382  0.064491206  0.066912909            2 
  287000     1.097435   -4.2296116    223.23723  0.064819174  0.066895372            3 
  288000    1.1405474   -4.2070568    223.97547  0.064807718  0.066878242            2 
  289000    1.1527333    -4.251024    224.56231  0.064752683  0.066863302            2 
  290000    1.1254275   -4.2046661    225.70642  0.064858168  0.066847198            4 
  291000    1.1306266   -4.2089617    226.49113  0.064860003  0.066831089            2 
  292000    1.1400949   -4.1933834     227.0207  0.064789013  0.066811951            2 
  293000    1.1268533   -4.2433894    227.46126  0.064693191  0.066794798            3 
  294000    1.1290739   -4.2183463    227.61745  0.064517417  0.066777897            4 
  295000    1.1306457   -4.2024134    229.45238  0.064817056  0.066761351            3 
  296000    1.1245874   -4.2270671    228.92698  0.064450163  0.066743753            1 
  297000    1.1351708   -4.2053586    230.42958  0.064654766  0.066727168            1 
  298000     1.118349   -4.2133743    232.30759  0.064962972  0.066711017            4 
  299000     1.164412    -4.150906     233.4376  0.065060646  0.066696582            1 
  300000    1.1136238   -4.2093949    232.70371   0.06463992  0.066680909            5 
  301000     1.093368   -4.1959595    234.15449  0.064826825  0.066662608            3 
  302000     1.155626    -4.193465     234.4897  0.064704663  0.066644204            2 
  303000    1.1243245   -4.2036648    234.11241  0.064387352  0.066626596            1 
  304000    1.1562881    -4.214339    235.74483  0.064623034  0.066607834            1 
  305000    1.1333297   -4.2067019    235.86599   0.06444426  0.066589713            1 
  306000    1.1250904   -4.2408982    236.31854    0.0643569  0.066571424            3 
  307000    1.1534062   -4.2116736    238.48413  0.064735107  0.066551581            2 
  308000    1.1428766   -4.2346638    238.03729  0.064404029  0.066534072            2 
  309000    1.1213552   -4.2131691    239.06243  0.064472069  0.066515506            3 
  310000    1.1327245   -4.2034585    240.40932  0.064626162  0.066497102            3 
  311000    1.1318693   -4.2114613    240.22248  0.064368295  0.066475239            3 
  312000    1.1577827   -4.2040261    240.71635  0.064293898  0.066454542            2 
  313000    1.1165101   -4.1954697    242.56787  0.064581435  0.066435491            2 
  314000    1.1101403   -4.2388139    242.23344  0.064287006  0.066414923            2 
  315000    1.1423337   -4.2242563    242.56969  0.064171876   0.06639119            2 
  316000    1.1382343   -4.2265501    243.94418   0.06433127  0.066368422            2 
  317000    1.1101555   -4.2202124    243.68231  0.064059491  0.066346698            2 
  318000     1.126617   -4.1972192    243.49606   0.06380924  0.066323656            5 
  319000    1.1351082   -4.1881262    246.49538  0.064392733  0.066300392            2 
  320000    1.1438298    -4.230788    245.95022  0.064049537  0.066277295            2 
  321000      1.14206   -4.2209467     247.0142  0.064126219  0.066254279            2 
  322000    1.1398937   -4.2107849     247.0376  0.063933125  0.066232138            3 
  323000    1.1165461    -4.237796    248.86586  0.064206878  0.066209689            3 
  324000    1.1227985    -4.241644    249.40528  0.064147448  0.066187482            3 
  325000    1.1297319   -4.2428417     250.0424  0.064113435  0.066166626            3 
  326000    1.1421514   -4.2705984    250.37213  0.064001056  0.066144457            3 
  327000    1.1402105   -4.2502048    251.18069  0.064011389  0.066123016            2 
  328000    1.1344496   -4.2133017    252.63768  0.064186402  0.066101208            5 
  329000    1.0973345   -4.2230885    252.94076  0.064068075  0.066080072            6 
  330000    1.1213759   -4.2472254    254.34839  0.064229391  0.066060639            2 
  331000    1.1294653   -4.2303376    255.04104  0.064209729  0.066041503            2 
  332000    1.1013141   -4.2371553    255.16515  0.064047478  0.066020218            1 
  333000    1.1149757   -4.2072156    256.06303  0.064079837  0.066000413            6 
  334000    1.1005685   -4.2289215    256.46757  0.063988914  0.065977932            4 
  335000    1.1246713   -4.2583749    256.73804  0.063865183  0.065954738            2 
  336000    1.1153368   -4.2508749    256.36825  0.063583394   0.06592888            2 
  337000    1.0889638   -4.2051948    257.60702  0.063701043  0.065904208            1 
  338000    1.0964718   -4.2114811    257.98865   0.06360667  0.065877849            2 
  339000     1.097993   -4.2549054    258.39327  0.063518503  0.065850603            3 
  340000    1.1149652   -4.2267423     259.0907  0.063502623  0.065818711            3 
  341000    1.1183624   -4.2273398    259.58506  0.063437209  0.065789472            2 
  342000    1.1230012   -4.2065357    260.62206    0.0635044  0.065759138            1 
  343000    1.1289891    -4.253107    258.89272  0.062899105  0.065728272            4 
  344000    1.1086902   -4.2495772    260.27648  0.063051472   0.06569715            3 
  345000     1.114325   -4.2238493    262.45869   0.06339582  0.065667684            3 
  346000    1.1211131   -4.2203003    263.06609  0.063358884   0.06563732            4 
  347000    1.1108127   -4.2584978    263.48606  0.063277153  0.065607676            2 
  348000    1.1002303   -4.2459694     264.2429  0.063276556  0.065577352            1 
  349000    1.0942667   -4.2640267    264.71061  0.063206927  0.065549479            4 
  350000    1.0946625   -4.2286892    266.34883  0.063416387  0.065520105            3 
  351000    1.1125874   -4.2139416    267.16124  0.063428594   0.06549218            3 
  352000    1.1487025   -4.2400991    268.12319  0.063476135  0.065463212            6 
  353000    1.0913975   -4.2359318    268.19152  0.063312447   0.06543465            1 
  354000    1.0910967   -4.2738876    269.50323   0.06344238  0.065406547            3 
  355000    1.1415683   -4.3016244    268.89451  0.063120778  0.065377714            3 
  356000    1.1454192   -4.2436142    271.17298  0.063476822  0.065351823            2 
  357000    1.1439787   -4.2675841    269.86151  0.062992883  0.065327125            3 
  358000    1.1118312   -4.2447878    272.12192  0.063343091  0.065300705            1 
  359000    1.1178941   -4.2773265    271.86004  0.063105859  0.065275027            1 
  360000    1.1109895   -4.2576921    271.20054  0.062777902  0.065248005            3 
  361000    1.1151771   -4.2868331     272.4289  0.062887558  0.065218084            3 
  362000    1.1290003   -4.2399631    274.64768  0.063224603  0.065189895            2 
  363000    1.1157803   -4.2795703    274.45763  0.063006803  0.065162211            3 
  364000    1.1186455   -4.2270799    275.94445  0.063174096  0.065133819           12 
  365000    1.0871025   -4.2850113    275.42014  0.062881311  0.065105259            4 
  366000    1.1150047   -4.2909235    276.16872  0.062879946  0.065077179            2 
  367000    1.1218239   -4.2347018    277.69364  0.063054869  0.065050136            5 
  368000    1.1094144   -4.2891966    278.55748  0.063079139  0.065022489            4 
  369000    1.1137669   -4.2475172    278.98182  0.063004024  0.064994949            1 
  370000    1.1125483   -4.2521725     279.6253  0.062978671  0.064965601            1 
  371000    1.1209537   -4.2423797    280.42619  0.062988811    0.0649364            6 
  372000    1.1026669   -4.2444688    280.73754  0.062889234   0.06490802            2 
  373000      1.11428   -4.2885577    281.15906  0.062814803  0.064878468            1 
  374000    1.0901269   -4.2277444    281.17692   0.06265083  0.064846947            2 
  375000    1.1020499   -4.2330841     282.2775  0.062728333  0.064817202            3 
  376000    1.1052971   -4.2812933    281.72811   0.06243974  0.064785625            1 
  377000    1.0733285   -4.2840078    283.26843  0.062614596  0.064752811            5 
  378000     1.103316   -4.2336787      284.668  0.062757495  0.064722686            2 
  379000    1.1065006   -4.2706236    282.42142  0.062097938  0.064690625            3 
  380000    1.1015224   -4.3029686    284.27253  0.062340468  0.064658537            2 
  381000    1.0724206   -4.2893577    284.25665  0.062173371  0.064627624            2 
  382000    1.1227263   -4.2531011    286.54255  0.062509281  0.064597171            3 
  383000    1.1231697   -4.2994315    286.28544  0.062290131  0.064565389            4 
  384000    1.1047192   -4.2422372    287.06087  0.062296195  0.064532415            3 
  385000    1.1038898   -4.2717695    289.04608  0.062564086  0.064500821            3 
  386000    1.0932739     -4.27457    288.52091  0.062288624  0.064469314            4 
  387000    1.1104859   -4.2711868    289.47158  0.062332382  0.064436154            2 
  388000    1.1095477   -4.2668095    289.68223  0.062216974  0.064403059            2 
  389000    1.0901048   -4.2724517    288.69826  0.061846243  0.064369273            2 
  390000     1.090134   -4.2926225    291.22891    0.0622284  0.064335824            4 
  391000    1.1116613   -4.2340013    292.83833  0.062412261  0.064302771            6 
  392000    1.0997461   -4.2802802    291.48048  0.061964387  0.064268139            4 
  393000    1.1050451   -4.2846487    290.34177  0.061565261  0.064234554            3 
  394000    1.1001506   -4.2957975    292.08485  0.061777676  0.064200805            5 
  395000    1.0722376   -4.2789612    294.22913  0.062073655  0.064168718            6 
  396000    1.0946462   -4.2751006    295.79282  0.062245964  0.064136408            3 
  397000    1.1168847   -4.2364614    296.77905  0.062296189  0.064104925            2 
  398000    1.0952082   -4.2590943     296.1642   0.06201093  0.064071756            3 
  399000    1.0919491    -4.271236     296.4949  0.061924582  0.064038777           10 
  400000    1.0900021   -4.2652801    295.14717  0.061488993  0.064004207            3 
  401000    1.0869036   -4.2640261     296.8291  0.061685183  0.063970728            3 
  402000    1.0983628   -4.2873238    297.99504  0.061773432  0.063937625            3 
  403000    1.1070565   -4.2628697    298.60863  0.061747028   0.06390523            3 
  404000    1.0991562   -4.3000061    298.89055  0.061652342  0.063871357            3 
  405000    1.1178386   -4.2806673    299.64678  0.061655717  0.063836327            2 
  406000    1.0875907   -4.2485983     300.5195  0.061682985  0.063803454            1 
  407000    1.0820562   -4.2954324    301.50509  0.061733229  0.063769906            2 
  408000    1.0919139   -4.2829844    302.04179  0.061691543  0.063736892            2 
  409000    1.0957476   -4.3086679    301.36548  0.061402909  0.063703478            4 
  410000    1.0969001   -4.2888296    304.55996  0.061902432  0.063670646            3 
  411000    1.1183247   -4.2756634     303.7417  0.061585908  0.063636687            1 
  412000    1.0852023   -4.2595326    303.77735  0.061443639  0.063604579            1 
  413000    1.0970217   -4.2886145    304.47354  0.061435339  0.063571969            5 
  414000    1.0706511    -4.269181    306.18503  0.061631448  0.063539356            3 
  415000    1.0828246   -4.2870401    307.30795  0.061708424  0.063506999            7 
  416000    1.0897818    -4.286764    305.46234  0.061190372  0.063474593            2 
  417000     1.083085   -4.3085496    306.86338  0.061323617  0.063442428            5 
  418000    1.1042725     -4.26529     308.5238  0.061507934  0.063411107            2 
  419000    1.0586237   -4.2929176    308.10641  0.061278125  0.063378869            2 
  420000    1.0616115   -4.3241492     308.7881  0.061267479   0.06334807            2 
  421000    1.0723743   -4.2729952     310.3247  0.061426108  0.063315981            2 
  422000    1.0933621   -4.2643067     311.8348  0.061578753  0.063285314            3 
  423000    1.1133896   -4.2933792    311.60024  0.061386966  0.063255109            4 
  424000    1.0624909   -4.2994347    311.18639  0.061160847  0.063225221            2 
  425000    1.0722582   -4.3109922    312.33376  0.061241914  0.063194533            3 
  426000    1.0670436   -4.3048985    315.03764  0.061627081  0.063163866            3 
  427000    1.0903446   -4.3123395    314.59167   0.06139572   0.06313322            3 
  428000    1.1023278   -4.2853478    314.65123  0.061263868  0.063104392            3 
  429000    1.1004893   -4.3044453    315.29662   0.06124643   0.06307612            1 
  430000    1.0741395   -4.2925147    317.23307  0.061479278  0.063047195            3 
  431000    1.0476372   -4.3021025    317.34126  0.061357553  0.063019833            3 
  432000    1.0802604   -4.2918423    317.44551  0.061235632  0.062992739            3 
  433000    1.0545113   -4.3333288    317.43637  0.061092451  0.062964701            2 
  434000    1.0834209   -4.3266356    318.87118  0.061227184  0.062937654            6 
  435000    1.0885274   -4.3109673     320.3393  0.061367682  0.062911514            3 
  436000    1.0627571   -4.3232812    319.84557  0.061132562  0.062883836            3 
  437000    1.1055201    -4.302716    321.12276  0.061236224  0.062856615            2 
  438000    1.0654128   -4.3194036    321.86647  0.061237912  0.062830226            3 
  439000     1.090033   -4.2963709    322.94991  0.061304083  0.062803604            2 
  440000    1.0576015   -4.3016752    324.78644  0.061512583  0.062777809            3 
  441000    1.0878613   -4.2893805    324.48379  0.061315908  0.062751299            2 
  442000    1.0831088   -4.2933599    324.50046  0.061180327  0.062724185            6 
  443000    1.0687607    -4.305289    325.26638  0.061186302  0.062695191            2 
  444000    1.0437425    -4.305025    324.64011  0.060930952  0.062666949            6 
  445000     1.082993   -4.3026465    326.45117  0.061133177   0.06263927            2 
  446000    1.0689236    -4.309748    326.63185  0.061029867  0.062610953            5 
  447000     1.077849   -4.2792437    328.84497  0.061305922  0.062582386            3 
  448000    1.0973427   -4.3082688    327.82461   0.06097928  0.062555693            3 
  449000     1.067985   -4.3235505    328.21385  0.060915711  0.062527347            3 
  450000    1.0846555   -4.2734761    330.07511  0.061125021  0.062499425            5 
  451000    1.0846065   -4.3062554    330.41705  0.061052671  0.062470607            3 
  452000    1.0578801   -4.2943039    329.77579  0.060799371  0.062442956            2 
  453000    1.0693118   -4.3333809    330.63219  0.060822699  0.062415492            8 
  454000    1.0760065   -4.3340148    330.47467  0.060659814  0.062386668            3 
  455000    1.0840005   -4.2948511    330.95647  0.060614739  0.062358109            3 
  456000    1.0603503   -4.3093408    332.49847  0.060763609  0.062329626            2 
  457000    1.0609095    -4.344816    332.47186  0.060625795  0.062300761            2 
  458000    1.0716401    -4.344146    332.03417  0.060413786   0.06227125            1 
  459000    1.0593308   -4.3386248     334.4926  0.060728503   0.06224051            2 
  460000    1.0465733   -4.3307685    333.94875  0.060497963  0.062209515            2 
  461000    1.0765589   -4.3406517    335.13483  0.060581134  0.062178769            2 
  462000    1.0637327   -4.3121319    334.92088  0.060411415   0.06214714            2 
  463000    1.0724839   -4.3231751    335.22013  0.060334797   0.06211554            2 
  464000    1.0675617   -4.3176086    334.03462   0.05999185  0.062083539            8 
  465000    1.0676873   -4.2790617     336.8223  0.060362419  0.062052588            2 
  466000    1.0471344   -4.3187175    337.06454  0.060276205  0.062020398            3 
  467000    1.0872713    -4.331058    337.45745  0.060217247  0.061989031            3 
  468000    1.0859307    -4.354453    337.02774  0.060012062  0.061957199            4 
  469000    1.0635171   -4.3075688    338.19881  0.060092184  0.061924599            7 
  470000    1.0799301   -4.3381483     337.9736  0.059924397  0.061892651            2 
  471000     1.049378   -4.3390401    338.48406  0.059887484  0.061859697            2 
  472000    1.0755862   -4.3648933    339.18329  0.059884055   0.06182599            3 
  473000    1.0871124   -4.3186187    340.43816  0.059978534  0.061792314            5 
  474000    1.0721591   -4.3068064    340.70755  0.059899359  0.061760378            2 
  475000    1.0443908    -4.352353    342.81696  0.060143326  0.061727782            1 
  476000    1.0579526   -4.3182625    342.58784  0.059976863  0.061694889            2 
  477000    1.0477295   -4.3384156    342.88676  0.059903347  0.061661994            4 
  478000    1.0638923   -4.3530607    343.18464  0.059829959  0.061628999            3 
  479000    1.0478384   -4.3381512    344.35671  0.059908961  0.061596756            3 
  480000    1.0768609   -4.3342291    345.95856  0.060062251  0.061564376            3 
  481000    1.0706147   -4.3570584    346.59441  0.060047541   0.06153492            2 
  482000    1.0833532   -4.3371133    346.04849  0.059828577  0.061504144            5 
  483000    1.0648062   -4.3566899    349.27604  0.060261567  0.061473698            1 
  484000    1.0309299   -4.3319076    347.57988  0.059845021  0.061442768            4 
  485000    1.0647439   -4.3901733    346.63665  0.059559562  0.061410723            3 
  486000    1.0820607   -4.3355399    348.36871  0.059734004  0.061378525            3 
  487000    1.0713762   -4.3543053    348.09531  0.059564563  0.061345772            1 
  488000    1.0711788   -4.3648089    350.32257  0.059822843  0.061313953            4 
  489000    1.0432817   -4.3441024    350.47495  0.059726474  0.061282885            2 
  490000    1.0565098   -4.3440488     350.0065  0.059524915  0.061251903            3 
  491000    1.0525811   -4.3558935    350.46477   0.05948146  0.061220902            3 
  492000    1.0709389   -4.3522033      351.153  0.059477135  0.061188225            2 
  493000    1.0703905   -4.3530587     350.5791  0.059259482  0.061155634            3 
  494000    1.0738146   -4.3402367    352.68646  0.059495017  0.061122966            2 
  495000     1.069194   -4.3160227    351.79649  0.059224999  0.061089364            2 
  496000    1.0573804    -4.358662    352.46831  0.059218466  0.061056287            2 
  497000    1.0583131   -4.3662622    352.44424  0.059095279  0.061023402            4 
  498000    1.0399038   -4.3714071    354.74084  0.059360916  0.060990031            2 
  499000    1.0508247    -4.357794    354.59787  0.059218081  0.060956803            4 
  500000    1.0546798   -4.3182874    355.66103  0.059276838  0.060924702            3 
  501000    1.0397152   -4.3263417    355.49832  0.059131457  0.060892183            1 
  502000    1.0772931   -4.3340729    356.22647  0.059134539  0.060859145            3 
  503000    1.0391664     -4.32268    357.14155   0.05916858  0.060825717            3 
  504000    1.0616636   -4.3493653    358.47707  0.059272003  0.060792401            3 
  505000     1.049441    -4.343656    357.94903  0.059067497  0.060758599            2 
  506000    1.0629782   -4.3557595    358.69127  0.059073002  0.060724771            3 
  507000    1.0474894   -4.3359012    359.62985  0.059110758  0.060692094            3 
  508000     1.052844   -4.3485477    360.69339  0.059168863  0.060658962            3 
  509000    1.0554253   -4.3455522    362.24219  0.059306187  0.060626679            2 
  510000    1.0593557   -4.3564022    360.35858   0.05888212  0.060595016            2 
  511000    1.0319332   -4.3155533    361.60905  0.058970817  0.060561909            1 
  512000    1.0450005   -4.3573396    362.34766  0.058975856  0.060529835            3 
  513000    1.0496349    -4.373238    363.22647   0.05900365  0.060496695            2 
  514000    1.0342013    -4.363502    361.87326  0.058669465    0.0604627            4 
  515000    1.0571079   -4.3362361     362.6689  0.058684288  0.060428186            2 
  516000    1.0474645   -4.3603517    361.89446  0.058445488  0.060393274            3 
  517000    1.0718961    -4.363946    362.66051  0.058455917  0.060357437            4 
  518000    1.0392186   -4.3895121    363.37869  0.058458606  0.060321406            1 
  519000    1.0454111   -4.3799888    364.92773   0.05859469  0.060287164            2 
  520000    1.0477579   -4.3790794    365.43707  0.058563632  0.060254373            3 
  521000    1.0334072   -4.3581337    365.93976  0.058531631  0.060221541            3 
  522000    1.0621045   -4.3664311    367.94188  0.058739125  0.060187899            2 
  523000    1.0358634   -4.3645604    366.19157  0.058347924  0.060154673            2 
  524000    1.0228464   -4.3607001    368.60322  0.058620105  0.060121326            4 
  525000    1.0615343   -4.3613179    369.19163  0.058601845  0.060089064            2 
  526000    1.0580841   -4.3718904    369.20327   0.05849228  0.060056878            2 
  527000    1.0356298   -4.3880569    369.65886   0.05845333  0.060026116            2 
  528000    1.0581868   -4.3628005    371.00394  0.058554915  0.059995082            1 
  529000      1.03459   -4.3877578    372.03205  0.058606183  0.059964287            2 
  530000    1.0508931   -4.3887484    371.85984  0.058468528  0.059934095            2 
  531000    1.0557829   -4.3491569    374.22999  0.058730381   0.05990447            2 
  532000    1.0465663   -4.3677866    373.99988  0.058583941  0.059875663            2 
  533000    1.0252915   -4.3667308    374.56607  0.058562549  0.059846166            3 
  534000    1.0387893   -4.3517591    377.66446  0.058936401  0.059817942            3 
  535000    1.0363248   -4.3480555     376.6245  0.058664253  0.059789241            2 
  536000    1.0206304   -4.3558652    377.07497  0.058624839  0.059761141            2 
  537000    1.0323904   -4.3718968    376.25043  0.058387715  0.059732413            3 
  538000    1.0320474   -4.3802081    377.95825  0.058543719  0.059704019            4 
  539000    1.0391974   -4.3521952    378.41337  0.058505468  0.059675039            3 
  540000    1.0609773   -4.3526682    380.40953  0.058705174  0.059647073            4 
  541000    1.0211555   -4.3662975    380.26818  0.058574888  0.059618897            2 
  542000    1.0424005    -4.386702    381.19202   0.05860886  0.059591128            3 
  543000     1.033025   -4.3886294     379.9519  0.058310605  0.059563342            2 
  544000     1.050216   -4.4247721     381.0794  0.058376133  0.059535379            3 
  545000    1.0099046   -4.3672507    381.45427  0.058326342  0.059507622            3 
  546000    1.0228589   -4.3433521    382.54271   0.05838564  0.059479521            5 
  547000    1.0203137   -4.3654214    382.34806  0.058249247  0.059452589            3 
  548000    1.0447575   -4.3441334    385.42826  0.058611353  0.059425343            3 
  549000     1.025139   -4.3999429    384.43736  0.058354183   0.05939849            3 
  550000    1.0383339   -4.3723771     384.8041  0.058303652  0.059371154            2 
  551000    1.0322976   -4.3699573      385.323  0.058276316  0.059342611            4 
  552000    1.0269328   -4.4100892    384.32443  0.058019992   0.05931351            7 
  553000     1.049882   -4.3573997    385.57232  0.058103123  0.059284268            2 
  554000    1.0594296    -4.375708    385.42859  0.057976624  0.059255782            3 
  555000     1.032893   -4.3566004    387.60968  0.058199652  0.059226709            3 
  556000    1.0460963   -4.3938818    386.63754  0.057949272   0.05919789            3 
  557000    1.0172345   -4.3251025    387.46658  0.057969267  0.059167542            4 
  558000    1.0375448   -4.3863955    388.27746  0.057986479  0.059138629            6 
  559000    1.0196617   -4.4213235     387.1965  0.057721601  0.059108804            2 
  560000    1.0297261   -4.4108779    388.26603  0.057777683  0.059078252            6 
  561000    1.0093156   -4.3942862    388.89658  0.057768357  0.059048406            7 
  562000     1.002397   -4.3710157    389.44016  0.057746169  0.059016816            3 
  563000    1.0269089   -4.3761296    389.35657  0.057631227  0.058984506            1 
  564000    1.0267582   -4.4147159    388.51794  0.057405133  0.058953142            1 
  565000    1.0203476   -4.3853396    389.41353  0.057435624  0.058919941            2 
  566000    1.0315266   -4.3457434    390.57272  0.057504817   0.05888787            5 
  567000    1.0209679   -4.3784893    390.26672  0.057358424  0.058855252            2 
  568000    1.0093893   -4.3734867    391.61409  0.057455119  0.058821574            2 
  569000    1.0279588   -4.3930532    390.39425  0.057175491  0.058788127            6 
  570000    1.0448851    -4.375912    392.60866  0.057398927  0.058754816            4 
  571000    1.0259179   -4.3649383    391.23793  0.057098355  0.058721351            4 
  572000    1.0239765   -4.3677099    393.96607  0.057395989  0.058686772            5 
  573000     1.043233   -4.3839552    392.66107   0.05710603  0.058653585            2 
  574000    1.0110294    -4.390175    393.45972  0.057122491  0.058619999            3 
  575000    1.0311935   -4.4023725    393.54989  0.057036215  0.058586466            2 
  576000    1.0266577   -4.4130175    393.68546  0.056956808  0.058552528            8 
  577000    1.0288894   -4.3956444     394.4712  0.056971577  0.058519213            3 
  578000       1.0182     -4.39244    397.45028  0.057302521  0.058485643            3 
  579000    1.0236363   -4.3886642    397.14355  0.057159405  0.058452121            4 
  580000    1.0191488   -4.3998336    396.13033  0.056915277  0.058417801            4 
  581000     1.020199   -4.3804473    398.59841  0.057171315  0.058384212            2 
  582000    1.0051014   -4.3986186     396.9586  0.056838287  0.058350688            2 
  583000    1.0097722   -4.4159592    396.36218  0.056655542  0.058317565            3 
  584000    1.0683356   -4.4084665     397.9176  0.056780479  0.058283743            2 
  585000    1.0238829   -4.4031715    398.48859  0.056764756  0.058250429            2 
  586000    1.0244715   -4.4064306    398.44747   0.05666204  0.058215974            2 
  587000    1.0146318   -4.3917515    400.66462  0.056880269  0.058182352            4 
  588000    1.0396914   -4.4672081    397.05815  0.056272413  0.058148447            3 
  589000    1.0174777   -4.4132454    400.41527  0.056651849  0.058113611            5 
  590000    1.0033574   -4.4070803     400.2253  0.056528998  0.058079292            1 
  591000    1.0153253   -4.3642347    401.37849  0.056595951  0.058044839            3 
  592000    1.0095689   -4.4079571    401.07064  0.056457016  0.058010865            3 
  593000    1.0092798   -4.3958098    402.90037  0.056618939  0.057976318            7 
  594000    1.0003306   -4.3788194    402.12767  0.056415217  0.057941894            2 
  595000    1.0124739   -4.4316763    401.07903  0.056173534  0.057907328            2 
  596000    1.0448719   -4.3950572    404.46738  0.056553046   0.05787347            4 
  597000    1.0275326   -4.3911754    402.93059  0.056243801  0.057839088            2 
  598000     1.011993   -4.4324751    403.51777  0.056231574  0.057804545            5 
  599000    1.0130625   -4.4009674    405.77177  0.056451276  0.057770562            5 
  600000   0.99283215   -4.4278733    403.39415  0.056026965  0.057736502            2 
  601000    1.0173798   -4.4082216    404.70082  0.056114922  0.057701894            3 
  602000    1.0425792   -4.4069449    406.08414  0.056213198  0.057668493            3 
  603000    1.0071189   -4.4185697    406.17595  0.056132664  0.057634431            3 
  604000    1.0082515   -4.4041426    406.88806  0.056137977  0.057600184            3 
  605000    1.0121088   -4.4202701    406.45367  0.055985354  0.057566055            3 
  606000    1.0142642   -4.4098061     408.0681  0.056114975   0.05753128            3 
  607000    1.0208583   -4.4307678    408.23329  0.056045207  0.057497483            6 
  608000   0.99410757   -4.4353511    407.56502  0.055861433  0.057463323            3 
  609000    1.0097238   -4.4066386    410.45704  0.056165441  0.057428964            5 
  610000    1.0108075   -4.4207649    410.63382  0.056097517  0.057395274            2 
  611000    1.0091909   -4.4140507    411.56369  0.056132528  0.057362605            3 
  612000    1.0140965   -4.4304684     413.1278  0.056253785  0.057330192            3 
  613000    1.0058627   -4.4428596    411.67705  0.055964797  0.057297909            3 
  614000    1.0176311   -4.4309615    412.74468   0.05601855  0.057266252            4 
  615000    1.0476863   -4.4482226    414.30405   0.05613876  0.057235443            3 
  616000   0.99458866   -4.4504837    414.59067    0.0560864  0.057204796            2 
  617000   0.99434427   -4.4116421    415.77281  0.056155161  0.057174502            2 
  618000   0.99130406   -4.4129926    417.43894  0.056288962  0.057145681            2 
  619000   0.99192936   -4.4222619    416.59681  0.056084654  0.057115903            2 
  620000   0.99251289   -4.4333575    417.22354  0.056078433  0.057087017            3 
  621000   0.99635258   -4.4604444    418.65294  0.056179943  0.057058538            6 
  622000   0.99271737   -4.3873998    419.25044  0.056169673  0.057029273            3 
  623000    1.0180101   -4.4099914    422.13746  0.056465685  0.057000753            5 
  624000    1.0075541   -4.4237032    420.40311  0.056143578  0.056972791            3 
  625000    1.0051707   -4.4305658    420.73429  0.056097905  0.056944495            3 
  626000    1.0065993   -4.4504301    420.37713  0.055960746  0.056915591            2 
  627000   0.99481764   -4.4587171    419.86514  0.055803447  0.056885675            4 
  628000    1.0064815   -4.4367056    419.69096  0.055691475  0.056855447            2 
  629000    1.0011686   -4.4193975    421.53043  0.055846638  0.056825612            3 
  630000    1.0050022   -4.4123173    422.28813  0.055858219  0.056796285            4 
  631000    1.0124039   -4.4133622     422.6558  0.055818251  0.056766583            3 
  632000    1.0081748   -4.3944505    424.02849  0.055910929  0.056737335            5 
  633000    1.0050268   -4.4079497    423.95412  0.055812812  0.056708777            3 
  634000   0.98193429   -4.4495444    423.69517  0.055690743  0.056680568            7 
  635000    1.0037815   -4.4413929    425.35238  0.055820522  0.056650749            7 
  636000   0.98877257   -4.4279799     425.0649  0.055695086  0.056622322            3 
  637000   0.98706437   -4.4175166     426.1609  0.055751033  0.056593097            4 
  638000   0.98547091   -4.4328231    426.13862   0.05566074  0.056563532            2 
  639000   0.98718325   -4.4303554    426.97936  0.055683275  0.056534206           11 
  640000   0.97608856    -4.419849    427.66031  0.055684936  0.056504337            3 
  641000    1.0026762   -4.4542939    426.83261  0.055490459  0.056475009            3 
  642000    1.0146139   -4.4377915    427.88935  0.055541193   0.05644552            2 
  643000   0.99978517    -4.457757    426.94956  0.055333017  0.056415065            7 
  644000   0.98217858   -4.4681536    427.77837  0.055354344   0.05638606            6 
  645000   0.99198712   -4.4458468    429.16235  0.055447331  0.056356309            2 
  646000    1.0110924   -4.4203463    430.50458  0.055534646  0.056326974            7 
  647000    1.0142132   -4.4696449    430.43893  0.055440357  0.056297519            3 
  648000    1.0023722    -4.467639    429.84418  0.055278316  0.056268415            2 
  649000   0.97016265   -4.4219124    431.78883  0.055442839  0.056239773            4 
  650000   0.99495948   -4.4515541    431.27631  0.055291835  0.056210808            3 
  651000    0.9816321   -4.4877335    430.67946  0.055130499  0.056181675            6 
  652000    0.9864564   -4.4704389    433.47425  0.055403151  0.056153546            2 
  653000    1.0051309    -4.469886    432.69647   0.05521905  0.056125629            3 
  654000   0.98560738    -4.447049    433.07045  0.055182269  0.056097216            3 
  655000     1.003863   -4.4510193    434.64786   0.05529871  0.056068077            3 
  656000   0.96508928    -4.441601    435.34167   0.05530255  0.056039361            2 
  657000   0.99344315   -4.4542365    436.07395  0.055311256  0.056010951            6 
  658000    1.0042931   -4.4634903    435.49303  0.055153626  0.055982522            4 
  659000   0.96187248   -4.4427262     436.0767  0.055143741  0.055953987            6 
  660000   0.98243171   -4.4203866    436.04343  0.055055989   0.05592592            3 
  661000    1.0041637   -4.4558937    437.57746  0.055166095  0.055898035            8 
  662000   0.98418879   -4.4816975    437.78765  0.055109221   0.05586965            4 
  663000   0.97828491   -4.4643007    438.91032   0.05516721  0.055842108            2 
  664000   0.98977173   -4.4716345    440.98351  0.055344315  0.055815353            3 
  665000   0.98955857   -4.4407213    441.50268   0.05532615  0.055788801            5 
  666000   0.97876463   -4.4801645    441.53888  0.055247608  0.055761774            7 
  667000   0.99552034   -4.4660405    442.20816  0.055248396  0.055735032            9 
  668000   0.99330994   -4.4480949    441.62823  0.055093342  0.055708153            5 
  669000     0.964117   -4.4327583    444.75937  0.055401018  0.055682595            3 
  670000   0.99083351   -4.4593111    443.14187  0.055117148  0.055656681            4 
  671000   0.97731535   -4.4573879    441.82002  0.054870842  0.055630086            6 
  672000   0.99565821   -4.4829069    442.87387  0.054919875  0.055603256            4 
  673000   0.99043948   -4.4777381    443.06772  0.054862274  0.055577053            2 
  674000   0.98029821   -4.4620129    445.49427  0.055080894  0.055550726            5 
  675000   0.97336368   -4.4456546    446.38339   0.05510906  0.055524773            3 
  676000   0.97898745   -4.4742582    446.46649  0.055037782  0.055498448            4 
  677000   0.98208363   -4.4798182    446.55519  0.054967403  0.055472634            2 
  678000   0.97947218   -4.4604576    447.22325  0.054968443  0.055446118            2 
  679000   0.97149168   -4.4751478    446.93069  0.054851582  0.055419962            3 
  680000   0.98196813   -4.4335486    448.94736  0.055018059  0.055393981            4 
  681000   0.94452552   -4.4911623    447.94922  0.054815127  0.055367966            4 
  682000    1.0062125   -4.4653096    449.20638  0.054888366  0.055341464            2 
  683000   0.97126939   -4.4563206    449.31994  0.054821856   0.05531554            4 
  684000    1.0011931   -4.4532122    449.89513  0.054811785  0.055289298            1 
  685000   0.98635152   -4.4612184    449.17538  0.054644206  0.055264157            3 
  686000    0.9734544   -4.4941992    451.34511  0.054828123  0.055237427            5 
  687000   0.98159464   -4.4796508    451.52426  0.054770046  0.055211361            2 
  688000   0.98413657   -4.4804477     452.5258  0.054811749  0.055185627            6 
  689000    0.9684748   -4.4649873    453.94038  0.054903287  0.055159613            3 
  690000   0.99200034   -4.4843981    453.25597  0.054741059  0.055134097            3 
  691000   0.98135918   -4.5076642    451.97081  0.054506851  0.055108022            2 
  692000   0.95013116    -4.465918    454.91538  0.054782681  0.055082874            4 
  693000   0.97349585   -4.4724828    454.52354  0.054656511  0.055057803            2 
  694000   0.96111107    -4.473778    454.74168  0.054603948  0.055032099            2 
  695000   0.97595017   -4.4650549    456.32852   0.05471565  0.055007114            5 
  696000   0.98916956   -4.4762107    456.73097  0.054685221  0.054982475            7 
  697000   0.97193221   -4.4926639    456.11042  0.054532571  0.054956792            3 
  698000   0.97861063   -4.4914784    455.88856  0.054427955  0.054931635            2 
  699000    0.9793592   -4.4866396    458.14595  0.054619212  0.054907374            3 
  700000   0.98967607   -4.4970618    457.38391  0.054450465  0.054882353            3 
  701000   0.94488245   -4.4900757    457.89639  0.054433713  0.054857285            4 
  702000   0.97378468   -4.5098179    457.89015  0.054355431  0.054832406            3 
  703000   0.96698618   -4.4649075    459.01461  0.054411405  0.054808181            1 
  704000   0.96122342   -4.4738573    460.84869  0.054551218  0.054783726            5 
  705000   0.97414106   -4.4816898    460.88169  0.054477741  0.054759379            3 
  706000   0.96215744   -4.4716958     462.0192  0.054534844  0.054734348            3 
  707000   0.96258487   -4.4924656    461.24606   0.05436658  0.054709975            2 
  708000   0.95682704   -4.4686941    460.79666  0.054236895  0.054685087            3 
  709000   0.97587761   -4.4678645    461.84633  0.054283772  0.054659562            4 
  710000   0.95842146   -4.4756671    462.33991  0.054265247  0.054634637            2 
  711000   0.96128675   -4.5137833    462.36751   0.05419216  0.054609527            2 
  712000    0.9529018   -4.4741482    464.04225  0.054312061  0.054583932            2 
  713000   0.96237985   -4.5105115    462.73371  0.054082949  0.054559055            9 
  714000   0.97593557   -4.4969434    463.61335  0.054109868  0.054533778            1 
  715000   0.95710802   -4.5057264      464.889  0.054182868  0.054509191            3 
  716000   0.95350751   -4.5008301    465.95131  0.054230832  0.054484415            4 
  717000   0.96234044    -4.498858    464.03896  0.053932933  0.054459133            3 
  718000   0.97736277   -4.4913049    465.97088  0.054082042  0.054434385            4 
  719000   0.95994819   -4.4610187     465.6822  0.053973366  0.054408602            2 
  720000   0.96011695   -4.5105824    465.29266  0.053853317  0.054383486            3 
  721000   0.98013955   -4.4993717    468.61352  0.054162451  0.054358796            2 
  722000   0.95468008   -4.5049133    466.41569  0.053833759  0.054334158            3 
  723000   0.96514639   -4.5084628    466.82065  0.053805977  0.054309532            3 
  724000   0.93384677   -4.5067788    468.91692  0.053972942  0.054285028            3 
  725000   0.97871399   -4.5063114    469.32461  0.053945358  0.054260395            4 
  726000   0.97384375   -4.5236928    469.55761  0.053897798  0.054236042            3 
  727000   0.94422639   -4.5106007    471.27589   0.05402062  0.054211809            1 
  728000   0.98430746   -4.5002249    470.43903  0.053850621  0.054188169            5 
  729000    0.9620516   -4.4738589    472.87307  0.054054992   0.05416449            2 
  730000   0.94732563   -4.5004808    473.73366  0.054079185  0.054141024            5 
  731000   0.93597451    -4.466095    473.54529  0.053983732  0.054117671            5 
  732000   0.94820698   -4.4994662    473.24168  0.053875419  0.054094447            5 
  733000   0.96730427   -4.5330063    473.72746  0.053857146  0.054070738            6 
  734000   0.95796147   -4.4902619     475.1744  0.053948047  0.054047692            6 
  735000   0.96293226   -4.5013845     474.6912  0.053819864  0.054024693            4 
  736000   0.95571959   -4.4950182    474.72915  0.053751036  0.054000904            4 
  737000   0.96224897    -4.540934    475.42436  0.053756712  0.053977547            2 
  738000   0.95433884   -4.5176354    476.61931  0.053818801  0.053953803            5 
  739000   0.93691195   -4.5199037    477.96337  0.053897539  0.053930327            3 
  740000   0.94371816    -4.516998    477.94661  0.053822817  0.053906911            5 
  741000   0.97528873   -4.4977653    480.75484  0.054065997  0.053883852            3 
  742000   0.96258728   -4.5098373    477.73659  0.053654154  0.053860837            3 
  743000   0.95128596   -4.5311278    479.83361  0.053817139  0.053837479            5 
  744000   0.93937062     -4.52765    478.25992  0.053568539  0.053814398            7 
  745000   0.95179456   -4.5171487    476.79369  0.053332628  0.053791105            5 
  746000   0.95649367   -4.4892166    480.95945  0.053726481  0.053767623            4 
  747000   0.94017683   -4.5270666    479.35559  0.053475635  0.053744598            2 
  748000   0.96453957   -4.5306789    479.28417  0.053396187  0.053721022            5 
  749000   0.96087083   -4.5166952    480.79364  0.053492839  0.053697395            6 
  750000   0.94678577   -4.5440957    482.58206  0.053620229  0.053673486            7 
  751000   0.98299529    -4.490408    484.25474  0.053734436  0.053650573            4 
  752000   0.95005264   -4.4996097     482.8379  0.053505973  0.053627589            2 
  753000   0.96698749   -4.5357465    484.54874  0.053624251  0.053604983            5 
  754000   0.98320454   -4.5398891    483.72863  0.053462492  0.053582102            3 
  755000   0.95395812    -4.546654    484.62614  0.053490744  0.053559413            2 
  756000   0.94499133     -4.49768    485.92386  0.053563036  0.053536441            4 
  757000   0.97547613    -4.515273    485.15804  0.053407974  0.053513707            3 
  758000   0.94306462   -4.5290964    486.27885  0.053460735  0.053491436            3 
  759000   0.94332033   -4.5405133    485.85985  0.053344296  0.053469136            2 
  760000   0.97064834   -4.5133279    487.96942  0.053505419  0.053446468            5 
  761000   0.92715563   -4.5464342    485.81915  0.053199644  0.053423367            3 
  762000   0.96075829   -4.5360545    487.23037  0.053284161  0.053399704            3 
  763000   0.96498105   -4.5320235    486.65695  0.053151698   0.05337631            2 
  764000   0.95864196   -4.5142214    487.98155  0.053226608  0.053353047            6 
  765000   0.94536635   -4.5182282     488.2818  0.053189738  0.053329075            4 
  766000   0.93074274   -4.5373154    488.24666  0.053116477  0.053305826            3 
  767000   0.95470502   -4.5163739    491.75809  0.053428736  0.053282501            4 
  768000   0.94037333   -4.5132582    491.03045  0.053280213  0.053260013            3 
  769000   0.96052801   -4.5495776    490.34971   0.05313716  0.053237012            4 
  770000   0.95110903   -4.5170959    491.47707  0.053190159  0.053213974            5 
  771000   0.92705268   -4.5338026    492.21204  0.053200609  0.053191147            2 
  772000   0.94478637   -4.5389762    492.97616   0.05321418  0.053169096            5 
  773000   0.95410402   -4.5751665    491.57469  0.052994253  0.053146538            2 
  774000   0.93952282   -4.5395641     494.4346    0.0532337  0.053124156            6 
  775000   0.94544214   -4.5164415    492.94707  0.053005061  0.053101455            3 
  776000   0.96078896   -4.5399702    494.95407  0.053152284  0.053079124            4 
  777000   0.93758385   -4.5255542    492.79612  0.052852436  0.053056246            4 
  778000   0.94847834   -4.5406958    494.63968  0.052981971  0.053033265            3 
  779000   0.94177822   -4.5627036    493.75729  0.052819564   0.05301054            4 
  780000   0.93590972   -4.5506218    495.92086  0.052982998  0.052987364            3 
  781000   0.94045217   -4.5699369    495.44787  0.052864689  0.052964001            4 
  782000   0.95163708   -4.5570454    495.97769  0.052853548  0.052940696            5 
  783000   0.94745531    -4.523263    496.05023  0.052793767  0.052917542            5 
  784000   0.93378356   -4.4997189     497.9791  0.052931452  0.052894575            2 
  785000   0.95781533   -4.5423761    497.59522  0.052823272  0.052871665            4 
  786000   0.92040611   -4.5223501    498.02548  0.052801684  0.052849032            3 
  787000   0.94727652   -4.5451376    497.07141  0.052633567  0.052825883            8 
  788000   0.93875012   -4.5722212     497.7769  0.052641381  0.052802765            3 
  789000   0.93242177   -4.5751735    499.12228   0.05271676  0.052779392            2 
  790000   0.95328232   -4.5389173    500.21942  0.052765762  0.052755798            2 
  791000   0.94525822   -4.5446811    499.13297  0.052584594   0.05273244            5 
  792000   0.94656342   -4.5382187     499.5215   0.05255908  0.052709364            3 
  793000   0.91779854   -4.5722491    499.13795  0.052452496  0.052686347            3 
  794000   0.94762028   -4.5751758    500.67838  0.052548109   0.05266294            2 
  795000   0.95719309   -4.5683116    500.24327  0.052436402  0.052639829            4 
  796000   0.92739306    -4.559771    500.55994  0.052403679  0.052616422            5 
  797000   0.93628903   -4.5630851    500.53181  0.052334987  0.052593058            5 
  798000    0.9600385   -4.5465302    501.52017  0.052372616  0.052569522            5 
  799000   0.92411802   -4.5512802    502.63987   0.05242385  0.052545943            5 
  800000    0.9339455   -4.5655359    500.68432  0.052154617  0.052522196            3 
  801000   0.93736436   -4.5127307    504.06109  0.052440812  0.052498916            7 
  802000   0.94111189   -4.5722215    503.47441  0.052314464  0.052475077            3 
  803000    0.9275061   -4.5379276     504.6522  0.052371544  0.052451277            3 
  804000    0.9407945   -4.5623526    503.11235  0.052146803  0.052427464            6 
  805000   0.94240368   -4.5776064    503.31157  0.052102647  0.052402568            3 
  806000   0.94311384     -4.55183    503.90765  0.052099633  0.052377813            4 
  807000   0.93342716   -4.5741195    504.07463  0.052052316  0.052352629           11 
  808000   0.93484904   -4.5785984    504.04593  0.051984935  0.052327682            3 
  809000    0.9478649   -4.5895144    504.81128  0.051999514  0.052302771            4 
  810000   0.92734304   -4.5475533    504.18697  0.051871087  0.052278078            3 
  811000   0.95267775   -4.5404588    505.91172  0.051984352  0.052253445            2 
  812000   0.91958582   -4.5756886    506.03584  0.051933071  0.052228908            9 
  813000   0.91783112   -4.5779502    506.10923  0.051876715   0.05220451            3 
  814000   0.94638421   -4.5930285    505.67543  0.051768574   0.05218003            6 
  815000   0.93590558   -4.5457996    506.63812  0.051803489   0.05215569            4 
  816000   0.91763131   -4.5622059    507.36703  0.051814443   0.05213158            4 
  817000    0.9172215   -4.5761929     506.4554  0.051658037  0.052107138            4 
  818000   0.94680852   -4.5792452    508.01973  0.051754252  0.052082281            4 
  819000   0.92886012   -4.5680422    509.17804  0.051808917  0.052058051            2 
  820000    0.9366943   -4.5906482    509.88163  0.051817239  0.052033806            4 
  821000   0.91530594   -4.5615572    509.93717  0.051759761  0.052009593            3 
  822000   0.91089237   -4.5804979    513.36786  0.052044592  0.051985919            7 
  823000   0.91419316   -4.5827716    510.96964  0.051738521  0.051961576            3 
  824000   0.94284133   -4.5807634    510.73862  0.051652368  0.051937532            4 
  825000    0.9139669   -4.5861468     511.4062  0.051657192  0.051913633            3 
  826000   0.92761243   -4.5763341    511.81171  0.051635564  0.051889131            4 
  827000   0.94334452   -4.5761138    512.49239  0.051641716  0.051865365            4 
  828000   0.92709391   -4.5385565    515.44509  0.051876518  0.051841919            6 
  829000   0.93057457    -4.555098    514.61405  0.051730403  0.051818701            2 
  830000   0.92977865   -4.5793082    514.64095  0.051670778  0.051795325            4 
  831000   0.91564757   -4.6318726    513.54203  0.051498398  0.051771174           11 
  832000   0.92093262   -4.5896497    515.05771  0.051588312  0.051746849            3 
  833000   0.91763881   -4.5864488    515.28405  0.051549024  0.051722544            4 
  834000   0.90819614   -4.5718309    516.27751  0.051586482  0.051698642            4 
  835000   0.91075175   -4.5539913    517.16197  0.051612971  0.051675246            3 
  836000   0.91046937   -4.5934008    516.79765  0.051514917  0.051651647            4 
  837000   0.92123384   -4.5795906    518.17793  0.051590793  0.051627708            4 
  838000   0.92901212    -4.578826    517.70191  0.051481893  0.051604395            5 
  839000   0.92625665   -4.5939826    518.99161  0.051548631   0.05158068            3 
  840000   0.92669804     -4.59744     519.0263  0.051490704   0.05155775            7 
  841000   0.91676397   -4.5810558    519.47728  0.051474166  0.051534543            3 
  842000   0.94322432   -4.5822249    519.84947  0.051449868  0.051511427            3 
  843000   0.92601495   -4.5815337    519.48931  0.051353234  0.051488321            5 
  844000    0.9205793   -4.6049973    519.97887  0.051340726  0.051464772            6 
  845000   0.91262321   -4.5921784    520.70545  0.051351622  0.051441461            3 
  846000   0.91784439   -4.5897952    520.14285  0.051235506  0.051417986            3 
  847000   0.93190209   -4.5894199    521.86764   0.05134471    0.0513946            3 
  848000   0.90952672   -4.5606202    523.45459  0.051440113  0.051371467            2 
  849000   0.90995728    -4.611478    522.09066  0.051245647  0.051348265            4 
  850000   0.91007224   -4.6041896    522.11998  0.051188233  0.051324411            3 
  851000   0.92112826   -4.6106978    523.22437  0.051236229  0.051300942            2 
  852000   0.90781164    -4.602265    523.14628  0.051168455  0.051277238            3 
  853000   0.90638012   -4.6043629    522.13982  0.051010143   0.05125368            5 
  854000   0.91833137   -4.5692301    523.04076  0.051038326  0.051230297            4 
  855000   0.90111894   -4.6018916    523.90249   0.05106262  0.051206539            4 
  856000   0.91445961   -4.5750607    524.32848  0.051044439  0.051183098            5 
  857000    0.9173193    -4.585765     526.2439   0.05117113  0.051159865            2 
  858000   0.91613818   -4.6173485    524.98083  0.050988814  0.051136566            3 
  859000   0.92673825   -4.5972119    526.18207  0.051045991  0.051113625            2 
  860000   0.91937515   -4.5861126    525.76127  0.050945859  0.051090258            7 
  861000   0.90078754   -4.5865048     527.8583  0.051089654  0.051066589            7 
  862000   0.92175344   -4.5998896    525.34007  0.050786937  0.051042548            4 
  863000   0.93085517   -4.6067293    526.87796  0.050876589  0.051018547            7 
  864000   0.89730615    -4.604105    527.15594  0.050844515  0.050995015            4 
  865000    0.9004146   -4.6006124    527.24411   0.05079423  0.050971533            8 
  866000    0.8901411    -4.616663    527.83968  0.050792887  0.050947705            2 
  867000   0.90996307   -4.5982531    528.08912  0.050758277  0.050924162           12 
  868000   0.89346076   -4.6566891    528.13099   0.05070382  0.050900424            4 
  869000   0.89558128   -4.6248857    528.35364  0.050666824  0.050876473            3 
  870000   0.90067094   -4.6077248     528.7727  0.050648726  0.050852525            6 
  871000   0.90395974   -4.6282413    528.03172  0.050519683    0.0508283            4 
  872000   0.91140286    -4.584021    531.66783  0.050809235  0.050804533            2 
  873000   0.91050392   -4.6287838    529.51186  0.050545233  0.050780566            4 
  874000   0.91053935   -4.6257145     530.5415  0.050585574  0.050756496            6 
  875000   0.91877912    -4.580575    532.24061  0.050689581  0.050732491            4 
  876000   0.90611395   -4.6313663    530.14222  0.050432099  0.050709052            7 
  877000    0.9159013   -4.6207089    532.06787   0.05055757  0.050685248            6 
  878000    0.9105367   -4.5965622    534.32662  0.050714371  0.050661545            5 
  879000    0.8881322   -4.6121123    532.19684  0.050454763  0.050638005            5 
  880000   0.91969895   -4.6367511    531.11759  0.050295227  0.050613618            3 
  881000    0.9043758   -4.5988695    533.68192  0.050480696  0.050589613            6 
  882000   0.89431122   -4.6163892    534.81112  0.050530151   0.05056625            4 
  883000   0.89876124   -4.6353105    534.59663  0.050452683  0.050542482            3 
  884000   0.88602894   -4.6149162    536.72857  0.050596585  0.050519058            3 
  885000   0.90876352    -4.588959    537.25594  0.050589072  0.050495846            3 
  886000   0.90866399   -4.6203538    537.30416  0.050536509  0.050473044            4 
  887000   0.90498692   -4.6094589    537.73068  0.050519606  0.050450728            7 
  888000   0.91576146   -4.5932447    537.93455  0.050481846  0.050428502            6 
  889000   0.89905269   -4.6286523    536.71196  0.050310457  0.050405763            3 
  890000   0.88503412   -4.5948856    539.57997  0.050522469  0.050382772            5 
  891000   0.90409984   -4.6544841     538.7211  0.050385438  0.050359771            4 
  892000   0.91795274   -4.6148702    540.94003  0.050536251  0.050337447            2 
  893000   0.89740985    -4.635801    540.75941  0.050462804  0.050315113            2 
  894000   0.90393174   -4.6470364    538.96436  0.050239034   0.05029189            5 
  895000   0.90228198   -4.6508408    538.91691  0.050178483  0.050268613            2 
  896000   0.89934633   -4.6320083    538.37016   0.05007163  0.050244997            2 
  897000   0.88372672   -4.6378421    540.99043  0.050259237  0.050221475            2 
  898000     0.897366   -4.6682571    539.43009  0.050058471  0.050198335            4 
  899000    0.9145653   -4.6363857    540.99183  0.050147556  0.050174987            6 
  900000   0.89609361   -4.6292645    540.43208  0.050040008  0.050151659            4 
  901000   0.88146474   -4.6480518    540.52895  0.049993429  0.050128181            4 
  902000   0.88789326   -4.6392344    541.95013  0.050069303  0.050104862            8 
  903000   0.89017248   -4.6370683     540.0518  0.049838667  0.050081455            4 
  904000   0.87285951   -4.6529132    541.25404  0.049894362  0.050057476            2 
  905000   0.89801825   -4.6227464    540.64892   0.04978351  0.050033931            5 
  906000   0.88828297   -4.6362689    540.87372  0.049749238  0.050010077            4 
  907000   0.87671678   -4.6507385    542.50207  0.049843998  0.049986686            2 
  908000   0.90533121   -4.6287542    544.42838  0.049965894  0.049963385            4 
  909000   0.88578846   -4.6484441    544.30951  0.049900028  0.049940138            7 
  910000   0.89460194   -4.6614241    542.96708   0.04972226  0.049916917            4 
  911000   0.89949263   -4.6467929    545.17235  0.049869407  0.049893435            4 
  912000   0.88800442   -4.6729904    542.39259  0.049560727  0.049870159            5 
  913000   0.89711508   -4.6477029    546.50078  0.049881415  0.049846291            3 
  914000    0.8853942   -4.6268415    546.37786  0.049815633   0.04982268            7 
  915000   0.87742292   -4.6455581    546.58323  0.049779894  0.049799297            5 
  916000   0.88304733   -4.6552196     543.8717  0.049478867  0.049775482            5 
  917000   0.89510353   -4.6212754    547.23179  0.049730261  0.049752198            6 
  918000   0.86585751   -4.6227705    547.32863   0.04968488  0.049728624            3 
  919000   0.88456309   -4.6580598    546.12935  0.049522066  0.049704905            5 
  920000   0.88130679   -4.6491219    548.19405  0.049655258  0.049681079            6 
  921000   0.88156879   -4.6611165    546.22971  0.049423607   0.04965724            4 
  922000   0.87955752   -4.6455749    548.29799   0.04955694  0.049633769            4 
  923000   0.87025599   -4.6362977    550.24042  0.049678622  0.049610817            5 
  924000   0.87628073   -4.6804611    548.40405  0.049459239  0.049587647           10 
  925000   0.89047039   -4.6565194    549.13147  0.049471304  0.049564451            2 
  926000    0.8946297   -4.6594192    551.42477  0.049624259  0.049541312            3 
  927000   0.89128363   -4.6765083    550.51221  0.049488692  0.049518366            6 
  928000   0.87870361   -4.6658661     548.3882   0.04924463  0.049495102            4 
  929000   0.88934282   -4.6322676    549.87998  0.049325438  0.049471921            4 
  930000   0.88056806   -4.6330415    550.96751  0.049369849   0.04944807            4 
  931000    0.8791939   -4.6737929     552.0905  0.049417338   0.04942467            9 
  932000   0.89722676    -4.651438    552.20379  0.049374444  0.049401211            6 
  933000   0.86437594   -4.6554907     551.9753  0.049301117  0.049377758            7 
  934000   0.90198987   -4.6887212    553.46346  0.049381108  0.049354433            9 
  935000   0.86957501   -4.6449345    554.26899  0.049400088  0.049331206            5 
  936000   0.87655841    -4.671925    552.60622  0.049199271  0.049308156            7 
  937000   0.91432461   -4.6669169    553.46413  0.049223064  0.049285154            6 
  938000    0.8871869   -4.6576881    555.75451  0.049374068  0.049262516            3 
  939000   0.87850301   -4.6443174      555.661  0.049313188   0.04923972            2 
  940000   0.86202152   -4.6721309    554.41525  0.049150288   0.04921714            4 
  941000    0.8691503   -4.6916185    553.78616  0.049042345  0.049194351            5 
  942000   0.88180985   -4.6620906    555.37142  0.049130522  0.049171391            3 
  943000   0.85342114   -4.6391247    557.02746  0.049224767  0.049148858            5 
  944000   0.85770581   -4.6716891    556.11455  0.049092033  0.049125915            5 
  945000   0.88067415   -4.6609636    557.51907  0.049163939  0.049102958            4 
  946000   0.86585979   -4.6490327    557.83264  0.049139591  0.049079982            2 
  947000   0.88865657   -4.6616956     557.6506  0.049071682  0.049057435            5 
  948000   0.88103006   -4.6664276    558.70535  0.049112636  0.049034383            6 
  949000   0.87363695   -4.6595918    557.83395  0.048984365  0.049011263            3 
  950000   0.90430973   -4.6873134    558.81629  0.049018972  0.048987935            3 
  951000   0.87120198   -4.7206161    556.49425  0.048763955  0.048964926            3 
  952000   0.86523348   -4.6382347    559.52845  0.048978331  0.048942096            5 
  953000   0.87701845   -4.7111068    557.67042  0.048764465  0.048918713            3 
  954000   0.88463729   -4.6619433    559.99461  0.048916371  0.048895577            2 
  955000   0.87686356    -4.667001    557.76716  0.048670782  0.048872303            4 
  956000   0.86080123   -4.6714327     560.0161  0.048815908  0.048848692            5 
  957000   0.89908004   -4.6936346    561.76647  0.048917317  0.048825408            2 
  958000   0.87121078   -4.6984415    560.13655  0.048724473   0.04880246            3 
  959000   0.89116568   -4.6947593    560.85658  0.048736234  0.048779176            6 
  960000   0.86156246   -4.6949291    560.27925  0.048635352  0.048756008            2 
  961000   0.87594488   -4.6721829     561.9706  0.048731409  0.048732555            3 
  962000   0.86346553   -4.6710054     563.4227  0.048806541  0.048709098            7 
  963000   0.86281232   -4.6885712    561.00723  0.048546835  0.048686073            3 
  964000   0.88646427   -4.7074118    562.46018  0.048622076  0.048662906            5 
  965000   0.87086828   -4.6780684     563.6868  0.048677616  0.048639545            4 
  966000   0.88626184   -4.6817355    563.80442  0.048637373  0.048616385            3 
  967000   0.87330042   -4.6725486    563.11885  0.048527995  0.048593153            3 
  968000   0.86779292   -4.6785479    566.04881  0.048730097  0.048570021            4 
  969000   0.87084342   -4.6881406    563.78624  0.048485229  0.048546952            6 
  970000   0.88216298   -4.6508981    564.41222  0.048489022  0.048523737            6 
  971000   0.85064196   -4.6740073    565.20581  0.048507192  0.048500284            7 
  972000   0.85731556   -4.6839753    566.00618  0.048525907  0.048476966            9 
  973000   0.85335644   -4.7070095    564.44759  0.048342548  0.048453405            4 
  974000   0.86197722   -4.7102744    565.68127  0.048398466  0.048429982            2 
  975000   0.84923649   -4.6820482    564.65495  0.048261107  0.048406316            9 
  976000   0.87469523   -4.7206309    565.12265  0.048251593  0.048382914            4 
  977000   0.86724859   -4.6806406    565.72893  0.048253917   0.04835957            5 
  978000   0.86752212   -4.6972684    566.40396  0.048262096  0.048336147            4 
  979000   0.85679333   -4.7061551    565.28644  0.048117675  0.048312737            8 
  980000    0.8767932   -4.7163704    566.91281  0.048206872  0.048288962            5 
  981000   0.86242829   -4.7119259    568.46589  0.048289661  0.048265414            8 
  982000   0.86811755   -4.6947606    569.51569  0.048329573  0.048242107            3 
  983000   0.86335533   -4.7432541    566.37946  0.048014535  0.048218928            7 
  984000   0.85479017   -4.6702033    569.52221  0.048231894  0.048195793           13 
  985000   0.86116519   -4.6890065    570.25473  0.048244901  0.048172938            3 
  986000    0.8349874   -4.7021353    569.12127  0.048100175  0.048149196            5 
  987000   0.84531377   -4.6843309    570.65887  0.048181263  0.048125702            3 
  988000    0.8685158   -4.6888674    569.45123  0.048030636  0.048102388           14 
  989000    0.8594275   -4.7254015    568.89235  0.047934981  0.048078801            4 
  990000    0.8880891   -4.6886714     570.7655  0.048044234  0.048055113            3 
  991000   0.86612273   -4.7112119    569.34999  0.047876723  0.048031365            5 
  992000   0.86017545   -4.6719359    570.58837   0.04793249  0.048007786            5 
  993000   0.84473682   -4.7035902    570.93246  0.047913097  0.047984516            6 
  994000   0.87666922   -4.7140231    569.21422  0.047720843  0.047961041            6 
  995000   0.86133595   -4.7035978    573.25382  0.048011207  0.047937787            3 
  996000   0.86032533   -4.7186305    572.35967  0.047888192   0.04791427            3 
  997000   0.85958914   -4.7123015    571.56359   0.04777362  0.047890837            7 
  998000   0.85271557   -4.7479023    570.88425  0.047669025  0.047867451            6 
  999000    0.8660688   -4.6942255    573.77208  0.047862202  0.047844058            5 
 1000000   0.85225894   -4.7137354    575.15269   0.04792939  0.047820989            7 
 1001000   0.84991579   -4.7232987    573.97568  0.047783523  0.047798068            5 
 1002000   0.87343864   -4.7344098    572.93259  0.047649084  0.047775082            4 
 1003000   0.87088262   -4.6885947     576.9439  0.047934853  0.047751952            6 
 1004000   0.85284336   -4.7470168    572.33767  0.047504787  0.047728585            4 
 1005000   0.86083232   -4.7322291    572.49794  0.047470808  0.047704569            5 
 1006000   0.85856931   -4.7260023     574.4945  0.047589008  0.047680962            8 
 1007000   0.85153788   -4.6883154    576.53971  0.047710999  0.047657326            4 
 1008000   0.87970027   -4.7183523    575.74295  0.047597797  0.047633657            5 
 1009000   0.85626199   -4.6856169    576.38602  0.047603735  0.047610233            3 
 1010000   0.84648196   -4.7076667    575.64385  0.047495367  0.047586622            3 
 1011000   0.85979961   -4.7423436    575.78719  0.047460204  0.047562986            4 
 1012000   0.85733167    -4.727439    575.08456  0.047355448  0.047539281            9 
 1013000   0.86759061    -4.721761    576.10679  0.047392793  0.047515235            3 
 1014000   0.85253058   -4.6872372    578.27446    0.0475242  0.047491579            5 
 1015000   0.83850199   -4.7099483    577.41469  0.047406789  0.047468057            5 
 1016000   0.85292182   -4.7075599    576.70907  0.047302253  0.047444011            8 
 1017000   0.84930475   -4.7211083    578.05681  0.047366175   0.04742015            7 
 1018000   0.84797124   -4.7155266     576.4961  0.047191888  0.047396366            4 
 1019000   0.81878633    -4.701185    579.39285   0.04738247  0.047372725           10 
 1020000   0.84652093   -4.7243461    579.47746   0.04734293  0.047349325            3 
 1021000   0.84022214   -4.7128136     579.0801  0.047264128  0.047326003            9 
 1022000   0.85489224   -4.7219746    577.69339   0.04710481  0.047302376            9 
 1023000   0.86220052     -4.72695     577.8294  0.047069844  0.047278473            6 
 1024000   0.83512103    -4.733824    578.47307  0.047076259  0.047254627            4 
 1025000   0.84490706   -4.7381138    577.99853   0.04699175  0.047230656            2 
 1026000   0.84705236   -4.7189998     578.8125  0.047012062   0.04720643           18 
 1027000   0.83156416   -4.7366296    580.20107  0.047078957  0.047182682            3 
 1028000   0.84165257   -4.7054141    582.24439  0.047198799  0.047158934            6 
 1029000   0.85220605   -4.7223846    581.13876  0.047063392  0.047135642            3 
 1030000   0.83072151   -4.7161791    582.50378  0.047128137  0.047112068            4 
 1031000   0.87499466   -4.7519779    581.98312  0.047040343  0.047088546            3 
 1032000   0.83668655   -4.7403253    582.34333  0.047023848  0.047065037            4 
 1033000   0.85996033   -4.7501376    582.66648  0.047004395  0.047041204            2 
 1034000   0.84088521   -4.7380229    583.79809  0.047050136  0.047017609            3 
 1035000   0.85821584   -4.7170719    581.75882  0.046840484  0.046993547            5 
 1036000   0.85144834   -4.7379331    583.60681   0.04694392  0.046969534            9 
 1037000   0.83571212   -4.7468412    580.73253  0.046667674  0.046945442            3 
 1038000   0.82949394   -4.7123837    583.35985  0.046833642  0.046921517            3 
 1039000   0.83022349   -4.7292234    583.75243  0.046820054  0.046897774            3 
 1040000   0.83304048   -4.7398479    584.78429  0.046857716  0.046873699            3 
 1041000   0.84607888   -4.7292456    584.82012  0.046815572  0.046849695            3 
 1042000   0.81230637   -4.7280824    583.79361  0.046688549  0.046826005            5 
 1043000   0.82657013   -4.7392077    584.33506  0.046687045   0.04680209            7 
 1044000   0.84154064   -4.7257724    584.30661  0.046640055  0.046778343            5 
 1045000   0.83934791   -4.7328075    585.50728   0.04669117  0.046754605            4 
 1046000    0.8227239   -4.7408175    586.57075  0.046731258  0.046731104            5 
 1047000   0.84104198    -4.725062     585.6895  0.046616483   0.04670684            7 
 1048000   0.84148895   -4.7435021    586.55888  0.046641132   0.04668314            7 
 1049000   0.81300484   -4.7549477    586.35349  0.046580354  0.046659187            6 
 1050000   0.83066557   -4.7660779    586.34453   0.04653528  0.046635072            7 
 1051000   0.84370314    -4.734814    587.17334  0.046556719   0.04661106            2 
 1052000   0.84135739   -4.7542346    586.55634  0.046463589  0.046587202            3 
 1053000   0.83581528   -4.7825998    583.66117  0.046190342  0.046562971            6 
 1054000   0.82502916   -4.7662215    587.99107  0.046488858  0.046538263            5 
 1055000   0.84216938   -4.7658475    584.69299   0.04618428  0.046513916            5 
 1056000   0.82801369   -4.7456612    586.34446   0.04627087  0.046489379            9 
 1057000   0.82341414   -4.7512051    586.23647   0.04621858  0.046465075            6 
 1058000   0.85365941   -4.7427456    586.71657   0.04621271  0.046440778            3 
 1059000   0.84963194   -4.7377557     587.2957  0.046214644  0.046416218            4 
 1060000   0.82652543   -4.7525134     587.9483  0.046222351  0.046391942            2 
 1061000   0.82076394   -4.7652814    587.43845  0.046138741  0.046367469            4 
 1062000   0.82241126   -4.7657078    587.10475  0.046069111  0.046343294            3 
 1063000   0.82947706   -4.7791602    587.99013  0.046095181  0.046318755           22 
 1064000    0.8321701   -4.7600954     589.7187  0.046187242  0.046294147            7 
 1065000   0.82509495   -4.7631393    587.37375  0.045960387  0.046269602            7 
 1066000   0.84109009   -4.7690823    587.50575  0.045927591  0.046245211            3 
 1067000   0.80948089   -4.7894251    586.81928  0.045830934  0.046220672            9 
 1068000   0.82990623    -4.755374     589.6658  0.046010128  0.046196056            4 
 1069000   0.82712157   -4.7607934    590.43102   0.04602674  0.046171862            4 
 1070000   0.81897577   -4.7569458    590.53714  0.045991989  0.046147718            4 
 1071000   0.84219661   -4.7664094    588.77951  0.045812286  0.046123301            6 
 1072000    0.8340612   -4.7208934    590.91614  0.045935645   0.04609892            4 
 1073000   0.82294391   -4.7500271    591.78277  0.045960141   0.04607472            6 
 1074000    0.8104273   -4.7931596     590.1934  0.045794025  0.046050473            5 
 1075000   0.82297581   -4.7509743     592.5312  0.045932651   0.04602638            6 
 1076000   0.82287213   -4.7677937      592.027  0.045850914  0.046001765            5 
 1077000   0.81932271   -4.7690353     590.9349  0.045723839  0.045977261            5 
 1078000   0.83685203   -4.8079895     589.6951  0.045585583   0.04595253            6 
 1079000   0.81268514   -4.7760986    591.86846  0.045711188  0.045928008           13 
 1080000   0.82395784   -4.7776573    592.04703  0.045682641  0.045903369            6 
 1081000   0.82477495   -4.7676601    591.61083  0.045606756  0.045878375            9 
 1082000   0.80823826   -4.7813874    592.02098  0.045596194  0.045853407            6 
 1083000   0.83337895    -4.783548    591.59391   0.04552123  0.045828498            5 
 1084000    0.8119746   -4.7971641    589.84862  0.045345066  0.045803099            4 
 1085000   0.83459613   -4.7625542    591.58094  0.045436324   0.04577787            4 
 1086000   0.79929686   -4.7761275    590.29968  0.045296169  0.045752846            3 
 1087000   0.81994913   -4.7859433    591.92429  0.045379047  0.045727292            4 
 1088000   0.82001074    -4.777785    592.41971  0.045375284   0.04570181            7 
 1089000   0.83118957   -4.7757538    593.31698  0.045402279  0.045676457            5 
 1090000   0.81386792   -4.7606504    591.54599  0.045225229  0.045651114           11 
 1091000   0.81024684    -4.770078    592.90055   0.04528724  0.045625831            4 
 1092000   0.81687192   -4.7943648    593.72864  0.045308962  0.045600642            4 
 1093000   0.83712105   -4.8084235    594.03998  0.045291246  0.045575453            5 
 1094000   0.83360165   -4.7864137    593.17088  0.045183644  0.045550535            4 
 1095000   0.81785207   -4.7646639    594.67782  0.045257064   0.04552541            7 
 1096000   0.81487665   -4.7949786    594.00443   0.04516457  0.045500684            3 
 1097000   0.82860729   -4.7735524     595.8836   0.04526615  0.045475752            6 
 1098000   0.81524584   -4.7939477    594.17137  0.045094974  0.045450848            8 
 1099000   0.82565783   -4.7871427    596.29889  0.045215263  0.045426167            4 
 1100000   0.82346036   -4.7703291    598.20863  0.045318835  0.045401589            4 
 1101000   0.82859025   -4.7740596    596.58047  0.045154441  0.045377102            7 
 1102000   0.80420085   -4.7626401    598.97417  0.045294477  0.045352444            3 
 1103000   0.80081269   -4.7921661    595.86464  0.045018483  0.045327652            3 
 1104000   0.79868063   -4.7990378    596.39225  0.045017531  0.045302976            3 
 1105000   0.82020243   -4.7909647    597.34571  0.045048696  0.045278302            3 
 1106000   0.81956655   -4.8171177    597.17602  0.044995179  0.045253533            3 
 1107000   0.78810179   -4.7819727    597.90769  0.045009612  0.045228763            3 
 1108000   0.79932103   -4.8106846    598.16454  0.044988308  0.045203918           19 
 1109000   0.80650649   -4.7840287     599.3308  0.045035377  0.045179029            2 
 1110000   0.80929141   -4.7892938     597.9372   0.04489018  0.045154362            6 
 1111000    0.8121148   -4.8091059    598.24006  0.044872492  0.045129679            3 
 1112000   0.82305917   -4.7989176    597.03929  0.044742153  0.045104795            4 
 1113000   0.79739339   -4.7919317    598.94575  0.044844695  0.045079852            5 
 1114000   0.80720716    -4.796877    599.48083  0.044844467  0.045055121            5 
 1115000   0.79662428   -4.7998923    598.95593  0.044765017  0.045030614            4 
 1116000   0.80616292   -4.7782168    598.96714  0.044725743  0.045005839            7 
 1117000   0.80279186    -4.785731    599.55309  0.044729416  0.044981074            5 
 1118000   0.80319665   -4.7887133    600.22706  0.044739644  0.044956105            8 
 1119000   0.79643335   -4.7819685    599.37226  0.044636004   0.04493096            7 
 1120000    0.8042219   -4.8030434    599.60552  0.044613506  0.044905855            9 
 1121000   0.80120655   -4.7762923    599.36131  0.044555554  0.044880579            5 
 1122000   0.81662879   -4.7987159    600.23608  0.044580814  0.044855634           10 
 1123000   0.79429067   -4.8040226    599.27375  0.044469706  0.044830587            2 
 1124000   0.80146847   -4.7846571    602.36908  0.044659629  0.044805538            5 
 1125000   0.80993721    -4.815322     600.5726  0.044486859  0.044780536            6 
 1126000   0.80948779   -4.8202388    598.55114  0.044297745  0.044755451            7 
 1127000   0.78718865   -4.8220656    601.09015  0.044446181  0.044730467            5 
 1128000    0.8028585   -4.8064029    602.62313   0.04452003   0.04470546            5 
 1129000   0.79700548   -4.8404742    601.99786  0.044434445  0.044680801           10 
 1130000   0.79366752   -4.7916131    603.56623  0.044510784  0.044656187            9 
 1131000   0.79205943   -4.7680888    603.04315  0.044432888  0.044631542            8 
 1132000   0.80742706   -4.8036168    601.32845  0.044267406   0.04460694            4 
 1133000   0.79504298   -4.8387466    601.04666  0.044207609  0.044582149            4 
 1134000   0.79968135   -4.8151735    602.74728  0.044293598  0.044557067            6 
 1135000   0.79691109   -4.8128465     603.0874  0.044279544  0.044531976            6 
 1136000   0.79926832   -4.8242953    603.86161   0.04429736  0.044507087           11 
 1137000   0.78808405   -4.8002165    604.35217  0.044294354  0.044482195            6 
 1138000   0.78937233   -4.8284856    605.88791   0.04436789  0.044457448           13 
 1139000    0.7887624   -4.8022081    606.22528   0.04435362  0.044433067            5 
 1140000   0.80898707   -4.8184836    604.14328   0.04416252  0.044408477            6 
 1141000   0.80732197   -4.7996034    605.58712  0.044229267  0.044384188            4 
 1142000   0.79423878   -4.8065879     606.1884  0.044234413  0.044359813            5 
 1143000   0.77448627   -4.8195545    604.38704   0.04406438  0.044335438           12 
 1144000   0.78491546   -4.7884676    608.71617  0.044341213  0.044311156            4 
 1145000   0.81177749   -4.8281532    607.27799  0.044197816  0.044286764            3 
 1146000   0.79334066   -4.8026053     608.4395   0.04424371  0.044262501            5 
 1147000   0.79622406   -4.8418774     607.5755  0.044142364  0.044238228            4 
 1148000   0.78477724     -4.82511    607.50346  0.044098683  0.044213784            6 
 1149000   0.79412079   -4.7944275    607.74152  0.044077569  0.044189498            3 
 1150000    0.7923506   -4.8237274    607.85919  0.044047768    0.0441651            5 
 1151000   0.80099213   -4.7902863    608.53596  0.044058497  0.044140551            9 
 1152000    0.7814948   -4.8432797    607.38651  0.043937103  0.044116115            8 
 1153000   0.79525038   -4.8230948    609.08435  0.044021708  0.044091557            9 
 1154000   0.78185013   -4.8371306    606.70245  0.043811557  0.044066991            5 
 1155000   0.80310973   -4.8491637    608.88242  0.043930911  0.044042217            8 
 1156000   0.79050075   -4.8258367    605.48139  0.043647736  0.044017464            5 
 1157000   0.80516485   -4.8043669    610.16941  0.043947667  0.043993061            5 
 1158000   0.79653426   -4.8316118    609.27755  0.043845535  0.043968597            6 
 1159000    0.8201423   -4.8295372      608.093  0.043722534  0.043944102            3 
 1160000   0.79286617   -4.8304869    609.30965  0.043772245  0.043919604           10 
 1161000     0.779584   -4.8379076     611.9042  0.043920773  0.043895495            7 
 1162000   0.78898591   -4.8197304    610.13538  0.043756123    0.0438715            4 
 1163000   0.78459515   -4.8439273    608.59309  0.043607989  0.043847109            8 
 1164000   0.78980229   -4.8354617    611.95178  0.043810981  0.043822866            4 
 1165000   0.81631131   -4.8246109    611.55082  0.043744694  0.043798413           10 
 1166000   0.79810734   -4.8312207     612.1229  0.043748063  0.043773983            3 
 1167000   0.79676151   -4.8226708    612.69171  0.043751193   0.04374972            9 
 1168000   0.80436834   -4.8358044    611.39267  0.043621052  0.043725407            4 
 1169000   0.78331689   -4.8426073    610.20023  0.043498734  0.043700868            9 
 1170000    0.7831169   -4.8531144    609.65483  0.043422709  0.043676355            4 
 1171000   0.78676359   -4.8370162    610.29657  0.043431296  0.043651841            5 
 1172000   0.78485442   -4.8510291    611.00216  0.043444409  0.043627371            5 
 1173000   0.78890842   -4.8518191    609.95801  0.043333192  0.043602851            4 
 1174000   0.79062268   -4.8358783    611.77501  0.043425256  0.043578524           16 
 1175000   0.76080921    -4.811533     614.5899  0.043587936  0.043554536            3 
 1176000   0.76919083   -4.8391909    615.20731  0.043594622  0.043530602            8 
 1177000   0.78783611   -4.8107741    613.79731  0.043457753  0.043506665            8 
 1178000   0.80591506   -4.8686012    613.12661  0.043373416  0.043482388            7 
 1179000   0.78121697   -4.8691922    611.33963  0.043210321  0.043458073            8 
 1180000   0.78555154   -4.8152481    615.03451   0.04343464  0.043433999            4 
 1181000   0.77247313   -4.8463249    613.99373  0.043324423  0.043410056            8 
 1182000   0.79573511   -4.8608944     613.2034   0.04323205  0.043385933           10 
 1183000   0.78299965   -4.8474542    615.76976  0.043376286  0.043362036            8 
 1184000   0.78717646    -4.839694    618.01255  0.043497505   0.04333804            6 
 1185000   0.77755888   -4.8592054    612.64802  0.043083546  0.043313723            8 
 1186000   0.76904796   -4.8600975    615.20019  0.043226545  0.043289339            2 
 1187000   0.77295181   -4.8573616    615.00049  0.043176109   0.04326506            8 
 1188000   0.79459651   -4.8308602    615.85237  0.043199521  0.043241027            4 
 1189000   0.77128826    -4.844753     617.2967  0.043264417  0.043217029            4 
 1190000    0.7839437   -4.8447345    616.41145  0.043166068  0.043193046            4 
 1191000   0.78437851   -4.8709983    614.99514  0.043030726  0.043169057            5 
 1192000   0.77331311   -4.8503807    618.85018  0.043264134  0.043145157            6 
 1193000   0.78580143   -4.8367951    617.94372  0.043164552  0.043121339           15 
 1194000   0.77300922   -4.8642314    619.69188   0.04325041  0.043097817            8 
 1195000   0.76934277   -4.8502162    616.23742  0.042973321  0.043074225            4 
 1196000    0.7759568   -4.8522151    619.99916  0.043199495  0.043050333            3 
 1197000    0.7931434   -4.8677112    616.29498  0.042905526  0.043026311            4 
 1198000   0.78463718   -4.8757675    617.27223   0.04293769  0.043002471            6 
 1199000   0.78108683   -4.8558995    618.05469  0.042956261  0.042978724            5 
 1200000   0.77336312     -4.87835    619.36881  0.043011723  0.042954798            4 
 1201000   0.77904904   -4.8816896    617.81094  0.042867814  0.042931095            3 
 1202000   0.77708603    -4.873588    618.82639   0.04290255  0.042907185            6 
 1203000   0.77040421   -4.8750933    619.63741  0.042923068  0.042883664           12 
 1204000   0.78075961   -4.8739223    618.64622  0.042818813  0.042860006            5 
 1205000   0.77478569   -4.8891627    619.17585  0.042819906  0.042836296           17 
 1206000   0.75195471    -4.910467    618.89087  0.042764709  0.042812459            4 
 1207000   0.76488754    -4.890812    620.23788  0.042822278  0.042788563           11 
 1208000   0.77092144   -4.8834683    620.98837  0.042838602  0.042764852            4 
 1209000   0.76116675   -4.8624362     620.7304  0.042785387  0.042741261            7 
 1210000   0.77319672   -4.8796993    622.29688  0.042857912  0.042717561            5 
 1211000   0.75682342   -4.8634306    623.40644  0.042898874  0.042694031            5 
 1212000   0.78694724   -4.8892338    619.60951  0.042602414  0.042670272            7 
 1213000   0.78536081   -4.8500852    622.29165  0.042751556  0.042646555            7 
 1214000   0.77053426   -4.8886426    621.26513  0.042645877   0.04262297           11 
 1215000   0.74779684   -4.8615563    622.67285  0.042707329  0.042599208            4 
 1216000   0.77346539   -4.8780843    622.53203  0.042662557  0.042575592            5 
 1217000   0.77173863   -4.8510621    622.07854  0.042596449  0.042552157           10 
 1218000   0.76853228   -4.8836548    622.85351  0.042614499  0.042528805            7 
 1219000   0.76172911   -4.8737875    623.17497  0.042601515  0.042505451           11 
 1220000   0.75653012   -4.8905526    623.63784  0.042598213  0.042481793            5 
 1221000   0.75795828   -4.8662464    624.04437  0.042591071  0.042458143           10 
 1222000    0.7609884   -4.8715425    623.39138  0.042511687  0.042434648            6 
 1223000   0.75655973   -4.9079389    621.70662   0.04236213  0.042411025            4 
 1224000   0.75881455   -4.9055593    622.92236  0.042410291  0.042387191            5 
 1225000   0.75699391   -4.8982861    622.52176  0.042348419  0.042363691            3 
 1226000   0.76439346   -4.9054587    622.29075  0.042298175  0.042339985            8 
 1227000   0.76930204   -4.8981771    623.04099  0.042314656  0.042316186            9 
 1228000   0.75659024   -4.8830501    622.27567  0.042228262  0.042292561            7 
 1229000   0.75817528    -4.897357     623.3427  0.042266253  0.042268849            7 
 1230000   0.76293723   -4.9046691    623.46267  0.042240018  0.042245275            4 
 1231000   0.75272658   -4.8842894     624.1455  0.042251929  0.042221486            8 
 1232000   0.75456877   -4.8762135     625.2885  0.042294947  0.042197627            8 
 1233000   0.77534269   -4.8969978    624.72131  0.042222311  0.042173894            5 
 1234000   0.77014897   -4.8852411    623.12666  0.042080406  0.042150186            8 
 1235000   0.77378722   -4.8936034    623.77782  0.042090271  0.042126689            8 
 1236000   0.76998956   -4.8941477    625.46581  0.042170025  0.042102864            6 
 1237000   0.75656493   -4.8997004    623.17939  0.041981904  0.042079044            8 
 1238000   0.77315838   -4.8629184    625.70108  0.042117735   0.04205527            9 
 1239000   0.76558964   -4.8871141    624.68892  0.042015666  0.042031494           12 
 1240000   0.76643319   -4.8723672    625.32687  0.042024656  0.042007745            3 
 1241000   0.75723564   -4.9101565    624.75365    0.0419523  0.041983789           12 
 1242000   0.75490239   -4.9034432    626.20601  0.042015969  0.041960051           10 
 1243000   0.73623942   -4.8878715    624.88882   0.04189386  0.041936059            9 
 1244000   0.77361512   -4.9268682    625.91974  0.041929243   0.04191222            8 
 1245000   0.75953838   -4.9161556    626.20661  0.041914766  0.041888404            3 
 1246000   0.75436966   -4.9162829    625.28164  0.041819265  0.041864513           16 
 1247000   0.75978452   -4.9196615    626.26644   0.04185154  0.041840563            8 
 1248000   0.75928391   -4.8997864     626.0851  0.041805896  0.041816444           11 
 1249000   0.74443362   -4.9231268    626.75975  0.041817437   0.04179235            5 
 1250000   0.74866252    -4.900857    625.68106  0.041712071  0.041768501            7 
 1251000   0.76284026   -4.8707829     627.2707  0.041784619  0.041744601            5 
 1252000   0.75331011   -4.8759126    627.82873  0.041788387  0.041720923            5 
 1253000   0.75205584   -4.9218067    625.51218   0.04160097  0.041696973            4 
 1254000   0.76178794   -4.9173468    627.24708  0.041683086  0.041672923            5 
 1255000   0.76069741   -4.9156252    628.66114  0.041743768  0.041649084            5 
 1256000   0.76045767   -4.9374405    625.86575  0.041525063  0.041625059            5 
 1257000   0.76210519   -4.9176621    627.65864  0.041610889  0.041601011            5 
 1258000   0.73121304   -4.9175703     626.5864  0.041506783  0.041577178            6 
 1259000   0.74632849    -4.904105    627.16773  0.041512293  0.041553105            7 
 1260000    0.7535551   -4.9391755    626.77544  0.041453402   0.04152904            5 
 1261000   0.75446175   -4.9110274    628.46708  0.041532321  0.041504966            7 
 1262000   0.73905012   -4.9451304     626.2807  0.041355038  0.041480792            5 
 1263000    0.7640095   -4.9259896    627.99435  0.041435363  0.041456805            5 
 1264000    0.7458114   -4.9275972    626.95765  0.041334233  0.041432793            9 
 1265000   0.75047493   -4.9397559    627.08474   0.04130993  0.041408759           10 
 1266000   0.75358229   -4.9102277    627.72678  0.041319561  0.041384832            5 
 1267000   0.74256007   -4.9333762    628.99127  0.041370118  0.041360808            4 
 1268000   0.73912226   -4.9275145    626.58972  0.041179661  0.041336722            5 
 1269000   0.73977417   -4.9268072     627.3205    0.0411952  0.041312552           10 
 1270000    0.7350304   -4.9102056    628.93855  0.041268934  0.041288512           11 
 1271000   0.74912329   -4.9201336    629.05165  0.041243879  0.041264512            6 
 1272000   0.75671464    -4.902873    630.39612  0.041299536   0.04124065            5 
 1273000   0.71280195   -4.9191383    629.70265  0.041221697  0.041216533            6 
 1274000   0.74092068   -4.9312111    629.09482  0.041149583  0.041192901            5 
 1275000   0.74117869   -4.9502413    627.55372  0.041016583  0.041168996            9 
 1276000   0.74759285    -4.933284    630.25228  0.041160676  0.041144954            6 
 1277000   0.74530895   -4.9381931    628.89573  0.041039919  0.041121056            5 
 1278000   0.75307354   -4.9206257    631.19537  0.041157758   0.04109733            7 
 1279000   0.75443535   -4.9314675    629.69038   0.04102752  0.041073444            5 
 1280000   0.72780597   -4.9297211    630.09388  0.041021737  0.041049787            5 
 1281000   0.73296588   -4.9373395    630.14389  0.040992967   0.04102598            7 
 1282000   0.73619507   -4.9398996    630.58912  0.040989933  0.041002093            5 
 1283000   0.74648585   -4.9085658    631.09696  0.040990969  0.040978305            5 
 1284000   0.74388422   -4.9314202    631.20708  0.040966192  0.040954594            5 
 1285000   0.74900299   -4.9114545    632.11802  0.040993387  0.040930889            6 
 1286000   0.75624374   -4.9440391    631.39233  0.040914485  0.040907064            8 
 1287000   0.74593067   -4.9430082    632.01493  0.040923008  0.040883079            5 
 1288000   0.74972727   -4.9682326    632.16075   0.04090067  0.040859283            9 
 1289000   0.74166988   -4.9422666    633.16081  0.040933593  0.040835531            4 
 1290000   0.74217337    -4.931372    632.71351  0.040872966  0.040811903            8 
 1291000   0.73977638   -4.9492221    631.81159  0.040783088   0.04078806            4 
 1292000   0.75298507   -4.9331265    632.88223  0.040820577  0.040764134           10 
 1293000   0.73747921   -4.9464733    631.71412  0.040713723  0.040740166            5 
 1294000   0.72606869   -4.9396958    632.27141  0.040718149  0.040716423            5 
 1295000   0.71809555   -4.9280556    634.12076  0.040805712  0.040692939            6 
 1296000   0.73560172   -4.9367558    633.07102  0.040706727  0.040669249            5 
 1297000   0.72878342   -4.9662109    632.71094  0.040652206  0.040645519            8 
 1298000   0.73350354   -4.9436057    634.03973  0.040706198  0.040621756            5 
 1299000   0.74560824   -4.9486782    634.93352  0.040732199   0.04059817            7 
 1300000   0.73559492   -4.9521345    631.44084  0.040476977  0.040574531           10 
 1301000    0.7338831    -4.922164    636.31592   0.04075813  0.040550884            4 
 1302000   0.73354881   -4.9691458    631.37098  0.040410329   0.04052718            5 
 1303000   0.71734609   -4.9056383    635.95494  0.040672483  0.040503654            8 
 1304000   0.73491442   -4.9702919    635.48964  0.040611557  0.040480161            6 
 1305000   0.74802707   -4.9751358     633.8707  0.040477056  0.040456449           19 
 1306000   0.73482115   -4.9390831    633.98654  0.040453455   0.04043273            6 
 1307000   0.71399582     -4.98556      634.324  0.040444019  0.040409285            9 
 1308000   0.72421884   -4.9491202    635.93851   0.04051596  0.040385643            5 
 1309000    0.7456088   -4.9563555    635.48036  0.040455842  0.040362093            8 
 1310000   0.72052171   -4.9849905    634.96907  0.040392434  0.040338556            6 
 1311000   0.73258562   -4.9582771    635.64266   0.04040444  0.040315042            6 
 1312000    0.7248864     -4.96227    635.41586  0.040359239  0.040291861           14 
 1313000   0.72998832   -4.9464927    636.40349  0.040391184  0.040268572            9 
 1314000   0.72635802    -4.949131    635.77769  0.040320756  0.040245151            8 
 1315000   0.74322679   -4.9388724    637.16173  0.040377803  0.040221934            8 
 1316000   0.72732972    -4.963762    637.36497  0.040359991  0.040198393            6 
 1317000   0.73802916   -4.9512899    636.59127  0.040280389  0.040174957            7 
 1318000   0.70469971   -4.9455654    638.54055  0.040373075  0.040151612            6 
 1319000   0.73508431   -4.9936637     634.8358  0.040108403  0.040127975            4 
 1320000   0.71771124   -4.9650574    637.45723  0.040243512  0.040104275            4 
 1321000    0.7128629   -4.9836965    635.44375   0.04008603  0.040080585            8 
 1322000   0.74825365   -4.9305078     638.1705  0.040227591  0.040056941            8 
 1323000   0.72169338   -4.9481665    637.67827   0.04016618  0.040033312            6 
 1324000   0.72226255   -4.9910238    635.84794  0.040020641  0.040009457            7 
 1325000   0.72506386   -4.9599995    635.75908  0.039984848  0.039985754            6 
 1326000   0.72267068   -4.9857581    636.68906  0.040013139  0.039962195           11 
 1327000   0.73754212   -4.9835661    634.65218  0.039855073  0.039938453            7 
 1328000   0.71184627   -5.0014494    636.71321  0.039954393  0.039914827            6 
 1329000   0.72173559   -4.9724794    636.62214  0.039918619  0.039891158           12 
 1330000      0.73717   -4.9458706    637.40078  0.039937392  0.039867697            9 
 1331000   0.70225905   -4.9671861    637.17533  0.039893271  0.039844138           11 
 1332000    0.7161836   -4.9732381    637.33605  0.039873376  0.039820695            3 
 1333000    0.7397423   -4.9790961    637.26834  0.039839231   0.03979728           16 
 1334000   0.73355498   -4.9786683    638.35046  0.039876965  0.039773858            7 
 1335000   0.70775936   -4.9917471    636.79153  0.039749784  0.039750266            7 
 1336000   0.73958942   -4.9701891    639.14517   0.03986684  0.039726787           16 
 1337000   0.72150304    -4.983659    638.35034  0.039787481  0.039703133            5 
 1338000    0.7239197   -4.9642469    638.56793  0.039771296  0.039679648           22 
 1339000   0.71927145   -4.9945961    639.11566  0.039775682  0.039656286           11 
 1340000   0.72180666   -4.9907017    637.80774   0.03966466  0.039632712            9 
 1341000   0.70053821   -5.0010856    639.01303  0.039709982  0.039609109           11 
 1342000   0.71493795   -5.0036743    638.56609  0.039652638  0.039585547           10 
 1343000   0.71093178   -4.9769834    637.00838  0.039526457  0.039562024            5 
 1344000   0.71907878   -4.9643615    639.81266  0.039670924  0.039538657           12 
 1345000   0.72276051   -5.0004933    637.28988  0.039485123  0.039515124            3 
 1346000   0.70863756   -4.9716468    638.89722  0.039555301   0.03949157            3 
 1347000   0.70804022    -4.976682    639.23942  0.039547106  0.039467949            8 
 1348000   0.70881411   -5.0041959     638.9874  0.039502188  0.039444353           12 
 1349000   0.72668168   -5.0021188    636.01694  0.039289408  0.039420514           11 
 1350000   0.71586945   -5.0087535    637.43373  0.039347761  0.039396631            9 
 1351000   0.70920396   -4.9723761    638.19164  0.039365386  0.039372877           10 
 1352000   0.72683121    -4.991875    640.46727  0.039476533  0.039348965            5 
 1353000    0.7282922   -4.9992089    637.44642  0.039261297  0.039325192            7 
 1354000   0.73096878    -4.999614    638.01476   0.03926728  0.039301317           18 
 1355000   0.71075481   -4.9809922    639.76132  0.039345715   0.03927742            5 
 1356000   0.71315912    -4.981877    640.87995  0.039385444  0.039253729            8 
 1357000   0.71491615   -4.9861498    639.58857  0.039277116  0.039230073            4 
 1358000   0.71226546   -4.9922521    640.58725  0.039309478  0.039206408           14 
 1359000   0.71482752   -5.0071171     639.2583  0.039199062  0.039182789            5 
 1360000   0.71968996   -5.0189607     639.2787  0.039171489  0.039159055            6 
 1361000    0.7113243   -4.9641511    643.11411  0.039377548  0.039135462           18 
 1362000   0.70899345   -4.9957007     640.1874  0.039169567  0.039111903           16 
 1363000   0.71257396   -5.0130521    640.14515  0.039138246  0.039088285           10 
 1364000   0.70979157   -5.0034535    639.85054  0.039091553  0.039064892           10 
 1365000   0.69167887    -5.005497    641.90699  0.039188461  0.039041624            8 
 1366000    0.6968113   -5.0312282    639.38819  0.039006112  0.039018015            9 
 1367000   0.70611852   -4.9986299    641.82554   0.03912616  0.038994423            7 
 1368000   0.71336315    -5.015528    640.02307   0.03898776  0.038970859            6 
 1369000   0.70532394   -5.0348306    641.05933   0.03902236  0.038947156            6 
 1370000   0.71162209   -5.0138185    640.89902  0.038984125   0.03892356            3 
 1371000    0.7059123   -4.9978272     642.2174  0.039035825  0.038900128            7 
 1372000   0.70619568   -5.0206695    642.02861  0.038995907  0.038876775           15 
 1373000   0.68924606   -5.0211835    640.67094  0.038885102  0.038853249           20 
 1374000   0.70869959   -4.9853783     642.4506  0.038964738  0.038829964            7 
 1375000   0.70394822   -5.0114126    643.22542  0.038983359  0.038806665           10 
 1376000   0.69763943   -5.0145168    642.15717  0.038890332   0.03878343            9 
 1377000   0.70155645   -5.0332489    641.51301  0.038823107   0.03875999           11 
 1378000   0.71532739   -5.0085396    641.53907  0.038796509  0.038736569            7 
 1379000   0.68831839   -4.9752305    642.44038  0.038822841  0.038713443            5 
 1380000   0.68852342   -5.0113987    642.26792  0.038784295  0.038690265            8 
 1381000   0.69285321   -5.0053389     643.5274  0.038832211  0.038666828            5 
 1382000   0.71783467   -4.9885396    643.98281  0.038831573  0.038643371            4 
 1383000   0.70734702   -5.0198957    641.79102  0.038671428  0.038619867            8 
 1384000   0.71794797     -5.03463    644.03098  0.038778358  0.038596208            4 
 1385000   0.70836875   -5.0344797    642.30553  0.038646542  0.038572697           10 
 1386000   0.70243144   -5.0340235    643.28069   0.03867729  0.038549341            4 
 1387000   0.70478102   -5.0029735    643.31265  0.038651325  0.038526006            4 
 1388000   0.69608825   -4.9978136    644.42871  0.038690485  0.038502729            5 
 1389000   0.71063488   -5.0334751    642.95683  0.038574324  0.038479398            6 
 1390000   0.69482396   -5.0271372    643.79341  0.038596727  0.038456045            5 
 1391000   0.71237113   -4.9966887    644.48943  0.038610678  0.038432814            3 
 1392000   0.68449129   -5.0312241    643.01107  0.038494437  0.038409515            5 
 1393000   0.69989433   -5.0196179    645.21018   0.03859836  0.038386207            7 
 1394000   0.70887323   -5.0022198    643.36372  0.038460289  0.038363019            9 
 1395000   0.69055017   -5.0128091    645.07412  0.038534893  0.038339813            6 
 1396000   0.68832784   -5.0546259    643.05234  0.038386601  0.038316535            8 
 1397000   0.68566301   -5.0533006    643.67307   0.03839615  0.038293133            7 
 1398000    0.7080804   -5.0364818    644.65067  0.038426959  0.038269647            7 
 1399000   0.69919741   -5.0174732    644.59052  0.038395909  0.038246057            8 
 1400000   0.69075318   -5.0472983    644.17316  0.038343641  0.038222478            5 
 1401000    0.6941648   -5.0303128    645.38114  0.038388124  0.038198761           12 
 1402000   0.70797337   -5.0382625    642.63667  0.038197614  0.038175283            7 
 1403000   0.69491035   -5.0499075    641.89954  0.038126606  0.038151749           10 
 1404000   0.68228927   -5.0481992    643.96159  0.038221842  0.038128137           10 
 1405000   0.69540438   -5.0429961    644.70235  0.038238574  0.038104578           11 
 1406000   0.68681835   -5.0425319    644.99109   0.03822849  0.038081079            6 
 1407000   0.69121734   -5.0588591    644.64017  0.038180536   0.03805771            9 
 1408000   0.70633905   -5.0390897     646.7295  0.038277077  0.038034551           13 
 1409000    0.6962182   -5.0404428    644.91311  0.038142484  0.038011341            6 
 1410000   0.69003529   -5.0569082    645.99118  0.038179148  0.037988137           15 
 1411000   0.69389408   -5.0325491    646.94877  0.038208644   0.03796518           15 
 1412000   0.70691004   -5.0519813    646.17381  0.038135848  0.037942186            7 
 1413000    0.6698923   -5.0219305    647.14948    0.0381664  0.037919182            4 
 1414000   0.68701524   -5.0459517    646.89352  0.038124323  0.037896316            6 
 1415000   0.69347464   -5.0495218    648.25484  0.038177552  0.037873298           10 
 1416000   0.67980953     -5.05374    645.88492  0.038011118  0.037850333            7 
 1417000   0.69961539   -5.0524525    647.41788  0.038074446  0.037827436           10 
 1418000   0.67861418   -5.0602153    647.23488  0.038036841  0.037804389           16 
 1419000   0.68925861   -5.0260544    647.62734  0.038033083  0.037781448           15 
 1420000   0.68856685   -5.0681302     646.2308  0.037924343  0.037758561           13 
 1421000   0.70207059   -5.0432192    646.64338   0.03792185  0.037735612            6 
 1422000   0.69880373   -5.0807496    647.32525  0.037935142  0.037712654           11 
 1423000   0.69309498   -5.0633888    647.98288  0.037946994   0.03768985           15 
 1424000   0.68077285   -5.0421631    649.45409  0.038006442  0.037667067            6 
 1425000    0.6797261   -5.0524689    647.55714  0.037868838  0.037644282           10 
 1426000   0.69589825   -5.0341364    649.14794  0.037935246  0.037621673            9 
 1427000   0.68175308   -5.0520312    648.14425   0.03785005  0.037598833           30 
 1428000   0.69525106   -5.0599375    647.81389  0.037804265  0.037576047           11 
 1429000   0.68012145   -5.0674619    649.08826  0.037852126  0.037553287            8 
 1430000    0.6849812   -5.0545545    648.58259  0.037796188  0.037530553            9 
 1431000   0.69080307   -5.0702405    648.28735  0.037752583   0.03750784           19 
 1432000   0.68698398   -5.0844015    649.97279  0.037824301  0.037485097           28 
 1433000   0.68277417   -5.0698188    648.84746  0.037732464  0.037462306           10 
 1434000   0.68756131   -5.0751273    648.37379  0.037678625  0.037439361           11 
 1435000   0.67320251   -5.0608411    648.89575   0.03768268  0.037416624            8 
 1436000   0.66937699   -5.0497376    649.75749  0.037706447  0.037393834           13 
 1437000   0.67422695   -5.0683854    649.83823  0.037684889  0.037371278            9 
 1438000   0.67326223   -5.0340042    650.05223  0.037671084   0.03734862            4 
 1439000    0.6793047   -5.0723599     650.6586  0.037680021   0.03732601            7 
 1440000   0.68730536   -5.0760185    648.87109   0.03755041  0.037303372            8 
 1441000   0.67437881   -5.0743014    648.39905  0.037497053  0.037280586            8 
 1442000   0.67792416   -5.0718441    650.27364  0.037579383  0.037257903            6 
 1443000   0.68331177   -5.0967849     648.8725  0.037472424  0.037235089            7 
 1444000    0.6874547   -5.0725409    648.36753  0.037417332   0.03721224            6 
 1445000   0.67282946   -5.0705495    649.32029  0.037446384  0.037189307            6 
 1446000   0.67743584   -5.0719564    650.79618  0.037505543  0.037166613            9 
 1447000   0.68254523   -5.0429561    649.87974  0.037426845  0.037143998            6 
 1448000     0.687022    -5.074458    650.03256  0.037409793  0.037121354           11 
 1449000   0.66952544   -5.0966421    649.50322  0.037353532   0.03709864           13 
 1450000   0.66597707   -5.0811891    649.82392  0.037346202  0.037075868            8 
 1451000   0.66390462   -5.0728185    648.91391  0.037268201  0.037053154           18 
 1452000   0.67360258   -5.0690993     650.6603  0.037342763  0.037030563            5 
 1453000   0.66843995    -5.079273    651.65761  0.037374261  0.037007886            6 
 1454000   0.67647937   -5.0802624    650.46946   0.03728046  0.036985192            7 
 1455000   0.67341003   -5.0726613     650.6829  0.037267062  0.036962561            6 
 1456000   0.67555121   -5.0877764    650.26865  0.037217757  0.036939865           29 
 1457000   0.67312732   -5.0932396    650.20577  0.037188616  0.036917233            4 
 1458000   0.67662405    -5.083791    651.09903  0.037214165  0.036894748            3 
 1459000   0.67640369   -5.0635428    650.37211  0.037147139  0.036872173            5 
 1460000   0.64983033   -5.0897826     649.4196  0.037067329  0.036849545            5 
 1461000   0.68090152   -5.0654484    651.59681  0.037166143  0.036826884           14 
 1462000   0.67189693   -5.0925462    650.72411  0.037090977  0.036804195           17 
 1463000   0.66815699   -5.0976112    648.94188  0.036964108  0.036781495           69 
 1464000   0.67503243    -5.102352    649.12859  0.036949487  0.036758682            7 
 1465000   0.68347882   -5.0978404     650.3395  0.036993145  0.036735988            5 
 1466000     0.680354     -5.08856    652.46344  0.037088645  0.036713465           10 
 1467000   0.67054969   -5.0741759    652.27919  0.037052896  0.036691048            6 
 1468000   0.66268588   -5.0800229    651.81658  0.037001395   0.03666861            9 
 1469000   0.65737033   -5.0729413     652.5628  0.037018539  0.036646229            6 
 1470000   0.64630993   -5.0983173    651.17712  0.036914803  0.036623782           11 
 1471000   0.65041008   -5.1138066     650.3151  0.036840873   0.03660111            9 
 1472000   0.66205723   -5.1175516    650.47462  0.036824876   0.03657829            6 
 1473000   0.66393204   -5.0973613    652.38908  0.036908185  0.036555479           11 
 1474000    0.6536338   -5.1089238    651.92631  0.036856983  0.036532863            8 
 1475000   0.64429471   -5.1234554    651.46447  0.036805902  0.036510311            6 
 1476000   0.66324939   -5.0931473    650.53697    0.0367286  0.036487828           24 
 1477000    0.6595663   -5.1075358    651.05595  0.036733014  0.036465175            9 
 1478000   0.68046213   -5.1031791    652.01869  0.036762443  0.036442567           20 
 1479000   0.65069184   -5.1154031     653.1186  0.036799561  0.036419944           13 
 1480000   0.65683485   -5.1246904     651.1396  0.036663266  0.036397376           11 
 1481000   0.67194958   -5.0978415    654.14461  0.036807597  0.036374829           12 
 1482000   0.67848637   -5.0999501    653.67904  0.036756581  0.036352493           11 
 1483000    0.6552971   -5.1084432    651.78265  0.036625233  0.036330028           11 
 1484000   0.64578561   -5.1127922    652.94774  0.036665978  0.036307442           10 
 1485000   0.66169381   -5.0838116    651.86815  0.036580704  0.036285057           11 
 1486000   0.65304451   -5.1092405    653.14482  0.036627682  0.036262747           12 
 1487000   0.66221007   -5.1094946    652.40083  0.036561356  0.036240373            8 
 1488000   0.64615044   -5.1113774    653.90314  0.036620919  0.036217986           16 
 1489000   0.64173355   -5.0869753    654.13946  0.036609551  0.036195544           14 
 1490000   0.64256194   -5.0901682    652.54693  0.036495913  0.036173153           18 
 1491000   0.63745798   -5.1107915     652.6382  0.036476537  0.036150613           12 
 1492000   0.66652911   -5.0862246    653.40659  0.036495006  0.036128218           20 
 1493000   0.66361965    -5.108568    653.37805  0.036468969  0.036105879           11 
 1494000   0.67433523   -5.0998641    652.57194  0.036399595  0.036083351            7 
 1495000   0.65511242   -5.1002289    653.04122  0.036401406  0.036060973            9 
 1496000   0.63916663   -5.0843958    655.00153   0.03648627   0.03603859           11 
 1497000   0.66327189   -5.1173712    652.78893  0.036338729  0.036016185            9 
 1498000   0.63525854   -5.1136815    653.60631  0.036359942  0.035993778            6 
 1499000   0.67454617   -5.1256786    652.20407  0.036257731  0.035971308            7 
 1500000   0.65055364   -5.0999622    653.75057  0.036319476   0.03594902           10 
 1501000   0.65442135   -5.1169544    655.00764   0.03636507    0.0359266           30 
 1502000   0.65696051   -5.1192089    653.19655  0.036240377  0.035904128            6 
 1503000   0.65621385   -5.1326757     652.9682  0.036203604  0.035881525           10 
 1504000   0.64457314   -5.1483575    651.97764  0.036124647  0.035858891            7 
 1505000   0.65821496    -5.117423    652.85297  0.036149112  0.035836241            7 
 1506000   0.66790952   -5.1253643    654.18333  0.036198724  0.035813723           14 
 1507000   0.63826001   -5.1365011    652.23281  0.036066844  0.035791208           15 
 1508000   0.65276237   -5.1319071    652.82298   0.03607554  0.035768714           11 
 1509000   0.65360757   -5.1045462    653.69054  0.036099544  0.035746359            9 
 1510000   0.65545606   -5.1440868    653.62636  0.036072095  0.035723903           16 
 1511000   0.64938867   -5.1253896    654.04837  0.036071496  0.035701378           10 
 1512000   0.63977678   -5.1079492    652.20104  0.035945825  0.035678952           10 
 1513000   0.64017124   -5.1530154    652.81004  0.035955609  0.035656518           10 
 1514000   0.65234297   -5.1582916    651.72208  0.035871977  0.035634102           20 
 1515000   0.64233587   -5.1676348    652.53503  0.035893016  0.035611593            9 
 1516000    0.6476166   -5.1447395    653.71059  0.035933959  0.035589143           10 
 1517000   0.65086211   -5.1395975    655.24513  0.035994569  0.035566643           20 
 1518000   0.64485223   -5.1313443    655.41351    0.0359801  0.035544358           14 
 1519000   0.65169579   -5.1261117    652.49577  0.035796345  0.035522136            9 
 1520000   0.65017505   -5.1150792    654.36657   0.03587536  0.035499971            7 
 1521000   0.64222811   -5.1358227    653.98597  0.035830921  0.035477748            8 
 1522000   0.63606203   -5.1310644    655.13891  0.035870505  0.035455558           10 
 1523000   0.64294033   -5.1031425    655.74929  0.035880351  0.035433547           10 
 1524000   0.63912364   -5.1474957    654.46246  0.035786443  0.035411409           13 
 1525000   0.65007975   -5.1324624    655.15434  0.035800783  0.035389157           24 
 1526000   0.63399853   -5.1458613    654.19807  0.035725102  0.035367076           13 
 1527000    0.6511287   -5.1464585    653.78743  0.035679296  0.035345009            6 
 1528000   0.65083007   -5.1332944    654.55121  0.035697601  0.035322949            8 
 1529000   0.63649545   -5.1552962    653.57311  0.035620946  0.035300655           13 
 1530000   0.63787314   -5.1597266    654.41339  0.035643431  0.035278421            6 
 1531000   0.64427814   -5.1309622    655.82156  0.035696797  0.035256187           10 
 1532000   0.65136686    -5.153704    655.05367  0.035631727  0.035234057            4 
 1533000   0.64881979   -5.1497828    655.64465  0.035640609  0.035211962           11 
 1534000   0.63412573   -5.1367161    658.39714  0.035766902  0.035189929           17 
 1535000   0.62920088   -5.1486241    655.68701  0.035596472  0.035167863           15 
 1536000   0.64019528   -5.1503317    654.74136  0.035521992  0.035145747            9 
 1537000   0.62776241   -5.1664187    656.07845  0.035571376  0.035123783            6 
 1538000   0.64663356   -5.1465379    655.34604  0.035508563  0.035101696            7 
 1539000   0.64115019   -5.1324396     655.9319  0.035517214  0.035079737           10 
 1540000   0.63774412   -5.1634974    656.23517  0.035510561  0.035057645            9 
 1541000   0.63024752   -5.1776594    655.94477  0.035471813  0.035035599           16 
 1542000   0.61743459   -5.1728116       655.35  0.035416667  0.035013553           11 
 1543000   0.62055395   -5.1535053    656.52727  0.035457295  0.034991602            8 
 1544000   0.64395237   -5.1791722    656.64438  0.035440651  0.034969598            7 
 1545000   0.65629422   -5.1341434    656.24318  0.035396072   0.03494762           11 
 1546000   0.62783959   -5.1598304    656.65184  0.035395205  0.034925528           13 
 1547000      0.64268   -5.1589896    656.50428  0.035364376  0.034903614           10 
 1548000   0.62096854   -5.1424992    656.24766  0.035327716  0.034881539           15 
 1549000    0.6460857   -5.1810921    658.08835  0.035403935  0.034859578            6 
 1550000   0.63201187   -5.1770163    655.92572  0.035264824  0.034837577           19 
 1551000   0.64000226   -5.1609722    656.63085  0.035279972  0.034815501           13 
 1552000   0.63763254   -5.1637422    655.28316  0.035184877  0.034793453            7 
 1553000   0.61695059   -5.1507614    658.56291  0.035338211   0.03477141            9 
 1554000   0.63232271   -5.1562782    655.83906  0.035169405  0.034749482            4 
 1555000   0.63056456   -5.1646473    655.16541  0.035110687  0.034727531           23 
 1556000   0.61871863   -5.1698749    656.92843  0.035182542  0.034705668           15 
 1557000   0.62198792   -5.1657659    655.77054  0.035097974  0.034683709           10 
 1558000   0.63917761   -5.1763063     656.6548  0.035122743   0.03466189           13 
 1559000   0.62855804   -5.1572996    657.13936  0.035126115  0.034640263           14 
 1560000   0.63023884   -5.1686617     658.3277  0.035167078  0.034618513           10 
 1561000   0.63398843   -5.1809148    657.12103  0.035080132  0.034596828           10 
 1562000   0.63877347   -5.1656944    656.83272  0.035042292  0.034575074            8 
 1563000   0.62734719   -5.1874802    657.17991  0.035038383  0.034553373            7 
 1564000   0.63772144   -5.1846303     656.3561  0.034972086  0.034531565           13 
 1565000   0.62633863   -5.1680545    656.81176  0.034974002  0.034509852            5 
 1566000   0.63515911   -5.1742646    655.77231  0.034896355  0.034488091            7 
 1567000   0.63071282   -5.1650737    657.69919  0.034976557  0.034466359           12 
 1568000   0.62069678    -5.180819    657.13744  0.034924396  0.034444646            8 
 1569000    0.6319659   -5.1846275    659.20065  0.035011719   0.03442291            6 
 1570000   0.62888883   -5.1838016    657.62121  0.034905584  0.034401245           11 
 1571000   0.62060602   -5.1823651     657.7386  0.034889593   0.03437946            6 
 1572000   0.61672088   -5.1769626    658.09123  0.034886091  0.034357565            6 
 1573000   0.61781504   -5.1727974     657.2737  0.034820603  0.034335783           10 
 1574000   0.62176794   -5.1868558    657.58017  0.034814706  0.034313894            6 
 1575000   0.63593444   -5.2070337    655.83106  0.034700056  0.034291968           29 
 1576000    0.6300579   -5.1728424     656.0618  0.034690239  0.034270089            7 
 1577000   0.62770776   -5.2222654    656.57521  0.034695371  0.034248188           11 
 1578000   0.62147012   -5.1887673    657.22289  0.034707588  0.034226294           14 
 1579000   0.61652225   -5.1772922    657.64581  0.034707927  0.034204483           18 
 1580000   0.62641999   -5.1813193    655.23541   0.03455883  0.034182634           25 
 1581000    0.6214399   -5.1757815    658.68649  0.034718875  0.034160787           21 
 1582000   0.62279419    -5.174119     656.6916  0.034591846  0.034139018           23 
 1583000   0.61966953   -5.1927173    657.12184  0.034592643  0.034117109            7 
 1584000   0.61494226   -5.2044934    656.07218  0.034515582  0.034095131           32 
 1585000    0.6175517   -5.1980991    657.21593   0.03455394  0.034073095           13 
 1586000   0.61535176     -5.18611    656.42091   0.03449038  0.034051163           20 
 1587000   0.61515133   -5.1922501    654.75322  0.034381076  0.034029221           19 
 1588000   0.61851777   -5.2049706    657.28175  0.034492115  0.034007198           12 
 1589000    0.6242764   -5.1911417    658.01044  0.034508624  0.033985259            9 
 1590000    0.6258077   -5.2102578    655.57516  0.034359285   0.03396328           11 
 1591000   0.62225413   -5.2030892    657.03813  0.034414316  0.033941281           11 
 1592000   0.61949911   -5.1599272    658.61915  0.034475458  0.033919496           11 
 1593000   0.61726164   -5.1897908    656.44693  0.034340183  0.033897742           10 
 1594000   0.62309382   -5.2031418     656.5032  0.034321581  0.033875856           13 
 1595000   0.60480116   -5.1970934    658.18511  0.034387937  0.033853948            8 
 1596000   0.61217894   -5.1945234    655.44734  0.034223441  0.033832027           13 
 1597000   0.61958401   -5.1716997    657.08033  0.034287223  0.033810178           13 
 1598000   0.62124763   -5.2057518    657.50076  0.034287691  0.033788416           14 
 1599000    0.5966968   -5.2218242    656.10651  0.034193585  0.033766559            9 
 1600000   0.61911333   -5.2009014    657.75996  0.034258331  0.033744785           13 
 1601000   0.60882602   -5.1942516    657.68322  0.034232939  0.033723012           13 
 1602000   0.60820122    -5.203506    655.36456  0.034090957  0.033701322           26 
 1603000   0.62738272   -5.2164556    657.48601  0.034179976  0.033679593            6 
 1604000    0.6166586   -5.2185062    659.06764  0.034240838  0.033657798           17 
 1605000     0.613163   -5.1919035    659.16338  0.034224474  0.033636094           18 
 1606000   0.61115036   -5.1956182    656.68181  0.034074399  0.033614481           15 
 1607000   0.61152089   -5.2056696    658.60793  0.034153077  0.033592818           11 
 1608000   0.60459955   -5.2087926    659.44138   0.03417503  0.033571276           23 
 1609000   0.60532138   -5.2097449    659.18201  0.034140357  0.033549752            9 
 1610000   0.61533844   -5.2338851    656.99111  0.034005751  0.033528062            9 
 1611000   0.60156801   -5.2048953    659.38624  0.034108537  0.033506462           11 
 1612000    0.5999674   -5.2272256    657.75416  0.034003006  0.033484916           16 
 1613000   0.61027262   -5.2394052     656.4025  0.033912094  0.033463382           11 
 1614000   0.62327134   -5.2077342     657.8291  0.033964741  0.033441821           10 
 1615000   0.60364293   -5.2125165    660.49524  0.034081282  0.033420339           14 
 1616000   0.61601304   -5.2080827    659.21372  0.033994107  0.033399018           14 
 1617000   0.62273437   -5.2373054    659.27401  0.033976191  0.033377648           18 
 1618000   0.60790198   -5.2083557    659.86517  0.033985639  0.033356222           12 
 1619000   0.60024739   -5.2122908    660.36477  0.033990363  0.033334947           20 
 1620000   0.60962614   -5.2005512    659.05061   0.03390178  0.033313684            6 
 1621000   0.60966733   -5.2328099    658.74327  0.033865067  0.033292309           11 
 1622000   0.60982977   -5.2125308    659.16735  0.033865975  0.033270921           13 
 1623000   0.61040184   -5.2278705    660.07752  0.033891842  0.033249743           12 
 1624000   0.60978158    -5.226303    659.48513  0.033840575  0.033228456           24 
 1625000   0.61010027   -5.2263423    659.69933  0.033830735  0.033207151            7 
 1626000   0.60998523   -5.2485978    659.39793  0.033794482  0.033185818           20 
 1627000   0.62245774    -5.241832    658.98517   0.03375257  0.033164484           12 
 1628000   0.59867104   -5.2382755    659.33464  0.033749726    0.0331432           14 
 1629000   0.61064171   -5.2400418     658.9599  0.033709838  0.033121846           16 
 1630000    0.6057345   -5.2440172    659.36974   0.03371011  0.033100428           19 
 1631000   0.60272215   -5.2602756    657.60839  0.033599447  0.033078963           10 
 1632000   0.60637428   -5.2292127    662.06868  0.033806611  0.033057579            6 
 1633000   0.60729389   -5.2486582    658.64639  0.033611267  0.033036346           11 
 1634000   0.60617428   -5.2238733    660.34131  0.033677137  0.033014989           30 
 1635000   0.58277924   -5.2244589    658.47696  0.033561517  0.032993655           21 
 1636000   0.59774245   -5.2307474    657.43666  0.033488012  0.032972271           11 
 1637000   0.60039497   -5.2481194    657.48838  0.033470188  0.032950833           15 
 1638000   0.60536143    -5.250187    659.02094  0.033527724  0.032929384           20 
 1639000   0.60778175   -5.2684078    658.83884  0.033498009  0.032908076           29 
 1640000   0.60170998   -5.2290581    660.17475  0.033545465  0.032886888           11 
 1641000   0.59933272   -5.2453072    659.08617  0.033469742  0.032865658            5 
 1642000   0.59061642    -5.243849    659.38264  0.033464405  0.032844483            5 
 1643000   0.60767503    -5.242467    658.63634  0.033406185  0.032823284           17 
 1644000     0.601656    -5.247857    657.59688  0.033333175  0.032802073           20 
 1645000   0.58978141   -5.2329627     660.3047  0.033450086  0.032780847           11 
 1646000   0.59584815   -5.2464665     659.6174  0.033394968  0.032759811            8 
 1647000   0.59080223   -5.2640682    658.30284  0.033308178  0.032738592           19 
 1648000    0.5931233   -5.2448899    661.17531  0.033433218  0.032717477            9 
 1649000   0.59771677   -5.2403386    658.77668  0.033291726  0.032696338           11 
 1650000   0.60282293   -5.2477826    661.67165   0.03341776  0.032675308           13 
 1651000   0.58900378   -5.2490338    659.49485  0.033287647  0.032654248           21 
 1652000    0.5930096   -5.2511281    661.06762  0.033346833  0.032633098           15 
 1653000   0.58312888   -5.2496811    660.10945  0.033278355   0.03261199           15 
 1654000   0.59428279   -5.2543813    658.30422  0.033167282   0.03259084           13 
 1655000   0.58126815   -5.2689313    659.69134  0.033217087  0.032569593           19 
 1656000   0.58505119    -5.261371    660.00532  0.033212828  0.032548329           13 
 1657000    0.6038397   -5.2422444    659.51739  0.033168245  0.032527168           16 
 1658000   0.60061579   -5.2370768     660.4177  0.033193491  0.032506192            7 
 1659000   0.58713249   -5.2490375    660.19166  0.033162129  0.032485187            6 
 1660000   0.58186578   -5.2526958    660.23413  0.033144284  0.032464122           15 
 1661000   0.58665734   -5.2530815    660.96082  0.033160788  0.032443054           19 
 1662000    0.5938764   -5.2591393    662.26826  0.033206391   0.03242202           11 
 1663000   0.58002167   -5.2660942    659.90216  0.033067857  0.032401004           11 
 1664000   0.59037149   -5.2521232    659.05417  0.033005518  0.032379975           11 
 1665000   0.59267301   -5.2474799    659.65528   0.03301578  0.032358997           10 
 1666000   0.56939926   -5.2619613      659.861  0.033006253  0.032337952           12 
 1667000   0.60411499   -5.2435177    660.72613    0.0330297  0.032316986           20 
 1668000   0.59755733   -5.2626314    659.46554  0.032946919  0.032296019           13 
 1669000   0.58246121   -5.2744588    660.46117  0.032976891  0.032275043            7 
 1670000   0.56628273    -5.280637    659.83577  0.032925936  0.032254047           12 
 1671000   0.58383744   -5.2584827    661.59319  0.032993875  0.032233095           12 
 1672000   0.57140993   -5.2486886    661.44239  0.032966626  0.032212175           41 
 1673000   0.58893078   -5.2516533    661.41761  0.032945687   0.03219129           32 
 1674000   0.59369105   -5.2650548    660.13219  0.032862017  0.032170369           30 
 1675000    0.5914689   -5.2766876    660.44559  0.032857989  0.032149376           19 
 1676000   0.58743527   -5.2831879    659.00825  0.032766918  0.032128341           13 
 1677000   0.57035231   -5.2634089    659.38127  0.032765915  0.032107365           15 
 1678000   0.59625741   -5.2591386    660.06742  0.032780464  0.032086363           25 
 1679000   0.57329395   -5.2623295    661.53019  0.032833541  0.032065428           14 
 1680000   0.59512725   -5.2673382    660.04992  0.032740572  0.032044519           10 
 1681000   0.57937949   -5.2719958    660.61956  0.032749334  0.032023641           14 
 1682000   0.59657011   -5.2978431    658.16629  0.032608318  0.032002651           18 
 1683000   0.58142721   -5.2902292    658.67934  0.032614346    0.0319815           20 
 1684000   0.57099925   -5.3104911    658.38989  0.032580656  0.031960418           31 
 1685000   0.57670325   -5.2948208    660.19208  0.032650449  0.031939323           41 
 1686000   0.56758089   -5.2628455    660.71148  0.032656755   0.03191836            8 
 1687000   0.58054688   -5.2983031    660.02436  0.032603456  0.031897453           25 
 1688000   0.56714357   -5.3054306    660.05377  0.032585593  0.031876548           10 
 1689000   0.56704664   -5.2826164    661.22483  0.032624079  0.031855658           17 
 1690000   0.58527763   -5.3010544    659.25485  0.032507635  0.031834788           30 
 1691000   0.56935455   -5.3050116    659.87929  0.032519184  0.031813936           10 
 1692000   0.57714588   -5.3003482    660.24197  0.032517828  0.031792986           25 
 1693000    0.5741031   -5.2957535     659.3501  0.032454721  0.031772034           11 
 1694000   0.56570927   -5.2932513    660.50315  0.032492284  0.031751202           18 
 1695000   0.58276585    -5.268582    661.26034  0.032510341  0.031730451            8 
 1696000   0.57381552   -5.2910028     660.0027  0.032429378  0.031709629           28 
 1697000   0.58156837   -5.2785825    660.09077  0.032414593  0.031688849           12 
 1698000   0.58196675   -5.2707182    661.77853  0.032478334  0.031668203           11 
 1699000   0.58116046     -5.26682    662.26545    0.0324831  0.031647636           19 
 1700000   0.57838227    -5.275093    662.66519  0.032483588  0.031626993            5 
 1701000   0.58218994   -5.2853751    658.95502  0.032282727   0.03160638           11 
 1702000   0.57878915   -5.2530746    662.81448  0.032452726  0.031585751            8 
 1703000   0.57604473   -5.2801112    660.52042  0.032321414  0.031565145            7 
 1704000   0.58026576   -5.2940158    661.75684  0.032362913  0.031544474            5 
 1705000   0.58254023   -5.2877404     660.5211  0.032283534  0.031523793            7 
 1706000   0.57286103    -5.290336    661.03905  0.032289911  0.031503101            9 
 1707000   0.57414056   -5.3213531    660.57282  0.032248234    0.0314824           15 
 1708000   0.58108753   -5.2895458    661.40423  0.032269918  0.031461665            8 
 1709000   0.57348797   -5.2996202    662.09824  0.032284876  0.031440982           11 
 1710000   0.57642342   -5.2937246    660.43582  0.032184982  0.031420385            8 
 1711000   0.56533081    -5.303697    661.47348  0.032216709  0.031399777            7 
 1712000   0.56488544   -5.3189802    658.57929  0.032057014  0.031379158           14 
 1713000   0.57487513   -5.3125825    660.63547  0.032138328  0.031358483           22 
 1714000   0.56397972   -5.3059444     659.9373  0.032085633  0.031337868           14 
 1715000   0.57118177   -5.2962249    661.11006  0.032123909  0.031317199           29 
 1716000   0.56976623   -5.3179096    661.08853  0.032104144  0.031296624           23 
 1717000   0.56475754   -5.3031821    660.94031  0.032078252  0.031276078           28 
 1718000   0.56933358   -5.3031949     660.9621  0.032060637  0.031255521           40 
 1719000   0.57509208   -5.3030176    660.64153  0.032026446   0.03123501           22 
 1720000   0.56584198   -5.2995668     660.1268  0.031982888  0.031214567           33 
 1721000   0.57351932   -5.3109347    660.97448   0.03200535  0.031194138           16 
 1722000   0.56027879   -5.2959217    661.74683   0.03202414  0.031173735           11 
 1723000   0.56972161   -5.3173508    662.43761  0.032038964  0.031153371           14 
 1724000   0.56969346   -5.3236198    661.62248  0.031980979  0.031133095           16 
 1725000   0.57156145    -5.303265    660.24124  0.031895712  0.031112789           17 
 1726000   0.56699338    -5.311216    660.30549  0.031880334  0.031092429           11 
 1727000   0.56478073   -5.3191341    663.10328  0.031996877  0.031072068           24 
 1728000   0.56054301   -5.3220398    661.65602  0.031908566  0.031051676           12 
 1729000   0.57702151     -5.35143     660.7151  0.031844761  0.031031318           16 
 1730000   0.56319113   -5.3158985    661.82445   0.03187979  0.031011046           18 
 1731000   0.56399303   -5.3151246    662.70837  0.031903927  0.030990726           11 
 1732000   0.55605795   -5.3306335    661.09882  0.031808065  0.030970511           12 
 1733000   0.55469813   -5.3223906    661.78056  0.031822493  0.030950287            9 
 1734000   0.55994651   -5.3122011    660.96716   0.03176505  0.030929994           13 
 1735000    0.5538392   -5.3477419    662.17569  0.031804788  0.030909676           20 
 1736000   0.56019982   -5.3351876    661.57395  0.031757582  0.030889334           16 
 1737000   0.55553909    -5.341048    658.98947  0.031615307  0.030868973           12 
 1738000   0.55746318   -5.3454839    662.10668  0.031746581  0.030848682           22 
 1739000   0.55670851   -5.3120988    661.76881  0.031712134  0.030828449           31 
 1740000   0.56260931   -5.3255612    661.29226  0.031671085  0.030808188           10 
 1741000    0.5652974   -5.3273496    662.19417  0.031696064  0.030787995           43 
 1742000   0.54466428    -5.313172    661.63902  0.031651312  0.030767769           39 
 1743000   0.55563105   -5.3224148    661.26529  0.031615285   0.03074758           17 
 1744000   0.55681575   -5.3209069    661.80578  0.031622983  0.030727442           13 
 1745000   0.55387733    -5.333948    661.27421  0.031579475  0.030707208           12 
 1746000   0.55462676   -5.3326021     661.7547  0.031584322  0.030686949           14 
 1747000   0.55398917   -5.3302122     660.7237  0.031517063  0.030666743           27 
 1748000   0.54606875   -5.3207445    662.26598  0.031572558  0.030646527           22 
 1749000   0.54941075   -5.3243524    660.94726  0.031491674  0.030626314           19 
 1750000   0.56066086   -5.3337761     661.6277  0.031506081  0.030606113           54 
 1751000   0.56863457   -5.3396914    661.12913   0.03146436  0.030585932           32 
 1752000   0.55840375   -5.3365367    662.39544  0.031506632   0.03056584           12 
 1753000   0.56016122   -5.3256001    662.34685  0.031486349  0.030545784           16 
 1754000   0.56351648   -5.3490778    662.72762  0.031486489  0.030525745           39 
 1755000   0.55337065   -5.3347808    661.93416  0.031430872  0.030505657           20 
 1756000   0.54651848   -5.3512066    662.81169  0.031454617  0.030485536           15 
 1757000    0.5366853   -5.3369603    661.94698  0.031395702  0.030465443           16 
 1758000   0.55848187   -5.3517913    660.53205  0.031310772  0.030445297           39 
 1759000   0.55874343    -5.365367    660.76154  0.031303844  0.030425131           53 
 1760000   0.54236796   -5.3583698      660.961  0.031295502  0.030404956           18 
 1761000   0.55742009   -5.3463548    660.93086  0.031276304  0.030384766           83 
 1762000   0.54428895   -5.3572605    661.06053  0.031264687  0.030364562           26 
 1763000   0.55151094   -5.3513018    661.94452  0.031288737  0.030344428           27 
 1764000   0.56494882   -5.3674587    660.58216   0.03120664  0.030324281           27 
 1765000   0.53835584   -5.3462352    661.09178  0.031213021  0.030304098           28 
 1766000   0.54987428   -5.3340029    660.04399  0.031145904  0.030283997           28 
 1767000   0.53995252   -5.3483886    661.26577  0.031185897  0.030263906           18 
 1768000    0.5500595   -5.3773114    659.80474  0.031099394  0.030243839           23 
 1769000   0.54158968   -5.3370942    660.99513   0.03113789  0.030223709           29 
 1770000   0.55354951   -5.3475174     661.4997  0.031144054  0.030203766           36 
 1771000   0.53659036   -5.3567692    660.77469  0.031092353  0.030183769           19 
 1772000   0.54927251   -5.3588882    661.41109  0.031104735  0.030163683           18 
 1773000   0.55553775   -5.3651729      660.652  0.031051513  0.030143615           11 
 1774000    0.5565512   -5.3602119    660.01385  0.031004033  0.030123655           19 
 1775000   0.53611188   -5.3464341    659.89202  0.030980846  0.030103635            6 
 1776000   0.55092819   -5.3469795    662.00124  0.031062371  0.030083654           11 
 1777000   0.53744223   -5.3646203    661.58446  0.031025345  0.030063683           11 
 1778000   0.54193842     -5.34678    661.04268  0.030982503  0.030043735           23 
 1779000   0.53973467   -5.3344137    661.03182  0.030964578  0.030023726           22 
 1780000   0.54182272   -5.3608098    662.52103  0.031016902  0.030003764            7 
 1781000   0.54747695   -5.3590689    661.96771  0.030973597  0.029983758           48 
 1782000   0.54199161   -5.3677212    661.42002  0.030930603  0.029963742           68 
 1783000    0.5411862   -5.3751374    660.22786  0.030857537  0.029943749           46 
 1784000   0.53235674   -5.3717228    661.38999  0.030894525  0.029923809           24 
 1785000   0.53966752   -5.3602385    660.73981  0.030846863  0.029903801           40 
 1786000   0.53732533   -5.3865672    659.54946  0.030774051  0.029883867           55 
 1787000   0.54737185   -5.3572163    661.26489  0.030836826  0.029863898           31 
 1788000   0.54624158   -5.3661207     660.3834  0.030778496  0.029843963           63 
 1789000    0.5452229    -5.374716    660.86094  0.030783536  0.029824067           27 
 1790000    0.5339141   -5.3827288    660.31878  0.030741098  0.029804139           23 
 1791000   0.53726226   -5.4038172    660.05546  0.030711681  0.029784201           24 
 1792000   0.53370999   -5.3560288    660.06621  0.030695043  0.029764322           23 
 1793000   0.53657512   -5.3638787     661.0614  0.030724177  0.029744488           26 
 1794000   0.52935661   -5.3766526    661.29664  0.030717978  0.029724674           25 
 1795000   0.53188751    -5.369237    660.25076   0.03065231  0.029704851           22 
 1796000   0.54559869    -5.380866    661.71432  0.030703151  0.029685024           22 
 1797000   0.54202179   -5.3718664    662.04643  0.030701467  0.029665229           39 
 1798000    0.5436359   -5.3697853    658.87982  0.030537626  0.029645419           29 
 1799000   0.54383748   -5.3875797    662.02162  0.030666186  0.029625648           34 
 1800000   0.53306171   -5.3849654    661.26808  0.030614263  0.029605773           19 
 1801000   0.53747242   -5.3929645    659.75725  0.030527358  0.029585915           13 
 1802000    0.5357859   -5.3909115    661.08082  0.030571625  0.029566059           22 
 1803000   0.54447823   -5.4022571    658.52696  0.030436632  0.029546193           48 
 1804000    0.5386102   -5.4037422    660.74713  0.030522318  0.029526363           25 
 1805000   0.53730223    -5.387257    660.74089  0.030505119  0.029506599           57 
 1806000   0.54336566   -5.3873613    660.58326  0.030480955  0.029486892           39 
 1807000   0.54637793   -5.3984066    661.70512  0.030515824  0.029467205           15 
 1808000   0.52682028    -5.395921    659.86813  0.030414276  0.029447428           16 
 1809000    0.5266206   -5.3896411    660.05947  0.030406277  0.029427678           63 
 1810000    0.5444621   -5.4015797    660.27217  0.030399271  0.029407921           52 
 1811000   0.52845552   -5.4018532    660.00187  0.030370047  0.029388147           54 
 1812000   0.53518065   -5.3815712    661.15099  0.030406134  0.029368421           37 
 1813000   0.53550163   -5.4061042    660.15547  0.030343605  0.029348715           21 
 1814000    0.5303694   -5.3860332    661.61075  0.030393732  0.029329063           28 
 1815000   0.52769624   -5.3909434    660.21645  0.030312968  0.029309405           28 
 1816000   0.52788109   -5.4088456    659.49536  0.030263187  0.029289773           14 
 1817000   0.52272402   -5.3982884    661.47915  0.030337514  0.029270097           31 
 1818000   0.51570362   -5.3958127    661.10463  0.030303659   0.02925043           24 
 1819000   0.53060184   -5.3974722    659.55088  0.030215818   0.02923078           46 
 1820000   0.52595569   -5.3933612    660.47811  0.030241672  0.029211182           14 
 1821000   0.53173401   -5.3960818    659.98871  0.030202669  0.029191581           15 
 1822000   0.53639484   -5.4102737    659.27012  0.030153226  0.029171985           23 
 1823000   0.52491725   -5.3993965     659.9323  0.030166955   0.02915239           28 
 1824000   0.51348446   -5.3978117    660.49314  0.030176039  0.029132809           34 
 1825000   0.51503282   -5.3955814    659.62229  0.030119739   0.02911329           62 
 1826000   0.52719587   -5.3921883    660.58242  0.030147062  0.029093725           69 
 1827000   0.51137894   -5.4134642    661.43664  0.030169524  0.029074144           37 
 1828000   0.53665341   -5.4124044    660.14005  0.030093912  0.029054531           44 
 1829000   0.52894751   -5.3983927    660.19045  0.030079754  0.029034946           30 
 1830000   0.52842778   -5.4064123    660.19176  0.030063377  0.029015361           42 
 1831000   0.52800902   -5.4088925    661.36273  0.030100252  0.028995763           80 
 1832000   0.53280384   -5.4079527    659.25239  0.029987827  0.028976204           24 
 1833000   0.52609509   -5.4027124    658.55991  0.029939985  0.028956648           42 
 1834000   0.52731665   -5.4175636    660.96313  0.030032858  0.028937093           48 
 1835000   0.52619504   -5.4007979    659.33309  0.029942466  0.028917571           34 
 1836000   0.51019748   -5.4006079    660.86459   0.02999567   0.02889805           21 
 1837000    0.5174168   -5.4068893    661.24473  0.029996585  0.028878582           21 
 1838000   0.50964432   -5.3963192    659.32092  0.029893041  0.028859071           56 
 1839000   0.52602571   -5.4140495    659.11644  0.029867521  0.028839566           31 
 1840000   0.52160962   -5.4226986    659.36452  0.029862523  0.028820082           12 
 1841000   0.51408379   -5.4118592    661.11283   0.02992544  0.028800609           31 
 1842000   0.50632395   -5.3964645    660.76661  0.029893531  0.028781102           13 
 1843000   0.50814977   -5.4070225    659.99882  0.029842594  0.028761654           17 
 1844000   0.52642888   -5.4243373    659.82866  0.029818721  0.028742206           14 
 1845000    0.5271139   -5.4303233    659.72694  0.029797965  0.028722676           12 
 1846000   0.51438662   -5.4115568    657.99833  0.029703789  0.028703226           15 
 1847000   0.50122056   -5.4143461    660.04751  0.029780162   0.02868382           11 
 1848000   0.51831496   -5.4124682     659.4104  0.029735318  0.028664409           12 
 1849000   0.51273359   -5.4116857     658.6173  0.029683491  0.028644961           25 
 1850000   0.51609178   -5.4351171    659.88255  0.029724439  0.028625584           14 
 1851000   0.51067574   -5.4133388     660.3435  0.029729133  0.028606259           16 
 1852000   0.51630263   -5.4310354    660.33125  0.029712529  0.028586913           19 
 1853000   0.51065783   -5.4322914    659.34672  0.029652218  0.028567569           24 
 1854000   0.52065955   -5.4297345    658.21298  0.029585265  0.028548162           36 
 1855000   0.51622044   -5.4337392    659.33408   0.02961968  0.028528789           21 
 1856000   0.51442633   -5.4309347    659.55679  0.029613721  0.028509455           22 
 1857000   0.51776588    -5.419411    657.99368  0.029527629  0.028490101           17 
 1858000   0.50579558   -5.4192668    658.46788  0.029533005  0.028470742           20 
 1859000    0.5107365   -5.4481299    659.21546   0.02955063  0.028451353           21 
 1860000   0.50338434   -5.4276176    659.89862   0.02956535  0.028431993           19 
 1861000   0.51871367    -5.432139    659.91827  0.029550344   0.02841268           27 
 1862000   0.50805879   -5.4403135    659.02979   0.02949471  0.028393346           11 
 1863000   0.50667773   -5.4543799    658.92931  0.029474383  0.028374047           13 
 1864000    0.5030767    -5.435936    659.52223  0.029485078  0.028354767           26 
 1865000   0.50704491   -5.4470073    658.60583  0.029428321  0.028335453           21 
 1866000   0.50467047   -5.4411427    658.70775  0.029417102  0.028316112           15 
 1867000   0.49859501   -5.4410004    657.64305  0.029353823  0.028296841           52 
 1868000   0.51000977   -5.4384558    659.89303  0.029438483  0.028277585           44 
 1869000   0.50927564   -5.4495961    658.37578  0.029355082  0.028258287           30 
 1870000   0.51463629   -5.4702991    657.63345  0.029306304   0.02823895           32 
 1871000   0.49986423    -5.440274    658.22821   0.02931713  0.028219675           45 
 1872000   0.49564356   -5.4358346    657.32393  0.029261215  0.028200364           32 
 1873000   0.50719701   -5.4432297    657.95115  0.029273499  0.028181081           28 
 1874000   0.50542598   -5.4514996    659.41397  0.029322926  0.028161843           39 
 1875000   0.51253023    -5.424206    659.66141  0.029318285  0.028142639           47 
 1876000   0.50991268   -5.4314425    659.10953  0.029278142  0.028123446           38 
 1877000   0.49741714   -5.4570255    658.48662  0.029234888  0.028104264           29 
 1878000   0.50061429   -5.4545003    659.03533  0.029243669  0.028085056           22 
 1879000   0.49769837   -5.4205976    658.15831   0.02918921  0.028065895           31 
 1880000   0.49949172   -5.4371134    659.11715  0.029216186  0.028046725           34 
 1881000   0.51283738   -5.4672328    658.60694   0.02917805  0.028027628           22 
 1882000   0.50028325   -5.4524403    657.49816   0.02911345  0.028008507           63 
 1883000   0.50571033   -5.4472847    659.07877   0.02916794  0.027989398           39 
 1884000   0.49827206   -5.4750082    657.92847  0.029101578  0.027970286           17 
 1885000   0.49158357   -5.4458868    657.81543  0.029081142   0.02795116           34 
 1886000    0.5039779   -5.4596345    658.27793  0.029086158  0.027932041           53 
 1887000   0.49769072   -5.4672968    657.18917  0.029022663  0.027912894           67 
 1888000   0.50293451   -5.4654785    657.63499  0.029026968   0.02789382          110 
 1889000    0.4982086   -5.4524678    659.61781  0.029099074  0.027874751           87 
 1890000   0.50206127   -5.4400145     656.2967  0.028937244  0.027855736          190 
 1891000   0.48942185   -5.4621187    658.12837  0.029002661  0.027836723           83 
 1892000   0.49838885   -5.4616691    657.39347  0.028954963  0.027817675           38 
 1893000   0.49455496   -5.4521347     659.0176  0.029011164  0.027798657           86 
 1894000    0.4984081   -5.4390048    658.23561   0.02896144  0.027779632           37 
 1895000   0.50163159    -5.452472    656.77909  0.028882106  0.027760593           19 
 1896000   0.49678096   -5.4569894    659.09026  0.028968454   0.02774156           41 
 1897000    0.5002909   -5.4786423    657.96976   0.02890396  0.027722517           29 
 1898000   0.48899972   -5.4719419    658.07453  0.028893332  0.027703496           48 
 1899000   0.49659643    -5.477231    659.12014  0.028924001  0.027684532           40 
 1900000   0.50139662   -5.4664009    657.52681  0.028838895  0.027665608           47 
 1901000   0.49344114   -5.4719708    658.59524  0.028870561  0.027646684           35 
 1902000   0.48746022   -5.4690244    657.88349  0.028824198  0.027627747           32 
 1903000   0.49048331   -5.4677026    657.03378  0.028771842  0.027608845           99 
 1904000   0.49374411   -5.4795142    657.76683  0.028788815  0.027589921          113 
 1905000    0.4969614   -5.4669031    658.49154  0.028805404  0.027571049           99 
 1906000   0.49226374   -5.4806213    657.69638  0.028755526  0.027552173           93 
 1907000    0.5085317   -5.4777268    658.98127  0.028796595  0.027533315           44 
 1908000   0.48779143   -5.4861376    658.16738  0.028745955   0.02751448           53 
 1909000   0.50042615   -5.4680179    656.50485  0.028658323  0.027495708           84 
 1910000     0.497106    -5.488508    658.89184  0.028747463  0.027476919           63 
 1911000   0.49426074   -5.4724958    657.79062  0.028684398  0.027458169           29 
 1912000   0.48610555   -5.4640216    658.23385  0.028688714  0.027439422           45 
 1913000   0.48398528   -5.4882456     658.9235  0.028703759  0.027420714           62 
 1914000   0.48619269   -5.4680677    657.85295  0.028642152  0.027402038           84 
 1915000    0.4818823   -5.4817195    658.61909  0.028660535  0.027383352           52 
 1916000   0.48217412   -5.4797523    658.79745  0.028653334  0.027364615           74 
 1917000   0.48415965   -5.4822476    658.07812  0.028607117  0.027345878           72 
 1918000   0.48764748   -5.5060831    658.45769  0.028608694  0.027327161           80 
 1919000   0.48177309   -5.5002293    656.27432  0.028498972  0.027308441           35 
 1920000   0.48084686   -5.5235485    656.81497  0.028507594  0.027289734           48 
 1921000   0.48866246   -5.4965042    658.00665   0.02854445  0.027271017          124 
 1922000   0.48822222   -5.4972965    657.47444  0.028506523  0.027252289          128 
 1923000   0.48231441   -5.5142963    658.02326  0.028515482  0.027233566           51 
 1924000   0.46978982   -5.4906504     657.6787  0.028485737  0.027214887           59 
 1925000   0.47931032   -5.4868512    658.19172  0.028493148  0.027196204           59 
 1926000   0.48569578   -5.4977835    657.45561  0.028446504  0.027177608           27 
 1927000   0.48834138   -5.5042865    658.51326  0.028477481  0.027158979           94 
 1928000   0.48874025   -5.4916007    657.68479  0.028426901  0.027140378           65 
 1929000   0.48454673   -5.4963188    657.20333  0.028391366  0.027121816           38 
 1930000   0.48452639   -5.4987499    658.47775  0.028431682   0.02710322           64 
 1931000   0.47145582   -5.5006214    657.67434  0.028382286  0.027084662           27 
 1932000   0.48233921   -5.5098751    657.86777  0.028375939  0.027066075           21 
 1933000   0.47513137   -5.5087139    657.24426  0.028334379  0.027047502           47 
 1934000    0.4861672   -5.4957539    658.17458  0.028359815  0.027028967           76 
 1935000   0.48073015   -5.5065678    659.07597  0.028383978  0.027010405           54 
 1936000   0.47110903   -5.5074007    656.61838  0.028263532  0.026991919           56 
 1937000   0.48180401   -5.5252942    657.21355  0.028274546  0.026973377           51 
 1938000   0.48388389   -5.4929774    657.34649  0.028265673  0.026954832           69 
 1939000   0.47428936   -5.5026166    658.07378  0.028282353  0.026936344           62 
 1940000   0.47785955   -5.5056972    656.80963  0.028213472  0.026917838           33 
 1941000   0.47736279   -5.4998185    658.94058  0.028290425  0.026899375           32 
 1942000   0.48167383   -5.5074086    657.24159  0.028202952  0.026880919           55 
 1943000    0.4868232   -5.4972063    657.28635  0.028190356  0.026862489           21 
 1944000   0.46959875   -5.5222634    657.50511  0.028185233  0.026844085           25 
 1945000   0.49836077   -5.5152177    658.54597  0.028215337  0.026825696           26 
 1946000   0.48056176   -5.5112569    656.65639  0.028119921  0.026807253           25 
 1947000   0.47489637   -5.5072051    658.51947   0.02818522  0.026788829           23 
 1948000   0.47093431   -5.4979816    657.71087   0.02813616  0.026770411           45 
 1949000   0.46234137   -5.5201784    656.15277  0.028055104  0.026751985           35 
 1950000   0.48003329   -5.5218957    656.33008  0.028048294  0.026733579           20 
 1951000   0.47384446   -5.5196293    657.00711  0.028062836  0.026715166           31 
 1952000   0.48080901   -5.5246032    657.66412  0.028076508  0.026696814           28 
 1953000   0.46474129   -5.5140006    658.12565  0.028081825  0.026678482           33 
 1954000   0.47230067   -5.5173303    655.76104  0.027966609  0.026660151           58 
 1955000   0.47136012   -5.5147443    658.21966  0.028057104  0.026641826           64 
 1956000   0.47100505   -5.5155185    656.34723  0.027962987  0.026623527           86 
 1957000   0.47318346   -5.5228958    656.21562  0.027943094  0.026605213           75 
 1958000   0.47295728   -5.5218183    656.98154  0.027961421   0.02658694           83 
 1959000   0.46612986   -5.4968152    658.60767  0.028016321  0.026568653           54 
 1960000    0.4709617   -5.5397331    656.81181  0.027925672  0.026550347          109 
 1961000   0.47266171   -5.5090162    657.54319  0.027942512  0.026532061           76 
 1962000   0.47450203   -5.5344568    655.47394  0.027840381  0.026513728          143 
 1963000   0.47118996   -5.5288578    656.95399   0.02788903  0.026495464           44 
 1964000   0.46309608   -5.5168598      656.803  0.027868423  0.026477234           62 
 1965000   0.46696281   -5.5175878    656.47544  0.027840349  0.026458997           53 
 1966000    0.4674123   -5.5278375    657.06919  0.027851356  0.026440748           87 
 1967000   0.47275167    -5.545667    657.08787  0.027837988  0.026422481           34 
 1968000   0.46554086   -5.5337199      655.045  0.027737339   0.02640421          127 
 1969000   0.46162119   -5.5275543    655.59336   0.02774646  0.026385938           80 
 1970000    0.4674047   -5.5402252    655.59911  0.027732619  0.026367673           53 
 1971000   0.46314598   -5.5443491    654.51894  0.027672879  0.026349414          105 
 1972000   0.46552551   -5.5429255    656.24978  0.027731989  0.026331177           50 
 1973000   0.47040373   -5.5426638    655.96282  0.027705813  0.026312953           68 
 1974000   0.45837367    -5.539873    655.19814  0.027659496  0.026294708           55 
 1975000   0.45064516   -5.5395406    656.56283  0.027703073  0.026276497          177 
 1976000   0.45672132    -5.550797    656.51074  0.027686856  0.026258282          166 
 1977000   0.46804865   -5.5343884     655.0728  0.027612241  0.026240058          113 
 1978000   0.45928972   -5.5422172    655.55671  0.027618668  0.026221843          178 
 1979000   0.47019608   -5.5751609    654.89219   0.02757673  0.026203626           79 
 1980000   0.47282298   -5.5614605    656.02829  0.027610618  0.026185422          110 
 1981000   0.46232735   -5.5350727    655.18578  0.027561239  0.026167233           90 
 1982000   0.46623124    -5.559012    654.33787  0.027511683  0.026149093           77 
 1983000    0.4653988   -5.5567986    655.12406  0.027530848  0.026130952           97 
 1984000   0.46134571   -5.5511572    655.61695  0.027537675  0.026112843          156 
 1985000   0.46431714   -5.5542638    655.63055  0.027524372  0.026094739           94 
 1986000   0.46037774   -5.5510843    655.45067  0.027502965   0.02607666          213 
 1987000   0.46671292   -5.5393706    654.55003  0.027451352  0.026058592          177 
 1988000   0.45445842   -5.5499694    655.79953   0.02748992  0.026040554          108 
 1989000    0.4634961   -5.5555976    655.76509  0.027474656   0.02602252          103 
 1990000   0.46205907   -5.5457388    655.74393  0.027459963  0.026004502           47 
 1991000   0.46255785   -5.5555564    654.84555   0.02740857   0.02598653           62 
 1992000   0.45356098   -5.5629699    656.61465  0.027468819  0.025968529          127 
 1993000   0.45966716   -5.5630145    655.70755  0.027417108  0.025950535           38 
 1994000   0.46318833   -5.5580052    654.77586  0.027364421  0.025932537           55 
 1995000   0.45730527   -5.5554274    656.17444  0.027409125  0.025914578          101 
 1996000   0.45760488   -5.5737494    656.12493  0.027393325  0.025896636          121 
 1997000    0.4563321    -5.577175    654.81338  0.027324878  0.025878677          121 
 1998000   0.45801318   -5.5834923    654.13082  0.027282734  0.025860747           64 
 1999000   0.45761967   -5.5603373    654.80612  0.027297237  0.025842809           69 
 2000000   0.44535788   -5.5832359    654.54964  0.027272902  0.025824863          141 
 2001000   0.45602153   -5.5693292    655.48819  0.027298359  0.025806915          107 
 2002000   0.44617566   -5.5562125    654.96804  0.027263072  0.025789021          146 
 2003000   0.45361646   -5.5482977    655.34963  0.027265337  0.025771117           67 
 2004000   0.46153839   -5.5609565    655.21737  0.027246231  0.025753258           82 
 2005000   0.45325071   -5.5842925    654.31453  0.027195118   0.02573541          111 
 2006000    0.4484967   -5.5698753     655.9027  0.027247536  0.025717536           69 
 2007000   0.45398275   -5.5750559    654.31112  0.027167876  0.025699644          172 
 2008000   0.45169572   -5.5765973    655.02021  0.027183774  0.025681737          177 
 2009000   0.45083889   -5.5683552    653.86103   0.02712216  0.025663864          174 
 2010000   0.45439134   -5.5649623    654.03518  0.027115886  0.025646019           76 
 2011000   0.46372818   -5.5720456     654.4588  0.027119957  0.025628221           99 
 2012000   0.45246488   -5.5709748    654.81625  0.027121283  0.025610436          138 
Loop time of 5108.61 on 48 procs for 2000000 steps with 4000 atoms

Performance: 67650.547 tau/day, 391.496 timesteps/s
99.4% CPU use with 48 MPI tasks x no OpenMP threads

MPI task timing breakdown:
Section |  min time  |  avg time  |  max time  |%varavg| %total
---------------------------------------------------------------
Pair    | 340.64     | 369.59     | 387.18     |  49.7 |  7.23
Neigh   | 34.612     | 35.846     | 37.302     |   9.3 |  0.70
Comm    | 320.22     | 340.12     | 370.6      |  66.1 |  6.66
Output  | 4.4623     | 4.4641     | 4.4983     |   0.2 |  0.09
Modify  | 4296.6     | 4310.4     | 4329.9     |  13.7 | 84.38
Other   |            | 48.17      |            |       |  0.94

Nlocal:        83.3333 ave          91 max          75 min
Histogram: 2 1 2 11 3 11 7 5 4 2
Nghost:        2319.92 ave        2337 max        2297 min
Histogram: 1 0 2 5 8 7 10 8 4 3
Neighs:        15776.2 ave       17657 max       13509 min
Histogram: 1 2 3 9 5 6 11 4 5 2
FullNghs:      31600.8 ave       35600 max       27737 min
Histogram: 1 1 3 11 11 9 4 5 2 1

Total # of neighbors = 1516836
Ave neighs/atom = 379.20900
Neighbor list builds = 107708
Dangerous builds = 0

#clear
#
#next RN
#
#jump SELF
Total wall time: 1:25:12
