
units lj                  # Use reduced LJ style units
atom_style atomic         # Uncharged point particles
atom_modify map hash      # Needed for indexing of clusters etc
                          # Used to be able to find where atoms are in relation to each other.

lattice fcc 1.0 spacing 1 1 1
Lattice spacing in x,y,z = 1.5874011 1.5874011 1.5874011
region box block 0 10 0 10 0 10 units lattice
create_box 2 box
Created orthogonal box = (0.0000000 0.0000000 0.0000000) to (15.874011 15.874011 15.874011)
  3 by 4 by 4 MPI processor grid
create_atoms 1 box
Created 4000 atoms
  using lattice units in orthogonal box = (0.0000000 0.0000000 0.0000000) to (15.874011 15.874011 15.874011)
  create_atoms CPU = 0.013 seconds
set type 1 type/fraction 2 0.91 78393
Setting atom values ...
  3634 settings made for type/fraction
mass 1 1.0
mass 2 1.0
pair_style lj/cut  3.5
pair_modify tail  yes
pair_coeff 1  1  1.0  1.0   # Intearaction between 1 and 1 set with epsilon = 1 and sigma = 1
pair_coeff 1  2  1.5  0.8
pair_coeff 2  2  0.5  0.88

write_data data.0
System init for write_data ...
Neighbor list info ...
  update every 1 steps, delay 10 steps, check yes
  max neighbors/atom: 2000, page size: 100000
  master list distance cutoff = 3.8
  ghost atom cutoff = 3.8
  binsize = 1.9, bins = 9 9 9
  1 neighbor lists, perpetual/occasional/extra = 1 0 0
  (1) pair lj/cut, perpetual
      attributes: half, newton on
      pair build: half/bin/atomonly/newton
      stencil: half/bin/3d
      bin: standard
WARNING: Not all mixed pair coeffs generated from mixing. Use write_data with 'pair ij' option to store all pair coeffs. (../write_data.cpp:312)


#############################
#   M E L T   S Y S T E M   #
#############################

velocity all create 2.4 5300450 mom yes dist gaussian # Assign velocities
                                                    # Temperature 2.4, random number seed, zero linear momentum
                                                                                # Gaussian distribution

timestep 0.002   # simulation timestep
thermo 1000       # output thermodynamic data every 1000 steps bf 100

# Define a fix  in this case with index 1 applied to all
# particles in the simulation. This fix is for simulations
# in the anisotropic NPT ensemble. Note that we use the MTK
# correction.
fix 1 all npt temp 2.4 2.4 0.1 iso 5.68 5.68 0.5 mtk yes tchain 5 pchain 5 # Use NPT ensemble
                                                                         # Set temperature and pressure and damping
                                                                         # Numbers of thermostats in chain and in barostat
run 10000          # run for 10000 steps
Per MPI rank memory allocation (min/avg/max) = 3.642 | 3.644 | 3.648 Mbytes
Step Temp E_pair E_mol TotEng Press Volume 
       0          2.4    -3.140535            0     0.458565   -2.4974117         4000 
    1000    2.4056637   -2.1506336            0    1.4569598    5.7177841    4018.4298 
    2000    2.4273793   -2.1667358            0    1.4734229    5.4300529    4078.1343 
    3000    2.4217328   -2.1567757            0    1.4749153    5.6659634    4028.1391 
    4000    2.4126231   -2.2019674            0    1.4160625    5.4986441     4023.253 
    5000    2.3477797   -2.1715243            0    1.3492648    5.4689007    4031.5099 
    6000     2.412501   -2.1822076            0    1.4356392    5.6353116    4013.2093 
    7000    2.3516916   -2.1167912            0    1.4098642    5.7921676    4036.7265 
    8000    2.4086929   -2.1347647            0    1.4773714    5.6124072    4055.0806 
    9000    2.4108281   -2.1508013            0    1.4645368    5.9054602      3999.92 
   10000    2.4042863   -2.1388122            0    1.4667157    5.5992622    4056.3141 
Loop time of 2.77638 on 48 procs for 10000 steps with 4000 atoms

Performance: 622393.871 tau/day, 3601.816 timesteps/s
99.4% CPU use with 48 MPI tasks x no OpenMP threads

MPI task timing breakdown:
Section |  min time  |  avg time  |  max time  |%varavg| %total
---------------------------------------------------------------
Pair    | 1.0818     | 1.1491     | 1.2122     |   2.9 | 41.39
Neigh   | 0.20603    | 0.21285    | 0.22408    |   0.8 |  7.67
Comm    | 0.80715    | 0.87498    | 0.96091    |   4.3 | 31.52
Output  | 0.00025071 | 0.00025827 | 0.00048094 |   0.0 |  0.01
Modify  | 0.47307    | 0.52386    | 0.57072    |   3.7 | 18.87
Other   |            | 0.01529    |            |       |  0.55

Nlocal:        83.3333 ave          91 max          75 min
Histogram: 2 1 2 7 8 10 10 2 4 2
Nghost:        1624.79 ave        1662 max        1598 min
Histogram: 2 7 5 9 9 7 2 6 0 1
Neighs:        9407.15 ave       10413 max        8305 min
Histogram: 3 1 4 4 12 5 8 4 5 2

Total # of neighbors = 451543
Ave neighs/atom = 112.88575
Neighbor list builds = 903
Dangerous builds = 184

# Equilibrate just above the melting temperature to avoid step fn in T

fix 1 all npt temp 1.25 1.25 0.1 iso 5.68 5.68 0.5 mtk yes tchain 5 pchain 5
run 2000
Per MPI rank memory allocation (min/avg/max) = 3.643 | 3.645 | 3.649 Mbytes
Step Temp E_pair E_mol TotEng Press Volume 
   10000    2.4042863   -2.1388122            0    1.4667157    5.5992622    4056.3141 
   11000    1.2568081   -3.2455095            0   -1.3607687    5.8336089    3105.9023 
   12000    1.2419588   -3.2200971            0   -1.3576246    5.6333822    3130.4379 
Loop time of 0.623265 on 48 procs for 2000 steps with 4000 atoms

Performance: 554499.211 tau/day, 3208.907 timesteps/s
99.6% CPU use with 48 MPI tasks x no OpenMP threads

MPI task timing breakdown:
Section |  min time  |  avg time  |  max time  |%varavg| %total
---------------------------------------------------------------
Pair    | 0.26314    | 0.28973    | 0.3156     |   2.4 | 46.49
Neigh   | 0.03855    | 0.041274   | 0.044441   |   0.7 |  6.62
Comm    | 0.1948     | 0.22619    | 0.2713     |   3.6 | 36.29
Output  | 5.3266e-05 | 5.5334e-05 | 6.8693e-05 |   0.0 |  0.01
Modify  | 0.044179   | 0.0613     | 0.066551   |   2.5 |  9.84
Other   |            | 0.004718   |            |       |  0.76

Nlocal:        83.3333 ave          93 max          74 min
Histogram: 2 2 4 7 10 9 7 4 1 2
Nghost:        1936.83 ave        1966 max        1914 min
Histogram: 7 3 5 5 9 7 3 3 2 4
Neighs:        12206.8 ave       14397 max       10386 min
Histogram: 4 2 4 9 10 7 7 2 2 1

Total # of neighbors = 585928
Ave neighs/atom = 146.48200
Neighbor list builds = 144
Dangerous builds = 21

#############################
# L I N E A R  Q U E N C H  #
#############################

# Define solid atoms. This closely follows ten Wolde  Ruiz-Montero and Frenkel  Faraday Discuss  1996  104  93-110
# Compute components of the per-atom q6 vector
compute q6 all orientorder/atom degrees 1 6 components 6 nnn NULL cutoff 1.3 # compute the Q6 parameter.
                                                                             # Use all neighbours within 1.3 unit cell.

# get number of connections
compute coord_number all coord/atom orientorder q6 0.5

# An atom is solid if it has 8 or more connections (of a possible 14)
variable is_solid atom c_coord_number>=8
group solid dynamic all var is_solid    # Must be dynamic to update
dynamic group solid defined

# do clustering
compute cluster solid cluster/atom 1.3 # Create a cluster where all atoms within are solid and max 1.3 units from another member

# define chunks one chunk per cluster
compute clus_chunks solid chunk/atom c_cluster nchunk every compress yes  # Says which atoms are in which chunk

# count the size of each chunk
compute size_chunks solid property/chunk clus_chunks count


# Find the maximum entry in the vector of chunk sizes
variable max_n equal max(c_size_chunks)


# Thermo style which includes this variable
# thermo_style custom step temp pe vol v_max_n

thermo ${N}  # Print the thermo information every 100 steps
thermo 1000  

# Reset the npt fix at a lower temperature (below freezing)
fix 1  all npt temp  ${temp} ${temp}  0.1  iso  5.68  5.68  0.5  mtk yes tchain  5  pchain  5
fix 1  all npt temp  0.45 ${temp}  0.1  iso  5.68  5.68  0.5  mtk yes tchain  5  pchain  5
fix 1  all npt temp  0.45 0.45  0.1  iso  5.68  5.68  0.5  mtk yes tchain  5  pchain  5

dump dmp2 all dcd ${N} traj.dcd
dump dmp2 all dcd 1000 traj.dcd


compute msd all msd com yes
variable twopoint equal c_msd[4]/6/(step*dt+1.0e-6)
fix 9 all vector 10 c_msd[4]
variable fit equal slope(f_9)/6/(10*dt)
thermo_style custom step temp pe c_msd[4] v_twopoint v_fit v_max_n

fix 1 all npt temp 1.25 ${temp} 0.1 iso 5.68 5.68 0.5 mtk yes tchain 5 pchain 5
fix 1 all npt temp 1.25 0.45 0.1 iso 5.68 5.68 0.5 mtk yes tchain 5 pchain 5
run 2000000 # 5000000  # Run for this many steps
Neighbor list info ...
  update every 1 steps, delay 10 steps, check yes
  max neighbors/atom: 2000, page size: 100000
  master list distance cutoff = 3.8
  ghost atom cutoff = 3.8
  binsize = 1.9, bins = 8 8 8
  4 neighbor lists, perpetual/occasional/extra = 1 3 0
  (1) pair lj/cut, perpetual
      attributes: half, newton on
      pair build: half/bin/atomonly/newton
      stencil: half/bin/3d
      bin: standard
  (2) compute orientorder/atom, occasional
      attributes: full, newton on
      pair build: full/bin/atomonly
      stencil: full/bin/3d
      bin: standard
  (3) compute coord/atom, occasional
      attributes: full, newton on
      pair build: full/bin/atomonly
      stencil: full/bin/3d
      bin: standard
  (4) compute cluster/atom, occasional
      attributes: full, newton on
      pair build: full/bin/atomonly
      stencil: full/bin/3d
      bin: standard
Per MPI rank memory allocation (min/avg/max) = 9.819 | 9.827 | 9.833 Mbytes
Step Temp PotEng c_msd[4] v_twopoint v_fit v_max_n 
   12000    1.2419588   -3.2200971 2.2279404e-30 1.5471808e-32 8.3333333e+20            2 
   13000    1.2505287   -3.2301685    1.0334308 0.0066245561  0.088773166            2 
   14000    1.2657603   -3.2083192    2.0279354  0.012071043  0.086664764            1 
   15000    1.2346967   -3.2682185     3.091997   0.01717776  0.086079605            1 
   16000    1.2264287   -3.2146887    4.2357822  0.022061365  0.087656336            2 
   17000    1.2670805   -3.2163459    5.3629989   0.02628921  0.089239014            1 
   18000    1.2164176   -3.1980358    6.5857122  0.030489408  0.091014524            4 
   19000    1.2364419   -3.2230375    7.5821856  0.033255199  0.091969042            2 
   20000     1.271299   -3.2003678     8.600315  0.035834645   0.09144928            1 
   21000    1.2475617    -3.178053    9.7253057  0.038592482  0.090695846            1 
   22000    1.2622212   -3.2260586    10.993155  0.041640739  0.091034226            1 
   23000    1.2557369   -3.2355246    12.049818   0.04365876  0.091691103            1 
   24000    1.2661596   -3.2086218    13.172859  0.045739092  0.091807667            3 
   25000     1.243126   -3.2103364    14.243897  0.047479656  0.091902007            1 
   26000    1.2382438   -3.2357703     15.27255   0.04895048  0.091722573            3 
   27000     1.266784   -3.2314959    16.390922  0.050589264  0.091762518            2 
   28000    1.2624621   -3.1992563    17.645362  0.052515956  0.091879083            2 
   29000    1.2346784   -3.2514313    18.669641  0.053648391  0.092071151            2 
   30000    1.2377068   -3.2282163    19.886209  0.055239469  0.092255996            2 
   31000    1.2206666   -3.2200186     21.07415  0.056650941  0.092444706            2 
   32000    1.2388626   -3.2597248    21.986141  0.057255574  0.092473307            1 
   33000    1.2469849   -3.2569083    23.336564  0.058930716  0.092664775            2 
   34000     1.241423   -3.2111711    24.453474  0.059934985  0.092888645            2 
   35000    1.2591128   -3.2415312    25.366855  0.060397274  0.092837243            1 
   36000    1.2534966   -3.2598204    26.383154  0.061072115  0.092744064            2 
   37000    1.2147888   -3.1928721    27.733684  0.062463252  0.092738227            2 
   38000    1.2316295   -3.2256174    28.481643  0.062459742   0.09270697            2 
   39000    1.2489102   -3.2330702    29.926937  0.063946445   0.09273557            2 
   40000    1.2604077   -3.2452965    30.937581  0.064453293  0.092825795            3 
   41000    1.2399594   -3.2231819    32.099595  0.065243079  0.092745308            1 
   42000    1.2527661   -3.2465402    33.109173  0.065692804  0.092739528            1 
   43000    1.2318067   -3.2521383    34.119411  0.066122889  0.092703918            2 
   44000    1.2432672   -3.2600169    35.065448  0.066411833  0.092603514            4 
   45000    1.2629281   -3.2206454    36.095268  0.066843088  0.092475461            1 
   46000    1.2283596   -3.2115798    37.266212  0.067511253  0.092344062            2 
   47000    1.2190417   -3.2200361    38.287885   0.06788632  0.092162571            2 
   48000    1.2221557   -3.2282703    39.226589  0.068101716  0.092011479            3 
   49000    1.2357771    -3.262844    40.461317  0.068811763  0.091878643            2 
   50000    1.2515768   -3.2481048    41.747872  0.069579785  0.091805155            4 
   51000     1.225565   -3.2470372    42.613224   0.06962945  0.091759947            2 
   52000    1.2075343   -3.2345913    43.404204  0.069558018  0.091668549            1 
   53000    1.2424817    -3.216063    44.621785  0.070160039  0.091573222            1 
   54000    1.2435835   -3.2586521    45.701859   0.07052756  0.091464862            1 
   55000    1.2671989   -3.2260168     46.88503  0.071037923  0.091394629            1 
   56000    1.2429611   -3.2556731    48.283423  0.071850331  0.091342983            3 
   57000     1.231437   -3.2191658    48.962061  0.071581961  0.091304756            3 
   58000      1.22111   -3.2155363    50.257224  0.072208654  0.091276237            1 
   59000     1.218616   -3.2582766    51.546438  0.072805702  0.091266506            2 
   60000    1.2348311    -3.255188    52.084902  0.072340141  0.091206601            2 
   61000    1.2539858   -3.2104682    52.711104  0.072009705   0.09109481            3 
   62000    1.2739977   -3.2391051    54.048877   0.07264634  0.090966958            3 
   63000    1.1982098   -3.2592743    55.028972  0.072789645  0.090874891            2 
   64000    1.2277611   -3.2434775    56.429622  0.073476069  0.090769878            2 
   65000    1.2438967   -3.2426167    57.473813  0.073684375  0.090694263            1 
   66000    1.2311621   -3.2416904    58.271636  0.073575297  0.090624934            3 
   67000    1.2354843   -3.2357464    59.221157  0.073658155   0.09052586            2 
   68000    1.2126889   -3.1958936    60.610744  0.074277872  0.090428948            2 
   69000     1.234236   -3.2449113    61.141767  0.073842714  0.090316995            3 
   70000    1.2205074   -3.2696798     62.34194  0.074216595  0.090182882            2 
   71000    1.2350876   -3.2501919    63.264918  0.074254598  0.090067066            2 
   72000     1.196481   -3.2322853    64.135196  0.074230551  0.089965493            2 
   73000    1.2253889   -3.2924162    65.061068  0.074270625  0.089854934            2 
   74000    1.2287708    -3.246651    66.330536  0.074696549  0.089757424            2 
   75000     1.228125   -3.2586776    67.476412  0.074973791  0.089652391            1 
   76000    1.2348831    -3.270516    68.555371  0.075170363  0.089561416            1 
   77000    1.2240342   -3.2407957    69.839438  0.075583807  0.089505012            3 
   78000     1.221301   -3.2713048    71.292379  0.076167071  0.089477796            1 
   79000    1.2175557   -3.2412692    72.684141  0.076671034   0.08949302            2 
   80000    1.1983626   -3.2369367    73.532218   0.07659606  0.089509832            3 
   81000    1.2247433   -3.2452377     74.66064  0.076811358   0.08951402            1 
   82000    1.2239246   -3.2436506    75.787264  0.077019577  0.089501925            2 
   83000    1.2212875   -3.2452795    76.682262  0.076990223  0.089501896            1 
   84000    1.2182975   -3.2534889     77.67573  0.077059256  0.089513712            1 
   85000    1.2209075   -3.2463223    79.020586  0.077471162   0.08952603            1 
   86000    1.2326151   -3.2494899    79.769678    0.0772962  0.089527656            1 
   87000    1.2140295   -3.2327644    81.055167  0.077639048  0.089526356            2 
   88000    1.2164374    -3.275178    82.286182  0.077922521  0.089543972            1 
   89000    1.2078368   -3.2556984    83.087984  0.077797737  0.089562355            1 
   90000     1.236295   -3.2359708    83.547556  0.077358848  0.089553596            1 
   91000    1.2076737   -3.2260675    85.620976  0.078407487  0.089541012            2 
   92000     1.232159   -3.2587343    86.341765   0.07820812  0.089542296            1 
   93000    1.2296907    -3.272948    87.277205   0.07820538  0.089537147            1 
   94000    1.2233378   -3.2529583    88.348301  0.078322961  0.089528463            1 
   95000    1.2289978   -3.2636998    89.408012   0.07842808  0.089510824            1 
   96000    1.2108992   -3.2582104    89.997545  0.078122869  0.089475801            1 
   97000    1.2083943     -3.31059    91.070515  0.078239273   0.08943541            2 
   98000    1.2193337   -3.2520347    92.321938  0.078505049  0.089409171            1 
   99000    1.2457715   -3.2977982    93.334987  0.078564804  0.089392875            4 
  100000    1.2196318   -3.2372936    94.507013  0.078755844  0.089368549            2 
  101000    1.2160102   -3.2684764    95.453986  0.078757414  0.089364864            2 
  102000    1.1937691   -3.2581208    96.793616  0.079079751   0.08935922            2 
  103000    1.2127689   -3.2978148    97.450071  0.078843099   0.08934312            2 
  104000    1.2010439   -3.2671072    99.104255   0.07941046   0.08933974            2 
  105000     1.222519   -3.2992428    100.18336  0.079510599   0.08934962            1 
  106000    1.2272759    -3.254875    100.87873  0.079307178  0.089333872            2 
  107000     1.198871   -3.2617777    102.02007  0.079454884  0.089320752            1 
  108000    1.2447722   -3.2450746    102.91348  0.079408552  0.089296761            2 
  109000    1.1976494   -3.2805408    103.34823  0.079012409  0.089268174            2 
  110000    1.2033643   -3.2881506    105.25929  0.079741888  0.089225362            1 
  111000    1.2088139   -3.2651125    106.05726  0.079622564  0.089185854            1 
  112000    1.2141552   -3.2583722    106.51004  0.079248545  0.089159546            1 
  113000     1.200143    -3.265559    107.90298  0.079574468  0.089135905            1 
  114000    1.2056287   -3.2622261    109.22406  0.079842148  0.089117197            1 
  115000    1.2029203   -3.3034163    110.27268   0.07990774  0.089099745            2 
  116000    1.2075355   -3.3052463    111.68687  0.080234822  0.089084228            2 
  117000    1.2017199   -3.2647228    112.51988  0.080142362  0.089071784            2 
  118000    1.2186486   -3.2598241    113.41225  0.080093398  0.089045691            3 
  119000    1.2072651    -3.269475    114.30682   0.08004679  0.089015975            1 
  120000    1.2106226   -3.2496866    115.59727  0.080275879  0.088997922            3 
  121000    1.2153234   -3.2828855    116.53914  0.080261118  0.088980095            2 
  122000    1.2100066    -3.271257    118.13652  0.080694344  0.088981339            1 
  123000    1.2124916   -3.3157907    118.09623  0.080010996  0.088974782            3 
  124000     1.209881   -3.2819582    119.24368  0.080136879  0.088957743            2 
  125000    1.2120066    -3.282882    120.60529  0.080403526  0.088931176            2 
  126000    1.1889252   -3.2971489    120.78217  0.079882387  0.088887709            1 
  127000    1.1828149   -3.2962372    122.22174  0.080197994  0.088847649            1 
  128000    1.2115244   -3.3053079     123.1214  0.080157161  0.088808372            1 
  129000    1.2177485   -3.2305579    124.02493  0.080119463  0.088773319            3 
  130000     1.175919   -3.3131037    124.61672  0.079882513  0.088734478            3 
  131000    1.1955037    -3.294142    125.36339  0.079747705  0.088674534            3 
  132000    1.1718373   -3.2972287    126.92016  0.080126366  0.088622713            2 
  133000    1.2390315   -3.2762101    128.43338  0.080472042   0.08857464            1 
  134000    1.2198781     -3.27788    129.19047  0.080342329  0.088534449            1 
  135000    1.2143906   -3.2714454    130.70823  0.080684092  0.088501171            3 
  136000    1.1993914   -3.2930971    131.16085   0.08036817  0.088470211            3 
  137000    1.1789269   -3.3286745     131.5323  0.080007481   0.08842794            2 
  138000     1.193826   -3.2847244    132.91087  0.080260187  0.088378879            1 
  139000    1.1917707   -3.2797289    134.76542  0.080794615  0.088340239            2 
  140000     1.207167   -3.2601888    135.77002  0.080815488  0.088309383            3 
  141000    1.1782473   -3.3055943    135.67054  0.080183533  0.088273446            2 
  142000    1.2006638   -3.2759342    137.43529  0.080654512  0.088232573            1 
  143000    1.2179186   -3.2554317     138.3125   0.08060169  0.088195149            2 
  144000    1.2169288   -3.3096052     139.4394  0.080694094  0.088159025            1 
  145000    1.1966257   -3.3182469     140.0541  0.080490862  0.088124044            2 
  146000     1.178099   -3.2762999    141.04248    0.0805037  0.088081564            3 
  147000    1.2028927   -3.2777712    141.72688  0.080344035   0.08803306            2 
  148000    1.2258921   -3.2701183    143.39348  0.080739575  0.088003247            1 
  149000    1.1563087   -3.2890868    144.88791  0.081033504  0.087973531            1 
  150000    1.2011596   -3.2759311    145.70873  0.080949293  0.087940089            2 
  151000    1.2158195   -3.2957831    146.64806  0.080931603  0.087911671            2 
  152000    1.1794278   -3.2710954    148.18339  0.081240893  0.087885778            1 
  153000    1.1913741   -3.2799066    148.55091  0.080910079  0.087867412            2 
  154000    1.1827088   -3.2891599    150.51564  0.081447857  0.087852499            2 
  155000    1.1858955   -3.3130952    151.39116  0.081393094   0.08784602            2 
  156000    1.2337631   -3.3286188    152.59835  0.081516213   0.08783138            1 
  157000    1.1882048   -3.3147679     154.6783  0.082101007  0.087830416            1 
  158000    1.1812667    -3.280558    154.87767  0.081686533  0.087829403            2 
  159000    1.1949854   -3.2822141    155.88536   0.08170092  0.087829015            4 
  160000    1.1930942   -3.3042006    156.98123  0.081761057  0.087831437            3 
  161000    1.1883933   -3.2724616    158.37316  0.081973682  0.087829606            2 
  162000    1.2128902   -3.2938764    158.54641  0.081556797  0.087820482            2 
  163000    1.1967687   -3.2925956     159.3753  0.081480216  0.087806556            2 
  164000    1.1528951   -3.2724481     159.9031  0.081251575  0.087787156            3 
  165000     1.197409   -3.2912651    161.13661  0.081382128  0.087753815            2 
  166000    1.2070569   -3.3171935    161.33346  0.080990694  0.087717526            3 
  167000    1.2089997   -3.2975918    162.55689  0.081116211  0.087680509            2 
  168000     1.229481   -3.3389067    163.31302  0.081008445    0.0876409            4 
  169000    1.1911546   -3.2544367    165.53773  0.081626097  0.087619985            1 
  170000    1.2042607   -3.2799162    167.00381  0.081864615  0.087601441            3 
  171000    1.1741543   -3.2936865    166.89319  0.081331964  0.087576175            2 
  172000    1.1878732   -3.3221272    166.94383  0.080883637  0.087550521            4 
  173000      1.17647   -3.2912244     169.3445  0.081572495  0.087527826            1 
  174000    1.2043079   -3.3275399    170.24299     0.081534  0.087504792            2 
  175000    1.1695368    -3.288539    172.06592  0.081936152  0.087480301            2 
  176000    1.1689739   -3.3135227    172.34656  0.081603487  0.087457296            1 
  177000    1.1843996   -3.3072671    172.95068  0.081426875  0.087430483            2 
  178000    1.1771834   -3.2836811    174.06807  0.081492543  0.087396868            2 
  179000    1.1712658   -3.3058574    174.15729  0.081078814  0.087359308            3 
  180000      1.19166   -3.2966834    175.17447  0.081099292  0.087327667            2 
  181000    1.1795175   -3.2656413    176.72504  0.081365121   0.08728879            5 
  182000    1.1741046   -3.2847666     177.7692  0.081396152  0.087243977            4 
  183000    1.1772837   -3.3036649    179.20157  0.081603628  0.087206979            5 
  184000    1.1862319   -3.3125663    179.15997  0.081141292  0.087170209            2 
  185000    1.1720299   -3.3287739    180.65368   0.08137553  0.087138401            1 
  186000    1.1880647    -3.315573     181.5857  0.081355599  0.087105725            1 
  187000    1.1683869    -3.290698    182.89065  0.081502073  0.087079819            2 
  188000    1.1629789   -3.2900539    184.11993  0.081613444  0.087050917            2 
  189000    1.1785004   -3.3375247    184.79622  0.081479814  0.087023865            2 
  190000    1.1887406   -3.3093793    185.53813  0.081376371  0.086993201            1 
  191000    1.1945731    -3.365902    186.51139  0.081374952  0.086967025            2 
  192000    1.1822129   -3.2920959    188.45579  0.081795048  0.086942268            5 
  193000    1.1930386   -3.3330832    188.50258   0.08139144  0.086920132            1 
  194000    1.1800248   -3.3300562    189.53434  0.081415096  0.086891952            2 
  195000     1.214442   -3.2856053    191.73811  0.081939362  0.086870715            2 
  196000     1.154513    -3.309049    191.56559  0.081447956  0.086849496            2 
  197000     1.177835   -3.2864412     192.5895  0.081467638  0.086824458            1 
  198000    1.1839252   -3.3389363    194.12226  0.081701288  0.086795051            4 
  199000    1.1896315    -3.321714    194.36242  0.081391299  0.086765199            3 
  200000    1.2033191   -3.3457194    195.80775  0.081586562   0.08673951            1 
  201000    1.1875333   -3.3301845    197.16472  0.081743249  0.086717147            3 
  202000    1.1863644   -3.3355422    197.47338  0.081465915  0.086690171            1 
  203000    1.1825214   -3.3020897    200.09246   0.08213976  0.086665861            1 
  204000    1.1807922   -3.3196704    199.92722  0.081669615  0.086646991            2 
  205000    1.1535787   -3.2943813    201.27281  0.081818217  0.086626959            2 
  206000    1.1580525   -3.2909942    202.36147  0.081861434  0.086605205            1 
  207000    1.1836719   -3.2972673    203.27904   0.08183536  0.086582854            1 
  208000    1.1753856   -3.3185045    203.43372  0.081503895  0.086561749            4 
  209000    1.1656687   -3.3032293    204.94119  0.081714986  0.086536804            3 
  210000      1.16705   -3.3337986     205.4398  0.081523731  0.086512613            5 
  211000     1.165321   -3.3234773    206.03697   0.08137321  0.086487877            1 
  212000    1.1945103   -3.2902395     207.4074  0.081528066  0.086467515            1 
  213000     1.165371   -3.3329935     209.4872  0.081958999  0.086443936            1 
  214000       1.1865   -3.3390883    209.45048  0.081561715  0.086426434            1 
  215000    1.1700639   -3.3345821    210.67105  0.081655446  0.086404793            1 
  216000    1.1790326   -3.3725469    211.86444  0.081737823  0.086383599            2 
  217000    1.1725977   -3.3355314    213.12029  0.081843429  0.086365534            3 
  218000    1.1629583   -3.3477689    214.20384  0.081882201  0.086347117            2 
  219000    1.1495682   -3.3298255    214.57357     0.081649   0.08632813            1 
  220000    1.1748776   -3.3158951    215.32859  0.081563861  0.086305764            3 
  221000    1.1820467   -3.3528761    216.09027  0.081482002    0.0862853            1 
  222000    1.1727204   -3.3352031    217.02683  0.081466529  0.086257965            1 
  223000    1.1396923   -3.3022558    219.91754  0.082181443  0.086234117            2 
  224000    1.1671271    -3.316496    219.88625  0.081802919  0.086213314            2 
  225000    1.1514187   -3.3627039    220.88931  0.081810857  0.086194958            2 
  226000    1.1680784   -3.3454802    222.99386  0.082224874  0.086183891            1 
  227000    1.1511569   -3.3434437    224.08954  0.082264882  0.086179394            3 
  228000    1.1633902   -3.3115822    225.27894  0.082338793  0.086168205            2 
  229000    1.1565543   -3.3366795    224.82807  0.081815164  0.086158796            1 
  230000    1.1665608   -3.3036104    226.99183  0.082243417   0.08615188            1 
  231000    1.1638659   -3.3329173    227.79306  0.082176427  0.086143417            1 
  232000    1.1485961   -3.3231805    229.32781  0.082373494  0.086139429            2 
  233000    1.1477818   -3.3070823    230.73525  0.082523338  0.086131381            2 
  234000     1.128495   -3.3370731    230.41831  0.082057802   0.08612366            2 
  235000    1.1573783   -3.3312142    231.56091  0.082113799  0.086111812            2 
  236000    1.1446186   -3.3284805    231.71192   0.08181918  0.086095083            3 
  237000    1.1727784   -3.3453674     231.9137  0.081544903   0.08607412            1 
  238000    1.1428372   -3.3195527    234.11126  0.081971731  0.086051188            2 
  239000    1.1704753   -3.3464663    234.00054  0.081590146   0.08602857            2 
  240000    1.1767094   -3.3654428     235.0353  0.081609477  0.086004873            2 
  241000    1.1316728   -3.3429385    236.96313  0.081937459   0.08598298            4 
  242000    1.1607458   -3.3331963    236.26492  0.081358445  0.085951923            1 
  243000    1.1757929   -3.3223285    235.66587  0.080818201  0.085914831            2 
  244000    1.1426713   -3.3465726    237.82393  0.081224021   0.08587807            4 
  245000    1.1287291   -3.3075966     237.4457  0.080763845  0.085838911            4 
  246000    1.1573704   -3.3112968    240.12586  0.081343447  0.085797749            2 
  247000    1.1275122   -3.3191938    240.86927  0.081264937  0.085761369            2 
  248000    1.1711144   -3.3664776    241.35967   0.08110204  0.085726232            2 
  249000     1.140586   -3.3231978    243.05207  0.081342726  0.085693935            1 
  250000    1.1685697   -3.3190206    243.20117  0.081067055  0.085661729            1 
  251000    1.1579699   -3.3426831    245.18734  0.081403498    0.0856295            3 
  252000     1.169964    -3.339702    246.33292  0.081459299   0.08560069            2 
  253000    1.1206174   -3.3378868     247.2742  0.081447366  0.085573047            2 
  254000    1.1470833   -3.3346977    248.21514  0.081435414  0.085548055            3 
  255000    1.1639099   -3.3533839     248.7566  0.081293005  0.085519709            3 
  256000    1.1554826   -3.3535493    249.22924   0.08112931  0.085488492            1 
  257000    1.1666652   -3.3650205    249.61269  0.080937967   0.08545616            1 
  258000    1.1575523   -3.3487558    250.91566  0.081045109  0.085420965            3 
  259000    1.1563916   -3.3175058    252.79943  0.081338299   0.08539133            3 
  260000    1.1231117   -3.3398082    253.34346  0.081199828  0.085360822            3 
  261000    1.1677248   -3.3574452    254.58921  0.081286465  0.085331644            1 
  262000    1.1316407   -3.3609977    255.68076  0.081323397  0.085299505            1 
  263000    1.1456776   -3.2923624     255.5328  0.080967301   0.08526687            1 
  264000    1.1798011   -3.3631778    257.13297  0.081165709  0.085235013            3 
  265000    1.1816872   -3.3390095     258.2236   0.08120239  0.085202197            1 
  266000     1.143832   -3.3784456    258.51154  0.080987323  0.085169286            2 
  267000    1.1352296    -3.325795     260.5271  0.081313076  0.085137076            1 
  268000    1.1529343    -3.348515    261.44853  0.081296183  0.085108996            1 
  269000    1.1466378     -3.36127     262.8251  0.081420416  0.085077979            3 
  270000    1.1452381   -3.3549026    262.58674  0.081045291  0.085049402            2 
  271000    1.1591709   -3.3533587    263.29195  0.080963084  0.085017554            1 
  272000    1.1702664   -3.3675988    263.54814  0.080743917  0.084982866            2 
  273000    1.1560316   -3.3402337    266.84423  0.081454282  0.084951829            4 
  274000    1.1274779   -3.3452225    267.69044  0.081414367  0.084922559            2 
  275000    1.1562959   -3.3264623    268.35708  0.081320328  0.084893906            2 
  276000    1.1484245   -3.3698138    268.00969  0.080920801  0.084865718            2 
  277000    1.1441722   -3.3563482    268.22037  0.080692048  0.084832678            2 
  278000    1.1624656   -3.3569283    270.37873   0.08104878  0.084798286            2 
  279000    1.1574678   -3.3844007     269.9325     0.080625  0.084765514            2 
  280000    1.1501493    -3.333713    271.64025  0.080845312  0.084733784            3 
  281000    1.1387361   -3.3567513    272.69481  0.080870348  0.084699349            2 
  282000    1.1563441   -3.3472022     273.2646  0.080751951  0.084668824            3 
  283000    1.1395286   -3.3814428    273.68466    0.0805903  0.084632636            3 
  284000    1.1593449    -3.369587    274.80798  0.080636146  0.084596461            3 
  285000    1.1176055   -3.3709464    275.32888  0.080505522  0.084559495            3 
  286000    1.1294248   -3.3805759    274.84509  0.080083069  0.084517272            2 
  287000    1.1386015   -3.3614364    276.13126  0.080177485  0.084473571            1 
  288000    1.1154584    -3.362905    276.75798  0.080080434  0.084431348            1 
  289000    1.1332539   -3.3980544    277.93157  0.080141745  0.084390836            2 
  290000    1.1441182    -3.354065    280.87892  0.080712333  0.084348105            5 
  291000    1.1145608   -3.2907113    281.02469  0.080476714    0.0843079            2 
  292000    1.1105836   -3.3515155    281.17491  0.080243981  0.084268969            1 
  293000    1.1558621   -3.3849362    281.64888  0.080104915  0.084225166            4 
  294000    1.1356306   -3.3875587    281.47661  0.079783619  0.084182845            2 
  295000     1.137035   -3.3590734    285.19768  0.080564317  0.084144029            1 
  296000    1.1512684   -3.3418002    284.53706  0.080106155  0.084106624            2 
  297000    1.1168619   -3.3703166    285.95727  0.080234924  0.084068766            2 
  298000    1.1321147   -3.3670763    285.42228  0.079816072  0.084032446            3 
  299000     1.135061   -3.3400763    288.05173  0.080281975  0.083992399            1 
  300000    1.1388797   -3.3637957    287.62981  0.079897168   0.08395219            1 
  301000    1.1424947   -3.3424064     289.5745  0.080170128  0.083913849            2 
  302000    1.1168241    -3.378971     289.5848  0.079907506  0.083877674            1 
  303000    1.1277222   -3.3864446    290.76179  0.079967489  0.083839767            2 
  304000    1.1187706   -3.3961233    291.71949  0.079966965  0.083803947            2 
  305000    1.1434802      -3.3322    293.12508  0.080088821  0.083767307            3 
  306000    1.1589871   -3.3323067      292.921  0.079771514  0.083731804            1 
  307000    1.1100392   -3.3900852    295.58527  0.080234872   0.08369798            2 
  308000    1.1302487   -3.3639476    295.37746  0.079918145  0.083663193            2 
  309000    1.1444701   -3.3714212    298.29823  0.080447203  0.083632035            2 
  310000    1.1193831   -3.3628835    297.97594  0.080101059  0.083598708            3 
  311000    1.1297532   -3.3648963    300.15179  0.080426526  0.083565416            1 
  312000    1.1578318   -3.3781088    299.98829  0.080125078  0.083531753            2 
  313000    1.1450445   -3.3763535    300.57206  0.080024511  0.083499385            2 
  314000    1.1144976   -3.3566646    301.83158  0.080103922  0.083466886            2 
  315000    1.1470629    -3.364802    302.62473  0.080059453  0.083435001            3 
  316000    1.1124064   -3.3958992    304.51244  0.080303914  0.083402693            4 
  317000    1.1298651   -3.3734651    304.25651   0.07998331  0.083371034            1 
  318000    1.1495358   -3.3880684    305.64489  0.080095621  0.083336952            4 
  319000    1.1216404   -3.3772491    306.43089  0.080049866  0.083304196            2 
  320000    1.1172664   -3.3472994    307.90358  0.080183223   0.08327153            1 
  321000    1.1107961   -3.3995879    308.10735  0.079986332  0.083238363            4 
  322000     1.126261   -3.3827086    309.58261  0.080119724  0.083208154            1 
  323000    1.1294718    -3.363997    309.26598  0.079789985  0.083176779            2 
  324000    1.1172582   -3.3657786    312.27481  0.080317596  0.083150219            3 
  325000    1.1072698   -3.4081825    310.51294  0.079618703  0.083119091            2 
  326000    1.1248399   -3.3656384    313.09608  0.080034786   0.08308804            2 
  327000    1.1316648   -3.4039513    315.05625  0.080289564    0.0830583            3 
  328000    1.1221075   -3.3831478    315.03107   0.08003838  0.083030817            2 
  329000     1.121421   -3.3608405    317.25236   0.08035774  0.083003387            2 
  330000    1.1180724   -3.3913945    315.97259  0.079791059  0.082976375            2 
  331000    1.1180771   -3.3705967    316.07606  0.079576047  0.082945979            2 
  332000     1.118079   -3.4057424    318.53493  0.079953546  0.082916894            1 
  333000    1.1226351   -3.3448818    320.64334  0.080241076  0.082888374            2 
  334000    1.1294966   -3.3815019    320.57979  0.079984978  0.082861221            3 
  335000    1.1176942   -3.3882332    322.54356  0.080234715  0.082835415            2 
  336000    1.1229798   -3.4147711     320.7874  0.079560367  0.082808493            1 
  337000    1.1154916   -3.4099343    323.82681  0.080075868  0.082782385            1 
  338000    1.1164438   -3.4278115    323.45547  0.079747405  0.082755183            2 
  339000    1.1285752   -3.3747742    326.72094  0.080314883  0.082727817            2 
  340000    1.1117761   -3.4056516    327.71974  0.080323464  0.082701231            2 
  341000    1.1291164    -3.413523    325.95276  0.079656099  0.082676354            3 
  342000    1.1090643   -3.4030364    328.18519  0.079967151  0.082651738            1 
  343000    1.1211958    -3.382854    329.28609  0.080001479  0.082624208            1 
  344000    1.1067125   -3.3952735    330.51335  0.080066217  0.082600705            1 
  345000    1.1154927   -3.4015846     331.7785  0.080139735  0.082577301            2 
  346000     1.097126   -3.3849912    331.74915  0.079901048  0.082553425            1 
  347000    1.1269587   -3.4241503    332.07128  0.079748146  0.082528892            1 
  348000     1.101178   -3.3502617    335.31136  0.080294867  0.082504578            1 
  349000    1.0735304    -3.410449    333.98925  0.079749104  0.082476027            4 
  350000    1.1046201   -3.4280823     334.2685  0.079587738  0.082448009            2 
  351000    1.0858388   -3.3904458    335.78994  0.079722207  0.082420661            1 
  352000    1.1170167   -3.3854912    336.99646  0.079781359  0.082393226            2 
  353000    1.1117973   -3.3813085    337.87502  0.079762753  0.082366656            5 
  354000    1.1059365   -3.4042711    337.40745  0.079427366   0.08233839            3 
  355000     1.143149   -3.4139815    337.86161  0.079310237  0.082311947            3 
  356000     1.132893   -3.3843214    338.91681  0.079334459  0.082281501            2 
  357000    1.1082733   -3.4094687    338.53141   0.07902227  0.082254731            2 
  358000    1.1259823   -3.4229159    340.42863  0.079243164  0.082223457            2 
  359000    1.1102282   -3.3858312    341.88139  0.079359655  0.082191773            2 
  360000    1.1304319   -3.4110498    342.01249  0.079169558  0.082158511            3 
  361000     1.084572   -3.4252154    342.76971  0.079125048  0.082126007            4 
  362000    1.1262241   -3.3999215    343.25527  0.079018248  0.082092412            3 
  363000    1.1186945   -3.4201462    343.65414  0.078892136  0.082061207            3 
  364000    1.1032991   -3.4301918    345.02345  0.078988886  0.082028304            1 
  365000    1.1162508   -3.4046577    346.38697  0.079083783  0.081998242            1 
  366000    1.1182488   -3.3997689    348.13569  0.079265867  0.081969431            2 
  367000    1.1034964   -3.4094192    349.47495  0.079353985  0.081941142            2 
  368000    1.1026739   -3.3972531    350.84613  0.079448852  0.081911304            2 
  369000    1.0745012   -3.4043388    350.26134  0.079101477  0.081880692            2 
  370000    1.1189727   -3.4220989     351.4632  0.079158378  0.081850534            1 
  371000    1.1164642   -3.4048184    353.31602  0.079361191  0.081822067            1 
  372000    1.0922586   -3.4113642    354.23815  0.079354424  0.081794497            2 
  373000    1.1368084    -3.409795    353.18028  0.078905334  0.081766622            3 
  374000    1.0955791   -3.4273111    355.86988  0.079293644  0.081739354            1 
  375000    1.1179081   -3.4246684    355.40329  0.078978509  0.081712052            1 
  376000    1.1015295   -3.4089338    357.10825  0.079146331   0.08168742            2 
  377000    1.1076206   -3.4242695    357.25848  0.078969602  0.081662049            1 
  378000    1.1130824   -3.4101174    361.45937   0.07968681  0.081638389            3 
  379000    1.0903343   -3.4088549    360.77972  0.079327116  0.081615354            2 
  380000    1.1135884   -3.4385924    360.54701  0.079067326  0.081590194            1 
  381000    1.1266702   -3.4295533    363.53154  0.079512586  0.081563633            4 
  382000    1.1220002   -3.4122192    362.27952  0.079031308  0.081537081            3 
  383000     1.108962   -3.4232641    363.91659  0.079181156  0.081512626            2 
  384000    1.0961713   -3.4162813    365.05772  0.079222595  0.081486514            3 
  385000    1.0797621   -3.4126858    365.52697  0.079118391  0.081461945            2 
  386000    1.1050104   -3.4206987    365.28558  0.078861308  0.081435054            1 
  387000    1.1278347   -3.4052307    367.28423  0.079087905  0.081409212            1 
  388000    1.1114423   -3.4259903    367.32772  0.078893411  0.081380711            2 
  389000    1.0994008   -3.3986952    370.49356    0.0793688   0.08135575            7 
  390000    1.0858887   -3.4309412    370.13672  0.079089043  0.081331257            2 
  391000    1.0915028   -3.4318843    370.34063  0.078930227  0.081306732            3 
  392000    1.0814204    -3.429851    371.20435  0.078912489   0.08128094            2 
  393000    1.1056025   -3.4278724    371.52104  0.078778846  0.081254504            2 
  394000    1.1049077   -3.4254823    372.76558  0.078842128  0.081228227            2 
  395000    1.0816973   -3.4033334    375.19267  0.079154571  0.081201606            1 
  396000    1.0776151   -3.3981176     374.8239  0.078877084  0.081175644            2 
  397000    1.1085922   -3.4395172     375.1601   0.07874897  0.081150532            3 
  398000    1.1059485   -3.4138304    377.90038  0.079124871  0.081124354            3 
  399000    1.0771531    -3.402667    379.14181  0.079185842  0.081100582            3 
  400000    1.0811117   -3.4161754    376.99799  0.078541247  0.081075356            2 
  401000    1.0999811   -3.4274635    380.26251  0.079023797  0.081047695            2 
  402000    1.1030048    -3.408218    378.82795   0.07852984  0.081023432            2 
  403000    1.0853897   -3.4300301    380.33243  0.078646078  0.080998988            3 
  404000    1.0818215   -3.4094337    382.18543  0.078833628  0.080975044            2 
  405000    1.0652295   -3.4208899    383.20201  0.078848149  0.080952122            1 
  406000    1.1016157   -3.4064284    384.74866  0.078971401  0.080929147            2 
  407000    1.0797318    -3.404633    385.56054    0.0789436   0.08090485            2 
  408000    1.0858655   -3.3876099    386.72911  0.078988788  0.080882675            2 
  409000    1.0929263   -3.4069577    387.08811  0.078868809  0.080858945            2 
  410000    1.0898925   -3.4198019    387.63561  0.078787725  0.080836987            2 
  411000    1.0797504    -3.415643    388.60135  0.078791839  0.080813269            2 
  412000    1.0791476   -3.4296647    388.98938  0.078679081    0.0807891            2 
  413000    1.0622975   -3.4390286    388.68266  0.078426688  0.080763512            2 
  414000    1.0860208   -3.4612311    389.25252  0.078351956  0.080737989            2 
  415000    1.0836784    -3.383534    391.59903  0.078634343  0.080714622            2 
  416000    1.0974123   -3.3946794    391.83788  0.078493165   0.08068941            3 
  417000    1.0737144   -3.4355969    391.90282   0.07831791  0.080666155            1 
  418000    1.1232431   -3.4347392     394.7218  0.078692544  0.080640292            2 
  419000    1.0898134   -3.4367415    395.71215    0.0787017   0.08061575            2 
  420000    1.0955338   -3.4311949    396.00271  0.078571967  0.080592667            1 
  421000    1.0846262   -3.4065633    396.83009  0.078549106  0.080568644            2 
  422000    1.0664018   -3.4211011    398.66052  0.078724432  0.080545117            4 
  423000    1.0810577   -3.4240229    397.62392  0.078334105  0.080518768            3 
  424000    1.0891283   -3.4348006    397.90173  0.078203957  0.080493629            2 
  425000    1.0773574   -3.4409656    399.80325  0.078392793  0.080467197            3 
  426000    1.0878742   -3.4271004    400.78639  0.078401093  0.080441508            2 
  427000    1.0891938   -3.4386966     399.6591  0.077997481  0.080414823            3 
  428000    1.0707526   -3.4342074    402.70021  0.078407362  0.080388801            2 
  429000    1.0752569   -3.4508208    401.89955  0.078069065  0.080363045            1 
  430000    1.0830123   -3.4194248    401.91381  0.077890273  0.080334284            2 
  431000    1.0651602   -3.4704499    403.47954  0.078012286  0.080305963            4 
  432000    1.0938453   -3.4254193     404.9887  0.078122819  0.080278736            3 
  433000    1.1027373   -3.4286149     405.7695  0.078092667  0.080251494            2 
  434000    1.0884776    -3.449546    407.04648  0.078157925  0.080226937            3 
  435000    1.0834838   -3.4423902    406.07852  0.077792819  0.080201304            4 
  436000    1.0897943   -3.4305283    408.23241  0.078026072   0.08017353            4 
  437000    1.0731188   -3.4334717    408.59072   0.07791585  0.080148273            1 
  438000    1.0788309   -3.4431669    411.13171  0.078221405  0.080121386            2 
  439000    1.0654103   -3.4559348     410.3345  0.077891894  0.080095231            2 
  440000    1.0790114    -3.434646    410.13532  0.077677144   0.08006645            2 
  441000    1.0931104   -3.4969178    409.70951  0.077420541  0.080038473            2 
  442000    1.0603174    -3.451134    412.79945   0.07782795  0.080011867            1 
  443000     1.087839   -3.4408925    414.72037  0.078013614  0.079985003            2 
  444000    1.0948539   -3.4631073    413.32645  0.077576285  0.079956365            4 
  445000    1.0793278   -3.4616833    413.94103  0.077517047  0.079925891            3 
  446000    1.1005368   -3.4514462    415.65606  0.077663689  0.079896202            1 
  447000    1.1016674   -3.4023192    416.24674  0.077600064  0.079866394            2 
  448000    1.0603572   -3.4468523    417.90468  0.077735246  0.079835992            1 
  449000    1.0996562   -3.4490747     418.6404  0.077698664  0.079806827            3 
  450000    1.0699874   -3.4297927     419.1881  0.077627427  0.079777907            1 
  451000    1.0736518   -3.4610165     418.8234  0.077387915  0.079749016            1 
  452000    1.0681993   -3.4629629    420.67277  0.077557663  0.079717176            1 
  453000    1.0772459   -3.4794258    417.52614  0.076807604  0.079685594            4 
  454000    1.0858475   -3.4562802    419.41042  0.076984291  0.079652551            3 
  455000    1.0522163   -3.4529177    422.44686   0.07737122  0.079620053            2 
  456000    1.0890877   -3.4537402    421.82649  0.077088174  0.079587026            2 
  457000    1.0877911   -3.4738423    424.93226  0.077485825  0.079553609            2 
  458000    1.0767526   -3.4938715    424.59075  0.077254503  0.079522527            2 
  459000    1.0654086   -3.4695811    424.06455  0.076990659  0.079491361            2 
  460000    1.0677979   -3.4292858    427.36318  0.077420866  0.079462839            4 
  461000    1.0643169   -3.4628248    426.46513  0.077090587  0.079430267            2 
  462000    1.0773725   -3.4408364    427.67017  0.077141084  0.079399798            4 
  463000    1.0636129   -3.4499783     426.1765  0.076705633  0.079367869            3 
  464000    1.0521363   -3.4607703    429.43702  0.077125902  0.079336095            2 
  465000    1.0818623    -3.464272    429.12076  0.076903362  0.079304535            4 
  466000    1.0666705   -3.4859319      429.269  0.076764843  0.079273239            4 
  467000     1.075565   -3.4683172     429.8992   0.07671292  0.079239803            1 
  468000    1.0742428   -3.4825311     430.6568  0.076683902  0.079205851            2 
  469000    1.0593286   -3.4566916    433.26831   0.07698442  0.079173082            1 
  470000    1.0530043    -3.465359    433.58408   0.07687661  0.079140249            3 
  471000    1.0679821   -3.4696782    432.88379  0.076589488   0.07910928            2 
  472000     1.056638   -3.4632128    435.30069  0.076853934  0.079080141            3 
  473000    1.0699463   -3.4637939    436.52265  0.076906739  0.079048732            2 
  474000    1.0777007    -3.465469    438.06305  0.077015304  0.079018756            2 
  475000    1.0469651   -3.4596226    436.74325  0.076621622  0.078989531            2 
  476000    1.0595435   -3.4664288    438.83886  0.076827531  0.078958746            5 
  477000    1.0479059   -3.4658371    438.86657  0.076671308  0.078928572            2 
  478000    1.0492927   -3.4571227    439.36841  0.076598399  0.078897357            2 
  479000    1.0681202   -3.4766064    442.07329  0.076909063  0.078869685            3 
  480000     1.050454   -3.4727594    442.66977  0.076852391  0.078842066            2 
  481000    1.0563372   -3.4639992    442.43699  0.076652286  0.078813626            1 
  482000     1.063073   -3.4831916    443.15495  0.076617384  0.078783803            1 
  483000    1.0646461   -3.4205847    446.95643  0.077114636  0.078754374            1 
  484000    1.0594089   -3.4568128     444.9971  0.076617958  0.078726222            1 
  485000    1.0810849   -3.4640369    443.83891  0.076260981  0.078695793            1 
  486000    1.0526912   -3.4911554    445.66278  0.076416801  0.078666286            2 
  487000    1.0474605    -3.476812    447.05518  0.076498148  0.078636675            2 
  488000    1.0496541    -3.486657    448.24393  0.076544387  0.078607285            5 
  489000    1.0351167   -3.4853408    449.58464  0.076616333  0.078577366            3 
  490000    1.0597732   -3.4830394    451.57648  0.076798721  0.078550463            4 
  491000    1.0443217   -3.4716642    452.71395  0.076835361  0.078523451            2 
  492000    1.0441951   -3.4751507    453.64584  0.076837032   0.07849517            1 
  493000     1.044645    -3.481225    453.49453  0.076655601  0.078466251            4 
  494000     1.064283   -3.4817224    452.24331  0.076289358  0.078435643            1 
  495000    1.0371789   -3.4534625    456.51273  0.076853995  0.078407006            1 
  496000    1.0714095   -3.4786696    455.05918  0.076454836  0.078378463            4 
  497000     1.072813   -3.4901967    455.37943    0.0763547  0.078349505            3 
  498000    1.0750421   -3.4584286    456.35464  0.076364565  0.078320637            2 
  499000    1.0614773   -3.4801738    457.88351  0.076466852   0.07829131            4 
  500000    1.0312448   -3.4993477    458.58946  0.076431576  0.078261171            4 
  501000    1.0457307   -3.4745002    460.13572  0.076536214   0.07823202            5 
  502000    1.0387249   -3.4702129    459.11086  0.076213621  0.078202627            3 
  503000    1.0590836   -3.4627748    458.91651  0.076029906  0.078172451            2 
  504000    1.0500299   -3.4843052    461.13123  0.076245243  0.078142181            1 
  505000    1.0500016   -3.4536568    463.27089  0.076447341  0.078112466            2 
  506000    1.0552543   -3.4866242    461.31475  0.075974103  0.078082237            1 
  507000    1.0777207   -3.4778343    463.10666   0.07611878  0.078051454            1 
  508000    1.0460255   -3.4932071      461.128  0.075644357  0.078019027            2 
  509000    1.0568961   -3.4851243    464.93419  0.076118891    0.0779846            2 
  510000    1.0641155   -3.4948279    463.60061  0.075751733  0.077951397            2 
  511000    1.0574251   -3.4977224    464.84987   0.07580722  0.077920159            3 
  512000    1.0559207   -3.5189527    466.69876  0.075960084  0.077889354            2 
  513000    1.0377366   -3.5021922     467.3725  0.075921459  0.077858359            4 
  514000    1.0553307   -3.4875463    469.56226   0.07612877  0.077828363            4 
  515000    1.0702055   -3.5113832    468.11228  0.075746323  0.077798653            2 
  516000    1.0431752   -3.4710071    469.89556  0.075887526  0.077769583            2 
  517000    1.0612756   -3.5284592     469.6903  0.075707656  0.077739555            2 
  518000    1.0581205   -3.4837116    472.86073  0.076071545  0.077709947            3 
  519000    1.0315406   -3.5056055    470.97194  0.075621699  0.077679141            3 
  520000    1.0575591   -3.5215354    473.32876  0.075853968  0.077647868            2 
  521000    1.0467886   -3.5128103    473.17346  0.075683535  0.077618162            3 
  522000    1.0296218   -3.4898411    474.68126  0.075779255  0.077588981            1 
  523000    1.0514954   -3.4919464    475.62893  0.075785361  0.077559713            2 
  524000    1.0431321   -3.5163693    475.55313  0.075628679  0.077530522            3 
  525000    1.0549609   -3.4640239    477.26092  0.075755701  0.077500292            1 
  526000     1.046176   -3.4832326    475.90615  0.075397045  0.077470293            4 
  527000    1.0474075   -3.5049748    479.28851  0.075788822  0.077441797            2 
  528000    1.0419034   -3.4703405     479.3063  0.075648091  0.077412263            2 
  529000    1.0423935   -3.5021476    481.74829  0.075889775  0.077382522            3 
  530000    1.0696708   -3.4821696    481.59916  0.075723138  0.077355215            2 
  531000    1.0351011   -3.4843926    481.90162  0.075628001  0.077327204            5 
  532000    1.0442988   -3.4918786    481.72313  0.075457884  0.077299299            5 
  533000    1.0539456   -3.4872313    485.26634  0.075870285  0.077272298            3 
  534000    1.0343855   -3.4602567     484.2014  0.075562016  0.077243163            1 
  535000     1.034892   -3.4817476    484.40732  0.075452853  0.077214063            3 
  536000    1.0469103   -3.4887896     484.1863  0.075277721  0.077184251            2 
  537000     1.064905   -3.5209633    484.95454  0.075256756  0.077154113            3 
  538000    1.0378456   -3.5113936    486.20618  0.075310747  0.077123381            2 
  539000    1.0589154   -3.5019238     488.3888  0.075508472  0.077092914            2 
  540000    1.0467511   -3.5035728    487.50359  0.075232035  0.077062373            4 
  541000     1.020916   -3.4978781    489.97094  0.075473035  0.077033038            3 
  542000     1.067221   -3.5384961    489.38261  0.075243329  0.077003009            3 
  543000    1.0326868   -3.5215079    490.20434  0.075230868  0.076973485            3 
  544000    1.0510033   -3.5288746    492.42772  0.075433168  0.076945442            4 
  545000    1.0441524   -3.5054981    491.91294  0.075216046  0.076917732            3 
  546000     1.051224   -3.5044217    491.27665  0.074981174  0.076888893            5 
  547000    1.0699797   -3.5042257    493.18256  0.075134455  0.076860685            5 
  548000    1.0449622   -3.5040416    493.44876  0.075037828  0.076831913            3 
  549000     1.033717   -3.4981929    496.46726  0.075359329  0.076803287            2 
  550000     1.037521    -3.487168    495.94298  0.075142875  0.076775644            4 
  551000    1.0316903   -3.4997721    498.18162  0.075345072  0.076748766            2 
  552000    1.0158607   -3.5111201    497.16585  0.075055231  0.076720687            2 
  553000    1.0161881   -3.5184715    498.20819   0.07507658  0.076691862            6 
  554000    1.0402679   -3.4992662    498.79314  0.075029053  0.076663565            2 
  555000    1.0429912   -3.5008022    497.43177  0.074689454  0.076634334            3 
  556000    1.0227006   -3.5395304    499.36028  0.074844166  0.076605402            1 
  557000    1.0464425   -3.5288037    500.44677  0.074872348  0.076574526            2 
  558000    1.0174984   -3.5393132    501.33252  0.074870449  0.076545539            3 
  559000    1.0277921   -3.5086018    503.58696  0.075072594  0.076516921            2 
  560000   0.99347791   -3.5219157    502.84369   0.07482793  0.076487492            2 
  561000    1.0462878   -3.5133808    502.86209  0.074697281  0.076458436            7 
  562000    1.0242425   -3.5028353    502.86764   0.07456519   0.07642744            3 
  563000    1.0413723   -3.4980309    503.13293  0.074472015   0.07639675            2 
  564000    1.0207149   -3.5139812    507.21312  0.074942838  0.076367022            3 
  565000    1.0136041   -3.4841844    507.70659  0.074882977  0.076337523            4 
  566000    1.0012551   -3.4952442    507.54682  0.074727152   0.07630758            2 
  567000     1.003726   -3.4930162    509.25169  0.074845928  0.076279839            3 
  568000    1.0351711   -3.5074518    510.50484  0.074898011  0.076253451            6 
  569000    1.0231524   -3.5103504    509.79069  0.074661788  0.076225716            3 
  570000    1.0273064   -3.5413185    508.55323  0.074349888  0.076197336            4 
  571000    1.0150178    -3.513963    513.54679  0.074948451  0.076168623            3 
  572000    1.0039743   -3.5029632    513.13256  0.074757074  0.076141396            4 
  573000    1.0126434   -3.5198069    513.57686  0.074691224  0.076114617            3 
  574000    1.0295187    -3.506609    515.94023  0.074904215  0.076089447            2 
  575000    1.0200205   -3.5226698    517.53659  0.075005303  0.076063824            2 
  576000    1.0509759   -3.5363639    517.12574  0.074815645  0.076037548            2 
  577000    1.0317611   -3.5217411    516.91092  0.074654957  0.076012025            2 
  578000    1.0274596   -3.5144095    517.03302    0.0745434  0.075986975            3 
  579000    1.0332224   -3.5162537    518.61917  0.074642944  0.075961189            3 
  580000    1.0215801   -3.5165784    519.99944  0.074712563  0.075935447            4 
  581000    1.0266283    -3.513316    521.20685  0.074757149  0.075910607            3 
  582000    1.0247642   -3.5427894    521.98351  0.074739907   0.07588563            4 
  583000    1.0265632   -3.5271687     522.0192   0.07461681  0.075860491            2 
  584000    1.0227736    -3.516812    521.80221  0.074458078  0.075834847            1 
  585000    1.0104787   -3.5148635    524.56736  0.074724695  0.075810023            1 
  586000    1.0227126   -3.5366615     523.4044  0.074431797  0.075783653            2 
  587000    1.0182803   -3.5485462     523.4978  0.074318257  0.075756557            4 
  588000    1.0401289   -3.5388692    524.83197  0.074380949  0.075730218            3 
  589000    1.0156717   -3.5064008    525.42626  0.074338746  0.075703659            2 
  590000    1.0353735   -3.5133578    527.28283  0.074474975  0.075676772            1 
  591000    1.0137976   -3.5290904    527.31768  0.074353875  0.075649694            3 
  592000    1.0189566   -3.4938946    527.07829   0.07419458  0.075622362            2 
  593000    1.0121911   -3.5332713    528.78622  0.074309475  0.075596582            2 
  594000    1.0236914   -3.5029946    528.06998  0.074083892  0.075570218            2 
  595000    1.0058124   -3.5242737    527.07591  0.073820155  0.075542389            4 
  596000    1.0411854   -3.5511321    531.34251  0.074292857  0.075514606            3 
  597000    1.0142834   -3.5558505     529.8257  0.073956687  0.075485997            3 
  598000    1.0064471   -3.5717949     531.1178  0.074013071  0.075457935            2 
  599000   0.98688847   -3.5310073    530.18226  0.073759357  0.075429316            3 
  600000    1.0131985   -3.5498202    528.71941  0.073433252  0.075399186            2 
  601000    1.0136338   -3.5421949    532.78619  0.073874957  0.075370144            1 
  602000   0.99758652   -3.5305036    532.58332  0.073724159  0.075340137            2 
  603000      1.01594   -3.5518208    533.58095  0.073739767    0.0753107            3 
  604000    1.0086228   -3.5228648    535.14524  0.073833505  0.075281819            4 
  605000    1.0269367   -3.5692797    531.34444   0.07318794  0.075252005            3 
  606000    1.0097067   -3.5655907    533.78395  0.073402634  0.075220906            3 
  607000    1.0186607   -3.5316962    535.72607  0.073548335  0.075189791            4 
  608000    1.0248378   -3.5261115    534.78647  0.073298584  0.075158657            1 
  609000    1.0259155   -3.5555535    536.14051  0.073363506  0.075127511            3 
  610000   0.99892978   -3.5313716    534.96425  0.073082548  0.075096257            3 
  611000    1.0008919    -3.552097    539.54123  0.073587183  0.075065079            4 
  612000    1.0307748   -3.5758811    537.19089  0.073146907  0.075032575            4 
  613000    1.0141045   -3.5220927    537.54218  0.073075337   0.07499919            2 
  614000    1.0003961   -3.5278958    540.84454  0.073404525  0.074966317            2 
  615000    1.0035995   -3.5270681    541.51446  0.073375942  0.074933972            3 
  616000   0.98804763   -3.5608167     540.9501  0.073180478  0.074901611            2 
  617000    1.0150771    -3.582328    539.51411  0.072867925  0.074867782            2 
  618000    1.0170071   -3.5492471    540.43593  0.072874317  0.074835028            4 
  619000     1.006377   -3.5164769     541.3857  0.072884451  0.074802163            1 
  620000    1.0082153   -3.5199456    545.15998  0.073274191  0.074770489            1 
  621000   0.99983188   -3.5663549    544.17967  0.073024647  0.074738984            5 
  622000   0.98984021   -3.5421936    547.45046  0.073345453  0.074706212            4 
  623000    1.0030139   -3.5215649    545.03545  0.072904688   0.07467483            4 
  624000    1.0215099   -3.5520519    545.88678  0.072901547  0.074643684            5 
  625000    1.0074949   -3.5357196    546.50664  0.072867552  0.074612851            3 
  626000    1.0265294   -3.5398045    547.96855   0.07294576  0.074580863            4 
  627000   0.98897728   -3.5617227    547.69333   0.07279284  0.074549286            1 
  628000     1.019207   -3.5767381    548.47344  0.072780446  0.074517308            3 
  629000    1.0307646   -3.5622625    549.41051  0.072788886  0.074486042            2 
  630000    1.0158742   -3.5505611    549.54417  0.072691028  0.074454144            4 
  631000   0.99913072   -3.5455287    549.88853  0.072621305   0.07442333            1 
  632000   0.99326159   -3.5477973    552.67129  0.072873324  0.074391273            4 
  633000   0.98185983   -3.5467978      553.454  0.072861243  0.074359723            2 
  634000   0.99386598   -3.5715736    552.44682  0.072613935  0.074328446            2 
  635000    0.9762339   -3.5492245    551.87598  0.072424669  0.074297081            3 
  636000   0.97757732   -3.5819055    550.75811  0.072164323  0.074264927            2 
  637000    1.0092727   -3.5632474    554.49214  0.072539527  0.074231558            1 
  638000   0.99554801   -3.5623984    552.67294  0.072188211  0.074199129            3 
  639000     1.003676   -3.5464961    556.82588  0.072616834  0.074167494            3 
  640000    1.0087275   -3.5616462    554.01586  0.072137481  0.074134952            3 
  641000    0.9720257   -3.5763137    557.49559  0.072477326  0.074102036            4 
  642000   0.99067082   -3.5730181    558.00386  0.072430408  0.074070077            5 
  643000   0.97385623   -3.5623462    558.24093  0.072348488  0.074038307            4 
  644000   0.99479895   -3.5440138    560.42937  0.072519328   0.07400561            3 
  645000     1.002887   -3.5806572    560.37954  0.072400457  0.073973341            1 
  646000   0.99985795   -3.5705782    558.56761  0.072054645  0.073941249            5 
  647000    1.0084236   -3.5526371    560.97516  0.072253369  0.073908827            5 
  648000    1.0048749   -3.5649048    561.35877    0.0721912  0.073877285            2 
  649000    1.0122964   -3.5768444    561.01076   0.07203528  0.073845708            2 
  650000    0.9765102   -3.5717104    562.76498  0.072149357  0.073813127            1 
  651000    1.0031637   -3.5591317    563.72562  0.072161498  0.073780683            2 
  652000    1.0036469   -3.5674478    566.03323   0.07234576  0.073749809            4 
  653000   0.99784975   -3.5711912     565.0032  0.072103522  0.073718802            3 
  654000    1.0074891   -3.5686412    565.66581  0.072077703  0.073687767            3 
  655000   0.99694383   -3.5751449    566.80244   0.07211227  0.073656806            3 
  656000   0.98484889   -3.5514344    568.09314  0.072166304  0.073625401            2 
  657000   0.98518014   -3.5859989    568.28193  0.072080407  0.073593426            3 
  658000   0.98118534    -3.580438    568.29579  0.071972618  0.073561768            3 
  659000   0.99240357   -3.5669113    567.05862  0.071706958  0.073529027            3 
  660000    1.0117582   -3.6025695     569.0342  0.071847752  0.073497291            3 
  661000   0.98445481   -3.5406422    573.18491  0.072262343  0.073465166            4 
  662000   0.97641469   -3.5604468    571.15716  0.071897931  0.073434199            2 
  663000   0.99161581    -3.592078     570.7892  0.071743237  0.073401347            4 
  664000   0.99764988   -3.5858657     567.4578  0.071217094  0.073367647            3 
  665000   0.98188167   -3.5820871    570.85892  0.071536206  0.073334009            2 
  666000   0.97765845   -3.5763988    571.40238  0.071496794   0.07330043            4 
  667000   0.97420536   -3.5797732    573.77144  0.071685587  0.073267557            4 
  668000   0.97876662   -3.5541244    575.00616  0.071732305  0.073235547            3 
  669000   0.98798587   -3.5635489    574.18729  0.071523081  0.073204618            3 
  670000   0.98974017   -3.5597792    574.36212  0.071438075  0.073172258            7 
  671000   0.98681301   -3.5674048    575.39613  0.071460025  0.073140025            2 
  672000   0.96650594   -3.5760133    577.69862  0.071639213  0.073109213            5 
  673000   0.97770233   -3.5559995    579.79691  0.071792585  0.073077971            4 
  674000    1.0038964   -3.6062424    578.18719  0.071487041  0.073046051            2 
  675000   0.97388204   -3.5690348    577.00622  0.071235336  0.073014266            2 
  676000   0.97722739   -3.5600086    579.65453  0.071456426  0.072982712            3 
  677000   0.98542571    -3.613208    578.62451   0.07122409  0.072951731            2 
  678000   0.97765994   -3.5783837    581.93483  0.071525914  0.072920012            1 
  679000   0.99031583   -3.5744401    581.15388  0.071324727  0.072888541            1 
  680000   0.99104636   -3.5778263    582.71676  0.071411368  0.072858036            7 
  681000   0.98524213   -3.5622686     583.8226  0.071441826  0.072826357            3 
  682000   0.97952326   -3.6011587    583.54196  0.071302781  0.072794921            2 
  683000   0.95592232   -3.5751827    586.00922  0.071499417  0.072764098            2 
  684000   0.97962532   -3.5828889    585.29501  0.071307872  0.072733334            1 
  685000   0.96504112   -3.5764927    585.21043  0.071193482  0.072702558            3 
  686000   0.99622145   -3.5822025    588.00605  0.071429307  0.072671259            3 
  687000    0.9765216   -3.5851337    585.78698  0.071056159  0.072639101            4 
  688000    0.9918833    -3.576492     585.1762    0.0708789  0.072607138            2 
  689000   0.98347579    -3.592451    588.26747  0.071149912  0.072575182            3 
  690000    0.9845779   -3.5878285    588.14569  0.071032088  0.072543774            3 
  691000   0.96857631   -3.5767036    589.72879  0.071120211  0.072512347            3 
  692000    0.9703154   -3.5958058    590.47727  0.071107571  0.072480874            3 
  693000   0.98191246   -3.5849644     591.1843  0.071089983  0.072449189            3 
  694000   0.98614347   -3.5896821    589.84442  0.070826659   0.07241745            4 
  695000   0.96042393   -3.5929917    593.76629  0.071194999   0.07238635            7 
  696000   0.98182399   -3.5872523    592.60345  0.070953478  0.072355731            4 
  697000   0.94752963   -3.5991182     590.0838  0.070550431  0.072324617            3 
  698000   0.96565733   -3.5814282    593.93203  0.070908791  0.072293216            2 
  699000   0.98340071   -3.6041998     595.2284  0.070961898  0.072261715            4 
  700000   0.96969048   -3.5734342    595.42287  0.070883674  0.072230755            2 
  701000   0.96737842   -3.6143651    592.50939  0.070436209  0.072199157            5 
  702000   0.98439769    -3.587818    596.27857  0.070783306  0.072167277            9 
  703000   0.97228053   -3.5953029    594.06523   0.07042025  0.072134545            2 
  704000   0.94239823   -3.5648261     594.7874  0.070405705  0.072102048            3 
  705000   0.98108104   -3.6090481    594.37471  0.070257058  0.072069688            4 
  706000   0.97510018   -3.6161468    595.76926   0.07032215   0.07203672            2 
  707000   0.98433159   -3.6002616    599.19864  0.070626902  0.072004455            3 
  708000   0.98286009   -3.5924177     600.8913  0.070726378   0.07197289            2 
  709000   0.96528028   -3.5969688    600.34529  0.070562446  0.071942071            2 
  710000   0.97331566    -3.604622    600.46405  0.070477001   0.07191087            4 
  711000   0.96316809   -3.6106515     601.3722  0.070484318  0.071879122            4 
  712000   0.98300957   -3.5874286    601.79978  0.070435368   0.07184798            2 
  713000   0.97289434   -3.5872852    602.20934  0.070384448  0.071816941            2 
  714000   0.96520791   -3.5773095    601.31183  0.070181119   0.07178534            7 
  715000   0.94831927   -3.5954464    605.25022  0.070541984  0.071755565            3 
  716000   0.96696576   -3.5768889    606.76861  0.070620183   0.07172544            2 
  717000   0.95956635   -3.6209964    603.92527  0.070191221  0.071695927            3 
  718000   0.96793376   -3.6201616    604.85582  0.070201465  0.071665981            3 
  719000   0.96199704   -3.6117062    607.29105  0.070386074  0.071636529            2 
  720000   0.96226786   -3.6035292    607.66847  0.070331998   0.07160674            3 
  721000   0.96391529   -3.6211149    608.67833   0.07035117  0.071576941            3 
  722000   0.98149369   -3.6351929    610.73106  0.070490658  0.071547963            2 
  723000   0.95838179   -3.6302482    611.55308  0.070487907  0.071519151            2 
  724000   0.97211633   -3.6215161    608.38139  0.070025482  0.071490069            4 
  725000    0.9648663    -3.610112    609.56096  0.070064478  0.071460907            2 
  726000   0.96248417   -3.6307268    613.39157  0.070407664  0.071431746            2 
  727000   0.98312182   -3.5940881      615.519  0.070554676  0.071401775            1 
  728000   0.93094431   -3.5998014     614.8402   0.07038006  0.071372793            3 
  729000   0.96354939   -3.6123079    614.50437  0.070245126  0.071343418            2 
  730000   0.97501705   -3.6186552    613.28226  0.070009391  0.071313909            3 
  731000   0.96990251   -3.6127483    613.28533  0.069913968  0.071284294            2 
  732000   0.97030438   -3.6099717    616.73917  0.070211654  0.071254471            3 
  733000   0.97104062   -3.6149725    618.46185  0.070311715  0.071225218            3 
  734000   0.96831924   -3.6351489    617.62647  0.070121079  0.071195887            3 
  735000   0.95771187   -3.5876485    619.97869  0.070292368  0.071167145            6 
  736000   0.95552197   -3.6042443    620.40523  0.070245158  0.071138552            2 
  737000   0.95665463   -3.6149764    617.65856  0.069839276  0.071109371            5 
  738000   0.95270284    -3.629698    619.75639  0.069981525  0.071079836            5 
  739000   0.96159067   -3.6144663    618.98104  0.069799395   0.07105037            4 
  740000   0.96716954   -3.6332859    621.50397  0.069989186  0.071021154            2 
  741000   0.96600783   -3.6288525    621.75968  0.069923491  0.070991438            4 
  742000   0.96556569    -3.613845    621.47613  0.069797409  0.070962101            3 
  743000   0.95701927   -3.6301946    619.31628  0.069461224  0.070932895            3 
  744000   0.95909697   -3.6084273    624.00038  0.069892516  0.070903624            4 
  745000   0.97289157   -3.6502779    621.80662  0.069553313  0.070874362            2 
  746000   0.94934974   -3.6463425    622.42456  0.069529106  0.070845392            2 
  747000   0.93497566   -3.6218517    623.69275  0.069577505  0.070815416            3 
  748000   0.96779469    -3.612509    623.60117  0.069474284   0.07078524            3 
  749000   0.96376575   -3.6304954    624.26016  0.069454846  0.070755207            2 
  750000   0.95725277   -3.5910741    626.76981   0.06964109   0.07072519            4 
  751000   0.94032579   -3.6517355    626.70359   0.06954101   0.07069523            4 
  752000   0.95292924   -3.6005579      628.606  0.069659353  0.070665155            5 
  753000   0.95336164   -3.6086579    628.61292   0.06956761  0.070635599            2 
  754000   0.91811503   -3.6260668    626.72261  0.069266425  0.070605133            2 
  755000   0.96122497   -3.6263223    628.49477  0.069370284  0.070574266            1 
  756000   0.95303549   -3.6160511     630.3945  0.069487929  0.070544674            3 
  757000   0.92902889   -3.6352155    628.62757  0.069201626  0.070513429            4 
  758000   0.96188904   -3.6240971    629.05987  0.069157857  0.070483354            6 
  759000   0.97304087   -3.6256655    630.51485  0.069226488  0.070452756            3 
  760000   0.96127123   -3.6222805    631.54581  0.069248444  0.070422664            3 
  761000   0.93625161   -3.6446967    628.99964  0.068878629  0.070391328            3 
  762000   0.93195807   -3.6431318    629.60791  0.068854758  0.070359583            3 
  763000   0.93948517    -3.641917    630.82016  0.068896916  0.070328223            3 
  764000   0.95216292   -3.6290892    635.63224  0.069331615  0.070297266            4 
  765000   0.92770883   -3.6126285    634.17316  0.069082044  0.070266888            3 
  766000    0.9642483   -3.6253543    634.58151  0.069036283  0.070236039            4 
  767000    0.9408503   -3.6219658    634.62192  0.068950665  0.070205804            5 
  768000   0.95099531   -3.6072803    634.56426  0.068854629  0.070175487            4 
  769000   0.96536893   -3.5915543    632.42121  0.068532858  0.070144999            3 
  770000   0.94549229    -3.628799    634.74289  0.068695117  0.070113874            2 
  771000   0.95447087   -3.6216483    635.95514  0.068737045  0.070082003            7 
  772000   0.93822901   -3.6602665    635.20636  0.068567181  0.070051093            2 
  773000   0.91865173   -3.6540821    634.58196  0.068411165  0.070019045            3 
  774000   0.95182869   -3.6146051    639.33644  0.068834673  0.069988332            4 
  775000   0.91437077   -3.6554996    638.04289  0.068606763  0.069957313            1 
  776000   0.93002998   -3.6431039    638.68061  0.068586835  0.069925654            2 
  777000   0.95007056   -3.6244941    640.55964   0.06870009  0.069893901            2 
  778000   0.93940039   -3.6052285    642.64522  0.068835178  0.069862337            2 
  779000   0.92577044   -3.6138878    640.99425  0.068570202  0.069830395            2 
  780000    0.9326968   -3.6368862    640.68497  0.068449249  0.069798747            3 
  781000   0.93122713   -3.6423779    643.34123   0.06864503  0.069767576            3 
  782000   0.92727266   -3.6436047    642.86059   0.06850603  0.069736707            3 
  783000   0.94310434   -3.6405002    643.65414  0.068502995  0.069706491            3 
  784000   0.94091965   -3.6336144     642.0876  0.068249107   0.06967518            4 
  785000   0.93208516    -3.644421    643.46956   0.06830887  0.069644245            1 
  786000   0.94202949   -3.6312789     643.4797  0.068223038  0.069612413            2 
  787000   0.92714673   -3.6449468    645.87535  0.068390021  0.069580729            3 
  788000   0.92909052   -3.6337928    645.39491  0.068252423  0.069548996            2 
  789000   0.95629194   -3.6391422    645.50823  0.068177887  0.069516547            2 
  790000   0.93753517   -3.6511852    647.63695  0.068316134  0.069484748            3 
  791000    0.9510028   -3.6193725    648.86302  0.068358936  0.069452521            6 
  792000   0.94526136   -3.6512857    647.54867   0.06813433  0.069421044            3 
  793000   0.93550179   -3.6602595    645.27681  0.067809668  0.069389198            3 
  794000   0.93026985   -3.6379472    648.19581  0.068030627  0.069357661            4 
  795000   0.95164095   -3.6762734     647.5391  0.067876216  0.069325423            3 
  796000   0.93957433   -3.6346971    649.06043  0.067950212  0.069293619            2 
  797000   0.95508265   -3.6446219    649.14167   0.06787345  0.069262389            8 
  798000   0.92638743   -3.6463971    648.45738  0.067716936  0.069230117            4 
  799000   0.94778683    -3.658273    649.33811  0.067724042  0.069197701           10 
  800000   0.92993779   -3.6427424    649.89356  0.067697245  0.069166361            3 
  801000   0.93045761   -3.6524389    651.96691  0.067828434  0.069135156            3 
  802000   0.92518591   -3.6586794    651.40512  0.067685487  0.069103074            4 
  803000   0.95156427   -3.6332813     654.1027  0.067881144  0.069072088            3 
  804000   0.93385665   -3.6323832    652.40866  0.067621129  0.069041109            3 
  805000   0.94290935   -3.6280439    653.96951  0.067698707  0.069009355            3 
  806000   0.91935749   -3.6585091    655.96361  0.067820886  0.068978358            3 
  807000   0.91679125   -3.6687392    654.53179  0.067588992  0.068946376            4 
  808000    0.9321603    -3.662485    656.48904  0.067707203  0.068914209            3 
  809000     0.926734   -3.6510294    656.05465  0.067578765   0.06888262            2 
  810000   0.91668121   -3.6855005    658.51137  0.067748083  0.068851717            3 
  811000   0.93359165   -3.6737887    658.76894  0.067691013  0.068819825            7 
  812000   0.92268669   -3.6483335    657.91917  0.067520441  0.068788614            2 
  813000   0.91537937   -3.6649498    658.86515  0.067534353  0.068757119            4 
  814000   0.91758523   -3.6666644    660.56848  0.067625766  0.068726702            4 
  815000   0.91541252   -3.6517369    662.96554  0.067787888  0.068696037            2 
  816000   0.93296657   -3.6962662    661.37306  0.067542184    0.0686652            3 
  817000   0.92833372   -3.6573199    661.40277  0.067462543  0.068634899            3 
  818000   0.94092479   -3.6452406    663.93395  0.067637932  0.068604659            3 
  819000    0.9272188   -3.6950371    659.58542  0.067112884  0.068573399            5 
  820000   0.92542393   -3.7005898    659.89001  0.067061993  0.068541287            1 
  821000   0.92810498    -3.687131    659.19214  0.066909474   0.06850932            4 
  822000   0.91827525    -3.666199    663.40501  0.067255171    0.0684783            4 
  823000   0.89783623   -3.6703089    661.36563  0.066966953  0.068446669            2 
  824000   0.93729833   -3.6430841    663.67159   0.06711889  0.068414826            4 
  825000   0.91902583   -3.6799176    667.75574  0.067450075  0.068383424            4 
  826000   0.91915406    -3.660994     664.7974  0.067069956  0.068352115            4 
  827000   0.89772241   -3.6733104    664.80269  0.066989388  0.068319822            5 
  828000   0.91641118    -3.688261    665.29965    0.0669585  0.068287326            4 
  829000   0.92146523   -3.6950194    666.49734  0.066998124  0.068255531            3 
  830000   0.91007534   -3.6873678    667.32929  0.067000932  0.068223554            2 
  831000   0.93362465   -3.6874697    667.84548   0.06697207  0.068192192            4 
  832000   0.91683058   -3.6648826    667.38317  0.066845269  0.068160451            2 
  833000   0.91632654   -3.6787884    667.90873    0.0668176   0.06812865            5 
  834000   0.93520817   -3.6903121    666.83822  0.066630518  0.068095521            4 
  835000   0.91087432   -3.6821972      671.143  0.066980339  0.068062912            3 
  836000   0.90509621    -3.672577    669.40532  0.066727006  0.068030931            2 
  837000   0.93088147   -3.6945318      670.557  0.066761947   0.06799916            4 
  838000   0.93993452   -3.6762444    669.08435  0.066535835  0.067966859            4 
  839000   0.92710186   -3.6880416    670.47861  0.066595014  0.067934505            4 
  840000   0.89584134   -3.6558019    669.62383  0.066430935  0.067902754            2 
  841000   0.92554043   -3.7068511    669.75952   0.06636539   0.06787012            8 
  842000   0.89543064   -3.6808408    671.49453  0.066458287  0.067837195            4 
  843000   0.89226207    -3.681591    671.97097  0.066426549  0.067804198            2 
  844000     0.936843   -3.6610087    670.93371   0.06624543  0.067771464            5 
  845000   0.88253564   -3.6941648    672.14421  0.066286411  0.067738074            3 
  846000    0.9043149   -3.6824592    672.70849  0.066263642  0.067704492            5 
  847000   0.91133778   -3.6735199    674.80499  0.066391675  0.067671236            5 
  848000   0.91400204   -3.6984794    674.47251   0.06628071  0.067638312            2 
  849000   0.91484592   -3.6776748     673.8708   0.06614358  0.067605438            2 
  850000   0.93704909   -3.6798966    675.40452  0.066216129  0.067573004            8 
  851000   0.91321283   -3.6860895    674.50855  0.066050582  0.067539476            2 
  852000   0.92487818   -3.6493692    674.50318  0.065972533  0.067505754            4 
  853000    0.9099053   -3.7019142    676.69627  0.066109444   0.06747208            1 
  854000   0.90749104   -3.7011192    676.71735  0.066034089  0.067438964            1 
  855000   0.91330651    -3.698808    677.88925  0.066071077  0.067405433            2 
  856000   0.91354452   -3.6959878    679.25447  0.066126798  0.067372049            3 
  857000   0.91369127   -3.6971021    677.12512  0.065842582  0.067337955            3 
  858000   0.91439404   -3.6628457     680.9963  0.066141832  0.067304281            2 
  859000    0.9001419   -3.6684107    681.99106  0.066161337  0.067271266            2 
  860000   0.90889008   -3.6771422     679.4898  0.065842035  0.067237727            7 
  861000   0.93059969   -3.7261142    677.29133  0.065552781   0.06720412            3 
  862000   0.91273702   -3.6646868    680.30017  0.065767611  0.067170746            3 
  863000   0.90659908   -3.7168603    680.01209  0.065663585  0.067137137            4 
  864000   0.90873129      -3.6839    682.95115   0.06587106  0.067103756            2 
  865000   0.91251081   -3.7105376     681.3963  0.065645115  0.067070195            3 
  866000   0.92577631   -3.7068041    680.37597  0.065471129  0.067036751            3 
  867000   0.91376946   -3.6758494    685.65423  0.065902944  0.067003387            3 
  868000    0.9454452   -3.6785468    682.20618  0.065495985  0.066970195            2 
  869000   0.90838993    -3.710843    680.36467  0.065244023  0.066936316            3 
  870000   0.90770875   -3.7019576    680.86529  0.065216982  0.066902655            3 
  871000   0.90772922   -3.6784765    683.83685  0.065426412  0.066868703            6 
  872000   0.92412657   -3.6926189    683.04001   0.06527523  0.066834938            2 
  873000   0.89939058   -3.6727568    688.30159   0.06570271  0.066801348            5 
  874000   0.90575334   -3.7355461    683.96403  0.065213962  0.066767334            5 
  875000   0.91419007   -3.6713783     688.4744   0.06556899  0.066733221            4 
  876000   0.89185308   -3.7048585    687.05292  0.065358915  0.066698748            5 
  877000    0.9105015   -3.7072601    685.95972  0.065180513  0.066664394            3 
  878000   0.89719484   -3.7055507    687.54232  0.065256485  0.066630153            3 
  879000   0.92450606   -3.6811119    686.65921  0.065098522  0.066595997            4 
  880000   0.88887768   -3.7035864    686.92424  0.065049644  0.066562031            4 
  881000   0.89757376   -3.7104701     688.0488  0.065082179   0.06652746            8 
  882000   0.89318362   -3.6989268    687.05123  0.064914137  0.066492896            4 
  883000    0.9097602   -3.6980977    688.73753  0.064999767  0.066458343            2 
  884000   0.91233064   -3.6798957    688.93172  0.064944544  0.066423572            5 
  885000   0.89099456   -3.7008385    688.74758  0.064853821  0.066388353            4 
  886000   0.91944643   -3.6743055    689.57776  0.064858705  0.066353688            4 
  887000   0.90650202   -3.6955855      688.718  0.064704811  0.066319259            5 
  888000   0.88955995    -3.697524    689.02222  0.064660494  0.066284617            3 
  889000   0.89149784   -3.7123883    688.71535  0.064558994  0.066249995            8 
  890000   0.89434347   -3.7310927    689.18651  0.064530572  0.066215157            1 
  891000   0.87603794   -3.7172214    689.53742  0.064490967  0.066179597            3 
  892000   0.90048013   -3.7200216    692.23089    0.0646703  0.066144678            3 
  893000   0.87896356   -3.7151605    692.95471  0.064665426  0.066109715            5 
  894000   0.90450243   -3.7096709    695.40903  0.064821871  0.066075047            3 
  895000   0.88993739   -3.7327344    693.01705  0.064526727  0.066040323            2 
  896000   0.89333053   -3.6934581     694.7536   0.06461622  0.066005725            5 
  897000    0.8712225   -3.7233517    692.75071  0.064358111  0.065971036            3 
  898000   0.89948002   -3.6874614    692.33972  0.064248304  0.065935763            4 
  899000   0.90951954   -3.6924247    693.94727   0.06432585  0.065900123            3 
  900000    0.8897696   -3.7202221     694.9162  0.064344092  0.065864493            3 
  901000   0.89033869   -3.7036006    696.30444  0.064401077   0.06582904            3 
  902000   0.88311863   -3.6977705    697.25867  0.064417838  0.065793829            5 
  903000    0.8918777    -3.716741    696.29563  0.064257626  0.065758167            4 
  904000   0.89628037   -3.6998077    696.51099  0.064206396  0.065723087            4 
  905000   0.90382044   -3.7223523    694.10698  0.063914087  0.065687861            1 
  906000   0.88595824   -3.7355614    695.05633  0.063930862  0.065652521            3 
  907000   0.88590967    -3.733233    697.15059  0.064052792   0.06561717            7 
  908000   0.87733245    -3.717153    696.07975  0.063883971  0.065582072            2 
  909000   0.88133369   -3.6902502    698.77307  0.064060604  0.065546696            2 
  910000   0.89716369   -3.7144461    698.44381  0.063960055  0.065512144            3 
  911000   0.89943634   -3.7089744    699.75624  0.064009901  0.065476871            6 
  912000   0.86500923   -3.7521877    699.71701   0.06393613  0.065441677            8 
  913000   0.88772512   -3.7321497    700.88184  0.063972421  0.065406506            4 
  914000   0.89820584   -3.7523341     697.9253  0.063632868  0.065371386            3 
  915000   0.89931647   -3.7110198    700.89885  0.063834139  0.065336683            4 
  916000   0.88925728   -3.7233574    702.43811  0.063904486  0.065301523            6 
  917000   0.90985017   -3.7196885    700.09637  0.063621989  0.065266835            2 
  918000   0.90606464    -3.726564     702.9432  0.063811111  0.065231816            2 
  919000   0.89157567   -3.7331925    703.86319  0.063825099  0.065197071            5 
  920000    0.8784169    -3.729589    703.13476  0.063689743  0.065161976            8 
  921000   0.88275028   -3.7430004    701.89241   0.06350818  0.065127098            4 
  922000   0.88480004   -3.7430246    704.79235  0.063701406  0.065092789            3 
  923000   0.89390476   -3.7167896    703.62208  0.063526732  0.065057881            4 
  924000   0.89501621    -3.721909    703.94473  0.063487079  0.065023563            5 
  925000   0.87591918   -3.7318124    704.02008  0.063425232  0.064988882            2 
  926000   0.87237441   -3.7323342    705.19675   0.06346263   0.06495425            8 
  927000   0.89005401   -3.7423627    705.19741  0.063394229  0.064919822            2 
  928000    0.8915081   -3.7147926    707.67827  0.063548695  0.064885254            2 
  929000   0.86909033   -3.7310849    706.59577  0.063383187  0.064850356            5 
  930000   0.86301295    -3.747939     705.2776  0.063196917  0.064816023            4 
  931000   0.85665599   -3.7393273    708.78258  0.063442766  0.064781695           13 
  932000   0.89630596   -3.7344917    706.60658   0.06318013  0.064747375            6 
  933000    0.8803126   -3.7626358    708.65834  0.063295671  0.064712782            4 
  934000   0.88444249   -3.7276007    708.47183  0.063211263  0.064678179            3 
  935000    0.8727625   -3.7261566    710.44323  0.063319361  0.064643959            2 
  936000   0.88312972   -3.7115296    708.79835  0.063105266  0.064609266            2 
  937000    0.8674486   -3.7296016    712.58519  0.063374705  0.064575032            5 
  938000   0.86735112   -3.7464176    711.05546  0.063171239  0.064540427            5 
  939000   0.85586625   -3.7226815    713.32761  0.063305609  0.064505793            2 
  940000   0.88362335   -3.7389755    712.04113  0.063124214  0.064471261            3 
  941000   0.86404389   -3.7110667    710.50491  0.062921086  0.064436603            4 
  942000   0.88193188   -3.7387464    714.80442  0.063234644  0.064402033            2 
  943000   0.86344616   -3.7339208    713.84925  0.063083179  0.064367882            3 
  944000   0.88727963   -3.7548193    712.63131  0.062908837  0.064332942            7 
  945000   0.89042658   -3.7698261    714.05023  0.062967392   0.06429801            5 
  946000   0.88572866   -3.7441803    713.29821  0.062834585  0.064263356            3 
  947000    0.8618211   -3.7395062    712.92182  0.062735113  0.064228896            6 
  948000   0.88747545   -3.7472885    714.00158  0.062763852   0.06419464            5 
  949000   0.87360353   -3.7229558    713.43446  0.062647915  0.064160144            3 
  950000   0.86640893   -3.7511621     714.8013  0.062701868  0.064125575            2 
  951000   0.87153755   -3.7446778    717.33823   0.06285824  0.064091617            3 
  952000   0.87245216   -3.7570506    715.49497  0.062630862  0.064057008            3 
  953000   0.90007968   -3.7361377    719.85226  0.062946157  0.064023445            2 
  954000   0.87341453   -3.7378917    719.72725  0.062869257  0.063990025            6 
  955000   0.86369678   -3.7234378    721.89439   0.06299253  0.063956794            6 
  956000   0.85274146   -3.7393586    721.48083  0.062890588   0.06392357            6 
  957000   0.87685673   -3.7491138    720.31013   0.06272293  0.063890449            3 
  958000   0.85979706   -3.7437316    718.98779  0.062542431  0.063857572            3 
  959000   0.86800912    -3.742914    723.24322  0.062846995  0.063824673            2 
  960000    0.8830248   -3.7390136    721.67627  0.062645509  0.063791653            3 
  961000   0.87038453   -3.7293501    721.34195  0.062551331  0.063758587            3 
  962000   0.86625384   -3.7610283     722.8187  0.062614233  0.063725749            6 
  963000   0.86223037    -3.784928    722.74807    0.0625431  0.063692465            9 
  964000   0.88638387   -3.7897919    721.73522  0.062390666  0.063658721            3 
  965000   0.87723837   -3.7464946    720.87657  0.062251863  0.063625124            4 
  966000   0.87231464   -3.7375073    724.22764  0.062476505  0.063591765            3 
  967000   0.87528075   -3.7502241    723.81834  0.062376624  0.063558328            7 
  968000   0.87223965   -3.7585082    724.17955  0.062343281   0.06352448            4 
  969000   0.84865331   -3.7740966     723.8935  0.062254343  0.063491108            1 
  970000   0.85458634   -3.7429744     725.6593  0.062341864  0.063457783            5 
  971000   0.85419056   -3.7881526    725.58791  0.062271533  0.063424564            3 
  972000   0.86474848   -3.7555859    725.30539  0.062183246  0.063391125            6 
  973000   0.87596023   -3.7667183    727.37815  0.062296861  0.063357627            4 
  974000   0.87311808   -3.7455033    726.20637  0.062132647  0.063324387            4 
  975000   0.86206807     -3.76086    727.83696  0.062208287  0.063291344            2 
  976000   0.87988922   -3.7575937     725.3963   0.06193616  0.063257584            3 
  977000    0.8551529   -3.7753892    727.08939  0.062017177   0.06322335            5 
  978000   0.84670065   -3.7567683    729.28434  0.062140792  0.063189505            2 
  979000   0.87888181   -3.7797811    726.43875    0.0618351   0.06315589            6 
  980000    0.8531244     -3.74778     729.7375  0.062052508  0.063122033            4 
  981000   0.85442976   -3.7651819    729.47561  0.061967007  0.063088725            3 
  982000   0.85638664   -3.7574712    728.01273  0.061779763  0.063055166            2 
  983000   0.88642936   -3.7577087    730.88717  0.061960594  0.063022095            4 
  984000   0.83938092   -3.7699936    728.67963  0.061710673  0.062988607            4 
  985000   0.86854953   -3.7793116    730.72686  0.061821223  0.062955406            5 
  986000   0.87665942    -3.769792    731.23693  0.061801634  0.062922575            4 
  987000   0.88188964   -3.7649987     732.3881  0.061836212  0.062889534            4 
  988000   0.86157275    -3.768053    732.44093  0.061778081  0.062856423            3 
  989000   0.88148889   -3.7893198    732.85008  0.061750091  0.062823417            3 
  990000   0.85021905   -3.8159363    730.20761  0.061465287  0.062789903            4 
  991000   0.86641453   -3.7675375    734.06995  0.061728048  0.062756482            2 
  992000   0.85934785   -3.7729999    733.94049  0.061654947  0.062722755            4 
  993000   0.84510283   -3.7611922    732.86042  0.061502218  0.062689518            2 
  994000   0.85923332   -3.7768908    734.88153  0.061609786  0.062656115            4 
  995000   0.85526296     -3.77749    736.64554  0.061695606  0.062623018            8 
  996000   0.86396963   -3.7679586     739.6094  0.061881643  0.062590487            5 
  997000   0.86609716   -3.8067305    736.63034  0.061570573  0.062557774            5 
  998000   0.84726861   -3.7786498    736.21475  0.061474178  0.062524974            7 
  999000   0.83922896   -3.8022544    735.39237  0.061344042  0.062492226            4 
 1000000   0.85502295   -3.7788469    738.06003  0.061505003  0.062460129            6 
 1001000   0.87415263   -3.7755994    739.18108  0.061536886  0.062427611            3 
 1002000   0.86810584    -3.780704    739.38063  0.061492068  0.062394894            5 
 1003000   0.86310092   -3.7711984    737.61288  0.061283888  0.062361808            6 
 1004000   0.86211312   -3.7606917     739.8153  0.061405652  0.062329217            3 
 1005000   0.83832541   -3.7893423    737.44816  0.061148272  0.062296335           11 
 1006000   0.87292698    -3.794551    737.96094  0.061129965  0.062262947            5 
 1007000   0.86226763   -3.7545364    741.92165  0.061397025  0.062230531            4 
 1008000   0.84589902   -3.7875486    741.65054  0.061313702  0.062198234            3 
 1009000   0.85481528   -3.7990241     736.5022  0.060827734  0.062165769            2 
 1010000   0.85351277   -3.7721739    741.78084   0.06120304  0.062133597            6 
 1011000   0.85714315     -3.79426    738.61913  0.060881894  0.062101173            7 
 1012000   0.84363281   -3.7804502    741.40178  0.061050871  0.062068872            4 
 1013000   0.86479032   -3.7769662    738.70212  0.060768519  0.062036393            7 
 1014000   0.84243255   -3.7790011    743.74678  0.061123174  0.062003903            3 
 1015000   0.84952437   -3.7846469    742.10958  0.060928537  0.061970785            5 
 1016000   0.85363546   -3.8047985    742.17322  0.060873788  0.061937617           10 
 1017000   0.84098876   -3.8054137    744.67911  0.061019265  0.061905049            5 
 1018000   0.85738815   -3.8279535    743.42354  0.060856544  0.061872104            3 
 1019000   0.84500177   -3.7949729    745.39579  0.060958111  0.061839519            3 
 1020000   0.84895094   -3.7956688    744.35323  0.060813172   0.06180686            3 
 1021000   0.85717488   -3.7826426    744.40345  0.060757709  0.061774413            4 
 1022000   0.84229003   -3.8091098    743.95923  0.060662038   0.06174172            3 
 1023000   0.83566996   -3.8012947    744.17093  0.060619984  0.061709453            5 
 1024000   0.85301909   -3.7712582    746.02101  0.060711345  0.061677116            3 
 1025000   0.85966273    -3.772481    746.80299   0.06071569  0.061644936            4 
 1026000    0.8322597   -3.8126031    746.38823  0.060622825  0.061612753            6 
 1027000   0.86140276   -3.8147628    750.93519  0.060932748  0.061580366            6 
 1028000   0.83652981   -3.7830105    749.17478   0.06073077  0.061548058            6 
 1029000   0.84005375   -3.8260218    749.38523  0.060688794  0.061516093            8 
 1030000   0.81393192    -3.813272    750.84115  0.060747666  0.061484222            3 
 1031000   0.84175569   -3.7862946    751.93148  0.060776873  0.061453126            6 
 1032000   0.83485278   -3.8214565     751.2248  0.060660917   0.06142162            2 
 1033000   0.82398625   -3.8357948    748.35047  0.060370318  0.061389802            6 
 1034000   0.84500468   -3.7802463    753.85444  0.060755516   0.06135824            4 
 1035000   0.81323606   -3.8089392    752.67914  0.060602185  0.061326936            9 
 1036000   0.85399037   -3.8218725    749.70198  0.060304213  0.061295214            4 
 1037000   0.82733872   -3.7965341    752.38488  0.060461658  0.061264172            2 
 1038000   0.84302424   -3.8039712    755.54019  0.060656727  0.061233065            4 
 1039000   0.84790475   -3.8106419     755.5731  0.060600987  0.061201937            3 
 1040000     0.836448    -3.816746    754.40236  0.060448907  0.061170891            5 
 1041000   0.83269381    -3.817128    754.24324  0.060378101  0.061140249            3 
 1042000     0.811446   -3.8358251    755.61633  0.060429969  0.061109636            3 
 1043000   0.82880348   -3.7880506    756.92638    0.0604767  0.061078738            4 
 1044000   0.83163702   -3.8168974    755.78987  0.060328055  0.061048195            3 
 1045000   0.83300392   -3.7981131    760.00403  0.060606382  0.061017805            2 
 1046000   0.84120641   -3.7933811     760.9021  0.060619989  0.060987357            3 
 1047000   0.83144938   -3.8182908    756.11958  0.060181438   0.06095695            3 
 1048000    0.8319481   -3.8151254    758.09695  0.060281246  0.060926107            3 
 1049000   0.84382934    -3.788051    759.91448  0.060368167  0.060895487            4 
 1050000    0.8403994   -3.8352995    756.96479  0.060076571    0.0608652            6 
 1051000   0.82924025   -3.8207141    760.07391   0.06026593  0.060834778            2 
 1052000   0.83806486    -3.822303    761.31209  0.060306725  0.060804586            5 
 1053000   0.82154159   -3.7948596    762.94327  0.060378543  0.060774885            4 
 1054000   0.80700617   -3.8276711    760.63451  0.060138718  0.060744392            4 
 1055000   0.84773325   -3.7676239    761.47829  0.060148364  0.060714132            2 
 1056000   0.81201084   -3.8293268    760.78007  0.060036306  0.060684186           12 
 1057000   0.81485866   -3.7956351    765.53185  0.060354135  0.060653736            3 
 1058000   0.81868731   -3.8133542    762.54267  0.060061647  0.060623439            3 
 1059000   0.82719006   -3.7919915    761.94416  0.059957835   0.06059244            2 
 1060000   0.81189867   -3.8193577    763.94865  0.060058856  0.060562353            3 
 1061000   0.82612736   -3.7989793    764.43868  0.060040738   0.06053224            4 
 1062000   0.83324683   -3.8131305    765.94483  0.060102388  0.060501697            2 
 1063000   0.82244217   -3.8239485    765.50086  0.060011043  0.060471491            4 
 1064000   0.82980899   -3.8164533    765.11416  0.059924355  0.060440901            4 
 1065000   0.83161417   -3.8148332    764.19787  0.059796391  0.060410073            6 
 1066000   0.83243351   -3.8359467      763.535  0.059688477  0.060379334            5 
 1067000   0.81335273   -3.8105455    767.16468  0.059916017  0.060348404            5 
 1068000   0.82311081   -3.8126922    766.32174  0.059794143  0.060318017            5 
 1069000   0.82824459   -3.8274159    764.23833  0.059575798  0.060287369            8 
 1070000   0.81377918   -3.8402694    762.24106  0.059364568  0.060257005            6 
 1071000    0.8042159   -3.8369288    764.68441  0.059499253  0.060226074            3 
 1072000   0.81928609     -3.81548    765.20527  0.059484241  0.060195166            5 
 1073000   0.82872864    -3.828618    770.35752  0.059828947  0.060164718            5 
 1074000   0.83360606   -3.8411359    768.41525  0.059622537  0.060134292            5 
 1075000   0.81452026   -3.8386051    766.57251  0.059424226  0.060103646            2 
 1076000   0.81525206   -3.8490645     767.0561  0.059406451  0.060072879            5 
 1077000   0.82133315   -3.8285022    770.41057  0.059610846  0.060042323            2 
 1078000   0.82454323    -3.830961    767.76856  0.059351311  0.060011777            3 
 1079000   0.83302502   -3.8371433    768.92478  0.059385602  0.059981152            3 
 1080000   0.82399807    -3.845011    768.33337  0.059284982  0.059950921            7 
 1081000   0.82300233   -3.8357301    768.51375  0.059244045  0.059920362            5 
 1082000   0.81014886   -3.8060542    769.00319  0.059226986  0.059890097            3 
 1083000   0.82701546   -3.8297012    770.98101  0.059324485   0.05985972            2 
 1084000   0.81899465   -3.8305108    769.15176  0.059129133  0.059829419            4 
 1085000   0.83952648   -3.8543416    769.37986  0.059092155  0.059798537            4 
 1086000   0.82794702   -3.8209674    770.96794  0.059159602  0.059767606            4 
 1087000   0.80490001    -3.843918    769.93602  0.059026067   0.05973649            4 
 1088000   0.82049895   -3.8255134    768.46404  0.058859072  0.059705468            5 
 1089000   0.81823089   -3.8552276    770.73015  0.058978432  0.059674498            5 
 1090000   0.81495624   -3.8451182     769.4976  0.058830092  0.059642955            6 
 1091000   0.82971601   -3.8253918    769.54592  0.058779859  0.059611338            9 
 1092000   0.81435112   -3.8373926    772.74222   0.05896995  0.059579833            4 
 1093000   0.82789745   -3.8269344    775.34592   0.05911451  0.059548553            3 
 1094000   0.81636349   -3.8377174    772.89617   0.05887387  0.059517467            7 
 1095000   0.82356002   -3.8317918    772.45928  0.058786855  0.059486304            6 
 1096000   0.81533369   -3.8447407    770.51017  0.058585019  0.059454624            8 
 1097000   0.82314046   -3.8235188    771.21411  0.058585089  0.059422992           10 
 1098000    0.8126578   -3.8646204    770.83765  0.058503161  0.059391895            3 
 1099000   0.81610272   -3.7967233    774.08514  0.058696174   0.05936069            6 
 1100000   0.82925458    -3.862268    772.94261  0.058556258  0.059329545            4 
 1101000   0.81954414   -3.8775195    774.73627  0.058638833  0.059298482            6 
 1102000   0.81776998   -3.8807166    776.41879  0.058712855  0.059267487            6 
 1103000   0.80788496   -3.8460146    774.94211  0.058548059  0.059236736            3 
 1104000   0.82336903   -3.8594299    774.98681    0.0584984  0.059205623            2 
 1105000   0.81268856   -3.8401915    775.73525  0.058501904  0.059174853            3 
 1106000   0.80240664   -3.8340088    778.82553  0.058681851  0.059144039            2 
 1107000   0.80809996   -3.8666915    778.26512  0.058586655  0.059113791            4 
 1108000    0.8002601   -3.8648263    776.92606  0.058433067  0.059083604            5 
 1109000   0.81932607   -3.8604086    776.42808  0.058342958  0.059053026            2 
 1110000    0.8143711   -3.8283763    780.07563  0.058564236  0.059022558            3 
 1111000    0.8172481   -3.8589663    779.19343  0.058445352  0.058992202            4 
 1112000   0.80628867   -3.8800727    780.53931  0.058493653  0.058961512            7 
 1113000    0.8042854   -3.8563058    780.38287  0.058429386  0.058931053            6 
 1114000    0.8050414   -3.8490821    780.47448  0.058383788  0.058900808            4 
 1115000   0.79981963   -3.8479144    781.02898  0.058372868  0.058870519            2 
 1116000    0.8400905   -3.8682159    781.39108  0.058347601  0.058839802            5 
 1117000   0.79037652   -3.8259613    780.75775  0.058248116  0.058809287            2 
 1118000   0.81123655   -3.8653616      779.548  0.058105844  0.058778348            6 
 1119000   0.80823299   -3.8501269    779.59528  0.058057439  0.058747492            3 
 1120000   0.82066583   -3.8628945    784.07544  0.058338947  0.058716575            4 
 1121000   0.82390954   -3.8844563    781.98156  0.058131249  0.058685916            9 
 1122000   0.80766088   -3.8669819     780.9519  0.058002963  0.058655441            6 
 1123000   0.81785445    -3.864239    784.16122  0.058189464  0.058624756            4 
 1124000   0.81654436   -3.8721983    782.75351  0.058033327  0.058594288            3 
 1125000   0.80336022   -3.8660113    783.29874  0.058022129  0.058563744            6 
 1126000    0.7904383   -3.8753311    783.44945  0.057981753  0.058533229            5 
 1127000    0.7973373   -3.8454359    783.97718  0.057969327   0.05850247            5 
 1128000   0.79937255   -3.8804981    785.05207  0.057997345  0.058471611            9 
 1129000   0.78984669   -3.8581317    783.55353  0.057835365  0.058440848            4 
 1130000   0.80215539   -3.8588572    783.13714  0.057753477  0.058409974            5 
 1131000   0.80430274   -3.8602922    783.79561  0.057750929  0.058379414            4 
 1132000   0.78540103   -3.8678533    783.79998  0.057700234  0.058349036            5 
 1133000   0.82332203   -3.8831381    787.04787  0.057888193  0.058318635            4 
 1134000   0.79580517    -3.850004    787.51821  0.057871709  0.058288761            5 
 1135000   0.80088396   -3.8748926    788.52966  0.057894982   0.05825882            4 
 1136000   0.79555868   -3.8677976    789.52186  0.057916803   0.05822857            3 
 1137000   0.78426717   -3.8749088    787.04498  0.057684329  0.058197876            5 
 1138000   0.81752633   -3.8696528    788.96714  0.057774395  0.058167249            2 
 1139000   0.80419543   -3.8297509    791.19559  0.057886713  0.058136861            5 
 1140000   0.79494455   -3.8719985    789.20075  0.057690113  0.058106945            3 
 1141000   0.81697959   -3.8774979    787.58137   0.05752128  0.058076469            4 
 1142000   0.78666053   -3.8812574    788.52668  0.057539892  0.058045908            8 
 1143000   0.79953305    -3.867379    791.52345  0.057708038  0.058015777            7 
 1144000   0.79996216   -3.8740626    788.41695  0.057431305  0.057984959            7 
 1145000   0.80306307   -3.8554538    790.34344  0.057521357   0.05795434            4 
 1146000   0.79567617   -3.8875537     789.7863   0.05743065  0.057923739            4 
 1147000    0.8098226   -3.8622032    789.33266  0.057347621  0.057893108            4 
 1148000   0.78460105   -3.8943291    788.93122  0.057268526  0.057862921            9 
 1149000   0.78193049   -3.8639538    791.90514  0.057434373  0.057832634            3 
 1150000   0.79311707   -3.9033515    790.16012   0.05725798  0.057802312            5 
 1151000   0.78164419   -3.8873803    790.50445  0.057233163  0.057771742            9 
 1152000   0.79596805   -3.8654401    793.36599   0.05739048  0.057741543            6 
 1153000   0.80036007   -3.8739632    789.08965  0.057031631  0.057711154            3 
 1154000   0.78812836   -3.8604316    793.13995  0.057274693  0.057680583            6 
 1155000   0.78320581   -3.8787105    793.70713  0.057266027  0.057650551            2 
 1156000   0.79865938   -3.8768116    793.17298  0.057177983  0.057620564            9 
 1157000   0.80373195   -3.8945737     794.3946  0.057216551  0.057590466            5 
 1158000   0.80371162   -3.8871879    793.12906  0.057076069  0.057560293            7 
 1159000   0.77490112   -3.8897327    795.44098  0.057193053  0.057530138            2 
 1160000   0.78395342   -3.8696599    794.19206  0.057054027  0.057500186            7 
 1161000   0.79229727   -3.8598994    793.70485  0.056969914  0.057470191            4 
 1162000   0.79108833   -3.8902614    793.38692  0.056898087  0.057439978            9 
 1163000     0.778247   -3.8772784    794.19869   0.05690733  0.057409844            9 
 1164000    0.7987645   -3.8736613    794.77996  0.056900055  0.057379464            6 
 1165000   0.80774219   -3.8991006     793.1235  0.056732725  0.057348933            5 
 1166000   0.80247715   -3.8972931    795.31143   0.05684044  0.057318434            3 
 1167000   0.78233602   -3.8685814    794.04469  0.056701278  0.057287868            8 
 1168000   0.77742664   -3.8843239     796.7451  0.056845398  0.057257276           11 
 1169000     0.789035   -3.8912445    794.97041   0.05667026   0.05722691            8 
 1170000   0.78480186    -3.879668    797.07904  0.056772011  0.057196314           11 
 1171000   0.76624712   -3.8830316    795.94958  0.056643152  0.057165527            6 
 1172000   0.78492018   -3.8997167    796.42924  0.056628928  0.057134911            2 
 1173000   0.78415104   -3.8872915    797.77637  0.056676355  0.057104418            6 
 1174000   0.77518127   -3.8906536    795.71287  0.056481606  0.057074074            5 
 1175000   0.78337706   -3.9026225    797.25114  0.056542634  0.057043685            3 
 1176000   0.77353065   -3.8983371    796.30274  0.056427348  0.057013426            4 
 1177000   0.78698866   -3.9068537    799.15477  0.056581334  0.056983263            7 
 1178000   0.78193413   -3.9135885    797.73105  0.056432587  0.056952638            8 
 1179000   0.79978577   -3.9122579    797.57779  0.056373889   0.05692204            4 
 1180000   0.78862824    -3.905355    799.11063  0.056434367  0.056891686            3 
 1181000   0.76756236    -3.885025    801.41548  0.056549215   0.05686136            5 
 1182000   0.76426358   -3.8901276    800.31997  0.056424138  0.056830996            4 
 1183000   0.76047812   -3.8961497    799.49076   0.05631803  0.056800755            6 
 1184000    0.7948458   -3.8860668    798.82651  0.056223713  0.056770218           14 
 1185000   0.79446154   -3.9059317    800.87361  0.056320226  0.056739412            4 
 1186000   0.77586665   -3.8961338    799.23626  0.056157691  0.056708765            4 
 1187000   0.80126889   -3.8898235    799.84443  0.056153077  0.056678455            3 
 1188000   0.74939127   -3.8938321    799.84495  0.056105847  0.056647673            9 
 1189000   0.77822602    -3.909435    800.51144  0.056105372  0.056617136            4 
 1190000   0.76388171   -3.8871119    799.75611   0.05600533  0.056586454            3 
 1191000   0.78322637   -3.9015308    802.03863  0.056118012  0.056555635            5 
 1192000   0.79384653   -3.9092236    800.69105  0.055976723  0.056524832            4 
 1193000   0.77330276   -3.8927041    802.88674  0.056083176  0.056494173           12 
 1194000   0.78215682   -3.9078285    800.24968  0.055852155  0.056463381            5 
 1195000   0.78103449    -3.907122    800.69636  0.055836566  0.056432414            5 
 1196000   0.77775813   -3.9092052    799.31793  0.055693835  0.056401771            3 
 1197000   0.78668461   -3.9202923    802.30664  0.055855377  0.056371048            4 
 1198000   0.77946901   -3.9079286    801.09271  0.055724312  0.056340235            2 
 1199000   0.76255455   -3.9227866    800.87244  0.055662527  0.056309737            6 
 1200000   0.77303845   -3.9045232    805.44101  0.055933404  0.056279449            5 
 1201000   0.78122133   -3.9296115    801.50557  0.055613764  0.056248816            8 
 1202000   0.77773844   -3.8985422    805.49544   0.05584411  0.056218287            3 
 1203000   0.79335627   -3.9062802    803.01576  0.055625919  0.056187653            8 
 1204000   0.77159266   -3.9126322    805.15939  0.055728086  0.056157216            5 
 1205000   0.77888391   -3.9090803    804.02536  0.055603414  0.056126861            4 
 1206000   0.76939357    -3.916567     805.9006  0.055686885   0.05609644            4 
 1207000   0.77228743   -3.9186386    805.09039   0.05558481  0.056065607            5 
 1208000   0.76817465    -3.919707    804.92248  0.055527213   0.05603499            2 
 1209000    0.7525757   -3.9048906    805.98233  0.055554337  0.056004237            3 
 1210000   0.77611518   -3.9342936    805.98313   0.05550848  0.055973515            4 
 1211000   0.77843726   -3.8932638    806.72668  0.055513809  0.055943152            9 
 1212000   0.76949242   -3.9407232    805.40866  0.055377383  0.055912934            6 
 1213000   0.76804566   -3.9329953    810.32845   0.05566972  0.055882464            4 
 1214000   0.75699137   -3.9389684    806.91202  0.055389348  0.055852239            8 
 1215000    0.7747944   -3.9131772    808.01816  0.055419627  0.055821918            3 
 1216000   0.75783456   -3.9118551    808.53483   0.05540946  0.055791422            4 
 1217000   0.76393586   -3.9276371    806.21428  0.055205031  0.055761133            6 
 1218000   0.74818006   -3.9263076    804.16454  0.055019468  0.055730502            5 
 1219000   0.75166686    -3.925196    808.30928  0.055257676  0.055700023            3 
 1220000   0.77244752   -3.9261102    807.84209  0.055180471  0.055669639            4 
 1221000   0.75496087   -3.9467534    807.31931  0.055099598  0.055639077            5 
 1222000   0.75279358   -3.9166613    809.51777  0.055204431   0.05560874            4 
 1223000   0.75891747   -3.9033626    813.47246  0.055428758  0.055578828            4 
 1224000   0.76237894   -3.9150549    811.79624  0.055269352  0.055549022            5 
 1225000   0.76687134   -3.9207242    812.23889  0.055254347  0.055518827            6 
 1226000   0.75215044   -3.9332766    809.47731  0.055021568  0.055489044            5 
 1227000   0.76661731   -3.9367223    813.01145  0.055216752  0.055459021            4 
 1228000   0.76362682    -3.930007    812.43347  0.055132564  0.055428762            5 
 1229000   0.75680944   -3.9263358    812.79193   0.05511201  0.055398518            5 
 1230000   0.74657201   -3.9537214    812.03369  0.055015832  0.055368322            4 
 1231000   0.76825344   -3.9325668    810.95036  0.054897804  0.055338164            5 
 1232000   0.77841617   -3.9509369    812.57806  0.054963342  0.055308279            6 
 1233000   0.75378709   -3.9533869    816.89599  0.055210597  0.055278525            3 
 1234000   0.76870737   -3.9335352    812.96902  0.054900663  0.055248955            4 
 1235000   0.77324883   -3.9189309    812.28325  0.054809936  0.055218825            7 
 1236000   0.73739349   -3.9355957    817.25762  0.055100972  0.055189301            7 
 1237000   0.77772428   -3.9439308    813.91925  0.054831532  0.055159799            4 
 1238000   0.77127663    -3.930176    815.20127  0.054873537  0.055129983            7 
 1239000   0.75794289   -3.9302856    814.85216  0.054805768   0.05510024           10 
 1240000   0.77526325   -3.9358258    817.36443  0.054930405  0.055070594            3 
 1241000   0.76193938   -3.9450727    817.07702  0.054866842  0.055041467            3 
 1242000   0.77005852   -3.9453834    816.67587  0.054795751  0.055011943           11 
 1243000     0.752648   -3.9374171     816.1392  0.054715688  0.054982158            6 
 1244000   0.73836842   -3.9327392    817.89118  0.054789066  0.054952754            8 
 1245000   0.74882869   -3.9301753    816.75417  0.054668954  0.054923592            6 
 1246000   0.76180058   -3.9441309    818.64228  0.054751356  0.054894438            4 
 1247000    0.7578888   -3.9356874    821.06884   0.05486961  0.054865306            4 
 1248000   0.74117882   -3.9253985    822.76105  0.054938638  0.054836298            7 
 1249000   0.75039353   -3.9266668    820.70741  0.054757633   0.05480748            5 
 1250000   0.74862381   -3.9515735     818.5945  0.054572967  0.054778226            4 
 1251000   0.73587213    -3.928243    819.48981  0.054588983  0.054748935            3 
 1252000    0.7564238   -3.9473707    820.01875  0.054580588   0.05471989            4 
 1253000   0.74858291   -3.9524093    822.56231  0.054706192  0.054690955            8 
 1254000   0.75619598   -3.9476864    820.78265  0.054544301  0.054662331            6 
 1255000   0.74986141   -3.9630987    821.80889  0.054568983  0.054633433            6 
 1256000   0.75120407   -3.9553542    821.47264  0.054503227  0.054604609            4 
 1257000   0.75481006   -3.9446505    823.39364  0.054587221  0.054575782            9 
 1258000   0.75854984   -3.9564491    822.87181  0.054509261  0.054546801            6 
 1259000   0.74717853   -3.9648492    822.25457  0.054425111  0.054518293            4 
 1260000   0.74614275   -3.9683631    821.41657  0.054326493  0.054489425            5 
 1261000   0.74409237   -3.9594282    824.30193   0.05447409  0.054460698            8 
 1262000   0.76161199   -3.9304495    825.27638   0.05449527  0.054432122           10 
 1263000   0.75564138    -3.955968    824.37165  0.054392429  0.054403698            6 
 1264000     0.742913   -3.9580968    822.44805  0.054222577  0.054375329            5 
 1265000   0.75237107   -3.9624118    825.35341  0.054371107  0.054346723            4 
 1266000   0.74380677   -3.9577602    827.07556  0.054441519  0.054318151            7 
 1267000   0.73579266    -3.954531    825.91416  0.054322163  0.054289891            4 
 1268000   0.75363269   -3.9604409     823.9984  0.054153418  0.054261727            5 
 1269000   0.74263839   -3.9253923    824.15723  0.054121173  0.054233547            9 
 1270000   0.75996199   -3.9566851    828.88583  0.054388834  0.054205335            2 
 1271000   0.73572992   -3.9787823    825.28799  0.054110149  0.054177192            2 
 1272000   0.75255512   -3.9671583    827.99216  0.054244769  0.054148977            3 
 1273000   0.74151236   -3.9709633    823.99574  0.053940543   0.05412066            6 
 1274000   0.74133574   -3.9875322    826.41994  0.054056773   0.05409202            8 
 1275000   0.74946667   -3.9581153    829.48788  0.054214894   0.05406359            5 
 1276000   0.75671238   -3.9563859    829.37832  0.054165251  0.054035358            3 
 1277000   0.73868215   -3.9713992    827.73262  0.054015441  0.054006988            9 
 1278000   0.72912255   -3.9967139    827.39358  0.053951068  0.053978584            6 
 1279000   0.74232029   -3.9952735    827.29257  0.053902305  0.053950238            6 
 1280000   0.74001191   -3.9728592    831.18665  0.054113714  0.053922018           20 
 1281000   0.74314267   -3.9552904    834.90009  0.054313042  0.053894249            3 
 1282000   0.74981345   -3.9655216     831.3733  0.054041426  0.053866159            3 
 1283000   0.74181045   -3.9728372    829.81232  0.053897916  0.053838372            3 
 1284000   0.74530937    -3.993959    828.26842  0.053755739  0.053810515            6 
 1285000   0.74636629   -3.9789143    828.91878  0.053756082  0.053782515            7 
 1286000   0.74387504   -3.9485787    831.75822  0.053898277  0.053754708            5 
 1287000   0.74363028   -3.9653168    830.33656  0.053764346  0.053727092            4 
 1288000   0.74002056    -3.970803    833.91698  0.053954256  0.053699362            7 
 1289000   0.74875235   -3.9709455    832.15813  0.053798689  0.053671302            4 
 1290000     0.736291   -3.9552531     832.5717  0.053783702  0.053643277            3 
 1291000   0.74963331   -3.9547678    834.17271  0.053845385  0.053615324            5 
 1292000   0.73278989   -3.9681919    833.69297  0.053772766  0.053587323           10 
 1293000   0.74473555   -3.9649181     831.8766  0.053614114  0.053559308            4 
 1294000   0.73878688    -3.973637    831.92008  0.053575481  0.053531171            4 
 1295000   0.74280516   -3.9844608    833.35462  0.053626424  0.053503161            4 
 1296000   0.72922431   -3.9824653    835.64029  0.053732015   0.05347515            8 
 1297000   0.72597957   -3.9556468    836.66695   0.05375655  0.053447155            7 
 1298000   0.75099098    -3.992525    833.30119  0.053499049  0.053419226            5 
 1299000   0.73088281   -3.9757594     832.1152  0.053381781  0.053391172            5 
 1300000   0.73572395   -3.9914295    832.97696  0.053395959  0.053362919            5 
 1301000   0.73215712   -3.9895163    833.36316  0.053379654  0.053335186            7 
 1302000   0.72884194   -3.9835361    836.88256  0.053563912  0.053307271            5 
 1303000   0.73482793   -3.9712949    836.12722  0.053474496  0.053279279            5 
 1304000   0.74095757   -3.9887619    834.47788  0.053328086  0.053251451            4 
 1305000    0.7416302   -3.9826684    837.67664  0.053491484  0.053223609            5 
 1306000   0.72384332   -4.0080088    834.18064  0.053227453   0.05319568            4 
 1307000   0.75562368   -3.9951172    835.03137   0.05324097  0.053167545           12 
 1308000    0.7254081    -4.000113    835.36971  0.053221822   0.05313961            6 
 1309000   0.72435031   -3.9870251    837.09143  0.053290771  0.053111805            4 
 1310000   0.73524043   -4.0183287    836.15152    0.0531903  0.053083692            5 
 1311000   0.71539567   -3.9865052    836.58303  0.053177157  0.053056039           13 
 1312000   0.73264273   -3.9948528    835.99846  0.053099495  0.053028224           13 
 1313000   0.72576889   -3.9734742    838.04333  0.053188838  0.053000815            3 
 1314000   0.74284957   -3.9766259    837.32508  0.053102808  0.052973355            6 
 1315000   0.73471571   -4.0224077    836.75456  0.053026271   0.05294567            4 
 1316000   0.73801727   -4.0258497    835.43899  0.052902672  0.052917853            4 
 1317000   0.72294869   -3.9966067    836.64985   0.05293912  0.052890116           10 
 1318000   0.71756527   -4.0005941    838.98673  0.053046708  0.052862176            7 
 1319000   0.73580305    -3.992547    839.89912  0.053064135  0.052834517            7 
 1320000   0.73009068   -3.9964497    837.33584  0.052862111  0.052806745            5 
 1321000   0.73956416   -4.0099875    839.20195  0.052939815  0.052778835            4 
 1322000   0.71891081   -4.0017499    840.67852  0.052992847  0.052751025           11 
 1323000   0.75054548   -4.0237445    837.81913  0.052772684  0.052723201            5 
 1324000   0.72425072   -3.9922177    841.35516  0.052955385  0.052695651            8 
 1325000   0.73315186    -3.990734    839.55187  0.052802004  0.052668081            8 
 1326000   0.72753392    -3.977125    840.20568  0.052803273  0.052640607            5 
 1327000   0.72458377   -4.0141934    837.68164  0.052604976    0.0526131            7 
 1328000   0.71525977    -4.033364    838.96147  0.052645674  0.052585419            9 
 1329000   0.72837328   -4.0271705     839.3246  0.052628831  0.052557806            8 
 1330000   0.71958333   -3.9818371    841.86101  0.052748184  0.052530159            5 
 1331000   0.71952446   -3.9971711    845.91401   0.05296231  0.052502679            6 
 1332000    0.7210217   -4.0221594    840.23152  0.052567037  0.052474907            4 
 1333000    0.7284164   -3.9805546    843.39481  0.052725357  0.052447311            6 
 1334000   0.71613699   -3.9909038    842.64188  0.052638798  0.052419819            3 
 1335000   0.72872801   -3.9844771    843.84518  0.052674481  0.052392478            5 
 1336000   0.71841644   -3.9924431    845.03701  0.052709394  0.052365287            9 
 1337000   0.71918756   -4.0274711    846.41424  0.052755811  0.052338097            6 
 1338000   0.72154709   -4.0161471    843.18576  0.052515306  0.052311055            5 
 1339000   0.71834806   -3.9924945    843.41198  0.052490165  0.052284154            3 
 1340000   0.71306587   -4.0085155    845.50847  0.052581372  0.052257225            5 
 1341000   0.71323334   -4.0020873    845.61042  0.052548497  0.052230271            6 
 1342000   0.70727951   -4.0005376    843.10056  0.052353487  0.052203319            5 
 1343000   0.72765773   -4.0392262    844.09022  0.052375913  0.052176437            5 
 1344000   0.72706615   -4.0345208    846.47779  0.052484982  0.052149488            6 
 1345000   0.74027204   -4.0329881    842.68621  0.052211042   0.05212231           10 
 1346000   0.72050872   -4.0077475     847.1294  0.052447338  0.052095264            6 
 1347000   0.72090243   -4.0165846    846.56373  0.052373406  0.052067994            5 
 1348000   0.72679682   -3.9920828    849.91122  0.052541495  0.052041081            5 
 1349000   0.72190391   -4.0316611     847.9966  0.052384272  0.052014176            4 
 1350000   0.70655766    -4.012953    848.48289  0.052375487  0.051987284            8 
 1351000    0.7081219   -4.0077885    848.39667  0.052331401  0.051960087            2 
 1352000    0.7011916   -4.0175072    845.00301  0.052083519  0.051932694           10 
 1353000   0.71389366   -4.0223412    844.29219  0.052001243  0.051905276           17 
 1354000   0.72504751   -4.0043964    846.17164  0.052078511   0.05187786            5 
 1355000   0.72389545    -4.032522    850.02365  0.052276977  0.051850642            5 
 1356000    0.7076239   -4.0387091    847.42921  0.052078983  0.051823433            4 
 1357000   0.71987421   -4.0183059     850.3842  0.052222071   0.05179628            4 
 1358000   0.71912991   -4.0388886    847.36808  0.051998532   0.05176922            5 
 1359000   0.72855041   -4.0288287     848.6334  0.052037859  0.051742362            8 
 1360000   0.70724854   -4.0155197    846.65272   0.05187823  0.051715395            5 
 1361000   0.70997192    -4.027404    849.19477  0.051995761  0.051688163            6 
 1362000   0.70966631   -4.0296962    850.00332  0.052007056  0.051661098           13 
 1363000   0.71745863   -4.0344231    849.40993   0.05193262  0.051634126           12 
 1364000   0.71609849   -4.0186663    850.57677  0.051965834  0.051607463            4 
 1365000   0.70099639   -4.0242509    851.39047   0.05197744  0.051580646           10 
 1366000   0.70120567   -4.0468991    851.77233  0.051962685    0.0515538            5 
 1367000   0.71064421   -4.0129027    850.55102   0.05185022  0.051526721           12 
 1368000   0.70027603   -4.0516244    848.70683  0.051699978  0.051499577            5 
 1369000    0.7077327   -4.0360159    852.04491  0.051865407  0.051472213            6 
 1370000   0.70379883   -4.0281383    851.64223  0.051803055  0.051445164            4 
 1371000    0.7235519    -4.038824    852.67816  0.051828237  0.051418282            6 
 1372000   0.71835737   -4.0451423    851.34187  0.051709297  0.051391707            9 
 1373000   0.70321067   -4.0603061    851.62028  0.051688533  0.051364957            6 
 1374000   0.71313837    -4.028518    850.31399  0.051571688  0.051337905           11 
 1375000   0.71386234   -4.0635299     850.1801  0.051526067  0.051310933            3 
 1376000   0.70491717   -4.0195983    853.82612   0.05170943  0.051284129            2 
 1377000   0.71721947   -4.0431725    854.29722  0.051700389  0.051257608            4 
 1378000   0.70070971   -4.0302715    855.14926  0.051714396  0.051230959           10 
 1379000   0.70231567   -4.0135013    853.92443  0.051602878  0.051204142            6 
 1380000   0.71258867   -4.0450606    850.85526  0.051380149  0.051177043            6 
 1381000   0.71233819   -4.0413459    853.08599  0.051477552  0.051150117           13 
 1382000   0.69539017   -4.0487993    852.72363  0.051418454  0.051123146            6 
 1383000   0.69409282   -4.0607383    853.05112  0.051401008  0.051096343            7 
 1384000   0.69803522   -4.0547257    853.09144  0.051366296  0.051069646            8 
 1385000   0.70474243   -4.0610944    852.36095  0.051285256  0.051042867            4 
 1386000   0.70033412   -4.0480913    854.14682  0.051355629  0.051016403            7 
 1387000    0.7007718   -4.0316617    854.44256  0.051336371  0.050989898            4 
 1388000   0.69414894   -4.0507995    855.28008  0.051349668  0.050963324            6 
 1389000   0.70199093   -4.0363581    857.64641  0.051454668  0.050936882            6 
 1390000   0.70525024   -4.0433276    857.97403  0.051437292  0.050910269            8 
 1391000   0.70674317   -4.0389614    857.44226  0.051368455  0.050883736            8 
 1392000   0.70549965   -4.0304646    856.49794  0.051275021   0.05085712            5 
 1393000   0.69956333   -4.0752662    855.49581  0.051178261  0.050830525            8 
 1394000   0.70317933   -4.0451753    856.29005  0.051189028  0.050804065            3 
 1395000   0.72077876   -4.0662824    856.68787  0.051176097  0.050777559           10 
 1396000   0.70842108    -4.039643    858.01302  0.051218542   0.05075122            6 
 1397000   0.69962753   -4.0358021     856.2936  0.051079313   0.05072488            5 
 1398000    0.6886449   -4.0262222    861.49666  0.051352925  0.050698738           13 
 1399000   0.71957486    -4.052724    857.64073  0.051086534  0.050672507            4 
 1400000    0.6735728   -4.0437601    858.85542  0.051122346  0.050646183           14 
 1401000   0.70241969    -4.056015    859.29408  0.051111948  0.050619846            6 
 1402000   0.69959733   -4.0486327    860.62324  0.051154496   0.05059387            9 
 1403000   0.69959624   -4.0366139     859.6086  0.051057769  0.050567696            5 
 1404000   0.68328212   -4.0805893    858.90837  0.050979841  0.050541671            6 
 1405000   0.69508387   -4.0796164    857.89928  0.050883706  0.050515334            6 
 1406000   0.68853622   -4.0479207    861.18476  0.051042245  0.050489217            7 
 1407000   0.69168426   -4.0379702    859.91319  0.050930656  0.050462922            5 
 1408000   0.68629299   -4.0516869    857.46226  0.050749424   0.05043675           10 
 1409000    0.6863436   -4.0705223    859.81083  0.050852308  0.050410334           17 
 1410000   0.68964401    -4.060657    859.73346   0.05081167  0.050383886            5 
 1411000   0.67442607   -4.0747017    858.38452  0.050695991  0.050357519            5 
 1412000   0.67589951   -4.0642729    859.74398   0.05074032  0.050330998            5 
 1413000   0.69361968   -4.0761037    859.76778  0.050705814   0.05030467            6 
 1414000   0.69492611   -4.0811612    858.33473  0.050585498  0.050278122            5 
 1415000   0.69353556   -4.0583362    860.36422  0.050669271  0.050251747           10 
 1416000   0.69878776   -4.0662937    862.02806  0.050731407  0.050225156            7 
 1417000     0.682201   -4.0603062    862.48645  0.050722563  0.050198775            4 
 1418000   0.69594523   -4.0592163    861.66108  0.050638286  0.050172489           12 
 1419000   0.69170936   -4.0619215     861.4672  0.050591214  0.050146016           17 
 1420000   0.68750037    -4.067971    859.29956  0.050428378  0.050119548            6 
 1421000   0.68765616   -4.0853597    859.76456   0.05042016  0.050092622           12 
 1422000   0.69637442   -4.0764469     862.2963  0.050533069  0.050065853            6 
 1423000   0.68409608   -4.0837333    861.50546  0.050451245   0.05003919            7 
 1424000   0.67821306   -4.1006318    857.82023  0.050200154  0.050012385            6 
 1425000   0.70067153   -4.0840813    856.96366  0.050114834  0.049985216            4 
 1426000    0.6929981   -4.0954518    859.24711  0.050213132  0.049958253            4 
 1427000   0.66849218   -4.0663229    864.58304  0.050489549  0.049931489            6 
 1428000   0.67887326   -4.0817377    860.98022  0.050243944   0.04990455            3 
 1429000   0.67348423   -4.0800543    862.41441  0.050292419  0.049877709            5 
 1430000   0.67590418   -4.0829354    861.77245   0.05021984  0.049850773           11 
 1431000   0.69094346   -4.0820149    860.89585  0.050133697  0.049823816            7 
 1432000   0.68514041   -4.0755919    860.46254  0.050073472  0.049796896            5 
 1433000   0.68169493   -4.0910712    861.12251  0.050076908  0.049770037           12 
 1434000   0.68747286   -4.0784297    861.28732  0.050051564   0.04974306            4 
 1435000   0.68669427   -4.0681771    861.73375   0.05004261  0.049716171            7 
 1436000   0.68725691   -4.0859711    863.09338  0.050086663  0.049689302            5 
 1437000   0.68943085   -4.1066108     860.7154  0.049913906  0.049662548            6 
 1438000   0.66466139   -4.0977791    863.18547  0.050022338  0.049635494            8 
 1439000   0.67252924   -4.0800215    862.62566  0.049955157   0.04960851            5 
 1440000   0.68447061   -4.1041601    860.84728  0.049817551  0.049581485            3 
 1441000   0.67709319    -4.106507    863.23524  0.049921076  0.049554635            8 
 1442000   0.68680379   -4.0773679    862.48765  0.049843253  0.049527725            6 
 1443000   0.68554189   -4.0788083    864.59534  0.049930431  0.049501018            4 
 1444000   0.69157132   -4.0763175    863.97744  0.049860194  0.049474214            5 
 1445000   0.67433799   -4.1099244    862.24927  0.049726025   0.04944731            6 
 1446000   0.66390302   -4.0939991    863.45324  0.049761021  0.049420372           10 
 1447000   0.67199532   -4.0958971     862.1515  0.049651664  0.049393519            9 
 1448000   0.67479025   -4.0903835    866.87407  0.049889161  0.049366958            6 
 1449000   0.66485621   -4.1100293    864.83434  0.049737425   0.04934015            8 
 1450000   0.65939999   -4.0804592    863.81991  0.049644822  0.049313275            8 
 1451000   0.67241838   -4.0789093    863.95856  0.049618571  0.049286359           18 
 1452000   0.67936833   -4.1135792    866.44998  0.049727386  0.049259505            8 
 1453000   0.66703037   -4.0974022    862.01056   0.04943855  0.049232312            5 
 1454000   0.67517403   -4.0994415    862.22832  0.049417029  0.049205243           10 
 1455000   0.67452519    -4.094902    863.82753  0.049474658  0.049178355            8 
 1456000   0.66507396   -4.0978964    865.32408  0.049526333  0.049151536            5 
 1457000   0.67973838   -4.0998072    865.58073   0.04950702  0.049124739            4 
 1458000   0.67945084   -4.0807262    865.01545  0.049440755  0.049097878           11 
 1459000   0.68035844   -4.0830516    867.42544  0.049544519   0.04907104           11 
 1460000   0.64758901   -4.1013328    866.67387  0.049467687  0.049044391           12 
 1461000   0.65970873   -4.0943265    865.83505  0.049385982    0.0490177            8 
 1462000   0.68241111   -4.0970111    865.01048  0.049305203  0.048991105           10 
 1463000   0.66352805    -4.064529    868.64297   0.04947841  0.048964678            5 
 1464000   0.66252895   -4.1075491    866.64587  0.049330935  0.048938027            6 
 1465000   0.68555533   -4.1025665    865.10995  0.049209895  0.048911242            4 
 1466000   0.68058874   -4.1015327    865.27886  0.049185929  0.048884134            4 
 1467000   0.66755324   -4.1088835    864.43721   0.04910459  0.048857116            6 
 1468000   0.65999169    -4.088774    866.79113  0.049204765  0.048830256           13 
 1469000   0.67364609   -4.1127084    864.31293  0.049030686  0.048803332           10 
 1470000   0.66032732   -4.1018223    866.46394  0.049119271  0.048776621            8 
 1471000   0.66087628    -4.121508    862.96389  0.048887599  0.048749612            9 
 1472000   0.66528897   -4.0878488    865.99417  0.049025938  0.048722684            7 
 1473000   0.66676308   -4.1179129    866.17397  0.049002827   0.04869586            5 
 1474000   0.65691763   -4.1073071    867.11162  0.049022593  0.048668923           16 
 1475000   0.66508116   -4.1095343      865.961   0.04892435  0.048641906           14 
 1476000   0.67093316   -4.1125805     867.2388  0.048963347  0.048615099            4 
 1477000   0.67372201   -4.0971636    867.80962  0.048962402  0.048588368            5 
 1478000    0.6683131   -4.1094498    867.95203  0.048937304  0.048561573           13 
 1479000   0.66624705   -4.0981852     868.6546  0.048943802  0.048534902           16 
 1480000   0.65244697   -4.1086237    867.43803  0.048842232  0.048508106            8 
 1481000   0.65747552   -4.1088331    868.88726  0.048890798   0.04848132           11 
 1482000     0.648149   -4.1066327    870.44304   0.04894529  0.048454337           19 
 1483000   0.64545972   -4.1111146    866.94761  0.048715869  0.048427826            5 
 1484000   0.65496505   -4.1066025    869.64548  0.048834539  0.048401232            9 
 1485000   0.64629632   -4.1144749    869.32164  0.048783481   0.04837467            6 
 1486000   0.66864425   -4.1079881    869.20924   0.04874435  0.048348116            6 
 1487000   0.67050434   -4.1420355     870.3309  0.048774428  0.048321425            6 
 1488000   0.65349824   -4.1367083    868.41969  0.048634615  0.048294735            6 
 1489000   0.64723219   -4.1284791    869.55218  0.048665334  0.048268263           10 
 1490000   0.66705648   -4.1121934    872.02226   0.04877082  0.048242006           25 
 1491000   0.66060806   -4.1041344    871.78558  0.048724881    0.0482157            7 
 1492000   0.67962401   -4.1304704     873.4326  0.048784216  0.048189302            7 
 1493000   0.64277521   -4.1220617    872.28994  0.048687762  0.048163113            6 
 1494000   0.65849016   -4.1007007    870.77983  0.048570941  0.048136912           17 
 1495000   0.64120894   -4.1167426    872.17013  0.048615949  0.048110949            6 
 1496000   0.64746388   -4.1144052     873.6351  0.048665057  0.048084618            6 
 1497000   0.66040975   -4.1173911     870.2024  0.048441461  0.048058419            7 
 1498000   0.64119047   -4.1337526    871.69644  0.048492237  0.048032225           10 
 1499000   0.64313512   -4.1088179     873.7811  0.048575778  0.048006056           16 
 1500000   0.65162655   -4.1277953    873.35059  0.048519477  0.047979777            8 
 1501000   0.65566403   -4.1098207    874.64235  0.048558869  0.047953784            7 
 1502000   0.65396501   -4.1413744    872.36913  0.048400418  0.047927738            4 
 1503000   0.65532192   -4.1184659    875.13665  0.048521659  0.047901636            5 
 1504000   0.64594096   -4.1510361    873.70286  0.048409955  0.047875478           14 
 1505000   0.65125437   -4.1351984    872.77356  0.048326332  0.047849297           17 
 1506000    0.6478934   -4.1326332    874.11982  0.048368737  0.047823218            5 
 1507000   0.66319375   -4.1158952    873.04652   0.04827729  0.047796948            4 
 1508000   0.64972528   -4.1419452    873.51702  0.048271277  0.047770618            9 
 1509000   0.64972469   -4.1421871    874.13055  0.048273169  0.047744482           12 
 1510000   0.66436105   -4.1446981    872.51963  0.048152297  0.047718154            7 
 1511000   0.66627482   -4.1201655    874.51782  0.048230632  0.047691837            9 
 1512000    0.6362523    -4.145896    873.71735  0.048154616    0.0476656            4 
 1513000   0.65698714    -4.132444    872.95738  0.048080931   0.04763931            9 
 1514000   0.64552761   -4.1444528    870.79084  0.047929923  0.047613032           15 
 1515000   0.65384228   -4.1297308    874.43428  0.048098695  0.047586576            8 
 1516000   0.65149613   -4.1416972    873.92261  0.048038842  0.047560105           10 
 1517000   0.65774009   -4.1277583    877.26788   0.04819094  0.047533864            4 
 1518000   0.64502003   -4.1310607    874.48737  0.048006553  0.047507775            9 
 1519000   0.65865563   -4.1678574    873.46627  0.047918931  0.047481376            8 
 1520000   0.65657903   -4.1419585    873.12979  0.047868958   0.04745509            5 
 1521000   0.64101174   -4.1361316    875.13961  0.047947601  0.047428864            8 
 1522000   0.64830635   -4.1492725    873.54929  0.047829024  0.047402659           19 
 1523000   0.65070856   -4.1323956    876.11023  0.047937745  0.047376506            5 
 1524000    0.6524974   -4.1457069    873.91718  0.047786373  0.047350348            9 
 1525000   0.65301435   -4.1691696    873.51022  0.047732799  0.047324005            9 
 1526000   0.66672771   -4.1590931    873.35524  0.047693056  0.047297711            7 
 1527000   0.65419561   -4.1532189    873.03009  0.047644078  0.047271323            7 
 1528000   0.64762712   -4.1366383    872.23868  0.047569736  0.047244952            5 
 1529000   0.64890166    -4.182701    873.72126  0.047619428  0.047218507           12 
 1530000   0.62658479   -4.1660038    873.01266  0.047549709  0.047191958           15 
 1531000   0.64043753   -4.1488596    874.60182   0.04760515  0.047165461            7 
 1532000   0.63878005   -4.1226951    874.24527  0.047554682  0.047138853           11 
 1533000   0.65238489   -4.1506289     873.6603  0.047491862  0.047112538            6 
 1534000   0.64832084   -4.1447906    878.70424  0.047734911  0.047086209           10 
 1535000   0.64760932    -4.151885    876.21199  0.047568512  0.047059681            5 
 1536000   0.63698317   -4.1577689    875.93956  0.047522762  0.047033157            5 
 1537000   0.63208957   -4.1575222     873.1253  0.047339259  0.047006788           14 
 1538000   0.64091651   -4.1591688    874.17715  0.047365472  0.046980382            7 
 1539000   0.64289504   -4.1729369    874.65589  0.047360618  0.046953896            9 
 1540000   0.62585823   -4.1552096    871.49265  0.047158693  0.046927351            9 
 1541000   0.63866798    -4.172555    872.62619   0.04718939  0.046900815           12 
 1542000   0.63510336   -4.1549759    876.22598  0.047353328  0.046874338            5 
 1543000   0.64051782   -4.1765514    875.40258  0.047278169  0.046847873           11 
 1544000   0.65602627   -4.1716441     875.9311  0.047276074  0.046821543            7 
 1545000    0.6390192   -4.1558361     874.8284  0.047185998  0.046795367            5 
 1546000   0.62690319   -4.1529276    876.41417  0.047240954  0.046769222            6 
 1547000   0.63199477    -4.166897    874.82947  0.047125052  0.046742994            9 
 1548000   0.63617414   -4.1534244     876.3642  0.047177229  0.046716825            4 
 1549000   0.62398874   -4.1785142    877.35018  0.047199816  0.046690466            4 
 1550000    0.6470679   -4.1556263    878.82715  0.047248772  0.046664137            6 
 1551000   0.63216493   -4.1748378    876.39568  0.047087668  0.046637817           12 
 1552000   0.63733873   -4.1756945    877.23096  0.047102178  0.046611551            6 
 1553000   0.63171238   -4.1635543    879.20706  0.047177885  0.046585186            7 
 1554000   0.64460351    -4.170365    879.29767  0.047152385   0.04655904           10 
 1555000    0.6162083   -4.1819099    877.17298  0.047008198  0.046532779            8 
 1556000    0.6287461   -4.1868219    880.55935  0.047159348  0.046506461           31 
 1557000   0.62532856   -4.1811667    877.70458  0.046976267  0.046480259            8 
 1558000   0.62134869   -4.1774875    880.05404  0.047071782  0.046454127           12 
 1559000   0.63449963   -4.1856739    877.40439  0.046899957   0.04642791            9 
 1560000   0.63943024   -4.1384741    878.03699  0.046903685  0.046401684            6 
 1561000   0.61801658   -4.1924381    876.50511  0.046791859  0.046375388           14 
 1562000   0.62854773   -4.1770214    878.31176  0.046858289  0.046348995            5 
 1563000   0.63172199   -4.1809343     878.1809  0.046821332  0.046322573            8 
 1564000    0.6290902   -4.1901373    876.72503  0.046713823   0.04629632           13 
 1565000   0.63632075   -4.1806602    877.22628  0.046710665  0.046270089           26 
 1566000   0.62084281   -4.1863504    880.21743  0.046840008  0.046243732            8 
 1567000   0.62656819   -4.1656693    879.48981  0.046771421  0.046217671            8 
 1568000   0.62137423   -4.1713103    881.03422  0.046823672   0.04619147           10 
 1569000   0.62621905   -4.1982435     876.5796  0.046557234  0.046165328            7 
 1570000    0.6282553   -4.1949907    879.51122  0.046683186   0.04613916           10 
 1571000   0.62601996    -4.189716    879.87724  0.046672886  0.046113116           12 
 1572000   0.63414663    -4.183907    878.99393   0.04659637  0.046087175            6 
 1573000    0.6145927   -4.2052731    875.81218  0.046398187  0.046061179           11 
 1574000   0.61129393   -4.1885146    878.56098  0.046514241  0.046034866           13 
 1575000   0.62469616   -4.1612208    878.95603   0.04650561  0.046008835           31 
 1576000   0.62533513   -4.1796345    880.00949  0.046531805  0.045982844           10 
 1577000   0.61848474   -4.2053444    878.90349  0.046443854  0.045956788            8 
 1578000   0.62697901   -4.1879256    879.90767  0.046467452  0.045930796            6 
 1579000   0.62630365   -4.2040528    880.42379  0.046465262  0.045904634           23 
 1580000   0.62022974   -4.1764367    879.45895  0.046384966  0.045878667           10 
 1581000   0.61459809    -4.198167     878.5456  0.046307485  0.045852738           10 
 1582000   0.62806543   -4.1784061    882.31025   0.04647652  0.045826745           12 
 1583000   0.62270908   -4.1761548    880.49112  0.046351396  0.045800689            8 
 1584000   0.63078558   -4.1966292    879.84177  0.046287972  0.045774688           19 
 1585000    0.6172643   -4.1716027    881.97697  0.046371029  0.045748696           11 
 1586000   0.62187485    -4.176986    882.99424  0.046395242  0.045722979           12 
 1587000   0.61727688   -4.1859982    878.83897  0.046147814  0.045697217           12 
 1588000   0.62225716   -4.1731746    881.95582  0.046282317  0.045671468           10 
 1589000   0.62717617    -4.178589    879.48011  0.046123354  0.045645673            8 
 1590000   0.62793972   -4.1969573    883.17251  0.046287868  0.045619877            5 
 1591000   0.62488868   -4.2069874     881.9899  0.046196831  0.045593909            8 
 1592000   0.62513247   -4.2212654    880.22521   0.04607544  0.045567906            8 
 1593000   0.61384914   -4.1977072    880.75813  0.046074395   0.04554194            5 
 1594000   0.62423939   -4.2254088    882.38144  0.046130355  0.045516061            8 
 1595000   0.61194475   -4.1807807    881.01834  0.046030217  0.045490416           18 
 1596000   0.61780625   -4.2137847    882.33385  0.046070063   0.04546458           11 
 1597000   0.60713444    -4.176437    881.61263  0.046003581  0.045438866           13 
 1598000   0.62685559    -4.184036    882.64157  0.046028451  0.045413143            6 
 1599000   0.62887836   -4.2081312    881.66844  0.045948949  0.045387279           10 
 1600000   0.61662439   -4.2200177    883.68451  0.046025235  0.045361616            6 
 1601000      0.63092   -4.1857526     883.2551  0.045974136  0.045335885            9 
 1602000   0.61150493   -4.2058172    881.22602  0.045839889  0.045310119           15 
 1603000   0.61602282   -4.2066669    881.79587  0.045840916   0.04528432           11 
 1604000   0.61810122   -4.1906537    882.76242  0.045862553  0.045258768           11 
 1605000   0.62124556   -4.2015732    884.08824  0.045902816  0.045233135            7 
 1606000   0.61303279   -4.2127471    880.45234  0.045685572  0.045207394           21 
 1607000   0.60466294   -4.2289595    881.15881  0.045693777  0.045181739           17 
 1608000   0.60784034   -4.1932326    883.86511  0.045805613  0.045156123            7 
 1609000    0.6175093   -4.1998803    882.32529  0.045697394  0.045130546            9 
 1610000   0.62545328   -4.2110849    883.00897  0.045704398  0.045104885           10 
 1611000   0.60373506   -4.2176246    881.29221  0.045587224  0.045079017            5 
 1612000   0.60360779   -4.1873494    883.27668  0.045661532  0.045053156            9 
 1613000   0.61229216   -4.2129649    885.12206  0.045728563  0.045027459           11 
 1614000   0.60898626   -4.2198164    882.81515  0.045581121  0.045001658           11 
 1615000   0.60182981   -4.2199755    882.84484  0.045554429  0.044975795           12 
 1616000   0.61844803   -4.1960934    884.37277  0.045605032  0.044949999           15 
 1617000   0.61810097   -4.2117447    881.33938    0.0454205  0.044924288           11 
 1618000    0.6153635   -4.2088894    882.77853   0.04546655  0.044898563            6 
 1619000   0.61703919   -4.2185905    883.03274  0.045451551  0.044872757           22 
 1620000   0.61551925   -4.2283536    884.12685  0.045479776  0.044846932           13 
 1621000   0.60230304   -4.2168139    881.42369  0.045312754   0.04482113           11 
 1622000   0.61277931   -4.2454097    880.41679  0.045233086  0.044795167           10 
 1623000   0.60099114   -4.2152576    883.54472   0.04536582  0.044769236            7 
 1624000   0.60625146   -4.2151228    881.47432  0.045231646  0.044743408           11 
 1625000   0.62060821   -4.2291508    882.87289  0.045275533  0.044717517            8 
 1626000   0.59937426     -4.22247    881.74251  0.045189756  0.044691592           30 
 1627000   0.60737908   -4.2412087    882.59232  0.045205507  0.044665654            8 
 1628000   0.62110634   -4.2059816    883.64966  0.045231862  0.044639785            7 
 1629000   0.59112941    -4.234617    883.36775  0.045189674   0.04461399            9 
 1630000   0.61294097   -4.2073401    885.89925  0.045291373  0.044588166           10 
 1631000   0.60883589   -4.2282204    882.42269  0.045085974  0.044562546           13 
 1632000   0.61575732   -4.2287965    884.56689  0.045167835  0.044536795           12 
 1633000   0.59472778   -4.2353778    883.94605  0.045108494  0.044511017            9 
 1634000   0.60026063   -4.2491279    882.20395  0.044992041  0.044485238           26 
 1635000   0.61232357   -4.2363439    882.64496  0.044987001  0.044459467            9 
 1636000   0.61196569   -4.2201692    885.39578  0.045099622  0.044433678            7 
 1637000   0.59569658    -4.236012    884.18121  0.045010243  0.044407946            8 
 1638000   0.59445463   -4.2312725    885.94368   0.04507243  0.044382467            8 
 1639000   0.59940799   -4.2487653    883.62749  0.044927165   0.04435689           19 
 1640000   0.59951454    -4.235158    884.18297  0.044927997  0.044331355           13 
 1641000   0.59463171   -4.2455876    883.87442  0.044884949  0.044305863           15 
 1642000   0.58890503   -4.2566118    885.47219  0.044938702    0.0442803            9 
 1643000   0.59700615   -4.2101891    886.39853  0.044958335  0.044254839            7 
 1644000   0.59949527   -4.2417828    886.17772  0.044919795  0.044229365            9 
 1645000   0.59717882   -4.2377519    885.44311  0.044855274  0.044203745            7 
 1646000   0.58806716   -4.2292326    884.82368  0.044796663  0.044178299           23 
 1647000   0.59297547    -4.235373    886.58518   0.04485859  0.044152775           11 
 1648000   0.61035797   -4.2230667    886.40686  0.044822353  0.044127405           15 
 1649000   0.57848735   -4.2451194    886.24672  0.044787079  0.044102129           20 
 1650000   0.58319507   -4.2176352    887.35004  0.044815659  0.044076643            7 
 1651000    0.5914365   -4.2521975    884.48902  0.044644106  0.044051154           10 
 1652000   0.59183658   -4.2612094    884.93585  0.044639621  0.044025605            9 
 1653000   0.59387527   -4.2394132    886.12404  0.044672517  0.044000044            9 
 1654000   0.59929155   -4.2488548    885.11987  0.044594915  0.043974484           11 
 1655000   0.59286819   -4.2405041    884.21605   0.04452246  0.043948893           12 
 1656000    0.5797466   -4.2374405    885.05215  0.044537648  0.043923311           10 
 1657000   0.59212389   -4.2465547    885.34248  0.044525371  0.043897719            6 
 1658000   0.59613486   -4.2451365    885.78499  0.044520758  0.043872006            9 
 1659000   0.59214355   -4.2813588    884.64047  0.044436431  0.043846559            6 
 1660000   0.59806176   -4.2684769    884.62245  0.044408757  0.043820908           12 
 1661000   0.58986616   -4.2511166    886.11925  0.044457116    0.0437954           15 
 1662000   0.59270414   -4.2424815    885.11346  0.044379937  0.043769992           10 
 1663000   0.59181347   -4.2375876    887.48429  0.044472053  0.043744768           13 
 1664000    0.5968232   -4.2612432     886.2426  0.044383143  0.043719407           11 
 1665000    0.5958676   -4.2340012    888.80741  0.044484856   0.04369411            7 
 1666000   0.59366365   -4.2564573    887.94605  0.044415069  0.043668725           12 
 1667000   0.58822333   -4.2492199    886.65855  0.044324062  0.043643384           12 
 1668000   0.59305054   -4.2333568    889.06307  0.044417619  0.043618024            9 
 1669000   0.58023276   -4.2334103    890.43827   0.04445967  0.043592779            8 
 1670000   0.57222681   -4.2457783    888.59901  0.044341268  0.043567494           16 
 1671000   0.57890224   -4.2759769    886.44753  0.044207437  0.043542135           10 
 1672000   0.59497877   -4.2546305    885.01104  0.044109402  0.043516775           16 
 1673000   0.58916196   -4.2515075    887.66712  0.044215338  0.043491548           11 
 1674000   0.57599547   -4.2571432    888.05266  0.044208117  0.043466449           15 
 1675000   0.58190088   -4.2485334    889.86852  0.044272065  0.043441431           12 
 1676000   0.58373577   -4.2362519    889.26303  0.044215544  0.043416392           11 
 1677000   0.59156854    -4.271194    886.43106  0.044048453  0.043391313            7 
 1678000   0.57462149   -4.2687217    888.69984  0.044134875    0.0433661           13 
 1679000   0.57845564   -4.2411122    887.56138  0.044052083   0.04334092            7 
 1680000   0.58724801   -4.2657689    887.26298  0.044011061  0.043315794           10 
 1681000   0.58207853    -4.269527    887.93348  0.044018118  0.043290735            8 
 1682000   0.58257264   -4.2616419    889.83336  0.044086076  0.043265572           29 
 1683000   0.57012517   -4.2802352    888.78219  0.044007833  0.043240421            5 
 1684000   0.59178465   -4.2572156    887.49687  0.043918095  0.043215257           12 
 1685000   0.58444086   -4.2660533    889.58684  0.043995393  0.043190176            9 
 1686000   0.59040637   -4.2731577    889.42272  0.043961186  0.043165117            5 
 1687000   0.59167898   -4.2419546    886.52228  0.043791853  0.043140141           21 
 1688000   0.57437942   -4.2833343    889.73773  0.043924651  0.043115196           10 
 1689000   0.58338429   -4.2544726    890.33127  0.043927929  0.043090203            5 
 1690000   0.58157719   -4.2882295    889.23279  0.043847771  0.043065291           14 
 1691000    0.5677116   -4.2712091    892.01054  0.043958729  0.043040396            8 
 1692000   0.57492233   -4.2819687     888.9636  0.043782683  0.043015512            5 
 1693000   0.58010234   -4.2642879    891.90521  0.043901615  0.042990725           19 
 1694000   0.57434272   -4.2712167    889.23947  0.043744563  0.042965907           10 
 1695000   0.56442959   -4.2681953    891.18166  0.043814241  0.042941154           18 
 1696000   0.57119619   -4.2789455    889.56867  0.043709153  0.042916409           10 
 1697000   0.56739872   -4.2593432    890.52081  0.043730151  0.042891584           12 
 1698000   0.57416367   -4.2699768    890.95023  0.043725473   0.04286682           14 
 1699000   0.57046539    -4.262015     892.6315    0.0437822  0.042842108           12 
 1700000   0.56838335   -4.2773265    890.14353  0.043634487  0.042817468            8 
 1701000   0.56186046   -4.2963486    890.24633  0.043613871  0.042792645           11 
 1702000    0.5798343   -4.2674016    890.31864  0.043591786  0.042767901            9 
 1703000   0.56444389   -4.2838292    892.04769  0.043650797  0.042743283           15 
 1704000   0.57242804   -4.2732858    890.90891  0.043569489  0.042718704           11 
 1705000   0.57955075   -4.2673701    891.50316   0.04357298  0.042693996           12 
 1706000   0.57244724   -4.3031084    889.06581  0.043428381  0.042669341           10 
 1707000   0.58162182   -4.2884774    890.91579  0.043493253  0.042644563            5 
 1708000    0.5658281   -4.2660673    892.45473  0.043542873  0.042619775           11 
 1709000   0.57501547   -4.2849289    887.82818  0.043291797  0.042594857           17 
 1710000   0.56988325   -4.2665564    893.08795  0.043522805  0.042570136            9 
 1711000    0.5738524   -4.2829837    891.44892  0.043417539  0.042545486           17 
 1712000   0.56595803   -4.2595348    890.97773  0.043369243  0.042520777           16 
 1713000   0.57899251   -4.2943426    893.68216  0.043475489  0.042496127           12 
 1714000   0.56379827    -4.274907    892.04537  0.043370545  0.042471462           16 
 1715000   0.56684464   -4.2840769    890.99679  0.043294305  0.042446808           11 
 1716000   0.56467335   -4.3143845    891.33378   0.04328544  0.042422128           27 
 1717000   0.57832974   -4.2756512    894.88957  0.043432808  0.042397502           10 
 1718000   0.56701575   -4.3022189    889.88291  0.043164673  0.042372838           21 
 1719000    0.5600577   -4.2920974    891.02111  0.043194741  0.042348164           16 
 1720000   0.56913572   -4.2984752    890.69847  0.043153995  0.042323562           15 
 1721000   0.56054042   -4.3087748    891.74831  0.043179756  0.042298952            9 
 1722000   0.56275881   -4.2813774    892.94908  0.043212789  0.042274329           17 
 1723000   0.56602164   -4.3000346    892.50544  0.043166253  0.042249703            6 
 1724000   0.55890279   -4.2811142    893.03353  0.043166741   0.04222506           20 
 1725000   0.56320267   -4.2936511    892.25194  0.043103958  0.042200331           12 
 1726000    0.5590023   -4.3058836    892.17403  0.043075224  0.042175686           14 
 1727000    0.5658246   -4.3008831    890.63899  0.042976211   0.04215111            5 
 1728000   0.55470012   -4.3049441    890.89836  0.042963848  0.042126396           20 
 1729000   0.56884784   -4.3089291    893.33377   0.04305638  0.042101638            8 
 1730000   0.57678459   -4.3175992    892.32621  0.042982958  0.042076928           11 
 1731000   0.56544271   -4.3050223    890.99385  0.042893985  0.042052123           13 
 1732000   0.56321083   -4.2975956    889.83766   0.04281359  0.042027379           17 
 1733000   0.56855735    -4.304674    891.61488  0.042874345  0.042002817           10 
 1734000   0.56207313   -4.3092245    889.74596  0.042759802  0.041978188           12 
 1735000   0.55583165   -4.3128039    891.08917  0.042799672  0.041953433            9 
 1736000   0.57354245   -4.2920366     893.7052  0.042900595  0.041928858           12 
 1737000    0.5665206    -4.308628    890.46787  0.042720585  0.041904214            7 
 1738000   0.56010902   -4.2898813    891.90997   0.04276515  0.041879539           16 
 1739000   0.56845113   -4.3094309    892.45629  0.042766738  0.041854854            9 
 1740000   0.55830602   -4.3210371     890.2804   0.04263795   0.04183023           16 
 1741000    0.5530777   -4.3097489     893.4802  0.042766619  0.041805776           14 
 1742000    0.5652757   -4.3037596    890.81421  0.042614534  0.041781252            7 
 1743000   0.55485458    -4.305387    892.18121  0.042655441  0.041756649            8 
 1744000   0.55322903   -4.3100233    891.46505  0.042596763  0.041731935           10 
 1745000   0.54794954    -4.307983    890.21257  0.042512539  0.041707128           14 
 1746000   0.55675098   -4.3238064    891.08724  0.042529937  0.041682276            8 
 1747000    0.5628285   -4.3170121    893.14302  0.042603655  0.041657618           10 
 1748000   0.55980196   -4.3229235    890.75178  0.042465283  0.041632958            8 
 1749000   0.54386698   -4.2990482    890.30505  0.042419719   0.04160837           19 
 1750000   0.55690984   -4.3138431    894.02971  0.042572843  0.041583854           10 
 1751000   0.56070131   -4.3151971    893.63009  0.042529511  0.041559364           14 
 1752000   0.55247897   -4.3258213    892.78109  0.042464854  0.041534834           18 
 1753000   0.54999364    -4.321133    892.12716  0.042409544  0.041510407           14 
 1754000   0.55367167   -4.3201174    889.96654  0.042282713  0.041486017            7 
 1755000   0.54951032   -4.3044097     892.4645  0.042377232   0.04146156           27 
 1756000   0.54591343   -4.3160993    892.96643  0.042376918  0.041437081           19 
 1757000   0.54536698   -4.3407969    893.40483  0.042373593  0.041412696            9 
 1758000   0.56336101   -4.3112373    892.28801  0.042296549  0.041388291            9 
 1759000   0.56071114   -4.3289673    894.58467  0.042381309  0.041363885            8 
 1760000   0.56081897   -4.3309026    890.02247  0.042141216  0.041339513           17 
 1761000   0.55953562   -4.3354323     891.8476  0.042203653  0.041315086           17 
 1762000   0.56034671   -4.3213805      892.567  0.042213725  0.041290767            8 
 1763000   0.54511172   -4.3222936    891.77041  0.042152128  0.041266316            6 
 1764000    0.5505511   -4.3405072    892.29251  0.042152896  0.041241862           11 
 1765000   0.55680519   -4.3399567    892.33612  0.042131073  0.041217374            7 
 1766000   0.54583423   -4.3072913    892.52829  0.042116284   0.04119304           10 
 1767000   0.55686599    -4.323989     893.1254  0.042120609  0.041168764           19 
 1768000   0.54798604   -4.3307446    892.03863  0.042045561  0.041144393           14 
 1769000   0.55801513   -4.3325819    893.15689  0.042074472  0.041120071           13 
 1770000   0.55659079   -4.3422316    892.84846   0.04203618   0.04109567           18 
 1771000   0.53982227   -4.3342615    894.46047  0.042088296  0.041071263           21 
 1772000   0.54755397   -4.3369003    892.14176    0.0419555  0.041046836           13 
 1773000   0.53475916   -4.3274306    892.35025  0.041941636  0.041022533           19 
 1774000   0.53887269    -4.347364    890.61705  0.041836577  0.040998276            6 
 1775000   0.55945635   -4.3178705    894.40003  0.041990612  0.040974007           17 
 1776000   0.55003461   -4.3374562    892.36211  0.041871345  0.040949686           38 
 1777000   0.54181518   -4.3381315    893.88229  0.041919072   0.04092548           28 
 1778000   0.54730593   -4.3293035    894.12302  0.041906778  0.040901359            6 
 1779000   0.54070133    -4.327691    893.10606  0.041835584  0.040877208            8 
 1780000    0.5486283    -4.348297    893.52732  0.041831804  0.040852869            8 
 1781000   0.54332658   -4.3361178    894.91626  0.041873304  0.040828674            9 
 1782000   0.53041962   -4.3526771    892.54674  0.041738998    0.0408045           25 
 1783000   0.55253793   -4.3359656    896.08795  0.041881097  0.040780274           12 
 1784000    0.5391874   -4.3376526    896.79727  0.041890754  0.040756057           13 
 1785000   0.55541086   -4.3557148    893.27093  0.041702658  0.040731918           43 
 1786000   0.53665111   -4.3332778    891.91251  0.041615925   0.04070771           22 
 1787000   0.53004041   -4.3563044    889.92783  0.041500085  0.040683423           13 
 1788000   0.52580513   -4.3573149    893.09144  0.041624322  0.040659124           13 
 1789000   0.54462902   -4.3643772     893.0199  0.041597722  0.040634869           27 
 1790000    0.5379172   -4.3565528    892.80655  0.041564551  0.040610623           20 
 1791000   0.52707159   -4.3463184      894.315   0.04161153  0.040586384           13 
 1792000   0.54610646   -4.3523955    893.45023  0.041548095  0.040562132           23 
 1793000   0.53923568   -4.3632289    891.78517  0.041447535  0.040537775           18 
 1794000   0.53741534   -4.3500053    892.48915  0.041457133  0.040513438           13 
 1795000   0.52977141   -4.3716175    893.43737  0.041478058  0.040489077           13 
 1796000   0.54260181    -4.370624    891.95255  0.041386069  0.040464727           30 
 1797000   0.53806496    -4.354509    891.79235  0.041355609  0.040440378           20 
 1798000   0.53738268   -4.3590015    891.36548  0.041312824  0.040416112           53 
 1799000   0.52867814    -4.363425    891.00134  0.041272992  0.040391861           20 
 1800000   0.53066281   -4.3649709    891.80289  0.041287171  0.040367672           19 
 1801000   0.54212075   -4.3391033    894.45743  0.041387074   0.04034352           10 
 1802000     0.528322   -4.3501254    894.33558  0.041358471   0.04031941           15 
 1803000   0.52658161   -4.3510616    893.96656  0.041318477  0.040295372            6 
 1804000   0.52375333   -4.3576463     893.0228  0.041251977  0.040271264           14 
 1805000   0.53816978   -4.3754123    892.70837  0.041214606  0.040246949           12 
 1806000   0.52419408   -4.3600586    892.52294  0.041183229  0.040222715           11 
 1807000   0.53599886   -4.3488935    893.07876  0.041186071  0.040198608           36 
 1808000   0.52305188   -4.3623762    892.65406  0.041143716  0.040174562           21 
 1809000      0.52489   -4.3546039    894.80075  0.041219861  0.040150443           21 
 1810000   0.53519798   -4.3847535    893.95988  0.041158374  0.040126322           25 
 1811000    0.5410939   -4.3728712    893.73805  0.041125439  0.040102228           12 
 1812000   0.52564334   -4.3628357    893.86762  0.041108702  0.040078227            9 
 1813000   0.53444123   -4.3495301    894.91628  0.041134229  0.040054307            6 
 1814000   0.53342385   -4.3771073    892.41231  0.040996523  0.040030321            7 
 1815000   0.52427863   -4.3669635    891.79675  0.040945672  0.040006231           10 
 1816000   0.53111086   -4.3784543    895.00167  0.041070194  0.039982314           17 
 1817000   0.54044528    -4.370353    894.37488  0.041018844  0.039958385           18 
 1818000   0.52486008   -4.3833715    894.37429  0.040996255   0.03993445           12 
 1819000   0.53261337   -4.3621884     895.0323  0.041003862  0.039910445           12 
 1820000   0.52477505   -4.3815745    893.58757  0.040915182  0.039886473           14 
 1821000   0.52796527   -4.3953693    892.87947  0.040860309   0.03986244           12 
 1822000   0.52817806   -4.3784678    891.30256  0.040765759  0.039838408            9 
 1823000   0.52230515   -4.3572987     893.1438  0.040827564  0.039814383           10 
 1824000   0.53199326   -4.3850721    892.83917  0.040791263  0.039790386           15 
 1825000   0.52977618    -4.380929     892.6052  0.040758228  0.039766383           26 
 1826000   0.53182226   -4.3926441    893.76288   0.04078874  0.039742435           36 
 1827000   0.51693024    -4.376298    893.72011  0.040764464  0.039718534           39 
 1828000   0.52760558   -4.3810919    893.60392  0.040736867  0.039694681           15 
 1829000   0.52311388   -4.3740644    894.06875  0.040735773  0.039670847           13 
 1830000   0.52030891   -4.3651517    894.61724   0.04073849  0.039647094           17 
 1831000   0.52846458   -4.3789132    893.43208  0.040662301  0.039623232           11 
 1832000   0.51552067   -4.4018188    895.40516  0.040729856  0.039599524           12 
 1833000   0.51811366   -4.3759665    893.46946  0.040619633  0.039575837           10 
 1834000    0.5245919   -4.3798074    894.90266  0.040662607  0.039552068           13 
 1835000   0.50328771   -4.3708739    895.84969  0.040683455   0.03952831           16 
 1836000    0.5167345    -4.384247     893.6392  0.040560966  0.039504531           10 
 1837000   0.52819585   -4.3955838    893.08365  0.040513684  0.039480694           21 
 1838000    0.5127696   -4.3831342    894.82404  0.040570549  0.039456881           12 
 1839000   0.51872469   -4.3985242    893.71879  0.040498405  0.039433056            8 
 1840000   0.50564825    -4.398811    894.26245  0.040501017  0.039409205           17 
 1841000   0.52500723   -4.3935294    892.63573  0.040405384  0.039385318            9 
 1842000    0.5207351   -4.4091951    893.57645  0.040426007  0.039361483           24 
 1843000   0.51718261   -4.3792957    895.13759  0.040474661  0.039337693           24 
 1844000   0.50822871   -4.3952872     894.2954  0.040414651  0.039313971           14 
 1845000   0.50268033   -4.3931342    893.39085   0.04035189  0.039290206            8 
 1846000   0.52315697   -4.3882984    894.24149  0.040368431  0.039266455            6 
 1847000   0.52017648   -4.4198869    892.32642  0.040260171   0.03924259           17 
 1848000   0.51085781   -4.4099346    892.28352   0.04023645  0.039218761           13 
 1849000    0.5111129    -4.409534    893.10864  0.040251877  0.039194999           17 
 1850000   0.50101699   -4.3804903    893.13862  0.040231469  0.039171305           15 
 1851000   0.50384292   -4.3899603    894.49864  0.040270963  0.039147674           13 
 1852000   0.51635174   -4.4105463    893.86563  0.040220736  0.039124028           16 
 1853000   0.52019709   -4.3881085    894.13051  0.040210942  0.039100353           22 
 1854000   0.50128704   -4.4043779     894.5125  0.040206423  0.039076802           28 
 1855000   0.50473426   -4.4003263    895.52853  0.040230392   0.03905316           21 
 1856000   0.51601865   -4.4127615    891.55282  0.040030209  0.039029449           11 
 1857000   0.51028496   -4.3972427    894.43814  0.040138132   0.03900581           12 
 1858000     0.511746    -4.420391    895.39856  0.040159605  0.038982193           18 
 1859000   0.52164205   -4.4193903     894.9205  0.040116572  0.038958698           27 
 1860000   0.51299207   -4.4099439    893.54264  0.040033272  0.038935059           14 
 1861000   0.51875211   -4.4189473    892.61656  0.039970292  0.038911369           14 
 1862000   0.50364985   -4.4077029    894.93665   0.04005266  0.038887784           30 
 1863000   0.51109556   -4.4248251    893.59952  0.039971351  0.038864203           19 
 1864000   0.49745968   -4.4029792    894.66365  0.039997481  0.038840598            7 
 1865000   0.50915586   -4.4050081     893.1499  0.039908396  0.038817045           22 
 1866000   0.50896862   -4.3874791    895.75078  0.040003161  0.038793556           18 
 1867000   0.50764012   -4.4013445    894.55384  0.039928309  0.038770087           10 
 1868000   0.50421456    -4.411063    893.53551  0.039861506   0.03874657           23 
 1869000    0.5119335   -4.3938309    893.21547  0.039825908  0.038723003           22 
 1870000   0.50652375    -4.418039    894.26138   0.03985122  0.038699429           11 
 1871000   0.51172212   -4.4145016    894.08901  0.039822243  0.038675904           22 
 1872000   0.51078686   -4.4082541    894.09254  0.039801128  0.038652298           23 
 1873000   0.50114841   -4.4364226    895.48501  0.039841832  0.038628727           23 
 1874000   0.49819849   -4.4197306    892.39893  0.039683339  0.038605173           11 
 1875000   0.50990601   -4.4208721    893.75925  0.039722633  0.038581612           43 
 1876000   0.50892471   -4.4199682    894.72908   0.03974454  0.038558124           17 
 1877000   0.49630976   -4.4124705    894.99025   0.03973496  0.038534656           30 
 1878000   0.50706798   -4.4078844    893.85085  0.039663243  0.038511188           23 
 1879000   0.50085477    -4.434103    891.13354  0.039521622  0.038487724           24 
 1880000   0.50290765   -4.4239666    894.66171  0.039656991  0.038464288           18 
 1881000   0.50424589   -4.4174155    893.92436  0.039603241  0.038440826           63 
 1882000   0.49869086   -4.4321151    894.28299  0.039598078  0.038417339           31 
 1883000   0.49086597   -4.4420062    891.93873  0.039473302   0.03839386           52 
 1884000   0.48832151   -4.4269541    895.55541  0.039612324  0.038370409           90 
 1885000   0.50747149   -4.4325901    895.78965  0.039601664   0.03834696           24 
 1886000   0.50924906   -4.4272129    893.23698  0.039467877  0.038323502           43 
 1887000   0.48296726   -4.4199081     895.0135  0.039525415  0.038300151           33 
 1888000   0.49470631   -4.4340847    894.97762  0.039502896  0.038276883           71 
 1889000   0.50032274   -4.4324753    893.14495  0.039401136  0.038253522           26 
 1890000   0.50020633   -4.4308759    891.16368  0.039292931  0.038230221           25 
 1891000   0.50736438   -4.4237478    894.75887  0.039430587   0.03820697           18 
 1892000   0.50403163   -4.4376806    894.06868  0.039379346  0.038183678           25 
 1893000   0.48914688   -4.4444657    894.16947  0.039362981  0.038160287            9 
 1894000   0.49995237   -4.4216389    895.72888  0.039410809  0.038136912           16 
 1895000   0.48874154   -4.4385482    896.25935   0.03941334  0.038113596           12 
 1896000   0.49690775   -4.4238138    895.32441   0.03935146  0.038090451            8 
 1897000   0.50541793   -4.4261627    893.35708  0.039244293  0.038067205           13 
 1898000   0.49816299   -4.4394139    894.16243  0.039258976  0.038043911           13 
 1899000   0.48624758   -4.4494104    893.18912  0.039195591  0.038020707           35 
 1900000   0.47914998   -4.4393927    892.81126  0.039158388  0.037997412           15 
 1901000   0.48904621   -4.4520594    892.81928  0.039138141   0.03797411           21 
 1902000   0.50828804   -4.4384805    892.83275  0.039118154  0.037950901           19 
 1903000   0.49884761   -4.4516443    894.58033  0.039174125  0.037927705           21 
 1904000   0.49003489   -4.4401162    893.94312  0.039125662  0.037904415           45 
 1905000   0.49951751   -4.4417488    895.56263  0.039175968  0.037881186           15 
 1906000   0.48842594     -4.43213     893.1762  0.039051076    0.0378579           31 
 1907000   0.48961281   -4.4378242    893.80771  0.039058194  0.037834637           44 
 1908000   0.50370093   -4.4486536    892.28243  0.038971106  0.037811323           40 
 1909000   0.48586059   -4.4741397    891.99312  0.038938062  0.037788035           28 
 1910000    0.4754455   -4.4267053    892.82691  0.038954054  0.037764863           28 
 1911000   0.48315341    -4.451729    892.17446  0.038905218  0.037741721           20 
 1912000   0.47413125    -4.441895    895.01874  0.039008836  0.037718634           12 
 1913000   0.48428233   -4.4456056    893.81694  0.038936092  0.037695518           13 
 1914000   0.49429982    -4.460343    893.32727   0.03889443  0.037672408           26 
 1915000   0.49069287   -4.4513666    895.03651  0.038948499  0.037649275           17 
 1916000   0.48868519   -4.4649771    894.64674  0.038911219  0.037626152           14 
 1917000   0.49421363   -4.4660124    893.94949  0.038860611  0.037603128           36 
 1918000   0.49663497   -4.4539859    895.47757  0.038906742  0.037580111           23 
 1919000   0.48242467   -4.4484234     894.4026  0.038839786  0.037557103           23 
 1920000   0.49564324   -4.4662054    894.12845  0.038807658  0.037534025           25 
 1921000   0.48473324   -4.4602497    893.03693  0.038740106  0.037510899           23 
 1922000   0.48002244   -4.4753653    894.33014  0.038776021  0.037487878           33 
 1923000   0.47469327   -4.4562583    894.46057  0.038761508  0.037464944           56 
 1924000   0.48387989   -4.4589607    893.98984  0.038720974  0.037441989           77 
 1925000   0.47118598   -4.4591327    894.64247  0.038729111  0.037419041           58 
 1926000   0.46923788   -4.4711537    894.72469   0.03871256  0.037396056           50 
 1927000    0.4864589   -4.4805822    893.39302  0.038634882  0.037373128           32 
 1928000   0.49356684   -4.4690742     894.8756  0.038678925  0.037350218           38 
 1929000   0.47313425   -4.4611288    895.99588   0.03870727  0.037327292           56 
 1930000   0.49069667   -4.4798192    895.57152  0.038668891  0.037304426           30 
 1931000   0.47413439   -4.4678303    894.41728  0.038599054  0.037281559           18 
 1932000   0.48195567   -4.4766317     895.7275  0.038635589  0.037258703           30 
 1933000   0.48896662   -4.4547602    892.64048  0.038482518  0.037235885           56 
 1934000   0.48061027   -4.4640217    894.92148  0.038560905   0.03721299           23 
 1935000   0.48464179   -4.4645526    893.04307   0.03846008  0.037190067           23 
 1936000   0.47807988   -4.4760112    895.54128  0.038547748  0.037167168           28 
 1937000   0.48489604   -4.4652248    893.34436  0.038433331  0.037144234           44 
 1938000   0.47098053   -4.4689616    894.57838  0.038466563  0.037121343           45 
 1939000   0.47797375   -4.4673007    894.67448  0.038450854   0.03709848           40 
 1940000   0.47593365   -4.4508728    896.40871  0.038505529  0.037075638           46 
 1941000   0.47623521   -4.4552797    891.23005  0.038263354  0.037052854           51 
 1942000   0.47221489   -4.4760685    894.52056  0.038384851  0.037030049           20 
 1943000   0.47265991   -4.4543837    894.90937  0.038381771  0.037007352           25 
 1944000     0.473803   -4.4704055    895.29726  0.038378655  0.036984737           15 
 1945000   0.47461542   -4.4830261    894.37442  0.038319384   0.03696208           10 
 1946000   0.47928103   -4.4736412    894.57897  0.038308452  0.036939394           13 
 1947000   0.47439295   -4.4786741    894.04388  0.038265874  0.036916721           20 
 1948000   0.47858108   -4.4678144    894.92888   0.03828409  0.036894056           56 
 1949000   0.47606069   -4.4551837     893.3404  0.038196528  0.036871414           16 
 1950000   0.47611005   -4.4857655    895.24477  0.038258324  0.036848865           22 
 1951000   0.47841199   -4.4876543    894.29662  0.038198216  0.036826243           32 
 1952000   0.46962429   -4.4752838      894.058   0.03816846  0.036803639           14 
 1953000   0.48269871   -4.4901423    894.26608  0.038157795  0.036780973           18 
 1954000   0.46606661   -4.4836956    896.00646   0.03821249  0.036758293           40 
 1955000   0.46826104   -4.4662959    895.01554  0.038150705  0.036735611           20 
 1956000    0.4775779   -4.4793399    893.15206  0.038051809  0.036712955           29 
 1957000   0.46491103   -4.4783692    894.68334   0.03809757  0.036690259           38 
 1958000   0.46806901   -4.4870777    894.59228  0.038074237  0.036667608           53 
 1959000   0.48368834   -4.4808333    895.40913  0.038089549  0.036645017           67 
 1960000   0.47455169   -4.4817321    894.65993  0.038038262  0.036622351           75 
 1961000   0.47079599   -4.4744218    893.57866  0.037972916  0.036599688          115 
 1962000   0.47532177   -4.4884087    894.79395   0.03800518  0.036577068           63 
 1963000   0.47110805   -4.4900282    892.34021  0.037881653  0.036554405           33 
 1964000   0.47475733   -4.4996078    891.70452  0.037835392  0.036531724           88 
 1965000   0.46110147   -4.4942376    895.00797  0.037956233  0.036509012          133 
 1966000   0.46428589    -4.490484    892.16966  0.037816618  0.036486353           57 
 1967000   0.45830609   -4.4967558    893.83347  0.037867881  0.036463672           23 
 1968000   0.47436545   -4.4876185     894.8382  0.037891184  0.036441026           53 
 1969000   0.46565599   -4.4920311    892.42003  0.037769596  0.036418393           76 
 1970000   0.46123076   -4.4847094    891.71494  0.037720598  0.036395748           43 
 1971000   0.47040477   -4.4997236    893.44778  0.037774724  0.036373103          100 
 1972000   0.47028594   -4.4999378    892.17966   0.03770198   0.03635047           75 
 1973000   0.46710634   -4.5117161    893.51152  0.037739125  0.036327797          132 
 1974000   0.47270102   -4.4997104    891.30815   0.03762699  0.036305143           29 
 1975000   0.45493628   -4.5050561      892.627  0.037663587  0.036282478           49 
 1976000   0.46064063   -4.4949697    892.39711  0.037634831  0.036259882           45 
 1977000    0.4669551   -4.5030904    892.04636   0.03760101  0.036237246           44 
 1978000   0.46257528    -4.516029    892.66843  0.037608208  0.036214573          101 
 1979000   0.46474351   -4.4902215    894.87057  0.037681934  0.036191945           62 
 1980000   0.45741479   -4.5110676    891.46734  0.037519669  0.036169339           32 
 1981000   0.45657337   -4.5105873    892.70855  0.037552943  0.036146708           43 
 1982000   0.46788682   -4.5100092    892.34433  0.037518682  0.036124153           66 
 1983000   0.45816157   -4.5154297    892.14183  0.037491252  0.036101605           44 
 1984000   0.45444985   -4.5037383    890.88338  0.037419497  0.036079071           45 
 1985000   0.46243752   -4.5043951    891.99825   0.03744745   0.03605663           19 
 1986000   0.45221595   -4.5084943    892.88691  0.037465883  0.036034127           65 
 1987000   0.45822527   -4.5001559    893.85016  0.037487425  0.036011677          116 
 1988000   0.46310174   -4.5029787    892.83149  0.037425867  0.035989222           44 
 1989000   0.45242525   -4.5309225    892.54379  0.037394997  0.035966729           91 
 1990000     0.471437   -4.5271549    890.71195  0.037299496  0.035944174           86 
 1991000   0.47071924   -4.5209528    892.66691  0.037362586  0.035921588          106 
 1992000   0.43765268   -4.5189433    890.30227  0.037244908  0.035899021           96 
 1993000   0.45328605     -4.53098    892.19976   0.03730556  0.035876505           80 
 1994000   0.45825097   -4.5190386    892.57099  0.037302365  0.035853988           92 
 1995000   0.45399311   -4.5060717    892.59114  0.037284509  0.035831586           46 
 1996000   0.45772909   -4.5286728    891.06775  0.037202227  0.035809139           84 
 1997000   0.44909707   -4.5134768    891.46196  0.037200048    0.0357867           53 
 1998000   0.46308901   -4.5136897    891.13679  0.037167868  0.035764302           76 
 1999000    0.4582531   -4.5187965    890.93948  0.037141049   0.03574186          130 
 2000000   0.44543797   -4.5342439    891.42329  0.037142637  0.035719398           90 
 2001000   0.46583712   -4.5308963    891.11307  0.037111155   0.03569696           55 
 2002000    0.4488023   -4.5231527    890.86746  0.037082395  0.035674503           98 
 2003000   0.45034171   -4.5194667    891.98245   0.03711027  0.035652073           59 
 2004000   0.45072339   -4.5372947    891.88365  0.037087644  0.035629689           48 
 2005000   0.45753799   -4.5084613    892.59996  0.037098918  0.035607349           42 
 2006000   0.45176516   -4.5361447    894.16636  0.037145495  0.035585047           26 
 2007000   0.45060719   -4.5208923    891.18352  0.037003136  0.035562748           28 
 2008000   0.45185936   -4.5308311     891.2915  0.036989189  0.035540455           77 
 2009000   0.45336448   -4.5349591    890.70665  0.036946518   0.03551812           65 
 2010000   0.45005201   -4.5301936    892.99508  0.037023013  0.035495877           59 
 2011000   0.45150101   -4.5328812    890.92292  0.036918735  0.035473628          105 
 2012000   0.45418512     -4.52525     892.6912  0.036973625  0.035451407           72 
Loop time of 4950.75 on 48 procs for 2000000 steps with 4000 atoms

Performance: 69807.578 tau/day, 403.979 timesteps/s
99.4% CPU use with 48 MPI tasks x no OpenMP threads

MPI task timing breakdown:
Section |  min time  |  avg time  |  max time  |%varavg| %total
---------------------------------------------------------------
Pair    | 329.1      | 348.39     | 376.43     |  59.9 |  7.04
Neigh   | 33.529     | 34.632     | 36.111     |  12.1 |  0.70
Comm    | 311.52     | 340.03     | 358.24     |  66.3 |  6.87
Output  | 4.2839     | 4.2855     | 4.3159     |   0.2 |  0.09
Modify  | 4167.9     | 4177       | 4186.8     |   7.2 | 84.37
Other   |            | 46.4       |            |       |  0.94

Nlocal:        83.3333 ave          89 max          77 min
Histogram: 2 2 5 5 2 13 9 5 2 3
Nghost:        2249.85 ave        2274 max        2230 min
Histogram: 2 3 7 9 11 2 5 5 2 2
Neighs:        15070.1 ave       16589 max       13265 min
Histogram: 1 2 4 8 2 13 6 5 6 1
FullNghs:      30142.1 ave       32668 max       27700 min
Histogram: 2 3 6 3 7 11 10 1 3 2

Total # of neighbors = 1446823
Ave neighs/atom = 361.70575
Neighbor list builds = 108178
Dangerous builds = 1

#clear
#
#next RN
#
#jump SELF
Total wall time: 1:22:34
